sxx,syy,szz,sxy,sxz,syz,smises
9.380770329918591832e-02,5.730459742596356598e-01,4.617528058114943601e-01,3.397090125895798479e-02,-1.141117047796665201e-01,1.528449795073950727e-02,4.816086590290069580e-01
9.348070546815434589e-02,4.877606040838901591e-01,5.335193125869899244e-01,4.814854961101723736e-03,-8.565972660359320867e-02,-3.086486241710539435e-03,4.446381926536560059e-01
3.000130949569908556e-01,6.056421109221340471e-01,6.077735627098351801e-01,-3.108365559387869879e-03,-7.132384479678499645e-02,-1.774086553004765917e-03,3.307034373283386230e-01
2.844852788497700402e-01,7.911276606306636427e-01,6.631403726436276846e-01,2.796638307613986268e-02,-9.302192766203892793e-02,-5.977409035606048859e-02,4.972402751445770264e-01
1.491142581637631137e-01,4.493811880428104644e-01,3.988777882029443944e-01,1.341307392237925042e-02,-2.045185165515612524e-01,4.170846435817760628e-02,4.569335877895355225e-01
3.466885417528053903e-01,8.073932856455704465e-01,5.775579539075896829e-01,-3.408012236598229744e-02,-1.758138438386123714e-01,8.132685844968504107e-02,5.246379375457763672e-01
5.557086156882483641e-01,4.511796269483053234e-01,5.116803972230969944e-01,-3.992824818041778440e-02,-2.999943046957853632e-02,-4.837200597041241973e-02,1.508801281452178955e-01
4.983736746772257087e-01,3.968981424310907280e-01,4.559634349559572031e-01,-3.348811551492116012e-02,-1.805914100798559907e-02,-5.909229195556712361e-02,1.503687649965286255e-01
5.432640058246978043e-01,4.189439671749071170e-01,4.840616534466444243e-01,-6.641176980108690758e-03,-1.099237845890249643e-02,-2.667555942671401628e-02,1.192892342805862427e-01
5.070600640147205906e-01,3.749585479427898216e-01,3.930390756417981302e-01,-9.881473530771022612e-03,-4.883847676995675853e-03,-4.765936267995098813e-02,1.502264291048049927e-01
4.671847601536056604e-01,3.534221647720030002e-01,3.776217640603941050e-01,-1.152256650407997886e-02,-6.670583714000358731e-03,-4.925719086874429109e-02,1.363273710012435913e-01
4.867123678734298076e-01,4.173729797851242762e-01,4.127556086579827754e-01,-2.140610582905325826e-02,-9.072885760782986239e-03,-2.571430030730740765e-02,9.356670081615447998e-02
4.401741500186515110e-01,3.296820314128479645e-01,3.731865505181622411e-01,-6.852228506657208514e-03,-1.366415969297579518e-02,-2.431821144443139723e-02,1.084866747260093689e-01
3.810416700767485509e-01,3.273113388526012191e-01,4.102000351620023189e-01,4.004658252347606529e-02,2.665132576389177277e-02,-2.652759580279455062e-02,1.198209226131439209e-01
4.520795336241701379e-01,5.201968076958418674e-01,4.294534178210796527e-01,6.425690468972098529e-03,-2.127747964690579127e-02,5.818592933616379553e-03,9.097672253847122192e-02
3.527084029448484537e-01,3.424352129192838046e-01,3.420476880022062516e-01,5.782307833923810286e-02,5.291361783626093163e-02,-6.330444196432609416e-02,1.748202145099639893e-01
3.834683352133860801e-01,3.029536540684551471e-01,3.787644671680706066e-01,4.195906821106856061e-02,4.397674702418914033e-02,-4.892194658033496846e-02,1.561718136072158813e-01
4.016290941486736488e-01,4.087022415352006832e-01,4.146425266799114162e-01,5.572115569372544652e-02,5.941670100783282005e-02,-3.943480650868587400e-02,1.571566760540008545e-01
3.705225734525746661e-01,3.289033681030793521e-01,4.061738782812069348e-01,4.111387807898929381e-02,3.151930996126415391e-02,-3.148394476772534839e-02,1.245476752519607544e-01
4.958683497367996629e-01,3.808503994619508171e-01,4.922971230367317874e-01,7.059385624582051322e-02,5.539349207425822708e-02,-7.030110486846163909e-02,2.276261299848556519e-01
4.129900394972308986e-01,4.226680728280522437e-01,4.394261185877991194e-01,3.814027460485176681e-03,4.085185147076694431e-03,-3.986897194857959292e-03,2.603985555469989777e-02
4.562864509506798227e-01,4.560410742310137544e-01,4.871932756223722460e-01,4.939156085615603597e-02,4.082185590746698067e-02,-3.812619678732283995e-02,1.328214854001998901e-01
2.442626750443295802e-01,3.328752218113483208e-01,3.471872765489486534e-01,5.684180224814034538e-02,1.215410748616754105e-01,-9.105941970519641770e-02,2.970023155212402344e-01
4.580220053620401854e-01,4.171631028396748375e-01,4.751929578003181165e-01,2.467752852297186439e-02,1.965437393732398508e-02,-2.048308927707117796e-02,8.312865346670150757e-02
4.598235800482026181e-01,4.168114275472439290e-01,4.114544254452437433e-01,4.025967521611578670e-02,3.580943811926622783e-02,-6.434911558426086031e-02,1.524501740932464600e-01
3.915009434659864618e-01,3.355491226816832984e-01,4.009676369094098414e-01,4.892033306056765840e-02,4.119894387466700725e-02,-3.949514959310605755e-02,1.438789814710617065e-01
4.001458256615104681e-01,3.572491448285045612e-01,3.794458963660145012e-01,2.494208713412069539e-02,2.395480477068627143e-02,-2.837650571211812467e-02,8.593109995126724243e-02
4.089790512540784628e-01,3.333450863734730985e-01,3.517536999366824291e-01,3.740700591059046426e-02,3.857735296394672331e-02,-4.776304482203018453e-02,1.420333534479141235e-01
4.770974161774512168e-01,3.987755967436177329e-01,4.594590247172044006e-01,3.549568016714001184e-02,4.854036070871870640e-02,-4.186842565575987080e-02,1.455031782388687134e-01
4.053632733084095441e-01,4.930461643384688175e-01,3.768083318188854558e-01,-6.825293282368066934e-03,7.961867351002251125e-02,3.769229776891205690e-03,1.738022714853286743e-01
2.420144630261093499e-01,3.908806403367255378e-01,2.061527200345292521e-01,-2.126708948591675072e-02,1.324702673343808590e-01,2.435797353103509241e-02,2.908052802085876465e-01
3.592501862015644587e-01,5.111190469411023285e-01,4.277797239619788860e-01,-2.742089906611329484e-03,8.528384745778949672e-02,1.513350654334842497e-02,1.997062265872955322e-01
3.631698688857616375e-01,4.569887845168528751e-01,5.068725980565318423e-01,1.105689689283853583e-02,-2.438469755006597139e-03,7.268771401697244304e-03,1.285050064325332642e-01
3.534769382769225032e-01,5.338076128779912777e-01,4.936735301642559137e-01,1.654941755061176611e-03,2.424787330300246305e-02,4.460114813791712235e-03,1.694823354482650757e-01
3.303763335451575522e-01,4.878693412812131758e-01,4.278552631942135198e-01,-1.061698125776204711e-02,1.240781312240577111e-01,2.178604708800392642e-02,2.586544752120971680e-01
3.759959112585945507e-01,5.027537278907611151e-01,3.141053456162712365e-01,2.142497495724582715e-02,1.150253808438382874e-01,-1.414992782399850969e-02,2.634641528129577637e-01
2.983261592993896594e-01,5.515913772046405761e-01,4.335895603998086156e-01,-9.338644784963573420e-03,7.680693073504279988e-02,-2.383917261833603737e-02,2.604734301567077637e-01
3.728027549466643165e-01,5.046448065385517046e-01,3.597205114619407285e-01,1.944710508334695706e-02,1.679383364024551739e-01,-2.965280254339997326e-02,3.281166851520538330e-01
4.596772772102981075e-01,3.740535408569145570e-01,3.657470939408727362e-01,5.465561728907441207e-03,-4.099876941371122241e-03,2.021961924188703241e-02,9.735601395368576050e-02
4.767402075287648922e-01,4.082966663690617004e-01,3.970697821776078551e-01,3.264997212003974657e-03,-1.839141940969799775e-03,4.936679531252680109e-03,7.545998692512512207e-02
4.508244405188093218e-01,3.835227651570429774e-01,3.438158081734151161e-01,6.991167555279730571e-03,-2.376739986969310207e-03,1.878268133113204438e-02,1.000022292137145996e-01
3.351165464743788847e-01,4.695085504325217651e-01,5.539764129103567081e-01,-9.761946962092375724e-02,-3.974084086064833682e-02,9.644793006434032590e-03,2.648652195930480957e-01
4.214575250879191159e-01,4.492067069036758120e-01,1.288538339837081437e-01,-1.339650958483171866e-02,4.125499123905026350e-02,2.850853456387662105e-02,3.202951550483703613e-01
5.312249453722760473e-01,5.906562067427202356e-01,7.301343681120171514e-01,-1.292248952973659715e-01,-1.051332269674537566e-03,-1.899253949896265170e-02,2.871555089950561523e-01
3.970572635768788161e-01,4.365323662825600914e-01,4.020343416348482468e-01,3.230237350639722504e-03,2.193479932981166197e-03,-4.511487253407852650e-03,3.864430636167526245e-02
2.748516002407979109e-01,4.848750012823470623e-01,6.852423134255467563e-01,-1.522986299983161429e-01,-8.317126424994913947e-02,-5.814771860033690685e-05,4.654843807220458984e-01
2.435298190913470773e-01,3.561305291324715072e-01,5.087682457606734765e-01,-1.804947248974052842e-01,-5.863408093637391405e-02,-6.178264219268485985e-02,4.155291616916656494e-01
5.622299094463587554e-01,3.283720205356098765e-01,4.725361055943130828e-01,-2.939008297582362816e-02,1.860224796884432305e-02,-9.869626525548652607e-02,2.731505334377288818e-01
4.693598245806481772e-01,3.251224956262652177e-01,3.761005664688198968e-01,4.583198703570124169e-03,2.509922042169910293e-03,-6.744326421157849361e-02,1.725628226995468140e-01
5.528277140214152841e-01,4.251562297361271558e-01,4.598846818656124880e-01,2.230880847442303500e-02,1.410708552778984666e-02,-8.740185478959155985e-02,1.951398700475692749e-01
5.023580721337641553e-01,3.215520320666854226e-01,4.447982666924482076e-01,6.148528345865467842e-02,3.397262316349549532e-02,-6.731153222273499048e-02,2.323640733957290649e-01
5.720601503762094975e-01,4.123437259411859013e-01,5.223919040349588316e-01,3.485313899958802919e-02,1.919951469078631789e-02,-5.258792292750487374e-02,1.819065511226654053e-01
5.397779285362592772e-01,3.821952140700725087e-01,4.694181376825818375e-01,3.278002832164017555e-02,8.016592207618671723e-03,-5.363291872091918017e-02,1.753316372632980347e-01
5.315968447118548657e-01,3.684758888499817253e-01,4.167357927750615643e-01,-4.745089547206625576e-03,6.470867830832495622e-03,-6.664937718679474210e-02,1.859700083732604980e-01
3.839973831115390257e-01,3.765884711008606889e-01,2.917886794601368683e-01,2.405623988700752308e-02,4.989392456296080219e-02,-4.809036859062376656e-02,1.549727022647857666e-01
4.970582922029258555e-01,4.157629556832045381e-01,3.599205038778138244e-01,1.562918414605001319e-02,4.390445176547026068e-02,-5.215794407355718587e-02,1.701294034719467163e-01
5.570718281756025236e-01,5.081155827876555620e-01,4.464338328486791574e-01,2.250766881530616090e-02,3.886671651213319256e-02,-7.394433483667881002e-02,1.779775321483612061e-01
3.471431693231763482e-01,2.674173986479411180e-01,1.074125871726011872e-01,4.177801647552140812e-02,5.217721160940926722e-02,-1.451264809178951232e-01,3.482857048511505127e-01
4.689185487119488238e-01,2.613862982847919847e-01,4.736287947197800330e-01,4.054498617498617646e-02,-1.075951395987885528e-02,3.443402277497035341e-02,2.300118356943130493e-01
4.458514468018550669e-01,4.715549827527545923e-01,3.752247330080105692e-01,2.923827496724144825e-02,4.503630341503227219e-02,-6.944096683963925376e-02,1.748706400394439697e-01
3.795483060431266709e-01,4.191699770424583971e-01,2.351172287440271846e-01,4.547649596781831727e-02,8.068931780191467007e-02,-7.555514454708418814e-02,2.664867341518402100e-01
4.354230456706792429e-01,5.002857429959407520e-01,4.734295771952797827e-01,-2.992070222636732807e-02,5.811965962169645533e-02,2.278906762568970804e-02,1.325289160013198853e-01
4.640113608708277826e-01,3.352309932541128745e-01,4.447228799654044384e-01,2.160773416249705398e-02,-1.899322354428236229e-02,4.796436498816250560e-02,1.544574499130249023e-01
4.596724838360539689e-01,4.959411030289819777e-01,4.328373873785412163e-01,-2.625334170747389492e-02,4.727181477019817141e-02,2.459018057946006641e-02,1.165951341390609741e-01
3.144352939391832358e-01,4.184577998754505090e-01,2.764822667381513499e-01,-6.318779281169176198e-02,9.127007353054267247e-02,6.268475168750653470e-02,2.548842728137969971e-01
4.745972505303224787e-01,4.084568572122420083e-01,4.389983651444542834e-01,2.942643324708753630e-02,-3.794465032851994379e-02,2.148182585431720679e-02,1.076515167951583862e-01
4.702858722520426027e-01,5.006782641152799362e-01,4.933322362410903494e-01,-5.601875601982916203e-02,4.151416223234311031e-02,5.755769199103544925e-02,1.589894443750381470e-01
4.250379972417138164e-01,4.340177337780078415e-01,4.036589168383129533e-01,-3.248556177297556857e-02,4.672333050663363130e-02,3.323224280951704579e-02,1.172943711280822754e-01
3.542158513657884811e-01,4.057589881777571850e-01,3.369231729488207372e-01,-7.924129884004464663e-02,6.717948264696399496e-02,8.827305315593651780e-02,2.441316097974777222e-01
3.203282118609863671e-01,4.047771155959697387e-01,6.019535146994023922e-01,1.122125477228132356e-01,-2.665941537638816510e-03,3.308442734274118224e-02,3.220892846584320068e-01
3.737022610572109382e-01,4.065475811333988942e-01,5.302251195666979333e-01,1.247324594328730052e-01,-6.390687387056800950e-02,2.017773584342251111e-02,2.838757336139678955e-01
4.505662418373013733e-01,4.150637595939848934e-01,4.136067415768969746e-01,-1.964443052839812132e-03,1.840246621496702002e-03,3.385260138813910090e-04,3.655622154474258423e-02
4.858913132968696313e-01,4.630878160462953419e-01,5.813046854142176478e-01,7.006169859519420506e-02,1.210855281569378321e-03,5.707154111555266633e-03,1.631793677806854248e-01
4.286193894228016998e-01,4.193344399532993871e-01,5.165147942214268761e-01,7.252068268016344244e-02,-1.604435185744299691e-02,-3.159305138399380120e-04,1.586764901876449585e-01
2.994711582002212436e-01,3.457241983959922771e-01,4.492600110909322764e-01,5.900191771013818531e-02,-5.028558724396148781e-03,9.037144282952025084e-03,1.685597896575927734e-01
3.032260022894532892e-01,3.542122536907243990e-01,4.547210204843895598e-01,5.510757736549409119e-02,-1.095676967376389525e-02,1.179753828163754119e-02,1.664764434099197388e-01
3.623327419307701969e-01,4.577211792548753211e-01,5.079701563846081847e-01,7.819112320478407985e-02,-8.086628989014146840e-03,1.438555009499227141e-02,1.886150985956192017e-01
3.652850142893751539e-01,4.174001980109942611e-01,5.308506255546736607e-01,4.716257743233050193e-02,-1.961160735237566996e-02,2.664323362922186786e-02,1.773579418659210205e-01
4.883741603886860294e-01,4.399412004092228545e-01,3.379616712989496619e-01,-2.244383862899389237e-02,3.567830559160614645e-02,6.111852343228896256e-02,1.849896460771560669e-01
4.236569853157629018e-01,3.540910873005991832e-01,3.258242565473865593e-01,-1.821418888940151692e-02,2.150628886211324725e-02,4.087033233649802616e-02,1.224696636199951172e-01
4.266841311063285236e-01,3.641292359624573871e-01,3.351456143855745529e-01,-1.786500068935360785e-02,1.721714659240034667e-02,4.687126806509632482e-02,1.224897727370262146e-01
4.894155988243616973e-01,3.484764401181521531e-01,3.517839738514141334e-01,-3.282321928472175382e-02,4.018752747358257660e-02,9.248359944434070279e-02,2.305330336093902588e-01
4.861949965945891461e-01,4.046558898976256868e-01,3.654551295033695024e-01,-3.229945407840921490e-02,3.311749898475124798e-02,4.256453487878691933e-02,1.524368971586227417e-01
5.322425673397105372e-01,4.561519808038972945e-01,4.752298858434952922e-01,-1.435645525531299184e-02,1.816379713551330780e-02,4.378523628541368395e-02,1.098254472017288208e-01
4.133599598590522728e-01,4.678087764183311292e-01,4.130921711796285423e-01,3.533935103246638437e-03,3.487425192252501405e-03,-3.856300011680602671e-03,5.565870925784111023e-02
5.190184523396720317e-01,4.196513123490351882e-01,4.393126878011724412e-01,-1.990394735003635576e-02,1.595344954390131437e-02,5.720663393697401899e-02,1.416916996240615845e-01
5.203744930063546326e-01,6.108117875788592332e-01,3.532315530909538870e-01,8.980160084137180782e-03,-6.507048476447489793e-02,-3.802735867909849687e-03,2.534155547618865967e-01
4.557922244779384346e-01,5.232461092992902740e-01,2.328421211197564955e-01,9.597184429669201183e-03,-7.267805738704130603e-02,5.522835146866566375e-02,3.075203299522399902e-01
4.989139080138287885e-01,5.084515035110819259e-01,3.302814317248890519e-01,3.709862425156595228e-02,-9.738995862118884905e-02,5.257500421919705097e-02,2.664806842803955078e-01
4.397258171330776788e-01,4.287606813728309096e-01,4.302024003571022215e-01,-2.529911926361788198e-03,3.330055319521040003e-03,-1.053713278216818466e-03,1.273986697196960449e-02
3.618141559782315775e-01,4.224015137013882315e-01,2.289061005178049668e-01,2.011873026174914453e-02,-8.831869839042066905e-02,6.300108732584795701e-02,2.567298412322998047e-01
3.856119568484732696e-01,4.261781693629246304e-01,2.717945674681150892e-01,2.029765102845574459e-02,-6.152444902106044694e-02,4.230868472898868110e-02,1.928185373544692993e-01
4.052098998679408148e-01,4.307162145204461723e-01,1.680315465044196488e-01,1.186049173623569125e-02,-7.600907057629387176e-02,4.643551747042302252e-02,2.952568531036376953e-01
2.655100744188172990e-01,3.768493622320340242e-01,1.462218473545441877e-01,4.299731892111757076e-02,1.374711012124230358e-01,-4.512402876600228596e-02,3.290248215198516846e-01
2.593629267960089746e-01,4.205869757649619012e-01,2.476639788794828267e-01,1.814109037287527787e-02,1.268458354616404105e-01,-1.967715307236324665e-02,2.800619304180145264e-01
4.568374066414080947e-01,5.574415741361029575e-01,4.777302926238273795e-01,4.175481671743589557e-02,6.356643850768019244e-02,-3.354427160893432014e-02,1.708330363035202026e-01
5.147131938928581896e-01,5.779300747483505640e-01,4.340818584947657710e-01,2.859895275093150141e-02,7.521045809437859608e-02,-2.764194528243901078e-02,1.931600868701934814e-01
4.807072888895561058e-01,5.774009767791543624e-01,4.806830863201427828e-01,1.401542875461484795e-02,7.138511141214666511e-02,-1.264878953849360270e-02,1.603395938873291016e-01
4.495198382110833779e-01,4.512862653033080096e-01,4.213369516783346258e-01,-3.348150748008252992e-02,1.290508003596207466e-02,2.812718755779520727e-02,8.416205644607543945e-02
4.142692871581258318e-01,4.359143142486935352e-01,4.237737119648279926e-01,-2.243598159537726552e-02,1.787802617727623708e-02,3.396850469186418059e-02,7.926970720291137695e-02
3.926090899248112498e-01,4.125202674237917200e-01,3.888197002908330702e-01,-2.203607395390325824e-02,1.665062633617171023e-02,1.961692775315081877e-02,6.268359720706939697e-02
3.927388162973460828e-01,4.535674226834118805e-01,3.938308852351380396e-01,-1.777311640622165206e-02,2.639768055791918283e-02,1.096502986138985468e-02,8.386740833520889282e-02
4.207013253962676447e-01,2.598180449470754994e-01,3.787495066001519972e-01,5.161916778473669282e-02,-4.733518803064362679e-02,1.040053822834031971e-01,2.608847916126251221e-01
3.955367627948407905e-01,4.484814684311783095e-01,3.646859518221599039e-01,-3.074805308249680888e-02,6.455167195948781356e-02,3.438630829854173038e-02,1.557967960834503174e-01
4.759270216272276088e-01,4.389322124187942098e-01,3.208977536062751490e-01,4.510026600396629948e-02,4.040113682653834887e-02,-4.735305136840700646e-02,1.933732181787490845e-01
4.267395619275334839e-01,3.885853201069238150e-01,3.362561206642020739e-01,3.578778068158033204e-02,3.661582933306322535e-02,-4.342234199948445672e-02,1.403980851173400879e-01
5.100791397963673202e-01,4.206226723921865918e-01,3.818101375255159025e-01,1.509489645324354166e-02,3.940507022242906165e-02,-5.202795094245495078e-02,1.626144945621490479e-01
5.188630051986465874e-01,4.928428646915579137e-01,4.092883274385479275e-01,1.506561135792431304e-02,1.688361464498453618e-02,-3.814116871765156624e-02,1.254306286573410034e-01
4.750329276172726711e-01,4.779286417393185937e-01,3.834603127402410605e-01,-4.940185741875437880e-02,-1.172564066245544712e-01,-5.141347840762785365e-02,2.552605867385864258e-01
4.865072041077472820e-01,4.776032048543535358e-01,4.155248157953493893e-01,1.647267013453405232e-02,2.999702820768645681e-02,-2.938303625537402181e-02,1.029045879840850830e-01
4.819805081988741691e-01,4.863977131081259619e-01,3.898238472145310607e-01,5.710804571308857741e-03,2.297712777133928408e-02,-2.871307835693513721e-02,1.143435388803482056e-01
4.782637238644362188e-01,4.833542165305643734e-01,3.986718290900319039e-01,3.328320946485461423e-02,3.916246203257730402e-02,-6.001808952050269319e-02,1.596773862838745117e-01
4.236192277939993533e-01,4.330440937837738979e-01,4.840029854817607391e-01,-2.584604700686220311e-03,2.577864256271168372e-03,5.684195742691837243e-03,5.747020617127418518e-02
2.656551061017854432e-01,2.664284106557755494e-01,4.367658166760329808e-01,1.121874023447544666e-01,-1.981211351469438012e-02,1.191391547568694878e-02,2.617414295673370361e-01
3.269409020299481328e-01,3.073753926833232564e-01,4.362092598415954758e-01,5.790245247366848647e-02,5.730981073333048410e-03,-4.721121531925348384e-03,1.571106463670730591e-01
3.973831940750222613e-01,3.815930545521733497e-01,4.885236462489863096e-01,2.699217146175906384e-02,1.206380364609502612e-02,-2.704105157916615165e-03,1.124246641993522644e-01
3.748422148972399559e-01,3.300435736557091881e-01,4.639034891857682363e-01,5.008781014186582808e-02,-2.007798721204268749e-02,6.114428262031574267e-03,1.509190350770950317e-01
3.416385585842034445e-01,3.078264069981629936e-01,4.416307395236616085e-01,5.823322094377422764e-02,-1.433185405620077037e-03,2.829289233054566120e-04,1.571698933839797974e-01
3.573151927639487413e-01,3.628324819510887478e-01,4.610564602240114773e-01,3.252377681754452243e-02,-5.985158977184750623e-03,2.275059420534581833e-03,1.162613555788993835e-01
5.244747530117431777e-01,5.377777153700024071e-01,3.688733635246549958e-01,-1.130013104760213549e-02,-2.796762471726098320e-02,-4.117945842779636295e-02,1.851367205381393433e-01
4.904917366638103515e-01,3.549611849119497786e-01,4.950902900045747734e-01,-7.901213015927052025e-03,1.041336403156616942e-02,3.619883430683342243e-03,1.398743540048599243e-01
4.535825591819231395e-01,3.900681471854050009e-01,2.495590600826027572e-01,1.511423722120238365e-02,-2.718622517332580993e-02,1.069500046316498032e-01,2.644215226173400879e-01
4.057193662678320045e-01,3.403554031535654389e-01,2.990280388645976117e-01,1.778490337064687551e-02,-1.980648376292696786e-02,5.058625596698907573e-02,1.359574347734451294e-01
5.484731942378284764e-01,4.894006688348877532e-01,4.831017195925391139e-01,3.052095133246915393e-02,-2.463134433192242997e-02,4.620075211617121619e-02,1.221456453204154968e-01
4.516853064764762560e-01,3.572489729484057963e-01,3.111527944460096284e-01,1.574589368254871629e-03,-3.632034191792401535e-03,5.044689164010150023e-02,1.519141644239425659e-01
4.662304917683828265e-01,4.033845022386603474e-01,3.486078455012943111e-01,3.451579924802787580e-02,-1.992655097440710829e-02,4.614779436767729726e-02,1.467878520488739014e-01
4.872795054588332508e-01,4.171028322981911729e-01,3.908778180815797310e-01,4.821142140529161707e-02,-3.574222417709571609e-02,6.819044309317695562e-02,1.794665753841400146e-01
3.397189306904938033e-01,4.344709712901494436e-01,1.627107684044835079e-01,-8.114106713738247767e-02,-1.711171878243079314e-01,-9.636574928746476087e-02,4.387888908386230469e-01
4.683411295471545110e-01,3.749427366371449466e-01,3.602054384655556385e-01,2.637261601329198360e-02,-1.270103409809446478e-02,8.035518514358300224e-02,1.796058118343353271e-01
4.318666999166015930e-01,5.206716173243152168e-01,4.683836106378803654e-01,-1.588081804024348009e-02,-2.713751903297697415e-02,-9.167489624551298719e-03,9.589046239852905273e-02
4.028038942108360665e-01,4.761816251765160213e-01,4.403065399139486913e-01,-1.678408865130241734e-02,-2.610947892290881728e-02,-2.691776578821745286e-02,9.540864825248718262e-02
5.454581553679291872e-01,3.584316198540138387e-01,7.189181533965890436e-01,-1.620649920190385951e-01,1.099791065351401198e-01,9.726115355452809308e-02,4.908864498138427734e-01
4.479671100338934453e-01,4.434326351718474446e-01,4.554544991620843031e-01,1.086737097032369238e-02,8.069316267484801658e-03,-9.962164505667584977e-03,3.095074929296970367e-02
4.249799737889246587e-01,4.280688124582436860e-01,4.398204069945685912e-01,6.801707444026192269e-03,8.568564221600179914e-03,-7.688956862394727074e-03,2.683934383094310760e-02
4.089305757652840212e-01,4.106274981330747531e-01,4.069030566696451023e-01,1.238806266509260949e-02,8.006826398224238181e-03,-1.267162754905139764e-02,3.383580222725868225e-02
4.677141198614948037e-01,9.567730177375402545e-02,1.434015910791889836e-01,2.308592671070062996e-02,8.161503459710761632e-02,-2.345081608718854460e-01,5.563254356384277344e-01
4.396096597826001928e-01,4.313201619993842773e-01,4.073449707119636276e-01,1.717521763938776799e-02,1.463248735198632682e-02,-1.573601797620025403e-02,5.578913912177085876e-02
4.020837776018585941e-01,3.845377212158378466e-01,3.735274114521709987e-01,1.542681908179588911e-02,1.843945405668477588e-02,-1.404329346884088982e-02,5.429476499557495117e-02
4.150679879072350920e-01,4.674400647063978176e-01,4.137449750363878520e-01,6.187424922841875145e-04,5.854500530852109778e-04,-4.943886674497237343e-03,5.375292152166366577e-02
4.756623940569043585e-01,4.691474213790343128e-01,4.760908139506733749e-01,1.906529655259518036e-02,1.800621056733080899e-02,-2.084444789272466361e-02,5.841249972581863403e-02
4.373185761520058112e-01,4.015120056935528869e-01,4.174259173124809097e-01,1.350888318850227907e-02,1.953014130325938374e-02,-1.620604223411784700e-02,5.869580060243606567e-02
4.693890719792802035e-01,4.697117790034678331e-01,4.548450784462416685e-01,1.553496973028586567e-02,2.172423103794458854e-02,-1.857326464065240518e-02,5.823277682065963745e-02
4.233821798688655047e-01,4.330778248833990762e-01,4.121562492171365610e-01,1.273334050594735964e-02,1.097151499501481352e-02,-1.082464090006198844e-02,3.908867388963699341e-02
4.451533924542488418e-01,4.541099231681592907e-01,4.351894869085641271e-01,9.608255819227475361e-03,7.123908943770739487e-03,-7.269999749707212189e-03,2.926611527800559998e-02
4.333313551750780368e-01,4.145357496775480821e-01,4.224082159173606077e-01,3.937233622140147611e-03,7.976067958904225000e-03,-5.400982240241597801e-03,2.433419413864612579e-02
4.278307392042730029e-01,4.266316666375734035e-01,4.226259537521726561e-01,5.159716559775259087e-03,6.208821464133118875e-03,-6.920115253043755341e-03,1.901228725910186768e-02
4.327654871104049672e-01,4.305430429221954181e-01,4.320136760379783558e-01,8.403796232452317647e-03,9.647755545230098095e-03,-8.505361706101364355e-03,2.668269351124763489e-02
6.235938007148648099e-01,5.187084656821339124e-01,5.107738692156793547e-01,-1.197952190981072841e-02,-5.731824385722027182e-03,-6.231748546649023418e-02,1.551631689071655273e-01
4.214672469407689248e-01,3.225143819606593465e-01,4.559681233337315454e-01,8.666518997794032952e-02,-9.381182267686244414e-02,5.724537929481739174e-02,2.704839706420898438e-01
3.999610261986874526e-01,3.556098865917900476e-01,4.408853271198749924e-01,5.054934200280971485e-02,-5.534635442088209345e-02,3.010338194445131427e-02,1.582114696502685547e-01
4.089055265670317185e-01,4.433058862136688982e-01,4.494177491388242074e-01,5.140914634758781548e-02,-4.325650967153759491e-02,3.578319887944487326e-02,1.371655166149139404e-01
4.585208450977696359e-01,4.929699137254453523e-01,5.871102810248731707e-01,6.081003192055654122e-02,-2.279818413903271501e-02,2.187358000678823328e-02,1.654702574014663696e-01
3.143760655222437306e-01,2.714723390672557635e-01,4.340821601252190520e-01,9.720244539912069326e-02,-5.666696159367941299e-02,4.990099188364736926e-02,2.583695352077484131e-01
4.968127757580920179e-01,5.176244336876092422e-01,5.329433318117626772e-01,-3.765695798612008621e-02,4.369878807089694339e-02,4.423246790450015981e-02,1.297652870416641235e-01
4.019587524059645145e-01,3.608288986163438183e-01,4.472238197759417777e-01,-5.812594684656083310e-02,3.587855066451377251e-02,3.463135614687293945e-02,1.523089557886123657e-01
4.422584383325930957e-01,4.090632861931262076e-01,4.751154529634983303e-01,-6.956806908339045747e-02,3.169823640719799523e-02,4.236795252122591005e-02,1.618357449769973755e-01
2.199717798716854522e-01,3.579477638128266137e-01,4.445625852770390130e-01,-1.112848211386924246e-01,5.659422845025518373e-02,3.406207824721837335e-02,2.978801727294921875e-01
4.893698828710610349e-01,4.432325852327771432e-01,5.695023311013780454e-01,-6.966027238321689796e-02,2.663070786316866848e-02,3.007300294198614679e-02,1.778914183378219604e-01
3.562595220873890356e-01,4.378164908489013962e-01,5.076272380060719014e-01,-1.322434543273139085e-01,2.809215649084118374e-02,2.796977587483924152e-02,2.727600634098052979e-01
4.031628640942829245e-01,4.887403005131991662e-01,5.091725725677586079e-01,-7.336760572790650137e-02,5.068004949100124445e-02,2.112245668121819075e-02,1.862305253744125366e-01
4.161077914574994874e-01,2.700982717995643601e-01,3.671224905217967960e-01,1.384944552226895220e-01,1.089488343148915794e-01,-1.528722788632150553e-01,4.240607321262359619e-01
2.324990202532585259e-01,2.422556975765385034e-01,4.234352141471469655e-01,-1.243680284464791508e-01,2.898071369192962987e-02,2.218970834918549892e-02,2.916983664035797119e-01
6.188264617683768565e-01,5.332594014072618016e-01,4.239805014273831385e-01,-6.947270245346204472e-03,-1.581313105381544973e-02,-8.173107356210555785e-02,2.225963622331619263e-01
6.676235293309991103e-01,5.647804664091239379e-01,4.511935437219059541e-01,-2.385022844855449672e-02,-1.315821884174680958e-03,-7.872143639822816452e-02,2.355062663555145264e-01
5.535691427686715294e-01,4.945017802487573499e-01,3.995727225204941946e-01,-1.591059482178431217e-03,2.303883888964719604e-03,-4.540561313699765372e-02,1.559365689754486084e-01
4.821800546646712315e-01,4.015456489338550261e-01,2.952385407797622485e-01,-1.102536284684460348e-03,2.954245652339109254e-03,-6.686752259421073485e-02,1.995463520288467407e-01
5.434487127013156726e-01,4.718815817105844190e-01,3.494250720769275786e-01,-2.180743079013905406e-02,8.095210709830656312e-03,-6.571812713466895772e-02,2.084735482931137085e-01
5.117166410652409514e-01,4.500267905655245260e-01,3.353266443194346524e-01,4.916009904537959989e-03,-7.063943010614307655e-03,-8.533104888095555118e-02,2.147183269262313843e-01
5.661869626713869064e-01,4.533548410572967313e-01,3.486928896654000742e-01,2.252315354213434151e-02,1.515772568167136252e-03,-6.841522875530434145e-02,2.259759753942489624e-01
6.121391033464063103e-01,5.568855250443123239e-01,4.168699162805811209e-01,1.937909860670218934e-02,1.355200114229276540e-02,-1.038892286577094842e-01,2.538704872131347656e-01
5.398360122395919891e-01,4.811232995995746720e-01,4.989698600454013366e-01,-1.950564301029010864e-02,3.559094957312543273e-02,4.409819433443756126e-02,1.161609739065170288e-01
4.413896342781136184e-01,3.803343613645798205e-01,4.327028014097721864e-01,-4.687047588087468741e-02,3.646672491378886299e-02,5.165425172822349364e-02,1.478421688079833984e-01
4.625599752803719600e-01,4.404242924337317122e-01,4.232148967763558201e-01,-2.668136450511560467e-02,2.217780101474771740e-02,2.303048135150789766e-02,7.980947941541671753e-02
4.522479532906665822e-01,4.468232412995865599e-01,4.695113293509039498e-01,1.955288371116021065e-02,-1.529608149325664863e-02,1.014180922656620146e-02,5.077918246388435364e-02
4.623131711713327485e-01,4.242544381009140664e-01,4.388067763986860381e-01,-2.337514160358114199e-02,2.603212241245092540e-02,1.885910143789564647e-02,7.645650207996368408e-02
4.220885561996258750e-01,4.390965939984031730e-01,4.370642974635446376e-01,-5.569031560471614933e-02,3.373567423881623090e-02,6.143420908292623189e-02,1.558840721845626831e-01
3.966391008423477138e-01,4.581878599089050930e-01,4.042560144203110606e-01,3.807848511493361950e-03,9.719765685351069301e-03,-4.466293884627324171e-03,6.135323643684387207e-02
4.155258163948412631e-01,4.608160325284548220e-01,4.177889532568204167e-01,2.520921896207049730e-03,-1.094891127534458435e-03,5.278840751621617297e-03,4.538818821310997009e-02
5.264842891919662149e-01,4.793190949958967551e-01,4.867973360993696486e-01,-5.598447281392079922e-02,5.196466944430412627e-02,4.336768096238921566e-02,1.583470851182937622e-01
5.513698823569986862e-01,5.928763560753174122e-01,5.647290322474239899e-01,4.890543485514028954e-02,-6.104325750734894418e-02,4.871795652988993031e-02,1.637716144323348999e-01
3.492723355346881720e-01,4.118575030787646751e-01,3.259823500783122774e-01,3.421841267440404316e-02,-6.836705172383039653e-02,4.511529744823031957e-02,1.719242930412292480e-01
4.352522970391106694e-01,4.593849011802694227e-01,3.853589971342707976e-01,3.947372915580445174e-02,-7.816481579627322651e-02,4.157739480619263017e-02,1.801820248365402222e-01
4.842894565879404256e-01,5.073066724102179847e-01,4.250960149501870622e-01,1.592224106130944380e-02,-3.956976329688405986e-02,2.575508898138571812e-02,1.133311465382575989e-01
4.498769365567274470e-01,4.523933798605622170e-01,4.097878073950259603e-01,2.971628464366795480e-02,-3.833730648656791945e-02,1.885920026054653184e-02,9.919566661119461060e-02
3.872073810255308723e-01,5.439846339632663508e-01,4.685357924921448314e-01,-2.106220449586573493e-02,-7.666538823776332390e-02,-2.331549837593796526e-02,1.975788623094558716e-01
3.852432933855675090e-01,5.568756417088085442e-01,4.929731534245270219e-01,-8.975858188318917505e-03,-5.066674767605556379e-02,-1.824007202030659969e-02,1.775235533714294434e-01
4.211388259210646079e-01,5.673016908180205098e-01,3.742223522742738062e-01,-4.057804187776450217e-02,-9.906336261394037279e-02,-7.028305804186683881e-02,2.821731567382812500e-01
2.772977193070443880e-01,5.359679656450105911e-01,3.715791042729350568e-01,-5.817335970641270698e-02,-1.248352384292962663e-01,-9.832050814141178249e-03,3.295533657073974609e-01
3.638247058509520571e-01,5.357110596967005200e-01,4.571072391095825638e-01,-1.380876178064780087e-02,-7.956173225273266425e-02,-1.786754643053272903e-02,2.067185491323471069e-01
5.244821720170854684e-01,6.148242611178957873e-01,5.006680908302896249e-01,-1.820152177079003425e-02,-6.848995395426892008e-02,-4.992573030172750732e-03,1.613118201494216919e-01
3.908214066426762834e-01,5.036026023260493645e-01,3.302115784524680686e-01,-4.183938633183900691e-02,-1.327325963854442681e-01,-2.417238991388532404e-03,2.852222919464111328e-01
4.828763969672157930e-01,5.761985302474206261e-01,4.532230622165597245e-01,-1.309355162215208521e-02,-6.112142632299907147e-02,-1.413861994822590736e-02,1.570896655321121216e-01
4.703036897608354749e-01,4.630754349019605698e-01,2.076953135355694147e-01,1.803070450459620666e-02,3.661687157250666236e-02,-6.552329920177517308e-02,2.915387153625488281e-01
4.650757955389247522e-01,3.963856746132016218e-01,4.345077536979568555e-01,-4.150990630226761291e-02,-2.418580466795580697e-02,-4.164932910471399324e-02,1.252241730690002441e-01
4.619011354982127115e-01,4.132817732782844700e-01,3.832108150291571591e-01,-2.164832985369383872e-02,-4.366145223838116540e-02,-4.513305197831889853e-02,1.340374201536178589e-01
4.351474844525208274e-01,4.315468039413178913e-01,3.736876482772822916e-01,-3.001760909314437134e-02,-3.032817469649124256e-02,-3.820154624480624761e-02,1.157999113202095032e-01
4.768645125339556756e-01,4.833288976912569757e-01,4.167319737523307865e-01,-3.746968255689902411e-02,-4.422394014559419967e-02,-6.177080312158016173e-02,1.599141359329223633e-01
4.176656740214085839e-01,4.057759478182410562e-01,3.522191114952208379e-01,-2.893885144163049761e-02,-3.162009273261648379e-02,-3.248810049579597264e-02,1.110169738531112671e-01
4.846506931002731999e-01,2.696461263842030998e-01,4.355491438860995546e-01,8.498393133882857498e-02,4.109902631063665213e-02,-1.453110183001918299e-01,3.579957187175750732e-01
5.587947680249083504e-01,4.180855003607567566e-01,4.394600924982153822e-01,8.668194243429276679e-04,-1.574119289856148757e-03,-7.753556954242847576e-02,1.878652423620223999e-01
4.375511774137667009e-01,3.100414582985862033e-01,4.852686283491318142e-01,-4.915030446562303895e-02,-4.552668186441534036e-04,8.464786356506355872e-03,1.791171729564666748e-01
5.302509296854600596e-01,4.288792725728413635e-01,4.488503197631678043e-01,1.719639091547928112e-03,7.540280532002998845e-03,-3.278709172579815506e-02,1.097951605916023254e-01
4.409069996495139643e-01,2.777821472387912993e-01,3.765226660274754167e-01,-2.504275923527535599e-02,-2.011081884133928202e-02,-4.529765561664738510e-02,1.717636883258819580e-01
4.225609554778365640e-01,2.667279992892485074e-01,3.676719959797723480e-01,-2.365909418362461061e-02,-2.296384232052111479e-02,-4.623981845880853481e-02,1.685788631439208984e-01
4.177418236635671023e-01,3.115132906552028902e-01,3.315576608658978852e-01,-3.496890573012888248e-02,-3.274170775281928791e-02,-5.949638316757728529e-02,1.645022332668304443e-01
4.451620867411668625e-01,2.926687612741143418e-01,2.834544855445035871e-01,-1.660142992508138737e-02,-1.125110397094051390e-02,-1.202809643492706165e-01,2.633502483367919922e-01
5.427389387354779604e-01,4.041391286950276607e-01,4.291656489608577374e-01,-8.143438986842468225e-03,-6.385398363633194331e-03,-7.287465088005573577e-02,1.806127727031707764e-01
4.013515322589386591e-01,3.104136107182690618e-01,3.417627582484898396e-01,-4.316704139360872522e-02,-2.290928280914466403e-02,-4.699207930844709336e-02,1.420953869819641113e-01
5.078989144359943309e-01,4.049772093419092833e-01,5.481499605430232291e-01,-3.897353493671792263e-02,7.034135094598505632e-03,-1.043156688322662180e-02,1.462444216012954712e-01
5.006509327320813885e-01,3.152857641952482304e-01,4.229358266339668382e-01,-2.986074252763710156e-03,-3.889206394034584041e-02,-4.809279342691279852e-02,1.936426758766174316e-01
5.289500715008690346e-01,4.033454867969307189e-01,4.228325104807728607e-01,6.056428406719796716e-03,-4.167809649198159390e-03,-7.671345286645880890e-02,1.775545328855514526e-01
5.836510333378183146e-01,4.719260186924834621e-01,4.652685420519830362e-01,9.364151542463767727e-03,-8.916714360736339301e-03,-4.963789664930259860e-02,1.454783678054809570e-01
5.529605888115282086e-01,4.108177903001101750e-01,4.905124735772976030e-01,1.763642993190121105e-02,6.632317575372969308e-03,-1.321336475716158587e-01,2.620511054992675781e-01
4.382957538038468326e-01,2.476231027393315798e-01,2.409145311411768353e-01,2.166767716650280784e-02,1.092267423887605463e-02,-1.246392047180697599e-01,2.933451533317565918e-01
6.978153131967484990e-01,5.336698395960185470e-01,6.043483808223121256e-01,-1.182752072522392540e-02,-6.091580975898341389e-03,-1.243172878497808831e-01,2.592932581901550293e-01
5.775795673142001263e-01,4.174351129566636898e-01,4.499062114671729118e-01,-5.589494112047504494e-03,-4.521120986111205192e-02,-1.193318972750342100e-01,2.654180526733398438e-01
4.162046156183262235e-01,4.008719846311655233e-01,3.744774610869043840e-01,-4.669025409634168511e-02,5.783944696708773203e-02,4.562413310301151326e-02,1.554261445999145508e-01
4.485610837556011643e-01,5.148187775937349553e-01,4.377164127394259641e-01,-3.157402924971803443e-02,5.849564700201911882e-02,4.910219377596331675e-02,1.603598743677139282e-01
3.476809859529945146e-01,3.463626160946659538e-01,4.405658190629461179e-01,-2.862315218602211331e-02,-7.723196443357361121e-03,-9.901855679013546116e-03,1.080866530537605286e-01
4.587060141678697134e-01,4.163402232847122630e-01,4.515720142382892988e-01,-3.890774918751867956e-02,2.036674557816047990e-02,3.184759672759070875e-02,1.018438860774040222e-01
4.453287088116210657e-01,4.529853758570129840e-01,4.490020564606146958e-01,-1.416704478979108339e-02,1.658455838535397020e-02,9.345712739501629146e-03,4.163265228271484375e-02
4.342216277687775405e-01,4.416728963930810492e-01,4.282711783401489947e-01,-1.510369397096201875e-02,6.424550656782831472e-03,9.633891263372230604e-03,3.495557978749275208e-02
4.506284957427520999e-01,2.180619095931926876e-01,4.663908418580726134e-01,-1.306408778767164380e-01,-1.468432673623891460e-02,-2.846563531150655274e-02,3.350825905799865723e-01
4.317157069472365993e-01,4.293711697326441090e-01,3.953193829261186232e-01,-2.239629662291010154e-02,1.943109652218162273e-02,2.026099171400537469e-02,7.151129096746444702e-02
4.208679015220999076e-01,4.815248752222310302e-01,4.150690496986314537e-01,2.739970714607581001e-03,3.458407452307832395e-03,-5.690096588001639305e-04,6.421846896409988403e-02
4.584099496791137485e-01,4.488409695511864639e-01,3.767024213887226747e-01,-5.772138456903113529e-02,9.878419652809507234e-02,7.749191850242537205e-02,2.515373528003692627e-01
4.071536404889485317e-01,3.407818442892822652e-01,3.056813109484539659e-01,-3.206139899100178547e-02,2.741865733301475025e-02,5.076319563915731442e-02,1.450406908988952637e-01
4.104990839555830440e-01,4.204597397072930010e-01,3.056904650417140434e-01,-3.919238504528693018e-02,5.582508014122933293e-02,5.028548257876185035e-02,1.834975779056549072e-01
5.032937009942528572e-01,3.975721042311035625e-01,3.508033223359284802e-01,-2.083826376939312830e-02,7.833333052875391181e-03,4.864407839399900041e-02,1.639950275421142578e-01
4.274207584918776615e-01,4.190340196169173304e-01,2.703808549152622032e-01,-2.612945740987433763e-02,3.522117857458289397e-02,5.061295202854973474e-02,1.920147687196731567e-01
4.864413228271842193e-01,4.351455343542534604e-01,3.133789501615376061e-01,-1.538895775025087703e-02,3.412913011134640490e-02,5.007401576129073828e-02,1.882326900959014893e-01
3.432503262480128825e-01,5.322903304151271886e-01,5.373638235401760888e-01,1.923245641894019405e-04,-6.710411722939549350e-02,1.534213269686689890e-02,2.256902754306793213e-01
2.660565143745367567e-01,4.939535921320112877e-01,4.718791765766115476e-01,-4.891125204210651500e-03,-4.066129216997792228e-02,-7.604121776666998220e-03,2.293445467948913574e-01
2.341511187994352594e-01,4.846190896625410804e-01,5.173852490286335870e-01,9.432515912122298521e-03,-5.026948943129945502e-02,1.494251638067748897e-02,2.837825119495391846e-01
2.151768333739029759e-01,5.056401368136597130e-01,4.651262370844779226e-01,-6.905127972984015025e-03,-1.077837769590580530e-01,8.212766897714307221e-03,3.308170437812805176e-01
-1.124845746274039937e-01,3.177931841970004778e-01,1.901891036490531983e-01,-3.521635636312357709e-02,-1.949372758349543211e-01,-5.904803692905519902e-02,5.241171121597290039e-01
2.329919215001621524e-01,4.908884160561830523e-01,5.222681331351970435e-01,-9.904972678825920557e-03,-5.225744811613573793e-02,-2.194814683816771056e-02,2.924380600452423096e-01
3.993831555178482540e-01,4.001792376659131234e-01,4.082366097265009430e-01,-2.382811205432615667e-02,2.441598051551034307e-02,2.013476067438267278e-02,6.913720071315765381e-02
4.931915272280704698e-01,5.065992482142054332e-01,5.283339189927707125e-01,-5.833125514797307676e-02,4.788539625683257278e-02,4.770698613983801600e-02,1.576644629240036011e-01
4.538925606515357147e-01,5.063257864940502451e-01,4.979521112758824586e-01,-4.716647436326196902e-02,5.516819002690436652e-02,3.253287810601628027e-02,1.461508870124816895e-01
6.422087643965239678e-01,5.185037769408490371e-01,4.550777271571627702e-01,4.378996161684282906e-02,6.358489089159675978e-02,-1.172538323012512623e-01,2.937670648097991943e-01
6.471670428470142067e-01,5.590292025536185427e-01,4.965024683886665180e-01,7.063653486380869206e-02,4.640026145684961190e-02,-1.069115948507929070e-01,2.700122594833374023e-01
6.087998095110673802e-01,5.835451987903340632e-01,4.238039200591352529e-01,6.586793917296484072e-03,5.182397301142334378e-02,-7.467635249014539789e-02,2.347472608089447021e-01
4.100729775641536734e-01,4.699413436343576334e-01,4.121107323823119950e-01,-3.687987676932528904e-03,1.701731175917638693e-03,1.829518426069131178e-03,5.937936902046203613e-02
4.146840226521616990e-01,2.379753718814893726e-01,-2.485699963066612117e-02,8.980564344573993552e-02,1.009032498009529710e-01,-2.349651864362783671e-01,6.059018373489379883e-01
5.021385935633962960e-01,2.624423189213687113e-01,5.216969123875888625e-01,-3.537046053510036620e-02,-9.511005269631295916e-03,-2.253102328918020480e-02,2.609069049358367920e-01
3.315503737619556190e-01,4.472154564261696663e-01,3.556386835052396389e-01,3.290286197258041057e-02,5.968444892376074257e-02,-2.274997065628008366e-02,1.632778644561767578e-01
4.029282087053622785e-01,4.720145366097853179e-01,4.054253166205464831e-01,1.196137522938037732e-02,2.569337187082046045e-02,-1.255661372761172033e-02,8.654084056615829468e-02
3.441406439221662006e-01,4.625389148761145930e-01,3.924057639401258846e-01,4.205263168191027134e-02,4.765094015061267785e-02,-3.198252110006546273e-02,1.606826633214950562e-01
3.853459974244670128e-01,4.778147270799941171e-01,4.428366427949486650e-01,2.199142023277837754e-02,3.365518485060349507e-02,-1.668454201069805021e-02,1.105601936578750610e-01
4.251226516207997630e-01,4.671871579203017988e-01,3.953103435817350575e-01,2.855438434165882833e-02,5.479727490557831371e-02,-3.567535806586401986e-02,1.385088860988616943e-01
4.564218968750052841e-01,4.355914399285581440e-01,4.529046440266150664e-01,-8.036268455109272374e-03,-9.894706505717564687e-03,-1.357893377116536210e-02,3.759834915399551392e-02
3.906324786377793346e-01,4.656097584238100273e-01,4.237607223191903194e-01,2.961905624412357330e-02,3.112283745072973867e-02,-2.935932420913903856e-02,1.111704781651496887e-01
4.356170463562992756e-01,4.699992337008780385e-01,4.160772065525053520e-01,3.214518897433013556e-02,3.921517168413346521e-02,-1.513017205589407485e-02,1.031307801604270935e-01
4.437038470420764380e-01,4.319781313278723833e-01,4.595987868288153311e-01,-1.813917782522170979e-02,1.636765864160453360e-02,1.368264611013717685e-02,5.411982536315917969e-02
4.023150199308482833e-01,4.095184915273055171e-01,4.810213269239674294e-01,2.898519964857401883e-03,-3.915083728866808354e-04,-1.405947072134486374e-03,7.557253539562225342e-02
4.050053110668616618e-01,3.993568615266047117e-01,3.605877966485003250e-01,-2.582697872300872624e-02,2.301210086552809078e-02,2.864598867141467456e-02,8.834861218929290771e-02
4.590324414433127331e-01,4.513515361259058944e-01,4.381468158951943304e-01,-2.250664495060355000e-02,3.128707983456625874e-02,3.301262706893080129e-02,8.978071808815002441e-02
3.774693108863222957e-01,3.757918380802189873e-01,4.043430573630072966e-01,-3.611983336836718794e-02,2.894698999898579275e-02,3.633439330752621238e-02,1.056331768631935120e-01
3.944202253334164743e-01,3.842645162422428928e-01,4.731875492704362141e-01,1.112074421919990834e-02,3.578429098813536071e-03,-8.112026844881175701e-04,8.671084046363830566e-02
4.461093526361714079e-01,4.310531650727739694e-01,5.081634544689777044e-01,2.629432588728937426e-02,5.482922617778837951e-03,-1.127554546608482838e-02,8.693373203277587891e-02
3.718360116724926945e-01,3.195976615034843982e-01,4.451782107442476821e-01,1.916442106384043040e-02,3.451956905408863716e-03,-2.809811382566474326e-03,1.144572272896766663e-01
3.770557333831879299e-01,3.255110143915081466e-01,4.404764218405971543e-01,2.098856719976243887e-02,1.061387980715717584e-02,-5.188662471915643851e-03,1.081125959753990173e-01
4.396225686138164890e-01,4.298211264491507144e-01,4.561010864803560771e-01,6.063529735415067873e-02,-4.795235015647824478e-02,3.494927928151218138e-02,1.487335860729217529e-01
4.095083244528076039e-01,4.936045103202111317e-01,5.110403355580283025e-01,1.181099328619988481e-01,-3.160550639241808957e-02,7.548921466071126241e-02,2.660543620586395264e-01
3.533825755799328561e-01,3.356147364028356783e-01,4.355890139635232861e-01,5.203634237640358123e-02,-3.207929466619566239e-02,2.880378762849965940e-02,1.491099745035171509e-01
4.370670584449111717e-01,4.381629793632373371e-01,4.207523693513788854e-01,2.142214775166900731e-02,-4.406264235764019432e-02,3.887143677359750776e-02,1.096334382891654968e-01
3.815390113312058795e-01,3.586209963778816956e-01,3.229076453244003053e-01,5.294030741535615120e-02,-6.448439703971213521e-02,7.449517542272261761e-02,2.003758847713470459e-01
4.085450721276071007e-01,3.909947429137939356e-01,3.958537820924727391e-01,2.426608626026059701e-02,-2.730550104532346659e-02,2.825103999624469300e-02,8.151079714298248291e-02
4.096707619988416704e-01,3.779888021559970057e-01,3.834546434263907400e-01,4.812033736183453370e-02,-3.587047861617357475e-02,3.398209019282905086e-02,1.230104640126228333e-01
4.317584237807964853e-01,4.092801652415259395e-01,4.332641951030413718e-01,-1.373683437574327315e-02,-1.066247023416442251e-02,-1.436256394969916313e-02,4.546870291233062744e-02
4.357092958524744764e-01,4.551903195181936645e-01,4.478685085647998720e-01,-1.610437260746817520e-02,-1.448814315889609614e-02,-1.703181131921107858e-02,5.068039149045944214e-02
4.386330051732756918e-01,4.377568144137859996e-01,4.014804430960514647e-01,-2.598901959682166363e-02,-1.735851173191163554e-02,-1.851500888597763794e-02,7.285043597221374512e-02
3.651540467495278941e-01,3.701519821046501679e-01,4.645133077450009362e-01,-2.711882358614722474e-02,-2.811492809559849784e-03,-1.368088329988383783e-03,1.078715473413467407e-01
4.162591418008493860e-01,4.160739679477807873e-01,4.360956920045482299e-01,-9.144257729410604219e-03,-1.143837900700912444e-02,-1.245525395403791237e-02,3.880667686462402344e-02
4.453521345446463942e-01,4.229022433714781370e-01,4.601715985205427906e-01,-1.544011280871267558e-02,-1.394312220671636328e-02,-1.051523868377098221e-02,5.183091014623641968e-02
4.318325418242953684e-01,4.518555600604279854e-01,4.350323457708710206e-01,-1.423273056018869304e-02,-1.047036288020788963e-02,-8.941887861505636720e-03,3.903280198574066162e-02
5.701135842398058484e-01,3.998215986411262635e-01,5.935295764531471896e-01,-6.887641264110071215e-02,2.383487516892136490e-02,1.399797275217112141e-02,2.237392216920852661e-01
5.668409060147616696e-01,3.856697396635276887e-01,6.185538300357364960e-01,-7.571915654192473699e-02,1.241554342322400556e-02,5.847141644836297350e-03,2.502624392509460449e-01
5.129865137864441094e-01,2.263937179923450616e-01,5.155854201535119419e-01,-7.239927978877436221e-02,1.723538035789924303e-02,3.432740478887581076e-02,3.209957480430603027e-01
5.433353176156648923e-01,3.363624157185710062e-01,5.717360933230291042e-01,-4.768623610706091559e-02,3.203632051238002043e-02,3.741144170192212820e-02,2.522346675395965576e-01
5.393564311878515927e-01,5.534032138308423443e-01,3.172636648430304795e-01,-2.029369197033502326e-02,1.039065054148856776e-01,1.524473909164253405e-02,2.948975861072540283e-01
4.250755332843405565e-01,4.888171127348959200e-01,3.154119311791915292e-01,-2.336436167763093763e-02,1.104606282853890370e-01,2.741985418734215613e-02,2.521449923515319824e-01
4.952367057653767612e-01,6.061534654444509229e-01,3.524751522518607683e-01,-6.180429277075011330e-02,1.109016820528087310e-01,-1.661652383616437495e-02,3.125751614570617676e-01
5.486672688652609597e-01,5.929693897712774442e-01,3.841081001847198029e-01,1.015353152630388625e-02,4.485354384233954106e-02,-6.125939101131111031e-04,2.065881043672561646e-01
4.555907147012989156e-01,5.163117406047171842e-01,3.357474788998391357e-01,-1.846805432162619554e-02,8.115969116341106848e-02,-4.570732323931062623e-03,2.148790806531906128e-01
2.591610666718737188e-01,3.320455951410279383e-01,2.923235479530145176e-02,-4.048750854787981635e-02,1.093807343158228612e-01,7.534998344906058965e-02,3.643907606601715088e-01
4.200410683644876242e-01,4.665605330460762534e-01,4.269933045224836299e-01,4.371116933511610958e-02,-1.026829195402567674e-01,9.376362574639619807e-02,2.561780214309692383e-01
4.049205928441262370e-01,4.853428632909198570e-01,3.848147261775552996e-01,1.824060516279297009e-02,-3.948630067495519785e-02,1.330547987850580136e-02,1.212258934974670410e-01
3.614035315537834081e-01,4.363291312774616459e-01,3.217093313195204529e-01,3.066009408959022992e-02,-4.615076730072610600e-02,3.127393255594199117e-02,1.493571847677230835e-01
3.441648747306431666e-01,4.092114327409349106e-01,3.048266744662003758e-01,3.324077709426598998e-02,-4.723306215641684402e-02,3.259232959967586774e-02,1.467374414205551147e-01
3.477034645780466837e-01,3.677046052468466719e-01,2.614897180559290213e-01,5.952135668590602391e-02,-9.881364832414175903e-02,7.230675997611378525e-02,2.552700936794281006e-01
4.335777123144691214e-01,4.847032051926343232e-01,4.279803149889814806e-01,4.646723149700880337e-03,2.674840345645637923e-03,-3.118409354114801656e-03,5.519719421863555908e-02
4.020019482639856645e-01,4.389572914700781703e-01,2.599746589574758460e-01,5.243314190701513222e-02,-9.816499717308803385e-02,5.533258219079942308e-02,2.704218924045562744e-01
3.803513272051965988e-01,4.848444626108694422e-01,3.789404182268891752e-01,-3.125134750851826793e-03,-2.849582394398896684e-02,7.287864273235451860e-04,1.163407266139984131e-01
4.397122801763860278e-01,5.373871668877827634e-01,4.635319869820321848e-01,-1.776538822910294626e-03,-3.442443013485736031e-02,-3.594891692460063914e-03,1.066983491182327271e-01
3.756028292304695038e-01,4.516749957279964089e-01,3.180738606511877009e-01,-6.544045204848961649e-03,-5.013248009782057812e-02,-2.462459814130905662e-03,1.454626172780990601e-01
9.229000374658976602e-01,5.778398117348402252e-01,7.404133627282235564e-01,-6.552731601881388313e-02,3.088222289239129364e-02,1.883740051614304356e-01,4.599956274032592773e-01
3.332562828869224392e-01,3.978719625201192489e-01,2.568188169825648681e-01,-2.268448445603971075e-02,-5.689259224070788989e-02,-1.871810442827202825e-02,1.651123613119125366e-01
3.965167537447702450e-01,4.766554645970468851e-01,4.081235750420402764e-01,-1.916470698887277890e-02,-3.011092410578812550e-02,-2.156214265879020237e-02,1.041317209601402283e-01
3.778186804657361342e-01,4.637505374551960102e-01,4.060433016690790375e-01,-8.260809491213442352e-03,-1.936394432664885132e-02,-6.817453250068781882e-03,8.499742299318313599e-02
4.935133244713773570e-01,4.655745261920141709e-01,3.446693301803911424e-01,4.163910173290280570e-02,2.193116049783438645e-02,-4.582744841843305883e-02,1.781051009893417358e-01
4.915162858311288296e-01,4.631736354795530919e-01,2.998254377346625810e-01,2.529130613754674781e-02,2.900535988272773605e-02,-3.913587083941204997e-02,2.028629928827285767e-01
5.134010294173608768e-01,4.725154738153116707e-01,4.756676417974535775e-01,4.547261278234556586e-02,4.597248332813764354e-02,-5.166929638500499661e-02,1.486792415380477905e-01
4.854063318772796620e-01,4.974417923917264228e-01,4.289326258462371477e-01,1.772702993043671557e-02,2.493137652456533723e-02,-2.367999124432856525e-02,9.221446514129638672e-02
4.868253638927072524e-01,4.786234536724310318e-01,4.216975688675783651e-01,2.189659055833467760e-02,2.459349476711520516e-02,-2.452848450255357138e-02,9.398175776004791260e-02
4.513803576712799859e-01,3.332939402050162370e-01,4.995400163913441549e-01,-3.956112721397022497e-02,2.100015757896427776e-02,3.511859075428795662e-02,1.779577732086181641e-01
4.985454052341815046e-01,5.184565469208459731e-01,4.149393183910344840e-01,4.212636944547162171e-02,5.698926034825989306e-02,-5.932010545918219024e-02,1.862121671438217163e-01
4.506428630032093818e-01,2.904127032023202659e-01,4.640694782761450310e-01,6.985262972490481614e-02,-2.077433847295811348e-02,5.210106960940180665e-02,2.282143235206604004e-01
4.168559400754567879e-01,3.001727674101886123e-01,5.098710889790372125e-01,8.244706767275211678e-02,3.721108964309573046e-03,3.766728883637754117e-03,2.315097153186798096e-01
4.132934938926869362e-01,3.844243755171476429e-01,4.887865720404315772e-01,3.358762120149315356e-02,-2.898488424142990280e-02,3.747690534350082980e-02,1.372237652540206909e-01
4.516503755921422170e-01,3.882755665668159994e-01,5.343684898089000601e-01,1.448602345165836414e-01,-5.298380004382491001e-03,2.162084553654982158e-02,2.837973833084106445e-01
4.973021480305105935e-01,4.226692784515677093e-01,5.776095393769642428e-01,4.537672528634144331e-02,-1.555769122914229391e-02,6.706884365984783040e-03,1.582754850387573242e-01
4.762421736147997020e-01,4.639289077442221854e-01,5.862236200710116973e-01,6.438148683700317676e-02,-1.324258305390942775e-02,7.594439639990293103e-03,1.635109037160873413e-01
4.102346665199717024e-01,3.724945377123685120e-01,5.337086553870437067e-01,4.990738872485297323e-02,-1.543357088532828873e-02,1.110717399163004687e-02,1.728785783052444458e-01
5.948553966951630745e-01,4.924446825060694866e-01,5.012802894519594599e-01,1.608163625735719443e-02,-3.165726178744253383e-02,5.421260203450353754e-02,1.491998136043548584e-01
5.235680811347405150e-01,4.112256822025546765e-01,3.942198276621305397e-01,4.768879541984211157e-02,-6.357994050911276729e-02,1.018998022954410859e-01,2.547961771488189697e-01
3.937154140991215301e-01,3.091561527876121596e-01,3.999269357871906849e-01,1.215117453865833669e-01,-8.368447487182048561e-02,6.875268336812458136e-02,2.952955663204193115e-01
5.356592051591680947e-01,4.180370269336747824e-01,4.234268548344346517e-01,5.496846007575335868e-02,-4.364438646996699617e-02,7.853379550686308275e-02,2.156660109758377075e-01
4.823979152521352676e-01,4.072888719384858414e-01,4.695991027095545167e-01,2.393219991176341252e-02,-2.411394937677395142e-02,2.530545560706768185e-02,1.011319309473037720e-01
4.834877590482837828e-01,4.019514613429526206e-01,4.757363828114849480e-01,2.090310755195948916e-02,-2.874697170406614183e-02,2.400715198069653528e-02,1.076812371611595154e-01
5.150144876986759712e-01,3.843618515697824756e-01,4.811929055019431578e-01,3.095233000340005813e-02,-3.824079138659905452e-02,7.001953251515825871e-02,1.891151815652847290e-01
4.992008109060622756e-01,3.992431730444014337e-01,4.507706220411571985e-01,3.588474215987180749e-02,-1.801000175941797413e-02,4.243233574137209724e-02,1.331682354211807251e-01
5.574173728111037063e-01,4.504515881298749580e-01,5.210615444074966351e-01,3.137068777697472194e-02,-3.511249737912324614e-02,4.794219920314720523e-02,1.497363746166229248e-01
4.170163859179897292e-01,4.040823822900621032e-01,5.047269189906358200e-01,3.686887736597798532e-02,5.955421954346552978e-03,-5.343673717617481236e-03,1.151732727885246277e-01
4.351906387427437184e-01,3.419926864929518917e-01,5.136332559478486992e-01,7.622283901500159775e-02,9.735602357205368901e-03,2.810071951872320992e-02,2.055063396692276001e-01
4.470743772222830481e-01,4.586433697095261830e-01,5.372675347907317489e-01,2.703672405236305643e-02,1.032734736857028948e-02,-1.040259815205235236e-02,1.003133133053779602e-01
4.697598171718125326e-01,4.627780984954592558e-01,5.745536256475566317e-01,7.571792744369523764e-02,1.473608148924957471e-02,-5.984854968918537806e-03,1.723967939615249634e-01
4.642033260852646559e-01,5.600622461912588834e-01,6.387009386939777045e-01,9.427874223441008728e-02,8.259375924139686354e-02,-3.844324594079259749e-02,2.729019522666931152e-01
3.653306053190076841e-01,5.266075081534891122e-01,5.711454446301907906e-01,5.164303392642356771e-02,2.454086732537391971e-02,-1.347406790806589261e-02,2.133757919073104858e-01
4.359313325235285030e-01,4.915440909638488232e-01,5.687713520500899955e-01,1.267366273414129441e-01,9.867621735095696150e-03,-5.773845303159589118e-03,2.488579750061035156e-01
4.359869417607443176e-01,5.046562483719022607e-01,3.798619749841465332e-01,-3.837600774764545961e-03,2.707179739133414031e-02,8.276324749936482539e-03,1.190288588404655457e-01
4.427717261357447809e-01,4.944483073565064113e-01,6.208161892304772111e-01,1.363523357863247187e-01,4.298393312704331531e-02,-3.029210944678801740e-02,2.987325489521026611e-01
3.149657775572481944e-01,3.660694642015601685e-01,4.969945197297419570e-01,6.357747019673419542e-02,-5.207005027398135637e-03,-1.009794216344270072e-02,1.973758786916732788e-01
5.065928590513565366e-01,4.403943549972020866e-01,4.205638798600729866e-01,1.273957820923217986e-02,-1.456551562035531509e-02,6.295379972040979211e-02,1.382068544626235962e-01
3.929455138795058255e-01,2.856691363992640564e-01,2.307237481334655227e-01,4.472258780139053147e-02,-3.735258951541121919e-02,1.056522189808382223e-01,2.531693279743194580e-01
4.950317475691845548e-01,4.175284625318503307e-01,2.659563405496602195e-01,6.584336035071212739e-04,-8.650469746256299330e-02,1.309280663410117285e-01,3.385338485240936279e-01
4.677215390377977844e-01,6.557839963157382490e-01,3.590303782698236468e-01,-1.034051294034477042e-02,9.620597847205009101e-02,2.463050717164682116e-02,3.122971653938293457e-01
5.198710509583839290e-01,4.598874547723752482e-01,3.772881463866940011e-01,2.839563208273437802e-03,-2.632394762371949998e-02,1.489144956065583392e-01,2.898359894752502441e-01
5.886653556232439577e-01,4.794208505651134100e-01,4.578951443698866530e-01,1.889949813329742587e-02,-2.415890995567037888e-02,6.483265367257956546e-02,1.737286150455474854e-01
4.203386837466675519e-01,4.394489310977997554e-01,5.188405841374841287e-01,3.430822564079357567e-02,4.062453277449445087e-03,-6.736650559593149006e-03,1.090974360704421997e-01
3.928305332814849837e-01,3.855746715540899205e-01,4.659343210204412444e-01,-1.084352480607532650e-02,6.101939209104912006e-03,1.280014474620737568e-03,7.997877895832061768e-02
3.194908171717284473e-01,2.682617677441319071e-01,4.205450199326541405e-01,6.657258468988240530e-02,1.562251204200537126e-02,-1.435077667214242417e-02,1.807180941104888916e-01
4.556082023352577282e-01,4.281734094726599715e-01,5.301028733722908948e-01,3.261685510300528501e-02,-6.665817415992938109e-03,1.088752460492075497e-02,1.096647679805755615e-01
4.357059791906365276e-01,5.095889644135153107e-01,4.058732263833613740e-01,7.955329257109912053e-03,7.679118662641662429e-03,-7.405614789878810396e-03,9.531064331531524658e-02
3.327105933854833109e-01,2.817618473220069308e-01,4.305461231640716480e-01,6.345188309858774967e-02,-1.114247554100761955e-02,1.522229582533956259e-02,1.740638017654418945e-01
3.645208901356582487e-01,3.749640625420709306e-01,5.071362104448260411e-01,6.057362683636583617e-02,1.269544606645786958e-02,9.612328993028869048e-03,1.752912998199462891e-01
4.677012273372396223e-01,4.421473330237067900e-01,3.645870846160785828e-01,-3.204333100084236913e-02,-5.309721505613550219e-02,-4.171597757991082206e-02,1.594035625457763672e-01
4.262509917708252050e-01,4.918452377631847283e-01,3.551268853951776161e-01,-3.402439613285595209e-03,1.580361890594778745e-02,2.391410746225070948e-03,1.217691451311111450e-01
3.980894592707083790e-01,4.272289030751784678e-01,2.933235223943066461e-01,-4.784894120873822015e-02,-8.164768482496340130e-02,-5.052471401632573772e-02,2.222693562507629395e-01
5.030793950886328636e-01,4.604131839899971435e-01,3.668339836495597139e-01,-2.512776865029294968e-02,-1.272056999157598380e-02,-5.815853019270636470e-02,1.646117866039276123e-01
4.583283321637806051e-01,4.696836309396658082e-01,2.452079885773854329e-01,-9.707467560155962419e-03,-4.991466672556441053e-02,-3.972164942059822762e-02,2.458857893943786621e-01
4.288297024425929971e-01,4.864799097676483774e-01,3.636455042149185912e-01,-5.198914810261851330e-03,1.798148400089236501e-02,1.763764124894990097e-03,1.113140955567359924e-01
4.964154148088801288e-01,3.676718651564264695e-01,4.451063866549697656e-01,-1.610383995341759271e-03,8.004148416515132272e-03,9.982351425374309112e-03,1.144584342837333679e-01
5.256174804448199289e-01,4.397987360014741220e-01,2.153848956492581956e-01,-2.773783243257600326e-02,-6.509508913481663883e-02,-7.308876656008754524e-02,3.286814987659454346e-01
5.277390769849529262e-01,4.831362647084168627e-01,3.790722019647122520e-01,-1.748546255769853688e-02,-3.684873364041545574e-04,-4.862974166921245345e-02,1.596009880304336548e-01
4.245504871392855595e-01,5.172262544558803299e-01,4.167568558718627303e-01,-5.838052558658350308e-03,-7.346406452101510165e-02,-1.149001708097575208e-02,1.614343076944351196e-01
4.261787509687726683e-01,4.300220193370409838e-01,4.230965384169090293e-01,3.616191528373370601e-03,6.154082160526045536e-03,-2.012649484027433187e-03,1.418158970773220062e-02
3.432542610325841625e-01,4.740361265562327286e-01,4.288882647954186389e-01,3.249732108778112787e-03,-1.069684600242091707e-02,3.261758505672017298e-03,1.168099790811538696e-01
4.707842821970749658e-01,5.836663110654474185e-01,4.684122342298331909e-01,-1.178055435749091398e-02,-6.713645052527239532e-02,-2.147506494702889832e-02,1.683375388383865356e-01
2.157813199192337161e-01,4.115393006848544477e-01,2.342193095983416962e-01,-1.182213419740240322e-02,-1.242281940376923632e-01,-2.379747851105572937e-02,2.889081835746765137e-01
4.542602477320267784e-01,5.720215946012464636e-01,5.595107471974748448e-01,-3.710298593795950672e-02,-3.473725502626100886e-02,-1.862093024149095999e-02,1.460859477519989014e-01
3.905400879088058996e-01,4.705918971685956742e-01,4.460908972299515440e-01,-3.442396711578769170e-02,-2.860158407754051849e-02,-3.901142876427657336e-02,1.249883845448493958e-01
8.205039224758583494e-01,7.900731518759845917e-01,5.089763404220495335e-01,-2.749454981600237685e-02,3.951698533934032420e-02,1.691004847870713201e-01,4.257146716117858887e-01
5.137922749722958482e-01,5.677663090267849322e-01,5.251428188598279423e-01,-3.288329304438607908e-02,-4.567692927918839962e-02,-4.195103988280932117e-02,1.311950683593750000e-01
3.479466705709944874e-01,4.678055418390377196e-01,4.165579838020382897e-01,-4.181746654924441142e-02,-3.995479384194378786e-02,-4.457994394520190667e-02,1.638516336679458618e-01
3.934671666277699265e-01,5.677769671311184707e-01,5.069682355865154921e-01,-1.029263626272824625e-02,-1.125555614970932261e-01,-4.197335817292954102e-02,2.590201199054718018e-01
2.858287567507160065e-01,3.653594815436239651e-01,2.452754941549142309e-01,-4.981174339801188594e-02,-9.883453705030409431e-02,-6.047935693609147317e-02,2.427274584770202637e-01
4.375396445106842780e-01,4.671611820912836555e-01,5.438827286117775550e-01,-3.392963831975531058e-02,2.035070518707216003e-03,1.154521803822339569e-03,1.118316873908042908e-01
3.871625735093994214e-01,3.917702246496934104e-01,4.994084798649104373e-01,-3.013055326826001926e-02,4.506606200993731881e-03,-4.908243794420157763e-03,1.223108172416687012e-01
4.309372157196686981e-01,4.403309599921762518e-01,5.100918131551198664e-01,-6.376789659443897473e-02,-1.867507339593246427e-02,-1.845174148358995347e-02,1.409852653741836548e-01
2.756337153687589137e-01,4.410380291633060890e-01,3.121405540391699596e-01,2.508677735325430883e-02,-1.030519697225002196e-01,3.076402958992435765e-02,2.433914244174957275e-01
4.654388848686361047e-01,4.750564464626083061e-01,3.854204154486404188e-01,4.419049867661647285e-02,-6.131948060480013618e-02,4.599245359390422699e-02,1.753556132316589355e-01
4.131175208021736767e-01,4.538173748570818455e-01,3.556928698543742606e-01,4.596595415545038504e-02,-3.662513331256523480e-02,3.703389235982287864e-02,1.475417912006378174e-01
4.730469285883269204e-01,5.093230534579383795e-01,3.981344608570016042e-01,1.355847726153019614e-02,-6.414541152098553189e-02,3.769828059616646410e-02,1.637200266122817993e-01
3.291150363277295932e-01,4.532126930923598418e-01,3.778580749053186416e-01,1.127898191738545101e-02,-4.739022434144527646e-02,1.534141539859665108e-02,1.398300379514694214e-01
4.140478337687783505e-01,4.883301342311525128e-01,3.966438411958788657e-01,8.677287670924066845e-03,-3.595836538127088200e-02,6.401278271815672230e-03,1.064959838986396790e-01
3.640634489379686589e-01,4.565357269301185683e-01,3.580807610977058686e-01,7.371206534137955159e-03,-2.907035351158429592e-02,7.417297807149134635e-03,1.095602884888648987e-01
4.105632439983095683e-01,5.028577243380168982e-01,4.394508478088183789e-01,7.748763555655983556e-03,-2.692799807747641230e-02,6.171092505989586585e-03,9.568870067596435547e-02
5.938092363038935950e-01,5.208888079930249493e-01,4.519288745470901869e-01,1.311258498757063469e-02,-1.756097729454820025e-02,5.191706768712348041e-02,1.569349467754364014e-01
4.886264884153282972e-01,4.172865933195783472e-01,3.630727426872088492e-01,-1.731876768031404348e-04,-5.041892003329525099e-03,2.054269008438738484e-02,1.150586381554603577e-01
4.692062269778299877e-01,4.192489296142734023e-01,3.130405265492003930e-01,1.026271981079602928e-02,-1.084672267818669218e-02,4.323405540567339805e-02,1.592429429292678833e-01
3.503387820525714624e-01,4.583571732143091881e-01,3.975813890251790328e-01,-3.317831186479019544e-03,1.680404849562221192e-02,1.112140881955261777e-02,1.002395898103713989e-01
4.745985606533992818e-01,4.106675386767290048e-01,4.184871058939042543e-01,1.028578186177977376e-03,1.626555267742417878e-03,-4.572133053419350467e-03,6.101009994745254517e-02
4.693869562957647124e-01,4.214988989630570893e-01,3.112944785913975276e-01,5.461160546420555997e-03,-1.185433225614890632e-02,3.393739975712221218e-02,1.538897156715393066e-01
4.415344185978292146e-01,3.991583592850019291e-01,2.901268431060520236e-01,1.886352799283657136e-02,-8.676038514324583423e-03,3.435210552410699475e-02,1.521099805831909180e-01
4.676358089599315093e-01,4.216428246544759451e-01,3.025798265773678719e-01,-1.729387580513627384e-02,-2.834924585015472301e-02,-4.427479113881679917e-02,1.759444773197174072e-01
4.878837667917683696e-01,4.446706629506324560e-01,3.363297760186987895e-01,-5.946322976942134374e-03,-8.949592803191136134e-03,-2.790710683184477459e-02,1.448090076446533203e-01
3.726188116363701175e-01,1.511833441545821777e-01,4.490789468406127805e-01,-1.743322254403299743e-01,-5.239755967273289350e-02,-9.874805449501697363e-02,4.477455019950866699e-01
5.178154185888833583e-01,4.243972714027014481e-01,3.820608678075648745e-01,-4.528398622312326664e-04,-3.046572318281062092e-02,-5.679278355416191026e-02,1.641208827495574951e-01
4.663699509642694752e-01,3.968058613228135911e-01,3.545647260246109767e-01,-1.415105206621366726e-02,-1.091262832192601900e-03,-1.747095597675388592e-02,1.052709594368934631e-01
5.070430000451128238e-01,4.420140865965365151e-01,3.986898300559302277e-01,-2.880583811381920347e-03,-1.147725135668256451e-02,-3.992245337159479324e-02,1.188468039035797119e-01
4.862210804434517475e-01,4.273016304418305600e-01,4.131213068895595031e-01,-9.156797629014107667e-03,3.376767785942706452e-03,8.502983037233548258e-03,7.078651338815689087e-02
5.067738585600360945e-01,3.862017531622791155e-01,4.217664598931287201e-01,1.086706173126915885e-02,2.984609920596142593e-02,-7.336007647778271246e-02,1.751745343208312988e-01
5.206603827857685385e-01,4.417183622085784078e-01,4.317257796083477928e-01,7.047825817739796633e-03,8.563281207046939333e-03,-4.630936059089824086e-02,1.179966256022453308e-01
4.634029075637369210e-01,3.498127241290866496e-01,3.634390452616266254e-01,1.382336830992508987e-02,1.786684248594568297e-03,-2.748073115377146214e-02,1.199541389942169189e-01
4.753425817337862958e-01,4.119437449538470020e-01,4.298598658031261843e-01,2.099566649016211539e-02,2.824040752545945929e-02,-2.809493051166323668e-02,9.637182950973510742e-02
4.758587601508536546e-01,4.344649535705609189e-01,4.017753458922237453e-01,1.207309679373759492e-02,1.814584798253959450e-02,-2.169656479936231397e-02,8.350162953138351440e-02
4.827047691569494314e-01,4.665474982839601381e-01,3.774192990936446890e-01,1.774484511908979226e-02,1.833230020827780749e-02,-3.036946887829338956e-02,1.198529675602912903e-01
4.545547287249405155e-01,4.330699465302585982e-01,5.244369423070408542e-01,-5.945749608891186949e-02,1.599935291658092368e-02,1.245618997438361665e-02,1.366949677467346191e-01
2.778018916461819643e-01,4.136572392088889161e-01,4.974874988434368484e-01,-1.032985532756678232e-01,-1.565235494737146973e-02,1.640259413640871586e-03,2.638708353042602539e-01
3.409266475149392850e-01,5.188671496669081673e-01,6.295861344759176026e-01,-1.536355054587934532e-01,-1.026482105571616989e-02,1.024997768408384552e-02,3.675130009651184082e-01
3.990421464392710504e-01,4.837401278727978537e-01,4.117242302863101666e-01,-3.984727434716453347e-04,8.722710048924529197e-03,5.557875158715951287e-03,8.112853765487670898e-02
2.669270261849536752e-01,3.171437669275492532e-01,4.242302548196760781e-01,-6.935195798816097545e-02,8.458573534268529204e-03,7.983116837279397027e-03,1.849369853734970093e-01
2.831060582626265254e-01,4.325745602834766834e-01,4.786729948078308761e-01,-8.222747253724475847e-02,1.349725941775175783e-02,9.158231409126275577e-03,2.289942800998687744e-01
3.813919046005687652e-01,5.266734852811246759e-01,5.959521484063836638e-01,-6.834806428461796812e-02,2.542019950165122152e-02,2.927022643337210198e-02,2.334402650594711304e-01
4.905436249072516741e-01,4.181053823075520093e-01,4.459946988553563085e-01,-1.818873492565463434e-02,-1.260251410692105403e-02,-2.259393965971789181e-02,8.369754254817962646e-02
8.374620931957056369e-01,7.176005147989273913e-01,9.335993268747921903e-01,-2.050169254204239899e-01,5.562461662799220163e-02,1.114633126897959375e-01,4.558318257331848145e-01
4.685303300501584278e-01,3.878179594811045350e-01,4.190136619305108168e-01,-1.156635223376725405e-02,-1.526961129072964933e-02,-1.293706314663671704e-02,8.107223361730575562e-02
5.070579215613428836e-01,4.372398359370901488e-01,4.853704924713551083e-01,-3.776353902822320724e-02,-3.057319706291113798e-02,-2.016414499378463288e-02,1.101495772600173950e-01
4.679100720313520423e-01,4.220053336940211564e-01,4.184131579332400763e-01,-8.171157357593385531e-03,-1.422794959606908834e-02,-1.426141751231027252e-02,6.085078418254852295e-02
3.795717844235642069e-01,4.881025990258796021e-01,4.155039222755750328e-01,2.319989220682250851e-03,2.321059572269782226e-03,3.349952411144612504e-03,9.610560536384582520e-02
4.404747289315775194e-01,3.058971727599619217e-01,3.448743205916094956e-01,-1.383671235529397060e-02,-2.404690996570197845e-02,-5.779492153307713015e-02,1.634465456008911133e-01
4.146609635715307052e-01,3.119536743283803371e-01,3.498508455558196339e-01,-2.729515039486490879e-02,-2.264673056074007276e-02,-4.531611768325019551e-02,1.342647224664688110e-01
4.364405522051222897e-01,2.727237244767269364e-01,3.884524992601954829e-01,-7.277314031398206262e-02,3.787742791856767155e-02,8.501214210474312971e-02,2.512422800064086914e-01
4.025806530272298955e-01,4.113438281376841088e-01,3.824328601800307537e-01,-4.267746246545661010e-02,4.337885285958398285e-02,5.627897585604257208e-02,1.458441913127899170e-01
4.750004886118712188e-01,3.430377703626006913e-01,3.841183054959976251e-01,-2.262387266146405340e-02,3.456706295476112689e-02,5.481184984008704436e-02,1.667748540639877319e-01
4.086468133007377657e-01,3.083499170746072382e-01,3.463987818016449616e-01,-2.781361328246305040e-02,3.055853316240608741e-02,4.629101794890678329e-02,1.387149542570114136e-01
4.242821477103753125e-01,3.803724056583207558e-01,4.801003633092357226e-01,7.425026208353914352e-03,1.011100233956342817e-03,1.025646958406305556e-03,8.755750954151153564e-02
5.932577562844063568e-01,4.593587890107917460e-01,5.084888429888536621e-01,-4.458327990394980733e-02,6.142804104185699970e-02,1.207939441286044885e-01,2.735342383384704590e-01
5.108824179385657027e-01,3.338111898879608797e-01,3.715464302940448271e-01,-5.712177624630775802e-02,6.354376656793861433e-02,7.414380427005973218e-02,2.539495527744293213e-01
4.210682793657081757e-01,3.722848942480002643e-01,3.990035496256894576e-01,-6.395476264259228327e-02,6.089791114043751480e-02,8.948985541848619718e-02,2.218375205993652344e-01
4.650815648824660475e-01,4.658897576265786933e-01,2.909943999352824773e-01,4.235151719729687847e-02,7.475148475127017800e-02,-7.310090964557688920e-02,2.619603574275970459e-01
4.948383875364341100e-01,4.899533754612677150e-01,2.646620406346740784e-01,7.639055570802988360e-02,7.100565103546230272e-02,-9.096849314290877953e-02,3.306635022163391113e-01
4.185956853343223982e-01,4.619845081292439648e-01,2.081998564420331765e-01,2.182501067574412965e-03,9.138368781939452956e-02,-2.648327865877873194e-02,2.871395945549011230e-01
4.805800159582213626e-01,5.160215564648040765e-01,4.316970021969075977e-01,-1.802340642129458825e-02,2.478224626943428821e-02,1.740718845523811856e-02,9.541583061218261719e-02
3.972971380459744406e-01,4.463098281941144108e-01,2.696904058605906762e-01,2.034553763400825943e-02,3.489318428986812326e-02,-2.066558771567812702e-02,1.763964146375656128e-01
3.328991415051347769e-01,4.044212107299852699e-01,1.774931192574192018e-01,2.976946182794491802e-02,1.031111224805204979e-01,-3.582855925986212081e-02,2.806899249553680420e-01
4.176307814162559806e-01,4.364045081036548868e-01,3.272176469952258748e-01,2.320502362610269223e-02,3.387281539164949118e-02,-4.552587961283969392e-02,1.466278284788131714e-01
5.249906239432303723e-01,5.765905232573328432e-01,3.866795976639917365e-01,6.891092903254584547e-03,4.682597881839779125e-02,-1.918435984417758006e-02,1.917131245136260986e-01
5.143587284545907412e-01,5.230070975395906263e-01,3.204109151687902779e-01,1.807716640631050475e-02,3.547210235375727883e-02,-4.997500491353261409e-02,2.271905541419982910e-01
4.258879841197211746e-01,4.181279177312484663e-01,3.123410947136412430e-01,2.278507867398018791e-02,3.093002915725317006e-02,-3.712637690208032276e-02,1.436473727226257324e-01
4.640364894104033189e-01,4.890912087354665760e-01,3.885155067480677848e-01,4.453183955088958756e-02,-1.042560092672082106e-01,6.489477195221445005e-02,2.437509149312973022e-01
4.734882054122746542e-01,3.404330268746512678e-01,4.784038742748888406e-01,-8.854144851259061061e-03,1.468269416168474679e-02,4.460009740775644840e-03,1.390090137720108032e-01
4.812366937778109754e-01,3.486682904026622842e-01,4.778747135452198758e-01,8.425072363531771122e-03,-1.077562106822523534e-02,8.535976081459242804e-03,1.338651180267333984e-01
4.448348523067915949e-01,4.991154806450174286e-01,4.123995576238025373e-01,5.272824076505327334e-02,-4.765764989101694410e-02,5.367022375667999945e-02,1.719159036874771118e-01
4.466873558607094008e-01,5.287216753802624902e-01,4.889351976621233997e-01,4.238403296270682602e-02,-4.882530033897388572e-02,5.751563731955583458e-02,1.658729314804077148e-01
4.873405587193594402e-01,4.522475760470114903e-01,4.048106039933662137e-01,6.985317052690701023e-02,-1.418636411473623016e-01,9.558642426976028672e-02,3.279802799224853516e-01
4.911537635097378840e-01,4.792682115016992928e-01,4.928839060317453113e-01,3.009336817626711083e-02,-2.201525606065231344e-02,3.009293632288875461e-02,8.397872000932693481e-02
3.640443946083352644e-01,3.641406479479475933e-01,3.505369828271635568e-01,4.904395880609536268e-02,-4.971558940813059629e-02,5.036176535863972487e-02,1.497448831796646118e-01
5.083306862214228561e-01,3.963287315749429718e-01,4.644589742843583391e-01,7.045777698177145554e-02,-6.801142339036453377e-02,1.581504423561447825e-01,3.366893231868743896e-01
4.856073786045378426e-01,4.515223424146240783e-01,4.659082171713941900e-01,1.384397259308455252e-01,-4.536227539294807737e-02,1.177835789465355304e-01,3.258330821990966797e-01
3.584951483307970421e-01,3.601942922599751795e-01,4.587198084493033789e-01,-3.033134349683700923e-02,2.710677120850009131e-03,2.524622468194736256e-03,1.125997751951217651e-01
3.553730882241727396e-01,3.064632608102614286e-01,4.546410758457167800e-01,-5.901309655363343870e-02,2.315324390473133542e-03,1.736477621927063827e-03,1.660549640655517578e-01
4.613197540329122548e-01,4.348980487106696713e-01,5.714892650213792002e-01,-7.400883502790649160e-02,-4.580908304194739565e-03,-1.532025679032729404e-02,1.815084069967269897e-01
4.159503917518394545e-01,4.418077597012650681e-01,5.141223859424020048e-01,-3.555180305797431273e-02,7.522635443339952162e-03,1.094985725817955620e-02,1.099506020545959473e-01
4.917199644725575025e-01,4.132974584527747686e-01,4.272041177854460359e-01,-1.454538346414215207e-02,-2.232107055855864740e-03,-2.014674217152399860e-02,8.438136428594589233e-02
4.532386978177991299e-01,4.243905132306118322e-01,3.896600537663345021e-01,-1.622348288656168952e-02,-1.316133509081258979e-02,-5.686888891073462599e-03,6.668299436569213867e-02
4.815500871473855082e-01,4.402581092805037954e-01,3.577014814299970258e-01,-1.682574315549040592e-02,-1.430024495537488526e-02,-1.064492486363688081e-02,1.171849071979522705e-01
5.054566036775838267e-01,4.855994792552895123e-01,4.356488774838652156e-01,-2.787958623949399542e-02,-4.342311992169542445e-02,-5.572199760783994038e-02,1.455492377281188965e-01
4.650537919689083921e-01,4.198309442559645110e-01,3.099026862301580976e-01,-2.528606590299468590e-02,-9.998009210908069197e-03,-2.434424736659366803e-02,1.519755274057388306e-01
4.088292007687493457e-01,4.019083562756627925e-01,3.079602063026714021e-01,-2.210022950790941493e-02,-1.909228944804515493e-02,-2.141181418805351150e-02,1.160110235214233398e-01
4.814773817366341246e-01,4.148091274409589913e-01,4.399804088811679059e-01,4.387066917716453407e-03,-1.281497686260932994e-02,4.589599561586987612e-03,6.335398554801940918e-02
4.513130127229925126e-01,5.265814675950676316e-01,4.238967851616759486e-01,-2.002891857993709199e-03,-3.041317206556665848e-02,5.234773127540993682e-04,1.061522811651229858e-01
5.081744036028809086e-01,5.069461555886888293e-01,3.773455801010803801e-01,-2.161878317411209879e-02,-5.388929215143502260e-02,-4.623428747983691911e-02,1.829866319894790649e-01
4.298833529956955779e-01,4.324191223011921714e-01,3.379708466248105836e-01,-3.776860969231250059e-02,-3.383019113635937075e-02,-4.614862058577921117e-02,1.509613990783691406e-01
4.102427496211379365e-01,4.847545556942621792e-01,3.635116260474351435e-01,1.564247058406390348e-03,3.508113419868089111e-02,4.241278974850912035e-03,1.223568171262741089e-01
3.770355601992361749e-01,4.171075867023356087e-01,3.439608772381560486e-01,-2.700706350132429934e-02,-4.971434092325408699e-02,-2.429398219468384759e-02,1.240901127457618713e-01
4.568391330077430368e-01,5.138030020261664665e-01,4.474480459814760835e-01,-2.261903983022039641e-02,-2.949326182802566518e-02,-2.042036199061201748e-02,9.624666720628738403e-02
4.237527413547093613e-01,4.224624360864086547e-01,3.389164745021325253e-01,-4.368323733382600826e-02,-3.802503083802421385e-02,-4.576653249171792892e-02,1.530865877866744995e-01
4.351791334080187812e-01,4.781206595129360859e-01,4.302187925941444724e-01,-2.702263678580741138e-02,-4.391578228879033235e-02,-3.483864738601247235e-02,1.170437335968017578e-01
4.217275617893517792e-01,5.673246077901016315e-01,4.949105953176589079e-01,8.450499083806467179e-03,1.157118028594562309e-01,-4.974896485699371873e-02,2.524000704288482666e-01
3.040746359326852444e-01,4.103163373053286822e-01,3.607183920078770312e-01,3.131879116422516679e-02,4.918569417160880558e-02,-2.969749176569891694e-02,1.460274159908294678e-01
3.778973516166427848e-01,5.011637404929966122e-01,4.716777057193123901e-01,3.283666643402208957e-02,4.766465256375008314e-02,-2.310172869354554931e-02,1.551804095506668091e-01
2.281064855645996703e-01,4.161747593379522270e-01,3.948984020044230547e-01,4.863605709963735729e-02,6.434636533836930739e-02,-4.432528471230587352e-02,2.392340004444122314e-01
4.316987879613560231e-01,5.397895675000040638e-01,5.159398616601010845e-01,3.947794507554239218e-02,3.551579711850878784e-02,-3.221535665853746816e-02,1.457656323909759521e-01
4.667011645318035473e-01,6.597568490958193310e-01,5.831886764656467603e-01,5.928247807471693359e-02,9.181680049774938734e-02,-4.709279948552919093e-02,2.661553323268890381e-01
1.915880647109536317e-01,4.007212618596318054e-01,3.050460531767675287e-01,3.379719553645817165e-02,9.681048367006467315e-02,-2.136378500030247651e-02,2.565041482448577881e-01
4.193052584696413954e-01,5.244310044548813332e-01,5.410240214042205675e-01,-6.831061838374830053e-02,-4.884649075633090698e-02,-3.765608521151483229e-02,1.961683183908462524e-01
4.820074807648028758e-01,4.913466878757510869e-01,5.931656044961768348e-01,-6.179783244092351691e-02,-1.928613884866595130e-02,-2.416476620293140504e-02,1.604051440954208374e-01
3.491962129247084823e-01,4.105782029572289660e-01,5.744924686565114902e-01,-1.229833982923231317e-01,-3.101463140342092945e-02,5.007578565112536136e-03,2.983835041522979736e-01
2.377542106848450632e-01,4.148848148293228788e-01,4.275060786116958722e-01,-1.078010482815544152e-01,-5.635686617518018138e-02,-5.303580307462871235e-02,2.942788302898406982e-01
1.733705039763590861e-01,3.663140813144389885e-01,-8.635584331784157408e-02,6.355610423364674300e-02,-2.413315542685901260e-01,9.959751357026393193e-02,6.094238162040710449e-01
4.456789312406481685e-01,3.714300928424820736e-01,-1.203051044630895627e-01,1.386352560198748397e-02,-1.042822487208404508e-01,-2.478596678142314449e-03,5.630688667297363281e-01
4.756818001876357282e-01,5.518240541354078044e-01,2.365391920106159618e-01,1.126175294304384254e-02,-4.697509071992054391e-02,-4.376726708243844702e-03,2.970750927925109863e-01
5.424131975649838511e-01,5.936365737223192607e-01,3.657127669842861195e-01,1.335242244265693635e-02,-4.169278841836515648e-02,1.594546363187063567e-02,2.222848832607269287e-01
5.747396090289853543e-01,6.212706344434533179e-01,3.955695095462895550e-01,1.327894855340563778e-02,-8.841808345950963322e-02,4.094771526663137234e-02,2.676124870777130127e-01
5.757994198901318361e-01,6.518170634193594104e-01,3.865852820829215331e-01,5.071943332515642389e-02,-1.229993612106793921e-01,6.239663550170677919e-02,3.474884331226348877e-01
5.531742549707928669e-01,3.777040771564319499e-01,4.980766294301596231e-01,7.330221225458529062e-03,9.377548646087280337e-03,-5.626850435875991457e-02,1.846103668212890625e-01
4.010907855306114489e-01,2.807817997074009142e-01,3.776067398093158056e-01,7.395311987036221058e-02,5.337355873311195459e-02,-1.443210742730996199e-01,3.156572878360748291e-01
5.084363443463266741e-01,3.457334367746155435e-01,4.578118206646744626e-01,6.307823260788091371e-03,-2.437910998095920313e-03,-5.858390751568599147e-02,1.767250448465347290e-01
3.946558457674496090e-01,3.930360372967999227e-01,4.625079150369236780e-01,-1.844582700841428113e-02,-1.272179805770956400e-02,-1.365527070778169150e-02,8.235357701778411865e-02
4.456742797650035115e-01,2.334586377253531353e-01,3.705899572698387878e-01,2.938347323206595349e-02,2.630222107952966126e-02,-8.917430842310294925e-02,2.515170574188232422e-01
5.275196864183301360e-01,4.279166021916669393e-01,4.498456156209399426e-01,4.073665354488060358e-02,1.660148541263333985e-02,-5.745966880254628484e-02,1.546853333711624146e-01
5.911671829740410278e-01,3.491734616962979820e-01,3.453053099629213030e-01,3.416579812079442724e-02,7.490002298425202376e-02,-1.022994852946054606e-01,3.335258364677429199e-01
3.472319871018623161e-01,6.584741823925978066e-01,6.582778262360490240e-01,-3.230535799130938857e-02,1.994928367623366797e-02,5.528444978014852677e-03,3.181621432304382324e-01
3.447062519552570592e-01,5.541805313007528433e-01,5.578030055630415207e-01,2.890362164786474883e-03,1.073202505500586018e-02,5.738713006763946495e-03,2.124165743589401245e-01
1.159672677307095334e-01,4.149029692191457674e-01,4.289299059711609852e-01,-2.003757700682450710e-02,1.086676326833710746e-04,-8.223321893708881655e-03,3.084799349308013916e-01
2.546288751631055058e-01,5.104204099186415711e-01,5.735330240097749055e-01,-2.811654094876348334e-02,2.743040211169518738e-02,-2.274319150156630526e-02,3.028809130191802979e-01
3.038779116397696822e-01,2.898463739656390037e-01,1.989599204337216543e-01,7.163491319022587123e-02,1.081066436798436142e-01,-1.044941567159187179e-01,3.048695027828216553e-01
4.940885355767652420e-01,5.397074269605890429e-01,4.574847935296439405e-01,5.126184246614932938e-02,5.990784039727517496e-02,-2.183046270494848687e-02,1.586525291204452515e-01
4.427446109417381148e-01,4.301822164346841282e-01,3.398058228084612775e-01,2.603838117781323222e-02,2.632223007403385745e-02,-6.091510710256424488e-02,1.571800559759140015e-01
5.004454746299232815e-01,5.419043061440251829e-01,2.632819455605709402e-01,5.257154316883431988e-02,9.539890590274072157e-02,-7.699080249618284189e-02,3.481017053127288818e-01
3.924806804586593589e-01,5.228511065452101647e-01,3.084783546211596894e-01,5.619565760958529499e-02,1.396519212300600665e-01,2.089588195694919333e-03,3.209348618984222412e-01
4.228006591969640793e-01,5.326894739351241137e-01,4.469932910276794291e-01,3.538461631030750953e-02,7.330095256142503402e-02,-2.312944149846939135e-02,1.774332225322723389e-01
3.881552478167032416e-01,4.801268795467273365e-01,3.439001305991941648e-01,1.018706956806431259e-02,5.813483839562007954e-02,-1.431898385255257582e-02,1.598528027534484863e-01
5.685750475536386350e-01,2.979223877234959406e-01,4.874518923777416690e-01,-5.738319046868257944e-02,1.036690948228952414e-01,2.269855690675501858e-01,5.045446753501892090e-01
3.622328775558198988e-01,6.080059600475797021e-02,8.813455694311522759e-02,-4.036874792772405379e-02,4.299007621014172553e-02,2.436325201729243051e-01,5.214143991470336914e-01
5.474966690403008096e-01,2.666233148331745295e-01,4.213526002798976267e-01,4.525047680408399164e-02,-4.636891759164057936e-02,1.643303583481980634e-01,3.911241590976715088e-01
4.540200262548504950e-01,8.044377427733598318e-02,2.142425089229765267e-01,9.023193974417113850e-02,1.582140378062152006e-03,2.660653774065648847e-01,5.867559909820556641e-01
4.882139468710525176e-01,2.556140858277003991e-01,4.128058541189312813e-01,-2.253881232073727189e-02,-2.755205295848792493e-02,1.442722027544524888e-01,3.293841481208801270e-01
7.397140269082378428e-01,5.703933186098687491e-01,6.356750988622130727e-01,3.143384642798837530e-02,-2.653373652396581392e-02,1.074228592079421729e-01,2.481391727924346924e-01
6.584988814807044566e-01,4.774070092149057531e-01,5.053621304869460040e-01,-9.808014601959310838e-03,1.017764766679729593e-02,1.345663364200807843e-01,2.888545393943786621e-01
3.964729285240685686e-01,3.718514751590828449e-01,4.192311430628367641e-01,-2.937151849208133672e-02,-3.237592031960694061e-02,-3.074885140870150732e-02,1.012601926922798157e-01
4.285205613928091406e-01,4.392609676348107617e-01,4.270202821900804246e-01,-3.642020288046147330e-02,-2.685019544180241788e-02,-3.711522390325086573e-02,1.020217239856719971e-01
4.522107118049235042e-01,4.329064875273488933e-01,4.709788597749109407e-01,-1.889557203512480521e-02,-1.616534689905767611e-02,-1.470930941270655323e-02,5.992808565497398376e-02
4.817811056804949255e-01,4.771697033167611735e-01,4.891474310022875249e-01,-4.934130855434256530e-02,-3.057014477609672556e-02,-2.484203086917867800e-02,1.098552346229553223e-01
4.113358468296788861e-01,4.002238440069379455e-01,4.420768775944602380e-01,-1.233361864439747914e-02,-1.996302392273808374e-02,-1.335893992608457558e-02,5.997822433710098267e-02
4.415941374828302179e-01,5.000913526271514309e-01,4.567927560874991411e-01,3.192628571812931859e-02,-5.594702669448491095e-02,2.704359342898578905e-02,1.319317519664764404e-01
4.848937989331950082e-01,4.886718131924790987e-01,4.631353371389055340e-01,3.177615841540990665e-02,-3.724766323095814180e-02,4.429365473128971803e-02,1.168204993009567261e-01
4.948622556160553465e-01,5.601401477874590196e-01,5.127385010852655300e-01,3.901637274370777647e-02,-4.615778003254053519e-02,3.711900658892744453e-02,1.360358595848083496e-01
4.982344704953045600e-01,4.858342522388389706e-01,4.587539940781917847e-01,2.162911905497020768e-02,-3.317242891655836773e-02,5.072958604954091316e-02,1.168249398469924927e-01
3.968306177793120559e-01,3.480079979752047081e-01,3.594042540281633946e-01,5.483231386089702092e-02,-6.888641957894113543e-02,7.822658814324914833e-02,2.087368965148925781e-01
4.692146195697718958e-01,5.106844900389528874e-01,3.815747345201602747e-01,8.769135844337924701e-02,-6.178423675101368112e-02,9.044433567235635185e-02,2.685081958770751953e-01
5.018249309110258682e-01,4.354715064194130125e-01,3.957744345940933384e-01,9.064105224942176076e-02,-6.483072385909843804e-02,5.994299367818693020e-02,2.380097210407257080e-01
2.765003076756334388e-01,3.990800162352400871e-01,4.298344992247615792e-01,-9.387990798717060770e-02,6.216229722854196144e-02,2.925868695773882477e-02,2.456470578908920288e-01
4.267889551644163393e-01,5.796015862308072641e-01,6.304354844497093158e-01,-4.519828409190364965e-02,-4.973770187233883533e-03,7.727761545505992466e-03,2.002145648002624512e-01
3.224507526076662023e-01,5.235529206574596195e-01,5.757073126053366963e-01,-4.303649937415228444e-02,2.541740692404459781e-02,9.296282780385127509e-03,2.477989941835403442e-01
3.559842486764979164e-01,5.032600220908931554e-01,5.957746280278435336e-01,-8.618858797050106546e-02,6.789407445266106012e-02,6.829832642615035754e-02,3.065656423568725586e-01
1.775642904235640862e-01,3.649923058628336547e-01,4.437129970224369946e-01,-1.077498411321521354e-01,4.861138053965581227e-03,6.545657315134423412e-04,3.016337752342224121e-01
4.301091032630277589e-01,4.034089819118366060e-01,4.850192650233715042e-01,-3.164423776039470421e-02,-8.014626390648788012e-03,-4.557738486955465081e-03,9.194142371416091919e-02
3.619747832892337702e-01,4.737652041099372213e-01,5.519131994968530242e-01,-5.283612137805582948e-02,-2.525669234656300818e-03,1.021075432698857408e-02,1.898612380027770996e-01
2.882799865641103021e-01,3.514822930329610795e-01,4.425331318117491364e-01,5.833141229411677869e-02,-4.848081537754772748e-03,9.445660011497070477e-03,1.690717190504074097e-01
4.946339727421762977e-01,8.026650442517265782e-01,6.817294312896885478e-01,-3.991150901198003975e-02,-2.155168040964922094e-01,-6.615083898822518571e-02,4.790675342082977295e-01
3.829483650669160966e-01,4.399612909070571010e-01,4.393269560806192242e-01,7.028686065450700550e-03,-6.934743454692178163e-03,1.754665113170500099e-02,6.656458973884582520e-02
4.053351527040034430e-01,4.466180746089893350e-01,5.224809557579378483e-01,3.641831440201576120e-02,1.574301895231259955e-03,4.912779606846731650e-03,1.210372671484947205e-01
4.283068669188511701e-01,4.558957995466798030e-01,5.107476686207115257e-01,6.044620886773861140e-02,9.501452008011177300e-03,-1.989727436720605327e-02,1.330524384975433350e-01
4.245586787649187066e-01,4.242568001370877195e-01,5.030048580871355757e-01,1.232109633458788878e-02,7.478879577501053831e-04,-1.342707615484110351e-03,8.148674666881561279e-02
3.918639473914178328e-01,3.880863493252099117e-01,4.767740416104652712e-01,1.919928667615411477e-02,3.650160641264729635e-03,-4.856062953020333188e-03,9.360183775424957275e-02
4.224441786480074290e-01,3.984946734035531013e-01,4.937027292195126926e-01,4.810882271640892771e-03,3.685355780952790251e-04,1.389980309313271906e-03,8.621834963560104370e-02
3.890932450198495984e-01,3.888292440657378779e-01,4.719609656420928889e-01,1.958211583124317562e-02,6.856742848346536121e-03,-1.117479919217949369e-02,9.249354898929595947e-02
4.257335596426172764e-01,4.366817301777149440e-01,5.028535883751059643e-01,2.727177896111114205e-02,5.747729530830676323e-03,-1.249117056503212461e-02,8.956274390220642090e-02
3.909963059084352599e-01,4.409125282674219437e-01,3.998567705364035607e-01,7.386375008970619098e-03,7.354009995922778167e-03,-8.865732515158979143e-03,5.186115950345993042e-02
5.275126171231944161e-01,6.636509563872243778e-01,3.506377316302422553e-01,2.486563176108237596e-03,-1.120620651024708675e-01,-5.973077833317181999e-03,3.342112004756927490e-01
4.941883483970640478e-01,3.918803334335443367e-01,2.567779246513863800e-01,5.555531942852805433e-04,7.751553490975266088e-03,8.113086085165044370e-02,2.499389648437500000e-01
5.338500258087002237e-01,4.576095156510872619e-01,3.491796820919095268e-01,3.238095573758011103e-02,-1.872337620693289781e-02,8.122721709482090546e-02,2.232201695442199707e-01
5.314671537995183659e-01,4.922668468543416331e-01,3.989607504869384647e-01,1.114899502946384291e-02,3.637931010757718998e-03,5.710878234842137885e-02,1.552326083183288574e-01
4.543493340963221661e-01,4.605143037023449737e-01,2.479481371158611114e-01,9.668749059731931994e-03,-2.760206541159940935e-02,5.304851614471138566e-02,2.343510836362838745e-01
5.471761070323963860e-01,5.030537165836549418e-01,2.886379442144721974e-01,-1.245541143194865696e-02,-2.837088851438160711e-02,6.016298463564040411e-02,2.666839659214019775e-01
3.836683745470524931e-01,7.042336375898012868e-01,6.419446981182836964e-01,-1.108310703390563701e-02,8.543975725956566569e-02,-3.753485626329637614e-02,3.364064395427703857e-01
3.278454825656827443e-01,5.310452641091941706e-01,5.038039936317287859e-01,1.861747911326767230e-02,3.266393703819202993e-02,-2.518274078735088795e-02,2.064944505691528320e-01
3.569816519514974473e-01,5.690076971755005930e-01,5.509723451603255606e-01,-1.147502914891540722e-02,6.356461380274183726e-02,3.017890586052195817e-02,2.381282448768615723e-01
2.911557267564641727e-01,5.491555811737903747e-01,4.532855674525325118e-01,-1.506119615092280963e-02,4.149994222329413118e-02,-9.327713219289088253e-03,2.390163391828536987e-01
2.793449810535795219e-01,5.003431684122131573e-01,4.858776839332750175e-01,4.550787190747280532e-03,4.252977018216704680e-02,1.379172600308944605e-03,2.265982776880264282e-01
4.102621142404302979e-01,4.482294045968538421e-01,4.045445989458192892e-01,2.452055796379722877e-03,2.920944910761134883e-03,-2.610285910724523088e-03,4.189699143171310425e-02
3.915842587314698475e-01,6.389495589348632709e-01,5.993000210497703151e-01,2.316439507090741964e-02,6.520933618315429003e-02,-3.253921426024449642e-02,2.655121386051177979e-01
4.288553057641402710e-01,4.305416381751812072e-01,4.341315080913979996e-01,-1.070299426126843670e-04,-1.243510581419306985e-03,-2.535551597815075258e-03,6.763503886759281158e-03
5.793424805132711963e-01,3.754596431619486863e-01,6.639637887534591831e-01,1.013030612751347204e-01,1.921385578943978975e-02,-4.522668965871165514e-02,3.225098848342895508e-01
4.984865264111780214e-01,4.375066085011892758e-01,5.742110266316332590e-01,7.131086071673035931e-02,1.426497283071834730e-02,-5.526058208294701291e-03,1.732865273952484131e-01
4.709513810393212152e-01,2.415708006366150962e-01,5.070375281245699250e-01,7.071497598558836029e-02,9.783950861842558716e-03,-1.779034473098008986e-03,2.783767580986022949e-01
4.733039422442150701e-01,3.560550140676236319e-01,5.265013520854503470e-01,4.635931083029549288e-02,2.196959177107461053e-02,-4.226602517430308459e-02,1.899194866418838501e-01
4.022063860052800810e-01,4.334636442273315793e-01,4.826805729793452460e-01,-1.898625046057111215e-02,2.286081964485026444e-02,1.956200219746786345e-02,9.346126765012741089e-02
4.032654906102238757e-01,4.293801750410689011e-01,4.298092428065907189e-01,-3.759140450303718323e-02,3.510362289674411745e-02,2.450247584575410836e-02,1.021303758025169373e-01
4.128874996051412061e-01,4.268301741564413665e-01,4.271079256616187592e-01,-2.094044264670730238e-02,3.001959495655084215e-02,1.067400576512262528e-02,6.752174347639083862e-02
3.935045965109165156e-01,4.200061179461484495e-01,4.228033045800979051e-01,-2.389737112457168342e-02,3.079545558336991423e-02,2.596996456860625052e-02,8.582502603530883789e-02
3.808465624026813878e-01,4.366777241410553234e-01,4.799866286062915433e-01,-2.843366723258603304e-02,2.560183394326031106e-02,3.032216917104988557e-02,1.206683441996574402e-01
3.542497702551010152e-01,4.039133248012666266e-01,4.251333464723255906e-01,-2.895239925076075957e-02,2.644118979387218710e-02,2.376394081881594636e-02,1.013751849532127380e-01
4.377304501569210804e-01,4.778266458320687970e-01,4.075192009743195953e-01,-1.977774723297761814e-02,2.441418839882673886e-02,1.277370584315443147e-02,8.475210517644882202e-02
4.091062284282666606e-01,4.426739516953693832e-01,4.145070375893553649e-01,-1.544612821845432228e-02,1.549135830583179586e-02,2.080701539088985336e-02,6.090286374092102051e-02
4.559858660121060003e-01,4.666458754901896544e-01,4.231308087673808505e-01,-5.656423887637356679e-02,4.248653921521738236e-02,5.100042295558320643e-02,1.560779064893722534e-01
3.884566662506729884e-01,4.128482566382808416e-01,2.237695301965630934e-02,8.934688542252280929e-03,-1.918157998826520716e-01,6.800667033010150860e-04,5.041421651840209961e-01
4.040480360168809404e-01,4.436255166281032336e-01,3.642250992760964756e-01,-2.338499453330390374e-02,2.982485130757127692e-02,1.963494267902767682e-02,1.009656712412834167e-01
4.295997026012590148e-01,5.119445793097259223e-01,4.071579346198630489e-01,-2.244787221345348124e-02,6.371318669285733205e-02,3.284706543598946149e-02,1.614276766777038574e-01
3.761249407206749273e-01,4.782285247271138573e-01,4.148714538726683831e-01,-4.599137421011596089e-02,7.929885020060188638e-02,2.530403157798733621e-02,1.873544752597808838e-01
5.121079581825117577e-01,3.962321562103572892e-01,5.652566924820082717e-01,5.777593426076928912e-02,-3.363721761910863899e-03,1.147374850168622401e-03,1.801741123199462891e-01
5.343497604288320879e-01,5.233461174368958524e-01,2.972016294667469416e-01,2.600233589531309591e-03,-1.119410075007229964e-02,-4.347482283691988039e-03,2.328169494867324829e-01
2.807735944973061559e-01,2.511724110947839428e-01,4.792350428163976161e-01,1.287439944635450362e-01,-4.210396597111149691e-02,6.601812026513152742e-02,3.380182385444641113e-01
4.178653703290886590e-01,5.022606393894903931e-01,3.642279386227583182e-01,1.320338039503244319e-02,5.612493264256004921e-02,-3.248831853581114759e-02,1.663302928209304810e-01
4.937805296892849860e-01,5.091840038115440503e-01,3.158259628274353026e-01,6.935048100572278017e-03,4.568637404687187625e-02,-1.416478086413062651e-02,2.040935009717941284e-01
4.080648124701092283e-01,4.902687838769198003e-01,3.733272524490544586e-01,3.800465340712468054e-03,7.492468125668799717e-02,-2.345842640828112863e-02,1.713333129882812500e-01
4.831335883876651804e-01,6.024861042120064347e-01,4.590777730845176929e-01,1.244675124001842770e-02,7.558848430156636655e-02,-2.970843612110951257e-03,1.879545897245407104e-01
3.935107915568824000e-01,4.594437120010311237e-01,2.383412553644119192e-01,-1.703123861976342870e-02,8.073815867430994553e-02,2.119445020164965540e-02,2.458236515522003174e-01
4.825716794551619948e-01,5.108402900877005992e-01,2.235546641236256238e-01,-1.441478620140562023e-02,7.892833863280014628e-02,8.639424148729125952e-03,3.078105151653289795e-01
4.422022017853746712e-01,6.263281114075274214e-01,3.876573085951360853e-01,2.508060159513109122e-02,1.018630899972540332e-01,3.008079018097237992e-03,2.827775478363037109e-01
4.231146511549486733e-01,5.111263643830813441e-01,5.608098633668880950e-01,-5.158661801432819216e-02,-1.372229819139496147e-02,-1.033478678642543724e-02,1.531538665294647217e-01
4.677803217274962844e-01,4.649664597638911712e-01,5.574906966312489498e-01,-5.880078374710281941e-02,-2.392143218280471523e-02,-2.819859344666982362e-02,1.509406715631484985e-01
4.090737640349053628e-01,3.770115270399976848e-01,4.776551981911934530e-01,-1.521081035818035443e-01,-1.741743969051166158e-02,-5.245602030929751719e-02,2.941188514232635498e-01
4.736120228514761332e-01,4.886394045186930879e-01,5.727842898902762991e-01,-6.199972283774333320e-02,-2.199584783922759607e-02,-1.158869333094502199e-02,1.481786221265792847e-01
3.877536996948887649e-01,4.017075356546162546e-01,4.437276171548257819e-01,-4.898471472424217876e-02,-4.939437074367525327e-02,-3.833625289537247183e-02,1.465389430522918701e-01
3.926787024262637926e-01,3.896894388599334014e-01,4.530128213887691935e-01,-5.725009488357513804e-02,-3.594690846162795078e-02,-3.317498459260995181e-02,1.443623751401901245e-01
4.004483231146656608e-01,3.261184523035937088e-01,5.074537491096587916e-01,5.560906526398134986e-02,4.434132015498586273e-03,-1.436242246845653627e-03,1.851244717836380005e-01
4.291326941491394598e-01,4.673367211381678765e-01,5.414208966408006196e-01,3.171144831063539560e-02,-3.946155176054379210e-03,7.675560142777817021e-03,1.140992268919944763e-01
3.828536376217339110e-01,3.902500698082494446e-01,4.955474181904607200e-01,2.974265595207932142e-02,1.104796263128184509e-03,6.711518134295589924e-03,1.213001906871795654e-01
4.299816747912973414e-01,4.320194093035640281e-01,4.332309737512510250e-01,-7.612314188422875843e-04,2.637155328575132456e-04,9.036691641111217841e-04,3.533554729074239731e-03
3.523711803433686729e-01,3.617910411768289203e-01,4.475533670201065073e-01,3.353596098846901852e-02,-6.040445695043093581e-03,9.438051178217611928e-03,1.095557063817977905e-01
4.858744126242584560e-01,4.565873134369306530e-01,3.902529251130445465e-01,-1.251137416574236647e-02,-4.935549070166235681e-03,-8.119304288129952987e-03,8.911329507827758789e-02
4.493804248549370106e-01,4.185740326820146517e-01,5.338319515408261884e-01,-8.076373285011223535e-02,-6.944059495308474439e-02,-9.513751461147090804e-02,2.680867612361907959e-01
3.792281233051085221e-01,5.253297292916373484e-01,5.002538549738728690e-01,-8.492212665709536479e-02,-6.557064028168779757e-02,-2.913551837665566066e-02,2.353536039590835571e-01
3.065623449031220082e-01,3.253542249438737266e-01,4.189191003722705919e-01,-1.038921299540734866e-01,-5.900804958555570107e-02,-4.711532505128011167e-02,2.456662654876708984e-01
4.180557586123215819e-01,3.584144301384954434e-01,5.292380833431620246e-01,-1.235350658162485959e-01,-7.823158985299746848e-02,-3.416305002078040554e-02,3.003236353397369385e-01
4.452206623590445056e-01,5.222878441903217039e-01,4.043790659690755240e-01,-1.324037941493411575e-03,-3.595996728968502143e-02,2.223583987588097569e-03,1.210552901029586792e-01
4.265099700161800178e-01,4.822690789548590984e-01,4.903257177740301676e-01,-6.618518319344186829e-02,-4.643380206163782997e-02,-5.555617842890503422e-02,1.802565306425094604e-01
3.353117858411431285e-01,3.634688590907153571e-01,4.378127464182924866e-01,-5.389393220246395388e-02,-3.315286080992061596e-02,-2.885043734921420230e-02,1.513974517583847046e-01
4.729197910445254727e-01,5.056766297934427445e-01,5.038736244348803739e-01,-6.338911148594211786e-02,-5.288216007446772116e-02,-5.492027676701520533e-02,1.746711730957031250e-01
4.141628517613951677e-01,4.572612901633315574e-01,4.245658242315903941e-01,5.234445419004688481e-03,4.911101556628303527e-03,4.739318039032893956e-04,4.089711606502532959e-02
4.822639065217159127e-01,4.826278661917152712e-01,4.690926323518825880e-01,-2.434240277070305256e-02,-1.926283589602120067e-02,-2.597188379966319446e-02,7.136423140764236450e-02
4.632379413036367133e-01,4.096276383006784982e-01,4.315937022524138356e-01,-2.031754544066665530e-02,-3.186471641794269560e-02,-3.079047931873168942e-02,9.647598117589950562e-02
4.013845528524191963e-01,4.265906687349120263e-01,4.108861990836698563e-01,-1.848099505991915303e-02,-2.839106024311795554e-02,-2.186404752246450672e-02,7.323276996612548828e-02
4.258425961462064535e-01,3.764682483372336907e-01,3.867635576677482812e-01,-1.790417228071788242e-02,-2.286319936899354130e-02,-2.212680052937309252e-02,7.767970860004425049e-02
4.614305316502593790e-01,4.444445004364105389e-01,4.148429405246463197e-01,-1.368656805509467847e-02,-2.450780597685416409e-02,-1.206653914510997377e-02,6.684503704309463501e-02
4.864084790773054445e-01,7.597481074469876194e-01,6.916551132492141374e-01,1.700285343050339237e-01,1.551587219614301294e-01,-1.019971503363843873e-01,5.008999109268188477e-01
4.029543517839320743e-01,4.425814267945631375e-01,4.117531597356097750e-01,-4.758767526729273251e-02,-7.166169738120280186e-02,-3.839583359441742227e-02,1.670979708433151245e-01
4.009966888602579660e-01,5.134276564336177628e-01,3.265996058224572840e-01,-1.960811943923491257e-02,-5.185610005057824518e-02,-1.330077693322659349e-02,1.905033290386199951e-01
4.586258702527452602e-01,4.967485509763166496e-01,3.400967135029388522e-01,-1.278209793879032073e-02,-3.890909071568745409e-02,-2.631229090177671093e-02,1.647120416164398193e-01
5.428628941293565102e-01,5.535104169259343898e-01,4.126853705325994048e-01,-3.036437041858044625e-02,-5.023785172448803904e-02,-4.812648727555561556e-02,1.890280693769454956e-01
5.372021314366579592e-01,4.445315045239226492e-01,4.592938380979978419e-01,-1.395104543601299874e-02,2.556515593817303492e-02,6.412338774384923612e-02,1.493913978338241577e-01
4.675802354992136811e-01,3.220774987193807948e-01,3.768765767115414000e-01,-8.921258847752746527e-04,-7.576283141843577745e-04,5.028754976944221217e-02,1.542439311742782593e-01
4.168987149058862030e-01,3.033948357619150049e-01,2.548798882321946513e-01,1.279033825860893077e-03,-1.494556184619637415e-04,6.652038827178245739e-02,1.844541281461715698e-01
5.625120028183400178e-01,5.535145918759600825e-01,3.586054285530596575e-01,-7.602590076923968279e-03,-1.670230503105023592e-02,-2.265390340773188252e-03,2.021135985851287842e-01
4.357241475933611996e-01,4.121953349670775535e-01,4.221596908464857467e-01,-9.287677625194992390e-03,-6.408677187953599509e-03,-8.432377137242423604e-03,3.183952346444129944e-02
4.841640418347844532e-01,3.829960650937674349e-01,4.306132643366313295e-01,-3.569933099612085381e-02,-4.954214663964168902e-02,-4.246533302255842829e-02,1.558253318071365356e-01
3.693732993673310983e-01,1.970672697772199722e-01,2.857092017290586705e-01,-5.842802621339050068e-02,-4.717849775773125948e-02,-1.144426537249247089e-01,2.801491022109985352e-01
4.972045914910937503e-01,5.283163857522528151e-01,3.421603062214511048e-01,-5.390392393798639457e-03,-1.679530256003405192e-02,-1.855184384699168311e-03,1.754255443811416626e-01
5.015617678585926331e-01,3.986213336290664877e-01,3.913928378828415711e-01,-3.912055345942975874e-03,-2.064933071433770403e-02,-2.350092156878914179e-02,1.198960617184638977e-01
5.763565078842067813e-01,3.489409257882936100e-01,5.817977269768784820e-01,-3.382873277050862243e-02,3.166005623951684278e-02,2.879311715106165626e-02,2.488216757774353027e-01
5.199743201504432033e-01,3.101925983050376479e-01,5.064729936405011346e-01,-4.238479204254058663e-02,1.881030458362541527e-02,3.634900221707079715e-02,2.275367379188537598e-01
4.223235977676936814e-01,1.684176760425059594e-01,4.794802317229168165e-01,-1.013388742053578928e-01,2.111377688965799040e-02,5.909414019197706952e-02,3.533694148063659668e-01
5.050196648526067422e-01,3.065822395039150550e-01,5.664630726300572405e-01,-7.998765693507321750e-02,4.732039674626887377e-02,9.548839185154171794e-02,3.295621573925018311e-01
4.469148662036088182e-01,2.931940077439782466e-01,4.595784963220256869e-01,-6.923951446493414874e-02,2.639308652098175043e-02,2.274100548730105531e-02,2.091906070709228516e-01
4.304855075237439821e-01,5.442486698019448621e-01,4.637079313129358615e-01,-1.847123841493868070e-03,3.260772010983702812e-02,-6.991658550466193014e-03,1.166746541857719421e-01
4.378155986393930665e-01,4.894491418569150154e-01,4.012125667364158099e-01,1.229880996929452741e-02,3.897505667616350117e-02,-8.634254255699852845e-03,1.055004596710205078e-01
4.718056199100669756e-01,5.673736068018949696e-01,4.631703020037378771e-01,1.039293194806252714e-02,7.042656237531919050e-02,-1.771789176076496442e-02,1.617979705333709717e-01
4.793004168165339030e-01,4.976714141497275423e-01,2.907346847993866890e-01,8.899973775265447584e-03,-2.444630641902226231e-02,9.100039668739129048e-03,2.040529251098632812e-01
5.267922910586363416e-01,5.043442708004124420e-01,3.048744973635666433e-01,1.965888324029280154e-02,3.548148829960032224e-02,-4.825139693003904773e-02,2.380979210138320923e-01
5.419450605136628685e-01,5.503509645058719535e-01,2.339305086619935525e-01,4.230211328674316623e-02,5.449625569594278296e-02,-3.932000169653231819e-02,3.412460684776306152e-01
5.621376258618793198e-01,5.778894714297169166e-01,3.439007437401552236e-01,1.085244757779616973e-02,4.004459209866315095e-02,-6.942845400971459080e-02,2.663419842720031738e-01
4.220748669271479070e-01,3.398491070751213372e-01,4.160962851040240773e-01,2.830600344306082386e-02,3.036923348756210769e-02,-4.083634272343666938e-02,1.283690184354782104e-01
4.520402777365965519e-01,4.650245882211913040e-01,4.632974444373039180e-01,7.559327772332999872e-03,2.375677620323167483e-02,-2.030740601193864112e-02,5.701671168208122253e-02
4.227070614453046216e-01,4.002598571163791807e-01,4.553338229818030269e-01,2.547928370879169041e-02,1.610478136328071311e-02,-1.935447811862819889e-02,7.842335850000381470e-02
4.528167138541051018e-01,4.185742005946811450e-01,4.338600084965891224e-01,1.587052694493509136e-02,2.163555917346399876e-02,-1.306744763833544119e-02,5.962355807423591614e-02
4.367958450698527506e-01,4.065927178774726425e-01,4.187177796661593621e-01,1.729064520932916196e-02,6.680757002098122732e-03,-1.284984624685722721e-02,4.710821062326431274e-02
4.218327541954520754e-01,3.538667874746497244e-01,3.941719971229930564e-01,-1.093391023911064082e-02,-1.567244772486305060e-02,-1.271993107281217152e-02,7.131211459636688232e-02
4.240588508801111933e-01,4.283924107795442637e-01,4.356545219573114136e-01,2.755446941459464144e-03,-2.197959166185051161e-03,6.874368045853732762e-03,1.679375208914279938e-02
4.554790609778729960e-01,4.484860689465056116e-01,4.407003188385642534e-01,3.263059516195537108e-02,4.628421108511020926e-02,-3.758227406064787446e-02,1.184153705835342407e-01
4.611992576684000866e-01,4.520208576294368896e-01,4.690542364283395993e-01,2.084258416418559301e-02,2.090496513471894885e-02,-3.331706378047494255e-02,7.850103825330734253e-02
4.777922411407059533e-01,2.696374799401540789e-01,4.597322764365971981e-01,6.162591262525905084e-02,5.205737791785075563e-02,-1.147622814583951628e-01,3.145307898521423340e-01
4.845035748402448106e-01,3.564060203222134682e-01,4.614128983368102621e-01,1.295992590478239025e-02,3.744811269199313508e-02,-4.578927304468907722e-02,1.580671966075897217e-01
3.828121889704374503e-01,4.184777589363543049e-01,3.589960213470711481e-01,-2.810736777536817360e-02,-3.266995344637148302e-02,-2.672573886846190544e-02,1.019975766539573669e-01
4.493532843993809922e-01,4.593848688387238144e-01,3.870543997109058276e-01,-5.449456766863888801e-02,6.729521180432575245e-02,7.216903636458907312e-02,2.067045271396636963e-01
4.431439780993260968e-01,4.487743003759407934e-01,3.611708736729415947e-01,-2.254509839670728807e-02,3.918539036283936322e-02,2.495013942555343589e-02,1.233356520533561707e-01
4.194269785619031410e-01,4.459283666935873192e-01,2.701763725836792140e-01,-1.721655308109468902e-02,4.706067589711465660e-02,2.547711687333136313e-02,1.908245682716369629e-01
3.902159507325608789e-01,4.621084118267331231e-01,3.819173826937067306e-01,-3.077863791440692623e-02,3.966842580570026366e-02,1.928124352929653368e-02,1.204658523201942444e-01
4.711131228271256410e-01,5.604350218171378906e-01,4.089361092740345094e-01,-1.235491469763892562e-02,2.848710155888620893e-02,-2.698651967438451225e-03,1.425218433141708374e-01
4.303455745913571384e-01,4.626896246616241659e-01,3.300473223220313779e-01,-2.363271719938025983e-02,4.588507834748860315e-02,4.761267114595733180e-02,1.707122325897216797e-01
4.758190082996372472e-01,4.923227802468601588e-01,3.805218098672213944e-01,-2.919151462398579533e-02,6.770130525748117856e-02,4.673649817909555221e-02,1.838108450174331665e-01
3.593853051390278330e-01,4.073415776097467078e-01,2.895390437895092317e-01,-3.084276192266197092e-02,5.197653866878564066e-02,4.104395817114032258e-02,1.629116386175155640e-01
4.839218502973831049e-01,4.994800175446797441e-01,3.224622807434822658e-01,-3.159595627793393424e-02,3.822491882426696380e-02,3.097372152707603479e-02,1.976859271526336670e-01
5.252994534837645002e-01,3.476409081836348558e-01,3.888875975462732781e-01,-2.170634112733814316e-03,-2.650695821536713011e-03,5.155779659081746735e-02,1.842440068721771240e-01
4.155779113754903831e-01,3.037909036194971768e-01,2.521947673514017274e-01,-3.410477595548630676e-03,3.308717720677489121e-03,6.707421036801343439e-02,1.857171505689620972e-01
4.876449756248572021e-01,4.200606035356018175e-01,4.081500997426055211e-01,7.241735259781701371e-03,-5.158696971285250087e-03,9.017684238450136142e-03,7.743120938539505005e-02
4.761730885048954254e-01,3.962212866043273163e-01,3.506614188547905742e-01,3.589435699027932521e-03,1.127928450437500280e-03,1.807031940587623328e-02,1.145978346467018127e-01
4.274554432013947247e-01,4.280163932833311868e-01,4.273889248767035465e-01,6.598153649580332063e-04,-1.806170014011700283e-04,-1.155108373671780327e-03,2.400659490376710892e-03
5.013281098474516861e-01,4.114332423575102760e-01,3.785841368912598037e-01,2.601212247987457621e-02,-6.052101214462203907e-03,4.931677435945893556e-02,1.467968821525573730e-01
4.482396587306959335e-01,3.161851686641463099e-01,3.490964590456945293e-01,5.034230101710371677e-03,-6.045127276418383808e-03,5.302895652814433591e-02,1.509878486394882202e-01
5.092004743780946807e-01,4.244874885727266678e-01,4.433720961331540922e-01,4.623874492005262092e-03,2.582585262489939595e-03,2.504968737083416302e-02,8.888057619333267212e-02
5.205915017392556132e-01,4.471504867814407591e-01,4.240956078480346836e-01,2.987492629758739960e-03,-5.041738063897232593e-03,2.918594691635356328e-02,1.013744324445724487e-01
4.919047852709026447e-01,4.295517860109985819e-01,4.117510835783114165e-01,6.016344910790079499e-03,-9.546354330092704857e-03,2.711884600516980409e-02,8.889865875244140625e-02
5.565566949839398925e-01,4.857161117513004722e-01,2.259578133080697160e-01,2.074414956833028900e-02,-2.417054402318655204e-02,3.297957357125891331e-02,3.117703497409820557e-01
4.695884722974352221e-01,4.735112937431091296e-01,2.143795183760195400e-01,-3.404626608905704510e-03,-2.468516438127721022e-02,3.018421167715859294e-03,2.608415484428405762e-01
4.409327713530945547e-01,4.711551331495169581e-01,1.564435534416255547e-01,1.489371114474511001e-03,4.595003574558722409e-02,3.604819226641750585e-02,3.173085749149322510e-01
5.479765933914486631e-01,5.543963590215525983e-01,3.352687569047412275e-01,4.248228060343441775e-03,2.768050818203453972e-03,2.573946535866403901e-02,2.207171469926834106e-01
4.325964512991688493e-01,4.388250724996422547e-01,4.155499611424932627e-01,2.103613212511887959e-02,-2.991398395689577952e-02,2.978967730778335488e-02,8.432037383317947388e-02
4.099006327588926024e-01,4.074401466511184955e-01,4.685823167440937298e-01,-2.172578646913698487e-03,1.167394763168056078e-03,2.427388400802674411e-03,6.024869158864021301e-02
4.156701083568988819e-01,4.076419604953570586e-01,4.411691980013367487e-01,2.969615282673081572e-02,-2.878935923897938190e-02,2.514693953673851137e-02,8.915457129478454590e-02
4.377470991923263499e-01,3.772807534191572887e-01,3.956608105843532064e-01,1.693299775847257119e-02,-1.970746181147575715e-02,1.927413173411913691e-02,7.760436832904815674e-02
4.407241569570362616e-01,3.851596551262478907e-01,4.003119564289142063e-01,1.677454344803425840e-02,-2.541965209643218607e-02,3.585949992446766516e-02,9.547470510005950928e-02
4.501998680609173298e-01,4.228696169882021905e-01,3.971573121619175195e-01,4.040083407877846644e-02,-5.734758989466730295e-02,6.380774560358494496e-02,1.705520302057266235e-01
4.473399550821686166e-01,4.164668995019473186e-01,3.869853937020334422e-01,2.685928170408548657e-02,-2.552754676804246808e-02,3.091564880169496779e-02,9.858524799346923828e-02
4.310432829131379262e-01,4.147320993726604788e-01,4.130957249987287083e-01,1.130854694736133093e-02,-1.163726706940575520e-02,7.750012542685396320e-03,3.557442128658294678e-02
4.452180403161699607e-01,4.410862927353709773e-01,4.297198920980802028e-01,1.319818982615114829e-02,-1.237257154362609961e-02,1.266867154667488185e-02,4.070053249597549438e-02
4.333568775297936826e-01,4.020674525750036477e-01,3.459429353522291417e-01,-4.114014617199671098e-02,3.839646009084260458e-02,3.611132548786574747e-02,1.389157176017761230e-01
3.809096058246873584e-01,4.616614705056101275e-01,3.875814787483439772e-01,5.281930639894619715e-03,-1.885948281145013658e-02,4.698119650834522293e-03,8.510913699865341187e-02
5.850178936605195945e-01,4.103784636410962028e-01,5.044123368923978390e-01,2.571878072281052986e-04,-8.367639238464424922e-03,5.482818178842778500e-02,1.792984008789062500e-01
4.949623124332590551e-01,4.492960973419465320e-01,4.258140525463497417e-01,-2.005928448463907901e-02,1.800189145515551301e-02,2.360663300110890303e-02,8.694995194673538208e-02
4.517426047186028359e-01,3.766454834074359770e-01,3.821653179123423727e-01,-1.793460261213496512e-02,1.925003603860987386e-02,2.161652782795607519e-02,9.345579892396926880e-02
4.802950944692728208e-01,4.094271202993764458e-01,4.296589239357218593e-01,-1.736520304945147683e-02,1.975746428402079188e-02,2.605780434884831520e-02,9.005863964557647705e-02
5.011731387717319741e-01,4.220120620348337681e-01,4.392290432342008666e-01,-8.437942123889654103e-03,4.658664985194266306e-03,3.077591841167104034e-02,9.121493250131607056e-02
4.278836593794027032e-01,4.344064311211807139e-01,4.573770451401529824e-01,9.260429253964821755e-04,2.455395083930916444e-03,4.775789582099499581e-03,2.844488993287086487e-02
4.885774270177481449e-01,3.889363242351634997e-01,3.872374418748807390e-01,-4.694792327228825349e-03,7.017155487652135433e-03,2.764794563422673032e-02,1.122835054993629456e-01
4.776010504479150098e-01,3.850087327718139663e-01,3.767593846406193103e-01,-4.300366214044748503e-02,4.415189628399493471e-02,7.437483174719702883e-02,1.933809071779251099e-01
4.387828768789142631e-01,3.447361289509277560e-01,3.014754984746111921e-01,-5.250664636095611452e-03,3.199196530598046907e-03,5.417531976382988779e-02,1.539581269025802612e-01
4.309881699912022079e-01,3.874490775918527641e-01,5.669436606309813387e-01,8.830225707389113832e-02,-5.348716790433102886e-02,1.499064679550762315e-02,2.427912354469299316e-01
3.224043917848161134e-01,3.901306735465240316e-01,5.018769025339745449e-01,6.919749390318578885e-02,-1.170291135831961690e-02,-1.332298911134645672e-02,1.998761743307113647e-01
3.347828943064194984e-01,4.677919939975240249e-01,6.368440413544609324e-01,9.229952474098523929e-02,-2.845070666004450438e-02,-5.337746031009373872e-03,3.111701905727386475e-01
2.951425378416537848e-01,4.291335740499270246e-01,4.883821314681982551e-01,4.836908156942998360e-02,8.890304300624639680e-03,-1.113367764629564528e-02,1.924329996109008789e-01
3.914831881963806715e-01,5.060490464357232376e-01,5.769172125048251942e-01,3.717007125411772583e-02,-1.762644167354256164e-02,5.899016790309681395e-03,1.773358881473541260e-01
1.827817815327287265e-01,3.345615893196471902e-01,4.162220509481910913e-01,1.074186138720648609e-01,-3.405654690244016430e-02,1.588597934812508924e-02,2.845221757888793945e-01
4.400997563485685715e-01,5.214026266238741547e-01,5.891314004613784627e-01,4.270381218539346518e-02,-1.934062003229829532e-02,6.270190471541925437e-03,1.530191451311111450e-01
4.100939575977864404e-01,4.420464577316105537e-01,5.129304488320365341e-01,3.345207750219655191e-02,-4.480723170494829016e-03,1.171803944061371866e-02,1.101803779602050781e-01
4.543072395313114131e-01,4.349372003459171521e-01,5.361594420159503382e-01,6.123889195637214483e-02,-1.229425945817513681e-02,1.811551224953359546e-02,1.461130678653717041e-01
3.032399965546125342e-01,3.369222018293903664e-01,4.478013261531184619e-01,5.964774854427817852e-02,-1.583565321066164253e-02,2.033300948721753626e-02,1.727121472358703613e-01
3.529643303174593294e-01,4.770224989925904158e-01,4.052853095948534268e-01,-8.366148340225695867e-02,8.153982096633242971e-02,6.112696686910458477e-02,2.525679171085357666e-01
5.072810186980390990e-01,3.546682230312835360e-01,4.968827360135332216e-01,-9.156744394328262399e-03,2.122754314329111051e-03,6.270667847233569493e-03,1.489795297384262085e-01
3.782582582635981017e-01,4.958007559197717407e-01,4.849356485170083775e-01,-7.086718571393973987e-02,1.047317828591098621e-01,3.725618370338052571e-02,2.545465826988220215e-01
2.973933345930437899e-01,3.443453754585332760e-01,3.269592651589718901e-01,-1.141985214721928515e-01,8.397984925052205674e-02,8.232139832888056563e-02,2.868843674659729004e-01
4.132027046762403177e-01,5.452315451334798224e-01,5.846576839277251025e-01,1.736280646918283987e-01,-8.868551944089041184e-02,1.043822231205286943e-01,4.134172797203063965e-01
4.271882867717471943e-01,4.209707383348057497e-01,4.026826495905757586e-01,-1.025970155429006825e-02,-1.747635237618429694e-03,-5.581180611502357253e-03,3.008679114282131195e-02
1.924638210072945610e-01,4.692318883265871876e-01,4.339102395466174489e-01,1.043562294389795975e-01,-1.606764673788882436e-01,7.815804186898056560e-02,4.433054924011230469e-01
-1.390421015079528755e-01,3.577306847345150254e-01,2.725508337947829540e-01,1.044376693868194761e-01,-1.695371797295156524e-01,2.799203867055080966e-02,5.770829319953918457e-01
4.568470566184105186e-01,4.274639971982970299e-01,4.311958831317251883e-01,-2.354698979069991868e-03,-2.475788514004213358e-03,-4.064433699395871187e-03,2.919277735054492950e-02
4.070305654287865726e-01,7.898967908008013294e-01,5.901240584746401119e-01,1.200917219018864668e-01,-1.564279580887810162e-01,-1.805231262118407037e-02,4.771397113800048828e-01
4.497170440223648979e-01,6.517439313110059418e-01,6.474958753150756863e-01,5.719994592784594795e-02,-2.203491013491529205e-01,8.595646772175540018e-02,4.664942920207977295e-01
3.310178831706530600e-01,4.838194204876737903e-01,5.172671492847382702e-01,1.853281096612808265e-01,-1.110491212428793978e-01,5.554057048114062478e-02,4.229272305965423584e-01
4.845567395380869224e-01,4.634265527642896232e-01,4.372645139861225938e-01,-3.858203672391542077e-02,4.799775779477834931e-02,5.388098939256658754e-02,1.475476324558258057e-01
4.454153241571027766e-01,4.597807646355785427e-01,3.754978302554295988e-01,-4.099317248732635421e-02,6.003633343856686067e-02,7.355109371165650944e-02,1.954044848680496216e-01
4.830103522764451207e-01,5.290885801787192921e-01,4.004619953626604723e-01,-2.209725418394254542e-02,4.704468644483269374e-02,2.708717841639170926e-02,1.518115103244781494e-01
4.743829969513620459e-01,4.587722900669451986e-01,3.811773450927802287e-01,-2.923792619390659306e-02,3.772836767851219658e-02,3.350177169674531386e-02,1.329584419727325439e-01
3.729641920573541491e-01,4.635809738314093931e-01,3.262374217650804153e-01,-2.488721367802978340e-02,5.079965846138222163e-02,2.910859688220835198e-02,1.636181175708770752e-01
4.913748932433596450e-01,5.703412642231789897e-01,4.945819116030155116e-01,-2.353250746904402696e-02,6.682497207527829386e-02,2.018389038411689401e-02,1.492412835359573364e-01
5.004700612040313690e-01,4.943627961892941292e-01,4.296446502978620297e-01,-8.504490141966312977e-02,6.898893242080916810e-02,8.006049434975517909e-02,2.445942759513854980e-01
4.398683851081406360e-01,2.557841136912047397e-01,4.069954421725678895e-01,5.643723625459801108e-02,-3.220586981554866141e-02,1.022699869867935152e-01,2.701126635074615479e-01
5.360763749402535083e-01,3.271173328142832348e-01,4.714829675768840711e-01,6.148363625365254465e-02,-1.746118261105748456e-02,9.893515035767901089e-02,2.756060659885406494e-01
4.291326501107857738e-01,2.967934973736873205e-01,3.836268043439513553e-01,2.239285694263886545e-02,-1.817654377827990567e-02,4.662904538376896196e-02,1.502681374549865723e-01
6.067152811748075525e-01,3.461948144043172082e-01,5.066799229057870058e-01,6.567237707532216050e-03,-2.164766325598830796e-02,1.234019719917419933e-01,3.147000372409820557e-01
4.941681728003355367e-01,3.095727667554141194e-01,3.087362634788097249e-01,-1.778676660502385640e-02,3.208097837547014088e-04,1.100887943378575790e-01,2.674670517444610596e-01
4.773653271123743380e-01,3.551802581335367082e-01,4.220448129633592727e-01,1.070765312154478219e-02,-5.976109325926286242e-03,7.456793612308521002e-02,1.684115380048751831e-01
4.600612697054162759e-01,4.720634823547457115e-01,3.695260324648756978e-01,8.736539666635928514e-02,1.054987717648698253e-01,-7.440274848832743870e-02,2.869193553924560547e-01
5.182025331832976756e-01,4.484726162244606629e-01,3.673720872624927636e-01,2.642212205951269613e-02,3.297679211666893623e-02,-6.456271901729654372e-02,1.869666129350662231e-01
3.898452459031487294e-01,5.541843739738292474e-01,3.752552924535601520e-01,1.107533061799485449e-02,1.245422228711519641e-01,-6.853240099271873387e-02,3.010120689868927002e-01
3.318029474247568000e-01,4.302368611809427867e-01,2.611237191328819596e-01,1.874955589160945402e-02,1.198908293232949507e-01,-2.587091521482277889e-02,2.604342699050903320e-01
4.920841406421965769e-01,4.843620244682360076e-01,3.919818804179442395e-01,3.725341169275005887e-02,5.069129587276036131e-02,-3.809493336524100160e-02,1.597906053066253662e-01
4.109026722137153476e-01,4.096613460183286537e-01,3.046428068599327244e-01,2.261503342768673291e-02,3.973156844190532666e-02,-3.612341286767873499e-02,1.461013704538345337e-01
4.482438549171722797e-01,4.236460139933005409e-01,4.263648109201551573e-01,-9.899543023646451782e-04,-4.680433633339801947e-03,-1.964261659260021706e-03,2.501606382429599762e-02
5.031955413494112461e-01,2.809542784199294818e-01,4.878804965107736424e-01,-2.249912005550591849e-03,-6.897339666358512367e-03,-1.704160205953322849e-02,2.173735201358795166e-01
5.099634557788214062e-01,3.271147334720371225e-01,4.458039436016726365e-01,-1.425180738330981446e-02,-1.172244690730070774e-02,-4.179724079203479131e-02,1.791123449802398682e-01
4.802102610627752011e-01,3.144797163666697148e-01,4.391035993033940987e-01,-2.209524215222477030e-03,-1.041674764391682141e-02,-2.126973598541273547e-02,1.550519913434982300e-01
4.559932960508758515e-01,4.106874521955223845e-01,4.134881956629365973e-01,4.047046399502543892e-04,-4.199597982894907183e-03,-2.040020397075867006e-03,4.471531882882118225e-02
4.305322240699729353e-01,4.176419872940299038e-01,4.256254960035127377e-01,-1.343154505741301491e-02,-2.280144041662430718e-02,-5.228060566761218338e-03,4.806162044405937195e-02
4.151131473941270245e-01,3.886613991750105246e-01,3.941852101690863641e-01,-1.372801456215529646e-02,-1.791758092979978123e-02,-1.607588180155089183e-02,5.373908579349517822e-02
4.507589743177923824e-01,4.298646246410745553e-01,4.233792005666888736e-01,-4.907664971905996605e-03,-6.125105339502618339e-03,-4.914526085372206490e-03,2.951960824429988861e-02
4.413874353350736301e-01,4.346100777114308977e-01,4.143624561801751427e-01,-1.610241598113814135e-02,-1.489603679483047192e-02,-1.920707252705017992e-02,5.606601759791374207e-02
4.589231607379506972e-01,3.488185247914136200e-01,2.352940588094112329e-01,1.651921245369944447e-02,-7.373854245642692817e-03,-1.631561701298634426e-01,3.440232276916503906e-01
4.649391896493329512e-01,4.283575888699053813e-01,3.522060175520070890e-01,-1.781083757567133996e-02,-1.110489174752479422e-02,-1.194228442514832719e-02,1.080393865704536438e-01
4.889625807524705658e-01,3.568682437354693260e-01,3.924815345419869206e-01,1.280307873611931380e-02,2.165983363650460930e-02,-5.070873368767254974e-02,1.537082791328430176e-01
4.252660143947992744e-01,3.869100900402002163e-01,4.207009203311290468e-01,-6.079114068203162781e-03,-1.041602069287578258e-02,-7.331760259406782179e-03,4.375534504652023315e-02
4.061160729317378482e-01,2.148083409142386990e-01,2.421388527723529471e-01,3.991451388785656473e-02,4.530435268475044991e-02,-1.415285370854345304e-01,3.211619555950164795e-01
6.455452821718064005e-01,5.594812479494558621e-01,4.878061632868451181e-01,2.519813352757480085e-02,1.581835073054637525e-02,-9.512417460800982882e-02,2.202596366405487061e-01
5.849244568432161451e-01,4.824348363007120444e-01,4.148063216595855862e-01,-3.682719618205854552e-04,8.035504468744362073e-04,-1.116129530925281388e-01,2.436876147985458374e-01
5.341348190716247446e-01,3.657374197440079744e-01,3.525748051521859772e-01,3.547681029190481033e-02,1.456500976734791293e-02,-8.833686639143951969e-02,2.420122474431991577e-01
4.351176746430552300e-01,4.696677839988444014e-01,3.438811683665975449e-01,1.028320561657471155e-02,1.135452253899506270e-02,-8.514836950577142627e-03,1.165828332304954529e-01
4.323865747986646579e-01,4.568340630713068617e-01,4.521032979449163269e-01,8.060912204566225009e-03,2.258005848348772215e-02,-2.043690136290681955e-02,5.900777503848075867e-02
4.381904433687959788e-01,4.893268081355378052e-01,4.293434548151807140e-01,2.294124666873047225e-02,7.521182634394994737e-02,-5.978389758683744920e-02,1.800480484962463379e-01
4.326920608387352374e-01,4.760224321721210350e-01,3.954929944719499657e-01,2.915932861203953536e-02,3.053776601335068952e-02,-2.153600966626583943e-02,1.077636554837226868e-01
2.916247016875444520e-01,3.970543957858621020e-01,3.364913861892570024e-01,2.475019648425490562e-02,5.413459536490133200e-02,-2.951596956445530495e-02,1.471091955900192261e-01
4.159562658350177133e-01,4.784601360240766099e-01,4.319764830398856725e-01,1.765676945405178153e-02,3.136828968515319171e-02,-2.200520230082089398e-02,9.220594167709350586e-02
3.837492452485603001e-01,4.547946101212420600e-01,3.896144366398572312e-01,1.768260621411982259e-02,1.989730282800129813e-02,-1.690744213738526458e-02,8.745551109313964844e-02
5.033924639165237025e-01,6.586477113498740987e-01,5.242233960881599319e-01,3.920838164616422677e-02,1.136298688167235171e-01,-3.736828897031514718e-02,2.623743712902069092e-01
3.372279959482976097e-01,4.735214730527086413e-01,5.772754295265432045e-01,7.576412264163058519e-02,-4.507251978495541156e-02,2.709877909440789809e-02,2.626785337924957275e-01
1.623119997777734969e-01,2.691103234651538445e-01,3.954609147248377976e-01,1.282040300148033773e-01,-3.947923693739639056e-02,3.023924597881965867e-02,3.123976290225982666e-01
3.201272188752143921e-01,4.914702916377586828e-01,5.307809418702256199e-01,1.233642828808153985e-01,2.582923177203702222e-02,2.132888191643621256e-02,2.943838238716125488e-01
4.403403692731643893e-01,4.723735057097478984e-01,4.256063538421595571e-01,1.082742626300282722e-02,-1.848687117715948694e-02,1.364066453870217688e-02,6.041842326521873474e-02
4.384713606663468433e-01,4.404132145388132691e-01,4.112716558302383363e-01,1.487674821588240957e-02,-1.614204074478765502e-02,1.418031814594552902e-02,5.334141105413436890e-02
4.343755350497454093e-01,4.880614252737089931e-01,3.033597431372177522e-01,6.348525631464960878e-03,1.936832938577692440e-02,-1.200239194072779021e-02,1.695862412452697754e-01
4.900972922341491067e-01,5.208465268466224707e-01,3.762328871939182862e-01,3.045479390488212319e-03,2.692083741889984491e-02,-2.901982666742844962e-03,1.401397287845611572e-01
5.497925888001272687e-01,5.345566967571490080e-01,3.316411937356336104e-01,1.171618075928735139e-02,3.090517886558498059e-02,1.000009916280592470e-03,2.185832262039184570e-01
5.548510837956979191e-01,5.604289282006168493e-01,3.434118497734613973e-01,-4.751955013970744464e-04,3.676759610783790488e-02,-1.324439794425198973e-03,2.235588133335113525e-01
4.354711607663941941e-01,4.581501593025288366e-01,2.448219552026993096e-01,2.087178875824405311e-02,3.353900885042822994e-02,-8.535030592556374501e-03,2.146746814250946045e-01
4.269366994062263609e-01,4.531378892797756630e-01,2.565376357871984037e-01,1.075455744509117191e-02,3.252912182061981627e-02,-1.610011418943946282e-02,1.961786299943923950e-01
4.694669009961280892e-01,4.984435235605372272e-01,3.187417945213965598e-01,1.340696086750700101e-02,1.026474504079831658e-02,-8.716794436504053320e-03,1.703187823295593262e-01
4.459649027753315176e-01,4.853480642747972640e-01,2.869419466194877977e-01,1.057941115289910868e-02,3.378524318813616589e-02,-9.494366443005726464e-03,1.926984488964080811e-01
4.201841346198572635e-01,2.763184364739380006e-01,4.771394926737787534e-01,-7.921869301286099674e-02,-3.401118104235257861e-03,-2.597216345186752554e-02,2.302614599466323853e-01
2.328658413820099138e-01,2.296448134306687261e-01,3.901080171155951737e-01,-1.209164463690076546e-01,-3.073433747717531708e-02,-4.729797272272281278e-02,2.804450392723083496e-01
3.796693208022033916e-01,3.855351472231331456e-01,6.161147780809013152e-01,-1.017074522667164027e-01,-2.134664481508630890e-02,1.435876335823098326e-04,2.948800325393676758e-01
4.752161591361764303e-01,3.533242417909525646e-01,5.177902806050812545e-01,-1.256081089961670616e-01,1.298116812240777442e-02,-3.261948972773655309e-02,2.699804604053497314e-01
6.089534531008161666e-01,5.499470475036934980e-01,7.419822849565810285e-01,-1.198095163472169822e-01,-7.642351861793419531e-04,-1.924379941888913368e-03,2.685215175151824951e-01
3.665303355986625489e-01,4.761052571747479978e-01,4.147028683819720118e-01,9.983789979047006519e-03,1.972187019101789146e-02,-9.866505970602850936e-03,1.039552018046379089e-01
3.898950508617249344e-01,5.869043669804363539e-01,3.998604960280426890e-01,7.221625782364786417e-02,1.336989035432521178e-01,-3.752929509084668158e-02,3.323338627815246582e-01
4.214525086919687080e-01,5.492939356373442994e-01,4.418077065628051026e-01,9.411627577250955903e-03,8.122052842162978681e-02,-3.068677499611281029e-02,1.924490034580230713e-01
3.215097402458084175e-01,4.546065499471087512e-01,4.540317792457915225e-01,2.404922609592849772e-02,4.014284120436863168e-02,-1.804328473254736623e-02,1.586969196796417236e-01
2.627503333021009579e-01,4.775095716809537594e-01,4.330056639457616763e-01,3.263327538463096922e-02,1.354860867647993961e-01,-1.544040276989519511e-02,3.122882544994354248e-01
2.592995870295924932e-01,5.485960541520328304e-01,4.353229119811961034e-01,9.181529766841167728e-02,7.242702689619603951e-02,-3.163901384052902194e-02,3.283047080039978027e-01
3.045744865289126135e-01,5.812789665582418497e-01,6.072123305225521905e-01,1.143018278909718050e-01,1.751570946172676183e-02,4.260310251033509743e-02,3.605190515518188477e-01
1.794332637824845311e-01,3.278104515263507990e-01,4.177956701405785012e-01,1.090255355451548586e-01,-3.233336914555772629e-02,1.277064523394903436e-02,2.876633405685424805e-01
4.303006267030500265e-01,3.935105114959404071e-01,3.560441340205113825e-01,-2.635541058793800656e-02,-2.610222263169180087e-02,-3.307846664117029822e-02,1.074522733688354492e-01
3.879005765020310248e-01,3.929049636832052106e-01,3.868001223402562361e-01,-3.735942173430267105e-02,-4.024591861337355192e-02,-4.194555957306524141e-02,1.198183298110961914e-01
4.689484150143175545e-01,5.199143202823810483e-01,4.673986396803404553e-01,-3.145429354560765056e-02,-3.778670352464184867e-02,-4.285783982980079926e-02,1.242614835500717163e-01
3.789492775912353673e-01,2.994328576141005449e-01,2.007347767990196874e-01,-5.245125882848176296e-02,-6.159482361362109137e-02,-1.129736955687166977e-01,2.860710322856903076e-01
4.210254327026545784e-01,3.866008793668342380e-01,2.905365905546531402e-01,-3.140908780496802499e-02,-5.506683128101899638e-02,-5.936865020343230076e-02,1.906592249870300293e-01
4.614591918959807804e-01,4.249012288961934170e-01,3.211072575298798970e-01,-4.149111966856344758e-02,-5.501832943608961357e-02,-5.637675631279964045e-02,1.992103755474090576e-01
4.438169428280512308e-01,4.712359199605661297e-01,3.327532186333229669e-01,1.715162090200244779e-02,1.997752076852269895e-02,-8.066966567855058182e-03,1.356734037399291992e-01
3.947319231341539503e-01,4.414184413921928840e-01,4.014541534080219298e-01,-1.069135340983737303e-02,2.105377517572449078e-02,1.633116943940825239e-02,6.621029227972030640e-02
4.086002594695474777e-01,4.402176889061494292e-01,4.341610811814127224e-01,-8.487844696181315318e-03,4.477479871848499132e-03,1.329551136167265828e-02,4.063786193728446960e-02
3.651045043753687880e-01,4.482725352251069606e-01,4.455890988624613414e-01,-1.063270096999723892e-02,8.858282717348758828e-03,2.118893799822129873e-02,9.285704046487808228e-02
4.054276038500822521e-01,4.719528254076909013e-01,4.467432961396121671e-01,-8.820398539582345945e-03,3.187832660206192659e-02,2.205360063308525048e-02,9.014000743627548218e-02
3.753516873855742286e-01,4.205207621507666138e-01,4.433812434378245904e-01,-9.130714158624668800e-03,7.915644116806218669e-03,1.636166940820045143e-02,6.954587250947952271e-02
3.947390554615974878e-01,4.784333768963692224e-01,3.807708178720506376e-01,4.653896083214973528e-02,-1.329678749876903876e-01,5.628945002966039002e-02,2.782326638698577881e-01
4.393894187003905549e-01,4.698448696188982088e-01,3.054088848363774589e-01,8.776667435846579463e-03,3.680661247920665596e-02,-2.491547835548559714e-02,1.706351935863494873e-01
3.654280270351288329e-01,4.841934051446712406e-01,4.155573825140191913e-01,1.735624817371186207e-02,-7.386155791275024474e-02,1.490298053037773622e-02,1.691187173128128052e-01
4.703765787946702082e-01,5.750014387272559535e-01,5.009244068486961021e-01,3.538730865090668198e-02,-5.215826115906337102e-02,3.358822229001964116e-02,1.548748314380645752e-01
1.747921659775369396e-01,4.230277708674378689e-01,2.677619036791449303e-01,2.886244200123091325e-02,-1.382957964731439116e-01,1.084071951895781635e-02,3.277418911457061768e-01
4.441426464555454090e-01,4.342900485679474509e-01,4.352353754494406313e-01,-1.135051059656114452e-03,-1.504267580489540655e-03,9.313531764704143434e-04,1.009500585496425629e-02
4.170438465418024876e-01,5.785053326984539446e-01,4.489630112380678106e-01,2.488483414363503593e-02,-6.989916466706448672e-02,3.450492834269264231e-03,1.961787194013595581e-01
4.311837848233214809e-01,4.310095143184795030e-01,3.351780015354967057e-01,1.877175483149601948e-02,1.600297121290233937e-02,-1.942379387925272788e-02,1.102618798613548279e-01
4.077083881251024056e-01,3.883922840568754253e-01,3.810541981198247163e-01,1.639996412732650302e-02,-1.733469607211776328e-02,1.362723526059758314e-02,5.323681607842445374e-02
4.121774343164396059e-01,4.266641097287592888e-01,4.111420565556051510e-01,8.791028077927514478e-03,-1.154870697206654417e-02,9.449603425500512424e-03,3.355270996689796448e-02
4.275511045712789282e-01,4.338262695558579018e-01,4.281279146206953268e-01,3.225929950379560415e-03,-5.975080511364667425e-03,5.934336104929721287e-03,1.673512719571590424e-02
3.944336345874089877e-01,3.878428748350703503e-01,3.890381855827684809e-01,1.009856791170774849e-02,-1.179453160137515673e-02,1.082559431517720813e-02,3.334434702992439270e-02
4.385739876478297328e-01,4.343671365560488606e-01,4.139667834941876956e-01,2.014240512492189439e-02,-1.522336087917454915e-02,1.878624320378931636e-02,5.908353254199028015e-02
4.330378164453685397e-01,4.269085206769882013e-01,4.256024926424826216e-01,3.754374952631223464e-03,-5.735094352327908644e-03,3.052768674310461609e-03,1.470364257693290710e-02
3.293314786654177317e-01,2.105054383599159751e-01,3.122935266137698562e-01,9.955203344586535663e-02,-7.267934492206419572e-02,1.016715573467884964e-01,2.982873916625976562e-01
4.882140291029413715e-01,4.635569806511368185e-01,4.249423716768047088e-01,2.748337857363068043e-02,-6.323717364066833158e-02,5.366600559511176816e-02,1.611028611660003662e-01
3.924602092050593072e-01,3.822100877250495521e-01,4.857761477414343498e-01,8.432004832631020963e-02,-3.617898398643946967e-02,5.692694698740649595e-02,2.115368247032165527e-01
4.043528147635573333e-01,3.695137443427927160e-01,4.044120535447075504e-01,2.689561614958294739e-02,-3.238155708277157957e-02,2.672739697744697801e-02,9.313811361789703369e-02
4.166547301769734646e-01,3.723652355960415106e-01,4.261319351279287959e-01,4.608067125721022200e-02,-2.356502241869479555e-02,5.756308553818497570e-02,1.429960131645202637e-01
4.652190765258511496e-01,4.192810616499168530e-01,4.921771405529916654e-01,4.755796386947436921e-02,-3.847263336751699514e-02,2.335432102854172534e-02,1.301438510417938232e-01
4.052282534533294678e-01,4.680726914924010496e-01,5.273926880759688407e-01,2.743081081452634906e-02,2.472840658525766056e-03,-7.177549876083594640e-03,1.167324334383010864e-01
4.065563953783662976e-01,4.473437289841774578e-01,4.211947982932782164e-01,3.728329275488864204e-03,1.859019653190461304e-03,-5.581274681792439997e-03,3.776703774929046631e-02
3.498103901037414309e-01,2.939599905318925899e-01,4.230799328837073769e-01,4.592673362892713690e-02,-1.850888976183427681e-02,1.918265122375719181e-02,1.450492292642593384e-01
3.627810441240001404e-01,3.622732617802920663e-01,3.636036495617824826e-01,1.414281504750311558e-01,9.847361858262319856e-02,-4.685728470707267029e-02,3.093300759792327881e-01
4.798874320128295734e-01,3.779922097350040255e-01,4.312475299122823791e-01,1.959610502749934910e-02,4.523607623115682291e-02,-5.228128336253181491e-02,1.525884270668029785e-01
4.421525384389098923e-01,3.665677742440565656e-01,2.566200115898468748e-01,2.751578163715140760e-02,2.391648194339136488e-02,-7.398620079355350265e-02,2.156876623630523682e-01
5.396362528737733699e-01,5.333027283559761411e-01,4.873478749910925556e-01,4.231446057679869033e-02,5.728176853627178072e-02,-6.281213698907439635e-02,1.717389225959777832e-01
5.565523215112664346e-01,5.425888830712450872e-01,4.819215188070645195e-01,3.360944099672030089e-02,5.708956778535512894e-02,-5.577798616806677739e-02,1.649927943944931030e-01
4.904453208689336097e-01,4.492570535012852528e-01,4.416479606122220569e-01,1.212371884897329999e-02,1.335963699721170843e-02,-2.150774853072549495e-02,6.657266616821289062e-02
4.923067092145915202e-01,4.219314828741700385e-01,4.063550835693091057e-01,1.042778399619569279e-01,5.593142427275699796e-02,-9.509570020319571548e-02,2.746409475803375244e-01
4.979092589106950406e-01,4.566841609719013984e-01,3.981953788916644532e-01,4.392719472410874099e-02,4.439899450550943705e-02,-1.176579428408115330e-01,2.465044260025024414e-01
3.768557065083042446e-01,2.309366346264164205e-01,2.496681361479499150e-01,5.824950392236858537e-02,4.984805183378991644e-02,-1.124774040940531294e-01,2.729413211345672607e-01
3.703446534688185077e-01,3.741239775880647045e-01,2.410760491892230684e-01,3.051232948504718767e-02,6.071375219165212056e-02,-4.799347687424536379e-02,1.948712617158889771e-01
3.270617208020305533e-01,5.206268325042372469e-01,4.388136938453673919e-01,3.881965274500128165e-03,2.706208819566716106e-02,-1.064650134477667688e-02,1.758038550615310669e-01
2.949185509474224198e-01,5.622448957901203803e-01,4.847209231877842583e-01,3.485647145697903793e-02,5.046519679788783602e-02,-1.759380009401180847e-02,2.626078724861145020e-01
3.348297887864548628e-01,5.090337002778742015e-01,4.999347037627559498e-01,1.674054730426769236e-02,2.254716652743146352e-02,-7.615664447517667308e-03,1.771569103002548218e-01
3.103759445873341960e-01,5.383492218170401467e-01,5.152857581776641993e-01,8.968176748930387771e-03,3.727797414733085429e-02,-6.959896231333887080e-03,2.275992780923843384e-01
3.162423949638339948e-01,5.398738862761147672e-01,5.536603857569395437e-01,-5.511372631925375368e-03,-6.952326908330298122e-03,1.063039048665788237e-02,2.320761829614639282e-01
3.801274686464931052e-01,5.601112370478439351e-01,5.234222012719453865e-01,-2.740277324314838278e-04,2.222646696128386182e-02,-4.963929486375193330e-03,1.693900972604751587e-01
5.158090951474783026e-01,5.562481345425958068e-01,3.712308184610828010e-01,-3.063827244971536676e-02,1.695282459006695053e-01,1.605474028397332539e-02,3.437930345535278320e-01
2.971609245680213451e-01,4.621876453100391968e-01,8.412075351147926816e-02,-7.477596398113434129e-03,2.131321195345786124e-01,-1.397790973897982368e-02,4.947797954082489014e-01
2.469877854192938094e-01,4.030654919583865348e-01,2.095906541616415764e-01,1.566266636433321507e-02,1.272069631515305443e-01,-2.460348008877924833e-02,2.875629365444183350e-01
2.799621371118149460e-01,7.896520480513795626e-01,6.288255154782257383e-01,3.907093044601968324e-02,-2.225521346937816280e-01,1.203070875582457587e-02,5.977286100387573242e-01
5.193022695609688100e-01,4.649596779369469801e-01,4.864109255703657486e-01,-4.650990994236543080e-02,3.727517094233426254e-02,7.322446148660848031e-02,1.702670007944107056e-01
5.197558045123115145e-01,4.426135493643648111e-01,4.845780734446442639e-01,-5.307186152430719978e-02,4.758077952401406491e-02,7.563322342947303989e-02,1.920352131128311157e-01
4.307100137376939641e-01,3.531870753616086489e-01,3.695362412387806494e-01,-6.118289839281546016e-02,6.764569617961810333e-02,8.986026205703732950e-02,2.327920198440551758e-01
4.034864548623178226e-01,3.327701183885056757e-01,3.477394973388819865e-01,-8.473015525363547518e-02,1.239159542518873253e-01,9.678076533284332705e-02,3.160204887390136719e-01
4.433530149468626336e-01,4.229737734707589292e-01,5.143469946024117334e-01,-1.315098083435585763e-01,8.688730163763443148e-02,9.766659244629631587e-02,3.317397236824035645e-01
4.594739395112223956e-01,4.276714540822396660e-01,4.937936370306901801e-01,-4.615114511486188842e-02,4.152887804533404031e-02,5.948586401794845463e-02,1.595622897148132324e-01
2.913962717973240801e-01,1.668333305277801548e-01,2.650469862939125454e-01,-1.030246381471699446e-01,7.768114657376132270e-02,1.229598623217472431e-01,3.289844393730163574e-01
2.913113739265357771e-01,4.887670637873589019e-01,5.372517654651419727e-01,-2.900584192083820526e-02,6.632441804618091977e-03,9.124723910044370973e-03,2.319889217615127563e-01
4.873657747207646995e-01,4.101834319272783524e-01,4.638313886540441633e-01,-4.087553256450170841e-02,5.857290778108588392e-02,5.826893077823451506e-02,1.737386882305145264e-01
4.267237197646000513e-01,4.227620587225971449e-01,3.912322864022392821e-01,-4.007800862833588856e-02,4.420941958866968224e-02,3.888048068162440474e-02,1.278748065233230591e-01
3.135014644581728960e-01,4.155674389792959333e-01,4.749000799199444844e-01,-5.936017488018514865e-02,1.102319036619781902e-02,-1.904221366930806264e-03,1.758976131677627563e-01
4.767909557866677472e-01,3.809226895190236939e-01,4.326607065744489944e-01,-2.766613997289518734e-02,3.678148802352780578e-02,3.259768929810537980e-02,1.282584071159362793e-01
4.134135163862278639e-01,3.769645093267227076e-01,3.850293295312533504e-01,-1.358801401904707364e-02,1.379472324374164151e-02,1.641100435251239761e-02,5.506691709160804749e-02
2.970076116221684881e-01,5.403407545931477873e-01,6.259740671003373169e-01,-7.985691915558786047e-02,-2.084488741888529742e-02,-2.800224665228588997e-02,3.319168388843536377e-01
4.689112112895698625e-01,4.063653832279898181e-01,4.049177703327431765e-01,-1.666813214466769666e-02,4.341424704869015563e-03,1.856018840734271341e-02,7.699405401945114136e-02
4.336775023025956077e-01,5.167903580613399939e-01,5.854442313530836550e-01,6.803091105758778123e-02,-2.651150892134044104e-02,1.965497003597111922e-02,1.856859475374221802e-01
3.821871710540373779e-01,4.377650517651281992e-01,5.276034973410095308e-01,8.044031832001802274e-02,3.053004399126073298e-02,-1.797421011489797396e-02,1.983186304569244385e-01
4.354570354781934771e-01,4.321376277168084701e-01,4.289542693616046343e-01,8.673403518335380796e-04,-5.357699340264288589e-04,1.047507726324304776e-03,6.174860987812280655e-03
3.888151645960148395e-01,3.932634223166830423e-01,4.910778872662309169e-01,3.043350180899084129e-02,2.887665874034120450e-03,-9.342920064958640247e-03,1.144029796123504639e-01
3.687372025940103826e-01,3.720818185434848768e-01,4.629735758044968286e-01,3.202283519090665803e-02,8.075653025639155424e-04,2.652836885508788253e-03,1.080553159117698669e-01
4.014189846831496267e-01,4.346739147455875862e-01,5.060689348490158279e-01,3.045256452912752099e-02,1.082169432498387984e-02,-7.567057160992356028e-03,1.090071573853492737e-01
3.601257951096300536e-01,2.792245414984553253e-01,4.365990205235875110e-01,6.113669522360966335e-02,-1.658921530328218456e-03,5.457774274408955933e-03,1.728891283273696899e-01
4.014525328198886855e-01,4.222599240263348319e-01,4.930182686213829268e-01,3.624395550009115730e-02,6.288798664175558042e-04,-1.691701875536877038e-03,1.042239516973495483e-01
3.192318238769005778e-01,3.119489157124306633e-01,4.351005854420447183e-01,6.233662652640468288e-02,7.993058706123844226e-03,-9.163674968441722773e-03,1.625534445047378540e-01
4.368215800837131901e-01,4.252508733792492723e-01,3.366379671739210266e-01,2.599820513110695855e-02,-3.248020038266877935e-02,2.955015257052327413e-02,1.297061592340469360e-01
4.274127203412609322e-01,3.613210907540767014e-01,3.577055823970575754e-01,9.806575477530903376e-03,-9.324410675045614882e-03,2.221401087167734420e-02,8.154665678739547729e-02
3.303066051519712443e-01,5.397987676036383187e-01,5.233761829893438522e-01,6.566161087611809347e-03,5.688802988468366802e-03,4.577598109839749706e-03,2.024982869625091553e-01
3.722573183810304887e-01,5.259722812804887848e-01,4.904176941474172047e-01,3.432948480096015970e-02,4.119244630233780818e-02,-1.454652905549426445e-02,1.693751662969589233e-01
2.396763532359888482e-01,4.276609433419172324e-01,3.926479949430912164e-01,9.235817553826734805e-03,5.785882887623665372e-02,-1.179417827936511502e-02,2.017383426427841187e-01
2.695557862821035267e-01,4.638086578631538948e-01,4.518103647151165414e-01,2.695193190832047281e-02,2.394829357832642044e-02,-1.585271135058023001e-02,2.005022168159484863e-01
4.466026095990555667e-01,3.537455861603957530e-01,3.962016780835929119e-01,2.847712270599081844e-02,-3.180039063360551310e-02,3.455628030135851625e-02,1.246260181069374084e-01
4.456997437250383998e-01,3.816424267678521498e-01,3.744886879317722572e-01,1.437562164346620555e-02,-1.114805269227051032e-02,2.489704665053746671e-02,8.640119433403015137e-02
4.456576365145750729e-01,4.176012808940551269e-01,4.418973955294832612e-01,1.447870327573757762e-02,-2.048813487940907493e-02,1.584656868925547746e-02,5.776963382959365845e-02
3.941594661085518481e-01,3.546050595982024323e-01,4.166285845450180547e-01,3.552505960025639786e-02,-2.826391718614187573e-02,2.597091505800418892e-02,1.056610941886901855e-01
4.736080312950436411e-01,4.242071874362177697e-01,4.557469394762185266e-01,1.079228376837506817e-02,-1.593113320884905273e-02,1.708506384479053022e-02,6.215810775756835938e-02
3.657142646878597247e-01,4.462444817172663281e-01,4.631934097388977767e-01,7.701740096690966320e-02,8.603303203351200801e-02,-1.871105232230886942e-02,2.217829525470733643e-01
3.918500501251051538e-01,4.395517664290095050e-01,4.331980991078120402e-01,8.601406514089167399e-02,6.234875215578362939e-02,-4.661168315533705669e-02,2.058835774660110474e-01
3.468982763499163791e-01,4.654600496238276985e-01,5.151852460007786405e-01,5.951213950645064393e-02,4.429016484099530110e-02,-4.128216000311746292e-02,2.098751664161682129e-01
3.301957568040291280e-01,4.916359567472664005e-01,5.421353560603160426e-01,5.831338359853749376e-02,-9.443629673567391358e-03,3.866423333393670218e-03,2.174385190010070801e-01
3.197189178202048954e-01,5.049776893732217387e-01,5.732234531896288621e-01,-6.061050226592711032e-02,-1.832559969218851541e-03,-5.992559714912443214e-03,2.505197227001190186e-01
4.407528511147008055e-01,4.422310067139122447e-01,4.780789058352745147e-01,4.735734289821771914e-02,3.280965563180525402e-02,-1.946196682437474623e-02,1.115084066987037659e-01
4.444433592007972500e-01,3.439007467254196482e-01,4.591413987521824058e-01,4.171215727948312385e-02,2.449664456061398377e-02,-4.238391221183313712e-02,1.556013673543930054e-01
3.320207192336811497e-01,3.731680085127715429e-01,4.746853429552448933e-01,5.326744332617042860e-02,3.707165805034961376e-02,-1.990957094862296980e-02,1.732062101364135742e-01
4.330027841237744091e-01,4.395871828846740770e-01,4.348451293259962824e-01,-2.133988859783194584e-03,1.198762510775423855e-04,3.646766710836490434e-03,9.392516687512397766e-03
3.389421263352120350e-01,3.697821687259709722e-01,4.124747173170271175e-01,3.001018129238973431e-02,2.454989568360202087e-02,-2.374728643682610940e-02,1.014501228928565979e-01
4.589346409217934797e-01,3.781813030135706133e-01,4.028864770340548906e-01,3.065203520153433198e-02,3.040050343896431168e-02,-5.126527555113192386e-02,1.364258825778961182e-01
4.550784012713323667e-01,4.064003265230717865e-01,3.643576516162942425e-01,1.175365309635821934e-02,7.815678529864426155e-03,-1.494817668532888270e-02,8.632346987724304199e-02
4.393531603506517502e-02,3.644127666239908026e-01,4.737717549606222933e-01,-1.237075956848909253e-01,1.065812060381772369e-01,5.149688785753089165e-02,4.875012040138244629e-01
4.846355941095754627e-01,5.246167676067566843e-01,4.857012957211437887e-01,3.134824121898059646e-02,3.616759588078977822e-02,-2.704373851828715397e-02,1.030705347657203674e-01
4.064279652584981140e-01,4.647867250517967452e-01,3.835735935052287382e-01,2.662063583724508589e-02,7.570338427490862221e-02,-5.635583505380857561e-02,1.846855282783508301e-01
5.922290416682164382e-01,6.105098474820014331e-01,4.817858676000421614e-01,5.760071758252598151e-02,1.230398191748372505e-01,-9.176554419696014708e-02,3.085182905197143555e-01
4.647904975990482246e-01,4.039757683941343491e-01,4.411782804500173349e-01,2.030760494599394977e-02,3.623281313314226371e-02,-3.145589604547426726e-02,1.047094315290451050e-01
4.498120690340609573e-01,4.483044039974210526e-01,4.479804952963321596e-01,3.023792927405563949e-02,3.265174270441004861e-02,-2.405366941104106898e-02,8.763566613197326660e-02
3.946265246503904978e-01,4.967283614059017638e-01,3.260776287448349242e-01,7.855941244857550521e-02,-1.572803925607861031e-01,4.468117503237668126e-02,3.476176559925079346e-01
3.688572947427053439e-01,5.030093171903207150e-01,4.190064968124245781e-01,3.175118744239556479e-02,-1.174979764869831939e-01,8.792583436900854033e-02,2.853395938873291016e-01
3.290354929269385664e-01,4.114975353321419504e-01,3.764082392606130645e-01,8.221874311581317540e-02,-9.353119105761892316e-02,7.507173887888553276e-02,2.618568837642669678e-01
3.182589480887611511e-01,7.058360703564731109e-01,6.042043028897871038e-01,-4.044033040282134922e-02,1.746275188590825089e-01,-4.637313762000040696e-02,4.732830822467803955e-01
3.838521868360412759e-01,5.669577732619757171e-01,6.121495555579641312e-01,9.509438258675198541e-02,8.943938877440231472e-02,-5.725803688061938818e-02,3.237395584583282471e-01
5.367034061626467789e-01,7.966167690843993787e-01,8.749764290682937595e-01,1.897696569208259798e-01,1.017731979569689998e-01,-6.716660313787482794e-02,4.966959655284881592e-01
2.207349440247167449e-01,5.560998215163048819e-01,4.412320651886018630e-01,2.441529191702802581e-01,1.376388099801048592e-01,-7.803324472243576559e-02,5.840157866477966309e-01
1.800744925977468824e-01,5.788716304495583609e-01,2.372987745706044149e-01,8.500537471139740786e-02,1.974936570782533651e-01,-7.076033717377551435e-02,5.414821505546569824e-01
2.047785137431631375e-01,4.193294453664624943e-01,3.957327037492324728e-01,1.131405752738770393e-01,1.230196390830685799e-01,-7.862381622601068154e-02,3.793088197708129883e-01
1.433731483199663648e-01,4.583415305052921385e-01,3.431711885528584971e-01,1.208009239443334909e-01,1.887109511451519062e-01,-4.720940509067917540e-02,4.832127094268798828e-01
1.556502485581111317e-01,3.754887023588799888e-01,4.078654515662563096e-01,1.834915273836577321e-01,1.820316366731483948e-01,-2.086796974649072489e-01,6.225355267524719238e-01
3.685026380051558692e-01,3.416710399400922360e-01,3.773758130286685164e-01,-5.059441161251529429e-02,4.227785954599848350e-02,5.127581961479456274e-02,1.482093632221221924e-01
4.369374361190716538e-01,3.842580612525907102e-01,3.824725838361219266e-01,-1.298839633319677500e-02,1.009152386870644340e-02,1.815218873315086606e-02,6.835553795099258423e-02
3.965373173136758078e-01,3.068188196435147064e-01,2.929255654566782496e-01,-5.590906007117686649e-02,5.196222854157625526e-02,1.020010483067859824e-01,2.412037402391433716e-01
4.976724443147614307e-01,4.443161239580492583e-01,3.720885217819879798e-01,-3.116067239878868647e-02,2.630756443353625754e-02,4.138990787199837984e-02,1.484793722629547119e-01
4.509199731484038742e-01,3.577888519970872649e-01,3.523207651351168979e-01,-4.131199768990450640e-03,7.208824645055665961e-03,2.756155364062644331e-02,1.081599444150924683e-01
4.944659508564921979e-01,4.294037002179208473e-01,4.017712691472840603e-01,-8.065197582204473511e-03,5.686923900641707025e-03,3.269647365700335817e-02,1.014584600925445557e-01
4.261432765577964910e-01,4.217370683887733396e-01,4.293195251116370681e-01,1.899891035275775263e-03,3.856127157389436112e-03,-1.932825436019622745e-03,1.049494091421365738e-02
4.304327012686079423e-01,3.399057020055663569e-01,3.755793459750138008e-01,-3.233855164540355015e-02,2.088638815504699833e-02,3.223760550905322569e-02,1.174826696515083313e-01
4.486104098989304734e-01,3.621578756272149091e-01,4.020490080381212694e-01,-3.330398082165445060e-03,1.810705280270105341e-02,1.682490859473731101e-02,8.650293201208114624e-02
5.033160002201806371e-01,3.978452582380713753e-01,4.220829665542086273e-01,-1.916264843257533407e-02,1.761181791317406251e-02,3.537722339212147349e-02,1.222373470664024353e-01
4.627590388609370553e-01,4.094588727403904449e-01,4.089209342349685583e-01,-1.147305675736413379e-02,8.609852345313799560e-03,9.290967751426322876e-03,6.120553240180015564e-02
4.955993512315663430e-01,6.995067377011515708e-01,6.037382236218667986e-01,-2.474272350150215002e-02,-1.238949630456968737e-01,-2.567800970144794651e-03,2.812973558902740479e-01
3.030042714984374497e-01,3.237876186354068375e-01,4.421845520679151820e-01,6.105524892191334374e-02,2.082897933270651519e-03,6.554630649885988215e-04,1.676544100046157837e-01
4.363977040689708264e-01,5.215488071772215184e-01,5.757563570765686922e-01,4.555379986692003474e-02,-1.382029761955771985e-02,2.188118297092305972e-02,1.517886966466903687e-01
3.347182913073025734e-01,3.436018256818102468e-01,4.589912437330549433e-01,1.000515316613911215e-01,3.910498913705676149e-02,-2.439136775194474319e-02,2.254374474287033081e-01
4.335305596957431673e-01,4.667063425348403349e-01,4.428010696189549900e-01,7.599902083608277813e-03,6.349749177311888280e-03,-3.751492210232210914e-03,3.486363589763641357e-02
3.929220653526863671e-01,4.531602023327956918e-01,4.761548602578575262e-01,5.591006282839009606e-02,-4.989641199404300925e-02,5.365835045974684525e-02,1.761447191238403320e-01
2.937634543856701419e-01,3.545700401211490660e-01,4.451736986053028144e-01,5.799776622752850219e-02,-1.883631040991195875e-03,8.111192712026968343e-03,1.664782464504241943e-01
4.894898190172022323e-01,4.575011000380425630e-01,5.420597204292211257e-01,5.124042431819456067e-02,-3.052994241045132312e-02,3.399075828075627526e-02,1.400271654129028320e-01
4.217533394970691130e-01,4.116052100499226207e-01,3.903540607890585989e-01,2.978681411918682187e-02,-3.354521994822074610e-02,2.554539707494231371e-02,9.362459927797317505e-02
2.984010334489383132e-01,4.151142748921457515e-01,5.350401238272453064e-01,9.756910818550076914e-02,-5.679728570731928938e-02,1.457651657067794010e-02,2.843862473964691162e-01
4.333358988406977863e-01,4.448195547876636069e-01,4.341954544734090704e-01,1.266390904673264954e-03,2.704316862554457667e-04,4.426641709146850873e-03,1.365863997489213943e-02
4.593552082387477586e-01,5.065568969530680477e-01,4.457491764918420363e-01,4.218573773453233172e-02,5.249948597033243097e-02,-2.590065110341687946e-02,1.366578936576843262e-01
3.870203796339017899e-01,4.777636890699030747e-01,5.228593555369071000e-01,5.940482882438303386e-02,1.267395461657452038e-01,-8.539738386195681874e-02,3.082430362701416016e-01
3.601284403298643522e-01,5.180436568610004011e-01,4.077918503333842204e-01,1.527455931008162363e-02,5.017575791199003349e-02,-2.540649264657827977e-02,1.728336364030838013e-01
1.906960954894870441e-01,3.162047252711537304e-01,2.098798301733248439e-01,7.356399262461206512e-02,1.268876960029189371e-01,-8.186948132885428497e-02,3.136191666126251221e-01
2.752983880402325445e-01,4.650717534560354083e-01,2.905254623134596037e-01,3.849065314346628713e-02,1.243049288595024088e-01,-6.812012040675674562e-02,3.131723105907440186e-01
3.838223235455797688e-01,4.453051130348641973e-01,3.118287338581094970e-01,1.178195169837115489e-02,5.572137302223404559e-02,-1.612082430716183304e-02,1.545971482992172241e-01
6.241581046719849590e-01,6.842898092833885615e-01,5.315320700474025495e-01,3.467269135611492775e-02,1.156342538590489771e-01,-6.092423182272080351e-02,2.694826126098632812e-01
2.767244223779578016e-01,4.567378086107231616e-01,2.808101921730523087e-01,1.652819412869746540e-02,1.530963598092612010e-01,-3.221654844651724442e-02,3.254762291908264160e-01
3.772687967788814767e-01,6.976349505663870243e-02,3.618691439494439166e-01,1.086510758899296158e-01,-7.280116212601424330e-02,1.553164938308233822e-01,4.623267352581024170e-01
5.659430828728115870e-01,3.145646974227290782e-01,6.065684569133473758e-01,1.495828418645255009e-02,-5.966887002191876600e-03,4.233570602096285718e-02,2.849716842174530029e-01
5.883571638514497604e-01,3.454950352135647273e-01,6.270086141977790906e-01,3.189595714762825940e-02,-1.988874432195623237e-02,3.789227791203594181e-02,2.800163328647613525e-01
5.267863670472019422e-01,3.713708378975999480e-01,5.246019074227618040e-01,4.498346346976685173e-02,-1.505196164447489791e-02,4.769496150152915948e-02,1.933750510215759277e-01
6.267314557777061701e-01,4.162831894355221163e-01,7.002377415626742652e-01,6.472122862214575723e-02,8.392588760075292073e-03,4.495972155607023957e-02,2.898324728012084961e-01
4.839663838538786900e-01,2.158897305989510296e-01,4.917135253391044514e-01,5.040955483130265397e-02,1.003132406501496205e-03,1.456239695700548183e-02,2.868179082870483398e-01
6.093303806091852071e-01,3.434290601103904272e-01,5.581225436415853114e-01,5.963930193121588785e-02,-1.883321444035036471e-02,5.997699533477563599e-02,2.867679297924041748e-01
4.597306504934464133e-01,2.363500563195291559e-01,4.465101706337729626e-01,2.471619222978029690e-02,-1.573850618081143460e-02,3.858147273297837798e-02,2.327269464731216431e-01
4.017609773374225535e-01,1.453175141651159574e-01,3.504287824976830557e-01,8.678091606909538180e-02,-3.272619556886742498e-02,7.503550604810148295e-02,3.129396438598632812e-01
5.302034350168792765e-01,4.417646978324512586e-01,4.383874651910555365e-01,-3.011709794002611143e-02,-1.597093563800380464e-02,-6.982681466716451901e-02,1.620036363601684570e-01
3.647400592775361106e-01,4.141169906680792212e-01,4.720457981283511240e-01,1.162790305522831344e-02,-4.254973538016802552e-03,1.083081745919421690e-02,9.729354083538055420e-02
3.887453423132697927e-01,4.388468757561187483e-01,4.890019337431517066e-01,3.022991949542468137e-02,-6.335979136447927006e-03,1.054727905538203198e-02,1.036062389612197876e-01
4.020082190458421634e-01,4.747098177559193055e-01,5.046435696213874555e-01,3.219515204120984575e-02,-2.444337091096964593e-02,2.921846704220160129e-02,1.257813870906829834e-01
3.345726414081896527e-01,4.390873573733825030e-01,4.684549608246631469e-01,1.608054730557266152e-02,-7.528434028077259782e-03,1.545215928617718962e-02,1.285193413496017456e-01
3.422411254974924155e-01,4.343747841495801398e-01,4.455385724364448463e-01,1.693691737110345624e-02,-1.555511450311079617e-02,1.951022921093580054e-02,1.112214550375938416e-01
4.585157948536456307e-01,3.902915969686063802e-01,4.934038130467937044e-01,4.679060684152715893e-02,2.695426451046959229e-02,-6.362690188321652729e-02,1.707183271646499634e-01
5.489211322467195675e-01,4.946751645404358633e-01,5.505589992607118344e-01,-5.752902070954356295e-02,4.245374739875162895e-02,5.535905376157596036e-02,1.660233587026596069e-01
3.924463232439661109e-01,3.474289732278126874e-01,4.721073624998430862e-01,-4.290222182848323074e-02,1.750009654959215621e-02,1.197708008162623461e-02,1.372205764055252075e-01
4.961591750889984276e-01,4.742734860185479628e-01,5.649648441840302571e-01,-8.663308598201652222e-02,1.311042346603395227e-02,6.423486018912722036e-03,1.728420406579971313e-01
4.958308774874493063e-01,4.916748362789339355e-01,5.320453438255879908e-01,-3.495080036320873107e-02,2.637279968502115671e-02,4.651566172895735957e-02,1.171393990516662598e-01
4.071842822074236423e-01,3.559653163277632926e-01,4.433540964358210212e-01,-2.996827529820675351e-02,3.077210798405113218e-02,3.001814027425327505e-02,1.184168308973312378e-01
3.666150934014448803e-01,2.732033060641617661e-01,4.911177973968069987e-01,-1.207019675383286111e-01,3.995499627753289207e-02,3.183291221722100300e-02,2.956227362155914307e-01
3.443898718510026158e-01,3.976027331047084501e-01,1.817644195002790786e-01,-4.177635770864016745e-02,9.533915000617593227e-02,5.866167822255170111e-02,2.841838300228118896e-01
4.498795535316507666e-01,4.450696844488483683e-01,2.255816909864339914e-01,-4.088773729586317462e-02,6.253783515150578010e-02,4.530781784109881583e-02,2.686272263526916504e-01
5.732129655649639277e-01,5.315337453531172596e-01,3.441942368567881272e-01,-2.178556661521153029e-02,9.720588159415571861e-02,5.291511237933693018e-02,2.877711355686187744e-01
5.234806107976101019e-01,5.481904193758753152e-01,4.141707614108719460e-01,-3.310824509891341361e-02,4.895759930441166696e-02,3.411108128809754725e-02,1.709676831960678101e-01
5.686151835958057621e-01,5.822494678362858389e-01,3.945413614817160908e-01,-1.337941913257795386e-02,4.436762600428505871e-02,1.966905480881175200e-02,2.011568099260330200e-01
4.347082086955610380e-01,4.362827951787429104e-01,4.464040598908181057e-01,3.276370982506255497e-02,2.535296102529815965e-02,-3.892176783915242411e-02,9.906698763370513916e-02
3.603359471127927649e-01,5.444103773389985523e-01,4.535658667722136106e-01,-8.074871481967235698e-02,8.376302089225273750e-02,7.804273521604730701e-02,2.903373539447784424e-01
3.782663031435021250e-01,4.974908569840783557e-01,2.523292877346671736e-01,-2.122495578407496836e-02,7.571635657883749038e-02,1.420386841820560526e-02,2.534660995006561279e-01
4.066869797216988713e-01,5.290441261975419307e-01,3.099028095302194252e-01,-2.504202697083527177e-02,9.926217036981452302e-02,1.986562921654456352e-04,2.600404620170593262e-01
3.916673599910590609e-01,3.636907781074333323e-01,1.057332470354268028e-01,-3.615510421920611200e-02,-7.107802666623676269e-02,-9.387699712693253762e-02,3.464939296245574951e-01
5.778280556807566803e-01,5.511532660195195277e-01,3.875339519793983833e-01,-2.703822555176589940e-02,-2.861377148564236278e-02,-5.625805534254034457e-02,2.144567072391510010e-01
3.040129507582414181e-01,3.754683858665460172e-01,2.486294906686316586e-01,-5.171445750877528419e-02,-1.092316521484695407e-01,-5.637105288718195772e-02,2.558936476707458496e-01
2.707935451126228799e-01,4.203529060032701881e-01,3.056073526668383611e-01,3.392181556177973484e-02,-1.070702642432458523e-01,2.535012230468587299e-02,2.411334663629531860e-01
4.248480590743878293e-01,4.511032496716207429e-01,4.444629302048642150e-01,1.130062659807860512e-02,-1.796093330258247481e-02,1.314231585887409848e-02,4.927621409296989441e-02
3.980539177941069817e-01,4.282118130799848488e-01,4.072721814549796204e-01,1.182314870009402302e-02,-1.294022429237464723e-02,1.284210378091401282e-02,4.618375375866889954e-02
3.967049995682014885e-01,4.453233927242111201e-01,4.261454441320907671e-01,3.751664420245108544e-02,-3.492490540619186401e-02,1.580284841329121850e-02,1.021277308464050293e-01
3.375421958476995110e-01,4.480184874254283800e-01,4.981460422668956833e-01,3.933771666342947282e-02,-3.322268882958822472e-02,1.486705807492714158e-02,1.699187606573104858e-01
4.334903437902056789e-01,5.988970399911682785e-01,6.552621516068664054e-01,9.101029458275175510e-02,-4.829915000217817334e-02,3.968413638859159126e-02,2.764617502689361572e-01
4.814396823946373027e-01,7.153564008257975448e-01,6.544807015021469887e-01,-4.464052662283381212e-02,-8.182703866822485517e-02,-1.320053656329081906e-02,2.660284340381622314e-01
4.094720859218640707e-01,6.632890903101630320e-01,6.312086505786813628e-01,1.087222769455051252e-02,-9.445625211232083762e-02,7.556017439932069882e-03,2.908633947372436523e-01
5.034037801739393858e-01,6.045963090900270398e-01,4.826546805201687995e-01,-2.039958407885384545e-02,-6.207503516353787831e-02,-2.814840646304053035e-02,1.671988815069198608e-01
5.253285719562438283e-01,6.622100183998426148e-01,5.199962648060706405e-01,2.540064563625743163e-03,-6.498867817763914756e-02,2.170052882778666144e-03,1.794405877590179443e-01
3.763322565028103250e-01,5.584262655673762898e-01,4.670852030412492861e-01,1.429985072507263151e-03,-5.836504875218932742e-02,7.109962919578606891e-03,1.877391338348388672e-01
4.149998067538077651e-01,5.722987365850682462e-01,4.267991315467642433e-01,7.354939571606641802e-02,-1.131829620716317819e-01,6.897499554084285042e-03,2.789777219295501709e-01
2.505583004175007122e-01,4.208803743129818087e-01,4.528076860634175915e-01,-6.845960518957205920e-02,-1.056616881332496510e-01,-5.733122511315905806e-02,3.047635555267333984e-01
3.072912023875101761e-01,4.307766672536091912e-01,3.385947800196826840e-01,-6.006186171325429701e-02,1.009945901665606494e-01,5.469228850832075217e-02,2.505170106887817383e-01
3.949122316526816334e-01,6.059743505677179787e-01,4.132864922257400431e-01,-4.379909620922151081e-02,8.529612122120601436e-02,9.918487016822837010e-02,3.132107853889465332e-01
5.210545275232767448e-01,5.685092391168889980e-01,4.216590669468941455e-01,-3.064123915019748359e-02,6.061731195538100359e-02,4.385905226272172192e-02,1.909425854682922363e-01
5.077181727173305514e-01,4.400989219778980721e-01,4.675252538773771449e-01,-4.556605270985993050e-02,3.741169615928300468e-02,5.260708317667974615e-02,1.489974260330200195e-01
2.236550385808603048e-01,3.915134326990277192e-01,2.144608584267418683e-01,-2.752682955709268714e-02,1.344531789207686345e-01,3.426737027921854944e-02,2.997218668460845947e-01
5.297513004893223965e-01,6.260499324053796499e-01,4.104925633769190840e-01,1.678507924283213423e-02,1.060635628126713470e-01,2.119149916973551637e-02,2.663107514381408691e-01
4.250007229303127132e-01,4.499468395463434023e-01,4.595383051012041919e-01,1.567928593651030447e-02,-1.684189225651290880e-02,1.804738883120395390e-02,5.932257324457168579e-02
3.866430630529885670e-01,3.912917253386959393e-01,4.529488714542588834e-01,1.950718607779994285e-02,-1.057260469302808911e-02,1.368407635600724787e-02,7.841256260871887207e-02
4.134748989269529384e-01,3.990268637814327057e-01,4.195571219316384659e-01,4.494294816034816176e-02,-2.737360482968454259e-02,4.496708163498340516e-02,1.212735697627067566e-01
4.344985493369586949e-01,4.189577783115169818e-01,4.520425778607159994e-01,2.511324412056291019e-02,-2.254453441849834164e-02,1.616973340837700446e-02,7.087404280900955200e-02
3.621382860012301030e-01,4.095386312670276641e-01,4.428738058311461057e-01,3.354697096799653944e-02,-2.564901755735205305e-02,2.142562807203068909e-02,1.080051511526107788e-01
5.671029541311721767e-01,5.122057873986857190e-01,4.479806663656960009e-01,1.392914448678640900e-02,-5.902226386602620577e-03,4.509961981866980607e-02,1.321092098951339722e-01
5.936353301737248289e-01,5.597985806615309867e-01,4.410565464074187592e-01,6.302368904962359075e-02,-7.384482891838764496e-02,7.265310363584916165e-02,2.517399191856384277e-01
4.426518068881341028e-01,4.482138570122728982e-01,3.095928638833380653e-01,3.431914057415974550e-02,-6.417552429775848222e-02,4.891957154026114335e-02,2.038234025239944458e-01
4.313824913005477324e-01,4.174008737345772935e-01,2.578883930609812136e-01,2.996855305522220375e-02,-4.449806532750617827e-02,6.149368802336782625e-02,2.187440395355224609e-01
5.495820947250544819e-01,5.385054389278898235e-01,3.203623547152659734e-01,-2.344157318438832086e-02,-1.350931634862213293e-01,1.769643084410840381e-02,3.278168737888336182e-01
4.980286358910178679e-01,5.582657625870361962e-01,4.219423148440808458e-01,3.016149729667180410e-02,-6.871700407220884821e-02,9.686569848681565037e-03,1.765717417001724243e-01
3.531446962663071232e-01,4.009540488656284651e-01,3.164545873390803288e-01,3.044184473670693072e-02,-6.604354402499887366e-02,5.109336387754453285e-02,1.705373525619506836e-01
4.641550975975768378e-01,5.448933501780161004e-01,3.810711898332226344e-01,2.498766337484210898e-02,-9.342431338006122743e-02,2.699812726193109164e-02,2.244410961866378784e-01
4.060465992751583486e-01,4.173014185513325147e-01,2.927298975793350966e-01,9.349627378748084916e-02,-1.002861702081022932e-01,1.010230196977886935e-01,3.182078897953033447e-01
5.137243843606351668e-01,4.818213910648484477e-01,3.825576582544814586e-01,3.620838094211086683e-02,-9.611688048237003457e-02,5.684119147397987543e-02,2.353277951478958130e-01
4.804546243911202441e-01,5.445797155820335522e-01,4.477547427192232199e-01,3.600253992222311045e-02,-1.044391235978824467e-01,4.866175406821588584e-02,2.258168160915374756e-01
4.250747902598992489e-01,4.051169161558810239e-01,4.264254698798441989e-01,2.211975415701623003e-03,-9.295869907444652414e-03,5.067571822501307395e-03,2.789366804063320160e-02
5.544867313032340039e-01,6.479893856728515811e-01,5.279571674275881366e-01,7.358640644943707787e-02,-1.200213837128462496e-01,7.013531130912124822e-02,2.935035228729248047e-01
4.025898019783255566e-01,4.063132711708390410e-01,3.209683780848766044e-01,7.349165989656990250e-02,-1.040136015015235282e-01,1.222020907650731708e-01,3.169218301773071289e-01
3.676654599417125691e-01,2.469070239661725064e-01,4.465260404978879660e-01,8.207326398181748195e-02,2.425631780809022267e-02,-2.704584406259919957e-02,2.334357947111129761e-01
4.575467398406170005e-01,3.578580574205335596e-01,5.277533707537064300e-01,2.718862031131395740e-02,-3.043247883166470087e-04,-1.485095448143460874e-02,1.573060899972915649e-01
6.041058539760686408e-01,4.240333933891042295e-01,6.840088828673421828e-01,8.779386873624449306e-02,2.514868425189999840e-02,-4.244301095478546226e-02,2.891778051853179932e-01
5.185746396003385605e-01,3.825361987059524571e-01,5.535495174263852514e-01,1.187296237844386385e-02,3.288709921873075176e-03,-2.266867461448690210e-02,1.627408415079116821e-01
5.361330421980970984e-01,3.428676436738820055e-01,5.393758032862425722e-01,2.857046682442371602e-02,-8.282995598732137681e-04,-1.838977117940460149e-02,2.036029696464538574e-01
4.025565021227131002e-01,1.697070207239352313e-01,4.140749091212608812e-01,6.332756169023438797e-02,1.207428367187112980e-02,-3.841592510427000590e-02,2.718997299671173096e-01
5.865513290661575896e-01,3.495077003152398110e-01,6.493048779435143247e-01,4.588674696351643240e-02,2.217642710641932330e-02,-2.829674869857372235e-03,2.877832651138305664e-01
4.801554813493397744e-01,4.028864007279485682e-01,3.481055103574052234e-01,1.279577128750841210e-02,1.703603062694058687e-02,-3.872278459279983320e-02,1.380744874477386475e-01
4.752548908418663398e-01,3.983931348668108829e-01,3.371845817180917360e-01,-2.434508502698517086e-03,-1.784446359373880256e-02,-4.027456194861624150e-02,1.421196311712265015e-01
4.652454908845378156e-01,4.499710476001095860e-01,4.036651600537430329e-01,1.459398984959065816e-02,2.052035449079494742e-02,-2.033312197295217283e-02,7.891359925270080566e-02
4.164995809965842399e-01,4.335374079028264105e-01,5.011447876430322745e-01,2.944743811544714776e-02,1.223044171775682955e-02,-2.061126467882025762e-02,1.016740202903747559e-01
4.083380885095698187e-01,3.422785418867210216e-01,3.343092582568140125e-01,-4.732524835498131549e-02,-4.310463108935089216e-02,-4.722186414796276932e-02,1.547145694494247437e-01
4.874512977583240758e-01,3.870801349260419855e-01,4.156005141221770227e-01,-1.276656066367487172e-02,-8.009275354502090605e-03,-1.471976234475067848e-02,9.672938287258148193e-02
4.358675220484605761e-01,4.364913145029760133e-01,4.507927703581773859e-01,7.966618452531791517e-03,5.948415402130187955e-03,-9.310842645784129026e-03,2.775732800364494324e-02
4.270861944177528624e-01,2.848766725540688438e-01,3.333894571830038900e-01,-6.640561146177110033e-03,-1.791730012989631998e-02,-6.106652997986564829e-02,1.672148406505584717e-01
4.344453335038374053e-01,2.495300741568640956e-01,2.381667675222582659e-01,-9.816079106998755466e-03,-1.718124336588758988e-02,-1.138452236931094819e-01,2.765517830848693848e-01
4.685953782507704668e-01,3.852615357482007119e-01,3.811250678055164154e-01,1.122444420760585794e-02,8.450300216602615183e-03,-2.429909924770084356e-02,9.833551198244094849e-02
3.785946102308453964e-01,3.808157255677948050e-01,4.347272347934115211e-01,-1.854324555472377720e-02,-1.626399876717437437e-02,-1.330583148434818196e-02,7.339871674776077271e-02
3.830087844385352547e-01,4.440669045106763191e-01,4.202955176755847067e-01,4.993776311740060099e-03,7.319994798131221510e-03,-1.643395619058196297e-02,6.234999373555183411e-02
3.742551127275960399e-01,4.014225185966420750e-01,4.238176855577548419e-01,-3.549094907908566243e-02,-2.891257548250435183e-02,-2.666812334707715018e-02,1.013322770595550537e-01
3.272346422574491376e-01,2.747660135601149300e-01,4.179938946409359479e-01,-5.933250330288752233e-02,-1.406620559295252738e-02,-1.705269277459013633e-02,1.666709631681442261e-01
4.346251766006184458e-01,4.197017965813243934e-01,4.745584443117709106e-01,-2.626294713414785431e-02,-1.084674365255286488e-02,-1.323163322583593114e-02,7.321695983409881592e-02
3.631715647244372347e-01,3.000856909558000662e-01,5.044139602483661555e-01,-1.323553659666999449e-01,9.109209300307489002e-03,2.536782502434285422e-02,2.959273159503936768e-01
3.851651186743767497e-01,2.991879996234618755e-01,6.135149172518419292e-01,-1.910947623968505260e-01,3.350902458049653115e-02,2.147972182935794713e-02,4.398555159568786621e-01
3.698772201350783440e-01,4.649151260523773921e-01,5.527921584834801783e-01,-5.364532828873568721e-02,1.560750524963042942e-03,-7.476878427870036446e-03,1.841594576835632324e-01
3.706614830987138287e-01,3.839343776877642833e-01,4.699400367656208499e-01,-2.563413460942762581e-02,-1.274776619443493235e-02,-2.017024578471627791e-02,1.113285571336746216e-01
3.763392855703400208e-01,3.440153664037016723e-01,3.861750651582717131e-01,3.264317464938468888e-02,2.753627499789975536e-02,-3.236662829402796315e-02,1.003681942820549011e-01
2.588223009487082837e-01,3.060998515330917713e-01,4.070049363435838119e-01,-6.822223198097504548e-02,9.620776814459582396e-03,1.432927716385021949e-02,1.790084689855575562e-01
4.447693764730694665e-01,5.147002390466276500e-01,5.975530556218092704e-01,-7.725514756809150063e-02,-5.558987773883702389e-03,5.158135635709280463e-04,1.885403394699096680e-01
4.213962988141361499e-01,4.744713251230563977e-01,4.262443596836993920e-01,3.705041429013284596e-03,2.356907547256357517e-03,-1.594248431123229497e-03,5.146477371454238892e-02
5.250895626840579311e-01,5.388269534928056270e-01,3.640672902403095934e-01,4.229655417803543306e-04,-2.924725484134049758e-02,8.594133401276632042e-03,1.764007806777954102e-01
3.949940710615982287e-01,4.508540403093625470e-01,4.212545504150513875e-01,2.234421359832724011e-02,2.689838133289322239e-02,-1.701665694732265935e-02,8.294636756181716919e-02
5.240946955497092219e-01,5.595225109264266861e-01,4.548061037845737564e-01,2.383914112558084206e-02,-3.076931368998016281e-02,4.661732731988871281e-02,1.399123817682266235e-01
4.400901145681278548e-01,5.226520073854266091e-01,3.930325778035317907e-01,1.178053289173671206e-02,-1.345266621963958353e-01,1.148226669347371040e-02,2.608067691326141357e-01
3.879918670058590258e-01,4.351855665764516323e-01,1.729174411166443381e-01,3.366528587232622133e-02,-8.009364742307657770e-02,3.589986441713752252e-02,2.917976081371307373e-01
3.606925543648388799e-01,5.641908770495114300e-01,4.042946990169222765e-01,3.061740720576562602e-02,-9.326426892383311851e-02,5.657736369343154686e-02,2.700920104980468750e-01
4.793793987737131057e-01,5.459434490462043987e-01,4.782067063108909055e-01,1.700151037582978142e-02,-5.297849097926216055e-02,1.260447388100609072e-02,1.194744333624839783e-01
4.315083823336073321e-01,4.998725447471498717e-01,3.839765950288401286e-01,6.627806304067191540e-03,-6.004301071574994625e-02,3.285261792900911332e-02,1.561011075973510742e-01
9.379622336192039445e-01,7.400903535024480062e-01,6.413346010628450111e-01,-7.383313736402320922e-03,-2.450671011683617367e-02,-2.173541890152160261e-01,4.605874121189117432e-01
6.139609460854287271e-01,5.997877805736065993e-01,4.179002474972659531e-01,-1.219608279250232463e-02,9.646270639519718970e-02,-7.885772236830719539e-02,2.878869473934173584e-01
5.833546520271987168e-01,4.965598398001935254e-01,4.132829500089570396e-01,1.659373838233874424e-02,3.826461428644255952e-02,-8.797250921184354699e-02,2.239028066396713257e-01
4.820091102277059836e-01,3.750373880180072894e-01,3.251081393344141812e-01,5.452801419053607268e-02,7.258024635886457798e-02,-8.397644403099926991e-02,2.552579343318939209e-01
5.761613757614464371e-01,4.917811002145277000e-01,4.609616645574173832e-01,3.229774644869035788e-02,8.426906539004752617e-02,-1.142611682865472267e-01,2.725262045860290527e-01
4.756633466059982385e-01,3.786254843314529328e-01,2.369067666143618578e-01,2.429694201844264864e-02,2.538117336777665281e-02,-7.680393255871095781e-02,2.542691230773925781e-01
1.432046862022992029e-01,1.375239488054486037e-03,3.502718316263454534e-01,2.706754069178257116e-01,1.304589633519621580e-02,-8.669315729660174649e-03,5.593676567077636719e-01
3.424397944711169428e-01,4.048291987958561600e-01,7.445372171367979908e-01,1.911382338070520548e-01,5.288347319070622887e-02,-5.030063310657205411e-02,5.158197879791259766e-01
5.850191549876877506e-01,4.851585593677820163e-01,6.425143955689391895e-01,1.054808267439045072e-01,-5.856603863400898502e-02,7.700212951571276665e-02,2.836827337741851807e-01
5.964519279482857206e-01,5.565876556742390679e-01,7.197518658770662991e-01,1.214858181370735146e-01,5.729005112104290816e-03,-1.329910169768586288e-02,2.580944895744323730e-01
3.555984098690962991e-01,4.365587786502604928e-01,5.027448870505777379e-01,5.759102385884685982e-02,3.920781451269923085e-02,-2.653889973814571243e-02,1.815723329782485962e-01
4.162511262533213352e-01,4.889170205042523421e-01,5.019987278058518632e-01,2.640334927024490241e-02,2.467941921428945182e-02,-1.911764977318841305e-02,1.068510264158248901e-01
3.131535449093124091e-01,3.451512715533965880e-01,5.619314380200026715e-01,9.938528216240774538e-02,1.380437094203027307e-02,-1.016006373643215006e-02,2.923484742641448975e-01
4.600382600030233915e-01,4.920484418522494963e-01,3.756924220526279834e-01,-2.691837962675073387e-02,-3.296358405859328711e-02,-4.516360069930314830e-02,1.496383696794509888e-01
4.685667550264192571e-01,4.849516687618986577e-01,2.523432884471718540e-01,-1.032526411160782087e-02,-5.235926978316513686e-02,-6.000771187733931061e-02,2.644067704677581787e-01
4.111908499147725049e-01,4.282661668822635992e-01,1.447569732086841920e-01,-9.306722025688765262e-03,-3.892490306406236333e-02,-3.542859934226619961e-02,2.905148267745971680e-01
5.005574922128401827e-01,4.386699878768207661e-01,4.035825009377581596e-01,-2.650028359623432181e-02,-1.994755386192891000e-02,-3.197805472987145375e-02,1.166231930255889893e-01
4.445421162986009089e-01,4.870488347390247164e-01,4.502943254202604328e-01,-5.488877433608863737e-02,-6.369650611866881085e-02,-4.545389937802466612e-02,1.703045517206192017e-01
3.762565383623046600e-01,3.334645079570133785e-01,2.466890132792289858e-01,-6.194513546684045358e-02,-8.232259216538261037e-02,-1.027735352119006074e-01,2.767747640609741211e-01
5.306175141281384011e-01,5.658630738198717758e-01,3.347781480661863318e-01,4.580017051920209155e-04,-1.007733395213140787e-01,-3.715132993331769773e-02,2.847891747951507568e-01
2.884184002763080512e-01,6.360454753746072054e-01,6.466811796921382305e-01,-1.524918619715419643e-01,7.459332461760352639e-02,6.800162103813826853e-02,4.743220508098602295e-01
5.657151572140650675e-01,3.689516895647149131e-01,5.673097985072411698e-01,5.561444965384955419e-02,-6.690108586796755796e-02,8.414995657612438229e-02,2.880659401416778564e-01
1.946075432655538506e-01,4.004287936762336297e-01,5.126420054257880832e-01,-3.057375502915564147e-01,-1.321082030863555447e-02,3.361062138514610276e-02,6.019875407218933105e-01
2.079129272076352397e-01,4.672016232365378552e-01,5.364779657688139025e-01,-1.389859903799448848e-01,4.934996151532903413e-02,2.403012197959699184e-02,3.962099552154541016e-01
5.753009694875682589e-02,3.137313596688530160e-01,4.806576358560785689e-01,-2.067921450515649850e-01,-5.180501026581568746e-02,-2.195678361912697940e-02,5.235043168067932129e-01
3.615183887587777312e-01,5.512581654569297385e-01,6.544297301793920996e-01,-1.418128586359651278e-01,-2.568246741942779854e-02,3.107827602687919391e-04,3.585150241851806641e-01
2.847531068234425700e-01,4.759822267186202271e-01,5.379400772047824297e-01,-1.473220224961542257e-01,-2.276682272836149865e-02,-2.457378397074806362e-02,3.474671542644500732e-01
4.529205310585229238e-01,1.997764214536557614e-01,4.693987397911065229e-01,7.243314303750884864e-02,2.379300819570930644e-03,2.969669599380671959e-02,2.948341667652130127e-01
4.462270555414447615e-01,2.467981497170786409e-01,3.253805663160838080e-01,-4.202718779076658473e-02,-3.328085142844602190e-02,-1.116846424272289057e-01,2.762563228607177734e-01
5.113759792358176792e-01,4.280044389359775048e-01,2.694056191624946139e-01,-4.857762754445870204e-03,-4.327503646149864075e-02,-1.469547689910801480e-01,3.402985632419586182e-01
4.786121821326256298e-01,4.498592152240647457e-01,3.681567692080924270e-01,-3.679249249481568451e-02,-4.086751823244537396e-02,-6.901632491840158090e-02,1.822429597377777100e-01
1.677195169141111053e-01,4.594577296966743107e-01,4.427358503374603793e-01,1.141892579725043919e-02,5.440325728998224308e-02,-1.697223285438292234e-03,2.996520698070526123e-01
2.012509300437116955e-01,4.893177875019614764e-01,4.997634335286539886e-01,-1.897957031179777973e-02,8.492716995020192089e-03,2.603629049130128884e-03,2.956654429435729980e-01
1.786680502590827779e-01,4.947679472824441094e-01,4.927158734491218772e-01,-4.229354961997890475e-03,8.790139078702186026e-03,1.054765283608210223e-02,3.160599768161773682e-01
2.829789268812460401e-01,7.108900183852601140e-01,6.758234549466520802e-01,-1.587619844020051255e-02,-1.475608748288743943e-02,3.237915468371557054e-02,4.169973731040954590e-01
1.332529920986692540e-01,5.246493900512843034e-01,4.514319429595101685e-01,2.063421450989292791e-02,2.673768059443568795e-02,5.288272753017670899e-03,3.652407526969909668e-01
9.131709764125731099e-02,4.794445715721282752e-01,4.380538041025362483e-01,-5.803157379378872695e-03,5.575439064624868740e-02,9.831144444819655062e-03,3.821097612380981445e-01
2.965583075446979744e-01,6.686404364246927301e-01,6.939074197158537904e-01,9.670685245208322442e-03,2.302887838906714224e-02,9.782853651535809020e-03,3.881283104419708252e-01
5.823015743238163511e-01,7.526064998656223359e-01,6.893475171741101359e-01,6.559720206216515526e-02,1.108688002398054706e-01,-4.282742609153043778e-02,2.784230113029479980e-01
2.516242531339184518e-01,6.140310100352255329e-01,6.620474390153043842e-01,1.370847694052264830e-02,2.267128984828932492e-02,1.679235678551422445e-02,3.924250006675720215e-01
8.472723743256060924e-01,5.544834175938699872e-01,9.331897695622994870e-01,-7.460443762487453667e-02,3.837234010156390096e-02,-5.720142322827479267e-03,3.734645545482635498e-01
5.194108649515061238e-01,2.113478779480795211e-01,5.862049304634668889e-01,-5.525264008250020675e-02,9.399626332855750459e-04,-3.321611921577526799e-02,3.638848364353179932e-01
5.218767712955233451e-01,2.317888964013780084e-01,5.404702932376064251e-01,-4.808884784865104928e-02,1.779999277231474747e-02,-2.541048054029214701e-02,3.157778680324554443e-01
4.236508597752097760e-01,5.658179120068607126e-03,4.262152365703897883e-01,-6.136409733476259898e-02,-5.364039336070256826e-03,-3.793518720861448201e-02,4.376032054424285889e-01
4.401161414613307676e-01,8.324893229798652206e-02,5.793503911730986111e-01,-8.952961694973321505e-02,1.253484431429117626e-02,-8.946572931722915345e-02,4.949332177639007568e-01
6.974408565940994897e-01,3.427826431593049006e-01,6.341270924491324568e-01,-3.650694641555370795e-02,-1.964574776421103980e-02,-5.309262001190962615e-02,3.477771580219268799e-01
5.661353631371363049e-01,3.217609901519885574e-02,8.165161566900360768e-01,-6.747739301642638465e-02,-5.792384576197962855e-03,-1.460141826373667455e-02,7.041988372802734375e-01
7.891725981425384839e-01,2.496638741458740429e-01,6.809231031356132169e-01,-9.209239358884359350e-02,-4.898204360328091422e-02,-1.014554857063050888e-02,5.266266465187072754e-01
4.783889999458766917e-01,3.609050361015095909e-01,2.369161241834442100e-01,1.003016873531674055e-02,-1.642833017973535994e-02,-9.219433905319171507e-02,2.652419805526733398e-01
5.557107399135572390e-01,4.886305785782462663e-01,3.475079211829218417e-01,-1.122299728973555344e-02,-2.597559525924737767e-02,-9.217616123753785695e-02,2.485423088073730469e-01
4.645890565246489912e-01,3.869902419887345513e-01,2.446027145347646203e-01,1.310634568214187438e-02,-1.524191933840630953e-02,-9.630795630589654432e-02,2.576486468315124512e-01
5.351201899370510162e-01,5.098690243615529027e-01,3.260035033882160427e-01,3.806559281725421361e-03,2.500442964023682005e-02,-5.020697350694750677e-02,2.203822284936904907e-01
4.924565972443831763e-01,4.495220107257481001e-01,2.271595245991376577e-01,5.960251676314487664e-03,1.453419853391355737e-02,-7.502372222159954529e-02,2.801097631454467773e-01
4.201322609744139736e-01,3.099853416238558812e-01,1.580847857540410573e-01,3.520572901960554446e-02,5.718364593732660345e-02,-1.395680861734514278e-01,3.519992828369140625e-01
4.285684006112099320e-01,4.340434853566045303e-01,4.408906461558328993e-01,-6.424766397339091908e-04,-1.773403760217824024e-03,-3.016680515335332883e-03,1.234193053096532822e-02
4.599307676622412244e-01,3.814335037842040976e-01,5.271002389651372466e-01,-4.880513703346873317e-02,-1.550705453961517995e-02,-1.657695845671209103e-02,1.569643169641494751e-01
3.925985399854365898e-01,4.224118382698379692e-01,4.837356265018613599e-01,-4.678439942199941713e-03,3.696842158629198307e-04,9.806884017940315987e-04,8.091145008802413940e-02
3.838826264879893757e-01,3.810665755164930890e-01,4.846847068788081025e-01,-2.735975128647329460e-02,-4.162768238354134891e-03,-5.562172714989170076e-03,1.133283749222755432e-01
4.502942972467702254e-01,4.042237736635880818e-01,4.491958102204252068e-01,7.285724561667181881e-03,1.686107148599618952e-02,-7.848318779197305597e-03,5.718402564525604248e-02
3.549127356938264199e-01,3.343100633918290043e-01,4.502300695194688118e-01,-5.818859872930719213e-02,1.354698461179512994e-02,1.512780021125879892e-02,1.512233763933181763e-01
5.152824524839808573e-01,5.276073697176085764e-01,6.270116178181707189e-01,-5.927506599508187285e-02,-4.797813540192975260e-04,3.052286787741338714e-03,1.477413177490234375e-01
3.489516468474131994e-01,2.990397974414064630e-01,4.373424981656041099e-01,-5.649903945876689343e-02,6.346698248404280228e-03,8.129153645308879322e-03,1.568802148103713989e-01
3.242883445090716243e-01,2.877937220022298015e-01,4.220893993978727110e-01,-5.668182943448046851e-02,1.478202450060256586e-02,1.193420194161913875e-02,1.587054133415222168e-01
4.941210489503582437e-01,6.118357975354922207e-01,5.335670315107705619e-01,-7.906229994330750410e-02,-1.136082043796171198e-01,-1.027447340046857283e-01,3.160883188247680664e-01
3.439908301988341410e-01,3.938812951744669610e-01,4.238669058217925945e-01,-4.836985506514190902e-02,-3.726217083333088070e-02,-3.173496020156525710e-02,1.381660252809524536e-01
3.040471491511090307e-01,2.639077421221682762e-01,2.983495522064358862e-01,-9.314283825761766888e-02,-8.204153552649444403e-02,-8.757624042998252145e-02,2.657873928546905518e-01
2.476586888980375212e-01,4.020166954714908258e-01,2.847037533604909187e-01,-2.459931507979747512e-03,-7.601484825184033622e-02,-4.173319596821989386e-03,1.920565068721771240e-01
4.988397517944610504e-01,4.824631630035795538e-01,5.175089421498086928e-01,-5.140244045854380772e-02,-4.184596763669570091e-02,-4.415328820169019813e-02,1.412476450204849243e-01
3.858499611155709053e-01,3.248059667121398486e-01,4.701832818579241291e-01,-5.277110518185736815e-02,9.012013972171007900e-03,9.086173457690138733e-03,1.575824022293090820e-01
4.915732680182957060e-01,2.639251757541224430e-01,5.139345938591766139e-01,-1.220262212036040267e-01,5.378213327326017597e-03,-1.762557591542821987e-03,3.196583986282348633e-01
3.824584098845806301e-01,3.245480332396729062e-01,5.120498947161110648e-01,-5.251757440884680106e-02,-6.001539487413973945e-03,8.141621621931420570e-04,1.898330450057983398e-01
4.463222443427811714e-01,3.471417531401094214e-01,5.290897351310369645e-01,-5.703560451503633666e-02,3.593208577989919893e-03,-1.099491541227922038e-02,1.872344166040420532e-01
3.476257815981926846e-01,2.940085471364327629e-01,4.475141158059486868e-01,-5.535953247210225608e-02,-6.732394889269403826e-03,-1.510765922462182879e-02,1.679968982934951782e-01
4.855630053025945525e-01,3.193875671122857751e-01,5.335857939421189133e-01,-7.314392335821054414e-02,-1.405901397865880718e-02,-1.195216653455921998e-02,2.344617247581481934e-01
3.903504564805571619e-01,2.365650763481888519e-01,4.191274000374588526e-01,-9.377190408903536556e-02,3.856198227764089104e-02,8.717646713235568945e-02,2.873035371303558350e-01
5.315748162277907918e-01,2.133037757026510217e-01,5.253540342899986060e-01,-1.146489832303228679e-01,7.306190271003949917e-03,8.084215045236309120e-04,3.727606832981109619e-01
5.458504473986205419e-01,3.805447654161829840e-01,5.593161047973145283e-01,-2.822273996855228367e-02,1.340501458920922463e-02,3.851576379369982955e-02,1.926454901695251465e-01
5.913895446204285866e-01,2.287859072869991017e-01,5.759582034838286457e-01,-3.532318137100668581e-02,4.728659719996351242e-03,8.992728026063095959e-02,3.926768004894256592e-01
5.297476558250050482e-01,2.202738805422185253e-01,5.360986003775094488e-01,-1.030339889516488361e-01,-5.831439045538240606e-03,5.399444974634503430e-02,3.721236884593963623e-01
6.490107365814057339e-01,4.022387703896488365e-01,4.984004269448493174e-01,-5.970123403700253878e-02,5.944521950999473447e-02,1.157596228044662640e-01,3.284939229488372803e-01
5.625696033736402590e-01,3.469838369844223114e-01,4.216568792980822655e-01,-5.504395518201565113e-02,-4.831094077799813436e-04,1.149903272123642128e-01,2.910556197166442871e-01
4.114840947525849058e-01,4.307753879937248342e-01,4.018720778246450687e-01,8.316723498487317220e-03,5.461055277082945379e-03,-3.988559754434696167e-03,3.153841942548751831e-02
5.465582707420615360e-01,2.079548916503733968e-01,5.047457010341632744e-01,-3.754476679044887327e-02,3.722418416712635486e-02,1.369602427516062038e-01,4.085372984409332275e-01
4.499460453611822119e-01,4.316327380375968858e-01,4.794542121650652300e-01,-1.578488323966500961e-02,-1.750362599928509399e-02,-1.431430197657922523e-02,6.346508860588073730e-02
3.342849001179545310e-01,4.321032656846632847e-01,4.765004079243077562e-01,-7.039171945483604920e-02,-5.789438254770918474e-02,-3.673859061560334760e-02,2.117825001478195190e-01
3.996791810026139036e-01,3.213942200018553574e-01,3.540377974132254968e-01,-5.013869123671348821e-02,-6.734903427233517037e-02,-1.295802416716686223e-01,2.759729921817779541e-01
3.637140815082208767e-01,3.900209625434662430e-01,3.810560340858342721e-01,-2.914550376970102830e-02,-3.391895279390915591e-02,-2.883769753235393418e-02,9.503308683633804321e-02
3.462289928282815121e-01,4.193944149215247386e-01,4.183720307483352885e-01,1.512575250075928572e-02,5.372465455997325716e-03,-1.887922025146883051e-02,8.438988029956817627e-02
4.107439048029687401e-01,5.167595073953844542e-01,4.989826365181415646e-01,1.929818235044520117e-02,2.284789470487974539e-02,-2.731258860287738566e-02,1.207972317934036255e-01
3.801578720317806415e-01,4.820106543584699033e-01,4.585767844418275341e-01,1.894530171476311101e-02,2.356015085807486309e-02,-1.658285870646147506e-02,1.100150868296623230e-01
4.211378271991513822e-01,4.877132126474257867e-01,4.869823527516349282e-01,3.354882015170475990e-02,3.080531782357861723e-02,-1.849096505959694353e-02,1.078581437468528748e-01
3.730173714098803384e-01,4.836515310553379798e-01,4.683744107638458942e-01,2.806834746952427753e-02,4.555621675649321189e-02,-1.147551726848332516e-02,1.405980139970779419e-01
4.774142116576514105e-01,4.924945302935626046e-01,2.251645552396548955e-01,-1.004953071985600476e-03,-2.577426650061167765e-02,1.005291711374345885e-02,2.645004093647003174e-01
5.609468052913209046e-01,5.571826994614310635e-01,2.198187138994247558e-01,-7.723281077113113881e-03,-1.058089367287812568e-02,4.966780815642590774e-02,3.507334887981414795e-01
5.692896176352436610e-01,5.533230073278492256e-01,3.440469704474562462e-01,1.365860673220812768e-02,-1.205560926872270610e-03,1.811346625243348205e-02,2.212264537811279297e-01
5.265601037638968362e-01,5.227557398565608748e-01,2.927409671063472274e-01,-1.514104446672382678e-04,-8.712446488933798389e-03,1.450301124948296175e-02,2.337843626737594604e-01
5.741715220541798725e-01,5.333319538251164449e-01,2.127776097699241031e-01,2.217674817591938630e-02,-1.437573025396941991e-02,7.589758568889591085e-03,3.460960686206817627e-01
6.799611099507227863e-01,7.008459420325916511e-01,3.543451511379531738e-01,-2.443689093046594492e-03,4.968154235752210955e-03,-3.097542680942964866e-02,3.409292697906494141e-01
6.738582977754568049e-01,6.201643634980926745e-01,3.142159510770146102e-01,-1.643292148444192241e-03,-3.515416754086094636e-02,2.176441075056032709e-02,3.435864746570587158e-01
5.168111322579589384e-01,5.386749392041862983e-01,2.532268672736754933e-01,1.576503341492955373e-02,-3.343227225034443167e-02,1.360610587543656901e-03,2.825278043746948242e-01
5.159064780067323941e-01,5.453753254243817183e-01,2.585568367345995044e-01,1.130704172580002456e-02,-2.084275165428168403e-02,-2.600682526275805481e-03,2.763840556144714355e-01
5.160960332121929950e-01,5.218474317378692939e-01,2.695661019904082023e-01,-3.444417291748815176e-03,-1.259683940536905980e-02,9.533884137037061668e-03,2.510224878787994385e-01
5.892257998458665380e-01,5.986343051567727391e-01,1.135610006747933554e-01,-9.155970317195148700e-02,1.912143587431638925e-01,-2.635006268645731162e-02,6.064174771308898926e-01
4.543055129685764082e-01,5.160547772611602246e-01,2.564144577887894627e-01,2.403063703778653398e-03,8.941255854040992823e-02,-1.253274933350957861e-02,2.822513282299041748e-01
4.662829800366419253e-01,5.157893241723559008e-01,3.029801373516498586e-01,1.789664407215826522e-02,3.499233612802139792e-02,-7.224702500035528122e-03,2.049245536327362061e-01
5.576111502299485601e-01,6.111875908242835331e-01,3.237497222930021401e-01,2.795924660144115392e-02,8.639702727180115227e-02,3.473925990509777600e-02,3.137674331665039062e-01
4.816199168400711605e-01,5.095432927366586595e-01,2.881408924830164420e-01,-3.588416618023071176e-03,3.143950378738109147e-02,-6.549118325047147658e-03,2.162153273820877075e-01
4.631616853908181453e-01,4.836137239873113391e-01,2.705825917147546833e-01,2.303791430589212201e-03,2.946039372738698189e-02,-5.960258567731255633e-04,2.099151313304901123e-01
4.891549167877665694e-01,4.681975978790457460e-01,4.459967776795595307e-01,-1.670204913110733685e-02,1.527875000996055041e-02,1.682119203278471462e-02,6.150941923260688782e-02
4.118451607308798446e-01,3.795615627948859538e-01,3.809600624962647952e-01,-1.431586568568745527e-02,1.384745908095134058e-02,1.386789876315626391e-02,5.259355530142784119e-02
4.832964311359300158e-01,4.355302624465514638e-01,4.472884406854487072e-01,-1.248121587622231903e-02,1.218532981433284069e-02,1.819842955088348674e-02,6.135597825050354004e-02
6.466256083962094170e-01,2.890137773773622798e-01,6.129370996524482473e-01,1.879451929994817860e-01,-3.623049421883695054e-02,-8.924565725396681193e-02,5.007756352424621582e-01
6.622089529873121938e-01,3.875484422833662679e-01,6.928785568636462999e-01,7.709918367159705743e-02,-2.835038302071646570e-03,3.082326961471967136e-02,3.248229324817657471e-01
4.927126149227563090e-01,4.616254024696582192e-01,3.991626470322932052e-01,1.425834424655137919e-02,1.367762322323287823e-02,-9.376913188649435224e-03,9.080041944980621338e-02
4.693814853917332441e-01,2.551222809775117173e-01,5.285592201941706758e-01,6.490619982066002380e-02,-9.670719108698109037e-03,4.029976845155857842e-03,2.739637196063995361e-01
3.250739446745962158e-01,1.473742035245257376e-01,4.002907789738336941e-01,9.852626264166931824e-02,3.390704436563238278e-02,-5.460875749921197814e-02,3.035102486610412598e-01
4.746940657453183610e-01,2.923761626618187615e-01,5.031282916134032224e-01,7.649535293306788941e-02,3.208040852838225931e-02,-4.090165439396576536e-02,2.547416388988494873e-01
3.800323033484871438e-01,2.390873269675413415e-01,4.947816060654463000e-01,1.000377661506683113e-01,-1.953223642799197315e-02,2.152863476633736992e-02,2.859438061714172363e-01
3.366710032872340941e-01,6.525913151458898054e-02,4.746613788034864667e-01,1.622342408046930085e-01,3.612955131903174133e-02,-6.545016348906369796e-02,4.752736389636993408e-01
5.655078944442004651e-01,4.424466974285742871e-01,6.801515509352061839e-01,1.382650605533282118e-01,5.246920702927624497e-03,-8.551418842930346917e-03,3.163053393363952637e-01
4.250324214193220151e-01,4.527006266247921573e-01,3.985769706747326890e-01,1.027748195834076936e-02,4.135976910018696225e-03,-4.114344275272157313e-03,5.115053802728652954e-02
3.865737187200871672e-01,5.436175471352532318e-01,5.604649121067029061e-01,4.623593526499265860e-02,1.288747170221933407e-02,-4.533756792933768889e-03,1.859182119369506836e-01
3.289776482866677565e-01,4.731673133764879857e-01,5.298752222974710824e-01,1.115113783650599766e-01,4.652926489182999947e-02,-6.662812828939161658e-02,2.988316416740417480e-01
4.247161858443279092e-01,4.326471897573906378e-01,3.931237999360622237e-01,1.586429454626273050e-02,7.271336177222751003e-03,-5.929449701686462237e-03,4.827689379453659058e-02
3.308143290685789384e-01,4.177840433109842877e-01,4.421884939859970221e-01,-6.228721061100320894e-02,4.033939011267102803e-02,3.646610795508214292e-02,1.754764318466186523e-01
4.477062947148083283e-01,4.309870870981546420e-01,4.184118828753183861e-01,-2.157387532493695512e-02,2.661743810878253874e-02,1.915208371265452944e-02,7.259533554315567017e-02
4.531246606748777772e-01,4.789689167117481827e-01,4.241116832455787411e-01,-1.221410247668018763e-02,1.780751244343058148e-02,1.061765899975078940e-02,6.321848183870315552e-02
3.957002973864593431e-01,4.111569718686155506e-01,4.170314938461761600e-01,-1.265125559384365841e-02,1.564125763247615000e-02,1.458088403306515533e-02,4.707584902644157410e-02
4.257851201547070419e-01,4.522857678691104555e-01,4.308759764799102165e-01,-2.542543151163374759e-02,2.641702510719114855e-02,2.499136598284373845e-02,8.062214404344558716e-02
4.342546778906695715e-01,4.517713327621724617e-01,4.474079495342171975e-01,-9.715853938580990695e-03,8.366480802996633520e-03,1.047116006560024244e-02,3.273474425077438354e-02
4.171565429161506189e-01,4.385395054986733765e-01,4.166817916699611102e-01,-1.075380043812163358e-02,9.540566497192100315e-03,8.073822312439202578e-03,3.582132980227470398e-02
3.268926937361480989e-01,4.378317001896708804e-01,2.149894807298605159e-01,9.512215333078168425e-03,-1.050176936568902597e-01,-6.029060657052426504e-03,2.659151554107666016e-01
3.833675105539147698e-01,4.792066054479737769e-01,4.576191271706515074e-01,-5.782587565822938473e-03,-8.780113114841895522e-03,-1.195992772047595534e-02,9.133965522050857544e-02
5.027463034754842131e-01,5.666493732117721116e-01,4.011373407796696711e-01,-1.590818536472744446e-02,-6.249221371404944242e-02,-1.374045316018806043e-02,1.842350363731384277e-01
4.229945805425047167e-01,4.653265771669778395e-01,2.449891300219949886e-01,-3.312185622002265101e-02,-9.627583551236951198e-02,-3.190085082318484117e-02,2.741615176200866699e-01
4.178445162307067307e-01,4.277751384519223321e-01,3.959367373497847398e-01,1.078959793417877747e-02,5.719851291238475799e-03,-5.795791277782041950e-03,3.666464239358901978e-02
4.046198933572557332e-01,5.890719578293053260e-01,2.976672092971740513e-01,-4.083866782359842941e-03,-1.003122703683123479e-01,-1.456007280183266653e-02,3.099399209022521973e-01
5.162379809844011014e-01,5.550761534312069756e-01,3.567125604614194145e-01,5.033977409270536107e-03,-3.622305774153247726e-02,1.826091017542438161e-02,1.953590959310531616e-01
4.458686715134112521e-01,5.470499214695871970e-01,4.117637902498418878e-01,6.412309585385403063e-03,-7.248834000618201157e-02,-8.908599327299499687e-03,1.760019361972808838e-01
4.432839881161178552e-01,4.199925146840678969e-01,4.283107793948919273e-01,5.505184558296817403e-03,6.693772884641246285e-03,-5.304293607851816479e-03,2.697571367025375366e-02
5.035411960057887271e-01,4.355580203888119728e-01,5.242677951872372066e-01,5.346237428349228521e-02,-3.092384681794834236e-02,3.305353315898110905e-02,1.455386579036712646e-01
2.961925678865683365e-01,4.370599126481272134e-01,4.358040772979285271e-01,7.260703778791376128e-02,-4.034904793550236207e-02,4.184674343368623844e-02,2.135912328958511353e-01
3.124312649345147852e-01,4.433312826235062398e-01,5.164445998240003721e-01,4.991703115060328738e-02,-1.111462672436525079e-02,-5.911197503822545728e-04,1.997440606355667114e-01
5.754737447875426515e-01,6.123999344173134407e-01,7.623531242546252029e-01,1.416343825936469958e-01,-2.818021323044363202e-02,8.758143585713322812e-03,3.036117255687713623e-01
4.585058752938206972e-01,3.442667949401216898e-01,3.951672095295993836e-01,-1.047860609145391357e-02,1.423275223309128715e-02,1.520915945459987324e-02,1.070405319333076477e-01
3.745138233886251000e-01,4.570633973360528346e-01,4.894788154740566943e-01,3.921788606968627799e-02,-1.387007276186140621e-02,1.523924149725405103e-02,1.281758099794387817e-01
3.613547257858674699e-01,4.745103310776569994e-01,4.838914011091600131e-01,1.061213169358963676e-01,-6.050456065631827640e-02,2.695132098564988893e-02,2.467801570892333984e-01
2.766005817352079621e-01,3.695638060762302946e-01,4.179661251855301130e-01,8.904943935161922786e-02,-6.004990803957100526e-02,4.263134791274988261e-02,2.356783002614974976e-01
3.953662975726180417e-01,3.877151223308579753e-01,4.720760142915826352e-01,9.234395654608222939e-03,-3.054385547054401951e-03,1.702140686989769532e-03,8.259747177362442017e-02
4.820407452776136470e-01,4.792717566453022493e-01,2.335979379223702690e-01,-1.372227782134559110e-03,6.902618289820320642e-03,-2.423079286187292906e-03,2.474060654640197754e-01
3.243431922022886327e-01,6.278043948686886644e-01,6.444361237622843186e-01,-3.442390411240152804e-05,1.689825823249013065e-02,-9.534887999302498092e-04,3.134832978248596191e-01
2.375723352788787768e-01,7.057635115566304185e-01,6.878071803779739479e-01,6.886023937086883581e-03,-8.206831222495900025e-02,7.761435236360393619e-02,4.995380342006683350e-01
2.115959771192205685e-01,5.739024614929514323e-01,7.353483442982141627e-01,7.689765383311057689e-02,-7.321417350371645094e-02,1.844002901358104615e-02,5.006639957427978516e-01
-1.937432239527928646e-01,3.355976595926756234e-01,3.740991699194702313e-01,7.549529019445215539e-03,1.851462252101367806e-02,3.654424804948770700e-03,5.507304072380065918e-01
-1.569191427775610825e-01,3.513718167188234487e-01,3.777284812601627850e-01,1.045065542756224292e-01,1.130373791773201832e-02,2.397087005145347692e-03,5.528260469436645508e-01
4.390925417142997889e-01,3.645249427688652677e-01,4.011254238083526436e-01,-6.289305876745373593e-03,1.406327248280845460e-02,1.536857437685167603e-02,7.477489113807678223e-02
3.517598499011431179e-01,6.387023822944016826e-01,6.302422764287283208e-01,-3.901917969423581573e-02,4.155767835550205208e-02,1.915491553195843369e-02,3.013791143894195557e-01
-7.351778048844653801e-02,3.926106521638752511e-01,2.887797421959252819e-01,-7.427937181081772922e-02,1.509157417318318373e-01,1.147260332021723082e-02,5.147153139114379883e-01
8.815686198830566256e-02,4.818822430796264600e-01,3.894804959954221157e-01,-2.067306419225885608e-02,1.994067069387294444e-01,7.229158970221079977e-03,4.979004561901092529e-01
3.669610233252633691e-01,6.340691539025318235e-01,5.734346303174799875e-01,1.230677373178590099e-02,1.255194076102482958e-01,2.094550925574012110e-02,3.284253478050231934e-01
-1.328763063483065499e-01,3.959261607500576541e-01,3.798339392016269467e-01,3.750128814483543599e-02,7.456169278840835135e-02,1.402813329626095146e-02,5.411738753318786621e-01
1.553746683733633893e-01,6.021479498582705814e-01,6.588215155970674752e-01,-7.172219000728217997e-02,7.459887408436458034e-02,-6.109314380648112747e-02,5.210209488868713379e-01
3.549581030897969169e-01,4.411222812666001913e-01,3.554959576950795230e-01,9.807415012630882334e-03,-2.881898226704801558e-02,9.920878874457809277e-03,1.022430434823036194e-01
3.122106480361481751e-01,4.784222285692843468e-01,3.641176582926541894e-01,7.624031358796555698e-03,-6.699474873426898569e-02,1.906188991304291758e-02,1.908465772867202759e-01
3.733446675200218778e-01,4.634965854829390941e-01,3.679034869411740849e-01,4.414578346338051719e-03,-2.595999149096144334e-02,6.251004315762058103e-03,1.041391491889953613e-01
3.481064350618098269e-01,3.549952348580675543e-01,2.971950529483439740e-01,-6.979490574285211746e-02,-1.047721006556749102e-01,-8.360276430743419918e-02,2.674022614955902100e-01
4.215076900164428930e-01,3.827099838279580113e-01,4.071070221832148173e-01,-2.029545164421263717e-02,-1.976567666956661681e-02,-2.287143265090649247e-02,7.163098454475402832e-02
3.770837740203605293e-01,4.047940393355910493e-01,3.795329288099460463e-01,-2.084265531998197307e-02,-1.787578611057240655e-02,-1.206004152807559418e-02,5.834555998444557190e-02
3.898771125412350269e-01,3.650790464443947059e-01,4.598280421986247757e-01,-4.932765031914392723e-02,-2.310246369784388354e-02,-3.124075432522426671e-02,1.380996108055114746e-01
3.719714293476258926e-01,3.110471378878779114e-01,3.655398767324913312e-01,-4.640277392678442137e-02,-3.792704723016401130e-02,-4.483102949428541262e-02,1.420063227415084839e-01
4.415533559645387074e-01,4.228151305149578376e-01,4.413523475073211078e-01,-5.038769515160347601e-02,-3.397667928020735306e-02,-6.207676165841107679e-02,1.516178399324417114e-01
3.760192433321978833e-01,3.199385242118241712e-01,3.861712837879203719e-01,-4.985716870593629585e-02,-3.585098058505694490e-02,-4.930748638018827429e-02,1.497471928596496582e-01
3.948111501634282150e-01,4.374495211133960226e-01,4.330898165252759502e-01,-2.826290994203967469e-02,-1.846654356854611490e-02,-2.946670231796607101e-02,8.760949224233627319e-02
4.065589146675367971e-01,4.895985726102140001e-01,4.190812562061050905e-01,5.696078049175642977e-03,1.026385832342829180e-02,-3.191164495994027909e-05,8.016184717416763306e-02
3.870270816647114476e-01,4.750692442404360616e-01,4.032850958050651635e-01,6.167412834567862238e-04,6.024233097285960903e-03,-2.538314473845537092e-04,8.182030916213989258e-02
4.230428602511271396e-01,5.098782705445905616e-01,4.253550650087942753e-01,-3.579169767702400015e-03,2.182170872215483115e-02,4.670692369624086489e-04,9.387545287609100342e-02
4.470510423652713228e-01,5.269982429681879799e-01,4.149899297158179956e-01,4.489062210161949736e-03,3.235016570391045787e-02,-7.883567539445702696e-03,1.156251356005668640e-01
3.401275905387302623e-01,4.635331517114655853e-01,3.880448858960251490e-01,2.426150372833232784e-03,1.571057276975024175e-02,4.295655153338787634e-03,1.114684790372848511e-01
3.241616779290822370e-01,4.323326800122102576e-01,3.193267507100145397e-01,-5.068699565624752192e-03,4.562653656062286289e-02,3.138151546986022930e-03,1.363792568445205688e-01
5.334488482037368362e-01,5.985110944705975822e-01,3.097849034903490395e-01,3.264602819178482468e-02,8.710781486039069488e-02,5.466948027447553898e-03,3.079951405525207520e-01
4.098380968557444048e-01,4.641549234599678941e-01,1.367376903162995094e-01,1.839351999364127396e-02,7.755292189076036513e-02,-3.286889368911175696e-02,3.386259377002716064e-01
4.206527792474981098e-01,4.385685000937757372e-01,3.932257354476117461e-01,1.331514375337434358e-02,-7.457359652620281810e-03,3.919478681294318381e-03,4.805615171790122986e-02
4.794105869502124362e-01,3.736410350638739719e-01,4.762836023382888140e-01,1.395885283953156135e-02,-1.501284013504772252e-02,1.344703667114763648e-02,1.125584691762924194e-01
6.794674590906359946e-01,6.847282502976790308e-01,4.171718958671765121e-01,1.109230989015155648e-02,8.660323051714856335e-02,-6.958279594430566428e-02,3.280263543128967285e-01
5.648298394143066448e-01,7.437752872120345637e-01,1.392124484384617555e-01,2.406755713135823663e-02,4.698958130944935752e-02,-2.357100652465783999e-02,5.471403002738952637e-01
4.189267570464937362e-01,4.774639828367902572e-01,1.466046447865316238e-01,2.279321317464198457e-02,7.505924185525286729e-02,-4.072894077285489633e-02,3.419995903968811035e-01
5.424048971545449849e-01,5.419666895824326591e-01,3.227348294788173755e-01,3.885065196854789460e-03,5.834489542666494027e-02,-3.717258366245525941e-02,2.501238286495208740e-01
6.924674714950608267e-01,7.173815251915749425e-01,3.856556792064691486e-01,-3.147981076545021406e-03,3.988714956764485842e-02,-2.472905777410745048e-02,3.302050530910491943e-01
4.969204910798357688e-01,5.602480788246296806e-01,1.885199686236957162e-01,1.171998217667702272e-03,1.527527374651925854e-02,3.199228420290084994e-03,3.455232977867126465e-01
5.383463121394794770e-01,6.233435024328775054e-01,2.457102200386167834e-01,-1.113905492589690148e-02,1.812052839922471612e-02,-3.130597523414010985e-02,3.493295609951019287e-01
2.495427703080703719e-01,4.372800302140187889e-01,3.527505206893223333e-01,-4.208037820553894165e-02,8.025164365706914660e-02,2.531372959709175113e-02,2.303839921951293945e-01
4.849848438702394349e-01,5.717056649544213220e-01,4.635251422383497300e-01,-2.159776597343248533e-02,5.676793590105398690e-02,1.393537834003636365e-02,1.466007977724075317e-01
4.717987729210181835e-01,5.058943772407183959e-01,3.637590397184015112e-01,-4.577229244050300822e-02,1.261417273643436476e-01,1.151460294805253630e-02,2.663401067256927490e-01
4.399304911461326961e-01,4.871267294137868742e-01,4.629344827848616561e-01,-2.003684383841558558e-02,2.979772518245588434e-02,1.904620405354488441e-02,8.140871673822402954e-02
5.237872971443944259e-01,4.618764325425362971e-01,4.661674268237763208e-01,-3.715465113415630793e-02,3.349701644513310844e-02,5.123506805341823678e-02,1.377256661653518677e-01
3.992650217982863792e-01,4.821070970083017881e-01,4.626390333614388561e-01,-2.433299067717876671e-02,3.162691107855394868e-02,2.351071451003573787e-02,1.098379194736480713e-01
5.645842075671938520e-01,4.933212046683080887e-01,4.918286109973492581e-01,2.521917377319682699e-02,-2.547302621914442761e-02,6.124689422269403299e-02,1.424612253904342651e-01
4.094171418201816293e-01,4.238315672712490989e-01,3.572202972558705669e-01,6.216118345505911025e-02,-6.612345991162424386e-02,7.039169416543056279e-02,2.079870700836181641e-01
4.563917546930471580e-01,4.663538934178658724e-01,3.646717236538896123e-01,1.898574459688420410e-02,-3.534831242273744900e-02,3.531118478867400351e-02,1.341494023799896240e-01
6.029513805036548213e-01,5.697321020185935891e-01,4.053035924473541440e-01,4.109972179018616528e-02,-9.450502759434817324e-02,9.409812892374481985e-02,3.033595085144042969e-01
5.209341716759910978e-01,5.485644285899617945e-01,3.422694556242092401e-01,6.175142707190429264e-03,-2.886955939943679911e-02,2.373108180962179778e-02,2.047567069530487061e-01
4.779201349372546037e-01,4.733109753444147971e-01,2.844584635432675923e-01,1.267960788846763699e-02,-2.895590307987425116e-02,3.876464351124918328e-02,2.099111974239349365e-01
4.674471870765128934e-01,5.348892526637072375e-01,3.608276678942232696e-01,4.896267194324408628e-02,-9.581730033271503022e-02,8.249612483144817821e-02,2.797472476959228516e-01
4.801789384971081320e-01,3.952722830486188887e-01,4.414894526540158459e-01,-3.252763490605724978e-02,4.021293737402461405e-02,5.781438545954578623e-02,1.532119810581207275e-01
4.007887945134867569e-01,5.635960756680828965e-01,4.729056965773860699e-01,-2.703302102375901468e-03,6.328793823083528336e-02,5.138808807637669333e-03,1.791176646947860718e-01
4.103717776530487749e-01,5.326702519690218463e-01,4.451051070981724145e-01,-3.009322991869706632e-03,3.385792002816308266e-02,1.585715477532865722e-02,1.270278692245483398e-01
4.097839688493413735e-01,5.191313356057907225e-01,4.463124308841852073e-01,-7.890876262021754781e-03,3.752498446279816519e-02,1.074740384628264898e-02,1.185519918799400330e-01
5.086531386640315011e-01,5.357108458277111129e-01,3.970162022973983129e-01,3.022705709549739286e-02,5.633347249432744952e-02,-7.543232321922401472e-03,1.692562252283096313e-01
4.238812902980789721e-01,4.591374871316027950e-01,3.881398698723723117e-01,2.077592850924101300e-02,2.395725062085496751e-02,-2.429674553617486299e-02,9.256520867347717285e-02
4.030290309903537538e-01,4.299256882065446428e-01,4.129505491090988412e-01,4.502162382825007636e-02,5.619786909296343308e-02,-2.463157186650073022e-02,1.339051723480224609e-01
4.252712373016476199e-01,4.443463823097313914e-01,4.261079251813912339e-01,1.010362023403581742e-02,1.685784746136539947e-02,-1.950166418151281014e-02,5.146218463778495789e-02
4.691606653045269915e-01,4.428577570883245329e-01,4.001423887233489518e-01,1.659374542002745034e-02,2.610080412297239444e-02,-2.431775442363502335e-02,9.101569652557373047e-02
4.930122755787930133e-01,7.872410936528007053e-01,9.443323833855077343e-01,1.716606822086756134e-01,-6.618113050795369767e-02,2.410078885156449746e-02,5.106403827667236328e-01
5.227988609084561755e-01,4.183939001862043150e-01,5.100692207847751236e-01,-1.485820100518799904e-02,2.547335453890425469e-02,4.483557057556056269e-02,1.355472654104232788e-01
3.674780926671458170e-01,3.322806581715361807e-01,4.222309816167197360e-01,4.315825593643159153e-02,3.205898120631950343e-02,-2.464722441046655541e-02,1.290643066167831421e-01
4.081493172171212214e-01,4.216981518965399744e-01,4.386541185478751159e-01,2.066107031833850846e-02,2.050659096202134962e-02,-1.345072324179086461e-02,6.152865663170814514e-02
3.647823993781343366e-01,3.535806783505582862e-01,4.313757874113337554e-01,3.634288822733667407e-02,2.701395490288987372e-02,-3.510223053999250720e-02,1.231027841567993164e-01
3.671529129408261927e-01,3.744197067387211031e-01,4.167313467627924983e-01,4.043200944985624740e-02,2.230967434882477965e-02,-2.608711642728982205e-02,1.029056385159492493e-01
4.843030837773210640e-01,5.623032828074950862e-01,4.735273426196030533e-01,2.707328238744286311e-02,7.048393986381037979e-02,-4.357414569448879449e-02,1.727414876222610474e-01
3.900179824517912563e-01,4.269378973989083614e-01,4.183429332563260994e-01,1.114075167779470486e-02,1.573932164949617615e-02,-1.927785931725204890e-02,5.787973478436470032e-02
4.391759700091002472e-01,4.575140275533802203e-01,5.131292772416332637e-01,4.962659976315613591e-02,3.484630112689529602e-02,-1.359588652169976299e-02,1.266291886568069458e-01
3.736348258936924016e-01,3.911497976775009100e-01,4.133853124536038814e-01,1.404939551052042553e-02,1.419986563948401510e-02,-1.847539333834554570e-02,5.841003730893135071e-02
4.813122516067617762e-01,5.153550264157656935e-01,5.666385924283413589e-01,5.340902071235049259e-02,2.613929790298160846e-02,-2.714136583173079251e-02,1.354698091745376587e-01
4.835334141925228812e-01,3.153080722430665062e-01,4.271668411878666305e-01,6.897541708890959911e-03,-3.643062024658440517e-03,-5.390730938609807760e-02,1.757703274488449097e-01
3.031550305648184063e-01,1.822016305750269738e-01,3.055384524224893372e-01,8.816607708988527525e-02,6.698213821950529945e-02,-8.255897658481831103e-02,2.686098217964172363e-01
3.493744340177271646e-01,1.796899531811685380e-01,1.675052143421646433e-01,-5.268393717168554091e-02,-5.198985054673514739e-02,-1.371247529763263973e-01,3.222639858722686768e-01
3.818181365291535845e-01,2.565060713929920300e-01,2.106070997784011967e-01,-7.831928469056326225e-02,-5.428206754315238747e-02,-1.305828855483258943e-01,3.193095028400421143e-01
4.489318150604116875e-01,3.549896550536251749e-01,4.437975008458663884e-01,-1.814443579934898326e-02,2.754543766994227080e-02,1.949778918684354906e-02,1.130202114582061768e-01
4.814921783551480150e-01,3.301731712124009732e-01,3.734460428702504053e-01,2.940975493371068145e-03,-1.177081723478393127e-02,-5.659495557217698175e-02,1.681444197893142700e-01
4.490544180096233129e-01,3.584653554491669669e-01,3.003273567328428872e-01,-1.787208444189329615e-02,-1.408181815529432022e-02,-5.740407113429453478e-02,1.682019084692001343e-01
6.051569623582473412e-01,6.518323045342218069e-01,4.684337518077935636e-01,5.115983377151718525e-02,1.138430393073380925e-01,-7.346272380004885416e-02,3.002939224243164062e-01
4.251256970148400427e-01,4.820701956949345890e-01,4.037771371649577778e-01,-2.384673395417500480e-02,-6.685498422700565657e-02,-2.767009313413539701e-02,1.494181752204895020e-01
5.847879295271203315e-01,5.790229122105906567e-01,4.971778957428988899e-01,-6.067073952075291432e-02,-8.945739485147007064e-02,-5.986898311194113753e-02,2.302330583333969116e-01
5.546183860854111414e-01,6.161533291304834847e-01,4.620446142420771007e-01,-1.431241902122033956e-02,-4.722109340794156118e-02,-2.334763613189865666e-02,1.642934679985046387e-01
4.273117660505303950e-01,4.457964702360918685e-01,4.661688426144335318e-01,-3.808041302710855371e-03,-3.284616595438888051e-03,-7.815462677596148044e-03,3.731499984860420227e-02
4.185870974508335562e-01,5.154995928730107257e-01,2.737675934622786911e-01,-6.737245641031458510e-02,-9.470030878653708240e-02,-4.169322145711854000e-02,3.002267479896545410e-01
4.170188672073358860e-01,4.609212137818725075e-01,2.723057758194697420e-01,-2.778396980080538245e-02,-8.103670073824920106e-02,-3.866954304516459495e-02,2.360619157552719116e-01
1.849378082672438195e-01,3.047613501855704898e-01,3.869642339739315373e-01,-1.095335663353246697e-01,5.950398634962482391e-02,4.160133659327981681e-02,2.877009510993957520e-01
3.663930259441842141e-01,4.417166936328295601e-01,5.637289933302316314e-01,-8.214465147787819443e-02,9.391179315431918972e-02,5.164157178381574564e-02,2.906081974506378174e-01
5.622610333634192603e-01,6.080383158677383770e-01,6.073509399781871210e-01,-8.402401127592266927e-02,1.022942437726776371e-01,7.750271214050567792e-02,2.695496678352355957e-01
4.406032376344591883e-01,5.227221773625293499e-01,5.292096783578543739e-01,-5.116146622211708433e-02,2.675445696780759733e-02,2.154088046970194931e-02,1.367855072021484375e-01
4.513049111764145249e-01,4.224577764064479934e-01,5.130820230931250059e-01,-8.287065389087829026e-02,1.099367155047435984e-01,7.926364211838893281e-02,2.866002619266510010e-01
2.968446700235243818e-01,4.082699703551032622e-01,4.005283850030316728e-01,-4.222487968069397329e-02,4.707768815514742911e-02,3.793098465999261704e-02,1.671135723590850830e-01
4.019777236956882938e-01,4.767485646767844476e-01,4.758987104405690283e-01,-5.087489909710488784e-02,3.101310888519851969e-02,3.960986115851476697e-02,1.445160359144210815e-01
4.341303020042945882e-01,4.422962450627874187e-01,4.363304006359123299e-01,-7.851205514576005060e-03,5.475475956814763318e-03,6.458203967156401874e-03,2.129669301211833954e-02
4.018448403067207964e-01,4.480357467719070508e-01,4.395086153909397719e-01,-3.730769325903214237e-03,7.455485724590552032e-03,1.306342180575727034e-02,5.032796040177345276e-02
4.673945252636523273e-01,3.966456276266422942e-01,3.883903336618282354e-01,-4.057144776663454411e-03,-3.419126383012271835e-03,-8.172295421962358711e-03,7.708710432052612305e-02
4.129263409830919995e-01,4.397963387348914899e-01,4.206059523965519631e-01,-1.038868934316203307e-02,9.149008578784707801e-03,7.774334588395095599e-03,3.648054972290992737e-02
3.906197403351091002e-01,4.203417352252332706e-01,4.248692284784719719e-01,-6.242680921607652623e-03,7.905794326916220499e-03,1.343703524197010536e-02,4.341129958629608154e-02
4.867319580812098923e-01,3.104358328314597570e-01,5.343290511133517162e-01,-7.534483880733867933e-02,-9.143371039819743820e-03,1.300741118001674801e-02,2.439793199300765991e-01
5.678407992771015156e-01,4.543558823073095554e-01,7.030723180794593574e-01,-1.479678029308865717e-01,2.391351089236617294e-02,4.321776348356988484e-02,3.457100391387939453e-01
5.570222177153337784e-01,4.406176471781566018e-01,4.823828125699624603e-01,-1.795922506858976114e-02,3.652827564516797354e-02,5.985749718726578877e-02,1.617158055305480957e-01
4.229956504634969083e-01,2.741064521978578417e-01,4.955265229931080095e-01,-1.148622008908954384e-01,3.936769463977252137e-02,4.439219061964460450e-02,2.972695827484130859e-01
4.901327445276522088e-01,2.852517764530220767e-01,5.043003263286333082e-01,-5.396664929212526690e-02,-1.595648207892576493e-03,-3.701477346344303471e-05,2.320009469985961914e-01
4.127173449298988661e-01,4.144764861716536686e-01,4.422392254517156229e-01,8.383125356253859697e-03,-1.110223478793337729e-02,1.156018668263806073e-02,4.247618094086647034e-02
5.281104069002507950e-01,5.458661070576986685e-01,2.350012007874724695e-01,-7.769154074587519658e-03,1.245845378842503626e-01,-6.081486450523416326e-02,3.863586187362670898e-01
3.912949126375108722e-01,4.071751463576201435e-01,4.315802420681938423e-01,2.423968600498212222e-02,-2.659110229791281782e-02,2.723675999293237796e-02,8.570192009210586548e-02
3.580216490078852454e-01,4.261807108478259387e-01,3.869320334376409876e-01,5.866180328519715603e-02,-6.960889547341554684e-02,5.570293372732046389e-02,1.941113919019699097e-01
4.368526747988193404e-01,4.265419799267509138e-01,4.658359941127457882e-01,6.154563045268088284e-02,-6.081597255992422096e-02,5.988451719874827300e-02,1.856420934200286865e-01
4.267778894317371674e-01,4.460028150218447451e-01,4.469949087408362498e-01,8.240619800565470929e-03,-1.178738998175689681e-02,9.947172978878645461e-03,3.615307435393333435e-02
5.201482767701219867e-01,3.887747850419008833e-01,4.652103223748070837e-01,-2.192635067167430368e-02,3.355153357240394513e-02,4.829677159280109516e-02,1.577242165803909302e-01
5.400019759175080925e-01,4.353773213074266235e-01,2.980128187387050542e-01,-1.988254108385039895e-02,-1.799749397149009653e-02,1.158816907387247019e-01,2.943304479122161865e-01
6.598013989608148000e-01,6.002497573805936071e-01,4.247074518009522071e-01,1.376235951537176788e-02,-1.058678590733031118e-02,1.105384395092192107e-01,2.870122194290161133e-01
4.446247423860316128e-01,3.467123158343146661e-01,2.990638802443762456e-01,-3.352120093232352493e-03,1.034741095324299715e-03,5.323498595447868909e-02,1.583079397678375244e-01
6.004147687670131628e-01,4.882572035382453102e-01,4.804348882614533078e-01,-6.198830623711082573e-03,-3.977292042240506559e-03,6.674986358588989865e-02,1.644603461027145386e-01
5.174306436190060365e-01,3.044657765668065119e-01,3.215131504492194092e-01,2.583708331164676075e-02,1.749430513552527669e-02,1.406967971722282162e-01,3.229887485504150391e-01
4.669482278426498878e-01,3.494989015046233716e-01,2.909088267047059695e-01,-1.377316454720869596e-02,2.477001315564360262e-02,1.015436278971270090e-01,2.396906167268753052e-01
5.772591322106975786e-01,5.066107802304971042e-01,3.980696626113319203e-01,2.139746418987760815e-02,3.431321765108977934e-02,1.018484279071148191e-01,2.458976805210113525e-01
4.265323950788286744e-01,4.232530448908229936e-01,4.555558857431988296e-01,-5.522444200466776476e-02,4.822013115019996299e-02,4.314842918433185043e-02,1.505271345376968384e-01
5.283669257176253353e-01,4.869299976692377796e-01,5.346757959598631427e-01,-7.221890274626911743e-02,7.611725270965821744e-02,6.004426965228767260e-02,2.141550928354263306e-01
4.915041366990707261e-01,4.957810974398845216e-01,4.927291013391263408e-01,-7.311966888631767081e-02,1.108161676007140689e-01,8.915294580745802833e-02,2.770188152790069580e-01
3.862986620922780889e-01,4.807268536100350875e-01,4.041340217710592819e-01,-4.172981469194555343e-02,4.545956794416283753e-02,3.150648577094743857e-02,1.481635868549346924e-01
4.704913663612770303e-01,4.444550648166397111e-01,4.804037749322535023e-01,-5.324524222371154053e-02,7.092595517144882622e-02,1.072753166273993919e-01,2.432176917791366577e-01
4.076120357592176169e-01,4.295276280050965845e-01,4.267274657376742275e-01,-1.507001169014129428e-02,1.387927590985369407e-02,1.699803219021601627e-02,5.052509158849716187e-02
5.613920992016259159e-01,5.245167936257363328e-01,4.558065782074204320e-01,3.913216129411653532e-02,5.220479514488553241e-02,-5.716610884345228044e-02,1.766026169061660767e-01
4.343169801160667309e-01,4.342888274005850535e-01,3.323326878026245934e-01,4.553520838011040905e-02,-4.318014777720063230e-02,4.351777257104803842e-02,1.670127362012863159e-01
3.485274461137700674e-01,4.321326040966384507e-01,4.773465887764433147e-01,-4.307772171896409596e-02,3.768694092086985470e-02,2.413233047328798217e-02,1.561708748340606689e-01
4.405171602369963857e-01,4.004635533498991928e-01,4.641269101307487488e-01,2.728290302450493005e-02,1.543742066384700719e-02,-1.340579793817656476e-02,8.120668679475784302e-02
3.037776873475689365e-01,4.039497554172322147e-01,4.488229864788531587e-01,-4.498990588150211106e-02,3.068551664108781774e-02,2.517030166730105725e-02,1.653505563735961914e-01
4.246604284266138896e-01,4.423422869547993797e-01,5.603192246382536768e-01,-7.767191984450164122e-02,2.058886130898479258e-02,1.217429067231464920e-02,1.900852024555206299e-01
2.891061150841859329e-01,3.628926653344895503e-01,4.441908150606782568e-01,-5.098388208266734639e-02,3.035188157078997240e-03,3.166121798311724491e-03,1.609606593847274780e-01
4.663684383025747948e-01,4.350401164783415098e-01,5.341390461275951074e-01,-2.809237688440499592e-02,-8.928059899559626783e-03,-4.232314810095051845e-03,1.017736271023750305e-01
4.266309488016391538e-01,4.453603288000542171e-01,5.157681492323031858e-01,-6.811327715065587651e-02,1.738097074215814303e-02,6.521551142717889153e-03,1.468975394964218140e-01
3.887268412251488892e-01,4.528002379020237833e-01,4.919314208935443022e-01,-2.757442417865874421e-02,1.487501599076991761e-02,6.657036590867909144e-03,1.059325784444808960e-01
3.736040196109904898e-01,4.177776244164487784e-01,4.932875995794914203e-01,-2.496519340330405692e-02,1.504191834885225225e-02,-1.341850611000503348e-03,1.163725629448890686e-01
2.645891484049034403e-01,3.865479884708445391e-01,3.277787691006261439e-01,6.466403058516276281e-02,-1.132410049146945902e-01,6.175160754306847910e-02,2.713208794593811035e-01
3.999699299234192873e-01,5.346257676430932193e-01,4.503776394593036470e-01,3.778763118716154182e-03,-4.349969203303732934e-02,8.071437598598787608e-03,1.407138556241989136e-01
3.973872705102981517e-01,3.936927176241020732e-01,-9.111400999807195422e-02,5.072105361060791871e-03,1.175965580947234135e-01,-1.257479002018969394e-01,5.708274841308593750e-01
4.032172090096016737e-01,4.938730128044727108e-01,4.201650099652539661e-01,8.801151430258925823e-03,-5.038767919037048792e-02,2.526084177358402932e-02,1.293551325798034668e-01
3.201884496988255391e-01,4.523492288830024410e-01,5.482269729203985698e-01,-7.939868752859922940e-02,1.243259981380448291e-02,-3.605113961720238670e-03,2.423745989799499512e-01
3.686828852358366992e-01,4.734590575292827452e-01,5.351008254410445364e-01,-5.025997130584658468e-02,-3.882892446500355119e-03,1.027150539183541676e-02,1.708106547594070435e-01
4.367362848880024795e-01,4.445607416963603953e-01,5.232644472355880705e-01,-3.474514778093507061e-02,8.256138940136076299e-03,8.659899388337482379e-03,1.045105680823326111e-01
2.595987314319673778e-01,2.734466993477689400e-01,3.461296170676510520e-01,-9.456177898303327889e-02,6.064728601877811959e-02,5.978828570328565545e-02,2.346594780683517456e-01
5.229378472413004353e-01,5.283504721729544995e-01,6.292648536233921286e-01,-5.871666585772534336e-02,-3.543636883624393889e-03,6.177579375089416549e-05,1.453954726457595825e-01
3.959038819999077252e-01,4.923831591590435708e-01,5.705662740741371808e-01,-4.461884290723830415e-02,-4.998423346300039961e-03,4.481139523178079287e-03,1.705040186643600464e-01
3.500314757848927427e-01,4.598703422197519819e-01,4.084118824595605046e-01,-2.233496503084710788e-03,-1.986501876745340803e-02,1.153854435910523814e-02,1.032407209277153015e-01
2.669340994934846778e-01,4.008987135147744629e-01,3.325966197147198766e-01,3.373680355075846932e-02,-4.714042593630032862e-02,1.916061145060313914e-02,1.569846868515014648e-01
3.897687874772362560e-01,4.950883959641833032e-01,4.386576568106194673e-01,4.806682618039034502e-03,-3.903841416542880999e-02,6.848259671343551701e-03,1.145224273204803467e-01
4.036652669132073101e-01,4.946214854867535538e-01,4.122188631285629290e-01,5.137207115186667467e-04,-1.751262656595780134e-02,-9.559074354967561507e-04,9.215098619461059570e-02
3.481382425965114380e-01,4.933213187649195253e-01,4.086868864476331242e-01,1.284112223098074837e-02,-3.774512329585494319e-02,3.288577589036314943e-03,1.440653949975967407e-01
4.140718487994308750e-01,4.929386413657362853e-01,4.190284581161013988e-01,1.650538759774270413e-03,-3.016066779857401719e-03,-9.752407689528705013e-04,7.675899565219879150e-02
4.541411308985398021e-01,4.959620511352991756e-01,4.616708745416339688e-01,1.145206475915961329e-02,2.261603653948705481e-02,-1.530073064618431115e-02,6.419523060321807861e-02
4.680329773779272062e-01,5.283130669742641672e-01,3.372408719494577878e-01,2.245927935593937039e-02,4.442853523501077984e-02,-3.247214758999127787e-02,1.980471909046173096e-01
4.093103007737572963e-01,4.784147825203496351e-01,3.644114338228342520e-01,1.042621547499894379e-02,1.579952241934293525e-02,-1.135007405495171671e-02,1.065622642636299133e-01
3.816081176870548264e-01,4.881654651354121466e-01,3.835156612719851088e-01,8.254251906838792202e-03,2.369927902688831120e-02,-7.302085960051983918e-03,1.149094030261039734e-01
3.686247655210557750e-01,4.480783980979183845e-01,3.639954678864790738e-01,1.180296235366050557e-02,2.481311305448246837e-02,-8.455768163886358268e-03,9.582079946994781494e-02
4.281492965774871817e-01,5.274018834659512933e-01,4.494922046855444053e-01,7.557053493108844763e-03,2.959613272853213115e-02,-8.167163971412202267e-03,1.057709082961082458e-01
2.316506876646613478e-01,3.846850077954325209e-01,1.333034326245107204e-01,2.858576402379913936e-02,-1.557452520478520563e-01,4.326748061571523973e-02,3.591372966766357422e-01
3.273333751539950209e-01,4.278951603580921081e-01,2.706925778839696650e-01,-7.147705528937154350e-03,-6.872955270399554173e-02,-3.791453743595997027e-03,1.827139854431152344e-01
4.821660795318573611e-01,5.230170315478519516e-01,2.996840238225236819e-01,9.769160734685960329e-03,-7.940824755563961890e-02,1.748434197930066186e-02,2.500869631767272949e-01
4.982868496019732252e-01,5.520565655782592174e-01,2.997120084439213183e-01,5.072901277007439008e-02,-1.037978303275280956e-01,-7.844294343540742648e-03,3.053314983844757080e-01
3.900260901986517537e-01,4.896117913263468013e-01,3.394943758769160547e-01,1.568371476446298041e-02,-5.583257161236911126e-02,1.555892191621743512e-02,1.682825237512588501e-01
3.749881161703676469e-01,2.468745540523992754e-01,3.549162938811715184e-01,-7.419818347331548491e-02,4.784793654622956222e-02,8.711058608501680289e-02,2.457511723041534424e-01
4.385191859209474630e-01,2.815323495736210546e-01,3.990162013957271325e-01,-6.476221551015504119e-02,4.423787222102677080e-02,8.795522179011826258e-02,2.483257353305816650e-01
5.489387097835524143e-01,3.411963562702611252e-01,5.877560945939963588e-01,-1.731967384557411838e-02,6.888780599536552945e-03,5.725028190528923255e-02,2.521958649158477783e-01
5.158758574386266282e-01,2.825440450762883304e-01,4.846633047054789700e-01,-2.550316227122694304e-02,4.362323851547886440e-03,3.498763460008844084e-02,2.319823354482650757e-01
5.951647181937816944e-01,3.326069357238858881e-01,5.952448311504204836e-01,-4.781097908240432293e-02,3.767611422184076464e-02,6.666926763105887610e-02,3.056274652481079102e-01
5.578520619393784186e-01,2.584832268050115123e-01,4.926171501474638781e-01,-4.127156691619270762e-02,4.741171992890776121e-02,4.873833862101131786e-02,3.054961860179901123e-01
5.317873680677048798e-01,4.167806962963259143e-01,4.526853332981096711e-01,5.322809123054507083e-03,-3.635724199825083897e-03,-3.073293438530231084e-02,1.155188158154487610e-01
4.889954324793175378e-01,4.438230323815811063e-01,3.589762356050189007e-01,3.233587455050836862e-02,1.198640335560753958e-02,-5.484968171780588153e-02,1.602047681808471680e-01
5.091275438939109055e-01,3.137641135964011063e-01,4.178316151765165687e-01,4.086807469488613377e-03,-5.102975861628148216e-03,-1.067601857972411139e-01,2.509728372097015381e-01
4.917902828836375750e-01,4.320381920954130539e-01,4.568167096939529936e-01,2.751764200501467805e-02,2.521798233843174433e-02,-4.999957227555879014e-02,1.199295297265052795e-01
5.817792470323710496e-01,4.978898641303926009e-01,4.926639297382943705e-01,3.104921225765077883e-02,3.862052587196685566e-02,-6.037284137537122369e-02,1.606380194425582886e-01
5.583036148710569524e-01,4.470630866398160874e-01,3.713710257339468690e-01,6.440155103938438597e-02,7.377164341797960712e-02,-1.545113642754417094e-01,3.562506139278411865e-01
5.004528139254189600e-01,4.490750205215655044e-01,4.126594716107074845e-01,8.247170605801453988e-03,7.210447016238518379e-03,-2.482249754289051272e-02,8.969508856534957886e-02
4.216557487911192781e-01,4.949410234582214407e-01,4.139060297070785155e-01,4.295107826286079754e-03,2.630405092289522101e-03,-7.501669863647270108e-04,7.795202732086181641e-02
4.874637863555289496e-01,3.802013472545623940e-01,3.858770556288300124e-01,-8.050309661565890678e-04,7.793387295985591649e-03,-2.895745625219644029e-02,1.167407929897308350e-01
5.829549278737016227e-01,4.416206202723375607e-01,6.319072744745154457e-01,9.338041303709172791e-02,4.474418554723324365e-02,-8.670555627448890690e-02,2.898443639278411865e-01
6.114188068645829421e-01,4.748060644262602770e-01,6.463948042195795107e-01,9.622098118218254392e-02,3.103474127854900094e-02,-5.879090814808535237e-02,2.563172578811645508e-01
4.662346002436589809e-01,4.753857314058524963e-01,4.763668572858723027e-01,3.864990956745007616e-02,2.736246204710068505e-02,-3.309337262486160280e-02,1.005323678255081177e-01
5.064481510238076911e-01,4.146529662934140825e-01,5.371810540216916952e-01,4.526972633096968540e-02,3.553650402399734232e-02,-3.708242969985640208e-02,1.620305329561233521e-01
5.047772728871580128e-01,3.903811569406594462e-01,5.464617032244752926e-01,4.456484411124119610e-02,2.677699649509321378e-02,-2.333712614881744418e-02,1.712762713432312012e-01
4.617437652882975807e-01,3.525714748660106479e-01,4.895251597068263072e-01,4.607660457189154124e-02,1.508092464467746495e-02,-2.317413794972873753e-02,1.561599820852279663e-01
4.470166900451109093e-01,3.048770968765800449e-01,5.048963770487964187e-01,5.803161313625507939e-02,2.839284564209258385e-02,-3.787143309184585332e-02,2.204652279615402222e-01
4.502332037257123498e-01,2.514174512414629747e-01,4.633060097706858116e-01,6.302643760288348385e-02,2.699267305710437853e-02,-5.824253519877777008e-02,2.580253183841705322e-01
5.527954678620847773e-01,4.008301282775617591e-01,5.479039407121780725e-01,3.670437760254949278e-02,2.499138870661394424e-02,-3.366266327833111055e-02,1.780138015747070312e-01
4.296344197520267083e-01,4.386879884393483087e-01,4.110522952449688905e-01,9.892228910040710629e-03,4.038813339572346409e-03,-5.697540532443376785e-03,3.217743709683418274e-02
4.271853402020007184e-01,4.244988701860670788e-01,4.203545582404396574e-01,9.545161783079483125e-03,7.542107113164133597e-03,-8.225871545870889340e-03,2.612472698092460632e-02
4.429369656888469953e-01,4.424197524263262515e-01,4.172360396566661689e-01,1.837004277655464660e-02,1.289846115543083482e-02,-1.334960053851963827e-02,5.190023034811019897e-02
4.385270760071354190e-01,4.204506926077325457e-01,4.338446689704449355e-01,5.883094506999570969e-03,1.193427587187825649e-02,-7.112037203308832316e-03,3.077167645096778870e-02
4.497918635856789082e-01,4.488274775434496489e-01,4.091058146233397252e-01,1.772840392697690517e-02,8.615151734377114387e-03,-1.152997789480746278e-02,5.640408024191856384e-02
5.434407044162914424e-01,4.659788088575704257e-01,4.887166120661102786e-01,3.860854832031512113e-02,4.072039866660615709e-02,-8.985388861915044600e-02,1.960191726684570312e-01
4.281641170247224570e-01,4.595234175309561575e-01,4.458537584159488198e-01,1.021874000278421950e-02,-1.640196522058530101e-02,1.134763591826407243e-02,4.741563275456428528e-02
4.165381177788391454e-01,4.760620639951907984e-01,4.242589772095565759e-01,4.323795527208998749e-03,-6.975891706512616329e-03,1.208974984895148236e-02,6.151176244020462036e-02
3.611111531856501244e-01,4.328267779787791092e-01,4.049689989655834155e-01,1.207130064692384964e-02,-1.250380895835351107e-02,1.619108291000008470e-02,7.492654025554656982e-02
4.098814544060424003e-01,4.358238285285139235e-01,4.069651693118111480e-01,4.315079170791247774e-03,-4.670969613615295370e-03,1.134911395003230898e-02,3.556525707244873047e-02
3.843211072355456892e-01,4.304669492379120110e-01,4.154369021958535524e-01,6.968542026020443057e-03,-1.058101992192683402e-02,1.263240151188393078e-02,5.120600759983062744e-02
5.108610289564337048e-01,5.287929776866456821e-01,4.257115864563210672e-01,-2.337331774426995926e-02,5.967455598076472356e-02,3.164465282087459974e-02,1.562853902578353882e-01
4.630150301830562309e-01,4.890558209003424417e-01,2.876459397141718499e-01,-1.356191042534366821e-02,5.899524848186576964e-02,1.343254058754284920e-02,2.180219739675521851e-01
5.488494256117104619e-01,4.926712461700422097e-01,2.745618167308032098e-01,-6.290199201633150938e-02,4.602257276710137318e-02,8.229888412919478258e-02,3.186286687850952148e-01
6.370232766087666754e-01,6.107203539025705119e-01,3.695170808934403750e-01,-3.166709479718438774e-02,5.468290340394967725e-02,9.583553718079899919e-02,3.236474096775054932e-01
4.804213480478675136e-01,4.418824624588635341e-01,2.600772413325682653e-01,-2.759839377446224318e-02,3.801997077570305750e-02,8.145631783264466186e-02,2.609059512615203857e-01
4.451741985344995212e-01,5.044807022358110959e-01,5.332387714523814104e-01,3.746769141995474894e-02,2.136435923831421155e-02,-1.496671552122245258e-02,1.109172105789184570e-01
4.334548595862399711e-01,4.504801956051758816e-01,5.248133520394320239e-01,-6.746238323646723545e-02,-1.506614060847620042e-02,-5.949692559271515732e-03,1.467021107673645020e-01
2.561645060778967586e-01,-3.706323841072717284e-02,4.135882427161761132e-01,-2.114630286336240395e-01,-2.584428920341689390e-02,-2.945085183280836752e-03,5.413920879364013672e-01
-2.268843459522426609e-01,-1.483620741018907840e-01,2.342105636356349163e-01,-3.469226849822669712e-01,-3.664618491608428140e-03,-2.257010308460906389e-02,7.383783459663391113e-01
2.681469106117939649e-01,5.269987339698819495e-01,6.134574054854486924e-01,-2.105439695517881127e-01,8.474393585942399665e-02,-9.537519027348362322e-02,5.279010534286499023e-01
4.981044522467976687e-01,2.168800304195641904e-01,5.181203964580940458e-01,-2.831625304345735672e-01,-5.898226088046067128e-02,1.005540658361387188e-02,5.799999237060546875e-01
4.920653658030900157e-01,4.224893615447806727e-01,5.670062564321787235e-01,-1.343037862045053377e-01,2.036722493424337338e-03,2.277045472158012451e-02,2.671169936656951904e-01
5.984013972811471627e-01,4.567608298494624797e-01,6.742857030577875666e-01,-1.089377820703860827e-01,-2.411486599941794345e-02,-3.188213915196521503e-02,2.774258255958557129e-01
4.055874351106723008e-01,5.620531611975699837e-01,5.639551875667045966e-01,3.908752018453973825e-02,3.506019442029775779e-02,-2.379601334874774030e-02,1.864206194877624512e-01
4.133943572711981096e-01,5.150470724393920730e-01,4.391165907210222707e-01,3.047804638127976119e-03,2.670050163381264968e-02,-9.196442059861378859e-03,1.039255261421203613e-01
3.785552415530925030e-01,4.920445040890787380e-01,4.803416641192483905e-01,1.524782930451249949e-02,1.954684347945040424e-02,-1.446781833150179511e-02,1.189970672130584717e-01
3.771813511177969924e-01,5.029100560185341129e-01,4.532095035380630521e-01,6.732850973734117936e-03,5.476589211575808025e-02,-1.087632890771497544e-02,1.466896533966064453e-01
3.580888657929103269e-01,4.803217101260980337e-01,3.999666969308156017e-01,8.617610055037160099e-03,1.421580602237005643e-02,-8.383362098487785741e-03,1.123195141553878784e-01
4.173570792693978015e-01,4.217338252999802695e-01,4.248887972626972931e-01,5.154480209151148136e-03,1.299684626333431252e-03,-5.246846196993774913e-03,1.450103428214788437e-02
3.711264726355494870e-01,4.673232578323293640e-01,4.094366693181929473e-01,1.291092183876502153e-02,1.422411061261533161e-02,-1.395610424884645255e-02,9.342133253812789917e-02
3.941948148306673172e-01,4.981967085354291891e-01,4.735372166028422036e-01,1.112349245313876828e-02,1.089192175825869080e-02,-1.402531627687538668e-02,1.008815020322799683e-01
4.777003887541029226e-01,3.932186023189577773e-01,4.318895818259146924e-01,8.464983451200582681e-03,9.657915315140890369e-03,-2.938619778722420181e-02,9.192966669797897339e-02
4.644065116128532900e-01,3.276375445969409439e-01,4.166595061100123454e-01,1.966152639440898325e-02,1.252142381524741499e-02,-6.113172442800912654e-02,1.652167290449142456e-01
4.668562798697809546e-01,4.252555915424509614e-01,3.906717502417057508e-01,2.508108803777058665e-02,2.841703092544004342e-02,-2.768379556958265597e-02,1.047583594918251038e-01
4.901010706786704252e-01,4.211669730248295829e-01,4.398734596814712905e-01,1.227311457267574527e-02,2.834547970714522067e-02,-3.033902467724834684e-02,9.713899344205856323e-02
4.306271127354178163e-01,2.919843348813263573e-01,3.550441110338549699e-01,2.115096917646185418e-02,2.425670791542476612e-02,-5.202972738699113836e-02,1.602626144886016846e-01
4.760080289668620623e-01,3.457359894202153283e-01,3.726172987370522383e-01,3.429439223476544833e-03,1.480118240436155419e-02,-5.385150101190227384e-02,1.535707861185073853e-01
4.242069196728731062e-01,4.505528216016894127e-01,4.093471556981055914e-01,9.039023330544404544e-03,3.825505757737932173e-03,-1.945149102931679422e-03,4.008464887738227844e-02
5.224632123282723084e-01,4.547765580837376809e-01,4.189852606655197209e-01,-4.419777569164371617e-02,-4.493504740234575273e-02,-4.701601185447400189e-02,1.638121306896209717e-01
4.888671443672542583e-01,4.009445947403042498e-01,4.077942045977539509e-01,-1.289781004405442634e-03,-1.266894973089613234e-02,-2.488468952190994385e-02,9.756688773632049561e-02
4.748249963390608341e-01,4.348826916039312818e-01,4.087814829716687193e-01,-1.266849549973618830e-02,-1.449430598489660771e-02,-2.162873393614999501e-02,7.638283073902130127e-02
3.790772202048445783e-01,3.065226584335056792e-01,2.217527759801424247e-01,-6.082054420798371080e-02,-7.956967441439856403e-02,-1.088852906220555417e-01,2.902756929397583008e-01
5.749073300662284058e-01,5.080353746219101740e-01,5.231701817745074701e-01,-5.006702382510398036e-02,-3.702823215813076663e-02,-5.697157608105477000e-02,1.583019196987152100e-01
4.684534312581132287e-01,4.931173139656029880e-01,3.446573642369888391e-01,-3.684888110031272340e-02,-8.739615844627778019e-02,-6.367056937974448216e-02,2.411154806613922119e-01
4.947821126528115787e-01,5.422694778988365050e-01,4.804953888249015037e-01,-2.933755872891490729e-02,-5.052001640812844863e-02,-3.602826717468405465e-02,1.314176619052886963e-01
2.837284913567219569e-01,4.596006534734164983e-01,5.191699048619952128e-01,-6.326623291674522698e-02,-4.868097998581973063e-02,-2.932998213487163566e-02,2.581747174263000488e-01
4.082386534074364803e-01,5.282045916380134765e-01,4.935020088176022002e-01,-3.298867921733967395e-02,-8.785432460245362618e-02,-3.443366698068769938e-02,2.034942358732223511e-01
2.750031696437070239e-01,2.966535794806689497e-01,2.875757899867243950e-01,-8.194435618670627142e-02,-7.860309385432462381e-02,-5.523725178874827613e-02,2.195177525281906128e-01
3.247628487281477572e-01,4.282963524338065375e-01,3.778268669984907735e-01,-1.425889372611302726e-02,-4.528204221973698707e-02,-1.271518924101903633e-02,1.236423850059509277e-01
4.059746932650671880e-01,4.981175092492494683e-01,4.299344825905169198e-01,-7.069801602738033652e-02,-6.940531802208411982e-02,-7.903987196629132239e-02,2.346155941486358643e-01
2.567435684405138252e-01,3.737417853462440820e-01,1.974284637566744161e-01,1.363534301685276340e-01,-2.264668434734759261e-01,1.094701886764064686e-01,5.193613767623901367e-01
4.719190737002097458e-01,6.250309505514796138e-01,4.775047099882147594e-01,2.771809538571502057e-02,-1.324197864118312751e-01,8.012488704832033959e-02,3.111094534397125244e-01
4.418764612804573777e-01,5.351407968720434116e-01,3.975481977370026176e-01,5.940708429375781731e-03,-7.831072522909619804e-02,3.542583014185190365e-02,1.925254017114639282e-01
4.536521397908570563e-01,5.459883267137857210e-01,4.822154993417759883e-01,3.476980253509556057e-02,-5.456177290283503734e-02,2.975687406842700278e-02,1.480493098497390747e-01
9.950977587506854016e-02,6.419452235466112100e-01,1.740679672996175986e-01,1.588920889583211871e-01,2.633858347050140880e-01,-1.357351375780459224e-01,7.736153006553649902e-01
4.730889728135724837e-01,6.284851345679489665e-01,4.325084743230497297e-01,6.283522312523237563e-02,-1.565616769885482540e-01,8.093386256648965604e-02,3.703122138977050781e-01
4.638529282230614004e-01,4.432036306375392587e-01,4.564127012309756593e-01,9.498195235728498428e-03,-1.983963634322606986e-02,1.585886384607728891e-02,5.033990740776062012e-02
4.401749968864326901e-01,4.552022926359360344e-01,4.638680192823630422e-01,3.294311085721618459e-02,-3.577344375209462468e-02,2.497190889172732839e-02,9.693755209445953369e-02
4.355949861475454377e-01,4.627011411983187883e-01,4.853017110887923868e-01,1.862214868994735428e-02,-1.306938954577407420e-02,1.411147069042160626e-02,6.331133097410202026e-02
4.055590683301336652e-01,4.368102344161380324e-01,4.606808250310857056e-01,2.841474459577130948e-02,-2.084616258323715443e-02,1.673403889823645366e-02,8.281539380550384521e-02
3.875903699295750737e-01,4.280427345727136346e-01,4.255947135864810438e-01,2.388008166304688221e-02,-1.839238988924573812e-02,2.490891734810398231e-02,7.829646021127700806e-02
4.366921274516820106e-01,4.184818083247779374e-01,4.193305928320976150e-01,2.293938096129925774e-03,7.308117727565509618e-04,4.029090179254114410e-04,1.829631812870502472e-02
3.164869146837779867e-01,5.046613785871633118e-01,5.092634211062103677e-01,3.974802185116262099e-02,-2.326917808829534820e-02,9.692514912057513879e-03,2.072262316942214966e-01
4.379346336526550032e-01,5.235712528686328193e-01,5.125958784930976231e-01,5.115742413498540475e-02,-4.714379270198414823e-02,5.084001463119517533e-02,1.696678400039672852e-01
2.685658683359702925e-01,5.207685115624377525e-01,4.596212702457754817e-01,2.720139318422529207e-02,-8.610100752868476981e-02,5.737092730447905520e-02,2.936968207359313965e-01
2.658617974809491802e-01,4.140015500551260108e-01,4.136541377337780157e-01,6.354230636527580245e-02,-7.884328794394511453e-02,3.855513731558695562e-02,2.389878779649734497e-01
4.206040597023725791e-01,4.073087247744402450e-01,3.237791392646296451e-01,3.136629375718652524e-02,-3.560902081327792235e-02,4.499999185584769440e-02,1.452413499355316162e-01
4.477302656795886793e-01,4.340335276176699453e-01,4.588692465165413736e-01,5.428596090469686025e-02,-6.722788161032129672e-02,3.488838441392824036e-02,1.628358215093612671e-01
3.627517258455061899e-01,4.377236643891714851e-01,1.826168413463106766e-01,1.344863203262236517e-01,-1.355862824716735082e-01,1.276475648095828919e-01,4.581121802330017090e-01
5.260669090358915945e-01,5.149799341778120709e-01,4.597783484521852926e-01,3.738173221041229954e-02,-6.139354635807618005e-02,5.327150864931299440e-02,1.667195260524749756e-01
4.123120168050071754e-01,5.425272877263803695e-01,5.013418262799016478e-01,1.066459470112573679e-02,-4.365177101517545011e-02,4.416924502291812334e-03,1.393034160137176514e-01
4.509972036125071138e-01,4.420641355184458110e-01,4.238777740136191463e-01,1.311417662225873755e-02,1.184531169272470992e-02,-1.144459323513404361e-02,4.362130910158157349e-02
4.274735879674410599e-01,4.416587573863863248e-01,4.471107808400458516e-01,1.173511984303065789e-02,1.145745584559918276e-02,-9.548870169209449504e-03,3.726638108491897583e-02
4.821003789175132281e-01,4.410508460168390821e-01,4.615713048904886984e-01,1.298737486286094013e-02,1.444680763794092479e-02,-2.197635577760496950e-02,6.200665608048439026e-02
4.386687529734272228e-01,4.103129112449335203e-01,4.379801171019283013e-01,1.938532508128620185e-02,1.863192935858589555e-02,-1.777236157449656531e-02,6.246111169457435608e-02
3.119637576546085977e-01,4.187356472031314447e-01,4.493214441688141991e-01,3.448129225034206324e-02,-2.672774831743308585e-02,2.497631764301037199e-02,1.522592455148696899e-01
3.078043919943369011e-01,4.238805856318766385e-01,4.592697574167912133e-01,2.373517765587291467e-02,-1.907248142242644676e-02,2.512707233166297516e-02,1.533276885747909546e-01
3.879255873047326997e-01,5.484125550148607475e-01,5.525107632646067968e-01,2.674190244104551056e-02,-2.635214440786756360e-02,7.766777617600771622e-03,1.756138801574707031e-01
2.890799105244741818e-01,4.699707982248398919e-01,4.996119391245912311e-01,8.161502553524076567e-03,-1.961565660133249983e-02,1.526962964119402133e-02,2.025229930877685547e-01
2.950575750846406997e-01,4.419067396841377393e-01,4.306792095522239405e-01,2.062732560812020194e-02,-2.705647449234850621e-02,2.642431424767172424e-02,1.600291579961776733e-01
3.266496556086385117e-01,4.812923020005843711e-01,4.788909607902239185e-01,8.423629562175285676e-03,-1.362415840490176916e-02,1.390965316400671545e-02,1.577939391136169434e-01
3.134782184998103904e-01,4.982987486803470145e-01,5.025262834774935072e-01,-2.912825879851633007e-02,3.202583823142893943e-02,1.582065044189898129e-02,2.033003717660903931e-01
2.823920904046434144e-01,5.142005189137738297e-01,5.031279490874973614e-01,-2.415471815722218876e-02,3.075419541724977446e-02,1.183753905575872512e-02,2.372745871543884277e-01
2.677367983855031275e-01,4.415499094746332953e-01,4.092947593818339613e-01,-2.286626006381414430e-02,4.458640114502510771e-02,9.865831453454102645e-03,1.829466223716735840e-01
3.507633526772638288e-01,4.971043800085073183e-01,4.654267620782284731e-01,-1.225004169184701862e-02,2.107830264924327734e-02,7.154676144155647059e-03,1.404281854629516602e-01
2.543557234018259949e-01,4.629833715244940917e-01,4.347464544204300285e-01,-1.396575128403763390e-02,5.373251743041191492e-02,7.247392753268768611e-03,2.187145799398422241e-01
3.195912704155892126e-01,5.183781958674985590e-01,4.744549358077018164e-01,4.660805635931923943e-03,1.041908727730425990e-02,1.187637666793687553e-04,1.819478124380111694e-01
2.821056745110300246e-01,5.088040416923641507e-01,4.896679443502205409e-01,-1.073731183658837565e-03,2.487512025551711844e-02,6.134617281691273800e-03,2.222451120615005493e-01
4.241681161116654941e-01,4.589625000439550018e-01,4.017036949932535350e-01,1.458940963611463602e-02,6.274859324398249401e-03,-7.868624332519691747e-03,5.864601582288742065e-02
4.165651824391939928e-01,4.576542097681807197e-01,4.181705409639741577e-01,8.381831360091454228e-03,1.103525670441420081e-02,-8.642989408249765818e-03,4.924553260207176208e-02
3.540791733425429078e-01,4.422018432805546184e-01,3.462607822517544953e-01,1.429184369521510969e-02,3.460872110327761764e-02,-9.674037396805780856e-03,1.140286475419998169e-01
4.364103257449496454e-01,4.989991362135033359e-01,4.258220732296871813e-01,6.955585667943395278e-03,1.556505882581565858e-02,-5.768895452628656356e-03,7.525935769081115723e-02
4.678576773302272618e-01,5.037517615817140859e-01,4.510814136275134723e-01,1.806920838665160289e-02,2.108095305449090781e-02,-7.072367842962236015e-03,6.807907670736312866e-02
4.197843094306332179e-01,4.539673851430303664e-01,3.715706253215373955e-01,2.199828829978838288e-02,1.930983742811520978e-02,1.567372811838066426e-03,8.785720169544219971e-02
3.876404879269732540e-01,3.977198982507933467e-01,4.606080707824126153e-01,7.393282943548286530e-03,-3.692152289074080839e-03,8.715700898391865944e-03,7.157626003026962280e-02
4.504101183361003957e-01,3.882183055643581016e-01,4.319352948834612183e-01,-2.683319860090826667e-02,2.941237382647840168e-02,2.495017596866628412e-02,9.840232133865356445e-02
4.033453084006578537e-01,4.291303018911283296e-01,3.672701328009224109e-01,-2.335707002911615454e-02,-2.127165182087754208e-02,-1.588873080677865104e-02,8.153492957353591919e-02
4.181013913425463691e-01,3.599204944870113554e-01,2.599601502127368846e-01,-3.358870572375657199e-02,5.298211435655531681e-02,9.328352797505835847e-02,2.389649301767349243e-01
4.289045438013160405e-01,4.429185661641370508e-01,3.261492741676030871e-01,-2.777965926718478640e-02,4.182879686805735658e-02,4.717225776441291013e-02,1.625877916812896729e-01
4.637586990273732668e-01,4.616836146608917502e-01,4.818337760126106262e-01,-3.413520770184007985e-02,2.415002394739750730e-02,2.550750933470028251e-02,8.698119968175888062e-02
5.484955343455591992e-01,3.561828762953110905e-01,5.415906213752026410e-01,-4.294590675847945876e-02,1.367486056759268688e-02,4.857034817256906251e-02,2.210774272680282593e-01
3.651262566082497663e-01,3.320584836727986655e-01,4.185494931188387113e-01,-4.430508485573299987e-02,2.471212032059278210e-02,1.984545016521090804e-02,1.208988055586814880e-01
4.792209991663604063e-01,4.335944274546219557e-01,4.577110500044568320e-01,-1.634019560330806850e-02,1.799505785441406561e-02,1.744283823723381463e-02,6.517872959375381470e-02
4.349095902191361107e-01,3.043476142549820795e-01,2.930178909057285508e-01,-2.154975845870072543e-02,2.530159667585227951e-02,1.033485343095917053e-01,2.324015349149703979e-01
4.992208178076082414e-01,4.297847787083616811e-01,3.446369399200935324e-01,-3.415157662182162490e-02,3.298931818761952767e-02,8.481594459422690802e-02,2.152416259050369263e-01
4.871626587678767883e-01,4.419977837273720289e-01,4.171586607006073089e-01,-1.448734348104032885e-02,1.401408299780672155e-02,2.897979491093941734e-02,8.670075982809066772e-02
5.056896928412555337e-01,5.394144246419907418e-01,4.681662946669961078e-01,-3.344740585280835121e-02,5.534723878106710682e-02,5.142484583039257096e-02,1.558541357517242432e-01
4.884582334202081100e-01,3.939882522331591974e-01,5.042932576835618130e-01,-1.168526400327431908e-01,1.005883126263636684e-01,5.934749271686665106e-02,3.042289912700653076e-01
4.156923748310193956e-01,2.420050509226260860e-01,3.126571903703967426e-01,-4.979393426216783408e-02,4.489435181825483789e-02,1.285375717260139605e-01,2.931521236896514893e-01
5.417373036663830632e-01,4.854921514836884611e-01,4.882439269041144447e-01,-1.067196209223307823e-01,8.438457073207261683e-02,1.200928782235497760e-01,3.190810382366180420e-01
4.204912733592874874e-01,4.428878262197120108e-01,5.015474256115721730e-01,-2.971452808254218883e-02,8.193535743472712268e-03,4.778649063171361636e-03,9.041623026132583618e-02
4.079798482891969225e-01,4.829060096486275655e-01,4.298557197611035385e-01,4.894629624053621337e-05,7.541087794977801607e-03,-8.158481013634259066e-03,6.945287436246871948e-02
4.844036195617125728e-01,3.294101717270143115e-01,5.248922990106983377e-01,-7.503111351664196182e-02,4.273664566980037854e-02,1.604358904809290165e-02,2.346875369548797607e-01
4.707884657697089525e-01,4.207828500483403178e-01,4.108791403035097489e-01,-2.001448013451909581e-03,1.041945093302716098e-03,3.116879075849315027e-03,5.602058023214340210e-02
4.319005089152121446e-01,4.077983009285612859e-01,4.865542920533469373e-01,-2.473796308439823316e-02,9.479473354813944264e-03,7.560805087195975570e-03,8.462983369827270508e-02
4.441457393588283953e-01,4.213585137683356630e-01,4.898893903034753916e-01,2.404923399354215452e-02,1.567790703308480360e-02,-1.192379736775190519e-02,8.095139265060424805e-02
4.065029995229719750e-01,4.403232292427003425e-01,4.847885031604494688e-01,2.181102063198686603e-02,9.213157418776152241e-03,-1.601891727961296877e-02,8.412145823240280151e-02
5.736599017198267259e-01,6.498733743184147427e-01,5.586006678377621881e-01,7.056841575424352420e-02,8.495390366355853873e-02,-1.080572263471819699e-01,2.807192206382751465e-01
3.616853616517710646e-01,2.886404475496417432e-01,4.412094866849648467e-01,5.763918301078069240e-02,9.961617514315200539e-03,-6.857332382582899226e-03,1.669553071260452271e-01
2.626732912506986595e-01,3.508789538956170739e-01,4.278185599448483534e-01,5.863044347407381229e-02,1.219330005443766858e-02,-5.505510234608329209e-03,1.770197749137878418e-01
4.026598398775810272e-01,4.352380290910503602e-01,4.910482658378320098e-01,2.621429519384832832e-02,7.101160254816366382e-03,-7.548434438564228903e-03,9.153196960687637329e-02
4.729527987539853817e-01,4.324828246128344933e-01,4.215129071667365057e-01,8.931221091191795039e-03,-8.348296148875456943e-03,8.172772305822596436e-03,5.339358747005462646e-02
4.693201481266682795e-01,4.361264628024561496e-01,4.333710291777216339e-01,8.168237997809989215e-03,-8.709873677292992444e-03,7.107730061202287633e-03,4.219219833612442017e-02
4.511470617097529945e-01,4.000167561278910600e-01,4.227974830046279942e-01,3.215113435136885203e-03,-1.102361083678692066e-02,5.724691184878357049e-03,4.962228611111640930e-02
4.715870782491201618e-01,4.343157407046597251e-01,4.022461511378694343e-01,1.757989608007421573e-02,-5.755478431680371640e-03,4.856120930631822701e-03,6.863066554069519043e-02
5.075897402759907973e-01,4.370881654142154682e-01,4.165077218711327744e-01,7.431241755258010534e-03,-6.156591791791115632e-03,2.856449713037300872e-02,9.783738106489181519e-02
5.654502922346987814e-01,3.613162055464959055e-01,3.240669828403129338e-01,4.734896512087471976e-02,-1.817103320314642639e-02,1.044860393007154276e-01,3.018781244754791260e-01
5.270300661656995844e-01,4.708924266121921609e-01,4.400110391774448848e-01,1.573511172923474505e-02,-1.173781806724748591e-02,2.516910108361103057e-02,9.431470930576324463e-02
4.621127783248241139e-01,4.095223586593955689e-01,4.072421286475690905e-01,1.044609657254088990e-02,-1.002249298799091914e-02,1.103404475904742194e-02,6.232843920588493347e-02
4.864250422208555857e-01,4.075967727501499382e-01,4.136430478330234140e-01,3.727794374654943340e-03,-9.986316964694548493e-03,7.712675690172221890e-03,7.932944595813751221e-02
3.314107478423641839e-01,3.092717787673779362e-01,2.959429039266855410e-01,8.860412115835952784e-02,8.607576925504778487e-02,-1.002619940541135540e-01,2.773075401782989502e-01
3.938875423730937020e-01,4.477072822320163903e-01,4.195092650127272838e-01,3.844163309554202417e-03,4.722088707621435559e-03,-1.421447377079984760e-02,5.377233028411865234e-02
4.310094223273381320e-01,4.189384787736279980e-01,4.256847652239858504e-01,1.554875199260204307e-03,-4.246008943493676316e-03,3.874230149789255860e-03,1.470216549932956696e-02
5.694903402397405445e-01,4.786570207477472416e-01,4.448820971105094668e-01,1.647603847203453747e-03,-1.522797039891682358e-02,7.749065622651854501e-02,1.765716522932052612e-01
5.651379825706825955e-01,4.140929577700707132e-01,4.115187950376829051e-01,-3.620965586323782182e-02,-3.990217911584593297e-02,1.461068115699943049e-01,3.097767233848571777e-01
5.217532654324563701e-01,4.462869785126672983e-01,4.108128532404087818e-01,-5.702025927669920370e-03,2.305913934591587427e-03,2.829759880787519749e-02,1.102108359336853027e-01
5.002886313420432662e-01,4.440719236540249804e-01,4.108341900423500004e-01,1.845803937308558920e-02,-9.188082178148704315e-03,3.116617293925980775e-02,1.016018316149711609e-01
5.269106844008349944e-01,4.803624571107064090e-01,3.978389555123126864e-01,1.627748413073618755e-02,-4.100288889886116186e-04,5.782848893565075560e-02,1.537724435329437256e-01
4.880140090064422065e-01,3.941556291871781137e-01,3.957733513716144569e-01,2.872791270295009004e-03,-1.234816643035878056e-02,3.051642021251877931e-02,1.092525571584701538e-01
4.960350628309986298e-01,4.376362650952536626e-01,4.012952510896542480e-01,-9.469155604868590695e-04,1.313479462479907010e-03,2.549290456500995575e-02,9.386634081602096558e-02
4.518336584876167517e-01,3.578420347342236019e-01,3.584340126310049945e-01,1.997042104991458757e-04,-1.165644431010777601e-03,2.973781313022006573e-02,1.069408431649208069e-01
4.701341752845539235e-01,4.441737887964006815e-01,4.920366212747217527e-01,1.943094130155854568e-02,1.930612170405471631e-02,-1.754605735195924332e-02,6.997650116682052612e-02
4.045010849600713110e-01,3.718914641136727428e-01,4.424523356269240981e-01,1.844249618431464954e-02,9.209637138255233335e-03,-1.358231857505639087e-02,7.462926954030990601e-02
4.124068658090970785e-01,4.223931336560997618e-01,4.859957981725462894e-01,2.430767240368697860e-02,8.635109678180851941e-03,-8.442870584330528297e-03,8.360806107521057129e-02
3.586048533849077735e-01,2.883650580746855985e-01,4.270691518847981039e-01,5.482182262865753497e-02,2.589812799087843828e-02,-2.546275616610813725e-02,1.655397266149520874e-01
4.231232852648067477e-01,4.376682020354201730e-01,4.725163638997303961e-01,1.267257064733012459e-02,1.649163576375132362e-02,-1.565751661302142508e-02,6.297610700130462646e-02
4.463517495795037426e-01,4.204163914838442428e-01,4.550448116494777984e-01,1.993409785253296915e-02,1.695784669330317046e-02,-1.910996772231427637e-02,6.421878933906555176e-02
4.562321532617732989e-01,4.419996613828506282e-01,4.374678965300460298e-01,1.592110977608844277e-02,8.598830291987180977e-03,-1.209663971737540145e-02,4.133823886513710022e-02
4.435346543274180653e-01,4.243269471961413353e-01,4.231158319277947277e-01,9.910148685948276179e-03,9.990135474220769238e-03,-6.491812278624635967e-03,3.337870538234710693e-02
4.176057379826766391e-01,3.256758341327943285e-01,4.644071527388266007e-01,8.898979659927916397e-02,4.189880402450518737e-02,-6.446470756461224194e-02,2.375607341527938843e-01
4.459525633452581239e-01,4.869955871714651829e-01,4.630489159745466154e-01,1.368101771449032472e-02,1.592628044005475751e-02,-1.414613930454225628e-02,5.655014514923095703e-02
4.266865917933824748e-01,4.196334281539457756e-01,3.990160743017631684e-01,2.058210619595848487e-02,1.618178468706939210e-02,-1.796380794404597164e-02,6.037180498242378235e-02
3.496522906949280363e-01,3.854520249456821479e-01,3.846044331351188839e-01,2.955104661286114820e-02,2.817105456800746144e-02,-2.639881417150647877e-02,9.134169667959213257e-02
3.930464348137177599e-01,4.190951611127409770e-01,3.534589254796633440e-01,3.180175152086451434e-02,3.165399014041345854e-02,-2.999303872636763235e-02,1.096158623695373535e-01
4.494431217696061021e-01,4.698569363297078194e-01,4.177856692629248192e-01,2.079616438244179244e-02,2.030817148558644591e-02,-1.772967319896401328e-02,7.445064187049865723e-02
4.143255790357870394e-01,4.599466510092578564e-01,3.641396722414854681e-01,3.408329603958645121e-02,-1.046793092833796929e-01,7.268374898342634671e-02,2.430977374315261841e-01
4.662590815687971957e-01,4.825588726492955338e-01,3.741426349288577979e-01,3.270047972703255673e-02,-8.655353947908223100e-02,7.170115557264583606e-02,2.266236543655395508e-01
4.639695986271256678e-01,4.445888759981695970e-01,3.934437970140808316e-01,2.468448095918346699e-02,-1.843977059256884932e-02,2.608413171545204828e-02,9.419050812721252441e-02
3.493817836559574008e-01,4.064500297628972358e-01,3.841929181670494242e-01,4.828038163766602137e-02,-5.856310057495744265e-02,3.808559241431663800e-02,1.552914083003997803e-01
5.029981586706432362e-01,5.092216705786725139e-01,3.517932185886984975e-01,5.216368763688374044e-02,-9.224472273804867894e-02,1.080008025010091161e-01,3.041802644729614258e-01
2.683351452081171318e-01,4.334376851988259172e-01,1.721583580794752155e-01,3.841989464596834436e-02,-1.469670730780098244e-01,4.820817528416754261e-02,3.585891425609588623e-01
4.276559349109892438e-01,4.371001235863697931e-01,3.380788190255212822e-01,3.555930282977197432e-02,-3.874076842917143632e-02,3.989875674328333122e-02,1.484280973672866821e-01
3.900850846598026833e-01,4.563572841717990491e-01,2.778947592741679018e-01,2.226387112660823883e-02,-6.564504545085125820e-02,4.153585447870106195e-02,2.097720503807067871e-01
4.471577766860822534e-01,4.971199178203604685e-01,3.580351367840841625e-01,2.089645662789009831e-02,-5.125663198213415567e-02,3.129875707557463332e-02,1.643848121166229248e-01
3.559861523028641783e-01,3.998761597453081018e-01,4.594053730573048888e-01,-1.642448219581242944e-02,-6.565363263373831700e-03,-6.659936960685997748e-03,9.567897021770477295e-02
4.136255190898024958e-01,4.433649856788128285e-01,5.167755637310702532e-01,-2.854481409545256421e-02,4.853747617496638293e-03,5.154365333327113469e-03,1.051262989640235901e-01
3.744000562957283118e-01,3.782772841569713718e-01,4.475134189914468652e-01,-2.098090668076778298e-02,-9.655813916498629662e-03,-1.030243738632181418e-02,8.364113420248031616e-02
4.518745624354949530e-01,4.144801287353332975e-01,5.210584139080102206e-01,-4.913454671089257514e-02,-4.005850316089167723e-02,-2.762746774907375372e-02,1.520471423864364624e-01
3.449708710059509187e-01,3.455054892497834707e-01,5.349273860316913209e-01,-1.169437009678573475e-01,6.684243270408080778e-03,-5.368102034741368406e-02,2.928970754146575928e-01
3.569899638291449406e-01,3.119409453391555065e-01,4.268419082062026582e-01,-5.014421920415755574e-02,-2.235024232482510712e-02,-2.081619287428405213e-02,1.428192555904388428e-01
5.608414960980143693e-01,3.190207917759664280e-01,5.929658741176139225e-01,-2.393247750554113734e-02,-3.024088533104989790e-02,-2.831004296935276526e-02,2.722935378551483154e-01
7.354935074602910738e-01,3.847281693150388371e-01,7.078304016818861566e-01,-3.373022364258016631e-02,-7.535981913483549843e-03,-2.973687167990296532e-02,3.468929529190063477e-01
3.576578671762907780e-01,-3.469735646036917198e-01,3.374132633232831413e-01,-8.838711233795842892e-02,-7.563326183043282691e-02,-1.422409181837836628e-02,7.237784862518310547e-01
5.447664660493009015e-01,8.330857727941159974e-02,4.743039357854567095e-01,-1.005992306191245272e-01,5.591959609907958678e-02,-9.336074527751572760e-02,5.012814998626708984e-01
5.256994932087026839e-01,4.013860057064446152e-01,5.426617087054538269e-01,7.415932312163107942e-02,-2.250251598226497840e-02,3.075124030533886443e-02,1.967359036207199097e-01
4.923334232611735750e-01,2.232153585830462805e-01,4.559167468796229139e-01,5.655400950572271601e-02,-2.702103927888088383e-02,4.534723767668284028e-02,2.861903607845306396e-01
4.095081924334013079e-01,1.430361527392704502e-01,3.990249619885367638e-01,4.014800901747441614e-02,-2.097371190010170403e-02,5.393769622160216048e-02,2.884559929370880127e-01
5.911231721933021266e-01,2.993669912045713866e-01,6.008146589842211505e-01,8.312939274630556930e-02,-8.058700528201409932e-03,6.138005137359076047e-02,3.468025326728820801e-01
5.501043423369903484e-01,3.495806184009133677e-01,4.817307878669883081e-01,5.787883367125384176e-02,-2.895781645438712248e-02,6.799058060378457280e-02,2.400164306163787842e-01
4.830016714346661022e-01,3.088036346752793260e-01,4.555551597423172505e-01,5.159696734477010882e-02,-2.567945514821427799e-02,6.969591623527505997e-02,2.255099713802337646e-01
5.460953587577386248e-01,4.759171793150789309e-01,3.883564421500592667e-01,1.063188982387939727e-02,-2.687830155331768361e-02,4.000275806056868139e-02,1.613809615373611450e-01
5.956848881108057769e-01,5.125081423206062636e-01,4.304884139332740833e-01,1.967833381190463738e-03,5.983091778011313637e-03,5.934729269005067920e-02,1.765022724866867065e-01
5.695839526868182734e-01,3.690765112203447940e-01,4.106919763383743982e-01,1.383331944164423698e-02,-1.576444269123328246e-02,1.716813375719400958e-01,3.511893451213836670e-01
5.700586632937006959e-01,3.606551617419259670e-01,3.218778339456220827e-01,4.041541215381169033e-02,-7.481626282756854984e-02,1.299329090036712153e-01,3.547025918960571289e-01
3.540482574018207762e-01,5.063185114199268977e-01,4.062878684043758071e-01,-4.369365145900883443e-03,5.139793906373366777e-02,1.060314446151801489e-02,1.621125191450119019e-01
3.868541671567898854e-01,4.043441236979057329e-01,4.406976454816607380e-01,9.196183478199041264e-03,-6.460426945971506872e-03,1.412842571274130349e-02,5.693027749657630920e-02
3.089157041547050397e-01,4.445844086425811970e-01,3.548044865365617695e-01,6.816611823750098713e-03,4.951492263400812666e-02,-1.295474377575649497e-02,1.492788046598434448e-01
3.838018578191138008e-01,4.907554122743560399e-01,3.783523691147444579e-01,-7.208298478109126210e-03,2.675601629194605466e-02,4.446960523415642227e-03,1.200602352619171143e-01
3.160715597291720025e-01,4.622247939337733591e-01,3.817939713590888795e-01,-1.064285031631042808e-02,7.959937598230885925e-02,1.023642801465992919e-03,1.882174164056777954e-01
4.185485822295859082e-01,5.775991873821013645e-01,4.543912062261264428e-01,1.850851730162100112e-02,7.384300904615166694e-02,-6.262868272870625828e-03,1.959202289581298828e-01
3.550303716812980293e-01,4.556339578887752539e-01,3.511598477437668508e-01,-9.534449650983880479e-04,2.885339244647542115e-02,1.094695212747573160e-03,1.141460835933685303e-01
4.975384414865739457e-01,3.439069337852101449e-01,5.256273989110638034e-01,5.954681973757500191e-02,-4.967618024493668412e-03,2.703431262482853745e-02,2.039878517389297485e-01
4.101516026325600639e-01,2.925577301730994950e-01,4.133913886491695777e-01,4.129513282611524394e-02,-2.207238750530407176e-02,3.309351112954701107e-02,1.551862508058547974e-01
4.213714146683478212e-01,3.083210368104639665e-01,4.533296687493061916e-01,4.601776584468945941e-02,-1.804580253647281030e-02,2.347317859755115171e-02,1.624728888273239136e-01
4.882651598080346989e-01,4.196145438026095409e-01,4.198042247204498145e-01,-5.388157557030722952e-03,3.403532886686824570e-03,1.004708238390184839e-02,7.158632576465606689e-02
6.425372732783616314e-01,6.299766202797014714e-01,3.083433108778419474e-01,-4.018877943305596522e-03,1.257468224453565236e-02,-3.252968119442418288e-02,3.336810469627380371e-01
6.804998692158443774e-01,6.853734144272525253e-01,3.622075924223948085e-01,2.231580180529917773e-03,2.093737082328629706e-02,-1.627326421149101823e-02,3.240516185760498047e-01
4.446010134601662278e-01,4.473945416071783976e-01,-6.668367793981189173e-02,1.720561245986908586e-02,-1.459840952386937639e-02,-7.522490946311165272e-02,5.304262042045593262e-01
6.112147696178338308e-01,6.894130791317752971e-01,1.547226541038009273e-01,-4.352555580426107490e-02,-7.310616716447160268e-02,-3.449235391074467055e-02,5.248647928237915039e-01
4.845347144493236113e-01,4.859122353563453123e-01,9.424861325090572173e-03,1.652854602783562776e-02,-6.402749032949435481e-02,-6.624415237416064750e-02,5.026616454124450684e-01
4.628759664256394402e-01,5.076949051271543167e-01,-3.135458547660902040e-02,2.142176104256833177e-02,2.443645719820498538e-02,8.566808142672372589e-03,5.213556885719299316e-01
4.379991448081069216e-01,4.407741829132641453e-01,4.300564131306028326e-01,6.678841491336310644e-03,9.219109891130926066e-04,3.198096978522575132e-03,1.612089388072490692e-02
1.006953612988000346e+00,1.007744247266049609e+00,5.541103238989436575e-01,-5.315798525333607395e-03,4.017453631361482536e-02,-5.569766590102732257e-02,4.686780869960784912e-01
5.164950564944137401e-01,4.670744308507075448e-01,5.688454446336418391e-01,6.373604534236884667e-02,-4.861567189439976178e-02,6.062299990593858490e-02,1.951227784156799316e-01
5.006180826262540684e-01,4.513902690368430948e-01,5.462107804895266483e-01,4.889802824871339326e-02,-3.489694585197986726e-02,3.152684539446422296e-02,1.433693468570709229e-01
3.537448462113347292e-01,3.438137330035248018e-01,4.201899155213472681e-01,4.247522776985380999e-02,-1.890599076982344556e-02,2.981339453796346892e-02,1.196858733892440796e-01
4.806715154350523767e-01,4.918506574565280620e-01,5.955594819809116869e-01,6.188348074175378105e-02,-7.120282118085415057e-03,3.182671257706630539e-03,1.539839208126068115e-01
4.555351148057057986e-01,4.324833146822043561e-01,5.041880544771312200e-01,1.419062998690253929e-01,-3.840518566402149198e-02,7.073550709145569326e-02,2.895990908145904541e-01
3.670401594185305205e-01,4.033048371269321586e-01,4.369617971883392737e-01,3.907770822741683109e-02,-2.800521004735582672e-02,3.033331294812312631e-02,1.155979409813880920e-01
3.314599150347563583e-01,3.992357174339220549e-01,4.474807706105973226e-01,4.621905118418256214e-02,-1.946918896523453651e-02,1.570469473988890530e-02,1.359288543462753296e-01
3.944673146842564426e-01,3.495081339791500374e-01,5.206642349156348493e-01,-5.532293896188970189e-02,-3.144645462143204947e-04,1.628669606317892067e-03,1.811376214027404785e-01
3.869640214741656981e-01,3.466020346025430188e-01,4.855297894342686660e-01,-4.874305284085713591e-02,-3.006013584709806008e-02,-2.200667643827880146e-02,1.631379276514053345e-01
3.009022495336126091e-01,4.537008953690264135e-01,4.881699832750365786e-01,-7.119851412892357068e-02,2.140012518611413006e-02,3.697716109361669917e-02,2.246906459331512451e-01
2.502583582158133257e-01,3.301266372573044006e-01,4.273078114286876783e-01,-1.019567860427084832e-01,-4.125365436810178588e-02,-2.721619839692621112e-02,2.491949647665023804e-01
4.347805256408391883e-01,4.656234889496617679e-01,5.334988427162916658e-01,-2.817245176589828343e-02,-4.991433396053729724e-03,-3.410772753058179899e-03,1.007101461291313171e-01
4.544488247052039243e-01,7.318671494569879421e-01,7.588263340351790731e-01,8.276766963888074202e-02,2.939327912623999894e-02,2.589952263261610828e-03,3.291355073451995850e-01
4.383586670034906319e-01,4.496813647923003088e-01,4.682011211318021227e-01,-4.519194935736149839e-03,6.463856529484979761e-04,-1.323254356603834579e-02,3.561884164810180664e-02
4.197420622856101180e-01,4.274013656467786082e-01,4.296027237318621461e-01,5.056453916586985814e-03,-5.562630536577489737e-03,5.976086228561862390e-03,1.889561675488948822e-02
-1.482285816750588126e-01,3.579592587262727110e-01,3.324631262945701438e-01,1.144810965022923788e-01,-1.436269605319473452e-01,1.233820246140337855e-02,5.879038572311401367e-01
4.042396192748207717e-01,4.507772592492166885e-01,4.204497041896633203e-01,4.304411420757238253e-03,-2.454602975677334670e-03,8.628865128639775367e-03,4.439786821603775024e-02
3.157770321427662008e-01,4.764869461984238552e-01,4.677608621454871773e-01,1.009983675158021739e-02,1.124180584240599273e-02,-1.708529913995948321e-02,1.614383161067962646e-01
3.985738954446713112e-01,4.213520064348373340e-01,3.890845799072706335e-01,1.527311150154866612e-02,1.669428424176512202e-02,-1.154122432933804218e-02,5.254083126783370972e-02
-3.087856388729133261e-01,3.706642226618052094e-01,3.655689624995839271e-01,9.555202897811777840e-02,1.074212390485773487e-02,3.696075639733973489e-02,7.000365257263183594e-01
8.352752244017513927e-01,4.814032753059978020e-01,7.556032067816528253e-01,-1.229710816370840620e-01,2.901623176618607636e-02,-6.732931361679925231e-02,4.060424864292144775e-01
4.150581468053357592e-01,4.506062821549136066e-01,4.121161443311126549e-01,2.601585900057386703e-03,6.360313985587502487e-04,-1.025469908831570971e-03,3.743769600987434387e-02
3.807013778224445644e-01,4.318249065506984397e-01,4.130675772968132597e-01,-4.100128224272471013e-03,6.035630224363173167e-03,1.318080662990402281e-02,5.184045061469078064e-02
-2.075570696304727125e-01,2.877911632261714869e-01,3.426382890615444210e-01,2.045589820160652050e-01,8.407468185855665466e-02,-2.662996730324641501e-02,6.514697074890136719e-01
4.881866049557696541e-01,4.995301446577593563e-01,2.540832546776958800e-01,3.826114522298022791e-03,1.283463936395570337e-03,-1.905773785621898628e-03,2.401007562875747681e-01
4.222827183948223984e-01,4.482389941378817633e-01,4.263425840651085541e-01,8.410881026344430370e-03,5.874639000384950828e-03,-9.622748558683162645e-03,3.432763367891311646e-02
3.992253623905412385e-01,8.321787796177236851e-01,7.321670142649540081e-01,-3.521192818592674273e-02,1.789479183413069663e-01,-5.492123379069894194e-03,5.040116906166076660e-01
5.316294001792984947e-01,4.329626590361735916e-01,4.680674681363826695e-01,1.531149216139127090e-03,-2.875423287401673422e-03,3.097078327374545512e-02,1.020450964570045471e-01
4.815040585777435878e-01,3.566809725434188505e-01,3.984254291413754645e-01,2.672709297788352506e-02,-2.828762305346490050e-02,4.967688165368087938e-02,1.551118642091751099e-01
5.402169858611325370e-01,4.354701666270729410e-01,3.758801693811791855e-01,1.003640214527384660e-02,-1.838393681408067443e-02,6.934496970302626850e-02,1.910680383443832397e-01
4.768497361627889175e-01,3.910080479439957402e-01,3.608694135499538880e-01,9.037385544254102065e-03,-1.105312723036123990e-02,4.203833533898076319e-02,1.295279413461685181e-01
4.582346000391221974e-01,3.746357158957071554e-01,3.479078904353291035e-01,1.463579526996354636e-02,-1.313727420351996217e-02,4.258747674877811501e-02,1.286041587591171265e-01
4.120455407103799095e-01,3.869382565450044664e-01,3.765653592544279116e-01,1.876652943246987296e-02,-1.936458259618735814e-02,1.895756043885131123e-02,6.525399535894393921e-02
4.549716678557603755e-01,4.144014228024910373e-01,4.128613502958420889e-01,1.016807997728020468e-02,-1.053171832572211142e-02,1.206325452403191577e-02,5.282314866781234741e-02
6.794302802524502249e-01,5.378569497224038320e-01,4.750678640056574809e-01,1.915685871682402605e-02,-3.550114891272876383e-02,1.280090598369283406e-01,2.948145866394042969e-01
4.108444147051860673e-01,4.159786408620384512e-01,4.078215160430617714e-01,2.453415019297454282e-03,-5.311057166272538377e-03,5.539898298617141129e-03,1.567704044282436371e-02
4.180090774121616448e-01,3.210996079836044292e-01,1.404844455568786121e-01,3.283457011871307452e-02,-4.604599399473782197e-03,1.285837323245344610e-01,3.352847397327423096e-01
4.368791219178175811e-01,4.680581533465321131e-01,5.424730457929864968e-01,-3.382240597506590979e-02,3.402579472646083056e-03,2.949950347810995945e-03,1.110071912407875061e-01
4.690901415565822963e-01,4.512203384677669349e-01,2.751239618229393002e-01,-1.145976161575998353e-02,-2.424517067586421000e-03,1.369052765234072926e-02,1.882816404104232788e-01
4.977287788248559441e-01,9.288629444083984499e-01,9.250794114338044549e-01,-2.219658804512224248e-02,8.129150847711409666e-02,1.700857834710042815e-02,4.543463885784149170e-01
4.280639939691944784e-01,4.029965633859534657e-01,4.638310195333228969e-01,-4.436121537461576447e-02,5.021291663289241536e-02,5.932571717155618596e-02,1.638005822896957397e-01
3.551980965857838846e-01,4.626498511194986341e-01,4.775848432802084487e-01,-3.288116812361870089e-02,2.739116415053992684e-02,1.928655458044481116e-02,1.413647085428237915e-01
4.436013016427075573e-01,4.259359291070239917e-01,4.843453030324749720e-01,-2.251221816346777455e-02,1.835051615099084210e-02,1.510582792880125341e-02,7.685752958059310913e-02
4.938567848002304306e-01,5.132199952669066478e-01,3.279063099050513186e-01,-2.838062166204155610e-03,1.539992691660796616e-02,9.980516396753782212e-04,1.785117685794830322e-01
4.105920476598586832e-01,4.538305833960252222e-01,4.331604284739408728e-01,4.279498208082945475e-03,-2.441807424784244937e-03,1.041948357686669872e-02,4.244532436132431030e-02
4.185092028907720363e-01,4.621901933786865535e-01,4.094690244032530013e-01,8.265422146394059769e-03,-5.768952069599415575e-03,4.536894010878493068e-03,5.245171114802360535e-02
4.581419796565402991e-01,3.228616790693669136e-01,4.724002429957883664e-01,-8.978469288060154929e-03,1.318044682751122118e-02,6.633741086743846771e-03,1.460409164428710938e-01
4.865495958396374721e-01,5.299264764757933843e-01,5.415625717793863814e-01,-4.807680816084390629e-02,4.591104352232006774e-02,3.942423130521661295e-02,1.429759114980697632e-01
4.534116993861000977e-01,3.789858479366468025e-01,4.950562169568016868e-01,8.201393701711775022e-03,7.053762765845021827e-03,-1.565428693319788952e-03,1.035920307040214539e-01
3.509791447737558578e-01,4.508058117028470591e-01,4.916200955185305865e-01,-4.360594235030048477e-02,3.618651166732270164e-02,1.548398701641714482e-02,1.614236980676651001e-01
3.207137918136255816e-01,5.354914408673830950e-01,5.882550961932005995e-01,-1.285816246608894042e-01,1.961308415894217616e-01,5.599809830179038050e-02,4.844118952751159668e-01
3.063962142858431270e-01,4.673521824216830822e-01,4.827759076724864595e-01,-1.098174154333046194e-02,-1.693933514696683608e-03,7.207574249656151233e-03,1.707439869642257690e-01
7.673041917942866053e-02,3.543391006687126032e-01,2.747205702304347796e-01,-1.390746184709520383e-01,1.744382557713373139e-01,1.094869883136347505e-01,4.965646564960479736e-01
4.882587802812246025e-01,4.142402857682450090e-01,4.176719095055770881e-01,1.230701508351957378e-03,-2.890908943492244594e-03,2.558461151440695643e-03,7.270324975252151489e-02
3.418166036920121664e-01,5.078714823537069378e-01,4.812098293065003585e-01,-1.062433019417950986e-01,1.170542697455788927e-01,7.564914701758665427e-02,3.405791819095611572e-01
4.275929856867959344e-01,4.632604613033976526e-01,4.069643870296689725e-01,9.771836372523597797e-03,-3.983082624680555316e-03,2.306259288550526528e-03,5.275884270668029785e-02
4.191958521774046265e-01,4.463857922489432584e-01,4.229078956150521540e-01,2.744118595732278863e-03,-2.741574961183479257e-03,8.837156107010758418e-03,3.052158467471599579e-02
4.352181221930267463e-01,5.088617879976180536e-01,4.546265210755412456e-01,-1.462666572042488691e-02,-2.490169720924910110e-02,-1.868393061542102107e-02,8.899516612291336060e-02
4.357940989177561675e-01,4.939158978759220497e-01,4.122333498489298420e-01,-1.692905970735276641e-02,-2.683178794817236978e-02,-1.597085269343631250e-02,9.532818943262100220e-02
2.565330339590098374e-01,3.945467219798835523e-01,1.446795372222389187e-01,-2.762606942653224318e-02,-1.191519897828282326e-01,-3.475895219713789897e-02,3.090340495109558105e-01
2.662419970527146740e-01,4.336563762198953897e-01,2.481542681425867314e-01,-2.701099931237864113e-02,-1.163402208548885292e-01,-3.726757348016897925e-02,2.798989415168762207e-01
3.920944967748179466e-01,4.116361059029686187e-01,3.812600859107166951e-01,1.195288892485380991e-02,-1.438198126965933681e-02,1.506126527788034970e-02,4.940288141369819641e-02
5.671291169007562916e-01,6.862775980797494180e-01,5.905648546236452745e-01,-4.952790068578742655e-02,-1.078037106881100105e-01,-4.696616655199101209e-02,2.465657740831375122e-01
4.050921879443174500e-01,5.601510729561132163e-01,3.695038834953185414e-01,-6.163109044881819737e-02,-8.895201379781020323e-02,-4.838894338883194951e-02,2.701575458049774170e-01
2.845995819451617170e-01,3.980930445629178305e-01,3.093242198394837716e-01,-2.338314130089984982e-02,-5.944438422239575748e-02,-3.082163384588005456e-02,1.605525612831115723e-01
3.661545248431971045e-01,4.367370879973456188e-01,3.292023575482867503e-01,-2.575932469893144061e-02,-4.598468912795297681e-02,-2.213098600848400349e-02,1.369645446538925171e-01
3.729814247676830896e-01,5.038202528030915062e-01,4.646979178867474691e-01,-3.340831518479090573e-02,-5.245150364921914027e-02,-1.033044475513857779e-02,1.595387607812881470e-01
4.415972650796983201e-01,4.571258841790006855e-01,4.148873238443209766e-01,1.042418407488041043e-02,2.624191163280233628e-03,-3.047873161982664249e-03,4.175938293337821960e-02
4.104618696494154451e-01,4.381820067506356220e-01,4.098273080024632531e-01,8.620983894066772471e-03,-9.286885172459241264e-03,1.027624673825736773e-02,3.981086984276771545e-02
4.625741038790573412e-01,3.667468191979877390e-01,5.159876479523578530e-01,-4.758967698479300151e-02,-1.818304187559240115e-02,-2.337381060223103421e-02,1.630323827266693115e-01
4.137797056786907679e-01,4.558324334944514056e-01,4.075665089216851666e-01,-9.053191634844793417e-03,-4.219015136706057503e-03,-3.156514532197410294e-03,4.896416515111923218e-02
4.837981581526850650e-01,4.827717732924842187e-01,4.780336130894400903e-01,-4.413258202806859959e-02,-3.784296453253191417e-02,-2.975493773203410561e-02,1.132420450448989868e-01
3.547944670279193913e-01,4.267344976207472773e-01,3.630448395746040946e-01,1.658809486225541405e-02,-2.166585052657849647e-02,1.640829919188040512e-02,8.770018815994262695e-02
4.335500762637048422e-01,4.615340664298266393e-01,5.023060957924411207e-01,-1.791029808460084874e-02,-1.255349559337855594e-02,-1.244614835216089309e-02,7.406924664974212646e-02
4.168858927590923802e-01,3.946692571044824738e-01,4.227259458590592045e-01,3.924781136610051846e-03,1.172810330476004546e-02,-4.851542591630530511e-03,3.445142507553100586e-02
4.074794950606073218e-01,4.338478482161772232e-01,4.622950619031470088e-01,3.325784376342546395e-02,-4.075915527783469106e-02,1.754853650249928870e-02,1.071479022502899170e-01
4.828634467729303048e-01,4.245215166154678865e-01,5.769040706339221281e-01,-1.419567366777406692e-01,3.037019441284808177e-02,4.360483202976704609e-02,2.943811714649200439e-01
2.978555820513021368e-01,3.232800664654765233e-01,4.412303837358988456e-01,-6.567085264054550731e-02,-4.232163715357865333e-04,-7.036695524478205370e-04,1.746353656053543091e-01
4.506240372997804555e-01,3.815838845001294222e-01,4.767459628908365943e-01,1.034017674518695681e-02,1.188089319935544709e-02,-4.276922539856874324e-03,8.972992748022079468e-02
4.559731034336575450e-01,4.407461842839881516e-01,5.220180720042888467e-01,-2.904198370523246656e-02,-1.464769825887856508e-02,-1.867721266876099309e-02,9.909565746784210205e-02
4.104284950351257955e-01,4.381338508956816868e-01,5.049074144701547473e-01,-3.082551881642922251e-02,-1.495038831167460128e-02,-1.151616620540823512e-02,1.048586070537567139e-01
4.485238804740926954e-01,4.203145506765965100e-01,5.189637915644069732e-01,-2.527210878340500899e-02,1.071213555821707956e-02,8.649505013608572643e-03,1.011402010917663574e-01
4.695045827526317939e-01,5.582113046989169991e-01,4.635925829649196195e-01,1.513083728649392001e-02,-7.094148732919927647e-02,1.291523613821302617e-02,1.572055667638778687e-01
4.626484119736156697e-01,2.964804088245792668e-01,4.796537713499998690e-01,-1.109936134446047953e-02,-5.312401809223832490e-03,-1.666452224525690699e-03,1.766049712896347046e-01
4.129861004480097075e-01,5.699393635912028966e-01,5.136471532551771801e-01,4.498726696550560920e-03,-5.092898954425437857e-02,6.889358172725790208e-03,1.641715168952941895e-01
2.220824143371309956e-01,3.637397734648396552e-01,2.865840729734907000e-01,6.363110178441881704e-02,-9.900551699887963353e-02,5.559782708881156471e-02,2.567421197891235352e-01
2.894851532149559370e-01,3.959537675867373929e-01,2.590138807293502210e-01,-4.641410648638841230e-02,1.109296245940519371e-01,5.346035731772233457e-02,2.597330808639526367e-01
4.312954866942587673e-01,3.580184220957645658e-01,3.043869066788186806e-01,2.752298402120621074e-02,-2.443150833366879160e-02,5.055980604202748446e-02,1.546219587326049805e-01
4.035878377528756000e-01,4.620355828071355808e-01,3.974554071402388589e-01,6.438032089236753186e-03,1.115989616283231955e-02,-3.916656224238678971e-03,6.600126624107360840e-02
2.595311161669664468e-01,4.161321557724245168e-01,3.873243008534060783e-01,5.228338127861272694e-02,-8.039500493836417017e-02,4.262759922058877160e-02,2.321303486824035645e-01
4.135899574261820977e-01,4.869772973240484859e-01,4.096104598125170915e-01,-1.307827540630533986e-05,-1.765957710420390557e-03,-1.347283441749317582e-03,7.555384933948516846e-02
3.471380359396154525e-01,5.218371790589180215e-01,4.681227507461320769e-01,-2.419029162891814678e-04,-7.094642507143725241e-02,8.455837454137199102e-03,1.983331292867660522e-01
4.061311376513161986e-01,4.042182459426725272e-01,4.535558927847113675e-01,7.018961594977773423e-03,9.626665493080863861e-03,-6.413449632598568033e-03,5.378380417823791504e-02
4.896579971147232979e-01,4.419033120668574011e-01,4.117526931858213057e-01,1.463453427228905007e-02,4.551670798813856056e-03,-4.017159457125248426e-03,7.336536794900894165e-02
4.064728306146487280e-01,5.950822865388764038e-01,5.880628149276585503e-01,1.009544219192178190e-02,3.570348595087238786e-02,-5.803880145733490356e-03,1.962903141975402832e-01
3.530711164588717921e-01,4.838873325386495172e-01,4.064999654839273613e-01,1.272513491874658655e-02,-4.709790155495711950e-02,7.489451060982466740e-03,1.424319595098495483e-01
4.013263676266491942e-01,3.950267934202990050e-01,4.647861833911450247e-01,-7.941239945092324823e-03,7.203113457169234464e-03,4.408455985117734274e-03,6.978359818458557129e-02
4.321273290949447232e-01,5.013309153145348862e-01,5.520828981864480678e-01,4.088040408116042773e-02,2.298825550068292478e-02,-1.956290886332585910e-02,1.364706754684448242e-01
3.929123546900362141e-01,4.675013658969248143e-01,5.248879892371772771e-01,7.157349778857694834e-03,-8.990683925236337597e-04,-2.042328816290612246e-04,1.152969598770141602e-01
4.682944042565040377e-01,4.835934905092664771e-01,5.649096932036997698e-01,5.926449952891225254e-02,2.553400158646293439e-02,-2.860746473543057666e-02,1.517840921878814697e-01
5.340475547184971861e-01,4.777936875112014370e-01,5.945956341467640849e-01,1.056767744724910058e-01,8.595862267795288669e-02,-2.696569336655270377e-02,2.609357535839080811e-01
3.417829711707728868e-01,4.788067939422376296e-01,4.263926397434495974e-01,-1.510779737402612351e-03,8.479835247915623597e-03,-8.179588743633848733e-03,1.215074956417083740e-01
4.872692672079874665e-01,3.880527516752803052e-01,3.817303385974284424e-01,4.860223304499160582e-03,-3.371613292138515502e-03,-3.323969329929720579e-02,1.180287152528762817e-01
5.038274730075655850e-01,4.371067896731996028e-01,4.333359031383579030e-01,6.577614858640187454e-03,-9.710551782838573037e-03,1.048588682923459574e-02,7.389185577630996704e-02
4.084971257060581173e-01,4.810329166569704551e-01,4.135917490399210195e-01,6.283748407705329591e-04,2.328327377743499935e-03,8.193592836443300016e-04,7.026603072881698608e-02
4.667189013917467100e-01,4.003701710265766267e-01,3.430067885718277587e-01,5.307090728628153023e-03,-5.210136468870422716e-04,1.634428192008219663e-02,1.112897843122482300e-01
9.043270494024274742e-01,8.912976491558046721e-01,3.898147675847715710e-01,1.326789257581803029e-02,3.086103471019074548e-02,-2.240081337327521835e-02,5.129128098487854004e-01
4.165326734937789821e-01,4.162427996705129751e-01,4.469090138712993321e-01,1.809492959452178732e-03,2.412830936353455632e-03,1.569253607573801003e-03,3.108515962958335876e-02
4.026307704689067180e-01,4.921621364580175961e-01,4.997002666785658742e-01,1.157281121405248775e-01,6.056376885707442925e-02,-3.171661525026009398e-02,2.508950233459472656e-01
9.696736045284702621e-02,1.845831363385343482e-01,3.421076996969713568e-01,1.492809642060278219e-01,2.470689614501019732e-02,-1.496644888289819925e-02,3.400732874870300293e-01
4.369501679711750852e-01,5.004320862351264720e-01,5.590896334770060205e-01,5.387288443748245587e-02,4.575902229536585319e-02,-1.502903828498461380e-02,1.638917326927185059e-01
4.866758328515912724e-01,4.404808996434846358e-01,3.405329373866017861e-01,-1.073602682570213608e-02,-8.481212300064173287e-03,-4.797358982596350990e-02,1.555848121643066406e-01
4.484761479252643568e-01,4.091718873344487584e-01,4.150214412656903495e-01,2.440010124777812484e-03,-7.462090320611562688e-03,6.254761827252556562e-03,4.063748568296432495e-02
4.566038628747587369e-01,4.601173851335459974e-01,1.854945479652536366e-01,-1.482772020746413698e-02,-7.275189482926695816e-02,-1.019649211112071685e-01,3.495622873306274414e-01
5.048744843976599173e-01,4.949289712336410463e-01,2.559440473115773829e-01,-1.458059678458090667e-02,-2.102620055718799896e-02,-6.423457025456695557e-02,2.719041407108306885e-01
7.046633092087809525e-01,5.485398286085430009e-01,6.240672343692681423e-01,-4.232600714375500672e-02,3.109593623109204938e-02,1.088787190462744692e-01,2.492516785860061646e-01
4.393731154599133104e-01,1.931943893086719155e-01,4.342286425703677510e-01,-4.892792567891946637e-02,3.932983887795878791e-02,5.500086871699349372e-02,2.833047807216644287e-01
6.259099161531924693e-01,4.235423176426462710e-01,6.038418279839210534e-01,-7.157067549922072058e-02,4.415604375291060785e-02,1.082048784713455780e-01,3.054750859737396240e-01
4.104644401528003694e-01,4.179341412266274203e-01,4.888898272881853080e-01,-1.830671165757677193e-03,5.594743932329488247e-04,1.674998868789464440e-03,7.509949058294296265e-02
4.636919481600990656e-01,3.105874630421643356e-01,4.152757457754081560e-01,-5.005072943183989237e-02,4.440333981519983125e-02,8.197819741066633692e-02,2.279558032751083374e-01
4.239252748291688633e-01,4.281877353081557369e-01,4.259321966476657395e-01,-2.267306912390166206e-03,2.205398255915313153e-03,3.415192247747168754e-03,8.868250995874404907e-03
6.055758813607726720e-01,1.474186770623567011e-01,4.278129724793687250e-01,-9.806652598471805871e-02,8.229098956345504146e-02,1.200938477853321779e-01,5.024922490119934082e-01
3.507754285353289481e-01,-1.368047304150541987e-01,2.031349812803706356e-01,-3.802116428352249333e-02,2.496554377597135638e-03,1.828847850601175440e-01,5.405937433242797852e-01
3.531829996224311596e-01,5.972003182927621001e-03,4.382577819792914386e-01,-1.177716957618996363e-01,4.458548774124354629e-05,8.453595329685090198e-02,4.694481790065765381e-01
4.863207681046658459e-01,2.413202309665485878e-01,4.643536059837881647e-01,-1.169197738032691503e-02,1.298044783174134506e-02,3.535931006951732042e-02,2.445245981216430664e-01
5.524411804288462680e-01,2.637198476144669845e-01,5.171440589235329899e-01,-6.920720562947624277e-03,1.779302187358305573e-02,3.620541985229428633e-02,2.818524837493896484e-01
5.080529958707469262e-01,2.038121076726224778e-01,5.142289218513358406e-01,3.052541175243758502e-03,2.902917171283225795e-02,5.051738861872601821e-02,3.235609531402587891e-01
4.339738788579442508e-01,4.396061766351694322e-01,4.249872812540915756e-01,6.519359459647798734e-03,2.487771176623374512e-03,-2.937111383788628110e-03,1.830436848104000092e-02
4.227040638005717388e-01,4.249885214071839612e-01,4.381205889744618220e-01,4.115772137374393074e-04,1.360894672648778119e-03,1.296698628432896207e-03,1.479115150868892670e-02
5.136263735146620046e-01,4.500566683184720751e-01,3.674509881162210112e-01,2.710991983369811370e-02,3.842490603746722549e-02,-9.036196690374941054e-02,2.173617780208587646e-01
5.454963319662682331e-01,5.081790812570502469e-01,5.327060274792027039e-01,4.504385920626929191e-02,4.304657815396192161e-02,-5.175267986303314083e-02,1.440824866294860840e-01
4.480451220800179546e-01,4.729007196497596044e-01,4.304602664155854352e-01,1.214509725958777021e-02,1.001572650398774647e-02,-9.986878843977382153e-03,4.905892163515090942e-02
4.289978973416743169e-01,4.355993798381122550e-01,4.435278390245780966e-01,4.090924499670768426e-04,1.352675134812861193e-03,3.084977811543586704e-03,1.390403322875499725e-02
4.640182071465697167e-01,5.034485518209073085e-01,4.377959939870070261e-01,2.240427008897900168e-02,2.221182218022174637e-02,-1.609268704784925369e-02,8.389982581138610840e-02
3.923964739426882287e-01,4.818189469329758334e-01,4.383080083587463927e-01,-1.894861897372120477e-03,9.889806962878219115e-03,1.349478499811330827e-02,8.276018500328063965e-02
3.837306163001611981e-01,4.620999626798518167e-01,3.291674569115889959e-01,2.073427041201941681e-03,2.123364588926186097e-02,-1.568676789113783400e-03,1.215230599045753479e-01
4.728628865925126878e-01,3.968714118066348773e-01,4.273276252627696281e-01,-1.909946679104285432e-03,9.110983158816417932e-03,5.819376185579145169e-03,6.891619414091110229e-02
4.841325018012169745e-01,4.470428393826371694e-01,4.050091114243469237e-01,1.797657827301588768e-02,8.291666184464620282e-03,-2.597731742119889845e-02,8.889141678810119629e-02
4.184672010864717850e-01,3.051097221549336491e-01,3.461231417237196628e-01,2.345459566689681377e-02,2.464800119812896734e-02,-5.454585252904529946e-02,1.492699533700942993e-01
4.300852981397040309e-01,4.409537940284831148e-01,3.403612886978255037e-01,2.093338532859488621e-02,1.044139420665566968e-02,-3.039776771395876973e-02,1.164364516735076904e-01
4.272478753902234083e-01,3.647784857176653017e-01,3.516612530339504050e-01,1.597637291763983822e-02,2.201184182816851020e-02,-2.185197065787782347e-02,9.244314581155776978e-02
4.228546599929123850e-01,4.370618202688975606e-01,4.386189573208754688e-01,8.294749814379919048e-05,3.215450416195118639e-03,8.388581792379343552e-03,2.164563536643981934e-02
4.186345948202438993e-01,4.543027991446241254e-01,4.257383836787964060e-01,-7.719052707726214773e-04,1.141320567218332555e-04,4.974219914051053806e-03,3.384317457675933838e-02
5.386009564354148349e-01,4.537594893705190757e-01,3.244268858500508612e-01,-1.767549413013787870e-03,-2.718649509156349092e-02,-8.033709820690251857e-02,2.376690953969955444e-01
4.351875854076528993e-01,4.438821837108050672e-01,4.324426517043910567e-01,-1.513838477127533869e-03,5.203070206517416193e-04,1.837534613152833453e-03,1.117200404405593872e-02
4.470554974373963653e-01,3.419689058522399350e-01,1.820109366650182747e-01,-5.261556530067494804e-03,-4.532964166085107216e-02,-1.111753308654060135e-01,3.110730350017547607e-01
5.029078511704944132e-01,4.854441518909560216e-01,3.633572196085524952e-01,-7.431381509288070841e-02,-4.675378546872861057e-02,-1.351759185686166598e-01,3.086830973625183105e-01
5.729959814270054741e-01,4.408532719976968606e-01,3.740620494947526353e-01,-5.279195781503762813e-02,-7.211228474943863487e-02,-8.770419238492035974e-02,2.789019942283630371e-01
5.819769720262494284e-01,5.123711018749712576e-01,5.166818804702886236e-01,-3.834926012198872775e-02,-1.134497234075196141e-02,-6.929066929275490283e-02,1.541597098112106323e-01
5.812056851774807242e-01,3.245770716811078316e-01,3.007424632739165160e-01,-2.754526288425071176e-02,2.584565397518476509e-03,-1.178014641034445392e-01,3.412781655788421631e-01
5.107324896047854557e-01,4.705812746849996064e-01,4.831418884856155671e-01,-3.838462420274534048e-02,-2.716237809647541537e-02,-7.341287248046102221e-02,1.551368385553359985e-01
5.121471302510514079e-01,4.840629358005780203e-01,4.746242497345790068e-01,-2.345964787467421861e-02,-2.075119156028311374e-02,-3.900902656947487918e-02,9.301022440195083618e-02
4.295721984017296102e-01,4.613310082588892302e-01,4.272358748878968271e-01,-1.875538015623462321e-03,2.786895232853775928e-03,1.350959502767661155e-03,3.357987105846405029e-02
-7.835835527803602929e-02,3.854702053839896836e-01,4.354971645142594605e-01,-1.015458940364838275e-01,1.993552093002207148e-02,1.558790253879912407e-02,5.231629610061645508e-01
5.521575287927669162e-01,5.373357249639960642e-01,3.393112159083151447e-01,1.057328375329146843e-02,1.788708738635347295e-02,1.404361978053734333e-02,2.103696018457412720e-01
3.614359071696857661e-01,4.988404022802852555e-01,4.527995154231187480e-01,-7.839017024851497369e-04,1.044141634482925046e-02,-2.412974099489543795e-03,1.225557625293731689e-01
4.734285438832037674e-01,4.094203473244499847e-01,4.393826717858729802e-01,-1.528039782465877988e-02,-1.664403200815055273e-02,-2.398434205277526210e-02,7.958796620368957520e-02
4.647902472621675551e-01,3.864663543751235553e-01,4.506952469236564229e-01,5.131312050199528935e-02,2.769527616480932028e-02,-3.868950673816631131e-02,1.411387771368026733e-01
3.488828289416591732e-01,3.170807517846264689e-01,3.092202130319553488e-01,7.185634312477126584e-02,8.394684501305445246e-02,-8.882718845892360882e-02,2.482441812753677368e-01
4.650968911292013841e-01,3.482771417847934647e-01,4.342234981945871652e-01,2.426274569533909756e-02,2.385497095478914323e-02,-4.373515906271002729e-02,1.421439796686172485e-01
6.342858319357049801e-01,4.414491561601520120e-01,6.542143392102601762e-01,7.696304917162183346e-02,2.643448489655847097e-02,-4.723387761788572919e-02,2.607402503490447998e-01
4.040915609799651254e-01,4.829032956527988807e-01,4.086148874467361858e-01,4.233926722743204963e-04,5.108925428547771624e-05,1.576147188861945362e-03,7.670239359140396118e-02
4.755217105441247871e-01,4.925809705645303183e-01,2.848068426185142998e-01,-1.237907547106622749e-02,1.516124600648264924e-02,1.092798497864574253e-02,2.035293877124786377e-01
4.530278504855632660e-01,2.315314573896230799e-01,4.525541994556918080e-01,4.844510448675282827e-02,1.492357167151346989e-02,-4.060279563336262332e-02,2.482149302959442139e-01
5.250529786922839559e-01,3.490635927981953213e-01,5.048674407692311794e-01,6.516876753999284455e-02,1.983241523570003495e-02,-4.110607080729111740e-02,2.163730263710021973e-01
4.386570891144841444e-01,5.000165764532236157e-01,3.092103715715486256e-01,1.168457237940440270e-02,2.744478897610525339e-02,-4.525565965549571343e-03,1.766207814216613770e-01
4.699225928862815760e-01,4.506921656091458228e-01,4.956028346388872685e-01,8.014146636681911129e-02,5.292794930106563961e-02,-1.132959821480124252e-01,2.601982653141021729e-01
5.517325735177940338e-01,4.181168046867785315e-01,4.931576696992143738e-01,4.926613374955383928e-02,2.890433441575453177e-02,-8.520984806333649353e-02,2.121971994638442993e-01
4.038535083981833473e-01,4.460466548859408076e-01,4.229613176513538075e-01,1.906788369542115414e-03,3.320552892018051924e-03,-1.228728747072287304e-02,4.284938052296638489e-02
4.627804868248514003e-01,4.159242794929104425e-01,3.818548093687880174e-01,5.720951702006625735e-03,2.344073701290693389e-03,-6.302274602629869688e-03,7.201685011386871338e-02
3.233944182904048281e-01,4.269616174636980954e-01,2.669571362934259895e-01,-8.891628770322405201e-03,-6.725560444920024306e-02,-3.289499006744659067e-03,1.832920610904693604e-01
4.431206032316299392e-01,4.837660195391360052e-01,3.017181789085120469e-01,-2.338114453074498916e-02,3.240371467672582134e-02,7.517674773826952400e-03,1.798711717128753662e-01
3.782280640937267790e-01,4.531550045272321192e-01,3.332323531927178784e-01,1.373036446475106413e-02,-3.491916985627968595e-02,1.840788837767153713e-02,1.274763345718383789e-01
4.078371106798939216e-01,4.844177186249080669e-01,4.140163663156820051e-01,-1.176850218761879606e-03,2.489648497484439290e-04,-6.966198170144598766e-04,7.372488081455230713e-02
5.618872100656668866e-01,7.169975440367807318e-01,5.807593501042508377e-01,3.835669130313431457e-02,-1.327543030102283361e-01,5.146960389571274275e-02,2.944830954074859619e-01
4.523039779467991628e-01,4.967546819847822315e-01,3.697309779779611727e-01,-8.976248757087773589e-03,1.412366906078905450e-02,1.609559137929056892e-04,1.153465434908866882e-01
5.144192483091791779e-01,5.846286014975272671e-01,3.990351186789171667e-01,1.272736008652223909e-02,-4.719839517977784948e-02,-5.145480879718644304e-03,1.832821518182754517e-01
2.984878290579978666e-01,4.426917224510887316e-01,3.279663252831817033e-01,-1.144342717607831246e-02,-6.279699689795964490e-02,-1.122579940890834627e-02,1.732458621263504028e-01
3.530124723449823421e-01,4.014775612092565393e-01,4.596631505670992768e-01,2.037824801864690852e-02,-3.450301567734476420e-03,6.987357142738988627e-03,9.991195797920227051e-02
4.022826710299470809e-01,4.002597986382625539e-01,4.710012263913828656e-01,2.371848299240147950e-02,-1.005714884046351489e-02,1.752640562304776800e-02,8.819299191236495972e-02
3.901024327814868187e-01,4.032290030621389909e-01,4.125895952837690395e-01,1.169653301117679414e-02,-2.160096974922206051e-02,1.591816819727584834e-02,5.434332042932510376e-02
4.640040886298417155e-01,4.385885674445035853e-01,5.088918209068384879e-01,1.875496266332211948e-02,-1.619709404573136530e-02,1.629988001748599105e-02,8.025611191987991333e-02
4.032295125673149294e-01,3.642339102976245857e-01,4.443803115035457885e-01,2.990503603325389906e-02,-2.986183883589619073e-02,3.149089702824649922e-02,1.146817207336425781e-01
4.530216008861657206e-01,3.498958412621248626e-01,3.433899288402352257e-01,4.656613480554139262e-02,-2.326762076658367775e-02,9.057641802543490994e-02,2.099757194519042969e-01
1.478971497826538917e-01,5.751379563296108444e-01,6.289552802774640572e-01,-3.199000588376302995e-02,-1.751986965243555738e-02,-4.129580344844305251e-02,4.664020836353302002e-01
4.255949941970778583e-01,4.249034037840195843e-01,4.244724347494613359e-01,1.602679265361253019e-03,4.058442975213973698e-04,-1.764207860509204098e-03,4.301074892282485962e-03
1.439097811673911709e-02,4.752134236520706434e-01,5.873531787708141660e-01,-1.166783136961115769e-01,-7.208615120444582247e-02,-8.094353331415244518e-03,5.772663354873657227e-01
3.806948923179989119e-01,4.910161698002277197e-01,4.170595660169880703e-01,2.639588399538606630e-03,3.999999562390114255e-03,-1.259793550571533397e-03,9.774988144636154175e-02
4.118556564931701303e-01,4.637703946822218648e-01,4.628021618836501982e-01,3.736632175163485427e-03,4.790355757151094039e-03,-1.374961778675288029e-02,5.765151977539062500e-02
5.335102182257251968e-01,8.083607239361974006e-01,1.057696236025326364e+00,-8.626563675602128001e-02,-1.265533800515270813e-01,2.888482688923141566e-03,5.259644389152526855e-01
2.839767083319516550e-01,7.944254634977256924e-01,7.896408615003948084e-01,-7.538791734756736251e-02,-5.481272036561023880e-02,3.792746061690648041e-02,5.371381044387817383e-01
4.805291507456138644e-01,5.725799208402233553e-01,2.843758063260586333e-01,-4.798952950974197385e-02,7.143722942450467239e-02,7.779868397093972487e-02,3.246263563632965088e-01
3.555913359207832358e-01,1.636144218294846575e-01,2.675865756290255471e-01,-1.101257168748550896e-01,-1.509096365584586263e-01,-1.810993556621939005e-01,4.804166853427886963e-01
4.663941629538341793e-01,3.648435889759344963e-01,5.244935504621351940e-01,-1.098364623634510012e-01,-4.667555175051178729e-02,-2.356760064085009765e-01,4.784826040267944336e-01
4.078932364415258638e-01,1.874275688803544448e-01,3.275968756082310862e-01,-4.612288415260969859e-02,-3.015006228799687465e-02,-9.193651189980686644e-02,2.679851353168487549e-01
4.368258088050363530e-01,4.122004927280032427e-01,4.186616457889915099e-01,4.241031360410027484e-03,2.551215290146110169e-03,-1.687364124399134448e-03,2.389710210263729095e-02
6.452672287277325669e-01,4.620760348776828397e-01,5.665353508920432102e-01,-5.006074417319471281e-02,-4.225781890166643850e-02,-1.070535255631945848e-01,2.694281339645385742e-01
3.931325527231562811e-01,5.880990377249046830e-01,5.320105275575597314e-01,-4.082980983272294084e-02,7.702350244621425368e-02,-2.325180218748081756e-02,2.337594777345657349e-01
5.531222428056253859e-01,2.698607090139659714e-02,3.590459442293956194e-01,-5.604831442941155678e-02,9.351308003629316135e-02,-2.435998179668764640e-01,6.527290940284729004e-01
4.055673201075973844e-01,4.516179871582968186e-01,5.173258739949055940e-01,3.255290334929885482e-02,1.042529645565750535e-02,-2.093677509067394960e-03,1.139401942491531372e-01
4.807648313387913319e-01,4.996480278144792564e-01,3.300457839188795095e-01,1.509772727754447527e-02,1.116965336271728317e-02,-1.461653017033378958e-02,1.661863476037979126e-01
2.340668320035644012e-01,4.827303416309998152e-01,5.532439644224524944e-01,-1.061732129530503360e-01,5.359324911868137281e-02,-6.157142622256282088e-03,3.562142252922058105e-01
4.399091456589867000e-01,4.301336781391109643e-01,4.251948274418608231e-01,3.958335968602071271e-03,7.648000071603492950e-04,3.129855382533275419e-04,1.474060676991939545e-02
2.880924316953900610e-01,3.058695298454822131e-01,4.851643441680286717e-01,-1.123636121327735299e-01,1.284645556399382181e-02,4.629006132178803412e-02,2.836373448371887207e-01
4.081162277209489653e-01,4.409437099633340407e-01,4.000187199438553498e-01,6.509385155720789039e-03,2.955686814593885305e-03,-3.235646028186709051e-03,3.992201015353202820e-02
4.411877254668640225e-01,4.644131822491668893e-01,3.620469921583019945e-01,8.371174499673214586e-03,9.968133592732904974e-03,-7.518461568620481150e-03,9.653320163488388062e-02
2.745577603534592459e-01,5.789121740218542422e-01,5.655300907031007851e-01,-1.108741410491241725e-01,-2.008977759679516154e-02,-1.775007632651668180e-02,3.574534952640533447e-01
3.508453398557060399e-01,4.601275105314120983e-01,5.182023736588088347e-01,-5.747181972645568765e-02,1.052322614705412246e-02,9.146847266246829755e-03,1.793155521154403687e-01
4.522900496284584237e-01,4.148735263624970249e-01,4.235594070100829334e-01,2.378867845387629045e-03,9.577345767376599026e-03,-1.098204348341376771e-03,3.802916035056114197e-02
4.447137457136011718e-01,4.832174070304461888e-01,6.775596811529218666e-01,-1.034501569640781660e-01,2.294864486380570473e-02,-5.697838896271115693e-03,2.837559878826141357e-01
3.980415550522388712e-01,5.469195951971691505e-01,6.017392058122987830e-01,-1.053051068316373379e-01,2.147673302832002820e-02,5.293251430969785065e-02,2.763839662075042725e-01
4.607979437151114577e-01,5.112837443214843791e-01,3.719062025481681966e-01,9.330124974073195770e-03,1.111330314729910840e-02,-4.436527596032063987e-03,1.250161826610565186e-01
6.042148852350007759e-01,4.396597477845042845e-01,5.394559296260652559e-01,2.113623989421328786e-02,1.312746873018481863e-02,-5.273452753562778844e-02,1.755440086126327515e-01
4.378028995480849339e-01,2.613501752641093079e-01,6.642746021054604655e-02,-4.872194644100853039e-02,-2.299977127372506563e-02,-2.039402186840681697e-01,4.868350625038146973e-01
4.266309335009281778e-01,1.172997977915387624e-01,3.156329859324049636e-01,-3.392437584428298347e-02,-2.370140019638114146e-02,-2.116090151345589310e-01,4.616753756999969482e-01
5.951651722323274551e-01,4.402817359229483918e-01,2.818485400711860378e-01,4.766448892151890077e-02,-1.172615869041899878e-01,-2.507062888185161986e-01,5.570063591003417969e-01
4.498292769452790774e-01,4.260959115823337306e-01,4.061251486459581117e-01,9.558087378305962778e-03,2.654651796566708487e-03,-5.752031090060788152e-03,4.278489947319030762e-02
5.383424416232630572e-01,2.719497780790314234e-01,4.179711012449930929e-01,-9.471753009840629123e-02,1.789655329443496853e-02,-2.593689373536632314e-01,5.320526957511901855e-01
5.812832514036226916e-01,5.161313645738242473e-01,3.657761744049830011e-01,3.322394186093292467e-03,-1.154112636710808749e-02,-1.013061605564951201e-01,2.605165839195251465e-01
4.280148376916379505e-01,4.388908637161782478e-01,4.231940433910301724e-01,2.346007338382479802e-03,7.173421203409220594e-04,-2.353949015241965821e-03,1.512075774371623993e-02
4.351387553292853094e-01,4.118360519210561566e-01,3.787878633114173943e-01,-2.685456164893091496e-02,-2.683569187611329482e-02,-2.932273074852746741e-02,9.648182988166809082e-02
5.272940082930315242e-01,4.598335433030084629e-01,4.232561568495143423e-01,-3.740664947463997764e-03,-3.327962878042281959e-03,-3.277254661560982663e-02,1.079521626234054565e-01
5.128235888123944264e-01,3.529330688527647086e-01,3.773081600111838907e-01,-6.180896972631508279e-02,-9.575465866833066109e-02,-1.328702389662038963e-01,3.379248380661010742e-01
4.734613294418957841e-01,4.864459737266592643e-01,3.916767823667584580e-01,-4.750684481998519032e-02,-5.569380798178191760e-02,-1.008288547574085203e-01,2.334410697221755981e-01
6.841421891440653269e-01,5.177692835096139312e-01,4.585457542138710596e-01,-1.010916513783268042e-03,-1.849448666490145776e-02,-1.414781672972298676e-01,3.195590376853942871e-01
3.512539473119200562e-01,3.648859258761409374e-01,3.309060208975673212e-01,-3.204529634617822587e-02,-3.448246885353428715e-02,-2.804366968985130132e-02,9.942041337490081787e-02
3.608818711590210948e-01,3.584787279402020244e-01,4.550553877740343145e-01,3.212872831482221220e-02,2.046990053264893198e-03,-1.104881990423035951e-03,1.105157807469367981e-01
2.651585453997838404e-01,3.168897554270258543e-01,3.889397847916989392e-01,9.460044262485728384e-02,5.655795707404867589e-02,-5.399996782554125629e-02,2.382995784282684326e-01
2.722792855677552692e-01,1.338481501149460795e-01,3.135272499933924872e-01,1.075745116855673089e-01,6.316945126031545121e-02,-6.066416213407339192e-02,2.903497219085693359e-01
4.278203034557832574e-01,4.134991949967737335e-01,5.544388208788889605e-01,8.589285989678488442e-02,5.348383824520817204e-02,-3.275953097402472397e-02,2.280011773109436035e-01
3.340333615204250095e-01,2.910827244067025754e-01,5.816911788046539300e-01,1.275511891730199687e-01,9.281100559007843948e-03,-9.512349082683594151e-03,3.509330451488494873e-01
4.324571525282564499e-01,3.792391218574185374e-01,4.826236819086964780e-01,3.649524721273696148e-02,1.555071138415963124e-02,-1.784181328886596390e-02,1.170246899127960205e-01
3.948213461175961170e-01,4.397327884996924396e-01,4.841651051725662236e-01,1.159645364555325631e-01,9.103230365419896081e-03,-8.772048806191330705e-02,2.639381885528564453e-01
3.583668313321694554e-01,3.337791130642322468e-01,4.430524616107149871e-01,8.439317797047517222e-02,5.489575472689845609e-02,-6.107067982954562241e-02,2.268360257148742676e-01
3.727478168649236423e-01,4.135814307930587019e-01,4.902422987960394218e-01,3.591161360692093213e-02,1.974389561815275210e-02,-1.666835116782623694e-02,1.286332458257675171e-01
3.721145378835162831e-01,3.186314679993321741e-01,4.711739484992454319e-01,5.656074256744220152e-02,3.026266061613806790e-02,-2.798264167360146187e-02,1.807349771261215210e-01
3.398328212543917370e-01,6.252383202088477310e-01,6.052359468630779116e-01,2.608281395833360501e-03,-4.546934106474831427e-02,-8.353255333568582880e-03,2.873668968677520752e-01
4.168706431933808521e-01,6.391794728913222645e-01,5.954193819677489063e-01,8.754040778424974911e-03,-9.634309410143042374e-02,-1.526817213175672185e-03,2.639901041984558105e-01
2.513016473879017831e-01,5.463173776718813768e-01,5.699625030841951601e-01,1.782798548485205973e-03,-7.578719056836794032e-02,7.045990116065915798e-03,3.346021771430969238e-01
2.798782945470816852e-01,6.829901298280505184e-01,3.829329756003287399e-01,-5.331822008371155802e-02,-1.657437547845781178e-01,-3.536534714965451631e-02,4.756789505481719971e-01
4.308735759674194310e-01,4.280290666216800544e-01,4.287212180899435121e-01,1.040705224511080575e-03,-5.485377253595467156e-04,-9.206042098663292815e-04,3.646353725343942642e-03
3.959340843761913753e-01,6.202566325136471548e-01,5.794052194745279438e-01,-4.131166431270105743e-02,-2.383882324693842314e-01,-3.841152797755070097e-02,4.720791280269622803e-01
2.111693123089329049e-01,5.124071146235784635e-01,3.306220860680343931e-01,-5.539018984278770708e-02,-1.697774829863266388e-01,-2.492347161921283291e-02,4.081304073333740234e-01
2.133389259777861147e-01,5.257421471972602012e-01,5.559549156541492287e-01,-1.188167770084166269e-01,5.163667574171807578e-02,1.129813456911616699e-02,3.983483612537384033e-01
3.667032103805508148e-01,5.963742531946696346e-01,4.525114638706062009e-01,-4.302557068726670791e-02,-1.375315217829967129e-01,-2.298259419578707607e-02,3.229351937770843506e-01
3.312248498230788707e-01,5.162667962290409251e-01,5.402284181913270533e-01,-4.541165391398338524e-02,-1.356003037154960775e-02,-1.144590263709756956e-03,2.144546508789062500e-01
2.800282858071474479e-01,5.827709200343725859e-01,5.712427840188223360e-01,-1.017223867192556669e-01,-4.138527924500927380e-02,-1.772300080782987508e-02,3.541451990604400635e-01
2.437500510636786133e-01,5.094745399765103766e-01,5.395576954441420048e-01,-8.029804554134160888e-02,-1.275839089456297717e-02,-2.971512379313798885e-02,3.193570971488952637e-01
4.325495887490407587e-01,4.536239509321894903e-01,4.134008897397586368e-01,-1.105738767371896789e-02,5.878173444601616365e-03,4.364349875372553096e-03,4.173663631081581116e-02
3.464139514815984811e-01,4.943718253149404496e-01,5.787263442446731743e-01,-7.026625629526030148e-02,1.088723600732737634e-03,-1.425523280056909328e-02,2.385652214288711548e-01
3.933555594255262466e-01,5.429331655166512727e-01,5.242285647731739218e-01,-3.782073144254329000e-02,-3.946060021473999507e-02,-1.761804210717396110e-02,1.726828217506408691e-01
3.030428441489624869e-01,4.452044667879638817e-01,4.245772832355406701e-01,-4.681671153120075396e-02,-5.052462236201907264e-02,-4.723055082111640018e-02,1.965421438217163086e-01
3.177667296952952913e-01,4.326488394954435823e-01,4.307478989924329871e-01,-5.466528250591102395e-02,-3.170431422544152389e-02,-3.392721762732513191e-02,1.685724407434463501e-01
5.063260577439886445e-01,5.077930092125875206e-01,3.298613949777177701e-01,-2.978816472119204251e-02,5.176387415729384600e-02,3.300234122741876192e-02,2.129994332790374756e-01
3.376779671541459416e-01,4.724475446467141238e-01,4.836090728924856696e-01,-7.525712809461607145e-02,-1.078087579385184208e-01,-7.813274914704262941e-02,2.999415397644042969e-01
3.131103384826721681e-01,4.961789856349461125e-01,4.642925901710626690e-01,-8.146323868426229298e-02,-3.894786445816526138e-02,-5.306854769412188561e-02,2.481972426176071167e-01
4.011650894992923044e-01,4.501204376197651680e-01,4.460293101865435150e-01,-4.992796766969483449e-03,3.890169640144661416e-03,9.473860500970555584e-03,5.101497098803520203e-02
3.886678756410671953e-01,5.049337619586891091e-01,5.182303765874093360e-01,-7.235717249313743105e-02,-7.617728341504843848e-02,-4.235692089946400257e-02,2.318155318498611450e-01
4.012682764311116257e-01,3.959783710948397428e-01,4.574585101278937360e-01,-1.844051331405411470e-02,1.979435933878442508e-02,1.521207262397129834e-02,7.982728630304336548e-02
4.070340503987591729e-01,4.529062839303603649e-01,4.339611659394225773e-01,-1.622912517339886868e-03,3.445076951038563047e-03,9.877956760605701922e-03,4.393579065799713135e-02
3.880162836045734642e-01,6.263966814563066698e-01,5.234761907639912115e-01,-4.743150550786971731e-02,-1.273913693526717572e-01,-2.734069406933146290e-02,3.171136677265167236e-01
3.268914197235247565e-01,5.780934358380942495e-01,4.840825506121169686e-01,-6.483884373482524943e-02,9.576302811471724963e-02,1.702864071042240607e-02,2.988621592521667480e-01
4.562491613328933937e-01,4.375083472200087531e-01,3.043547974767815134e-01,-3.548604590487670213e-02,5.495564077601931829e-02,8.468917551456368875e-02,2.343745082616806030e-01
2.271494385280600770e-02,3.233604045386582193e-01,2.769936784634723370e-01,-8.909374238121504919e-02,2.160720462754311955e-01,1.039371359686369484e-01,5.242908596992492676e-01
3.078486024508300667e-01,7.022599941281294500e-01,6.132910899659440584e-01,1.832976709938889670e-02,9.960392986916428992e-02,-5.895583470257467762e-03,3.990745544433593750e-01
3.142630710769849234e-01,5.747560124058334052e-01,5.977370495327665179e-01,-1.846329275280815529e-02,9.481462554926448072e-02,1.008710627582736635e-02,3.204191923141479492e-01
3.025736225056972484e-01,5.729648928686628118e-01,5.163456868278385459e-01,-5.318113214258243793e-02,1.063992972500221040e-01,2.630248969969447778e-02,3.248544633388519287e-01
4.391102105276053491e-01,4.084558981292690238e-01,4.227956636300866378e-01,-7.002365802049254247e-03,1.553981971147682523e-02,5.336036051239145470e-03,4.077643156051635742e-02
4.969379202210992275e-01,3.469713207354336859e-01,5.653754514195415970e-01,-9.652747541068483483e-02,7.353980341752490435e-02,6.499271781224284783e-02,3.070605099201202393e-01
2.235728957051480448e-01,5.412495483213712877e-01,4.239815054792326898e-01,-9.401799345650718731e-03,1.041532703486657135e-01,1.857160352903057879e-02,3.335573971271514893e-01
3.898283435279959463e-01,4.769541325206380633e-01,4.044075823222207378e-01,-4.511965281483495526e-04,7.237285715386434538e-03,4.831916433213917332e-03,8.222540467977523804e-02
2.541927586530943750e-01,4.647333992314136575e-01,4.644557782126398360e-01,-4.366422882822577900e-02,3.916806097906353618e-02,2.695004678231590484e-02,2.382645756006240845e-01
5.451313639256420984e-01,2.656396713894884076e-01,4.434017980852994478e-01,1.089991577352814600e-01,-3.964821674402631280e-02,1.493690479299306373e-01,4.090521633625030518e-01
7.392923808130383856e-01,3.539856575256252191e-01,5.979402490025019778e-01,8.720080843429890705e-02,-8.639714713146456893e-02,1.619807907466278007e-01,4.877462983131408691e-01
8.295493487184493198e-01,6.272023036877258928e-01,6.664595399498454142e-01,1.040918003227418454e-01,-1.826538408046855105e-02,2.057711484208818997e-01,4.416710734367370605e-01
9.107040611262238183e-01,5.458924380100076412e-01,6.365266685198985863e-01,2.645841087963725705e-02,-4.302396600357925871e-02,1.627952715199871836e-01,4.420383274555206299e-01
5.338432846459055803e-01,2.816487763924127585e-01,4.244463703687377798e-01,8.021404789465387541e-02,-3.481059122828799451e-02,1.964037053227401519e-01,4.320207238197326660e-01
4.114079975405700029e-01,4.647094898455073619e-01,3.623430515584453726e-01,6.561627033786910333e-03,2.308742732582409057e-02,-1.279143647371318131e-02,1.004129871726036072e-01
4.090068111534685968e-01,4.774134902485051568e-01,3.569940112493651396e-01,-5.736931157999695594e-03,1.332507118796354313e-02,1.964633652044051482e-03,1.076374351978302002e-01
4.411158501369303320e-01,2.148691944382097596e-01,2.654758353474078181e-01,7.951879811702840251e-02,-7.559621152200957095e-02,2.045887283000896728e-01,4.516444504261016846e-01
4.538652836458639817e-01,4.952376165320527823e-01,3.272578352633701559e-01,5.946913313859897993e-03,1.979743215672184753e-02,-2.954502347537296160e-03,1.558437049388885498e-01
5.177575117373428570e-01,5.243330034176575394e-01,4.657596584683704188e-01,-7.221313695391223808e-02,-7.092349478782380978e-02,-1.091068214243502282e-01,2.636976540088653564e-01
4.760761609253579829e-01,3.779387247789600113e-01,3.574847144970070278e-01,-2.556304538411962451e-02,-2.556342871273727113e-02,-5.471791229423498409e-02,1.579862385988235474e-01
3.813462030165839511e-01,3.954175998704219097e-01,3.791004558276822589e-01,-3.054469825751702713e-02,-3.685394656609284475e-02,-3.107209476388966482e-02,1.000232473015785217e-01
4.640217956692067047e-01,4.455246162763326634e-01,4.475584769883390046e-01,-5.337104924734902868e-03,-9.064935009334690666e-03,-5.301072397760888885e-03,2.692468836903572083e-02
4.102001250265595589e-01,4.223827675827145356e-01,4.469711934244823826e-01,4.001779508143236269e-03,4.180819675197803599e-03,-1.280526627743134443e-02,4.055816307663917542e-02
4.488088269484822868e-01,4.018558946174377033e-01,4.024158223899447773e-01,-1.266942359609198043e-02,-1.321037378729215950e-02,-1.311222033865780921e-02,6.082332506775856018e-02
5.854666521581363137e-01,4.538735154933851712e-01,4.679039227332173478e-01,3.918050441689411786e-03,-3.390294487720151451e-03,7.205665658773655058e-02,1.769867837429046631e-01
6.243380856909643839e-01,4.291806679142026182e-01,4.235132802435446209e-01,-2.222905677703604366e-02,5.050847755135908466e-03,9.224278282835607357e-02,2.575066685676574707e-01
4.973036427644766944e-01,3.802523741276899738e-01,3.799242063634675204e-01,-3.779189383972723221e-02,2.639869228542893534e-02,7.214734022718870265e-02,1.890253722667694092e-01
5.446725530100594570e-01,3.920943008932422646e-01,4.810864428709660245e-01,6.850426288289359136e-03,-5.477200390193577746e-03,5.574117937499827730e-02,1.648438125848770142e-01
3.026201673255760616e-01,5.174964887593580531e-01,3.979825555417801919e-01,7.202755166140106802e-02,1.513914618154893754e-01,-6.656985320367933556e-02,3.638562560081481934e-01
4.242938107519199642e-01,4.138111845975349645e-01,4.782598923031198268e-01,1.921341699701624569e-03,5.394309543651067650e-03,-2.540002761363306574e-03,6.087408959865570068e-02
5.173987009484307675e-01,3.232988329107090442e-01,4.485605827252231448e-01,-1.443892337222444679e-02,2.104777242302434750e-02,5.337662627932899390e-02,1.988809704780578613e-01
4.988388368021998698e-01,3.856098187368037777e-01,4.144129489793954013e-01,-2.613527988501668578e-02,1.589010944191659655e-02,4.716380686527906624e-02,1.409574449062347412e-01
4.101960268766927653e-01,4.181359482407334682e-01,4.291421134976244889e-01,5.123102313792669837e-03,3.779566730155818014e-03,-7.987044556295322742e-03,2.417723461985588074e-02
6.205937376769756764e-01,8.588834540554621810e-01,8.196566810466028308e-01,1.434818566215924351e-01,1.327456479822618496e-01,-3.959157498253113028e-02,4.102453291416168213e-01
5.685744752423175230e-01,4.617160838501163100e-01,4.973988045425675741e-01,-3.038281576644435988e-02,3.346128967046772817e-02,8.247160837341661888e-02,1.881807446479797363e-01
4.396749199091962712e-01,1.665596649649477567e-01,3.538824543480836859e-01,-1.484882025284989422e-02,8.939803546474247437e-03,1.214410527831520370e-01,3.219721615314483643e-01
6.243406458050220209e-01,3.117018615132626236e-01,5.508514760643457020e-01,-7.574392885854729085e-02,4.024841760569045773e-02,1.406517662974407501e-01,4.019802212715148926e-01
3.733367751377873467e-01,3.436487536354269068e-01,5.002833928806659225e-01,5.679766991401580256e-02,1.854671952118235392e-02,-3.190335850212867863e-03,1.774993538856506348e-01
3.841844444016583870e-01,1.658631754275488035e-01,5.452044916923052265e-01,1.005180639428381456e-01,1.084759255681090780e-02,1.287789624407514877e-02,3.740426599979400635e-01
4.907138157114899202e-01,4.214835433314484958e-01,4.404681404956961033e-01,2.524778229481522852e-03,1.097086066159633916e-02,-2.413006475052493528e-03,6.508922576904296875e-02
3.735486120911490904e-01,4.041282073742327730e-01,4.693359157204470278e-01,2.966475561879382272e-02,2.103904564658809484e-02,-2.188287481701237450e-02,1.121859177947044373e-01
4.553897610618407032e-01,5.235875691526771236e-01,6.598876839154259599e-01,1.282118523369037144e-01,1.033280284642163621e-02,-1.020842411502372038e-02,2.871790528297424316e-01
2.714128428645251057e-01,1.255823805120730441e-01,4.787255318957696071e-01,1.908531017384970940e-01,2.252430003939739564e-02,-2.089942547565440054e-02,4.545158743858337402e-01
3.182400163665632387e-01,2.806330054035398036e-01,4.070488061572635208e-01,5.879967943769643518e-02,1.135251609807845334e-02,-1.510937967772225943e-02,1.551929414272308350e-01
7.313091609736241949e-01,5.531223653542494123e-01,6.138746198023664613e-01,5.975689589257937584e-02,-4.464684321547885554e-02,1.378539585406090007e-01,3.135600984096527100e-01
4.046808689884270338e-01,4.336776064653775631e-01,5.028325434404823380e-01,-4.740606300781883414e-03,2.184556358260058163e-03,4.451036334567557914e-03,8.814565092325210571e-02
4.783355498633599656e-01,4.269147320210329166e-01,2.604691639453559637e-01,4.285593984931683476e-02,-1.927262079588255503e-02,1.342990287973920005e-01,3.156578540802001953e-01
4.685057342137787795e-01,4.215710539129272627e-01,3.344719384703683795e-01,-1.066601971919389595e-02,1.349583893124616700e-03,-7.916001517132512794e-03,1.200492978096008301e-01
4.131725006792064669e-01,4.539756581501590005e-01,3.920325619310758292e-01,2.662807820119641664e-02,-2.955086088081814930e-02,2.513735326871328543e-02,9.806606918573379517e-02
4.860870391861052964e-01,5.298973980209835677e-01,3.946185253093408840e-01,1.468682868252846156e-02,-3.864330893526427002e-02,1.743704736357412632e-02,1.425913125276565552e-01
4.187314164886193346e-01,5.160168995326355201e-01,4.467847618185400438e-01,1.122048146499854057e-02,3.375431289126740869e-02,-1.960923400938507227e-02,1.116763055324554443e-01
4.399423495036984821e-01,3.761318863190541428e-01,4.486734439998104063e-01,4.433542764102940681e-02,-3.697745721277131969e-02,5.145258291616161550e-02,1.504863202571868896e-01
5.483821670522195380e-01,3.050783398429056659e-01,4.587721832011876222e-01,4.654929548563290637e-02,-1.542228520513510247e-02,8.869596519109453070e-02,2.761145234107971191e-01
1.687132914605408707e-01,4.845479838787688509e-01,4.699246083427422449e-01,-2.382316459824049271e-02,-3.266763302942721041e-04,1.291239346381159794e-02,3.123298883438110352e-01
3.509601013050277496e-01,4.625564387445864623e-01,4.304701352778685375e-01,-2.899813333648915137e-03,1.290921849922982943e-02,1.287439140194518439e-02,1.045226305723190308e-01
4.184180820649089916e-01,4.261265087836347276e-01,4.506192774485586749e-01,-1.166247953155173092e-03,2.574848124124770165e-03,8.300533754289955712e-03,3.284483030438423157e-02
5.312359265202124536e-01,3.905782102062880234e-01,4.955458008716925877e-01,3.270418070893209295e-02,-2.968830231683138032e-02,4.143473590799166134e-02,1.644435375928878784e-01
5.079455979021727519e-01,4.570689635493013769e-01,3.749008604330684724e-01,1.412815699945351063e-02,-2.644477843264867942e-02,4.094749493211495561e-02,1.457647085189819336e-01
2.946518448638691390e-01,5.068256930655069548e-01,4.587439721193007913e-01,-2.543366103017153431e-03,1.196798584640709588e-02,9.043606476424756457e-03,1.944797486066818237e-01
5.212457398033825129e-01,4.073469285954325336e-01,5.001037309531847219e-01,3.258637739232775332e-02,-2.753453124459374554e-02,5.669005982454485004e-02,1.615958809852600098e-01
4.869914803773508494e-01,4.507595486406125729e-01,4.283407367434396984e-01,1.222892410070753645e-02,-7.471218283531067504e-03,2.390514925491005541e-02,7.041376829147338867e-02
4.269957872440486302e-01,3.745907049043116221e-01,4.427739391117141987e-01,6.729816255189292884e-02,-3.635094138199672364e-02,6.559189410620246130e-02,1.851493716239929199e-01
4.576459095277624622e-01,4.040652836557153127e-01,4.535533458558283493e-01,-4.962608275061611805e-03,1.400807708013801847e-02,4.703186322525448014e-03,5.828611552715301514e-02
4.093680559329911373e-01,4.589107512889817331e-01,4.577123342529514916e-01,-4.967698428841274549e-03,3.806052116473800529e-03,1.180155281335662498e-02,5.414669215679168701e-02
4.497575981920605703e-01,4.330867623119272203e-01,3.715739062403032866e-01,-3.521359802103429110e-02,-3.432328298553545542e-02,-3.492237631929072383e-02,1.264918595552444458e-01
4.585869492899378175e-01,5.127883926253371527e-01,3.657255430944111874e-01,6.360785675962307706e-03,1.341317150140368050e-02,-3.514919236779635858e-03,1.315007358789443970e-01
4.781539059057230978e-01,4.003542338584477611e-01,3.893798594605062391e-01,-2.753438979445806462e-05,2.313448996210849991e-03,-1.079487076429577058e-02,8.598066121339797974e-02
4.723849932894268466e-01,4.181794953656652880e-01,2.688254361009174143e-01,-1.302733719935915066e-02,-1.006632396435404656e-02,-6.082135931704855253e-02,2.127240598201751709e-01
3.680820745052511000e-01,4.444438484739631212e-01,4.670104420756543417e-01,-7.789168648479259834e-03,3.228581874932390326e-03,1.197548713755228374e-02,9.331194311380386353e-02
3.462050914063402596e-01,4.560193090237878999e-01,4.254115139642750676e-01,-2.214764110255172322e-03,1.317872479000559149e-02,1.150249733404893303e-02,1.027983576059341431e-01
4.857178176467151220e-01,4.199752816927684318e-01,3.910224561268680898e-01,5.180014371397294975e-06,3.138073631705907106e-03,-6.550512412575960029e-03,8.498264104127883911e-02
4.607743746729344170e-01,3.727554181397133570e-01,3.857902722870510392e-01,-7.888382591668657851e-03,-1.340480996930279965e-02,-2.575479107626130887e-02,9.739406406879425049e-02
5.228035251175033871e-01,4.519123114242032946e-01,4.784523057030788395e-01,-2.454346736687281968e-02,-2.063328367667911778e-02,-2.758316377219607873e-02,9.599644690752029419e-02
3.727539741822352704e-01,5.210169577902949989e-01,4.588067214115790771e-01,-7.438207277539297599e-03,1.201114930095268166e-02,9.047147793527094903e-03,1.321850419044494629e-01
6.059379621639241487e-01,4.700130148605950464e-01,5.263625629462012068e-01,-2.681643441359829114e-02,-2.396539595976102457e-02,-5.601070349757836936e-02,1.651772856712341309e-01
4.913205290148917603e-01,4.111590664446767573e-01,4.056232888747036691e-01,-4.561720137972255376e-04,4.573446644332674130e-03,-1.439182853933579538e-02,8.709195256233215332e-02
4.653640153537341173e-01,4.123466759429249562e-01,3.536974012188038863e-01,2.895577901185024047e-03,-8.590334785582716751e-03,-1.731618603087974398e-02,1.024992167949676514e-01
4.326967000784873729e-01,4.225967264687904290e-01,4.367962249352095871e-01,2.381549941493526536e-03,6.340720260656631906e-03,-2.609481794997859511e-03,1.784035935997962952e-02
3.545818915163487239e-01,4.645258797784029281e-01,4.373409710794925465e-01,4.895681413258657147e-03,1.006476716184467358e-02,-1.738553779585367415e-02,1.054535657167434692e-01
4.965719195998609115e-01,4.194560419960356445e-01,4.198766417767513248e-01,-1.995751780467255827e-05,4.517393421795447284e-03,-1.326574168128982073e-02,8.064590394496917725e-02
4.962543979867939381e-01,5.049332009968110491e-01,5.672827678229086512e-01,4.925836091464105837e-02,2.611878073118112029e-02,-3.299658942679428719e-02,1.307515352964401245e-01
3.741413880155740057e-01,3.683329872202179001e-01,3.957034830106302414e-01,2.064541316599946552e-02,1.306691170174675495e-02,-1.843946214130402078e-02,5.860781297087669373e-02
2.342184366786035921e-01,5.599693456158107985e-01,5.164161709213787033e-01,9.071903448910467044e-04,3.296146035578723793e-03,3.454653171634799493e-03,3.064211308956146240e-01
3.218849485981715164e-01,5.451307866280366010e-01,5.507879969256749275e-01,-2.100049903164343326e-03,3.549376218501174539e-03,-7.637532215852417365e-03,2.266267389059066772e-01
2.493402868849278475e-01,5.512490003335056565e-01,5.418523653341568158e-01,1.982178444085968411e-02,1.914616242962181511e-02,-3.939871229384150908e-02,3.087643980979919434e-01
3.589732024229072005e-01,5.612432722797179308e-01,5.703081472475738378e-01,-1.385834790596497321e-02,5.996119847118720932e-03,-6.633314622341172050e-03,2.089136838912963867e-01
3.144001997958029149e-01,5.457361076914498677e-01,5.304357579593912408e-01,4.604269249437174284e-03,1.441072597527949528e-02,2.701232849361751964e-03,2.256532311439514160e-01
4.073283525830042051e-01,3.534111134532516574e-01,4.843400396920130579e-01,1.512848995668193003e-02,-4.463684973323665470e-03,2.011970616976803926e-03,1.172546669840812683e-01
3.976890216732905659e-01,4.437669077988048993e-01,4.480252338668865852e-01,5.250701986633763384e-03,5.141508274505365850e-03,-1.786679594743122504e-02,5.879797413945198059e-02
2.915016935448602742e-01,4.973503761827606784e-01,4.629837294234466216e-01,1.556069107215603568e-03,5.658059792930313081e-02,1.332981414623877689e-02,2.159278243780136108e-01
2.870213161281084946e-01,5.167955113986286708e-01,4.906728892690694899e-01,1.119064210766840088e-02,1.656720407020118718e-02,-5.889282652974565935e-03,2.208606451749801636e-01
3.464330562097265309e-01,5.504210070123475296e-01,5.464948253104138232e-01,3.477402326845176780e-04,1.371927297549873845e-02,1.835505063828450634e-03,2.034716904163360596e-01
4.013830158867292552e-01,4.586270166102713319e-01,4.559001735922219578e-01,6.287883433249483352e-03,-5.212228787486345404e-03,1.146144631162585199e-02,6.101167574524879456e-02
2.801751457846944904e-01,5.081614095691417976e-01,5.009053775126629526e-01,-3.516493912511892746e-03,3.049196280474899060e-03,-2.232750865352924659e-03,2.246242612600326538e-01
2.996909969158554343e-01,5.880049494521906173e-01,6.641119985361879641e-01,-2.408363399472272098e-02,-1.732747568845547856e-02,9.138400169640504417e-03,3.372703194618225098e-01
3.551431980801285637e-01,4.484481176628822285e-01,3.528031796522760333e-01,-5.827951582437959459e-03,-3.018050642912555731e-02,-8.783566576156512720e-03,1.095242276787757874e-01
4.317472980569446728e-01,5.213620124023745639e-01,4.554562266482467536e-01,1.800664217268310718e-02,-2.821802314185741650e-02,8.034335498040510179e-04,9.915475547313690186e-02
4.074895598010508380e-01,5.403064049249909351e-01,4.965164711591262825e-01,9.990093538647942459e-03,-3.796479343155635677e-02,-8.254859475947687319e-03,1.362704783678054810e-01
3.077813563481610615e-01,3.574356622731607036e-01,4.378553962060249827e-01,-5.058838509226464691e-02,-2.361282033083991413e-02,-2.046055901398528137e-02,1.534021645784378052e-01
4.347745113516235382e-01,4.190228591212472598e-01,4.401293406417154941e-01,-2.889755026574339445e-03,8.890984441462211618e-03,1.119691273105012912e-03,2.504192851483821869e-02
3.952660905464950858e-01,5.463333092511317712e-01,4.993383883498957454e-01,-4.734730297414673113e-03,-5.002562763407765456e-02,6.320049290001356589e-03,1.600787490606307983e-01
4.271635334141658524e-01,4.988706690884037176e-01,4.491123454617694244e-01,2.023418381829064291e-02,-2.176607028197582658e-02,2.440652731250320118e-02,9.212146699428558350e-02
3.739031413952187410e-01,5.979963951565506752e-01,3.488351584617195855e-01,5.842611010999133186e-03,-9.481427748199659777e-02,3.560234984568062117e-02,2.955300211906433105e-01
4.097729627802798036e-01,4.484711944019776908e-01,5.243910646105280904e-01,5.617529356720475653e-02,9.800196860513598479e-03,-2.818446373704298555e-02,1.494575440883636475e-01
4.017745564797035596e-01,4.078021965916779901e-01,3.790136942742757253e-01,2.270950176371738446e-02,3.588014546341920796e-02,-2.847942688437759759e-02,9.238038957118988037e-02
4.677024749426964001e-01,4.563222333580569945e-01,4.756099871773348253e-01,1.780146979297269130e-02,3.588010329948830568e-02,-3.315401427412329599e-02,9.161013364791870117e-02
4.756648132023231779e-01,5.339450826420657492e-01,3.767148590440845823e-01,2.690124686294070172e-02,2.891360896003900352e-02,-3.599858909700225790e-02,1.658952385187149048e-01
4.172843908235102650e-01,4.233686474533054356e-01,4.749625511446937676e-01,-3.739683962040484325e-03,-1.289513414433630153e-03,-1.996847073929104103e-03,5.542351678013801575e-02
4.489510614690246926e-01,4.132274188340377963e-01,3.961074004319722341e-01,4.533171258021970879e-02,6.230998578215113382e-02,-5.022937373240177195e-02,1.660190671682357788e-01
8.595273742194741162e-01,6.976216470063717479e-01,5.410399742044029736e-01,-7.984514790966680542e-02,-5.342199634724568297e-02,-2.473926500302290055e-01,5.360779762268066406e-01
4.780335967358207427e-01,4.373345680390954282e-01,4.846245712435423569e-01,7.398056245006930098e-02,1.024970733584298216e-01,-5.744446706837398609e-02,2.445486038923263550e-01
4.032965536349315538e-01,4.291317407405526585e-01,4.756534339779973641e-01,-6.476896401155885635e-03,1.723143979157113577e-03,1.105909781340816064e-02,6.734456866979598999e-02
5.127154525077419756e-01,5.435706231051470327e-01,3.163003607574480514e-01,-5.361730583927803127e-03,-7.788074364521444144e-03,1.479594770034044215e-02,2.156764268875122070e-01
3.682354215173361256e-01,4.890696806265249497e-01,4.501315873510485233e-01,-6.564189015055641417e-03,-1.176063380824010629e-02,-1.625719322298979988e-02,1.129120439291000366e-01
2.724365407482245427e-01,4.736907905585391321e-01,4.406579930547032120e-01,-5.021473465035350761e-03,1.234306307735237064e-02,2.205704782873267253e-03,1.883978247642517090e-01
5.002382163099731160e-01,4.878666494179163537e-01,2.222529588204298079e-01,2.143569332426252440e-03,-1.386191360031319500e-02,-2.423553174602563476e-02,2.763006985187530518e-01
4.985215976657366710e-01,5.088516251172090499e-01,2.937888867358493528e-01,-3.247037721503357420e-03,-2.004854423646960232e-02,-8.834155017692560527e-04,2.130185216665267944e-01
4.397123093718557363e-01,3.497808812395203915e-01,4.855892389726786940e-01,-1.373738133159718364e-02,-2.902222186202732795e-03,-8.780542490060979331e-04,1.221141293644905090e-01
5.302543960081639307e-01,5.461951164187680563e-01,3.294321691482804404e-01,3.244700671345550515e-05,-4.812581441090819923e-03,-2.405129954824592603e-02,2.135176956653594971e-01
5.320726020162019898e-01,5.411874909797597111e-01,3.105365494603984367e-01,5.512072559436014462e-04,1.465019288365694734e-03,-1.046808024523672442e-02,2.269728481769561768e-01
3.901058649517005206e-01,4.133407105850250285e-01,3.568621096997947606e-01,-2.423969314625904620e-02,2.995779348299265621e-02,2.332557678685129310e-02,9.222126752138137817e-02
3.666041023442055957e-01,4.841468599605812662e-01,4.815575703711483802e-01,-5.679632754988358720e-03,8.714203980409880243e-03,1.166657653170470252e-02,1.193799227476119995e-01
9.657623826610646223e-01,5.588102111887630619e-01,9.012335929793349187e-01,-7.204219373963213768e-02,-2.750602598508505338e-03,1.385500041062054100e-01,4.655052721500396729e-01
4.509043163468799409e-01,5.180854799554996948e-01,4.359039441909907664e-01,-7.148462316645773362e-02,1.162626818866900058e-01,3.915432366838920986e-02,2.573449611663818359e-01
4.316291347173886739e-01,5.430140293385753436e-01,5.129891235260729543e-01,-2.564464665877293562e-02,3.462554948781191438e-02,2.235656398532408218e-02,1.305103302001953125e-01
5.097301171790130647e-01,4.275850645693922703e-01,4.281141525438231232e-01,-1.912859589549412587e-03,-9.150525694732650596e-04,-1.473640192613238920e-02,8.584637939929962158e-02
3.818318724934330333e-01,4.463103844236904205e-01,4.980988593104838658e-01,1.129468690062960384e-02,4.825479724666684005e-03,-5.938349823370939889e-03,1.036201044917106628e-01
3.957832254319246790e-01,5.564160119655721104e-01,4.942301826023728917e-01,-1.282099754183273210e-02,4.826682705130200951e-02,9.824754444991777580e-03,1.656884402036666870e-01
3.592573553005057319e-01,5.559191507799341458e-01,5.957412760670091068e-01,-5.018378297173690938e-02,2.897417430511806807e-02,2.355902187087453165e-02,2.446057647466659546e-01
3.364533925619770383e-01,5.213605503114899786e-01,4.832731921034371103e-01,1.469641068793090411e-03,1.341886216982925151e-02,-4.036612738903779495e-03,1.708632111549377441e-01
4.971004589359442338e-01,5.910468909107804425e-01,5.041900713440384818e-01,-1.349610965843212398e-02,6.451778362338457529e-02,2.453448932085619885e-02,1.518224030733108521e-01
2.911742174930108673e-01,5.145944308364286401e-01,5.087565235321787060e-01,4.973438794855369188e-03,8.427097681284535444e-03,2.405353160008261463e-04,2.212098389863967896e-01
4.717354397636210894e-01,3.257216543608719705e-01,4.536247292276956444e-01,1.102492682893524006e-01,7.017463678530050375e-02,-6.900114800778675561e-02,2.907322347164154053e-01
2.954444897146984994e-01,4.313861285550075197e-01,3.551164888235432970e-01,-1.704518022904590729e-02,5.532952063156770794e-02,1.623471922813412086e-02,1.574018597602844238e-01
3.744752071288092177e-01,5.786809056960312558e-01,4.977660657505127983e-01,-3.871942075939136668e-02,6.916209205491259671e-02,5.444592643446753005e-02,2.438539564609527588e-01
4.067713638119120345e-01,4.012944741630047329e-01,3.699042962225631004e-01,-7.640126942589561820e-02,-8.323556947982978238e-02,-8.545024698349135139e-02,2.477668970823287964e-01
1.512064890533872108e-01,5.218929421529001633e-01,4.943635047546917072e-01,-7.900155710244981255e-02,-3.947945265199351988e-02,-1.356876953818183726e-02,3.897607922554016113e-01
4.558990799501075331e-01,4.192785979951770270e-01,4.287249884827059043e-01,3.374844385927525722e-03,4.596444092369643061e-03,-6.729504288744738707e-04,3.439871966838836670e-02
4.221685396386168354e-01,4.041554721060086064e-01,4.474640946673085207e-01,1.011404618235756353e-04,8.261836484862611699e-03,-3.268623972774419191e-03,4.070432856678962708e-02
3.948551238676815123e-01,4.252070527890400298e-01,4.856145613117928139e-01,6.616349388591429535e-03,3.822869992368724637e-04,-4.309910792830906091e-03,8.118671923875808716e-02
4.089255713875823428e-01,4.608543927296451792e-01,3.948346525419860753e-01,-7.128696547908718040e-02,-1.345021935844795402e-01,-6.276700449737492027e-02,2.914858162403106689e-01
2.126543158785589860e-01,3.538483314703422811e-01,2.624572228025328635e-01,-8.017363066087478118e-02,-1.209765913362950557e-01,-6.988808272517865738e-02,3.053304553031921387e-01
4.053330186796244572e-01,4.324437045901106114e-01,4.800863204501445991e-01,6.454071856709422614e-03,1.711671645514537118e-03,-7.132475968622094091e-03,6.769640743732452393e-02
3.626116019636927978e-01,4.219650199753804953e-01,3.723846908349817131e-01,-1.318809734853132812e-02,-3.227200023539638502e-02,-1.659094295668346250e-02,8.666185289621353149e-02
3.775156320271205734e-01,4.421777389951002113e-01,4.111170757854144542e-01,-1.457627357911281223e-02,-2.792239400937741520e-02,-1.905328470010915834e-02,8.487032353878021240e-02
4.525536353043176918e-01,4.155011807266366652e-01,4.236576144307131475e-01,4.100296063303372762e-03,6.164147180215560386e-03,-1.357266780366551311e-03,3.615452721714973450e-02
4.187632753184923340e-01,4.163635744574618047e-01,4.811192442402665304e-01,-5.990089918786866557e-02,-2.421476748195854761e-02,-4.071397376957760356e-02,1.467649936676025391e-01
4.324714463238590323e-01,4.350622460713531869e-01,4.461061355872849576e-01,1.181961787084544885e-02,7.091145570238801578e-03,-1.424153929730009698e-02,3.654750064015388489e-02
4.086111032066425675e-01,4.332280775114112359e-01,4.100420703385750931e-01,-9.885378934298978681e-03,-9.603873259770488724e-03,-6.196698982652382691e-03,3.546659648418426514e-02
4.128844093849653452e-01,4.827116009652864803e-01,3.930415014093383563e-01,-4.172126820570687400e-02,-6.535638117328854135e-02,-2.186211766927878900e-02,1.616334468126296997e-01
3.884366627332703215e-01,4.551746425063427637e-01,4.224404916227675888e-01,-1.942956564992394733e-02,-2.551621358124497169e-02,-2.225496848128149727e-02,8.895210921764373779e-02
4.831721035079769022e-01,5.651782817076663745e-01,4.901171480354218901e-01,-3.630129921039563362e-02,-6.643430437107895881e-02,-4.329013316217907026e-02,1.703517585992813110e-01
3.961276166562029410e-01,3.953810370747833369e-01,4.001351736730335840e-01,-1.074382776976644770e-02,-9.886869490937378810e-03,-1.096539061144192334e-02,3.193539381027221680e-02
3.799087415955787472e-01,4.150582902219505654e-01,4.145015066380867697e-01,-6.708574049230814872e-03,-1.408353091711378111e-02,-1.669012724594333766e-02,5.274432152509689331e-02
4.109683705790138641e-01,4.566135024133072262e-01,4.055382853187786130e-01,-2.050615217358200265e-02,-2.831151557490065029e-02,-1.814207147678927393e-02,8.375176042318344116e-02
5.984015683312507994e-01,6.589734421929133168e-01,3.859403790925237665e-01,-5.094712553660909332e-02,-9.912480630079360810e-02,-5.243892434449982237e-02,3.274010121822357178e-01
5.478993187650283980e-01,5.553248047768830631e-01,3.176399704257523160e-01,-3.177310386212622850e-02,-1.008139249013493832e-01,-1.213494949335213249e-02,2.979009747505187988e-01
2.383953582940699367e-01,4.265766945935017818e-01,5.436073437665167596e-02,-3.442102656212730344e-02,-1.897125322186969942e-01,-3.825005947198120704e-02,4.688592553138732910e-01
4.408922275595230644e-01,4.448881358254093144e-01,-1.409386175914505435e-01,3.758822081553563760e-02,-6.266591453019823565e-02,3.825234926242342820e-02,6.010636091232299805e-01
4.589221874511156263e-01,5.513872279612604954e-01,2.305645546344589347e-01,-1.987576969051991008e-02,-8.108183828896682599e-02,3.389223655648308797e-02,3.258313536643981934e-01
6.243442745997307419e-01,6.786927234586541680e-01,3.578434787395670114e-01,9.440448930375936604e-03,-4.195148833513977216e-02,9.543394773434153711e-03,3.070516288280487061e-01
4.340428319439879057e-01,3.676453963581436946e-01,5.088769681425457936e-01,-5.324055042172758101e-02,3.632863493168655283e-02,1.052357543329254103e-02,1.666516661643981934e-01
4.355441383619512719e-01,3.539375685142275296e-01,5.043903769617580357e-01,-1.278159397160777699e-01,1.943858350757536602e-02,5.622432733485159539e-02,2.768493890762329102e-01
2.766071170669258672e-01,1.314782126905555681e-01,3.658873564399894307e-01,-1.093500494207145513e-01,3.866885902178666956e-02,3.327557163313668576e-02,2.926951348781585693e-01
3.076568022289480897e-01,5.538583881904657336e-01,5.603963509264909826e-01,4.714351191162754334e-03,3.991654245630323061e-02,8.390217746654576869e-03,2.594715356826782227e-01
1.381258524176772751e-01,5.924463898932043060e-01,6.163948565780239530e-01,-2.785361347086810768e-02,1.660024491916597400e-01,-4.769960365684835363e-02,5.564931631088256836e-01
3.404532073759342081e-01,4.380166398308658615e-01,4.847172539924734513e-01,-1.500434619340586945e-02,2.333028441080903150e-03,-6.953731565001064485e-03,1.307387650012969971e-01
1.481892423360016142e-01,7.560897744451084979e-01,5.303642867336935129e-01,6.100565769639337138e-03,1.485614922886808187e-01,5.702207338586619267e-02,5.994615554809570312e-01
-2.709652023281250988e-01,3.028733630375041175e-01,1.724590000097359077e-01,-1.046043374031629947e-01,1.639102354736454992e-01,4.291518117772744056e-02,6.248302459716796875e-01
9.015363282277261137e-02,4.685248398412372173e-01,3.626444317153510455e-01,-2.943126243461149233e-02,1.904630464466399442e-01,3.692787430271710081e-02,4.794073998928070068e-01
3.578210453082039111e-01,4.404913994427988033e-01,4.866234796864858936e-01,-1.154146544189547929e-02,4.043043572689647945e-03,1.315377651883477706e-03,1.150224208831787109e-01
3.959285094988701514e-01,4.311576037773126036e-01,4.890113218188728572e-01,-8.087456905379427491e-03,-1.872464107210272460e-03,-4.044210355153340236e-03,8.295831829309463501e-02
4.471360853667461499e-01,6.695215077464513609e-01,5.835942960917740452e-01,-1.697693916730282082e-02,1.267442293612008331e-01,8.940891816796784144e-03,2.950026690959930420e-01
3.668243269676552121e-01,4.143230572978777726e-01,5.158202479195946877e-01,-6.632674332829378849e-02,4.580325875719180873e-03,-2.219508033347662029e-02,1.792130321264266968e-01
4.061909048344163331e-01,6.548541247144745725e-01,6.417563650418947052e-01,-5.406427173650056595e-02,2.083201223729035934e-01,4.165832351890104424e-02,4.504607915878295898e-01
2.414043485069430339e-01,5.389226703882260550e-01,4.429586162168858698e-01,-9.023836546478203324e-02,1.655413066303405289e-01,1.132739356453367832e-02,4.197627604007720947e-01
3.948999384580632599e-01,4.235959054452903549e-01,4.690066203152399860e-01,-5.330869104427171136e-03,-1.454406391074826270e-03,-1.095314826181185974e-02,6.811909377574920654e-02
3.293808427572664232e-01,4.728310411535695534e-01,4.962041819654522956e-01,-1.216231129490731068e-02,3.216520395861766166e-03,1.561686029601780943e-03,1.579850167036056519e-01
7.179003919678182966e-01,4.931117341902733764e-01,5.285007060567121773e-01,-1.268755129036867879e-01,3.777325605332695208e-02,2.047028609522561493e-01,4.712851643562316895e-01
4.952775030981403925e-01,1.602439374273958161e-01,2.873677253259340203e-01,-6.644384918996848466e-02,9.029975895608702285e-02,1.861099609365289564e-01,4.769008755683898926e-01
4.452327261254418467e-01,3.950412847092787394e-01,4.437681160637362843e-01,-5.245410312407341145e-03,1.664003543047663791e-02,4.817261243142372321e-03,5.857173725962638855e-02
7.382266325379959193e-01,3.872696868442458418e-01,8.612282435772866673e-01,-1.603508314637127896e-01,3.621049973053652032e-02,-4.202491787502914133e-02,5.175302028656005859e-01
5.302045395570601505e-01,3.520364376249002225e-01,5.274403623613626024e-01,-7.325285996810509959e-02,5.878575769090862643e-03,7.253003994088090545e-03,2.182165384292602539e-01
3.757993140453218528e-01,4.725643124909597037e-01,4.637916530715534558e-01,-3.449492075786839140e-02,-3.842852151327567911e-02,-3.032137424745444745e-02,1.391030102968215942e-01
4.303481264014628604e-01,2.929906422222218754e-01,5.018100447737636749e-01,-1.686176145844859864e-01,2.510119190245417922e-02,7.464785649788892308e-02,3.710694313049316406e-01
5.784887208508234790e-01,3.359756210078539973e-01,4.246274399356513851e-01,-5.642112458329208435e-02,8.071009670502364564e-02,1.162533054413910638e-01,3.388353586196899414e-01
5.734656444482555404e-01,3.359858626208733767e-01,4.857577469998739517e-01,-1.383478107601163187e-02,1.255499498908733969e-02,6.768107156681202330e-02,2.409351319074630737e-01
7.873268644151394380e-01,3.026282487171111923e-01,5.780868418793748686e-01,-8.953163899461785702e-02,1.628499473715601387e-02,1.741577440095568308e-01,5.414165854454040527e-01
1.658016708103250969e-01,4.156696743281085848e-01,2.947061669517163640e-01,4.076892502167312436e-03,9.996737508967418195e-02,-3.614046062543860380e-03,2.773278951644897461e-01
3.855027500420729059e-01,4.822675066650798925e-01,3.287969691628937485e-01,1.474591830211568165e-02,6.182139418042200546e-02,-1.945474495496064089e-03,1.737682968378067017e-01
2.420780692947800961e-01,4.870806524111823688e-01,4.770470986581696327e-01,-1.161342474991169547e-03,7.673266825183880195e-03,4.494150338625457243e-03,2.406449019908905029e-01
3.224499237630024107e-01,4.738708713306707399e-01,3.744424051470947590e-01,-4.779036564685481062e-03,6.533939548015443854e-02,-1.879122633159076988e-02,1.780290156602859497e-01
4.154255924917492071e-01,4.821491622199740035e-01,4.042356838071603509e-01,-1.906163730944180484e-02,2.489385951254344254e-02,1.773552073696006010e-02,9.600352495908737183e-02
2.369724242050463836e-02,3.049144722928197049e-01,6.030230650711183582e-01,2.802454144744170317e-01,-7.948466097813823572e-02,-7.683401491342568834e-02,7.239208817481994629e-01
4.416197645731118615e-01,4.793435496173145127e-01,3.235655172087729681e-01,1.473105024542290670e-02,-2.972704734300357643e-02,1.445492615821509542e-02,1.540853083133697510e-01
4.573570296316157857e-01,4.812752567772883849e-01,4.662024603552520352e-01,-3.021123328636445352e-02,3.035337140767153594e-02,2.205943917110030419e-02,8.602761477231979370e-02
3.031510396442530508e-01,5.099858231825062926e-01,5.297795930465362124e-01,7.901889879716315901e-03,-4.328575604303512049e-03,4.993811058513822169e-03,2.181394100189208984e-01
3.727455589139480052e-01,5.585726807777038339e-01,3.842183944189210831e-01,2.684799426843938533e-02,1.221755583614989454e-01,1.615857094429884802e-02,2.832979559898376465e-01
3.380736188865471337e-01,4.375319559092930022e-01,3.508582914253163820e-01,5.800221664071616642e-03,3.489850144920605968e-02,-2.369128289566927153e-03,1.120506525039672852e-01
3.403242457200993387e-01,4.825546113395398073e-01,4.809630006930636914e-01,1.120966149239066220e-02,-7.860672625329247556e-03,1.224683156901716120e-02,1.449756175279617310e-01
3.160096002488917422e-01,4.323862002541611904e-01,3.226967202643785670e-01,-9.770418576699888696e-03,4.619277121741709874e-02,8.444751505708414721e-03,1.403981745243072510e-01
3.750442369174540880e-01,4.812717289149216482e-01,4.413420592792750008e-01,-6.749633762234892587e-02,7.198074543250321256e-02,4.051936801398504928e-02,2.068174034357070923e-01
4.723525927436826310e-01,5.593968009977665634e-01,3.746484937526228798e-01,-1.329265762280006612e-02,5.200554537623998386e-02,9.168734647793034057e-03,1.858046650886535645e-01
3.314544134395265851e-01,4.303614272457392254e-01,4.745105156241100630e-01,1.176104837220645627e-02,6.040197718134500838e-04,2.396079746262207155e-03,1.285755783319473267e-01
4.075563539231327748e-01,4.089927489942377647e-01,4.816426237408660826e-01,1.329402166585539821e-02,4.745241939156005437e-03,-3.900765563446594118e-03,7.763899862766265869e-02
7.574825843248588209e-01,7.563570087652046192e-01,7.751608301223856801e-01,1.519585446676539053e-01,1.318428561814780353e-01,-1.489972687135539264e-01,4.340000748634338379e-01
3.966417050450421478e-01,4.026559121405606789e-01,4.616835293243918836e-01,1.096206845110548125e-03,-2.426329252557811542e-03,1.236064488811464005e-03,6.246026232838630676e-02
3.540574123861256473e-01,3.395490197936948951e-01,3.273165002071351526e-01,4.673298781933664381e-02,4.871628569952349969e-02,-5.477563711087689996e-02,1.523497998714447021e-01
5.375359594341885261e-01,4.745588412891567076e-01,4.087443068190140250e-01,7.237760131871433245e-03,1.584314259191773157e-03,-8.599036158592508056e-03,1.132651567459106445e-01
4.413158232513537116e-01,5.363780217518949733e-01,4.105784476626301305e-01,2.465814792530174934e-03,7.978748602761125130e-02,9.627774947979414119e-03,1.797164976596832275e-01
4.094477329730819570e-01,4.071125448857873530e-01,4.674359411121127295e-01,4.043320582564366959e-03,-3.369194189752585007e-03,2.569631212960388211e-03,6.005337089300155640e-02
4.027087455032929419e-01,4.062427508804419829e-01,4.750162660325047970e-01,1.064754745787063837e-03,-2.013970222613667860e-03,-7.691644873168711248e-04,7.072959840297698975e-02
4.962195743837488071e-01,4.411944428660322104e-01,4.067574688825438822e-01,1.231001133667488159e-02,2.697360388110557790e-03,-2.474365923162059888e-02,9.177010506391525269e-02
4.683536267950325627e-01,3.954238233703118999e-01,3.848078817255387030e-01,2.997032550049011281e-03,-5.497755025291717725e-04,-9.358028251125508415e-03,8.059928566217422485e-02
3.556136337244196199e-01,4.597180613431594010e-01,3.813119178005784926e-01,2.326474694975851770e-02,8.251116275090013275e-02,-2.033154083222463854e-02,1.791953295469284058e-01
4.275735880020262170e-01,4.736409176118432929e-01,3.971404267109673314e-01,1.198479133727512434e-02,7.593640042917723654e-03,-2.699404507990142005e-03,7.124680280685424805e-02
2.829518247078670057e-01,3.946667512066609484e-01,4.392973525152766290e-01,-2.898594130742646394e-02,-1.325711259039733143e-02,-1.508223883717736170e-02,1.522768884897232056e-01
4.107032798977429122e-01,3.629299067601606255e-01,3.016568259585235001e-01,2.093634279658327518e-02,3.812062052894242548e-02,-5.443333053148040335e-02,1.533864587545394897e-01
3.916179058803378465e-01,4.899638051101460889e-01,4.257199572903419549e-01,4.323476270960006224e-02,3.494813310339581203e-02,-4.093406028361260690e-02,1.475795060396194458e-01
3.858489264252378814e-01,4.109706109697326415e-01,4.647338590489983323e-01,5.544411298649542554e-03,-4.207622323243572805e-03,7.932369277413793204e-03,7.215476781129837036e-02
4.005835492268405851e-01,4.885954129471000162e-01,4.780065528637083005e-01,2.449695655408383466e-02,-4.166014741021066559e-02,4.248777412533975839e-02,1.391003429889678955e-01
4.249973558253257178e-01,3.961915383846875693e-01,4.080743936909068670e-01,1.296183332647451829e-02,1.552123873791017711e-02,-1.512136177905578846e-02,5.041232705116271973e-02
5.733140449886633405e-01,4.285218726130185507e-01,4.661986865177309425e-01,3.929848444675550917e-02,2.996541677247537006e-02,-8.798950558464044280e-02,2.179044634103775024e-01
4.244976329757006450e-01,4.333576146649995020e-01,4.126644380430562475e-01,7.185690610295502288e-03,-1.236468361093349564e-03,3.931611560352454328e-03,2.300494350492954254e-02
4.745907165899428959e-01,5.327981698583158510e-01,6.112168529032493414e-01,1.134351161699707067e-01,4.729351271678095686e-02,-5.025814003154991522e-02,2.588289082050323486e-01
4.499476157635981521e-01,4.856938571980324859e-01,4.614706171604962548e-01,1.298831027065022389e-02,2.217669141454583007e-02,-2.107877402529821295e-02,6.567434221506118774e-02
4.096501790050058323e-01,4.167648421463409081e-01,4.890491179535815247e-01,-3.388962371691575659e-03,-9.151255460571342199e-04,6.635271046063912761e-04,7.634265720844268799e-02
4.385957927535877876e-01,4.049237740839784494e-01,4.937888602669464055e-01,3.223637731480369362e-02,7.323430398020546774e-03,-1.128881767032790737e-02,9.848504513502120972e-02
4.727360890194571841e-01,4.915576427896404255e-01,5.090269696583143988e-01,4.756801760564838971e-02,3.953790474185968351e-02,-4.103240085126048237e-02,1.323521435260772705e-01
3.182120300234385635e-01,3.713063678537318890e-01,3.522927324747225364e-01,3.632164674196149134e-02,4.020568431770339679e-02,-3.519523593209049339e-02,1.212204694747924805e-01
6.877457574982284161e-01,5.202041981358586087e-01,6.386990655457283061e-01,-4.642618199352139402e-02,-4.515505359567632826e-02,-1.163452208988896008e-01,2.746818661689758301e-01
5.736695467097712164e-01,4.819937943779363243e-01,4.258964950317368769e-01,-6.409132643308321220e-02,-8.383383119527729188e-02,-1.479283077240153288e-01,3.402203619480133057e-01
4.386133908033996720e-01,3.848181165475687004e-01,3.252297354500319759e-01,-5.426696115039763429e-02,-5.679951835347676198e-02,-8.554643264549550985e-02,2.238707691431045532e-01
4.557818237393925220e-01,4.082169680888158014e-01,3.658824582408910508e-01,-1.238504812392038530e-02,-3.890182560748052867e-03,-7.249855137278213464e-03,8.204578608274459839e-02
4.679487031548237863e-01,4.328875613362737629e-01,4.076064893322514093e-01,-2.662432537918222111e-02,-1.921204240846493064e-02,-2.851913133364502792e-02,9.180791676044464111e-02
3.375491083410288584e-01,3.866429873052908417e-01,4.160662151751733928e-01,-3.334118815692768689e-02,-2.408435041052751913e-02,-2.310979876254637411e-02,1.067599952220916748e-01
4.777984199707807633e-01,4.523770726247790530e-01,3.500071990459852067e-01,-5.272981508729455979e-02,-4.029798822030940253e-02,-8.062511812225184316e-02,2.155052870512008667e-01
4.737458652795431546e-01,4.585491896180317606e-01,2.834709424066119698e-01,-9.855134131741148575e-04,1.280043587291766760e-02,-7.948996164310178150e-03,1.850080192089080811e-01
3.910426891828745477e-01,4.454301249122297746e-01,4.491171308325443423e-01,-7.825649879184503471e-03,-7.660434529994200256e-03,-1.372340399992921095e-02,6.400686502456665039e-02
4.319152047765663083e-01,4.360247029853570599e-01,4.452372407903298357e-01,-1.647529047206410012e-03,-2.118147390458261121e-03,-6.701440672137897771e-04,1.275020465254783630e-02
4.859931056557346141e-01,4.010408500627231088e-01,4.118105273565133007e-01,4.971308620819598657e-03,-3.089212057025211844e-03,-1.343540739978987993e-02,8.403728157281875610e-02
4.183323882098731739e-01,4.467694635248191659e-01,4.158846769596671877e-01,-2.502645212005188968e-03,-2.843375206568172706e-03,-5.224313195457209839e-03,3.176772966980934143e-02
3.312424947481637516e-01,4.434607319636494349e-01,5.202651495053359776e-01,-2.992620005505566491e-02,5.628394138051219867e-04,-1.316592208244871630e-02,1.741218417882919312e-01
5.568448104367328400e-01,4.250093721482556264e-01,5.370175937800045762e-01,-4.199101504092323661e-02,-2.212105267349058491e-02,-1.320753392102145540e-01,2.724871039390563965e-01
4.575328556318645212e-01,3.536575085312889666e-01,4.540939296193549080e-01,-3.851445786449619185e-02,-4.288153120699004367e-02,-7.707153711051889511e-02,1.955283284187316895e-01
3.414220648405456582e-01,3.507315483302591019e-01,3.894511371871829941e-01,-9.412582720526185831e-02,7.421511444503142707e-02,6.996999054375882543e-02,2.444103062152862549e-01
4.759903532633977252e-01,1.737750237635730943e-01,4.721308590986112996e-01,1.619646685490543428e-02,-6.967457032079780923e-04,1.167826083455902712e-02,3.022915422916412354e-01
4.478619190797812344e-01,5.412730797602655075e-01,3.109476399370905697e-01,-6.669051372738249439e-02,1.349717264455192745e-01,4.982054920773956730e-02,3.401495516300201416e-01
5.220052334859364151e-01,5.227720482098746624e-01,3.621667637766642356e-01,-1.148790446678361193e-02,6.360266123888912160e-02,9.925808899834870358e-02,2.603071331977844238e-01
5.415394238975865804e-01,5.222528056203740165e-01,4.038582835574042185e-01,-2.294481830022401109e-02,3.540849613584609590e-02,4.684340245229345889e-02,1.691042780876159668e-01
2.142400466379202895e-01,2.992183624962718724e-01,3.216474318594378934e-01,-9.631273603346231227e-02,8.947824074630686408e-02,6.820532436810688992e-02,2.746520638465881348e-01
5.544263574855498034e-01,4.258749655045199756e-01,5.315457040487903129e-01,2.797184125150735737e-02,-2.817038440168121577e-02,4.509342710919430480e-02,1.579109877347946167e-01
4.421814090390244756e-01,2.957044602760294794e-01,4.321006748253753971e-01,1.901074010156158373e-02,-3.076554994116409425e-02,2.328847368706154705e-02,1.600979864597320557e-01
5.309460764531296340e-01,3.767929642754709318e-01,5.356184484973998128e-01,1.558313301644943284e-02,-5.865864116053152479e-03,2.000488318997516515e-02,1.629036068916320801e-01
4.296861345091054218e-01,2.063243437241466804e-01,4.485069848685711014e-01,3.962772428560344673e-02,-4.610862081465897690e-03,1.619638374518953330e-02,2.449701875448226929e-01
4.556846686240856314e-01,3.386447361499341779e-01,4.959855779327049241e-01,2.347042549411061663e-02,-1.414716329279118792e-02,1.445655240174696828e-02,1.513912528753280640e-01
4.756984716497200116e-01,3.537172321100021666e-01,5.237130474290845328e-01,4.786309882935029653e-02,-9.849788443403429371e-04,2.904559593430646597e-02,1.801337748765945435e-01
4.882121445187078690e-01,4.456804138803289184e-01,3.594582077026844957e-01,3.408361159848069186e-03,-1.315172178175065933e-03,1.199197389796719491e-02,1.156799867749214172e-01
4.780199267208731784e-01,3.363048457986932416e-01,5.113686938508608115e-01,-1.150829496480978986e-02,-6.388409425868541228e-03,-2.272655524590903430e-03,1.626547873020172119e-01
2.266184223182748092e-01,4.280505679191459745e-01,4.563822700217229356e-01,2.456628489242945051e-02,3.001216221641509092e-03,-6.850985776006383692e-03,2.215013504028320312e-01
3.412712504197236152e-01,4.740674309415118248e-01,4.762249146482984141e-01,-1.003064583705285361e-02,6.813991898032552980e-03,1.354444553665002000e-02,1.375408172607421875e-01
5.117645163077146897e-01,4.592400701668010732e-01,3.821477762702664704e-01,5.212615116115095273e-03,-4.984329059624208365e-03,1.424019710069935989e-02,1.162568852305412292e-01
3.217588994172542183e-01,4.923209990195296371e-01,4.725427889174488305e-01,3.976557605645443874e-03,-1.097549998679005386e-02,1.773153711900671628e-03,1.628724932670593262e-01
4.700511957594647461e-01,3.674996720842202969e-01,3.466689513042132131e-01,-1.490631364611922673e-02,2.649877777877283208e-02,5.447298348800435480e-02,1.573595404624938965e-01
4.523953206123467186e-01,3.669049203510167390e-01,3.754386161626697138e-01,-8.844662702325334705e-03,1.179333126281168105e-02,2.482198126422342430e-02,9.566717594861984253e-02
3.895175995246870082e-01,4.814105532273243448e-01,4.543591240206037996e-01,-5.283324136420680141e-03,8.088024602195242538e-03,1.502206776613718500e-02,8.744847029447555542e-02
7.869551438801600796e-01,9.329024613265066712e-01,6.710588486316572121e-01,9.173104811113463875e-02,1.959941144697713855e-01,-1.391886743356839096e-01,5.002525448799133301e-01
5.271498514258164958e-01,4.324205946193243055e-01,4.508156156251080793e-01,-4.951922987236239467e-04,4.733608458253077780e-04,2.873873580469409050e-02,1.002427786588668823e-01
5.214069665615005400e-01,3.914350243449752353e-01,3.381730116113962903e-01,2.032961090256893769e-02,-2.125180556500646384e-02,4.999960838465610652e-02,1.916945278644561768e-01
2.856390138699891890e-01,4.672060655730121415e-01,4.707985366779346426e-01,-7.814507547969851836e-03,-1.128532855958043479e-02,-9.084635498152108732e-03,1.855926811695098877e-01
5.353540833651868613e-01,4.364566514178362944e-01,4.563981170349770133e-01,9.880304114306349885e-04,-1.187017603846778849e-03,6.804603793606774087e-02,1.486746370792388916e-01
4.664003464347665218e-01,2.886626943470270157e-01,3.020459929188131221e-01,9.761523692472993258e-03,-9.191365315608084757e-03,1.101292541824632348e-01,2.575184106826782227e-01
4.632414091567185199e-01,2.446455051966524297e-01,4.341220832389938167e-01,4.003390864058375097e-03,-1.166307853267407706e-02,1.240198578834793113e-02,2.078084051609039307e-01
5.407641109753196229e-01,4.966339609889738327e-01,4.326942474550872220e-01,1.232032606288244007e-02,-9.782837350558187470e-03,4.614484175704337832e-02,1.264434605836868286e-01
4.174451113185604356e-01,3.949866867092732825e-01,4.685970738984571726e-01,5.568042080123558439e-03,8.009093231560043824e-03,-2.602046076992237892e-03,6.764210760593414307e-02
2.211260547393141263e-01,4.615053840071027813e-01,4.440742931965070417e-01,-2.380684169767650904e-02,-4.041043258015387940e-02,-7.549990081371272047e-03,2.463053017854690552e-01
3.646340718586231766e-01,1.454522912172782068e-01,4.011377400833452955e-01,9.850873472407868647e-02,-2.899609121468832429e-03,6.521187232456847338e-02,3.150698542594909668e-01
4.440502364313933525e-01,4.189713782285575672e-01,4.846975466717023395e-01,4.818739995502108533e-03,-7.569774254346145308e-03,3.820204426676008548e-03,5.988228693604469299e-02
4.237664937366069640e-01,2.786629332410752724e-01,4.134349604268302003e-01,5.758580270284975600e-02,-4.384979055543713339e-02,6.753264272003432767e-02,2.214980870485305786e-01
3.706690663977016964e-01,3.782332145030395387e-01,3.444965895040856263e-01,3.031879399128402722e-02,-2.825400837274471416e-02,2.899332680183568448e-02,9.281476587057113647e-02
4.209178638643533699e-01,2.926050330361686380e-01,3.271742128514864012e-01,4.890573990731539311e-02,-5.043459377010103134e-02,1.026059813609263294e-01,2.441592961549758911e-01
3.031344651151500758e-01,7.319397591266343372e-01,3.636286774766827046e-01,4.775038141450189261e-02,-1.754987286202341346e-01,1.281200848316485785e-01,5.568458437919616699e-01
5.718652647891635521e-01,4.535105601573755085e-01,5.914720928502016362e-01,9.831376624381434060e-02,-4.905481203521393913e-02,7.555064772414969709e-02,2.646742165088653564e-01
3.951536764245754396e-01,3.506859714219876523e-01,4.262916266079395666e-01,3.822029098253001966e-02,-3.060144599395660941e-02,3.318732949981543362e-02,1.217682063579559326e-01
5.094823057957830192e-01,4.000418946655179830e-01,4.908838689925002496e-01,1.756180141610160991e-02,-1.976986985792360263e-02,4.857645679517386128e-02,1.395152211189270020e-01
4.920453962673498882e-01,4.275132421669361471e-01,4.553050169991542662e-01,1.009309966781097787e-02,-1.316223737393862336e-02,2.706681165284988144e-02,7.852707058191299438e-02
4.755205012281888965e-01,3.864414423541176480e-01,3.777701987335182476e-01,8.074828315679061924e-03,-5.970451491562681935e-03,1.921785447596807347e-02,1.009614840149879456e-01
4.460195125284611151e-01,5.285648281954742345e-01,4.389603833312135106e-01,2.281238715584224183e-02,-6.704688689294346915e-02,2.285741693403109658e-03,1.500300019979476929e-01
4.291937432521437112e-01,7.750778411747420993e-01,8.566492910788728876e-01,1.636524662605429725e-01,1.073478626267162644e-01,-2.073563946564328797e-02,5.202988982200622559e-01
4.115379557008812528e-01,3.855386497209045693e-01,4.332892288386011037e-01,5.199878501138377983e-03,-1.322138816634677548e-02,4.354911398701557385e-03,4.875476658344268799e-02
4.427734069196401778e-01,5.127198769677137058e-01,4.314752606008543934e-01,9.938658022333058534e-03,-2.501386841947452963e-02,1.338983927856180270e-02,9.231303632259368896e-02
2.950455874250351718e-01,4.232646819607280286e-01,3.483348702202246905e-01,2.361688979254153442e-02,-5.052294751997323669e-02,1.812902004229395569e-02,1.508779078722000122e-01
3.786029877030305246e-01,4.479820370274225638e-01,3.285505736563759660e-01,9.951017779063729696e-03,-3.818437284034906232e-02,2.749267919916848629e-02,1.331541836261749268e-01
4.197030518049013614e-01,4.236613206770822870e-01,4.960910082811668675e-01,-1.395932024904939818e-02,-1.359287091497142800e-03,2.589636020064845813e-03,7.847721129655838013e-02
2.714827133145232829e-01,4.307598408671328705e-01,4.226870413641845570e-01,6.931005390656914955e-02,-7.996834386581404275e-02,3.365535361689492994e-02,2.472712397575378418e-01
4.165605512654316778e-01,4.718659632353794930e-01,3.839501336776056095e-01,1.858387192909998278e-02,-3.780303429877875793e-02,2.882121589724176078e-02,1.172217428684234619e-01
4.337059672859605586e-01,4.662783983928407427e-01,4.116269177448927397e-01,1.685534600938202315e-02,-2.488482822335085637e-02,1.542125972393005098e-02,7.543960213661193848e-02
7.555477993856948293e-01,4.200511015421506400e-01,9.470862636802048762e-01,-1.637920791906595508e-01,4.732799796916567492e-02,1.544917134921906972e-02,5.490217804908752441e-01
3.996294621124525381e-01,4.632378577907560468e-01,4.389512755920284559e-01,2.087887065928453398e-02,-2.445853569842415531e-02,2.321196683144649206e-02,8.837343007326126099e-02
4.075764461694590390e-01,4.488204313569865711e-01,4.118057984297390783e-01,4.036754857613148069e-03,-4.421130498494317551e-03,9.006873470708163729e-03,4.353636503219604492e-02
4.176330311377605686e-01,4.552983460393145165e-01,4.723781980508420797e-01,2.584480867945629715e-02,-2.273052797173251080e-02,1.980674717980318925e-02,8.416964858770370483e-02
3.896057869976922161e-01,4.240540363815344382e-01,4.833792368912422921e-01,5.540466021530467480e-03,-8.883809845781357383e-04,3.467062402461745709e-03,8.294775336980819702e-02
4.159285863887641765e-01,4.188841887837855826e-01,3.725305244505273672e-01,2.643054280305544290e-02,-2.328790314638502432e-02,2.827211842295189806e-02,9.022767096757888794e-02
4.348837606345830609e-01,4.008095082752937688e-01,5.042835486066820083e-01,-7.058265158041620788e-03,-5.108342364518954175e-03,-4.420808074936151064e-03,9.288974106311798096e-02
4.173968710631235091e-01,4.103388189624416205e-01,4.628225547638044612e-01,1.461367910320915051e-02,-7.438745170935591282e-03,6.873107924710466880e-03,5.815778672695159912e-02
4.228357612504179963e-01,4.331903226160542797e-01,4.298246045921425007e-01,1.330930093910443271e-02,-7.117152555468052484e-03,1.650076452494777385e-02,3.979816660284996033e-02
3.922380880258832248e-01,4.982659244906921803e-01,5.027186260307975330e-01,-7.709210209769009649e-03,-9.966414294680233169e-03,-1.015354815679259462e-02,1.118901520967483521e-01
4.204505937194047416e-01,3.864275133169877696e-01,4.828377566244280161e-01,-7.280496379709818291e-03,-9.515771955679178714e-04,-2.573227453985965987e-03,8.575505763292312622e-02
4.416154980453264045e-01,4.527690279011213903e-01,4.559327540750280350e-01,1.428318060969210358e-02,-9.488920826665445812e-03,1.263128368224728827e-02,3.912149742245674133e-02
5.257928575948044303e-01,3.808991615668951281e-01,4.535683104291325374e-01,-4.003204940243740295e-03,2.605466973180714258e-03,-1.387563381355141207e-02,1.280301809310913086e-01
4.313191899614591263e-01,4.143769764089119123e-01,1.193964014493092696e-01,-4.099186718139030336e-03,-2.101136843103068239e-02,-4.651504095342434003e-02,3.164869546890258789e-01
3.953217254404099434e-01,3.703698603101187592e-01,4.287544075849040182e-01,-2.610738431521443872e-02,-3.304909011172354333e-02,-2.971453669372012274e-02,1.026884689927101135e-01
3.865756940772605010e-01,4.941337830588394264e-01,4.935281822522026296e-01,-7.442643193609827477e-03,-1.129775120106522000e-02,-1.177205512771794214e-02,1.116638332605361938e-01
4.515552433155803902e-01,4.221880190889908957e-01,4.625768781148686393e-01,1.799652384349689771e-02,-1.333242590462465141e-02,1.108575653560636698e-02,5.640170723199844360e-02
3.622316971010170472e-01,3.977184845459485474e-01,4.331788991519629484e-01,-1.076798312516187052e-02,6.094872416323374523e-03,1.221040637547207014e-02,6.842296570539474487e-02
4.315339704065824789e-01,4.460173539685290955e-01,4.460805197447682002e-01,-4.677397054354338109e-04,-2.745010773253223155e-03,-5.211391307812137004e-03,1.776019856333732605e-02
4.864150607053842612e-01,3.870090828800251126e-01,4.936492702394032484e-01,-8.560355601287499006e-02,6.510575456541682626e-02,5.134552206269469427e-02,2.307862192392349243e-01
4.002029804701364712e-01,3.843349662400662448e-01,4.633727333845208962e-01,-3.466869089171044360e-02,2.896628172275335714e-02,2.708775156743292722e-02,1.164848506450653076e-01
5.114959328446327946e-01,4.233938515842972650e-01,5.015683772286598785e-01,-3.934935163596234992e-02,3.121525394439425560e-02,5.302766182481490759e-02,1.516244858503341675e-01
4.294086214601914309e-01,4.036238115131636217e-01,4.219964094963582490e-01,-3.782111214599933463e-02,2.405304631086980019e-02,3.485817384752423753e-02,1.009995490312576294e-01
5.515193044605040118e-01,4.754410555243326342e-01,4.110675845145969620e-01,-1.267116674279850433e-02,9.432733959609841679e-03,6.052886464566567537e-02,1.630003005266189575e-01
4.322543868940321721e-01,4.589002664587158997e-01,4.325666614946374611e-01,4.130178093461485053e-03,-2.219641332795240930e-05,-2.907367872624368275e-03,2.789828926324844360e-02
4.067009377069426002e-01,3.919295418629875627e-01,4.332689405797243154e-01,1.550292818139040532e-02,-1.019128749105545351e-02,1.206743324765591902e-02,5.278236046433448792e-02
3.697748792413833585e-01,4.011595824428587087e-01,4.047169847908436147e-01,2.219721206202323466e-02,-2.237451478864780144e-02,1.778359937012067432e-02,7.097941637039184570e-02
4.054608194795942810e-01,4.632984600396491404e-01,4.077909546858863865e-01,-1.591084372312540378e-03,-1.887253059877227719e-03,-5.540612285582659398e-03,5.767345800995826721e-02
4.815276858194071918e-01,4.373133163917066191e-01,3.530480621423230936e-01,-7.432967221843568648e-04,1.049898121165197991e-02,-6.634817553786268030e-03,1.150898933410644531e-01
4.509854680528426751e-01,3.655430020393458657e-01,4.455174645541990497e-01,9.557594784920823636e-03,-2.553329538333859450e-02,1.516987718537482141e-02,9.891097247600555420e-02
4.775874124390022679e-01,4.086738415526981472e-01,4.141618916733029176e-01,-1.040608233092641050e-03,2.087592887374603579e-03,-2.810404485710585321e-03,6.664094328880310059e-02
4.317397637836075663e-01,3.617777279250934397e-01,3.961273168343879547e-01,1.177702580313882627e-02,-2.102538821897637425e-02,1.229955897850591381e-02,7.659991085529327393e-02
3.894782813757237117e-01,4.483232642791767364e-01,4.169130841870330451e-01,3.707401019775095202e-02,-5.890557161128312513e-02,4.067682861911511849e-02,1.486534923315048218e-01
3.736778657609182153e-01,4.436741035712304937e-01,4.958824795523338880e-01,-7.566237610006455901e-03,-3.865410703928345848e-03,-9.100575196690373694e-03,1.083725392818450928e-01
3.759939818534784317e-01,4.706478314253871309e-01,3.932496458304101661e-01,1.805092813362263503e-03,-1.197592832134963814e-02,1.471019182015182716e-03,8.983501046895980835e-02
4.311283212770216089e-01,3.841012315081009931e-01,3.831036498457409678e-01,1.245414137462040952e-02,-1.175786251416890103e-02,2.234756596064833845e-02,6.810107082128524780e-02
3.401867088247844118e-01,3.793515369402772341e-01,3.893938747329938055e-01,4.996763968362144537e-02,-5.346457087854563500e-02,4.026389748735832025e-02,1.515165269374847412e-01
4.542417793899548584e-01,4.553486254054499027e-01,4.283357017829078628e-01,2.400972208404470593e-02,-3.522890053755026174e-02,3.386496240658315449e-02,9.794977307319641113e-02
4.181858584469990703e-01,4.166192208037757805e-01,4.296075165157198228e-01,-1.293455300355293366e-03,-2.011652576461805432e-03,-4.605569679313516358e-03,1.521825790405273438e-02
3.685796792028031010e-01,4.984999167382979102e-01,4.534055754737828514e-01,-9.290573664329798307e-04,-1.400288076636606316e-02,-7.326086961271764328e-03,1.174987107515335083e-01
3.884497372935553083e-01,3.766517016879712965e-01,4.665577261867345782e-01,-2.098642534479460905e-02,8.004547734172766729e-03,9.385972601650992286e-03,9.454824030399322510e-02
3.464331076527120135e-01,3.474965754463014145e-01,4.855752950146137170e-01,-7.054201596710608924e-02,1.155815807945179650e-02,3.456864790814349192e-02,1.952638775110244751e-01
4.288862669476872780e-01,4.368784247925245889e-01,4.106973454810747826e-01,1.123324110176306991e-02,-2.758491569501916180e-03,2.713709850024141265e-03,3.104122728109359741e-02
4.539765116315787052e-01,4.250038353237113875e-01,3.365501669903187554e-01,1.358505511129680203e-02,6.740450394678554856e-03,-8.146756519127168125e-03,1.100694239139556885e-01
4.573553424363936415e-01,4.275937044535395581e-01,5.267169895348552400e-01,-2.938921336636735049e-02,5.779817839398830012e-05,1.392911817878927927e-03,1.017748415470123291e-01
4.384552963088292898e-01,4.105611019372812365e-01,4.849133088395389812e-01,-4.280535758406178726e-02,1.769843777601597459e-02,3.876457265466604768e-02,1.231950446963310242e-01
4.414835011783422303e-01,4.592819116491378972e-01,5.043054465048557589e-01,-2.885706787364546513e-02,1.935101799847062029e-02,1.724004717487239227e-02,8.751276135444641113e-02
4.215881494517924044e-01,4.803351763798673346e-01,4.265063012537460563e-01,2.518511554246845655e-03,-1.936726581904009946e-03,5.053430050379444788e-03,5.738786980509757996e-02
3.891242465514727633e-01,4.654877551833184190e-01,4.154902468189913822e-01,4.243412010223704921e-03,5.986904023811888582e-03,-6.270877851339768001e-03,6.922912597656250000e-02
3.701496687802799945e-01,3.289192949490274964e-01,5.126911960249291855e-01,-1.092991736050011320e-01,5.180045109182705720e-02,2.747986149934669026e-02,2.721199989318847656e-01
3.920850546300595485e-01,3.267678252876815015e-01,4.521572431004865500e-01,-4.445245368354776988e-02,2.067824564490261877e-02,1.994441898758934906e-02,1.421370059251785278e-01
4.242939954914991540e-01,1.004046885534723987e-01,4.544594783925268722e-01,3.688140693465218750e-02,-1.750082309781287454e-02,3.215608066689271821e-02,3.516903519630432129e-01
3.592746955900043559e-01,4.366734313927151390e-01,4.427279651470090727e-01,8.575348257296127111e-03,-1.490718501174990995e-02,1.524693571343322361e-02,8.989173918962478638e-02
5.557870456839962836e-01,3.187481576959816931e-01,5.723510342246246330e-01,-2.473354622514080739e-03,-2.847757853863468018e-04,2.148360199217646486e-03,2.458059191703796387e-01
4.569400002980387177e-01,3.944065456014744786e-01,3.826433149627411212e-01,6.418364389296758211e-03,3.188582670355607964e-03,-6.280622886498263280e-03,7.111138105392456055e-02
5.401071035976837686e-01,3.071443101586915359e-01,5.617389180597716081e-01,-3.079080408853157157e-03,4.445688567282050918e-03,1.710128280699480148e-03,2.446947395801544189e-01
5.240665821869872065e-01,2.875072492570149296e-01,5.203272891879638928e-01,8.722646439993037362e-03,5.234183992047649649e-03,-2.109220245392650489e-02,2.381907254457473755e-01
5.452082690637620743e-01,3.332863043858353969e-01,5.520176326007520951e-01,2.723272949626305561e-02,5.088073250628022057e-03,4.362074481591577887e-03,2.208165675401687622e-01
4.122424062011976753e-01,4.281881367827106155e-01,4.499644546410178081e-01,3.664612328987120349e-03,2.679236127937586077e-03,-7.175644471290823327e-03,3.594448789954185486e-02
5.293704510193903978e-01,2.831635697422143494e-01,5.202041718859432562e-01,-4.310689366013420454e-03,1.950805767237179722e-03,-5.595882480472927877e-03,2.420870810747146606e-01
5.243897240525898784e-01,5.487536468588211092e-01,3.317514631071026843e-01,-4.134363591793839034e-03,-1.730965167104270980e-02,2.214899053738610558e-03,2.082339823246002197e-01
4.993734143613233201e-01,5.297095001385643265e-01,3.568965127896472356e-01,2.860477403146976464e-03,-1.015061831074489523e-02,1.465665787920899903e-02,1.628503650426864624e-01
4.787298540249723677e-01,5.436954378704000890e-01,4.932972182539723804e-01,4.385890125388215016e-02,5.172576417060765347e-02,-3.945584896869944874e-02,1.481692343950271606e-01
3.579253148204802892e-01,4.574470004920216382e-01,3.181646303959807520e-01,-4.564509397777439040e-03,5.621289674452460000e-02,1.044011992186506983e-02,1.590964794158935547e-01
5.059184633746844906e-01,6.814774494127268101e-01,4.889809763276521393e-01,-3.461813806435018806e-03,1.464334357346017135e-01,-1.684998821783962458e-02,3.151147961616516113e-01
3.974351455573947867e-01,4.541760939760731142e-01,4.560232605450281751e-01,-7.403298177336676590e-03,-7.494225611874066363e-03,-1.187111574118661014e-02,6.390183418989181519e-02
4.073591935006160014e-01,5.105087766327999210e-01,3.547609288385768500e-01,9.443232774159078177e-03,5.139569531147704373e-02,8.019510350469037999e-03,1.649755090475082397e-01
4.245601955045051890e-01,4.309338601765090315e-01,4.604699008088645740e-01,-3.090934724318736108e-03,-2.191802930196531420e-03,-1.670663166243662248e-03,3.395145386457443237e-02
3.996799321632435453e-01,4.998682530836391358e-01,2.284950832136674048e-01,5.410899827296859754e-02,8.500101701803507159e-02,-5.487696191480156971e-02,3.098160624504089355e-01
4.099090553454920460e-01,4.245274524340850175e-01,4.476998998190055978e-01,3.562970990692456829e-03,3.148022900966771127e-03,-4.319084757533023233e-03,3.483076021075248718e-02
3.340897464242750803e-01,4.630493496457845914e-01,3.720150684900465077e-01,1.175651407657896455e-02,4.983836497722584497e-02,-1.237674308619596437e-02,1.466419547796249390e-01
4.370281818441473787e-01,5.506187687123909047e-01,5.368008467516466320e-01,4.465735391209780386e-02,2.878811262624309669e-02,-2.379407624867447765e-02,1.472811847925186157e-01
4.530353302301833862e-01,3.847629958471386891e-01,4.075859269165659216e-01,-2.255497159380351335e-02,-2.386019695026681681e-02,-3.009276002571097813e-02,9.785015881061553955e-02
4.204305601453239283e-01,4.445414218885505031e-01,4.383396436493738335e-01,-1.228029990557557953e-02,-1.372599960405555299e-02,-2.004413882522151913e-02,5.189599841833114624e-02
5.142487271001064952e-01,5.220118914278374378e-01,2.775378435920933806e-01,2.355722755688523782e-04,-1.236980485416846413e-03,5.135165966083887930e-03,2.408605366945266724e-01
3.674554723725097505e-01,3.979667156439656295e-01,4.258459420740535739e-01,-2.692466187594072871e-02,-1.691050400542106619e-02,-2.350271201953349487e-02,8.513904362916946411e-02
3.242220887853779487e-01,4.565880255932813214e-01,5.310483401393086833e-01,-7.906087063502167944e-02,1.942205343639966976e-03,2.968787895431127324e-03,2.273998856544494629e-01
4.344973388362741717e-01,3.914550686936839052e-01,2.566844805056293088e-01,-2.345087381243763161e-02,-2.533607858389014256e-02,-4.240850096275215753e-02,1.865143477916717529e-01
4.116156672066554334e-01,4.136404362200810647e-01,4.391108963316600056e-01,-6.711742407545278483e-03,-8.831020379978212279e-03,-8.479139031920613842e-03,3.590552136301994324e-02
4.641262170750774518e-01,4.706276675191488623e-01,4.134860223366638166e-01,-2.013626104617075030e-02,-3.569015353943837121e-02,-2.683661032113448391e-02,1.006693169474601746e-01
4.554755177413454259e-01,4.911298110627707603e-01,3.962752072466014241e-01,1.192669454923933094e-02,8.200247070367065391e-03,-5.904158936146531450e-03,8.729088306427001953e-02
4.580943440096006403e-01,4.153657876145360750e-01,4.074376916826548123e-01,-1.020708419437317202e-02,-5.398878017744303606e-03,-7.460991197850413287e-03,5.286148563027381897e-02
4.094187425081975418e-01,4.765270210098832004e-01,3.731909586432429204e-01,-3.150726928771969276e-02,-3.105000331374516837e-02,-3.378141555969468163e-02,1.324429810047149658e-01
4.400173276250530230e-01,4.875520373940218644e-01,4.724192062158411587e-01,-1.489516083557424972e-02,-1.834092444276179401e-02,-1.512486454572743548e-02,6.426715105772018433e-02
4.324491955838074553e-01,4.195782803515670789e-01,4.163157757003287385e-01,-4.179157319363684987e-03,-3.125414919483232579e-03,-4.761487569842587191e-03,1.918363384902477264e-02
4.328320667637178820e-01,3.002332134096153404e-01,5.711180220981521005e-01,-8.727765173043908198e-02,1.012654722364943820e-05,7.471989214889465658e-03,2.793951928615570068e-01
3.794957744958892265e-01,4.742309526581066081e-01,4.522468122918403277e-01,5.836750870179527317e-03,-9.388020133249934049e-03,1.017740528885382849e-02,8.973701298236846924e-02
3.536790151529766169e-01,3.566209545999019515e-01,4.519283346038758253e-01,-2.857499062537492002e-02,2.184941025861362671e-03,1.372159059938170928e-03,1.088214144110679626e-01
5.739058646573473865e-01,4.858682875407815960e-01,6.395552310533187956e-01,-1.232737830639868137e-01,2.746829236674218008e-02,3.131093887798419573e-02,2.619808912277221680e-01
4.168411051144233492e-01,3.110747632033700194e-01,4.063459879189499357e-01,-3.045973382466852716e-02,3.085456539036182319e-02,3.428709061616880271e-02,1.391145139932632446e-01
3.839463440740561451e-01,4.748167722718077410e-01,5.029758398978292355e-01,-5.428987227365150020e-02,-2.338530218767860200e-02,-1.131981527333627592e-02,1.499212980270385742e-01
4.937372611975122672e-01,4.215121979229309312e-01,4.906641159902215277e-01,-3.845127806563020112e-02,2.260553068033282695e-02,4.976997851329985345e-02,1.356599777936935425e-01
2.565384976412058982e-01,2.215362599933613508e-01,3.339446054691196375e-01,-1.161859814623374815e-01,4.026395809677566634e-02,5.295972986130709215e-02,2.523916661739349365e-01
5.140968564868509949e-01,5.098033924044806930e-01,5.240548479783510016e-01,-1.138778745403256909e-01,7.796516759903315830e-02,8.782781195122225937e-02,2.836225330829620361e-01
3.873771734744615447e-01,3.961390640342707381e-01,4.187425181322970702e-01,1.658282444726953339e-02,1.862763777010338975e-02,-1.728859727482739972e-02,5.956810712814331055e-02
3.295064423165189882e-01,5.250741654786217349e-01,4.855285632463847700e-01,-1.223357095412726551e-03,-1.482976682349658112e-02,-3.526160298829751280e-03,1.810477972030639648e-01
4.909875517074644424e-01,4.231806974651918241e-01,4.003410740015981295e-01,1.201931333725327414e-02,-3.992162636102116781e-03,2.753088092866224496e-02,9.707292914390563965e-02
3.909394948688796334e-01,4.249210844006745535e-01,3.975826867114531926e-01,1.113902533027483210e-02,1.228780223471503258e-02,-1.215238369285105355e-02,4.734320938587188721e-02
4.120202945090440938e-01,4.338673354838593621e-01,4.655552385231923607e-01,4.664294922416307651e-03,4.826416609840561769e-03,-9.091746362497368436e-03,5.056513473391532898e-02
3.669964115311390995e-01,4.410356345494373942e-01,4.670005238459015717e-01,4.027919299406655662e-02,3.459783817406683615e-02,-1.148459944928753931e-02,1.301244050264358521e-01
3.738783492803256503e-01,4.176383817658288478e-01,4.533475645114857233e-01,8.314319484889061765e-03,5.592934621048416613e-03,-1.172366997182909022e-02,7.393430173397064209e-02
2.452938103002413051e-01,4.171575222691668028e-01,2.856267103585523603e-01,3.754474269073194287e-02,1.514542996521484053e-01,-3.796087576970713640e-02,3.187463581562042236e-01
5.151083885059201117e-01,4.960750494562345958e-01,2.778636226309105783e-01,-9.027047232111160002e-03,-1.061703062488581449e-02,-1.536499306883604143e-02,2.311334311962127686e-01
4.269760694669033629e-01,4.447728163231519649e-01,4.707764033612868437e-01,3.000156343335788536e-03,4.529801082387832634e-03,-1.134312204668148742e-02,4.393460229039192200e-02
5.888520971682477123e-01,8.146928605868520856e-01,6.075698388073584866e-01,-9.354352241195865170e-02,2.349745332127690378e-01,9.546697908683589306e-02,5.161000490188598633e-01
3.081582888115772523e-01,5.979316825875373720e-01,5.582359250116253335e-01,-5.459931555939676051e-02,2.998155642644233579e-03,-1.052682652252418839e-02,2.886940538883209229e-01
5.198232466480086078e-01,5.108777668251143211e-01,3.199242482238171537e-01,-4.546823395777822700e-04,-1.438633013915302430e-03,-1.522249978791542259e-02,1.973662674427032471e-01
5.131461772594761994e-01,5.137137501970167053e-01,3.162649749448137593e-01,4.383280723849149516e-05,-9.896544900536726960e-03,-6.011748834440765535e-03,1.981830745935440063e-01
4.920364131312033318e-01,5.112947460664453159e-01,2.916121969038671935e-01,1.773863088735452452e-03,-2.856061955941222030e-03,-3.610995586540155511e-03,2.108876854181289673e-01
5.615559763286958050e-01,5.655066512357068698e-01,3.270807729586583390e-01,-4.694345665274986083e-03,-9.675236825042433930e-03,-5.535835535142555504e-03,2.374014407396316528e-01
5.076155465924813148e-01,4.988326822915103986e-01,2.628605101371200847e-01,1.247936464775372539e-03,-6.063369611453970666e-03,-2.909304893943016543e-03,2.407755702733993530e-01
4.435476206049234760e-01,4.268134279152036581e-01,4.286375992813090119e-01,1.023149271192632694e-02,-1.148835837594718717e-02,8.210520481454607750e-03,3.413312509655952454e-02
4.622215442760246873e-01,4.901346714646269143e-01,3.934723310311115663e-01,1.261792172970593352e-02,-8.397266426411129081e-03,3.759157802896036932e-03,9.031154215335845947e-02
4.259912262119978643e-01,4.056528187245493910e-01,4.613862066853744448e-01,-5.858784414207271474e-03,-1.021003728680406654e-02,-4.306117832437239730e-03,5.345719307661056519e-02
6.287050346286077174e-02,6.562019347169931738e-01,5.936755248607239466e-01,-1.102853320449064672e-01,-1.589860974531267374e-02,2.527109475504136019e-02,5.983440279960632324e-01
5.125137302509095161e-01,4.987134310482121968e-01,3.079156417212656760e-01,-1.503038431974194639e-03,1.240356663888159648e-02,4.812958286169122246e-02,2.159745395183563232e-01
6.424562308314244463e-01,3.708581997244218553e-01,6.965079878701653238e-01,-4.542114883952754617e-02,-1.574208376299699591e-02,-9.637122575211874362e-03,3.139725029468536377e-01
4.960767523372809906e-01,3.749429848995741166e-01,5.023527337728507236e-01,5.565388891132450923e-03,1.590074482254850638e-02,-9.666728870139886659e-03,1.288594901561737061e-01
4.660897764338348681e-01,4.681521799771637959e-01,4.026467287686094076e-01,-1.691939254709827825e-02,2.726261540679232945e-02,2.685036337205399734e-02,9.701284766197204590e-02
4.906992184442803828e-01,4.762308368992274055e-01,3.778106487155959980e-01,-1.375654084015839364e-02,2.424324864770065549e-02,3.421041511531595219e-02,1.310032010078430176e-01
4.391822085640155748e-01,3.503261939776405320e-01,2.211533717438237401e-01,5.599232096438868170e-03,-1.304159326625208698e-02,1.193526098116440975e-01,2.817769050598144531e-01
4.906776936992732208e-01,3.219452112128007304e-01,4.521643718665889766e-01,-2.897904106845818062e-02,2.068468457765664306e-02,6.377464346641291415e-02,1.986454576253890991e-01
4.099550675010891210e-01,1.959366410601072195e-01,2.608224908298225619e-01,9.122480553164198994e-03,-2.194009984629994442e-02,1.428487634748545620e-01,3.147036135196685791e-01
4.211256529593450093e-01,4.312587672726084231e-01,4.208156783922687438e-01,-4.422063822375772030e-03,-2.304044459348935075e-03,-2.384226883365186695e-03,1.405562274158000946e-02
5.078870130348105416e-01,4.354010569178901058e-01,4.125774854325017227e-01,-3.106492382616429619e-03,2.038885424939910779e-04,-8.907338089600079847e-03,8.773035556077957153e-02
4.672701107249628283e-01,4.271378687253979956e-01,4.261423464141616546e-01,-6.714932156007488023e-03,-7.214943270226896986e-03,-7.907802353218296859e-03,4.615817964076995850e-02
3.570798285409613748e-01,3.070603455648707736e-01,2.878725981182574389e-01,-5.777500272574820350e-02,7.614406339379797828e-02,7.731797732454910588e-02,2.217469215393066406e-01
4.115996435740573167e-01,4.472350739170517508e-01,2.709223958980678804e-01,1.433132742832937678e-02,5.162508523642985597e-02,-2.068250664419393064e-02,1.896522492170333862e-01
5.697321611162715627e-01,5.641546882916871342e-01,3.826665917040049103e-01,-1.733929838406437357e-02,3.430490896526894318e-02,4.684690875710344204e-02,2.121264189481735229e-01
4.840947986839927997e-01,4.150133002228256762e-01,4.182360870398613151e-01,4.265039380997820515e-04,-3.049179564928781224e-03,-2.138343250462684027e-03,6.783922761678695679e-02
2.947776963703415687e-01,4.168138339358944400e-01,2.103525612236941122e-01,-3.051341410348815467e-02,-1.232916151537980509e-01,-2.499573552459544504e-02,2.873906195163726807e-01
4.394705553708919132e-01,4.610255578052826486e-01,4.000681672326136806e-01,-1.737257923555126163e-02,-7.178408778123123064e-03,-5.435888483008348426e-03,6.336513161659240723e-02
4.599872779176283344e-01,5.196176818141560183e-01,4.411572573987858625e-01,-3.257945108386262056e-02,-7.366419770208261497e-02,-3.081664774838880835e-02,1.653653532266616821e-01
3.893782943999638535e-01,5.466613137478207873e-01,5.605903429998927434e-01,-7.838856127407232977e-02,-1.044431704137656902e-01,-5.074150497400543858e-02,2.932682931423187256e-01
4.516181581883422780e-01,4.521041558620104706e-01,3.194426696211924432e-01,-3.085287377191970465e-02,-9.006128062901724851e-02,-5.970002306435324285e-02,2.354058474302291870e-01
4.887468719861898792e-01,4.254018104250605892e-01,4.028947113746222386e-01,4.845787647214490172e-03,1.971380179692995300e-03,-4.879382252566858737e-03,7.809231430292129517e-02
4.009225848072265341e-01,4.494276455278155002e-01,4.047129107284132554e-01,-9.634339077928471412e-03,-1.953804870287518744e-02,-8.939235568452127620e-03,6.202140450477600098e-02
4.315410689393830990e-01,4.428227902615339273e-01,4.340245273793452152e-01,-1.860563827110719732e-03,-1.919325878337717600e-03,-1.527073057178686367e-03,1.156976632773876190e-02
4.157164823945839749e-01,4.715206372897960407e-01,4.202428297731231055e-01,-1.601461653404994204e-02,-1.789484345860951897e-02,-1.189010284759588719e-02,7.096623629331588745e-02
3.607791400069133014e-01,3.575205433393512378e-01,4.512592210038323115e-01,-2.919171757407618140e-02,-1.452889754263531150e-03,-9.432166577507006700e-04,1.051549911499023438e-01
3.892016300689201125e-01,4.845090057069793010e-01,4.218909269565556119e-01,-7.345077184635529942e-04,-9.696658768977753362e-03,-3.451644949037764847e-03,8.576706796884536743e-02
4.365824007906318194e-01,5.068863597248954855e-01,6.101426648052321600e-01,-1.396170306722635257e-01,-2.254018113557337485e-02,-2.296298295453767790e-02,2.906005084514617920e-01
4.038056835901842057e-01,4.816338586803301514e-01,4.315484181344231285e-01,2.593594764835781795e-03,-7.317715192120380178e-03,9.347699144430366217e-03,7.148904353380203247e-02
4.402502065200594172e-01,4.238379809059533154e-01,4.985345548253995451e-01,-2.743376608246824236e-02,-2.294948970987593581e-02,-2.057681628450450800e-02,9.864629060029983521e-02
4.026471653434451903e-01,2.550529312187339581e-01,4.829053943986976738e-01,-8.655670184772004672e-02,-1.958944509302614195e-03,-2.468456748990759467e-02,2.537454962730407715e-01
4.124569528238073990e-01,4.937025459516594106e-01,4.193035984737120692e-01,2.323248119380975137e-03,-5.432986611899775532e-03,1.961412431555435969e-03,7.878927141427993774e-02
4.092299894329263221e-01,4.060402710885413491e-01,4.604222191493462235e-01,-5.164063090941560692e-03,-7.638133199501265409e-03,-4.433182059500107887e-03,5.575026944279670715e-02
5.044360487018573203e-01,4.162352206583991299e-01,5.404638937181918124e-01,-3.619514321757127256e-02,-2.354941107668315908e-02,-3.531232384349246300e-02,1.469351798295974731e-01
4.311257616115027336e-01,2.803229751838093309e-01,5.577700720508020904e-01,-8.406231095994325109e-02,-3.922522251634951058e-03,-5.993346004524584270e-02,2.998336255550384521e-01
4.476363792228931215e-01,4.033980469379073730e-01,4.282232494297330549e-01,2.965743925929993554e-03,-1.219304156165301398e-02,3.292642928564635044e-03,4.449738562107086182e-02
4.087848393719445972e-01,2.542476647265680123e-01,4.711499900814738462e-01,-8.051585978288720857e-02,-7.669521928357679683e-04,-7.937581454846230969e-03,2.388473898172378540e-01
5.001568953570160181e-01,3.573127148333495318e-01,5.377668869233829252e-01,-5.067850227438094879e-02,-6.371153331955706212e-02,-1.176268661036897062e-01,2.976272702217102051e-01
5.539709043144795952e-01,3.560389495179486774e-01,4.746101818880650858e-01,-4.739023707834773280e-02,6.322957915791816222e-03,-1.251669573422641846e-01,2.891797125339508057e-01
4.572602199541869195e-01,2.126857660882948142e-01,3.505291859245690533e-01,-2.569527552034130830e-02,-1.151640840012165337e-02,-9.956706603432020908e-02,2.778919339179992676e-01
4.097438783545622187e-01,4.120101084279441106e-01,4.066570411559313758e-01,-4.174721840529038719e-02,-4.369403487511699935e-02,-3.785573355421838898e-02,1.235994622111320496e-01
5.187708368740953091e-01,3.860836667580693216e-01,4.761074593700747037e-01,-4.436047887516092469e-02,-2.689543856419608289e-02,-3.483746756518382726e-02,1.596238166093826294e-01
4.144073668918759612e-01,2.983219601336082327e-01,3.141735240895984216e-01,-7.478989597544447032e-02,-5.985507634115808800e-02,-1.032240382404080725e-01,2.671723067760467529e-01
5.238067938633771403e-01,3.706777054016688888e-01,4.133964541215474076e-01,-9.737143069529778650e-02,-9.062756195851665031e-02,-8.200129137168739313e-02,3.032955825328826904e-01
4.247287586351081168e-01,4.199745303401413166e-01,4.367714997511847885e-01,-2.017570561008199528e-04,-4.007813189386982703e-04,2.772763363434846591e-03,1.576556079089641571e-02
3.592773817122179025e-01,4.659982969472398762e-01,4.505665418851589887e-01,-1.925782309746067178e-02,-2.018803239143462241e-02,-1.607322876954070390e-02,1.144155114889144897e-01
4.475368360764696019e-01,3.969948082869487194e-01,4.193883128577434727e-01,-2.396437123477693221e-02,-2.439391398523983734e-02,-2.341016991853465262e-02,8.412088453769683838e-02
4.791834361839407141e-01,5.552555175102912299e-01,4.930666148342889854e-01,-8.974901966207513015e-02,-5.819679498690263908e-02,-1.209098431397744172e-01,2.882818281650543213e-01
4.121078325857575053e-01,4.684298165218650500e-01,4.060812503810956597e-01,2.652647488857963389e-03,-1.294290446897734554e-03,1.709484416566522860e-03,5.985663458704948425e-02
3.739855675624254028e-01,3.699191380730226242e-01,4.149419796978398023e-01,-9.556949126684921580e-02,-1.400415856910871559e-01,-9.958684668002203144e-02,3.432909250259399414e-01
4.172090782465771586e-01,4.367600047868210877e-01,4.294257279029823349e-01,3.862730280912232694e-03,-2.421416990439914131e-03,7.325481069044488883e-03,2.271515503525733948e-02
5.248837249250148940e-01,5.273411850908518161e-01,3.673557838079152260e-01,-2.136808094423369234e-02,-2.722396119240201237e-02,-5.536140086320110593e-02,1.949258297681808472e-01
2.721070985816512744e-01,6.108436484691869284e-01,5.657788594120131132e-01,-1.004019615185454267e-01,-3.251149973648267272e-02,-1.363874025581160790e-02,3.680745661258697510e-01
5.897572780935023129e-01,3.703638640297112761e-01,6.050068701587391073e-01,6.712882704711047033e-02,-1.001848234454180003e-01,2.738943301517697271e-01,5.660352110862731934e-01
5.428714275313568649e-01,4.753063374138284392e-01,3.687450512811545345e-01,-2.027627369435899482e-02,-1.374544477016981410e-02,-4.423501142102174294e-02,1.754724383354187012e-01
3.511230840093996775e-01,4.359708548672007744e-01,3.316862811390890453e-01,-4.985636687604970418e-02,-1.074705344202683821e-01,-7.436951159739241257e-02,2.606248259544372559e-01
4.830490300974375484e-01,3.947306713493632935e-01,4.282496528437658156e-01,2.649086369534023322e-03,-7.149472506686243775e-03,5.907955675079182983e-03,7.900900393724441528e-02
5.149282057743501673e-01,2.724478251827516795e-01,4.968473028525086654e-01,9.378161918597915925e-03,-6.176604784873143510e-03,1.081205810251984964e-02,2.355172932147979736e-01
4.708706343380673065e-01,5.715512817243006971e-01,5.022613081622914200e-01,-3.842573120504663708e-02,-7.075019748270228170e-02,-3.554899497709192863e-02,1.766326874494552612e-01
2.936105569070817101e-01,5.848154506769422945e-01,6.197261731663488149e-01,2.110993432438860312e-02,-4.028104308711907833e-02,2.233568049956347751e-02,3.223142027854919434e-01
4.776246424008768754e-01,3.386472583726438113e-01,5.330727136075669170e-01,7.110985089246175950e-02,8.859479200873236412e-03,7.965615554482099667e-03,2.137542665004730225e-01
1.943761349072973266e-01,4.113496914788348779e-01,4.660329633432603869e-01,9.339841743881074909e-02,3.372700750631445893e-02,-3.407325149866557989e-02,3.082172870635986328e-01
3.222011197683036787e-01,6.284185757777003278e-01,5.775518838582004433e-01,9.320192650669070766e-02,3.540945966321397409e-02,-8.495321218598275020e-03,3.328934907913208008e-01
3.508243108278390476e-01,4.389598398886095931e-01,4.381273885579690108e-01,-3.199696626119252763e-02,-2.686571673884965983e-02,-2.022875083745016150e-02,1.189937815070152283e-01
1.820239255895739761e-01,4.859723004015752967e-01,4.741149354831724616e-01,5.643837336921295883e-02,1.284234659538845830e-02,-1.269726698654693835e-02,3.153656423091888428e-01
2.535656694331437366e-01,4.723229403944496640e-01,4.837154491401348677e-01,4.398538871114494181e-02,6.688816032310952731e-03,-1.618029142440358115e-02,2.391662597656250000e-01
5.954503667583207482e-01,2.561940765480257287e-01,5.180935926435839001e-01,7.287476904921809384e-02,-7.675619084451530683e-03,3.732138663533428324e-02,3.392974138259887695e-01
4.224133592501548851e-01,5.002042000681453660e-01,4.864823049761574647e-01,-2.440924807676856170e-02,-2.987575499743210655e-02,-1.755562029321443285e-02,1.027715131640434265e-01
4.687499952438982653e-01,3.968551419945619552e-01,4.429712100388885632e-01,5.021135652944818534e-02,-3.382641555787197635e-02,4.776927338554649849e-02,1.477226614952087402e-01
4.023254687268960628e-01,3.161471228513989540e-01,4.532877059310334023e-01,8.787903872696789520e-02,-4.097553091587517043e-02,3.939130472560329471e-02,2.174301743507385254e-01
2.754735930410585620e-01,3.859715814963254887e-02,3.033305656494225677e-01,1.302186964373390210e-01,-3.076622298524846894e-02,5.945291531908485083e-02,3.574905097484588623e-01
3.193127581490277089e-01,2.725342692009241063e-01,4.085794788568795077e-01,9.212406731778274849e-02,-3.690340667352206422e-02,4.036862707029271330e-02,2.208337187767028809e-01
4.160300753646750116e-01,4.977261153771672664e-01,4.667310388399490972e-01,5.034209890292824091e-02,-4.972208908025149698e-02,5.757553035241912143e-02,1.733996123075485229e-01
4.786988620669516137e-01,4.053041634134789684e-01,4.402837788198795121e-01,3.343005696802443891e-03,-8.430835817291783968e-03,6.986341250634357097e-03,6.660501658916473389e-02
4.020837600472220164e-01,4.239940454776012779e-01,4.604683043675836807e-01,3.798578022110909395e-03,4.807312969468544722e-03,-1.284186116480405884e-02,5.671818181872367859e-02
5.052940295220148537e-01,4.767008230794065327e-01,3.580224289442852093e-01,-6.357029594114623969e-03,6.985364930243690221e-03,1.291403313792580110e-02,1.380705088376998901e-01
3.921582001488930214e-01,3.750393811270815725e-01,2.971708514175867566e-01,3.854240198555074909e-02,-3.996824078881218434e-02,3.737208464381133743e-02,1.453565508127212524e-01
4.135978340353340110e-01,5.635232179473047553e-01,5.666297206067522074e-01,3.367803447516867082e-02,-3.017123632758197602e-02,8.244573946419754898e-03,1.711446046829223633e-01
4.376215203673667897e-01,4.875404781901306328e-01,4.368678951110719910e-01,1.023842031876493960e-02,-5.758773321368066724e-03,1.115390260191934449e-02,5.759587883949279785e-02
4.269799339896075963e-01,3.938305836508445568e-01,4.864295393276446000e-01,9.300981569638995528e-03,-3.552676404127306543e-03,-4.267660308889179694e-04,8.307699114084243774e-02
4.068392650880287009e-01,4.083255515980891981e-01,4.810538687501237365e-01,1.886705205386325634e-02,-3.184975012488345039e-03,6.168217775042256429e-04,8.061750978231430054e-02
4.594705104535954376e-01,4.592860166807754552e-01,4.041339980988192804e-01,-1.076581613734891966e-02,-5.201392290366153859e-03,-6.846193271609780223e-03,6.017838045954704285e-02
3.668300367249426319e-01,4.607124208674132082e-01,4.761915738706208323e-01,7.726101969177245898e-02,-9.005649033332756292e-02,7.565004774458726489e-02,2.644122242927551270e-01
2.130470900020033087e-01,3.139878579608135767e-01,3.493579406937730170e-01,1.159707800153865348e-01,-8.211382309778623989e-02,6.445023375211136885e-02,2.967281043529510498e-01
3.920413153119444161e-01,4.864638146552978104e-01,5.068699429096148457e-01,4.795157732275456830e-02,-1.736997870444803582e-02,3.120692608411922142e-02,1.482688188552856445e-01
4.099560981665517079e-01,4.838681424939143549e-01,4.172403100358105243e-01,1.731851905706354279e-03,-3.063289534135396792e-03,-2.205129974823111239e-03,7.091823220252990723e-02
5.571174994889337428e-01,4.759352159049071718e-01,5.970376303700577481e-01,1.296107762335908797e-01,-7.613383544244332890e-02,8.008296011451002117e-02,3.137686550617218018e-01
4.579417012460522685e-01,5.060431191429956010e-01,4.355150846536816056e-01,1.657763700890576772e-02,-2.373612614854790290e-02,1.315819653630826390e-02,8.324380218982696533e-02
4.372179141331671848e-01,4.607296721641320203e-01,4.826573377979884172e-01,-1.265373756194474765e-02,1.674585901131200177e-02,1.492528645352996126e-02,5.949032306671142578e-02
3.767136098498596875e-01,4.753864059095281869e-01,3.445114660110383809e-01,2.578170269279832574e-02,-4.582718171640639410e-02,9.962616789487911337e-03,1.501433104276657104e-01
3.108072779804806895e-01,5.001583177693849080e-01,4.676795710720503818e-01,-2.775128753974199017e-03,-1.537737574180065431e-02,-9.060244250648795405e-03,1.781503856182098389e-01
3.370183723322036640e-01,4.301843817773917666e-01,3.799697224393314698e-01,3.116735775544997658e-02,-3.536068250195403134e-02,3.319138499411715404e-02,1.284268945455551147e-01
4.742994837629740390e-01,4.275107134425917277e-01,5.204072042739651405e-01,5.780301703689914167e-02,-3.190172087266472667e-02,3.474702066588274824e-02,1.522209793329238892e-01
4.957293688672679277e-01,4.319669966628651436e-01,5.099971011309674118e-01,5.527456715598349363e-02,-4.339743195682392585e-02,3.769799123692838677e-02,1.557504832744598389e-01
4.093199631511988956e-01,5.318106019867946399e-01,5.070384565132033394e-01,2.954664814310262524e-02,-4.125482802947614408e-02,2.798321518888991291e-02,1.505235433578491211e-01
5.148721062901326917e-01,3.536970546806994520e-01,6.335559648769275576e-01,1.377625625357620787e-01,2.612012119737199033e-04,1.565577551631153544e-02,3.418526351451873779e-01
4.256616721890578159e-01,4.622637953028158608e-01,4.293394754931202928e-01,2.135563797859860256e-03,5.605097072789974643e-04,5.068084266770691085e-03,3.619816526770591736e-02
4.226238966263758945e-01,3.003165235785951737e-01,4.484898627490780942e-01,7.569858598721497522e-02,5.733298745147090425e-02,-4.176016563171979640e-02,2.259989231824874878e-01
4.490272301854073000e-01,3.463058429464498378e-01,6.210738045277813812e-01,1.018639465254417564e-01,5.275629239598077051e-03,-4.709129658414545373e-03,2.985019087791442871e-01
3.292221934827951890e-01,4.176475999588455945e-01,4.245763320526869111e-01,1.090963096941740262e-01,8.260774371797294235e-02,-1.064383504689540988e-01,3.140783905982971191e-01
4.927120748086434299e-01,3.881661532803811210e-01,3.272710782499472781e-01,-1.892723888347560895e-03,2.201619497756112948e-03,-4.528580786370577094e-02,1.648699343204498291e-01
4.386891784012096895e-01,4.436202900785567449e-01,4.271595745724855453e-01,6.081511053656010746e-02,9.852742465474849387e-02,-1.246988479792266319e-01,2.950964272022247314e-01
4.437010599368963470e-01,3.567682117737286385e-01,4.637683395817559506e-01,4.415012721719670241e-02,2.147750366120283402e-02,-4.427439040160005557e-02,1.510521024465560913e-01
3.861539248645733946e-01,4.054015261239893309e-01,4.459320663287982267e-01,1.499555188717535507e-02,1.287576856639574552e-02,-1.024873640959379426e-02,6.542458385229110718e-02
5.394385939210992742e-01,1.950028457967927786e-01,5.549780410948202958e-01,1.721704686945089713e-01,1.438978293693772281e-01,-9.543885332531860943e-02,5.500938892364501953e-01
2.803517870647197485e-01,1.351549760777781273e-01,2.828010133274849180e-01,1.508879165546005152e-01,1.339559700363004979e-01,-2.065255867251173105e-01,5.210914611816406250e-01
4.822763869136318382e-01,2.438754261405929880e-01,4.159274799335576089e-01,1.403856760102548673e-01,7.496899792041963884e-02,-1.502434251137598209e-01,4.348842203617095947e-01
6.569374272051827779e-01,4.319402039697757267e-01,6.305960988344032625e-01,1.824096932645127844e-01,8.462972718309213355e-03,-1.276763673557088363e-01,4.408280849456787109e-01
4.701186880944164259e-01,2.913939878539447692e-01,4.995685342090641634e-01,1.426830790743465194e-01,1.788711511422110545e-01,-1.577708848403872599e-01,5.194306969642639160e-01
3.735844500895038056e-01,3.751448581119224968e-01,7.441436771553736063e-02,4.348642271552121547e-02,1.232655547157523179e-01,-4.686522402451259728e-02,3.844703435897827148e-01
4.160000749167902523e-01,4.466588595459384248e-01,4.326605659187450770e-01,6.810613766655137027e-03,-3.225682923054770321e-03,9.117573365419882198e-03,3.356339409947395325e-02
4.304729302879106712e-01,4.261243719432877830e-01,4.294496332134308814e-01,-1.412066313816422300e-04,-5.668530077316846251e-04,1.306451697551455540e-03,4.653113428503274918e-03
5.282492053386569353e-01,5.359935486642554148e-01,3.680023857818511823e-01,1.558997109684776873e-02,3.148017890649409956e-02,-7.100461870555661859e-02,2.140260189771652222e-01
3.752726139519422244e-01,5.269807980155042371e-01,4.743723766829929245e-01,-4.242908624715121396e-02,4.554088798487049283e-02,2.507335952806654528e-02,1.769477576017379761e-01
5.610157792873167182e-01,5.766587699934453415e-01,3.653763259459526513e-01,1.812356945985231851e-02,4.540763853940809475e-02,-3.018119560053821038e-02,2.268998771905899048e-01
4.302010938608543111e-01,4.283420613797250809e-01,4.254254169080779469e-01,-1.396093247012527400e-04,-1.845701887646875592e-04,1.107388700964633725e-03,4.607011564075946808e-03
4.111351383008821081e-01,4.167146529293698776e-01,4.387074093605304870e-01,5.529307658241902623e-03,-4.135508074317849163e-03,9.968671031415955036e-03,3.284313529729843140e-02
5.069715311544766845e-01,5.291767131189379914e-01,3.099101443271814471e-01,8.472089549741731659e-03,3.814249139026570923e-02,-3.831001658094716766e-02,2.295318990945816040e-01
4.660245641647253745e-01,5.237441624640317706e-01,3.232336394013257674e-01,-1.269088545616238181e-05,4.744365834641726259e-02,-1.593662200005530744e-02,1.986888647079467773e-01
4.685119417321929602e-01,5.160643498804033946e-01,3.845387191685300521e-01,-3.644749857631304161e-03,4.323597120122781023e-02,7.806435397673813607e-03,1.383350491523742676e-01
6.326937639086663845e-01,6.892711842568919334e-01,4.026258125505257635e-01,-7.380624720647379136e-03,1.218050701294821070e-01,-1.668600523942034841e-02,3.386104404926300049e-01
4.036592448820237600e-01,4.050760993077499039e-01,4.627729313524534538e-01,-2.098290334204212099e-03,-2.559283987546517088e-03,-1.406246868669931661e-03,5.874921754002571106e-02
3.584528872797067001e-01,4.088461643745069929e-01,4.364244689021831158e-01,-4.430386712908954833e-02,3.146549809882187576e-02,3.985403274960687414e-02,1.353276371955871582e-01
4.950844528793595378e-01,4.977588193049949372e-01,5.141569992736840788e-01,-2.712426397108152337e-02,3.106106889284086792e-02,4.073603453273958591e-02,1.019790545105934143e-01
5.360224535517629230e-01,5.265658811397428973e-01,5.975683567586115297e-01,-9.948566164015353042e-02,8.798525842622505200e-02,1.053435730081206945e-01,3.011105358600616455e-01
4.116529256757087141e-01,4.178523499984584388e-01,4.746161898654860933e-01,3.410926346031866677e-03,1.678740188709902268e-03,-2.318632245281996695e-03,6.059666350483894348e-02
5.169624617481171081e-01,4.449215227753687829e-01,4.140104426963274742e-01,-3.171915629200386388e-02,2.925280632101507489e-02,5.789396697894760163e-02,1.549609154462814331e-01
4.060477410556264655e-01,4.075942460308234483e-01,4.713025675654928248e-01,3.169489309155725919e-03,1.789953674326469823e-03,-3.888491937198805103e-03,6.515195220708847046e-02
7.298213108750395417e-01,5.417430762157329216e-01,7.522668539192143289e-01,1.968903666671152630e-01,-9.351579348722012519e-02,1.681750488587492320e-01,5.171850323677062988e-01
4.176612942917025117e-01,4.108557115183237851e-01,4.915577258430333663e-01,3.640914979877033983e-03,2.407281017405346092e-03,-2.551346004694846417e-04,7.789259403944015503e-02
4.345483284009543090e-01,4.384205422777587291e-01,4.225122955508644473e-01,8.701889653333343133e-03,5.953057199701099721e-04,-2.176008069055313226e-03,2.118733339011669159e-02
3.947891983728123444e-01,4.901906751474662260e-01,4.635457487241955166e-01,-1.580315450313243830e-02,3.287814933306937998e-02,2.320545460185199221e-02,1.134770661592483521e-01
4.179154226476354261e-01,4.160680395383752894e-01,4.761325799932458747e-01,5.163732751342841783e-06,5.780089455040274748e-04,4.697667963955930149e-04,5.917654931545257568e-02
2.128319553298642641e-01,4.104141139434776542e-01,3.968639371467460042e-01,-7.478925206294796679e-02,6.696443175616963173e-02,3.563198798389261707e-02,2.656820714473724365e-01
4.285661134182436327e-01,4.239570866367353696e-01,4.302553528240302128e-01,1.097573175078939102e-03,1.839209921960444256e-03,-8.245945528400303731e-04,6.905386224389076233e-03
3.010498558142220560e-01,4.594937940418920563e-01,3.466700630580680786e-01,-4.295168265088352560e-02,1.015163514962667962e-01,2.297351787781673482e-02,2.408153563737869263e-01
4.421066244795903155e-01,4.251494525952759784e-01,4.192276610332934528e-01,6.225882360768764112e-03,1.154745465517739147e-03,-2.107766445656352600e-03,2.359328977763652802e-02
4.075385720378394416e-01,4.579880658252814540e-01,3.827522073675515002e-01,7.867283045975826533e-03,7.091969758589965200e-03,-2.956683610209934112e-03,6.908524781465530396e-02
4.038089070976556560e-01,4.081909913152456659e-01,4.498262717619361806e-01,-1.144086256827729804e-02,1.243597836479162951e-02,1.515082543430687663e-02,5.899518355727195740e-02
4.122137097328560928e-01,3.982702460675816569e-01,4.180278809034057019e-01,-1.378061824294549501e-02,1.626885673507207433e-02,1.149754708718666446e-02,4.549306258559226990e-02
4.069814218667174854e-01,4.019728029762148491e-01,4.799652102445726709e-01,3.166641275953830520e-03,-1.505021150236590037e-04,-1.120852565075394335e-03,7.583658397197723389e-02
4.213982658404350490e-01,4.084940272973773268e-01,4.705984943980324742e-01,-5.426981547156959490e-03,-2.384737288690150399e-03,-1.584805823362463390e-03,5.774968117475509644e-02
4.376394046014900896e-01,4.525210751111438112e-01,4.572098492312918760e-01,-1.174616397667262516e-02,1.383073512688224802e-02,1.180201416283112835e-02,4.145929217338562012e-02
4.167743564772266596e-01,4.060552591726670491e-01,4.608514358081801099e-01,-3.950888947454789593e-03,-4.738390256986971943e-03,-1.574611517891571491e-03,5.149542167782783508e-02
4.292944603755181054e-01,4.071939809276209910e-01,4.159463589695888142e-01,4.396357759095140087e-03,5.567403256468731083e-03,-4.738348713246584923e-03,2.428849972784519196e-02
4.260643787978763974e-01,4.400880175060366550e-01,4.555568271513916745e-01,-1.651553420096397301e-02,1.083313731357352788e-02,8.562241618180447753e-03,4.520144686102867126e-02
2.824769660201450483e-01,3.452010997040986240e-01,2.597343510599913197e-01,-7.167749783081306392e-02,9.949967123118944046e-02,8.129483400993466058e-02,2.661167979240417480e-01
4.080689232896974050e-01,2.890469711975716116e-01,3.982888798175349687e-01,-5.862257087826999030e-02,4.069203641798238569e-02,4.218929624026889619e-02,1.836164146661758423e-01
4.745470570204082250e-01,3.918624789839107447e-01,4.306627979453396260e-01,5.602868118920512758e-03,1.136996136228776190e-02,-7.847035557728219979e-03,7.616264373064041138e-02
4.450716309105881563e-01,4.578886851623826804e-01,3.928906436510696820e-01,-1.586539952287871827e-02,2.595783288430592028e-02,2.299404696048985147e-02,8.898694813251495361e-02
4.776339099435866209e-01,4.071137093181991795e-01,4.385211885044862368e-01,-5.047551455202841514e-03,-5.732604087309828289e-03,-7.223689250641366320e-03,6.384538859128952026e-02
4.154138834581154738e-01,3.914183780005671132e-01,4.410257963838016271e-01,-2.657736657718014900e-02,2.170931483766200959e-02,3.975589802015448010e-02,1.006025448441505432e-01
4.194824449705339964e-01,4.179147434091646240e-01,4.281630662863302739e-01,-3.032956134843992069e-02,3.349974610715288764e-02,1.678196612670018739e-02,8.403968065977096558e-02
5.056341434162906490e-01,3.922653420563507742e-01,4.337336516199902237e-01,-2.610647637476672805e-03,1.397460501822190941e-02,1.898435370089660013e-02,1.075101196765899658e-01
4.755473832091717812e-01,4.196359887715059855e-01,4.266300368343859395e-01,2.034896833985237220e-03,5.446905027819490784e-03,-1.711053805006946876e-03,5.379744991660118103e-02
4.797205633648359280e-01,3.282846999723511572e-01,4.392981110603577100e-01,-9.781540694240687533e-03,1.422930040021062881e-02,5.152152140141733755e-02,1.652369350194931030e-01
5.243120711912476750e-01,3.883970989606321256e-01,4.290149666262709771e-01,-1.497890586992901146e-02,5.882515550372897223e-02,1.511442574396736349e-01,3.069041669368743896e-01
4.069637794658109153e-01,4.032341989602268306e-01,4.406331551816393133e-01,1.848249864869864036e-03,3.162318340925250170e-03,-6.779694601847667361e-03,3.809528797864913940e-02
4.259797051465979978e-01,4.450516623113367487e-01,4.636856294226432973e-01,2.572170507559262340e-03,3.838697055540426280e-03,-8.268029671852063223e-03,3.654430806636810303e-02
6.102234534880452976e-01,4.863262479206755251e-01,4.021042104758418279e-01,-3.998372212173397638e-02,2.739065239994494666e-02,8.481211255425950835e-02,2.480017393827438354e-01
5.910102318832739510e-01,5.528970841869909059e-01,4.189835357799429616e-01,-3.654557172275873372e-03,1.372603925676490512e-02,3.726845755552716383e-02,1.710596680641174316e-01
4.739108378831923818e-01,4.973692158133813379e-01,3.180879938292831000e-01,4.630635180307738491e-03,1.192997539051702735e-02,-3.569963442057081694e-03,1.703406572341918945e-01
5.365297734054841339e-01,4.522439072628286483e-01,3.498434188931400790e-01,5.769504302269406505e-03,1.750004897312233340e-02,3.316636468926435766e-02,1.747556030750274658e-01
3.671662867715201894e-01,5.025090137559247161e-01,4.079289230135307309e-01,2.925366308459477482e-02,5.178937506751481873e-02,-2.377826004436211366e-02,1.636223793029785156e-01
4.339293180606714762e-01,4.046046510223872406e-01,5.033431096125646764e-01,7.096386499093072092e-03,7.151604064772956737e-03,-5.791974039795336811e-04,8.955035358667373657e-02
4.437972390383919108e-01,3.473059785452862203e-01,4.424671420326913296e-01,1.533090611194161054e-02,2.099578920180302302e-02,-1.327460863489563977e-02,1.083522737026214600e-01
6.403344143395754973e-01,5.039049001293739449e-01,5.111905240580399967e-01,-4.410113881219779319e-02,5.726305631665174617e-02,1.387226116489004846e-01,3.017878532409667969e-01
5.773214461077342818e-01,4.271017292642301233e-01,6.231989074603556666e-01,-1.265270255056349380e-01,4.992842207397812232e-02,9.421894177397183157e-02,3.371940553188323975e-01
4.893015611379225582e-01,4.098003081712623397e-01,4.185048650476572152e-01,1.349662905605690218e-03,3.012187919300080442e-03,-2.003318646593661018e-03,7.582163065671920776e-02
4.674639603370418506e-01,3.089638695988177197e-01,5.012629725137786041e-01,1.339319350502763718e-02,-2.260923226291723827e-03,1.913752286810858601e-03,1.794052720069885254e-01
4.685056390812275540e-01,4.105292325833632683e-01,4.112183883738258494e-01,1.679528537788783785e-03,2.893342724530259709e-03,-1.473809184622889049e-04,5.792603641748428345e-02
7.227003042409863021e-02,3.890470460654821272e-01,4.628742605295045887e-01,1.763239016157917838e-01,-7.925671298833543432e-02,2.715095214214893748e-02,4.934689998626708984e-01
5.118003804088336883e-01,4.849154089011654123e-01,3.592422932771615618e-01,-7.369491636302792290e-03,7.832363272975980534e-03,5.703170551972893548e-02,1.732052713632583618e-01
4.986436699622981417e-01,4.723888985979800559e-01,4.000915847189371322e-01,-1.417150126183807680e-02,3.147020936126862511e-02,5.155905444371362140e-02,1.391509622335433960e-01
4.781890703818696409e-01,4.502966261117909985e-01,3.902248762502487089e-01,-2.327949801803970084e-02,1.555386506376454925e-02,3.511520076592403866e-02,1.100588813424110413e-01
5.360134689533182506e-01,5.176048554558295711e-01,3.803534077152151416e-01,-1.768944820815721714e-02,3.409133080384464665e-02,3.895849404635932933e-02,1.751631945371627808e-01
4.621623210295912054e-01,4.271412908593696378e-01,4.445703322113930822e-01,2.898476594406546210e-03,1.300037729160527164e-02,-3.597485828549137812e-03,3.861242905259132385e-02
6.665187014082857297e-01,6.350316540984579650e-01,4.743792906975662360e-01,-4.378519008796247225e-02,7.372235055320679187e-02,8.351790464486456844e-02,2.735711634159088135e-01
3.370057221893154598e-01,-4.734227419174413809e-02,4.170327364582725183e-02,5.394077665162130136e-02,4.625732498277113774e-02,-2.529617707101975421e-01,5.731884837150573730e-01
3.798803539156561104e-01,2.950776549310238916e-01,1.050855231632893405e-01,-2.126777325794323992e-02,2.465475639570042718e-02,1.149178283872581419e-01,3.196860849857330322e-01
6.642616026749820213e-01,6.917480819250085844e-01,2.766763018547852560e-01,-4.762759186758096924e-03,-3.974485175587078728e-02,1.484177323070176233e-02,4.087775349617004395e-01
3.859609730461092680e-01,3.991170586689509747e-01,-1.579304158803613300e-01,1.418624647112290763e-02,6.612115967301215869e-02,2.536191571364581135e-02,5.646200776100158691e-01
4.268993212165299589e-01,4.123383639629055741e-01,4.669650875957326308e-01,5.745043662169002814e-03,9.692043573496475148e-03,-4.517863096899916477e-03,5.331735312938690186e-02
4.282624121644028059e-01,4.046630361218273575e-01,4.632842067043806966e-01,3.762709143256674684e-03,1.245716356320679917e-02,-1.918963949062733008e-03,5.593758076429367065e-02
4.656750638680951515e-01,4.100676267120212937e-01,4.661837068717957777e-01,-4.751659243639351840e-03,-1.190226934016795461e-02,-4.475788918749451159e-03,6.060985848307609558e-02
3.875967975415387512e-01,4.161298274145158183e-01,3.845230199623956846e-01,1.327569410368717277e-02,1.569233389618841443e-02,-1.069390169893611603e-02,5.021797493100166321e-02
4.827362864033171164e-01,3.729647023362129277e-01,4.233777255192038291e-01,4.489793896335261825e-03,8.001367613147710237e-03,-9.455688460971976156e-03,9.786790609359741211e-02
4.019816510680013222e-01,4.258665423411774342e-01,4.787122394581792006e-01,7.290513587764324392e-03,1.308260175786918767e-03,-8.072274687173962640e-03,7.060767710208892822e-02
7.745424360498770477e-01,6.484493214052532428e-01,2.315368049495653557e-01,-3.383827914817546384e-02,-3.935566102885459418e-03,3.633079515394203873e-02,4.997265636920928955e-01
4.109881123980795303e-01,2.207360801117210503e-01,3.413670720912568290e-01,3.515146219326827776e-02,4.232249931928116354e-02,-8.871399268464762178e-02,2.459437996149063110e-01
4.136461194547410569e-01,4.227478898756689696e-01,4.735182784616017160e-01,-8.035982691247035847e-03,-4.173053828318769830e-03,-8.818287166074282105e-03,6.001529470086097717e-02
4.857509722711237377e-01,4.015505338276085245e-01,4.132950190572199367e-01,8.894416572442103743e-05,7.308374425476482357e-07,-4.398285638930108515e-03,7.935246825218200684e-02
4.828419683908318216e-01,4.342460228595690364e-01,3.973084294022830032e-01,1.014659754930752160e-02,3.622253985040888025e-03,-5.401199919076140471e-03,7.717972993850708008e-02
4.786511155771300818e-01,4.027261573654992710e-01,4.112169449542060207e-01,1.074358760567747538e-03,9.723284734737937599e-04,-2.037256783842872863e-03,7.218573242425918579e-02
4.424677628542981744e-01,3.794404814100192924e-01,4.450446550120519262e-01,6.083314292017523266e-03,1.388390905074078814e-02,-5.975110049927492319e-03,7.027024775743484497e-02
5.110646436366852452e-01,4.691462316202427707e-01,3.695769955943685736e-01,-1.657698102326872871e-03,9.080853141092644354e-03,-4.808015979750723118e-02,1.517751812934875488e-01
4.223878067459636565e-01,4.199601248012340693e-01,4.180949666449947366e-01,2.683864515995740274e-02,2.855692877358974660e-02,-3.032038497250183831e-02,8.590291440486907959e-02
6.242009546721405400e-01,5.196254246502028940e-01,3.950187616754815556e-01,8.699416398125618677e-02,7.187230867840935233e-02,-1.449608585949163642e-01,3.751472532749176025e-01
4.696125511539647746e-01,4.099784552641546620e-01,4.136242200095706645e-01,-1.958610574836372464e-03,-2.797591440454229826e-03,-3.718264597156236122e-03,5.855398997664451599e-02
3.689027254313511639e-01,3.253771625560049063e-01,8.839688530373468467e-02,4.976277907306287523e-02,1.001880143026988856e-01,-1.249469712794513410e-01,3.908272981643676758e-01
5.465541884291034158e-01,4.839433500283893963e-01,3.895944307540356033e-01,8.467511759706537744e-03,1.048963147449579435e-02,-4.842783859487292952e-02,1.622037589550018311e-01
4.523557093926190431e-01,4.005841804366488956e-01,2.785054274135432828e-01,3.080272250685064592e-02,3.476356908367287529e-02,-6.104867007135002244e-02,2.038540542125701904e-01
4.493106481715810063e-01,4.175017548970449410e-01,4.138068969653496687e-01,-2.469211708029551023e-03,-5.305073703510297320e-03,-3.772984949140756935e-03,3.589450940489768982e-02
4.264467326812027004e-01,4.580111602580494434e-01,5.073359544904517682e-01,7.176068945233095298e-02,-1.089645924477505023e-01,4.015281306939300077e-02,2.467621117830276489e-01
4.054612048135318725e-01,4.366616036423395242e-01,4.700526259374842586e-01,2.594033737841644482e-02,-1.901487337777866063e-02,1.441627073824884933e-02,8.280775696039199829e-02
5.047415877941545670e-01,3.678333493215666938e-01,4.465400668754582747e-01,7.253215621635078188e-04,-9.428859874379309780e-03,-1.420446166935335382e-02,1.226238310337066650e-01
4.399860137883584432e-01,3.673534343335646546e-01,4.656639703456076917e-01,5.017544294741326481e-03,1.255313147741404962e-02,-5.267560545070886988e-03,9.182275086641311646e-02
3.884310909250913713e-01,4.354808664331352164e-01,4.833646532867191259e-01,2.967151045034868359e-02,-7.133122281551666950e-03,8.730647232864962790e-03,9.890385717153549194e-02
3.955790577026546684e-01,3.368638333654661032e-01,4.570118520606007984e-01,4.714985435537044633e-02,-2.185994063332273932e-02,1.884117206748977397e-02,1.414085328578948975e-01
4.473185167427063402e-01,4.321786011461212773e-01,5.067618318450662906e-01,3.159396360941471582e-02,-1.633068645956304438e-02,1.343232222237176858e-02,9.486085921525955200e-02
2.083444831507070549e-01,3.883159665720385956e-01,4.490958203842095320e-01,1.329313504326446183e-01,-4.282276122589488004e-02,5.887595374716977914e-02,3.404927253723144531e-01
4.508976268073990323e-01,4.955290840131322261e-01,5.821096964755978487e-01,6.974817396257461388e-02,5.617002378062274474e-03,-3.773000900165483264e-03,1.675833165645599365e-01
3.647946480971273608e-01,4.321166197158295419e-01,4.533610853592079937e-01,1.026719718512276829e-02,4.240153041756171415e-03,-1.740672876040672001e-02,8.770951628684997559e-02
4.279690795478552356e-01,4.255744669888062992e-01,4.288760010023561775e-01,1.884049265645416221e-02,2.963221694356492006e-02,-2.996839984963815123e-02,8.001337945461273193e-02
4.872189625747424535e-01,4.118464366219913853e-01,4.081178315105110643e-01,-9.406468602929582423e-04,-3.728761616725522572e-04,-6.190859529856653290e-03,7.806411385536193848e-02
3.171310072488164877e-01,3.711136282007743703e-01,3.827828383695990877e-01,4.423545098629270977e-02,3.684201971812072623e-02,-3.340821863738201170e-02,1.302723437547683716e-01
3.177562947546785366e-01,4.135646991672744521e-01,4.430262959296737413e-01,2.712276410694381204e-02,1.253106543367665110e-02,-2.488057073688139734e-02,1.319281905889511108e-01
4.317010326036654910e-01,4.611336651703618061e-01,4.390967307234360795e-01,1.928727106033377913e-03,8.571946501862815621e-03,-1.356558944489093949e-02,3.856127336621284485e-02
4.275091481639261559e-01,4.253636627540241522e-01,4.277801928547839139e-01,6.936891619079500922e-03,6.552488100156285585e-03,-6.525902846985977106e-03,2.015408128499984741e-02
4.081962445570566644e-01,4.057743681166222083e-01,4.439038295012897040e-01,-3.812114779952092297e-04,1.632390057948163251e-03,-3.559798116294632647e-03,3.760083764791488647e-02
4.668192603252337980e-01,4.083343056648648939e-01,4.036045874880260786e-01,-3.462460791173578578e-03,-2.145057421271811832e-03,-2.597120271059455768e-03,6.155877187848091125e-02
4.684232584861870441e-01,3.143967314154385018e-01,4.511209496014086939e-01,1.010033675513031942e-01,7.249168464334944384e-02,-7.454335520065581699e-02,2.905147671699523926e-01
4.453433787015375067e-01,4.120635542660510686e-01,4.133790131113100341e-01,-6.124628569365244204e-03,-2.627929761887415339e-03,-3.355616244522600586e-03,3.510741516947746277e-02
3.290583792525999529e-01,3.860222406799877493e-01,3.353617892198561545e-01,5.708200467997690680e-02,6.655698416048676236e-02,-5.789586985591121948e-02,1.898575872182846069e-01
2.643169347483388387e-01,4.033500313639264423e-01,3.074860967253847943e-01,6.901410241526921563e-02,1.081263645064594048e-01,-5.532552046819544378e-02,2.715462148189544678e-01
4.750811265036324893e-01,4.629656939909041480e-01,4.223148005992760079e-01,-1.955687823638851269e-02,-2.082909090572261993e-02,-1.973775514777450363e-02,7.687318325042724609e-02
4.667202730939750133e-01,4.015438626621649076e-01,3.570862089085551361e-01,1.934553452880015748e-02,1.809565042043356081e-02,-4.106430919712334565e-02,1.276165246963500977e-01
5.396773112153003815e-01,5.696086706321491500e-01,3.903927432403453412e-01,-4.333053627958684088e-03,-6.719689863002402397e-02,-2.772421108126894157e-02,2.087068557739257812e-01
4.495201660059552906e-01,3.667616407324819638e-01,2.628872127894007482e-01,5.597978203945834508e-02,9.932391963290107539e-02,-9.622884681745109969e-02,3.049791157245635986e-01
3.764500038191360698e-01,4.234761572821484910e-01,3.326174741631114373e-01,2.606069043741477895e-02,4.713200473241919986e-02,-4.373671528895384936e-02,1.436470746994018555e-01
3.827774814592107555e-01,4.351886286178634489e-01,3.811232853855731073e-01,1.829461613093897807e-02,2.778018900727845242e-02,-1.731006369731800595e-02,8.399151265621185303e-02
5.881810872198917073e-01,5.877139302385191444e-01,4.461971420200170346e-01,1.809580757632484396e-02,4.739358806067674873e-02,-6.479599015838370668e-02,2.010217010974884033e-01
4.408388704993456142e-01,4.230947448133743349e-01,4.301257005079366369e-01,-3.209443877235463281e-03,-1.487614666815402107e-03,-3.234494194004991410e-03,1.756293326616287231e-02
4.267442885540283504e-01,4.108587851081643705e-01,4.130472427446334471e-01,-2.785401216032921436e-03,-5.018677262596641514e-03,-2.160602140523976752e-03,1.830888167023658752e-02
4.071526187809368924e-01,4.267556214839221540e-01,4.317848235164091220e-01,1.942236031219129327e-02,1.254999529659241338e-02,-2.261192604125248848e-02,6.038416177034378052e-02
3.700801073441718492e-01,4.424501646496649121e-01,2.912322215539882575e-01,1.705123327991515600e-02,4.473317241381141035e-02,-2.142299887964568134e-02,1.594141721725463867e-01
4.353528901951791985e-01,3.745416176143038789e-01,4.696041686063140985e-01,-1.171004913024014174e-02,-1.636220735744253058e-02,-3.991441048982218541e-03,9.064414352178573608e-02
4.313202889974466214e-01,4.285422391789793783e-01,4.422108853743578205e-01,-1.593575063937755117e-03,-9.132041858379229922e-04,-2.082606798404695089e-03,1.340556982904672623e-02
4.854568620328926221e-01,5.594925594294358762e-01,4.647125606168261980e-01,4.197155915496129930e-02,7.959440126638007984e-02,-3.757949941358552925e-02,1.896700412034988403e-01
4.124396424089495361e-01,4.065107128758205790e-01,4.559758145908771043e-01,1.949526531044657937e-02,1.787788696394858670e-02,-1.822741845958711707e-02,7.269416749477386475e-02
4.275504372734453828e-01,4.155409998894963319e-01,4.282349936753876429e-01,-4.990861687092115924e-03,-8.439139422961872139e-03,-3.729320700439609903e-03,2.197778783738613129e-02
4.276152623693602051e-01,5.643678406188756824e-01,5.201182306212284168e-01,2.581809511176978711e-02,4.301754819712686612e-02,-1.868153804214630828e-02,1.523361355066299438e-01
4.256106677693910489e-01,4.255751341798790777e-01,4.304374977645983869e-01,-5.652660465710328697e-04,-2.269651178671688255e-03,-1.533792507014813998e-03,6.851361133158206940e-03
4.408844153247724051e-01,2.940824987683989811e-01,4.132720404107214640e-01,-2.505563653377724381e-02,-2.644460030376201073e-02,-4.260427767746283872e-02,1.663922369480133057e-01
4.979659798644672231e-01,4.476372276820351215e-01,5.021841334505547927e-01,-2.476655534907727316e-02,-1.751291112858905166e-02,-2.473676185050013507e-02,8.578488230705261230e-02
4.524501546885631442e-01,3.982197591287151006e-01,4.503887763586532089e-01,-5.236214490631096834e-03,-1.532026014841652087e-02,-5.514327715975458899e-03,6.091801077127456665e-02
4.285027067959281677e-01,4.184047185376638112e-01,4.553242492103471983e-01,-3.766389668823410045e-04,5.218133337258868201e-03,-3.517156103127598923e-03,3.480562567710876465e-02
4.357851111608145867e-01,4.153438923501586166e-01,4.128035757798281802e-01,-6.344198383856877385e-03,-3.737481245256548106e-03,-5.789293475915490220e-03,2.719235979020595551e-02
4.126957963823126851e-01,3.710069348516568111e-01,4.569571491847034261e-01,-1.387953177963192376e-02,-1.199098063709476934e-02,-4.622906103098056545e-03,8.133647590875625610e-02
4.073061887593433794e-01,4.149717787949240289e-01,4.585449717060767205e-01,-7.330559141618204523e-03,-5.972696899812033472e-03,-1.009416353247209741e-02,5.352855101227760315e-02
4.094964937955399842e-01,4.123719973554727525e-01,4.681032544055500622e-01,-3.483313566283326255e-03,-3.698352718976490126e-03,-5.204122809072050070e-03,5.859334021806716919e-02
3.981663961862338397e-01,3.889576016387433222e-01,4.440700717562738875e-01,-7.127933547760771996e-03,-7.948831053406170064e-03,-3.970906880523678885e-03,5.480825901031494141e-02
4.267712071851516020e-01,4.301296171245591604e-01,4.284611225447559346e-01,-3.703819093379240551e-04,-5.431044552028878444e-04,-5.722337053709667222e-04,3.276902949437499046e-03
4.085894524791493509e-01,4.375511645408190486e-01,4.879410160783587691e-01,-2.467499819811776879e-02,-9.061362064789232895e-03,-2.106044954883748779e-02,9.077892452478408813e-02
4.203726929482825003e-01,4.196646218058375788e-01,4.325608658664500950e-01,-6.642645034019389709e-04,1.269210827980863559e-03,-1.096719036898912217e-03,1.294016372412443161e-02
4.124399805863362412e-01,4.182980798899043062e-01,4.713921346971460813e-01,-2.677401433871404775e-03,-2.496404003324718783e-03,-3.898106833750069125e-03,5.700976774096488953e-02
3.898933431838385588e-01,4.676199957698589649e-01,3.735452854481695617e-01,4.623735394100006446e-03,-9.465144815001486425e-03,1.041359322706752327e-03,8.896925300359725952e-02
3.836316743347484848e-01,4.134815178481819342e-01,4.175829337587718126e-01,8.013278311683552646e-03,4.307791676038985260e-03,-1.016766149664330258e-02,3.985868021845817566e-02
4.350905562551536376e-01,5.115635954641238881e-01,4.277931029072377656e-01,-3.190214452600306436e-03,-1.425620363809116352e-02,-2.962678637755700520e-03,8.441575616598129272e-02
4.186018680141667669e-01,-1.164837966928592428e-01,4.371533496169540678e-01,-3.858867869074068119e-02,1.617486384053679407e-02,-6.397052378242334969e-02,5.604607462882995605e-01
3.879019200296678349e-01,4.671870874603141210e-01,3.761903634077756742e-01,1.827399931044461964e-03,-8.957599725689564113e-03,-1.156654813772680984e-03,8.721581846475601196e-02
4.719209011113165153e-01,3.969964907355857386e-01,3.869439881041272788e-01,-6.570326235540901484e-03,-4.431260244600800785e-03,-8.681918581969851056e-03,8.296047896146774292e-02
4.172698427896174844e-01,4.878418577553519375e-01,4.185642888535023864e-01,-1.134241190895366813e-03,-1.636377399037778463e-04,-3.290647032048797053e-03,7.019371539354324341e-02
4.670581800443326381e-01,4.038711173413239153e-01,4.198343975290773633e-01,2.567515484860151843e-03,5.965765249634887891e-03,-2.453857471530280793e-03,5.816674605011940002e-02
3.727502374186207890e-01,4.645159788628447362e-01,3.830250009252239574e-01,-7.171170961690887229e-04,-1.120916123749281929e-02,-3.511504059291500890e-03,8.943780511617660522e-02
4.800089861777468436e-01,3.896901013183497464e-01,4.137551842392521717e-01,1.719406821283537851e-03,6.821516443439514400e-04,-4.435101075562007493e-03,8.143938332796096802e-02
3.149667589099000020e-01,4.688259426937476104e-01,4.901328201336511703e-01,1.397860269931693045e-02,-5.717887314666322135e-03,2.004541094144086932e-03,1.676342189311981201e-01
3.848471315792219571e-01,4.647207004129501051e-01,3.945602150969067523e-01,3.428668117107371276e-03,-9.367369204023992535e-03,5.669923627420796197e-03,7.805937528610229492e-02
3.851972849392428788e-01,4.534765946344967991e-01,3.909413101347589126e-01,2.351522889465175979e-03,-1.068179903768239070e-02,4.856977488188952974e-03,6.879332661628723145e-02
4.358673120863560402e-01,4.978725013311728897e-01,4.292419393893864288e-01,7.385554434953778627e-03,-8.330485881043351443e-03,6.448241555074707074e-03,6.925255060195922852e-02
3.919799675925752513e-01,4.471996209897454166e-01,3.923707709102599028e-01,3.012726082932975450e-03,-8.801035111828454938e-03,5.331538413313839132e-03,5.807463079690933228e-02
4.124865884385846004e-01,4.591997401066561513e-01,4.054343948757139771e-01,7.364820956794934301e-03,-9.145521300209777382e-03,4.961734765779803047e-03,5.521577596664428711e-02
4.382768532276548057e-01,4.432254959965639118e-01,4.407300501055704811e-01,-8.524686761242634969e-03,-1.077095108018384130e-02,-1.343343357931205129e-02,3.355278819799423218e-02
4.456885430104449153e-01,4.240513406641497340e-01,4.675027637737560471e-01,-4.497911477190274544e-03,-7.012969954341026317e-03,-2.785103344386502533e-03,4.058986157178878784e-02
4.100253114991968539e-01,4.094732005525263396e-01,4.504019568193199374e-01,-1.527636789041878461e-03,-2.955671020027013460e-03,-1.572197689176419930e-03,4.115209728479385376e-02
4.125057462534807984e-01,4.408143112344375947e-01,4.696944892735364641e-01,-1.827083173595183893e-02,-1.614022019327255447e-02,-1.187071719712133253e-02,6.825487315654754639e-02
3.740908315516638938e-01,4.145366968244289518e-01,4.453586350298870955e-01,-8.668306175334879182e-03,-7.987202419513101878e-03,-1.292177521656411726e-02,6.892170757055282593e-02
5.014990599977231511e-01,4.056359506445623153e-01,4.286790492313772849e-01,8.231664226513681808e-04,-4.389659102045907930e-03,-1.342682232009601191e-02,9.006895124912261963e-02
4.027898092644027761e-01,4.292732741960411658e-01,4.618955921068347847e-01,-4.032044976938034195e-03,-4.979818939171801531e-03,-9.637523212064444400e-03,5.505774170160293579e-02
4.965674007470441964e-01,4.029542865013046038e-01,4.299974744818637062e-01,1.672666170531972177e-03,4.491002401670701923e-03,-4.400131593613207902e-03,8.420294523239135742e-02
4.067467104044024118e-01,4.278762649482470426e-01,4.338805641696483750e-01,-3.430180153319630117e-03,-3.467546694550658476e-03,-1.090054812054914134e-02,3.220580145716667175e-02
4.228139516799082620e-01,4.386898372441872529e-01,4.442001998923995054e-01,-1.118648481851300218e-02,-9.147797130170791727e-03,-1.054750502653185006e-02,3.647051006555557251e-02
3.983974344306184801e-01,4.124058360287985447e-01,4.539952933677435243e-01,-5.928666438089461380e-03,-5.800318550640677639e-03,-8.018839844699140323e-03,5.392405763268470764e-02
4.865629794607698178e-01,3.984383295133658298e-01,4.624406139871768961e-01,-7.911271059121491658e-03,-1.172410580252383587e-02,-9.487321809369618150e-03,8.421534299850463867e-02
4.910479458359133242e-01,2.832085501924027637e-01,4.601520618477465963e-01,4.190376226524859631e-03,9.780362277716798253e-03,-1.316643737215612842e-02,1.964436173439025879e-01
4.553862368793177851e-01,4.142533043462067188e-01,4.333757376402262440e-01,-3.315978458373444477e-03,-9.711272671376303470e-03,-4.475388242332508509e-03,4.058355093002319336e-02
4.245077983624955809e-01,4.315359382670533317e-01,4.377967780485106930e-01,-3.225668806091046672e-04,-2.631980601792541057e-03,-5.512899974189734882e-03,1.564816944301128387e-02
4.238729718993585194e-01,4.213581484930086218e-01,4.441324486751677125e-01,-1.479949937507924092e-03,-4.182624806168604333e-03,-1.441937770773471864e-03,2.308703400194644928e-02
4.757521533577636630e-01,4.019399842159528946e-01,4.280850001345611888e-01,-4.376803171307045229e-03,-7.182004191649497132e-03,-8.589998112620398849e-03,6.808491051197052002e-02
4.003355164674980982e-01,4.266477887942318192e-01,4.985429378250412213e-01,7.531109458850429247e-03,-1.428960352582815761e-03,-2.679977666564253933e-03,8.916725218296051025e-02
4.336642898168791560e-01,4.282020634671980797e-01,4.263905160787460624e-01,2.082441182718747230e-03,-4.400951653969108960e-04,-1.884575926661036195e-03,8.201116696000099182e-03
4.585504504551208282e-01,4.403526070068948806e-01,4.391543383914670029e-01,4.489165712476310410e-03,6.248922990728308056e-03,-4.014475399070152779e-03,2.409058436751365662e-02
4.371661889574490201e-01,4.172223737476530858e-01,4.157025967257692578e-01,5.068908755764441922e-03,1.076042965077811430e-03,-2.303894571305524497e-03,2.295331284403800964e-02
4.470461953518695686e-01,3.536075559115439693e-01,3.582406005977952779e-01,7.852536057841594599e-03,4.943225508287837043e-03,-2.769562274717676797e-02,1.043013632297515869e-01
4.171009063102530945e-01,4.099391031768762628e-01,4.366424554529951818e-01,-3.406873664262463543e-03,-6.109520306364273588e-03,-3.773615492593732860e-03,2.761586382985115051e-02
4.178759398404359726e-01,4.912903816684544012e-01,4.251837767176945282e-01,-8.072710932142389837e-04,-8.683692917718699228e-04,-3.739655245689254680e-03,7.037582248449325562e-02
4.256638672153741365e-01,4.249456624201268240e-01,4.143210267369416000e-01,-9.039364423708650884e-03,-3.395357221874227647e-03,-3.941707225110127610e-03,2.115079760551452637e-02
4.323915749917685014e-01,4.200036367885117139e-01,4.157691478681369013e-01,5.719850963075170242e-03,2.443526569978297317e-03,-1.817927322476012904e-03,1.870362646877765656e-02
4.814615994180416192e-01,3.073941898097782843e-01,4.718101621885744112e-01,-1.558070181779785263e-02,1.956371959555353382e-02,9.993237655966253838e-03,1.757518053054809570e-01
5.032573761935854595e-01,3.010692375633446938e-01,4.979832240169118629e-01,-2.375788491373314465e-02,6.864556009734898608e-03,1.881634198294288712e-02,2.067325115203857422e-01
4.467127606374686755e-01,3.545792350860006437e-01,4.547444066788910444e-01,-1.528497420054852028e-02,2.242987126549978241e-02,1.575413324270905080e-02,1.106699779629707336e-01
4.759197686950923378e-01,3.561457234459283194e-01,4.652711614411433882e-01,-6.947554179377661045e-03,1.874510986742234167e-02,1.665868377255265778e-02,1.233501806855201721e-01
4.707070328840736173e-01,3.815425349468165028e-01,5.057845185916999275e-01,-3.900014193457741057e-02,9.474828247933215000e-03,1.592223927913396023e-02,1.337957680225372314e-01
4.332093661336453572e-01,3.301365416666510177e-01,4.625134533237929002e-01,-1.673539913480490138e-02,1.563893073592515989e-02,4.155640547228670739e-03,1.269997954368591309e-01
4.160569005327531822e-01,4.187092600223797367e-01,4.916828110943076147e-01,-1.380961980122262511e-02,6.115922992001836776e-03,4.649365857112347706e-04,7.880802452564239502e-02
4.149122243837579105e-01,4.131140773990034099e-01,4.843119912263761373e-01,-1.491525018844066337e-03,3.378675519449604245e-03,1.431187473612464240e-04,7.060689479112625122e-02
4.210341430232270032e-01,4.210436316256642719e-01,4.409307283739216654e-01,1.248079563840384350e-03,1.010415913653888191e-03,-4.490249971933739197e-03,2.153853140771389008e-02
4.110931492602830084e-01,4.297775861528276287e-01,4.089642347844442138e-01,-8.450159426012841812e-03,-3.366773824272829233e-03,-5.967731583834624300e-03,2.735837362706661224e-02
4.126154775982625589e-01,4.092202518802428579e-01,4.883459525074743679e-01,-2.232212396627835087e-03,-1.906292450899540222e-04,1.005661421146419746e-03,7.760055363178253174e-02
3.981926887567558415e-01,3.898829460439465211e-01,4.735579739617995498e-01,-1.150979150895884047e-02,4.331470673709574698e-03,1.637261600876902803e-03,8.268613368272781372e-02
4.170617552003613726e-01,4.158755920211389401e-01,4.398015440451321090e-01,-4.152074506287909555e-03,6.745691749752225422e-03,2.225088855998323505e-03,2.735988609492778778e-02
3.808634801944184023e-01,3.402384331420622021e-01,4.154666200452249991e-01,-1.315002170239311374e-02,1.247876725297523796e-02,7.269813852071788964e-03,7.347111403942108154e-02
4.766943514767156831e-01,3.516395978161680480e-01,4.297760736380651370e-01,1.160813013045844388e-02,-7.826697759057232948e-04,-6.052737959120198935e-03,1.117526441812515259e-01
4.701647816995722096e-01,3.993020516328396607e-01,3.166649670399539485e-01,1.806284511533533862e-03,9.818636023533300686e-03,-3.618338288513324452e-02,1.480980068445205688e-01
4.104007928226571233e-01,3.985978281760872988e-01,4.487194033527233117e-01,-5.553860259885364838e-03,8.978356774033352874e-03,6.964232895183160126e-03,5.039612576365470886e-02
4.285922334933475186e-01,4.032758989509419023e-01,4.354079364109563199e-01,-9.436633168194643803e-03,1.100758926466743025e-02,1.011741277640685645e-02,4.239878058433532715e-02
4.431460434149845362e-01,4.369453526349525441e-01,4.754261585501046161e-01,-1.629622164108806073e-02,1.100726828008028076e-02,1.518462772325506437e-02,5.596885457634925842e-02
4.879361466388197899e-01,3.592113102297613825e-01,4.422155147716788082e-01,1.741604243749679190e-03,-1.204228376193587115e-02,-1.473518812836100214e-02,1.177735328674316406e-01
4.500234446616225847e-01,3.745729415559598818e-01,4.731709102834534275e-01,5.043067466858230929e-03,1.461665719995175645e-02,-5.215636239803543399e-03,9.366919100284576416e-02
4.431467100588799557e-01,3.986856630843851335e-01,3.913744851016286441e-01,7.935733586224940489e-03,2.385356490587237435e-03,-7.141563448691238755e-03,5.209898203611373901e-02
4.926759145106184290e-01,3.654290613116216724e-01,4.833073355733873422e-01,6.223523188409516189e-03,1.315980107066789216e-02,-1.104748796175525870e-02,1.268435567617416382e-01
3.371010904603040648e-01,3.085191088620523048e-01,4.502815563983849634e-01,-2.320654821912859489e-01,-8.294868210735295566e-02,-1.111887725092677165e-01,4.859579205513000488e-01
3.353397208895581572e-01,4.335648755764038853e-01,4.636549518714231932e-01,1.007512366221228681e-02,-2.514322972626563749e-03,1.526139992564520993e-02,1.205463260412216187e-01
4.546142272554190567e-01,3.808525135876120182e-01,4.383983862722298230e-01,1.231720122774089370e-02,-2.326707506856067614e-02,8.992807462357810255e-03,8.264053612947463989e-02
3.251536434865593961e-01,4.573769081153812310e-01,4.706707022922886896e-01,1.239726062645373980e-02,-8.219392097322336665e-03,7.811026659469986859e-03,1.423525661230087280e-01
2.891560395998560851e-01,4.298763681934967829e-01,4.852719907581183323e-01,6.732385491404697941e-02,-6.969345137887767230e-03,9.942338222858802810e-03,2.114378064870834351e-01
4.696998979755064862e-01,4.096264085098075269e-01,4.169045634874672390e-01,1.699966072802930371e-03,8.916604055248730787e-03,-7.497188313467550644e-03,6.033558025956153870e-02
3.380707325682825171e-01,4.928418115428614965e-01,5.194101464981142335e-01,1.378089017711516852e-02,-5.390133195750645805e-03,8.839954734910870568e-03,1.722303926944732666e-01
4.614992939233255043e-01,4.044170316045798130e-01,3.910214022933704014e-01,9.677132162649714625e-03,2.478622330488729902e-03,-9.373393946563692708e-03,6.903211772441864014e-02
4.506132532544583902e-01,4.037022435970019085e-01,4.066951057915765277e-01,2.347284198908767758e-03,5.951175385426462836e-03,-2.361510481934652600e-03,4.699692130088806152e-02
7.529207856371999963e-01,6.009909050682876730e-01,7.731989431727763762e-01,-1.397131208243349576e-01,8.124559850608267797e-02,1.379282780313236256e-01,4.025036394596099854e-01
4.747445518193152414e-01,4.186490333334800806e-01,1.687410952987660195e-01,3.485610665986595136e-02,-5.141765302820055367e-02,5.020190071850812175e-02,3.142550885677337646e-01
3.157043066275982968e-01,5.164234408779765362e-01,4.975458755369266406e-01,-7.381308319580930782e-03,-1.046286102188382153e-02,-1.032635103154866396e-02,1.940804272890090942e-01
4.010970282579167656e-01,4.582031526659318121e-01,4.556131898334876418e-01,6.287492482964571541e-03,-5.213853306275243946e-03,1.138011694277632144e-02,6.089816242456436157e-02
4.222711027184975485e-01,4.073040417252880574e-01,4.492625844469253504e-01,-7.153182412649131995e-03,-1.179697044310762735e-02,-3.612438835282953415e-03,4.434743523597717285e-02
4.615949778342022247e-01,4.620131550366500806e-01,2.563665523072601315e-01,2.511554539674799164e-02,2.152753248177355708e-02,-2.597893214300301887e-02,2.179726958274841309e-01
3.620117282250012725e-01,4.100793879026555788e-01,1.531496990889770482e-01,2.111005878953352288e-02,-8.529608081191489277e-02,2.592524687488049692e-02,2.848734557628631592e-01
6.506124665317192246e-01,4.318107823239063503e-01,5.563202047939741490e-01,-3.820192240177630594e-02,-3.294048755002473156e-02,-1.238348183763663818e-01,2.996205687522888184e-01
4.009046930268342357e-01,4.273801101735877350e-01,2.730587171761745813e-01,2.121510262930434432e-02,-4.771938184948876227e-02,2.073910603040227466e-02,1.729228347539901733e-01
3.193997397700009122e-01,3.161262087769590723e-01,4.614875426569160499e-01,1.095404216504057698e-01,2.452609167440807786e-02,-1.376384901209395939e-02,2.429712265729904175e-01
3.568300376026913301e-01,3.957214523259193761e-01,4.262901063033175397e-01,3.713092578517883380e-02,1.907451997050148285e-02,-2.608457924712401232e-02,1.044255122542381287e-01
3.659400701340867479e-01,3.623464515172746259e-01,3.256661640109914102e-01,2.867816749962214321e-02,2.932163510069292836e-02,-2.931867033773882456e-02,9.547519683837890625e-02
4.356317589676840241e-01,4.326194490155883532e-01,4.505955146255612442e-01,8.131826902615406014e-03,7.010394448559787058e-03,-8.629476531610219894e-03,2.910813875496387482e-02
4.253403764097218320e-01,4.125792380262045533e-01,4.519054339771813034e-01,1.822523013381751591e-03,6.916464198707994275e-03,-4.335062425878616864e-03,3.764843568205833435e-02
4.274981704939505023e-01,3.834885211755070800e-01,4.524380847805780093e-01,9.764795752624386149e-03,1.567059269164198382e-02,-6.250291510043781348e-03,6.925604492425918579e-02
4.590675208281285169e-01,4.541061810933718634e-01,5.576532086830965351e-01,-5.495022589964174142e-02,-2.596160469322917122e-02,-2.441191636943615059e-02,1.519910842180252075e-01
4.855140959726990668e-01,3.253361880136996787e-01,5.227931713497507848e-01,-5.678719211477457202e-02,-1.954904407137448077e-02,-4.990106705533018522e-02,2.265152931213378906e-01
4.920906618898882035e-01,4.717622077468922592e-01,5.447348866337791140e-01,-6.205024360810076911e-02,-3.926554418954095876e-02,-3.496619996376082451e-02,1.552378386259078979e-01
3.651201587351729505e-01,5.072175777325735879e-01,4.470273405469685213e-01,-5.121174428092549512e-04,-5.458820232011972647e-03,-8.238596594759971248e-03,1.247215718030929565e-01
4.077720988289531556e-01,3.994483041386064359e-01,4.439030440442018333e-01,-4.406327895891790254e-03,-5.282843961411529121e-03,-2.903985038696985706e-03,4.292725399136543274e-02
2.899862806528394898e-01,2.301136407582900500e-01,3.652554665122483835e-01,-1.264062388518136515e-01,-5.467792836961493652e-02,-6.404600262092269292e-02,2.880400419235229492e-01
4.592383569416410571e-01,4.704622909034507638e-01,5.764072585946227179e-01,-1.244333508376136294e-01,-5.917882556556753465e-02,-8.502114652802075789e-02,3.019645512104034424e-01
4.378534334730564970e-01,3.235509955256318237e-01,4.651332515615603236e-01,1.674672444524059542e-02,-1.628501208778450685e-02,9.837005236333464311e-03,1.373122334480285645e-01
4.140794004110576187e-01,4.164881302456349688e-01,4.646598045340948890e-01,-2.643874884593127531e-03,-4.203255394632947339e-03,-3.963531924694616189e-03,5.063048377633094788e-02
4.516828642328049037e-01,3.085490829738440355e-01,4.218255044922559205e-01,-5.550706895149488257e-02,-6.203368054822046285e-02,-8.391272172686013719e-02,2.429337650537490845e-01
4.256822674938705586e-01,4.553852324620417669e-01,3.355253310184698745e-01,-1.464047330885045670e-02,-9.092857311326987824e-03,-2.545891011952006438e-03,1.122451871633529663e-01
4.086888556928109373e-01,4.276454891356859522e-01,4.501886831505540476e-01,2.078980639832880492e-03,-4.508522472379132388e-03,-1.294770479111154692e-02,4.326394200325012207e-02
4.164159706147659845e-01,4.180731776358207474e-01,4.653595377578198522e-01,1.409014049960068300e-03,4.500005565560024658e-03,-3.679571831095571240e-03,4.923853650689125061e-02
5.859324055429454559e-01,4.007878351674375450e-01,5.539506187881648724e-01,-3.476959689176230273e-02,-2.167467750150682895e-02,-5.440985987943609131e-02,2.080806046724319458e-01
5.351236594745401032e-01,3.803823510076779213e-01,5.366010642657909058e-01,6.740742970292818402e-03,-4.351619459166504444e-03,2.336001084358763427e-02,1.612633317708969116e-01
4.583550600835106792e-01,3.989558725303797293e-01,5.027659859432888068e-01,2.202326601137340883e-02,-8.172942966273572321e-03,7.574373233614988161e-03,9.983057528734207153e-02
4.296168645807533770e-01,4.026845986783783027e-01,4.839471051231936660e-01,-3.568795956843923145e-03,-6.304972690757601993e-03,4.713861695880271771e-04,7.279074192047119141e-02
4.026943706835821035e-01,3.921442468424287120e-01,4.621517413755083514e-01,6.969210592295386336e-03,6.731623663926922067e-03,-3.346993507567544782e-03,6.774236261844635010e-02
1.936662078597761738e-01,2.197232795350902435e-01,3.553556759982334778e-01,1.199643032325257846e-01,4.470156187764606770e-02,-5.845544212223245661e-02,2.864077687263488770e-01
5.031208371589039885e-01,3.146004913541148862e-01,5.051657553616893948e-01,1.065065669829609249e-02,-1.513233759753410297e-02,1.236345333340480024e-02,1.934307366609573364e-01
4.270839013815311835e-01,4.425179957527661245e-01,4.645707922902980180e-01,3.966429542812077887e-03,4.696801160257912423e-03,-1.004936087531535863e-02,3.848699107766151428e-02
4.422717536110519765e-01,4.462812396793277014e-01,4.108625814979758872e-01,1.626663151821544293e-02,9.984943871946715815e-03,-1.162349336754837752e-02,5.125202983617782593e-02
4.130410786900536313e-01,3.871291206341512803e-01,4.809724784486528182e-01,6.671888804650129463e-03,2.126224610025362165e-03,-1.441629242790749789e-03,8.485092967748641968e-02
3.857488815372385749e-01,3.769291862685861805e-01,4.616327699188965683e-01,1.113828443483732937e-02,5.667699202154480656e-03,-9.144007547322547747e-04,8.352535963058471680e-02
4.062059025328619843e-01,1.732429155164860735e-01,3.345511691937653742e-01,1.730569808990359976e-02,-1.805905660271931237e-02,1.023595813438147872e-01,2.757218778133392334e-01
4.064239714171053452e-01,4.491821427282716161e-01,3.598243107162035215e-01,-2.931994582556249340e-02,3.257516196618929355e-02,2.164076590427069235e-02,1.147156283259391785e-01
5.183270777983409738e-01,3.290821747011018483e-01,4.518873067715813985e-01,4.919143097192031286e-03,4.624532502580023380e-03,3.094967068766186005e-02,1.751139312982559204e-01
4.546149338736255041e-01,2.924704149933070596e-01,4.826656478204062739e-01,1.156459733201294950e-02,2.849762742950266887e-03,-4.686693952521466672e-03,1.792133748531341553e-01
4.543144894802243483e-01,2.071335013476851838e-01,3.564378141930052424e-01,9.840457534208951751e-03,-1.200809648986425789e-02,9.618876490970293403e-02,2.737972736358642578e-01
4.280008375731563230e-01,3.983185657316539174e-01,4.840702230231328507e-01,6.846847280332923197e-03,-6.293213386906203015e-03,-1.395948708186018716e-04,7.712710648775100708e-02
5.437334715845956179e-01,3.345805188691109988e-01,4.431057016192277986e-01,5.494155294192278050e-02,-8.772846267947307514e-03,9.374767795644113610e-02,2.616807222366333008e-01
7.799241092288294874e-01,4.786769432099413635e-01,7.185158516089001912e-01,-1.003580051091303715e-01,4.773473038694205778e-02,1.679736068773410307e-01,4.446551203727722168e-01
4.281044799780101551e-01,4.281780203769476323e-01,4.371181600453702409e-01,4.130645650667582919e-04,-7.756480400971427127e-04,3.731066650946859679e-03,1.116549596190452576e-02
4.150016921845664508e-01,4.516891547266389528e-01,4.130635216078951122e-01,2.157424830098627656e-03,5.662518302021502274e-04,2.046271266489034079e-03,3.805679827928543091e-02
4.361716160017328758e-01,4.079189547929247817e-01,4.367814658639545544e-01,5.898297216408223201e-03,7.823846175512443740e-03,-5.158937488645078985e-03,3.440444916486740112e-02
4.778693134298617196e-01,2.253314146872697765e-01,5.078160963590115928e-01,6.099867098855473596e-02,-1.285151813799128608e-02,1.114828452837148334e-02,2.902856469154357910e-01
4.681022380177494169e-01,3.464259481934968132e-01,4.688558776644516923e-01,-4.054146360549711406e-03,-1.592092049635162113e-02,-7.576620120101096659e-03,1.260132491588592529e-01
4.367839397577323868e-01,4.493486600016732280e-01,4.360414881976866219e-01,-7.577452573810042162e-03,4.319414714044939214e-03,6.293372554390636031e-03,2.268914133310317993e-02
5.059845259010293805e-01,3.024124138643693449e-01,4.763999537560775210e-01,-8.619253380371280594e-04,5.740926985966844122e-04,-1.329774521726298855e-02,1.919061392545700073e-01
4.113834466592665162e-01,4.291562225076797077e-01,4.178510974711631132e-01,-3.405276650468426567e-03,2.368064886550590338e-03,6.203300814292109569e-03,2.024370804429054260e-02
3.795809721839742967e-01,4.402906334322012061e-01,4.504032059686031708e-01,-7.720376539369284627e-03,5.270857274536867518e-03,1.878252235437924064e-02,7.564631849527359009e-02
4.399886686676962033e-01,4.183615314533265517e-01,4.593738947577368781e-01,3.613693321117889511e-03,7.479212996013560530e-03,-4.369762825229825572e-03,3.907740488648414612e-02
4.291610055258422984e-01,4.345761210106608985e-01,4.283933045595173517e-01,-3.064726098638152589e-03,9.844701091895702392e-04,3.428204655407365360e-05,8.072095923125743866e-03
5.276281939902396356e-01,4.538586387594392701e-01,4.981966404292120787e-01,-9.641858894077415731e-04,2.108342082779763454e-02,-2.020042958785913181e-02,8.183827996253967285e-02
4.553221522869441151e-01,3.050592491740952150e-01,3.652692307334495792e-01,1.628303573132522039e-02,2.320674187228210020e-02,-5.344592698958161581e-02,1.677418500185012817e-01
4.521850845717170220e-01,3.590578204193805023e-01,4.913607785376456483e-01,1.263954862850189334e-02,1.570429285156985620e-03,-2.893229962061715649e-03,1.198646426200866699e-01
6.024857958487424003e-01,3.854004953871845718e-01,3.729455677272291436e-01,-1.148441582915188212e-02,3.314076545583879291e-02,-1.221303205169437106e-01,3.137243688106536865e-01
4.974079293038650151e-01,3.684805067613663443e-01,4.911663080321052033e-01,-2.056983342133146108e-03,-9.448965498048524439e-03,-6.893575136728178135e-03,1.275916546583175659e-01
5.337716312855015355e-01,3.877170421510124920e-01,4.648757657057567827e-01,1.979839166347464614e-03,7.606186013087636033e-03,-1.246253747405137204e-02,1.291018724441528320e-01
4.980554126407477078e-01,2.531592068621340563e-01,4.915303561338538740e-01,1.819759093665629292e-03,-5.972512395005570053e-03,5.796578323059085706e-03,2.421497702598571777e-01
4.557142023112644158e-01,3.810095497878258630e-01,5.192029258675635583e-01,8.298136821104654115e-03,-6.836159403781101075e-03,4.739218398151207219e-03,1.215263903141021729e-01
7.255646436811796773e-01,5.258993415967296858e-01,5.926672360024602959e-01,3.156886127025754912e-02,2.512092520464655199e-02,-1.085875150838831737e-01,2.669263184070587158e-01
4.316551482587822619e-01,4.050051241550818304e-01,5.198910528084406124e-01,-1.833042108802827030e-01,-1.093322722093750948e-01,-8.786451868198955073e-02,4.131219387054443359e-01
5.017555943276849062e-01,3.679531783849409599e-01,4.272869507230976915e-01,3.473472118106306870e-03,1.980600128455134099e-02,-1.896934843107885363e-02,1.256069988012313843e-01
4.590847718598470850e-01,3.889820259304540562e-01,4.802060437992848319e-01,-9.445040193578262827e-03,-1.218522055662555302e-02,-4.462843988594072248e-03,8.725811541080474854e-02
4.377482011710746579e-01,4.162498469978694327e-01,4.123933285879741173e-01,-9.550511908699784933e-03,5.389396330975714140e-03,2.709378676325356096e-03,3.070434182882308960e-02
4.327110830886847226e-01,4.231878374657946362e-01,4.197529075216106520e-01,-5.448841737557622890e-03,2.483078801706378475e-03,2.878529860834763612e-03,1.635931245982646942e-02
4.459143408453530300e-01,4.239221051681763552e-01,4.215718264095132950e-01,-4.923048430848816874e-03,2.561466534282258716e-03,7.257895401212252108e-04,2.519609034061431885e-02
4.025438472874099394e-01,6.536829246414800343e-01,6.251772546803116004e-01,3.943081931117956018e-02,-9.295934709792458284e-02,1.236509410622328373e-02,2.962632179260253906e-01
2.345612359861513618e-01,3.741076122355853628e-01,2.124538709588688346e-01,5.366646372367839951e-02,-1.030627759161154150e-01,6.240641515336409900e-02,2.742930650711059570e-01
2.520802213524284130e-01,4.605804554481144897e-01,4.659480076735197929e-01,3.122016872002818591e-02,-4.884564945613258796e-02,1.317141303433759687e-02,2.349947690963745117e-01
1.866312713608415663e-01,5.095303396529385909e-01,5.031053056268439683e-01,2.912794898189301207e-02,-2.106005953892116714e-02,4.624571653453524861e-03,3.258381485939025879e-01
3.551577129103911101e-01,6.849235005858560488e-01,6.752957533074291918e-01,6.592655346867038781e-03,-6.908779264172960899e-02,-6.543985987149271606e-03,3.467585444450378418e-01
4.091052180258039628e-01,4.022610470039330033e-01,4.679141517018937657e-01,-6.097355813782672808e-03,-4.132761808710107981e-03,-1.279702134231310495e-03,6.383977830410003662e-02
8.927682880272516663e-02,3.687270501063014683e-01,2.063376500868508712e-01,-9.582568843518328439e-02,-2.179724578691478731e-01,-6.725337046891262383e-02,4.926821589469909668e-01
3.859706623359674404e-01,4.544456593569494163e-01,4.288780009374975055e-01,-7.177608104357285218e-03,-1.805848727475799567e-02,-1.915905697603155489e-02,7.632741332054138184e-02
4.153596884465066141e-01,4.761284770700104363e-01,4.263486831245137387e-01,-3.256389948782151527e-03,-1.437985039711259152e-03,-4.812710868633033982e-03,5.703786388039588928e-02
3.012827321450839979e-01,5.283946725230765917e-01,5.432963646454100903e-01,6.338108767812867389e-03,-8.805131360694629095e-02,-1.902186363850074530e-02,2.822257280349731445e-01
-4.803386621934263578e-02,4.975613381561571069e-01,3.207957472682954059e-01,-1.446615951055421449e-02,-1.557757408873411131e-01,1.158022716330441883e-03,5.530893206596374512e-01
3.635318087694594524e-02,5.185362148023084927e-01,4.993209550563320609e-01,8.878558941497656509e-02,-1.115658206404623737e-01,-3.451414886899040885e-02,5.368124246597290039e-01
4.230921345658855137e-01,3.738563922590330546e-01,4.662127902574421667e-01,2.083952431733367833e-02,-1.825446985548125414e-02,6.044418640584105044e-03,9.390828758478164673e-02
3.872230536172454607e-01,2.255784137984295779e-01,3.917041628491871874e-01,1.296441868754195370e-01,-8.953443361703403158e-02,1.345361001930183709e-01,3.945191800594329834e-01
6.156800393224398649e-01,3.619856540944699219e-01,6.426035099717157806e-01,1.193316167614812268e-01,-1.268416335458225248e-02,1.914458270482196078e-01,4.744189381599426270e-01
4.351324027428944974e-01,4.977504487893070206e-01,3.978553758712858879e-01,2.090805723861350902e-03,-6.785125789460688152e-03,-5.808314362654565634e-04,8.830091357231140137e-02
4.149411495253392812e-01,4.074015923707639542e-01,4.781176526673769911e-01,-1.786542340244462066e-03,-8.820381143907784528e-04,-5.231669021139693935e-04,6.735850870609283447e-02
3.735709270997011888e-01,4.439973894048391267e-01,3.510041210115704136e-01,2.123920688174159646e-03,-2.966010881452880305e-02,-3.893969386157500887e-05,9.854517132043838501e-02
3.587626375250446698e-01,3.990689266335135654e-01,4.274021928350895672e-01,1.351873393591151995e-02,4.738148314761847849e-03,-1.204247453992535362e-02,6.797103583812713623e-02
5.300358629107434494e-01,4.165614402210128242e-01,5.854326033948364927e-01,5.567173790606116252e-02,-1.266903336669915683e-02,1.609382679174565720e-02,1.810743808746337891e-01
4.489014035602731933e-01,3.472850682320054450e-01,4.669643335325499023e-01,1.807961370945739346e-02,-1.752652735248252935e-02,5.824938415997353743e-03,1.203809902071952820e-01
6.673428972644125379e-01,4.663148628617503899e-01,6.234612077409125153e-01,4.881957612682596981e-02,-3.745982012337471800e-02,8.584275690089090971e-02,2.588109970092773438e-01
4.300710234518985153e-01,3.410591396398885977e-01,4.572920235441783054e-01,3.738157342496228885e-02,-2.167267182325388966e-02,4.660853276653081911e-02,1.523332446813583374e-01
4.619499640264642659e-01,3.125705591848956799e-01,6.122524923955258158e-01,9.218177633286735173e-02,-1.552526956716355176e-02,4.420280741684043391e-02,3.153321444988250732e-01
4.162141996046353487e-01,4.156843829481428054e-01,4.599184991552910384e-01,-7.366157308178442097e-04,6.095314540203342242e-03,3.505498180151171879e-03,4.564486443996429443e-02
3.776773600903844952e-01,4.072035288693227617e-01,4.715902754956595166e-01,4.377973891686312742e-03,-5.197689212427405656e-03,1.328588424173137708e-03,8.403799682855606079e-02
4.235966399873803412e-01,4.249050790190340710e-01,4.424989677349745465e-01,-9.468400552530844509e-04,3.143710427017602348e-03,4.741744274054809113e-04,1.916481740772724152e-02
4.369868353066755917e-01,4.397747900026735546e-01,4.743475239257639031e-01,-4.523898335460459913e-03,8.878970156209206946e-03,1.152766225873440124e-02,4.467661678791046143e-02
3.937730105531329627e-01,4.675079070480102073e-01,4.205201699958484030e-01,1.510069060343472141e-03,-7.694791885554497224e-03,6.488650108748667510e-03,6.701361387968063354e-02
4.999031871363509016e-01,4.498683257080250408e-01,3.017097686046579796e-01,-2.901533470822657487e-02,3.657105524625414023e-02,5.291587263963712373e-02,2.163464874029159546e-01
4.254488469104138471e-01,4.386594401444633418e-01,4.202615966888037513e-01,9.699585212176422199e-04,1.419905342190260888e-03,2.195157224752080326e-03,1.712544821202754974e-02
4.153396598191534950e-01,4.180357355006832365e-01,4.463725816562003068e-01,-1.526364898061238545e-03,3.365048261789330489e-03,6.747978622322627421e-03,3.262222558259963989e-02
4.026802243068620113e-01,2.530230791755008202e-01,-7.267357002085189643e-02,-8.791111193109769906e-02,-1.301430931528391455e-01,-2.001478880729199161e-01,6.094199419021606445e-01
2.700324433104209776e-01,2.832963445321268758e-01,9.396079567943471655e-03,-1.134034861783896064e-01,-1.839335149336361330e-01,-1.781930430358392159e-01,5.539839863777160645e-01
5.803690968563441910e-01,6.381553643734054759e-01,3.446800009729050762e-01,-4.209963039987114214e-02,-8.617259212989437922e-02,-5.883093425340894106e-02,3.323939144611358643e-01
4.030257248972480832e-01,2.780780589569039618e-01,4.491321067075953466e-01,1.443985227365194787e-02,-1.263114206533827791e-02,2.109718618448091360e-02,1.610529124736785889e-01
6.935363264556276830e-01,5.892149523643001041e-01,3.415604408084237931e-01,-3.688902860346250645e-02,-6.282154720584209873e-02,-9.137114462767807754e-02,3.728531301021575928e-01
5.200052595452762105e-01,3.689248291281608805e-01,5.312467134873348762e-01,-2.740202139673529602e-02,1.196334177998484294e-03,2.956467550280537926e-02,1.718404740095138550e-01
4.875917585277016464e-01,4.190815070857847324e-01,4.133623606214066326e-01,-6.598214454680920984e-04,-3.250141235204387661e-04,-2.678926985068975485e-03,7.170311361551284790e-02
4.130492332612147877e-01,4.180731749250339302e-01,4.620676374147374976e-01,1.949052952008351871e-03,-4.898591702587111419e-04,4.961657027956295658e-03,4.762088507413864136e-02
4.298827857045631751e-01,4.290444988604797394e-01,4.259009827209907506e-01,-2.005494947154618651e-03,-7.752468824743629500e-04,-9.250131335452846685e-04,5.445694550871849060e-03
4.290889051049792680e-01,4.297174638828567539e-01,4.252346781878102999e-01,-2.291417787952530934e-03,-1.075876650464222114e-03,-1.194194172345297740e-03,6.416804157197475433e-03
4.316698411485601072e-01,4.270855627789384990e-01,4.516189404761877801e-01,-5.023117956579495856e-03,-6.287438503937359952e-03,-7.878556170617560112e-03,2.984862029552459717e-02
4.247853852476754510e-01,4.194984190839448068e-01,4.231169985619399054e-01,-3.122252194622609969e-03,-4.241832689506301948e-03,-2.403045906948806341e-03,1.106632407754659653e-02
4.338557264428001825e-01,4.369318410133427588e-01,4.345484450926075382e-01,-8.994313420313973604e-04,-1.432511657622506825e-03,2.638712944772141875e-06,4.049034323543310165e-03
3.814409065365140794e-01,4.798015079041367259e-01,4.515730234225017736e-01,5.576477007413547897e-03,-9.203757943266509950e-03,1.074411323936424155e-02,9.159045666456222534e-02
4.774489335107169330e-01,4.005391722349380679e-01,3.923555785837649079e-01,1.827625010909732792e-03,4.518613340705986744e-04,-3.004182319242509371e-03,8.154255896806716919e-02
4.369396699714792054e-01,4.547012481957674601e-01,2.121632399227239563e-01,1.577811192771749749e-02,4.742303023239764770e-02,-3.053259348850040009e-03,2.497077286243438721e-01
4.260538114777286944e-01,4.260547691850218865e-01,4.253826541216277346e-01,6.466007105520831509e-05,-1.014515221396574806e-03,-2.231462029822989593e-03,4.299956839531660080e-03
4.861705690763711285e-01,2.619642763749276404e-01,5.001128457452663767e-01,-3.454816756281015987e-03,-4.315293387601842868e-04,-2.762477031918650176e-03,2.316204905509948730e-01
3.200088519823187094e-01,4.778065417585060648e-01,4.912781820371828201e-01,1.268968667081094882e-02,1.723861534309938668e-03,-5.979149037101158526e-03,1.667532324790954590e-01
4.365692663795922579e-01,4.359292930857788240e-01,4.982713214511060862e-01,1.068382169496435476e-02,7.338080755169232999e-03,-1.071633077138250262e-02,6.852397322654724121e-02
4.154994562597416063e-01,4.128345873070867755e-01,4.799836781388594487e-01,2.332839626186240193e-03,3.467471700528728090e-03,-7.614061046614569719e-04,6.626684218645095825e-02
3.930856023005074307e-01,3.973470622537593200e-01,4.448704040405146998e-01,7.574579437733549615e-03,3.792357209081503085e-03,-7.668113061290793460e-03,5.357998982071876526e-02
7.680068866526383875e-01,5.847840155197070455e-01,6.499248850419220291e-01,-3.610881313276615573e-02,1.453757791827854813e-02,1.077222924222935169e-01,2.554143667221069336e-01
4.043384148619263430e-01,4.039248413869228616e-01,4.505021721086170383e-01,1.043408651063018090e-02,1.139451327452514415e-02,-7.782003459414659104e-03,5.521005019545555115e-02
3.874051331137243204e-01,3.976495683560316574e-01,4.551305042954745805e-01,9.773387390372496181e-03,3.314585009089487944e-03,-7.662223133770245005e-03,6.703366339206695557e-02
5.128477311855449416e-01,4.572586483210107633e-01,4.362450156420678571e-01,-2.000722067355352810e-02,1.128689805771312601e-02,2.169099259494362483e-02,8.771769702434539795e-02
4.900402919516229083e-01,3.257211662931276397e-01,5.191930748182289612e-01,-1.031420436965716468e-02,3.363951063222620722e-03,1.366941425464726374e-03,1.816582530736923218e-01
3.813709553055237289e-01,3.726122095369292508e-01,4.598945177522296701e-01,-2.140707239559784536e-02,1.010524442740675169e-02,1.010623121563684716e-02,9.443504363298416138e-02
4.129667229547110963e-01,3.885832034446742855e-01,4.768888518198563520e-01,-5.609367431807684747e-03,1.215834780275875868e-03,1.279018542505122895e-03,7.964281737804412842e-02
4.402480137509639513e-01,4.064221218165983696e-01,4.791504478247021748e-01,-1.286753836600825762e-01,7.901552647180480615e-02,6.687542784031594301e-02,2.929042279720306396e-01
5.228172686520321522e-01,3.239081636073950499e-01,5.128034570733340791e-01,-3.861507138371017556e-02,4.468986712412004701e-03,2.919463044689678613e-02,2.115739434957504272e-01
4.277095654210443243e-01,3.384645001872571002e-01,4.345429142183332982e-01,-1.470288683639351009e-02,1.760632776268702959e-02,1.672852085650870443e-02,1.050677001476287842e-01
4.532905555717073320e-01,3.809377333924564013e-01,4.407743271965568477e-01,-1.377820929858271717e-02,2.054980661010761406e-02,6.347583484495815387e-03,8.027003705501556396e-02
4.828300050862830428e-01,3.293190772127086441e-01,4.417206087116698487e-01,-4.086267014286442886e-03,1.450104973972811927e-02,2.484354046164361993e-02,1.465516388416290283e-01
3.252267804321621880e-01,5.122019105714548104e-01,4.816247596091822736e-01,-2.005860351027081469e-03,-6.908272819187039407e-03,-6.977681447103197682e-03,1.745817959308624268e-01
4.187551634705425907e-01,4.138071934433906751e-01,4.099799728895762163e-01,1.098468968815259454e-02,9.501809721465817593e-03,-7.735045891376435626e-03,2.950259670615196228e-02
4.329491457772553509e-01,3.580033738002595944e-01,4.848638531553098874e-01,-6.843206590196424834e-03,-1.073088240841781234e-02,2.980461336186722779e-03,1.127625256776809692e-01
4.396629593803509373e-01,4.358535086654541924e-01,4.387966376344608066e-01,5.339964803928415153e-03,1.398661363814431751e-03,-5.169027137334037021e-03,1.354744192212820053e-02
4.228547838200534814e-01,4.181620249274110024e-01,4.406135276314506188e-01,1.072565498539543999e-03,3.710158546515603898e-03,-1.863196340347337459e-03,2.181499451398849487e-02
4.260163827808308157e-01,4.271051667411343566e-01,4.297172611581509538e-01,1.814772302834459635e-03,-8.444615917375068856e-05,-2.000545613424449098e-03,5.723690148442983627e-03
4.205424443924750677e-01,4.246700882017920287e-01,4.333762025243079741e-01,3.507817859127907150e-03,1.941708823264779154e-03,-7.047967153122708557e-03,1.805591769516468048e-02
4.514843295143589064e-01,4.262737643921638564e-01,4.186817562099326984e-01,8.113880217349555418e-03,3.625720800826599290e-03,-1.769632496668087232e-03,3.362956270575523376e-02
4.228839042898093759e-01,4.422837751777158877e-01,3.945659478053367142e-01,1.270815508812373450e-02,6.914859478731581049e-03,-4.992593763822683085e-03,4.929849505424499512e-02
4.164797921991080232e-01,4.356775406488055946e-01,4.103781189916075878e-01,8.025581106031777490e-03,5.149921476118919476e-03,-5.014902372623550840e-03,2.951550483703613281e-02
4.208302901593523604e-01,3.990111566053367032e-01,4.418105992655949610e-01,8.346527636895494096e-03,-1.286557068400596276e-02,7.359540631055036704e-03,4.735051095485687256e-02
4.066311483813184746e-01,4.310539223521040464e-01,4.051183050078905890e-01,3.667037096706495837e-03,5.556684786675634459e-03,-6.005839989952579776e-03,2.961233630776405334e-02
3.640750431670114473e-01,4.145030986048185984e-01,4.820853412228987556e-01,1.984540764343276781e-02,-3.891581711586485776e-04,1.054904962655880095e-03,1.081836521625518799e-01
4.352768799710057257e-01,4.684698870072663834e-01,4.301283665490389096e-01,8.911029389173907508e-03,4.189093624883144865e-03,-6.475923295078640091e-03,4.142288118600845337e-02
4.870156456364846953e-01,4.208405288346189210e-01,4.237718719686788260e-01,-5.880933576160794936e-03,3.729667822513254433e-03,9.608626189946420024e-03,6.794278323650360107e-02
4.562967755425273442e-01,4.247783296635843087e-01,4.215444773161022840e-01,-8.591837537547917375e-03,8.893474243311898361e-04,5.352788216543590168e-03,3.762426227331161499e-02
8.897015898864988337e-01,5.738801571963598747e-01,7.910758596223393946e-01,2.096942726461049900e-02,-3.792990982882465511e-03,-1.761387940750821501e-01,4.156429171562194824e-01
4.646877711546704703e-01,5.050228080885484916e-01,3.036263624131518846e-01,4.536112073826198757e-03,1.440101681133595761e-02,-1.364518221126396601e-03,1.864231526851654053e-01
4.622751051064107886e-01,4.188689205437509111e-01,4.138376548587838766e-01,-3.505520986778053617e-03,4.233742345258320388e-04,1.717493564094349848e-03,4.662672802805900574e-02
4.571049438843798884e-01,3.948842189252471102e-01,3.905868191362766861e-01,-6.908368445045674593e-03,4.291583210764655584e-03,6.213059076146152694e-03,6.686934828758239746e-02
4.584677112894400830e-01,5.130238915663356547e-01,3.514325911712777306e-01,2.553667016070648634e-03,1.136243092579963636e-02,-1.124535471612908306e-03,1.438158303499221802e-01
4.440219799908343701e-01,4.594390883829404526e-01,4.410741533286714477e-01,8.314575822659710583e-03,6.420369690857036932e-03,-4.171978011582004250e-03,2.598268724977970123e-02
9.427432410073965929e-01,7.690426027355701244e-01,6.264381217789017908e-01,4.977994369625572679e-02,8.875545622008200464e-03,1.969496265064100138e-01,4.464485943317413330e-01
4.089405016980720009e-01,4.425642211666546699e-01,4.903039532041540971e-01,7.036652012501706278e-03,-3.403476129693802036e-03,1.448222335010314679e-02,7.633690536022186279e-02
4.276884430737022957e-01,4.304741616701591722e-01,4.274506341143701205e-01,1.635780231249634982e-03,1.085207528868479832e-04,-1.245775874970875665e-03,4.604104906320571899e-03
4.132656567824122273e-01,4.379255082970968660e-01,4.203796313816584029e-01,4.500170936540151372e-03,4.235104957018732443e-03,-5.430832002901032733e-03,2.619794197380542755e-02
5.020490230962990630e-01,2.937386027866084603e-01,5.047923567532368594e-01,-6.422985229015998852e-03,3.993209188691935509e-03,4.346057436780147165e-03,2.102391272783279419e-01
5.052702920882286008e-01,4.871283984649327214e-01,2.987419202619612246e-01,-4.992623933124910526e-03,6.583506654829675980e-03,2.634115686823558858e-02,2.037710845470428467e-01
4.212443189300544288e-01,4.362471005625991882e-01,4.230827643859812470e-01,3.706727607402454227e-03,3.168246316286063742e-03,-4.562106522652860895e-03,1.829351857304573059e-02
4.153613411206509842e-01,4.312551884030373373e-01,4.168918144795075165e-01,3.380442217183859434e-03,-4.469874918105364719e-03,8.306857165111251884e-03,2.306219376623630524e-02
4.765696545358848457e-01,4.125497324896598150e-01,4.072113515047979804e-01,2.658006038513434713e-03,-1.612698649514845203e-03,-2.566268082347182913e-03,6.721284240484237671e-02
4.104682097748699188e-01,4.535849270098810115e-01,4.131537348144635469e-01,1.544323766382528626e-03,2.472538239689485527e-03,-3.985654268867930457e-03,4.270390793681144714e-02
4.411097851482375654e-01,5.019823352330249344e-01,4.363847943156776155e-01,1.196726805045500268e-02,9.246257993323991550e-03,-8.788900819803329920e-03,7.023727893829345703e-02
4.651824060360659763e-01,4.778915968835103500e-01,2.921811248204947420e-01,9.507834960616897389e-04,1.647255357367122600e-02,-4.677834069865776864e-03,1.821320056915283203e-01
4.085667143095200737e-01,4.777078084480393394e-01,4.114222681061145415e-01,2.161493921851344834e-03,2.127500700138269894e-03,-4.706255871533342357e-03,6.844888627529144287e-02
4.680839440847273103e-01,5.111540297185631632e-01,3.357040753933773214e-01,7.821011583681980461e-03,3.156129916031412408e-02,-9.327490486516378312e-03,1.688606888055801392e-01
4.354911357724179921e-01,4.213404878703527201e-01,4.266248606018653855e-01,-3.499321670523002688e-03,5.478033297825399099e-03,2.145780476670489014e-03,1.714536547660827637e-02
4.139644357124652729e-01,4.662443038486071556e-01,4.026495413206303553e-01,9.878430458659347158e-03,6.804371566795638232e-03,-3.656564634857553849e-03,6.264592707157135010e-02
4.133494144612352428e-01,4.401383701835852036e-01,4.950605256619099448e-01,2.926339501699277285e-02,-4.100313265349847525e-03,8.070851213574373878e-03,8.955607563257217407e-02
3.610401861559913717e-01,4.779541482836214272e-01,4.165185043575708734e-01,8.102449989389425705e-03,-1.455614479359365609e-02,1.145168220602322748e-02,1.071752980351448059e-01
5.265576084464962392e-01,3.699938612694018136e-01,5.131576946672696815e-01,-8.638397259945992598e-03,6.556790223715757565e-03,6.373633447175401819e-03,1.518832892179489136e-01
3.846130579099509283e-01,4.593130922220289292e-01,4.234469882883717951e-01,1.489410581884833412e-02,-2.589165551997531928e-02,1.593440692090172459e-02,8.732482790946960449e-02
3.779960063928657910e-01,4.846085763204502350e-01,4.856501589431861388e-01,7.082818204179493031e-03,-1.346366674311923889e-02,1.296121082682590540e-02,1.125906705856323242e-01
3.785788422462108005e-01,4.717659203687146752e-01,4.822987112859588033e-01,1.002909793857816555e-02,-1.148030792988079425e-02,1.206088513875052358e-02,1.044501140713691711e-01
3.721645918301095257e-01,4.328220797489950589e-01,4.382780082747057548e-01,3.308991077223076560e-02,-3.525762417602446019e-02,2.970135600207573709e-02,1.170499026775360107e-01
4.862421746047915216e-01,2.861212258494267857e-01,5.036881055513829919e-01,-6.465890721677421127e-03,1.673463944722590989e-03,4.375089067526783185e-03,2.098459005355834961e-01
4.272404848450946924e-01,4.997420473258151197e-01,4.025367144121956287e-01,1.579926088814659997e-03,3.574063418983958879e-02,1.681955331804586146e-03,1.072658821940422058e-01
4.780787283928663034e-01,2.986775426236540909e-01,5.007719086573536593e-01,-1.282393667842604730e-02,8.327502333232341541e-03,7.115168102654060439e-03,1.939696520566940308e-01
4.881371764164590954e-01,3.366306130086821335e-01,4.754608541167512081e-01,-1.637161332660013596e-02,1.702089073985045553e-02,1.039770215031696546e-02,1.522890031337738037e-01
3.615691011636558150e-01,5.267940698077415718e-01,4.976251292422962380e-01,1.100865805712918435e-02,-6.761114941919710297e-02,2.260915103889472866e-02,1.973361968994140625e-01
4.361023339295182488e-01,4.984406318518442847e-01,3.990462484017074374e-01,-5.455958147228483213e-03,-3.501926483901203480e-02,-6.817767845895727347e-03,1.071308776736259460e-01
3.546995358550331101e-01,5.260948479257394617e-01,5.020073389633417094e-01,-2.243669553927208574e-03,2.900777313817898620e-02,5.168543411381040613e-03,1.686643809080123901e-01
4.267276616372772113e-01,4.564597381178837621e-01,4.211197780002018387e-01,-2.143075844005514277e-03,1.664414887170257958e-03,6.311641820691326959e-04,3.324850276112556458e-02
3.775030845366880716e-01,5.074368631078167713e-01,2.246460742247944897e-01,9.949499306679727983e-02,-1.273608614786564952e-01,1.490400630997351095e-01,4.528888165950775146e-01
4.128793648869345523e-01,4.835908813080961877e-01,2.952401992239961359e-01,-3.029180058944154486e-03,-3.233401948083314964e-02,-1.874748654167870130e-03,1.741610616445541382e-01
4.457990949991755825e-01,5.469653556958476992e-01,4.705016656251570506e-01,-9.578070542501263690e-03,-3.030493645934533714e-02,-8.302431513990737866e-03,1.076240688562393188e-01
4.234866142314021031e-01,4.916981553313277686e-01,3.920403027637457405e-01,3.463465709526149933e-02,-3.091525049488587362e-02,1.931742399372288546e-02,1.239843219518661499e-01
1.292078256858552876e-01,2.773283525914030379e-01,2.841853057407628946e-01,-1.370090572814579022e-01,1.664185107181110346e-01,1.092699163167634574e-01,4.452211856842041016e-01
4.171707339425511085e-01,4.870075994388450846e-01,3.767307719005447697e-01,6.400070693572587274e-03,-2.065428725157785958e-02,9.559471283286465407e-03,1.049457490444183350e-01
4.524669688862003603e-01,4.184680806361207317e-01,5.174271306909672408e-01,-2.897124022973241592e-02,-8.655948804944258931e-03,-1.190847357569849857e-02,1.036944091320037842e-01
4.910697142151163597e-01,4.384361183173215437e-01,5.376747104440956493e-01,-3.724836541401237155e-02,-3.319559599782401227e-02,-3.419456974189534482e-02,1.355406939983367920e-01
4.063536044980251005e-01,4.800394417200216091e-01,4.018068168088645975e-01,8.365105493073511774e-04,1.846266340222261441e-03,-1.620195600926090411e-03,7.619389891624450684e-02
4.108341807263810597e-01,4.035374959009031537e-01,4.782728908616911134e-01,-2.454353017653187769e-03,-7.979740052615500259e-05,1.521129974100021752e-03,7.154252380132675171e-02
4.305334788096231713e-01,4.342682805214719277e-01,5.087641107369569315e-01,1.860685164374883613e-02,3.586722105587607321e-04,2.846762271592016749e-03,8.309721946716308594e-02
4.331578613206945594e-01,4.129185798210291969e-01,4.810110529750708519e-01,6.394609658212212049e-03,-9.259180489631825203e-03,3.247278560848300671e-03,6.387155503034591675e-02
4.138585876415146747e-01,4.105060243084281968e-01,4.788193861621349856e-01,2.113186025553221922e-02,-1.149629686415026830e-02,1.805251121617044291e-02,8.463315665721893311e-02
4.120616178215137926e-01,4.189408731951071996e-01,4.904340280983134348e-01,2.499159246831751582e-03,2.241958015647354619e-04,-3.962224502694377854e-04,7.529789954423904419e-02
4.122827920326556095e-01,4.181305621571585474e-01,4.836617603931255283e-01,1.697381324410849506e-03,-1.120363931446571653e-03,3.102253930142679153e-03,6.894219666719436646e-02
4.154093196295289836e-01,4.403971413624436781e-01,4.549171984127550195e-01,2.238767859337761554e-03,-3.055096920729638999e-03,1.080910239268600276e-02,3.989480063319206238e-02
3.941780926043864097e-01,3.810113134731559215e-01,4.695730702720221084e-01,1.491679467495099325e-02,-6.221395964547579401e-04,2.446189989258126677e-04,8.671417832374572754e-02
4.843096239207989040e-01,4.334215088923974446e-01,2.827839450448584868e-01,-2.936378651847853377e-03,1.189981775129327589e-02,4.563862108033922560e-02,1.991137117147445679e-01
4.428978770685360056e-01,4.437353000225140454e-01,4.428853622428280401e-01,3.728497612023196333e-03,4.974395211698724902e-03,-3.467314186415009283e-03,1.235789712518453598e-02
4.224872596618123866e-01,4.305345524238973209e-01,4.296501865492372563e-01,2.216585738091146878e-03,3.171571417375859334e-03,-3.624183426090943783e-03,1.194758340716362000e-02
4.256966293312567373e-01,4.315978339606826863e-01,4.295387438291057847e-01,1.737617654893161513e-03,1.564891002395679687e-03,-2.475283201890576736e-03,7.854848168790340424e-03
5.074212428743678505e-01,4.080163663278262853e-01,4.366578214316179651e-01,-3.625258512586842022e-03,3.921280871311688676e-03,5.966952404443741712e-03,8.970469981431961060e-02
4.260813256454379361e-01,4.298483962488570120e-01,4.246269059546434188e-01,2.090182362079419723e-03,1.065443841430026252e-03,-2.131782018097649282e-03,7.206291891634464264e-03
3.256006106858752025e-01,5.581663512631380719e-01,6.344108737256393127e-01,2.508762794069033242e-01,7.120602266852522899e-03,6.902185422521482649e-02,5.299931764602661133e-01
4.293316613521755976e-01,4.302646186244861171e-01,4.218915434146283672e-01,3.855675554603925533e-03,3.138103460104775620e-03,-2.853935972581142511e-03,1.271785050630569458e-02
4.134835710129589614e-01,4.839790620584597525e-01,4.161895733546924769e-01,1.369908212229699936e-03,-3.302907181960487801e-03,4.318651334824249663e-03,6.986047327518463135e-02
4.108746608600607475e-01,4.896004676310471426e-01,4.133754773355990952e-01,-5.608942194267601145e-04,1.258143551048097539e-03,-3.113509264686387915e-04,7.754425704479217529e-02
4.062605548989972615e-01,4.790103156599913592e-01,3.993254597469625966e-01,-4.293114547579309805e-03,4.812428216061811342e-03,2.270692112026160853e-03,7.736529409885406494e-02
4.098726793743335817e-01,4.686939898414635430e-01,4.090030110008186504e-01,2.610777581448731934e-03,-1.275978576187008573e-03,1.747026653520646500e-03,5.955121293663978577e-02
4.162252889141579981e-01,4.841149930580204708e-01,4.180361421672147970e-01,-7.024434868234236649e-04,5.438623675786184676e-04,2.796215886552812398e-03,6.719506531953811646e-02
4.251184882722757741e-01,4.221602825729199870e-01,4.231205351294881067e-01,2.512444299957062731e-04,-2.497031251460622974e-03,1.334346923654048571e-03,5.573935341089963913e-03
4.673597728907551430e-01,3.494206417657046426e-01,4.336255612950190574e-01,-5.801956733308863786e-05,-1.070961281413156108e-02,1.133316926760147107e-02,1.086207702755928040e-01
4.029938582686390380e-01,4.750759178733867105e-01,3.955580785606602201e-01,-2.332853281234362804e-03,6.604982694986378036e-03,1.465979840511379964e-03,7.707627117633819580e-02
4.153762065260406811e-01,4.658640772568729549e-01,3.880500054099200735e-02,-1.476406227493370048e-02,-1.875998782931196374e-01,-9.965175052192419558e-02,5.471687912940979004e-01
6.237932816908062783e-01,6.184290505980803987e-01,3.343405121059302987e-01,-1.182051269678923051e-02,-5.123907873963978038e-02,1.416534392054338148e-02,3.019212782382965088e-01
3.931304649783863292e-01,4.400491500437907488e-01,2.601762776879822381e-01,2.436653463371221684e-02,-4.084992825690367257e-02,1.429289931161957343e-02,1.830748766660690308e-01
5.273785514394299101e-01,5.359217001489992027e-01,3.656890498428010949e-01,7.904817097414489416e-03,-2.914478277626923047e-02,-4.729388104068871744e-03,1.743577718734741211e-01
4.333687449665284408e-01,4.653568382408687643e-01,3.294050148728788208e-01,2.121867645603519453e-02,-3.336044315174385710e-02,6.823751045363563895e-03,1.413734108209609985e-01
4.781218895423379744e-01,4.072131762817771672e-01,4.137264735904114255e-01,-9.935614577838837273e-04,2.282188735347078900e-03,-2.592975568664884680e-03,6.817166507244110107e-02
7.110558001533875405e-01,4.050809420895458146e-01,7.199085487222461888e-01,-2.442268549386208965e-02,1.975943879841524781e-02,-4.842613817023117689e-02,3.261957764625549316e-01
4.449933173150643073e-01,4.157986946344220391e-01,3.955035931056116172e-01,1.043702148932358457e-02,-3.626346059829151959e-03,4.296655571263952728e-03,4.773210734128952026e-02
4.772088842195369440e-01,5.074668007613671872e-01,3.470892940634459634e-01,6.196280534736444551e-03,-1.710212919795522230e-02,6.421141736383037882e-03,1.513278633356094360e-01
8.559661327915740747e-02,4.815118761907164480e-01,4.876370959349738410e-01,1.377232301699348599e-03,1.197873673483220271e-03,-2.179837255870320165e-02,4.008079171180725098e-01
4.512442687708848599e-01,4.921165570719140958e-01,2.334986008880425568e-01,2.983603974656710831e-05,-4.658930155396839856e-02,-9.329966293115920508e-04,2.539641559123992920e-01
5.702881545065491276e-01,5.749629621420787595e-01,2.306298285082709343e-01,2.800186343105741382e-02,-1.101496015502658084e-02,9.353584700126999635e-03,3.463470041751861572e-01
4.119336162796797818e-01,3.864213799904364643e-01,4.653865129450495686e-01,-6.645386186417748080e-03,4.868691550307798974e-03,6.396186045456962732e-03,7.209797948598861694e-02
5.372718859892384735e-01,5.393921686917435565e-01,3.046800769686546784e-01,-2.555886786729655649e-03,-7.626887340107636228e-03,-1.367238034806900638e-03,2.340861409902572632e-01
3.301779036477907603e-01,4.887788229798534778e-01,4.726959234058620840e-01,-2.121564052468960862e-02,-1.306514923816892194e-02,-1.588445088622857798e-02,1.596292555332183838e-01
5.130227158569574675e-01,5.105672985752593984e-01,2.702485694454601628e-01,-9.133477128911955201e-04,-1.156515814663123566e-02,5.693094730925606604e-03,2.425906062126159668e-01
4.962112557289461989e-01,5.075180883379362129e-01,2.579141122645753903e-01,2.723985463788856660e-03,2.830473449114169048e-03,-4.134178051578982910e-03,2.443467378616333008e-01
4.743918438993937059e-01,2.328555602631589283e-01,4.840880454429898339e-01,5.881385715531273380e-03,1.112259695838391889e-03,-5.218074091702121220e-03,2.469108104705810547e-01
4.076516216212689447e-01,4.850807100095977376e-01,4.108007506818390775e-01,1.404037327082881086e-03,6.207932104373714306e-04,2.519614345891499352e-03,7.607536762952804565e-02
4.310248452549841347e-01,5.035876755865966725e-01,4.372913780951434015e-01,5.150131154032287426e-03,1.443824699377390351e-02,-1.118144682220184377e-03,7.455620169639587402e-02
4.093483079228945609e-01,4.775409938820199263e-01,4.149594446977244999e-01,7.195735390395601025e-04,2.190753112893203177e-03,-2.913270647729758207e-03,6.588248163461685181e-02
3.912323925346455900e-01,4.612659009934583221e-01,3.781113970905176647e-01,7.329906235056220763e-03,1.004489279775144621e-02,-1.349286411577836587e-03,8.040588349103927612e-02
4.000093242067673249e-01,4.442222921221218312e-01,4.025688853288225122e-01,1.265004079354135197e-02,1.101664730668741425e-02,-1.020102379136226568e-02,5.481354519724845886e-02
4.230533462631907438e-01,3.888248802512502822e-01,4.227177971882151164e-01,6.474993921655514996e-03,1.432236484433828221e-02,-6.374332487371589182e-03,4.498086869716644287e-02
4.228382754208045990e-01,4.468030344580107838e-01,4.269131471694486701e-01,1.825247201288724081e-03,2.555876726882590037e-03,-2.884095096010780637e-03,2.340527810156345367e-02
4.055531086426712450e-01,4.404670076561626457e-01,4.085039382095541072e-01,4.187887734163805650e-03,4.995520387653015412e-03,-7.220869377134485519e-03,3.753087297081947327e-02
4.771837037783549507e-01,4.065488375105064112e-01,4.102016186821809129e-01,-1.570202263218444362e-03,-1.945654430626891354e-04,1.409798030132368473e-03,6.897888332605361938e-02
4.108974740529741099e-01,4.557580359423319960e-01,4.140761852587269143e-01,2.888280502572337927e-03,2.922056420019985504e-03,-6.472740778456588517e-03,4.534651339054107666e-02
4.596547435399097603e-01,3.970709181296465662e-01,3.420524365353714291e-01,-9.821230661434306869e-04,1.026325070674450907e-03,1.389411388732490239e-02,1.047484055161476135e-01
4.883273811941702403e-01,4.432985926158151679e-01,3.254125012518666038e-01,3.533251407814907985e-03,-6.393040990159746086e-04,2.014513769607862576e-02,1.499638259410858154e-01
4.039331895435988029e-01,4.105611102813964131e-01,4.484035844383594815e-01,6.190337718732133020e-04,2.600691341285663385e-03,3.097527427520509538e-03,4.215475544333457947e-02
4.217360068428546716e-01,4.833035656699357641e-01,3.993649683887011692e-01,-3.989818549956934170e-03,3.898835210870861372e-03,6.462384016401395920e-04,7.591422647237777710e-02
4.535073373194489776e-01,4.012832194324199020e-01,4.020578101172738172e-01,-4.246406939428197004e-03,7.401976163518381342e-03,8.018647496757663057e-03,5.566745996475219727e-02
4.809622304228886591e-01,4.168355385681362102e-01,4.128485709952632310e-01,-3.438151545650045514e-03,1.079204747385389772e-04,1.540337519312947375e-03,6.653130799531936646e-02
4.565998783277673279e-01,4.140164272721025274e-01,4.082166825772377550e-01,-4.901156611649258414e-03,2.753529259410589908e-04,1.619005329115454257e-03,4.662740975618362427e-02
4.580043134202387289e-01,3.930558510079011914e-01,3.992767046940409736e-01,-3.181397154399795771e-03,6.872010184370039645e-03,1.005271201439873405e-02,6.578887253999710083e-02
4.817545026807876218e-01,4.150597835804871738e-01,4.089684821646910606e-01,6.834293196981681582e-04,-1.192409149637211653e-03,-2.064774541456242812e-03,7.007142156362533569e-02
4.980814606512433129e-01,4.261357892999610986e-01,4.247920162618869511e-01,-4.339255205061680505e-03,1.326584546176124086e-03,1.452057573733093847e-02,7.725912332534790039e-02
4.661389749642752545e-01,4.000559279435647597e-01,3.897539962929438828e-01,-4.475142315605382635e-03,4.457064541135155947e-04,9.823305753332067791e-03,7.418929040431976318e-02
4.501016980294721970e-01,4.135457550462436904e-01,4.121490349743691106e-01,2.318321687873894487e-03,-1.748296877420069421e-03,8.933170701560003927e-04,3.764350712299346924e-02
4.464648862685929309e-01,3.978748522548480882e-01,4.423987806171548742e-01,6.842483206638506552e-03,-1.835077626201443018e-02,6.251589825366484464e-03,5.871891602873802185e-02
4.651465819260736101e-01,4.143535798794507063e-01,4.642017220908781772e-01,6.133410848971112758e-03,-1.359037532392202291e-02,4.923761270165644653e-03,5.720586329698562622e-02
4.882162190377264954e-01,4.137710963264781272e-01,4.102847835231144824e-01,-8.857181207511004902e-04,7.247737905527948388e-04,1.911649513407606216e-03,7.634567469358444214e-02
4.715967213279340653e-01,3.898663480404249149e-01,3.999206843172249393e-01,-4.289746441202340818e-04,7.235500315103731914e-04,9.886959277104609076e-03,7.908588647842407227e-02
3.659323401622916472e-01,3.662448642396196608e-01,4.472591497443210162e-01,-2.365573217528101763e-02,1.131311417281078216e-02,7.395373041474475120e-03,9.389114379882812500e-02
4.150099107964558276e-01,3.986097724433133038e-01,4.774438421513318431e-01,-9.406053726981179405e-03,8.825019851037334273e-03,2.879058767841043229e-03,7.559640705585479736e-02
4.886098325391440289e-01,3.636689352583024615e-01,4.467934614965886064e-01,1.223784715752569089e-03,-6.793750119036072108e-03,1.231133223828383486e-02,1.128358393907546997e-01
4.586927970511952002e-01,4.501953440476341162e-01,3.397530629308405103e-01,3.447237536113326867e-02,-6.543143932054841516e-02,6.308269207647473897e-02,2.038512080907821655e-01
4.075450931204299132e-01,4.435336400088233932e-01,4.733078388907023260e-01,-2.700961163701800019e-02,1.020959151465560683e-02,1.593467486746674364e-02,8.072307705879211426e-02
3.185411403222880300e-01,3.439676129905623325e-01,4.058650316106752198e-01,-5.038214286137172870e-02,3.217583560536430715e-02,3.286887355976859937e-02,1.414696127176284790e-01
4.172145624212164616e-01,4.143414857575548060e-01,4.668758969934442282e-01,-1.158169772902507659e-02,1.081421167644060731e-02,1.031788201181231546e-02,6.074379384517669678e-02
3.430992237594129302e-01,1.914971582257319338e-01,1.172603539450420562e-01,5.930245992124840576e-02,1.362132445276332815e-01,-2.610610124472917404e-01,5.571532845497131348e-01
3.498282235408840535e-01,1.869537145193793104e-01,9.540114627171727979e-02,1.574350865689923273e-01,1.104999923267926537e-01,-2.552830183549886778e-01,5.969237685203552246e-01
4.199463597559088823e-01,1.642215464388989410e-01,3.138418406133437477e-01,1.528200828929867847e-02,9.413045491444864063e-03,-1.077927009983411094e-01,2.921369969844818115e-01
6.221110171381967202e-01,5.750104485886764483e-01,5.599045921687791916e-01,7.109359913644565376e-02,7.012963113226391987e-02,-1.155450459800300284e-01,2.704209983348846436e-01
3.580355460693873115e-01,4.537748569573210600e-01,5.046558788635450155e-01,9.029362503191461567e-03,-4.387034219948477559e-03,7.525217085732609223e-03,1.307609379291534424e-01
4.864834528065478669e-01,3.961675322966925483e-01,4.644369119766420528e-01,-5.746763745469440736e-03,1.575028052277063079e-02,1.033933287159819782e-02,8.840733766555786133e-02
4.552764304409325224e-01,4.132137858909466499e-01,4.371423910507925559e-01,-1.298455376894378779e-03,1.102690875981911234e-02,4.620868446975763891e-03,4.206230118870735168e-02
4.602827719272303275e-01,4.040015347090332720e-01,4.575309012889566818e-01,-7.324767577519196785e-03,1.113333995944487155e-02,8.710310707029303781e-03,6.148732081055641174e-02
2.596898073559119613e-01,5.028879505608876421e-01,5.500493142400932900e-01,-7.004200464538498649e-02,-4.541524866465095761e-02,-1.229035966455576355e-02,3.069161474704742432e-01
4.613611281286029708e-01,4.152250197459484427e-01,4.439008716044066105e-01,2.354523808001258642e-03,-8.782137725024820318e-03,2.239014589103547736e-03,4.348449781537055969e-02
4.795977692041350493e-01,4.058959825130808441e-01,3.961447063767776777e-01,9.434795107024475597e-04,-1.031849756077738659e-03,-7.437163621767738965e-03,8.010946214199066162e-02
4.138899652860177913e-01,4.058369581952561145e-01,4.078650118206966213e-01,-1.280945884398607300e-02,-1.139830251485987947e-02,-9.756013569512582070e-03,3.493110463023185730e-02
4.490265680375254975e-01,4.305659303530281479e-01,4.249362636462006293e-01,-1.653944105971958279e-03,-2.810256967441113023e-03,-2.081173975858541074e-03,2.283218316733837128e-02
4.589489955417742628e-01,4.035633040577099595e-01,4.577724658328427010e-01,-7.330658870038716732e-03,1.100894976462462455e-02,8.715970724333072656e-03,6.129034981131553650e-02
4.144365200316919573e-01,3.762628253213547991e-01,4.366734217675932728e-01,-9.435956498682226273e-03,1.389702538598756691e-02,1.512948825388357992e-03,6.044779717922210693e-02
5.136190719097664115e-01,3.570181826882997123e-01,5.047302770827050145e-01,-9.639813415365125482e-02,-4.364364795707805639e-02,-5.705375623807277391e-02,2.580084502696990967e-01
4.144660600301548481e-01,4.497565561135646872e-01,4.090012076421106202e-01,6.981613129157151348e-03,-4.253612578240755990e-03,2.982319868389507640e-03,4.117441177368164062e-02
4.490686916876444057e-01,3.679525994339644668e-01,4.919739489862205439e-01,-9.180952729916791108e-03,-4.608836669073847702e-04,1.019013111490348457e-03,1.102615520358085632e-01
4.285617946218888696e-01,4.234801911909119587e-01,4.255562186379267531e-01,-2.317538998034197016e-03,-3.697931046921741020e-03,-1.221750064364792538e-03,9.010998532176017761e-03
4.348921757825556789e-01,4.185821528059310292e-01,4.265187661721626666e-01,-3.045068115908649599e-03,-5.598226500414498451e-03,-1.450765250357688267e-03,1.810282468795776367e-02
4.332464397947634605e-01,4.159915406409732674e-01,4.219403125317367498e-01,-2.397765290494497867e-03,5.973025783129854230e-03,2.878380732821187674e-03,1.948353461921215057e-02
4.517120577117980096e-01,4.276880145567666380e-01,4.263988681287473326e-01,-4.405196244879671340e-03,2.020726235137449041e-03,7.101240269917836112e-04,2.611067146062850952e-02
4.818861484878910750e-01,3.932835360188655649e-01,4.248777416464519230e-01,-9.166043126004368635e-04,-3.192196502706223229e-04,5.431813780104102589e-03,7.836215943098068237e-02
4.682730616293791504e-01,4.081592659399476686e-01,4.687808313598061938e-01,-2.831996105700818750e-02,1.954270545144951021e-02,2.563853870861859327e-02,9.575106948614120483e-02
4.733558650992809591e-01,3.823155656894769994e-01,4.438258629320993021e-01,-5.852545716944440243e-03,1.185726163943914835e-02,9.935700531464511723e-03,8.539690822362899780e-02
5.190584197989672743e-01,4.380804130736493107e-01,4.463307324971655388e-01,7.417249476466431304e-03,-6.502465350715280409e-03,2.839799230244226258e-02,9.310553967952728271e-02
4.975662606509776431e-01,4.336883878802733627e-01,4.486508283046508061e-01,-1.549868143176725416e-02,2.640458787075284849e-02,4.347451803109180640e-02,1.087695881724357605e-01
3.838822243158469538e-01,6.996106156925492314e-01,7.729418635065061771e-01,-7.581222215381015761e-02,-9.271124176534231709e-02,-3.217752302146758420e-02,4.175516963005065918e-01
3.472875972235518471e-01,-1.181073345023719856e-01,4.517123153810900238e-01,-1.571788403605675344e-01,2.417152930798411106e-02,3.046155005271274085e-02,5.956070423126220703e-01
4.802853064306498165e-01,-3.864347766823944541e-02,4.256138723601042839e-01,-4.547473980105980890e-02,-1.096599133231743184e-02,1.203204659334720789e-01,5.421264767646789551e-01
3.247871834083668752e-01,6.217231198072306064e-01,6.468029055849294773e-01,-1.044714012174087631e-01,-1.513733437881140988e-02,-8.389667894507754284e-03,3.604003787040710449e-01
2.563321908270940752e-01,-2.090135928949212740e-01,1.899755941724975139e-01,-1.851076830269245965e-01,5.865381681042867307e-02,2.243379990038381622e-01,6.739206910133361816e-01
3.965636124998071499e-01,4.015245768998725318e-01,4.344087869496419119e-01,-1.252971089696828730e-02,-1.048887345741787713e-02,-8.855009477816269681e-03,4.801441356539726257e-02
2.916690668292812871e-01,3.511615831425640155e-01,4.348038690366588521e-01,-5.462313929549172248e-02,1.308181051503284724e-02,1.087039035347214973e-02,1.591553986072540283e-01
3.793207399421246739e-01,4.174762936130007041e-01,4.673055070581629833e-01,-1.905795692312171538e-02,-5.382454610297298866e-03,-1.446949809480251557e-02,8.743389695882797241e-02
4.006262502866825281e-01,4.272637578098111844e-01,4.861289624339509841e-01,-5.138412035375316579e-03,-3.758861377524282295e-03,-6.990590314011244609e-03,7.752995193004608154e-02
4.173771261925240950e-01,4.107965788910391547e-01,4.876776724094271653e-01,-1.652380154081425521e-03,-1.400412323453813831e-03,-2.480506756179258341e-05,7.390644401311874390e-02
4.382689100282308181e-01,4.316530371939822364e-01,4.670682847720403208e-01,-1.055235238715949856e-03,8.512617709129652668e-03,3.241146242401374451e-03,3.627611324191093445e-02
4.881213013490806607e-01,3.033397746396414019e-01,4.300693322270883745e-01,7.382493012660127675e-03,5.598707082218500747e-03,-3.652442549427997037e-02,1.762014627456665039e-01
5.281918673782901585e-01,3.168284742517240571e-01,4.889543059931627522e-01,-2.858422522066108879e-03,6.554655658361435190e-03,-1.255245601977648083e-02,1.963333338499069214e-01
5.157587081772150306e-01,3.066101909095809153e-01,5.165835600543172701e-01,1.557824512427460374e-02,6.350902778143847384e-03,-1.105570701601467642e-01,2.853663265705108643e-01
4.774510590213122407e-01,3.998043698193005091e-01,4.285642483205990283e-01,2.476759175773988065e-03,-9.974523327463546626e-03,8.546482643019593511e-03,7.182640582323074341e-02
4.475897494018442058e-01,4.321865108182141868e-01,4.051192519528370450e-01,1.990344788111457139e-02,-1.335574125758185425e-02,2.068365200340229956e-02,6.628596782684326172e-02
4.274782841705823122e-01,4.371860999608210840e-01,4.124135927502121657e-01,8.835033118410169639e-03,-3.121336900203108833e-03,4.580800867537316613e-03,2.817418612539768219e-02
7.015081557970129778e-01,4.392483969598021121e-01,6.573946419857704671e-01,6.126280059018755081e-02,2.223742622455130227e-02,-6.696546588314794546e-02,2.921523749828338623e-01
5.344670369470631011e-01,1.866300176820388790e-01,5.141354488819075419e-01,3.260072052520114616e-02,4.881336655614655629e-02,-3.279286178894233461e-02,3.576236367225646973e-01
4.207283247512000335e-01,4.116428516420793104e-01,4.323821569372969797e-01,4.473047360804565872e-03,-8.190927548372712447e-03,4.243139948218501052e-03,2.528931200504302979e-02
5.187813982909507127e-01,2.837616788172759308e-01,5.072544509849917782e-01,1.774558428063873275e-03,8.472811233349533287e-04,-2.685313011761015708e-02,2.341643720865249634e-01
5.493410343040721067e-01,6.232909529888914779e-01,5.441609637816692269e-01,6.595186444958496541e-02,-1.028294786652601961e-01,6.406847599168057072e-02,2.509251832962036133e-01
4.980830310707719533e-01,3.992280579210181202e-01,4.331740593750176838e-01,-7.710650373468042832e-04,-1.863966608819230377e-03,7.587680680138126667e-03,8.805584162473678589e-02
3.883802168241967667e-01,4.943964685709513751e-01,4.439909402985598996e-01,2.876010448713027870e-02,-3.465408490468523811e-02,4.075101186573026890e-02,1.396511346101760864e-01
4.146894544111767167e-01,5.119642205495327225e-01,4.176801883072790988e-01,9.578817278765136556e-02,-8.252496578579908426e-02,5.167102225702965845e-02,2.552397251129150391e-01
4.522066499162561426e-01,5.053958500835893375e-01,3.633842606915703155e-01,4.385450214974721990e-03,-1.588758174290013162e-02,5.119252850634786918e-03,1.278141736984252930e-01
4.859358935446205785e-01,3.925119406665265598e-01,4.283420825692649259e-01,4.710415988006986469e-04,-3.836788654200525180e-03,7.271947147554828558e-03,8.287286758422851562e-02
4.035815744360791713e-01,4.502141727339731281e-01,4.027105205427473633e-01,1.253889536601364256e-02,-1.259726079239325072e-02,1.542401445501028964e-02,6.226895377039909363e-02
4.437728394695463208e-01,4.882343654947050027e-01,3.611854834916749524e-01,1.528976961841271506e-02,-9.796229777494050092e-03,9.465051540917708561e-03,1.171642020344734192e-01
4.044595789946165976e-01,4.665024543730723061e-01,3.448659274643557926e-01,2.168131707070265410e-02,-1.430825992634510331e-02,1.297204459214794728e-02,1.167361214756965637e-01
4.821587042194818706e-01,4.092803854065000246e-01,4.384638486135641888e-01,-3.452106627621408762e-03,1.263770179234972695e-02,3.809774441012701331e-03,6.778281927108764648e-02
3.086119000331054019e-01,5.319679867840837462e-01,5.358663788621308433e-01,-6.401961893098231937e-03,3.830248590483049682e-03,1.409228132818231023e-03,2.257139682769775391e-01
5.139973244798090590e-01,4.738374645626040049e-01,3.076770754592816348e-01,6.374948528211067840e-03,9.091427728340704603e-03,-6.887137890756908978e-03,1.908068358898162842e-01
4.210834520154178029e-01,4.485494632192241204e-01,3.817265591805528713e-01,1.339194127834775552e-02,-9.346992283696639245e-03,7.601577404119395920e-03,6.601368635892868042e-02
4.508047063342090488e-01,4.070204830276640262e-01,4.261652730647072507e-01,-1.654296017102291783e-03,9.267373327886678502e-03,5.847948982519149755e-03,4.258872568607330322e-02
4.698511477421293270e-01,4.116256125961357815e-01,4.095066457328190301e-01,1.690822796674374935e-03,-3.654084346420595052e-03,2.862006974494119785e-03,5.992735549807548523e-02
3.757379095617933706e-01,4.552900835293630100e-01,3.720817233151235137e-01,-7.367547226731508900e-03,1.382673016053159384e-02,2.390241338396680449e-03,8.594353497028350830e-02
4.139106188816222276e-01,4.921693472941510716e-01,4.254024101859923412e-01,-6.806467103714624635e-03,2.257805928789256150e-02,5.981216669416981185e-03,8.445574343204498291e-02
4.294541563977823939e-01,4.670041997006669776e-01,3.595379751091795639e-01,-2.156217835011424791e-02,1.600338576274323507e-02,9.113395576992663547e-03,1.064701974391937256e-01
4.102712758442411123e-01,4.851019118119217488e-01,4.195386355804823775e-01,-6.812488038624593331e-03,2.238941831043281608e-02,4.086450532569886780e-03,8.176314085721969604e-02
3.910232774616442253e-01,3.998746623823855595e-01,4.755434481040604622e-01,7.108242256194219344e-03,-6.512674644636638971e-04,-1.974423930961716894e-03,8.147659152746200562e-02
4.058201600358184447e-01,3.978384657359703702e-01,4.876169922407126989e-01,8.939020590758194745e-03,1.456978044801493727e-03,2.346364004434903488e-03,8.757802098989486694e-02
4.519772879777581576e-01,4.157869982975923029e-01,3.984441953077754173e-01,-1.086957499106456365e-02,5.278328716650798266e-03,3.601037091157626227e-03,5.210641771554946899e-02
3.834731571179719190e-01,3.946515345043356549e-01,4.703915830389612251e-01,8.515477051316205220e-03,7.758011023575201457e-04,-3.472249395605708517e-03,8.344864845275878906e-02
4.626828175751457328e-01,3.914106203254674732e-01,4.136293114493792000e-01,-2.858229884574276132e-03,7.564111077233479259e-03,5.681899297758906744e-03,6.544332951307296753e-02
4.208067002436983728e-01,4.196615459615914978e-01,4.339703958383069882e-01,-8.447628398917623538e-04,1.798335150223677546e-03,1.403097432819388471e-03,1.440200209617614746e-02
4.133039146174125600e-01,4.104894718684573007e-01,4.872350493531470428e-01,2.079952014728406358e-03,-1.222195909619356105e-03,6.511508436288118533e-04,7.550192624330520630e-02
5.513003656629915650e-01,7.310283955953985613e-01,6.347185890629463145e-01,-6.333354119333734107e-03,-9.462634002747392914e-02,2.827012276231012297e-03,2.264396548271179199e-01
4.668118839409746146e-01,4.094034184090487027e-01,4.095636430509999037e-01,-2.354397850278588684e-03,1.396565990070955995e-03,1.450235180613145989e-03,5.757907405495643616e-02
4.213418519347459368e-01,4.262776307885954852e-01,4.168221910099369487e-01,-5.006613509438357854e-03,3.428556473731086181e-03,1.881160732670878388e-03,1.371776685118675232e-02
4.166402545059758600e-01,7.068885671344558030e-01,6.365440952917684747e-01,-1.145351121023356483e-01,-1.467963741619705831e-01,-6.726373354662373849e-02,4.316835701465606689e-01
3.237918822840595845e-01,5.477798723707903994e-01,5.296233400158926186e-01,-1.584898407174423901e-02,6.714395542785434393e-03,5.151470526798143310e-03,2.177197039127349854e-01
2.130440957663914947e-01,4.363188152878836323e-01,2.854297020114426875e-01,-1.018038689451600531e-01,-1.793206142886125676e-01,-1.364551553200305245e-01,4.715391397476196289e-01
3.606872611080972346e-01,4.465721839697335827e-01,4.013172090149364490e-01,-3.548436666640820969e-02,-5.271536899773765494e-02,-2.790699543116174908e-02,1.413791477680206299e-01
5.439901984813274582e-01,6.624475993449022715e-01,5.408337142745107684e-01,-2.641422280325297564e-02,-1.300862059439236995e-01,-4.023398553942308942e-02,2.685754001140594482e-01
2.947002764086462112e-01,4.840493118402217076e-01,4.338213838402127931e-01,-1.691931263387155826e-02,-9.059950564868275713e-02,-2.405473701538867262e-02,2.368222624063491821e-01
7.163454795369776917e-01,5.868797696368438510e-01,5.549368907377352222e-01,-1.153468778180228096e-02,1.632960679461366651e-02,1.227150931564864045e-01,2.613299190998077393e-01
5.670058789851204484e-01,5.221810442110041972e-01,4.021011489624670143e-01,1.526253241056033409e-03,2.022059454752833305e-04,5.343036374311325998e-02,1.743058562278747559e-01
4.949117946066294849e-01,4.124573685601904405e-01,3.657202321922768395e-01,7.293293985817966060e-04,8.379622851858573029e-03,2.076351982649948108e-02,1.197597458958625793e-01
5.312980155689803752e-01,4.792662541991944414e-01,3.972074359172133029e-01,-5.711663071302265811e-03,1.076673730823379978e-02,1.200246822319453975e-02,1.207825914025306702e-01
4.536790185804840947e-01,3.842622591837855373e-01,3.359483930601874224e-01,1.251770798074648824e-03,-1.426071794998004169e-03,1.774203786035516775e-02,1.070600301027297974e-01
4.447128782791243129e-01,3.908843099739811588e-01,2.747980876304182973e-01,1.561603299752565427e-02,-7.323059551945767555e-03,3.357536402544011173e-02,1.640020161867141724e-01
4.889649694731884599e-01,4.476308243922203500e-01,3.220617401397323776e-01,-1.530274300842305148e-03,6.557209639634773574e-03,3.081947228100387695e-02,1.601622104644775391e-01
4.979033442574519186e-01,4.514403371130915610e-01,3.341193882335619647e-01,-2.288288960578678966e-03,-3.738305873822859917e-03,2.612604821798218679e-02,1.532300412654876709e-01
4.257875766314018207e-01,4.489684127611976994e-01,3.823165937824286598e-01,2.210351439716566960e-02,-2.708527370078161328e-02,2.193976009785246137e-02,9.244113415479660034e-02
6.444171987076952046e-01,5.324532467518038326e-01,4.023542840648537400e-01,3.888688403432041113e-02,-5.744592044948784726e-02,1.236292247622484963e-01,3.229818642139434814e-01
4.532138258601727809e-01,4.926411864639920202e-01,4.691886511178541275e-01,2.947702171523002360e-02,-4.198709399868274378e-02,2.878062729601492398e-02,1.075187101960182190e-01
4.471733488726525318e-01,4.578805196691159152e-01,2.381375331882931712e-01,1.725031897418474389e-02,-3.744521705156099445e-02,5.222646363402141251e-02,2.435790598392486572e-01
4.631486801895167149e-01,4.734553967698941213e-01,2.700710672841953874e-01,2.151108477429523186e-02,-1.720811812811512756e-02,2.507207066664686110e-02,2.086565494537353516e-01
4.879325013031508007e-01,4.429784752291711647e-01,3.240252496233833046e-01,5.305515144041338983e-03,-1.657038343575672470e-03,2.059976281011179078e-02,1.512742340564727783e-01
5.135594056336352242e-01,4.718918781015554731e-01,3.171781226728876968e-01,3.535177471782395553e-02,-2.679858411563544769e-03,6.844760489437831663e-02,2.234839648008346558e-01
4.517158720760920954e-01,4.537250036773480266e-01,3.987622781648928472e-01,1.345851644277910528e-02,-4.238534988013521222e-03,3.850773861397433894e-03,5.963460728526115417e-02
4.816222111655291127e-01,4.740961098435477750e-01,2.758750638452904247e-01,7.945005881492958263e-03,-7.457137151919555028e-03,2.817401382775614957e-02,2.087524384260177612e-01
4.297520450262741765e-01,4.198846348158172259e-01,4.235425927768874943e-01,1.935694248436370174e-03,-3.239065495293789228e-03,2.552360891514328552e-03,1.170089188963174820e-02
4.711020471818783695e-01,4.061842198858224839e-01,3.906712966540691334e-01,-5.342780514092100586e-03,-4.599374305798144442e-03,-9.078795773822603832e-03,7.654026895761489868e-02
4.862880861083426209e-01,4.071621716795255086e-01,4.137889343269768316e-01,9.045728771526943086e-04,-1.119528292949425330e-04,3.252796894951298472e-03,7.625424861907958984e-02
4.858475228753652564e-01,4.576049986604690534e-01,3.985685997549756610e-01,-1.478346592909920119e-02,-3.484671507561415155e-03,-8.015357400021653686e-03,8.267462253570556641e-02
4.859707408008930862e-01,4.117876940850296874e-01,4.091747001185353505e-01,1.877175249758677522e-03,-3.883187318516581783e-04,-3.592066110653332513e-03,7.585199177265167236e-02
4.819650733382523367e-01,4.042701374233783063e-01,4.107828456420011265e-01,6.709931327977793286e-04,-9.540013669897811233e-04,3.241545554313185820e-03,7.489003986120223999e-02
4.866140218598921652e-01,4.202531654169401332e-01,4.145291541844815519e-01,-4.154418533710819463e-03,-1.217791576974155921e-03,-2.883239587425757457e-03,6.998245418071746826e-02
4.662172345416989439e-01,3.761926628417379126e-01,3.853935298569895473e-01,-1.601116522808794171e-03,-1.689395222656173015e-03,-1.001166876210627353e-02,8.762264996767044067e-02
5.009698130652361359e-01,4.346869013931510262e-01,4.310194444522794655e-01,-4.026570544603171736e-03,-8.949406053688177196e-03,-1.325911188787290244e-02,7.393437623977661133e-02
4.880593448903816634e-01,4.145883298477410217e-01,4.195772540267598272e-01,-1.072793452911158067e-03,2.115750882498850481e-03,1.608523344516528961e-03,7.128100842237472534e-02
4.697936456254116488e-01,4.152367992443425360e-01,4.114169579600066018e-01,-6.173575323017172628e-03,-1.172935988518542319e-02,-1.467556704707241241e-02,6.612585484981536865e-02
4.577376477333919835e-01,4.000415271382929960e-01,3.876871650889695542e-01,-4.691675099335767228e-03,-2.675757096886272838e-03,-9.161750481609822958e-03,6.733200699090957642e-02
4.612997945270737032e-01,4.182464072106761854e-01,4.139316332024873257e-01,-4.169230762208630744e-03,-1.240707010884146413e-03,-1.509000629304442032e-03,4.606054350733757019e-02
4.328393313128503506e-01,4.427703008104778015e-01,4.326256619127948344e-01,-8.840127007724234154e-03,4.487970609052415252e-03,6.141755012613873965e-03,2.255713567137718201e-02
4.786363853043644201e-01,4.209631996897993389e-01,4.265503281082743126e-01,-2.221685122623719057e-03,4.665373662104749936e-03,2.122582735740099515e-03,5.593572929501533508e-02
3.990338631018180982e-01,4.262573719787017823e-01,3.988986914285472252e-01,-1.058963933667703486e-02,6.201881778071543193e-03,2.732871107982157502e-03,3.491467610001564026e-02
4.588432183445994017e-01,4.246744088494620040e-01,4.294673220347429154e-01,-2.079157880238773244e-03,4.553478745404350783e-03,1.181085810473392513e-03,3.325759246945381165e-02
4.247756058002265522e-01,4.341207179303561148e-01,4.204255054442968542e-01,-5.612177073641937478e-03,1.924797158589178474e-03,1.822718836334679760e-03,1.620116457343101501e-02
4.183690472386059067e-01,4.408936983447263036e-01,4.187441292111920288e-01,-5.617086184518893521e-03,4.502862016844058212e-04,4.986076854610801273e-04,2.439387328922748566e-02
4.615076038060029751e-01,6.330821883503257030e-03,6.306998019585310367e-01,2.502386869857265578e-02,3.848122923438682119e-02,1.217425143810998006e-01,6.029999852180480957e-01
4.272673756231726849e-01,4.710575061233577832e-01,3.983825739563498503e-01,-9.704975696593324055e-03,4.175416770860080132e-03,2.209434153548668275e-03,6.607785820960998535e-02
4.268166089320744039e-01,4.221698743765411321e-01,4.483628251674028342e-01,8.778276431613400189e-04,-3.749170437090955463e-03,1.630091857214538463e-03,2.526664361357688904e-02
4.384746543343432390e-01,4.344321008149432672e-01,4.548050222138037002e-01,8.360038479281120191e-03,-9.391282520803380385e-03,9.405683143824819861e-03,3.299544751644134521e-02
4.303898139001046119e-01,4.339672272066919523e-01,4.321268388266479854e-01,-1.624566724717909196e-03,7.674056017885142866e-04,-2.552218897134606812e-06,4.391524940729141235e-03
4.128809771344507107e-01,4.084940689734507524e-01,4.187935042272845632e-01,4.563081309357856254e-03,-5.475752612665602675e-03,2.936731228879391285e-03,1.607577502727508545e-02
4.403703545882836634e-01,4.392343483116854519e-01,4.493827867957518873e-01,5.752757211287429229e-03,-9.459394712052525758e-03,8.043685711467503038e-03,2.558472938835620880e-02
4.252632020080308606e-01,4.275906453306241306e-01,4.327666392047489485e-01,6.017245956542624681e-03,-5.400018561268780937e-03,7.105131495905083264e-03,1.979408413171768188e-02
4.361395386011164277e-01,4.755535600622887715e-01,4.434356913964866420e-01,-8.738615667155971017e-03,8.976407236358122793e-03,7.546722976235185204e-03,4.428097978234291077e-02
4.045376145652700428e-01,4.490527943876351791e-01,4.059606381307573342e-01,-5.497917992975660632e-03,1.094120873112261168e-03,2.049604647376616299e-03,4.502394050359725952e-02
4.097177913384941195e-01,4.501211625938126848e-01,4.026245565234244927e-01,-9.033383059206591750e-03,4.908590451635583968e-03,3.283240508869614185e-03,4.815355315804481506e-02
4.142472179898450402e-01,4.243384295195287148e-01,4.034456482508390063e-01,-9.005065737593534458e-03,5.199123388128505836e-03,4.789173891247935563e-03,2.684552595019340515e-02
4.080185403131285637e-01,4.358513441305916780e-01,4.161616398505826320e-01,-4.058683317334360607e-03,4.715766983557972622e-03,8.509307438542463436e-03,3.078455477952957153e-02
4.031820544794950112e-01,4.495112143360022738e-01,4.094094745266285140e-01,-2.152314423506872156e-03,1.254713875827432028e-03,5.531680568538250957e-03,4.480044171214103699e-02
2.691272192636972593e-01,3.891403860783388402e-01,3.990390721032763821e-01,6.445857656639389366e-02,4.324049692730427830e-02,-2.509807735173099144e-02,1.888194978237152100e-01
5.704847191924110605e-01,4.655794544818210867e-01,5.787529685059956686e-01,8.083635846923142854e-02,7.415071590889386888e-02,-9.585740332917562501e-02,2.749642133712768555e-01
3.997165869850634601e-01,4.748068782563236168e-01,4.724260166845054565e-01,2.425878714618977597e-02,1.894571173114731680e-02,-1.950905689421805062e-02,9.720873087644577026e-02
4.435907475596416183e-01,4.014661195667655336e-01,4.643270202733327245e-01,2.620389670080071343e-02,1.508091780147121329e-02,-1.218762120310447165e-02,7.915702462196350098e-02
2.920066527586595573e-01,4.055080328869740125e-01,4.367857248689416827e-01,2.691186363045888069e-02,1.168542544069735116e-02,-2.129942648334966909e-02,1.461311280727386475e-01
3.685725620461688945e-01,4.323439957582151938e-01,4.736817900256225511e-01,1.051886526152425588e-02,7.862129500719737193e-03,-1.055654918812189667e-02,9.624697268009185791e-02
3.497549203222954373e-01,3.990806198495279733e-01,4.528715736344827159e-01,1.524414860270566045e-02,8.360529100989121803e-03,-1.580305927696661408e-02,9.816224128007888794e-02
4.734097724676757379e-01,4.012389448548629445e-01,3.882697523271826379e-01,1.691901531530099877e-03,1.283359003935984543e-03,-7.394743558259686371e-03,8.056302368640899658e-02
3.296561252910956696e-01,3.680743903167781328e-01,4.357519112277336015e-01,1.861318091293456822e-02,5.494034595516339436e-03,-1.037277478627638555e-02,1.005432754755020142e-01
3.653251501150551750e-01,3.986731187544102495e-01,4.361289902748112235e-01,1.062310944974792330e-02,7.923878082874273934e-03,-1.560951847287510644e-02,7.086601853370666504e-02
7.147855367035992336e-01,5.385862728090236029e-01,5.526700220509532802e-01,4.875148939096549811e-02,-2.670584759194242347e-02,1.392896093852159511e-01,3.102217018604278564e-01
4.154905555401350314e-01,1.775375983863914930e-01,3.582232107300222235e-01,1.554663829179253956e-02,-1.347674983503904453e-02,9.234903163725599606e-02,2.704241573810577393e-01
3.513637733161470988e-01,4.923014863773339522e-01,5.289588423852884524e-01,-1.300215035131431669e-02,2.660170028322312273e-03,-2.394788605345008620e-03,1.640707403421401978e-01
5.200391276095307491e-01,3.704019207666055524e-01,4.699506510511823887e-01,7.918779207507392268e-03,2.535941841824668891e-03,5.032860083463516071e-02,1.587808728218078613e-01
6.070245226372465996e-01,3.718937119263951430e-01,4.830347696137934910e-01,4.695423147092004507e-02,-7.765433369606494773e-02,9.828515094668641150e-02,3.085299730300903320e-01
5.642374215388518133e-01,4.076265654984867481e-01,4.575343334906118997e-01,-1.316921947584281201e-03,-1.259654956417642808e-02,7.511599020095927060e-02,1.913376748561859131e-01
4.627904822434154575e-01,4.702245012952432357e-01,2.950356571884055756e-01,-1.888446626370528236e-02,2.069832004472834525e-02,3.437933136245068660e-02,1.880026161670684814e-01
5.722171086080425351e-01,5.425768308724878697e-01,3.914481021339907274e-01,4.713832871984595906e-03,6.403982870180802145e-02,9.876256097507139786e-02,2.642537057399749756e-01
4.170594835300570069e-01,4.720789937940049752e-01,3.253380600355087471e-01,-4.880905217125534185e-02,8.723771987531653282e-02,6.426376446042550428e-02,2.425987571477890015e-01
4.752509318811898864e-01,4.506556605742033095e-01,3.352289133694099643e-01,-1.476797644409434673e-02,1.085299881943886657e-02,1.419229027637448036e-02,1.355696022510528564e-01
4.350169331966077246e-01,4.494126046311847644e-01,4.400655619918025785e-01,2.277757865422971612e-03,1.288582719401464970e-03,-2.996343647457344085e-03,1.440575253218412399e-02
4.649277857825534488e-01,3.902907489566211918e-01,3.916704507628981924e-01,3.370730668089685737e-03,-5.033421179432991631e-03,8.230635713346961396e-03,7.604561746120452881e-02
4.072202535219832109e-01,4.068597658620304869e-01,4.643958880477147000e-01,2.629056458667361745e-03,3.850451556333964968e-03,-1.864808115966873174e-03,5.801241844892501831e-02
4.832963739612639031e-01,4.182087043589143849e-01,4.126137140890095978e-01,3.906092191745011259e-03,-2.828272993985649162e-03,1.354912693547186044e-03,6.860867887735366821e-02
4.843745150261665189e-01,4.167973055611696176e-01,4.173437515086341199e-01,2.354542227814601651e-03,-4.274771294982031983e-03,1.681913417411574647e-03,6.789690256118774414e-02
4.367124040386869965e-01,4.207022091360586025e-01,4.197276136097305987e-01,1.468468455071589036e-03,1.637853571875354242e-03,-1.216990311959371382e-04,1.695408485829830170e-02
4.257227971333521488e-01,4.259274002820460647e-01,4.256456010179038851e-01,1.026164199519739688e-03,2.058620398673077345e-03,-6.969876530346595916e-04,4.170585423707962036e-03
4.892867381331812426e-01,4.128608038396247570e-01,4.161655495684173367e-01,2.088364799788879110e-04,-9.067583019595280413e-04,2.077821509742075034e-03,7.493214309215545654e-02
4.359762296133644077e-01,5.080371674903111368e-01,4.315938142839034763e-01,-2.832727574891583285e-03,-1.241357899515714222e-02,-5.660400777916085174e-03,7.816821336746215820e-02
4.214273773450848970e-01,4.829457527361394886e-01,4.155255032325691489e-01,-5.758950168294158650e-03,-1.255713767872964834e-02,-3.271029456750290752e-03,6.918855756521224976e-02
3.850536202518967666e-01,4.675724113554416417e-01,3.937920041163028850e-01,-1.497137803711016740e-03,-8.372394617647159129e-03,-4.855247153669467811e-03,8.032661676406860352e-02
4.120831742005134357e-01,4.799448049736469990e-01,4.141307233797479892e-01,-1.160105233909763988e-03,-7.401580638414249685e-04,-1.787229950514557025e-03,6.697542220354080200e-02
4.179415616511339415e-01,4.210121191241524286e-01,4.474102798988775498e-01,-9.175398107334118564e-03,9.535872795989766212e-03,9.081182080271395576e-03,3.949828073382377625e-02
4.361281755529584081e-01,4.328076385555018057e-01,4.541305947848760516e-01,-5.734218177482785540e-03,7.499985549905640800e-03,7.215501056913653510e-03,2.860898897051811218e-02
4.726055198540536351e-01,4.320003816406026154e-01,4.454768031513093307e-01,9.273084315871406519e-04,1.664619651741677808e-02,-1.448800346934775787e-02,5.240947753190994263e-02
4.147392505277328612e-01,4.205767315436351184e-01,4.704667902388646183e-01,-9.449946993812004129e-04,1.261519706082918271e-03,5.272663413818887493e-03,5.389974638819694519e-02
4.720614082463672201e-01,3.976011924842565159e-01,4.026974894937692673e-01,-1.134053318461859415e-03,-6.573253445563223725e-03,-7.331588866037818709e-03,7.406458258628845215e-02
4.085919518693147401e-01,4.152706121210173462e-01,4.367998942119962202e-01,-3.585912912580531669e-03,5.986332236318371580e-03,7.377170029289272131e-03,3.100409731268882751e-02
4.081140490951070121e-01,4.191483252388421565e-01,4.504446004893756794e-01,-1.601814010784181072e-03,4.519364840613038919e-03,7.789547374954739097e-03,4.120128974318504333e-02
4.286848399743066751e-01,4.308992685685709145e-01,4.276741343808418971e-01,1.458986010012006205e-03,2.882617464536019430e-04,-1.470334580474110409e-03,4.613481462001800537e-03
4.484630062403632267e-01,4.170708670045402688e-01,4.160939746995838129e-01,1.998631997973937275e-03,1.259379894096794572e-03,8.119227802924300309e-04,3.218395262956619263e-02
4.346938584717519038e-01,4.260708912504909684e-01,4.302006176132341930e-01,4.776358254378314933e-04,1.903247678628802080e-03,-1.157529262271142110e-03,8.448123931884765625e-03
4.295063438034186776e-01,4.253301215357349063e-01,4.279040704971310838e-01,3.034901830468823489e-04,4.732693483104641417e-04,-1.981981010189181810e-04,3.792463568970561028e-03
4.317625979752265364e-01,4.319755529225540736e-01,4.332582070228016558e-01,1.772453156103775311e-03,9.241987612793287369e-04,3.345535255441298314e-06,3.735094796866178513e-03
4.213891520171271776e-01,4.260055271398532351e-01,4.170509305753178353e-01,3.811059493162366734e-03,3.379203302521574959e-03,-2.533489626957793287e-03,1.253966614603996277e-02
4.281261985587201946e-01,4.212346164454083830e-01,4.228932365295386409e-01,3.837163497415871719e-03,6.248448086838327524e-03,-1.717661714662306431e-03,1.445566583424806595e-02
3.530886458046870735e-01,4.193448477804074814e-01,5.186832106827002908e-01,5.833049099075957727e-02,-9.613455267103127727e-03,-1.145924485729414403e-02,1.780963689088821411e-01
4.513368737871684133e-01,4.392230670327704756e-01,4.199124055010599044e-01,9.282728672445965737e-03,4.783267156453607782e-03,-3.637896674020132948e-03,3.347268328070640564e-02
4.288806897348969582e-01,3.067082033630562088e-01,4.477574737889591372e-01,2.285740885678994722e-02,2.580816729730916678e-02,-1.524425290970060111e-02,1.478222012519836426e-01
4.103924847549736410e-01,4.192420212698593218e-01,4.126699816924136455e-01,1.922165254533507537e-03,4.436152311804927861e-03,-2.425243532064057413e-03,1.229286007583141327e-02
4.182242753411355984e-01,4.267350442669929911e-01,4.653942135453226769e-01,-6.811919724374806279e-03,1.012781654112487710e-02,9.352490960068383929e-03,5.104229599237442017e-02
4.855006996845751543e-01,4.917319020084651160e-01,2.834739552468947821e-01,-3.026558251801373528e-03,-4.047293303408332731e-03,-3.221320204535187137e-03,2.054756879806518555e-01
4.226091658498223325e-01,4.252137563782385499e-01,4.943493087968007238e-01,-1.299375228371100338e-02,8.541974915144251099e-03,7.904075527783131425e-03,7.667731493711471558e-02
3.948452312009458898e-01,4.054407749603657352e-01,4.640309767370652261e-01,-6.787893667495343425e-03,3.295771454227340927e-03,8.045553014801573588e-03,6.731179356575012207e-02
4.153836644704435588e-01,4.207029056308111414e-01,4.866463810085056574e-01,-2.460230745655301275e-03,4.390072058396215452e-04,4.078802808511456865e-03,6.925497949123382568e-02
5.100390213616684543e-01,2.399177778501936364e-01,4.793965358969525803e-01,6.290838823111989143e-03,-9.132081497483967442e-03,-4.811255425883313036e-02,2.700752317905426025e-01
4.296154745512075213e-01,4.584469516708394865e-01,4.326843734776147921e-01,-2.504224555839587238e-03,-3.042172707988640475e-03,-2.007503170517289850e-03,2.847559377551078796e-02
4.271306506270226011e-01,4.156226531395549317e-01,4.086825629808440996e-01,-6.782563190742029943e-03,4.441135447396735679e-03,4.752058438578135591e-03,2.292143367230892181e-02
4.737572910548533134e-01,4.383630648348148529e-01,4.333911198578065394e-01,-1.025253966117621075e-02,8.333656999706900645e-03,4.446038000425753429e-03,4.512698203325271606e-02
4.791819208843127731e-01,4.143461179322576737e-01,4.094695544119008046e-01,-3.386014855089085817e-04,1.571285307115070093e-03,-3.080203566486598189e-03,6.767459958791732788e-02
4.189166832726350376e-01,4.852054293888116154e-01,4.348200944896206122e-01,-2.475001674187130279e-03,-4.327741399975906962e-03,-7.459323205466685675e-03,6.192243844270706177e-02
4.665360681733925485e-01,4.206087076461707541e-01,4.217050349905624995e-01,-8.986626904677465916e-03,6.222107998350520468e-03,8.156943711189242746e-03,5.116837471723556519e-02
4.034357414118368013e-01,5.063062503060709041e-01,4.356109776284928237e-01,1.274444187063607237e-03,-9.585342585854125796e-03,6.400644311000009421e-04,9.267924726009368896e-02
4.104265402152238451e-01,4.097533529976687960e-01,4.461222374221988640e-01,-2.031344144145901844e-03,-2.116711530643703744e-03,-5.718378693731183265e-03,3.771718218922615051e-02
3.395594769480426711e-01,4.755674814636085546e-01,5.741616655056900331e-01,-8.785352300703340445e-02,-2.278245048797329295e-02,-1.756537991571341731e-02,2.593570053577423096e-01
4.166800245516582013e-01,4.735947752980811387e-01,4.252436462099089542e-01,-1.499974883580751156e-03,-3.424090221901889084e-03,-2.344599925241818220e-03,5.369955673813819885e-02
4.507777959098789311e-01,4.213910757375288196e-01,4.131084062783191291e-01,-8.979083840912172043e-03,3.751516851374195848e-03,1.919067145556994404e-03,3.835002332925796509e-02
3.877899725510502438e-01,4.536454517150523835e-01,4.767593771332281349e-01,-5.907785938869022056e-03,-4.281249369861210227e-03,-1.280285831830905302e-02,8.393336087465286255e-02
3.664018977761633322e-01,5.052599133866730874e-01,4.533870946121505430e-01,1.956650582804691976e-03,-1.084319913384551755e-02,1.003979449628589031e-02,1.242416352033615112e-01
4.015709404376477387e-01,4.820928701897143620e-01,4.096714411371587539e-01,4.025007291763785591e-03,8.147889585593820136e-03,-5.635183511620962815e-03,7.899470627307891846e-02
4.096054422604272216e-01,4.787758586981631925e-01,4.135301344573585891e-01,7.261890564807654651e-03,1.190242224748558689e-02,-7.796440062641532553e-03,7.276014238595962524e-02
4.173550499338447572e-01,4.786294120908493044e-01,4.370467654254459600e-01,-3.407270916511496474e-03,-3.618523515799425966e-03,-7.934983279354795860e-03,5.655718594789505005e-02
4.229985640746075637e-01,5.062364596238055903e-01,4.209993722813935579e-01,2.973151601524584749e-03,1.415365663944160961e-02,-2.850984024060233390e-03,8.803881704807281494e-02
3.857483324981661466e-01,4.732596692929877946e-01,3.969419434944599923e-01,9.055945462911430899e-04,1.126667428040179983e-02,-4.052986691564119948e-03,8.506771922111511230e-02
4.532056141794004733e-01,4.040095507233767980e-01,4.176375329341262543e-01,3.782559322514842531e-03,5.965172440207911278e-03,-4.029403546310205385e-03,4.619429633021354675e-02
4.523979032142542711e-01,4.013276912261807827e-01,4.097259472339046527e-01,2.209887767411049427e-03,6.124953144146229496e-03,-5.531745744178410973e-03,4.968694970011711121e-02
4.593799791070256044e-01,4.156763872492640899e-01,4.137908504135481835e-01,4.913174116435503787e-03,2.209283465784643748e-03,-1.856418269754514603e-03,4.575328901410102844e-02
4.324640536975229432e-01,4.644690471630426032e-01,4.481704279266150448e-01,-4.097631738266104516e-03,-4.688442993131538075e-03,-7.785190798286160258e-03,3.265687078237533569e-02
4.203009745362460414e-01,4.533152231873138205e-01,4.289934199720771280e-01,-3.983827123815035162e-03,-6.602309842333474454e-03,-1.124126194635525523e-02,3.789467737078666687e-02
4.800250214157768536e-01,4.106448041082705891e-01,4.064301964770834497e-01,-2.630922907677978408e-05,-1.335752722545923863e-03,-1.624156482062873424e-03,7.167325913906097412e-02
3.798311813477036059e-01,4.773400180421620842e-01,4.511278817913047523e-01,-5.512950128258010951e-03,-9.503950136710454313e-03,-1.297625202768188171e-02,9.223034977912902832e-02
4.429330566459522833e-01,4.087170386545153078e-01,4.051991465079707866e-01,8.216276000772460009e-03,3.359085042174599252e-03,-8.846401193703208252e-03,4.212633520364761353e-02
4.361859113719377956e-01,4.284541187150012753e-01,5.050728754859095115e-01,-1.339983368668950896e-02,-3.383005810830266337e-03,-2.975659898298993206e-03,7.705438882112503052e-02
4.178862414317262020e-01,4.194183056625922501e-01,4.912858756673266214e-01,-2.341027827243642376e-03,-1.542002491861857449e-03,-1.021200040110375627e-03,7.282927632331848145e-02
4.315321982461611805e-01,4.219717317376105448e-01,4.929218675571863661e-01,-1.389685648496287451e-02,-1.633767649425053826e-03,-2.658332988098723731e-03,7.110262662172317505e-02
3.797856285913324692e-01,3.883368297140519787e-01,4.625985996869527161e-01,-1.218530968634009073e-02,-1.570121536698831271e-03,-2.339236724079238154e-03,8.180598169565200806e-02
4.011800992126072218e-01,4.911896542463841664e-01,4.073434560977476360e-01,-2.412790343522428545e-03,-9.953492465152091739e-03,-6.905749901679309431e-04,8.888789266347885132e-02
3.801679503129473670e-01,4.615506064770151795e-01,3.846755518006281793e-01,1.887392900652572160e-03,-1.143805598960939349e-02,5.440113796426867925e-03,8.227133750915527344e-02
3.349953381710679134e-01,4.441290503861375916e-01,3.838510475425484514e-01,3.031375293240103855e-03,-1.633501391321178636e-02,1.007651293206247682e-02,1.004883870482444763e-01
4.318190429763852367e-01,6.633467905320186153e-01,4.997729646822966498e-01,-2.761601478056062084e-02,1.460586275990407579e-01,5.289905577050894175e-03,3.299407064914703369e-01
3.541824817069023079e-01,4.527712017771077790e-01,3.501000401869709400e-01,-7.114136366011975790e-04,2.929403735932043992e-02,8.649562701639757758e-04,1.127699837088584900e-01
4.486741829948112659e-01,4.597453399314113121e-01,4.295084717520225581e-01,-1.654093823714748029e-02,1.496155463876326294e-02,1.649206408201912138e-02,5.486709624528884888e-02
4.152949073293923377e-01,5.555577171170007489e-01,4.931276911242593042e-01,-2.855721548145845681e-02,1.355544798682703778e-01,9.121305655389639819e-03,2.695101797580718994e-01
8.237003765907903174e-01,6.584304604779597225e-01,3.780310292898051427e-01,-1.758166635504773180e-03,-4.139761690472857497e-02,-1.035166185657268451e-01,4.354046583175659180e-01
3.029190648128030627e-01,4.745863976509395177e-01,4.408205091597953706e-01,1.499178552176582552e-03,2.341286901098379308e-02,-8.432559126546052344e-03,1.633335947990417480e-01
3.303635577313070448e-01,4.546290175104006903e-01,3.790364720381283470e-01,1.911708327913659361e-03,1.630952895243737225e-02,-2.109616271436349041e-05,1.121229827404022217e-01
3.888547187862499976e-01,5.328727155605793575e-01,4.683624759399127035e-01,2.517302172930250322e-03,-1.457206700685347370e-02,-1.481184506302565167e-03,1.275725215673446655e-01
4.311351314129944212e-01,4.313116412579561798e-01,4.281563223321617762e-01,4.021187176001390614e-04,-9.613656224332255617e-04,-3.654441407886852548e-05,3.562586847692728043e-03
3.109268002945773657e-01,4.808668624837359462e-01,4.482792026223770265e-01,1.152026849612316134e-04,1.981017752908735552e-02,-7.061179300936884029e-04,1.599452942609786987e-01
4.414227532750986671e-01,4.260781348588197348e-01,4.094182163504208050e-01,2.409862080702303636e-02,-1.594621939243565795e-02,2.641127969431299877e-02,7.325567305088043213e-02
4.379835963865309489e-01,4.225941709087001619e-01,4.238164907022733408e-01,1.117129769378071187e-02,-1.040771513789254081e-02,7.396776182215468280e-03,3.290911391377449036e-02
4.275453877752698473e-01,4.300971538392456828e-01,3.955686288861653410e-01,1.563402086870383650e-02,-8.191856157214195619e-03,5.375754136564278064e-03,4.617255926132202148e-02
4.321937160718610782e-01,4.009226401587441813e-01,4.273754866095766380e-01,2.045151190635695424e-03,-7.268523912176247555e-03,3.053372768052413713e-03,3.239499777555465698e-02
4.392641717253240041e-01,4.465446373832309135e-01,4.490216317296974458e-01,1.305625146791022408e-02,-1.014607078720730290e-02,1.025173684099383621e-02,3.482375666499137878e-02
4.376423798530643117e-01,4.124464401541534930e-01,4.236118523221059640e-01,5.900089643384702140e-03,-7.271420427990892520e-03,5.478657935193361611e-03,2.883192151784896851e-02
4.364888168931568280e-01,4.216283014921594074e-01,4.247242845691701629e-01,-3.637238836829965669e-03,-2.782704403840038660e-03,-2.195325369934243969e-03,1.617990620434284210e-02
4.223225435151298224e-01,4.215393695817775122e-01,4.100121809993567124e-01,-1.114228819073778166e-02,-2.557999207638944270e-03,-3.216291804568895043e-03,2.378303371369838715e-02
4.843731476893443633e-01,4.078260271919109670e-01,4.098345492850943295e-01,-1.577048569480225728e-03,2.045726136251477430e-03,-3.086729516161369150e-03,7.588379085063934326e-02
4.532778119528187988e-01,3.807942112904730836e-01,4.944326880031076898e-01,-1.036254437404864406e-02,6.951819781781358107e-03,2.700513587450528632e-03,1.020767316222190857e-01
4.317004328452101469e-01,4.320188563868545550e-01,5.084767857080768616e-01,-1.222797159086115061e-02,1.422539410637435739e-03,7.031965079379792283e-04,7.953858375549316406e-02
3.986235539550826990e-01,3.887519891804862571e-01,4.728996991776901471e-01,-7.012681816403755139e-03,-7.034266614544217771e-04,2.037279475295195706e-05,8.060169965028762817e-02
3.938125437046540722e-01,4.061340572404625315e-01,4.758137807462269331e-01,-9.689784853459391598e-03,2.915824710726839381e-03,8.315681521207200777e-03,7.987663149833679199e-02
4.130638362660417062e-01,4.113237776658792977e-01,4.817375400067336333e-01,-1.233255065576447686e-02,1.372836507812299697e-03,5.109877114898752487e-03,7.334073632955551147e-02
4.668525930002597746e-01,4.055682213162826177e-01,4.078762383440386330e-01,-3.786613569052449673e-04,-2.109696613794519865e-03,-1.705853821943597182e-03,6.035037711262702942e-02
4.604769280329711334e-01,4.289929097182866302e-01,4.204472696858643777e-01,-1.756810995411908153e-04,-2.791584216938421820e-03,-2.784237351019857448e-03,3.714902326464653015e-02
3.962090587258677021e-01,3.847765117403543766e-01,4.694299513942824520e-01,-7.873503252762601226e-03,1.115821757354365984e-03,1.340558648562227735e-03,8.077255636453628540e-02
4.245510962441348957e-01,5.050817785780660207e-01,4.223056317978443053e-01,-8.077453755964176141e-05,-1.605347982643169982e-02,-6.630250266415854514e-04,8.628755807876586914e-02
4.078043049450950086e-01,4.754211886742726323e-01,3.952958939984197451e-01,7.390424194143093567e-03,-8.555334237474546480e-03,4.179758853597862964e-03,7.752503454685211182e-02
4.605243430678769290e-01,4.037341675923231676e-01,4.627390706983877111e-01,-5.695823164438154097e-03,-1.824675550977468766e-02,-5.402653166881519337e-03,6.737603247165679932e-02
4.193676102725902854e-01,4.929209837559672125e-01,4.180570057625824232e-01,4.720364697754129654e-04,-1.421132621925484327e-02,-4.188754986587188076e-03,7.853283733129501343e-02
4.127346835954130988e-01,4.848391073076180890e-01,4.151749358839869064e-01,1.439007241265249275e-03,-1.762421629184964455e-03,4.244831088285458062e-03,7.140473276376724243e-02
4.566435450714034228e-01,4.344891987429485014e-01,4.103197352997288161e-01,-9.370861073302847594e-03,-2.728565529052027518e-03,-3.685032346116430199e-03,4.401078820228576660e-02
5.118276636191649853e-01,3.750079062766734639e-01,4.594248835018842070e-01,-4.500194565229299025e-03,-1.301531023927857481e-02,-7.289846588810696380e-03,1.225738003849983215e-01
3.972232253749042874e-01,4.722673339308954277e-01,3.830339375754175379e-01,1.308048501553126311e-03,-1.058747971714920320e-02,7.707717265256053664e-05,8.508355915546417236e-02
4.278580347203098655e-01,4.247559111496725937e-01,4.243220302756119944e-01,-1.454523753112402836e-03,-1.439300815322917598e-03,-3.525306195566645854e-04,4.908348899334669113e-03
4.676759672577167071e-01,4.327705141714128234e-01,4.358784866135642089e-01,-9.118036348637840321e-03,-8.732607039173882757e-03,-6.786409697130817674e-03,4.166439920663833618e-02
4.708340598717018488e-01,4.272610222561696869e-01,4.213144992411342327e-01,-7.868384778820512390e-03,-9.895256446543205034e-03,-9.502126388434263549e-03,5.425341427326202393e-02
4.328956507130574116e-01,4.076200665609675533e-01,4.193302352557321533e-01,-5.090996344612904595e-03,-6.474131825852250458e-03,-4.225095816398244039e-03,2.714873850345611572e-02
4.750665739510440688e-01,4.187177397280818503e-01,4.216813086950719214e-01,1.461663440947681778e-03,-1.655020901039347837e-03,3.626576569652382401e-03,5.541717261075973511e-02
4.386308078570026470e-01,4.391608368174849120e-01,4.363216991476828177e-01,-5.989373321018786299e-03,-6.552217413936174337e-03,-3.631383287891596593e-03,1.681695878505706787e-02
4.385677245751523623e-01,4.070251033172359034e-01,4.004848939372399053e-01,-8.891802731346208286e-03,-5.165888956699203789e-03,-5.499821447506047199e-03,4.064483195543289185e-02
2.669086477796672741e-01,5.164409783951035005e-01,5.008026134665068962e-01,-1.543358524332210102e-01,-9.460677560092305149e-02,-1.014411665480203228e-01,4.333469569683074951e-01
4.973600762772356076e-01,4.600237333282876651e-01,3.739333692591170211e-01,1.430414084419517375e-02,-2.309818478256653318e-02,4.567251846754365879e-02,1.431509405374526978e-01
4.259881300331156417e-01,3.820363492664256566e-01,2.718736669236673231e-01,2.359146677727993677e-02,-8.861382227804418671e-03,3.274226283561849221e-02,1.550188213586807251e-01
4.292920175815472250e-01,4.290231561814046857e-01,4.264462465201874219e-01,-1.183084499639899595e-03,-5.370045026030506466e-04,-3.880272573096716065e-04,3.594643902033567429e-03
4.679642644210847968e-01,4.288561691715471746e-01,4.050667940773278186e-01,1.427228372948307657e-02,-5.053912883330950734e-03,3.546840442428329972e-03,6.124700233340263367e-02
4.865692087313308045e-01,4.231504415342955960e-01,4.019426753320580747e-01,7.885307389549211718e-03,-5.460985548672992037e-04,3.295782703079596417e-03,7.769617438316345215e-02
2.380423955665573743e-01,5.671021310387778236e-01,6.170834262906550460e-01,-1.695200847185495685e-01,-6.499452507317887706e-02,-1.154394896351834676e-01,5.158373117446899414e-01
4.321254325531556084e-01,4.345789990308814299e-01,4.428451638502969301e-01,2.296793474093962104e-03,1.042119240623626481e-03,-1.296222889765734918e-03,1.089749764651060104e-02
4.213771338027968438e-01,4.317440453956651325e-01,4.191638775242464976e-01,-1.898913851616187629e-03,-2.031242493822334530e-03,-4.433620356745346033e-03,1.474728528410196304e-02
4.336250941239387924e-01,4.353016767733967618e-01,4.305839404876909970e-01,8.500032405863222562e-07,-5.678320126120976665e-04,-7.296340465601570437e-04,4.441023338586091995e-03
4.304021831924459973e-01,4.465229368623204187e-01,4.211404220484074590e-01,8.644494377309436262e-03,3.817730434615566708e-03,-2.432617807209007301e-03,2.793967537581920624e-02
4.211236067379626191e-01,4.112361568542707291e-01,4.370980179415819844e-01,4.258133804133308435e-03,7.514173506327469394e-03,-3.718153162120265646e-03,2.785941772162914276e-02
4.118449866829947958e-01,4.163223640798098812e-01,4.352944104885156373e-01,4.880117629447749787e-03,3.307039299693427959e-03,-9.234614277071300295e-03,2.872317843139171600e-02
4.199604278943128710e-01,4.164045324399253123e-01,4.299591873770269301e-01,1.490723438139932759e-03,9.387071219396716810e-04,-4.782157805294185923e-03,1.503633987158536911e-02
4.299629510195831505e-01,4.292514772345813467e-01,4.286688461363000746e-01,9.106895524546820527e-04,4.085301973036763743e-04,-1.918295094581404648e-04,2.087901812046766281e-03
2.479451707335208754e-01,4.837036684194926384e-01,4.797622009069137938e-01,-3.535325104906617867e-03,-7.340168161152324337e-03,2.081539295598786802e-04,2.342384010553359985e-01
2.734818044570662687e-01,4.991955165001067396e-01,6.258336824635454265e-01,-2.711983255281432137e-01,-1.406409739509578705e-01,6.609491062035990905e-02,6.234250068664550781e-01
4.090928661727172289e-01,4.263486904722778026e-01,4.318425423121953766e-01,2.667580349965373646e-03,3.710100969041162447e-03,-8.225681999204901423e-03,2.623689919710159302e-02
4.192382536670504201e-01,4.482438478315133867e-01,4.063332889691577132e-01,7.736351004147212773e-03,4.052214194624390552e-03,-3.352982540047151974e-03,4.055516049265861511e-02
8.531211445632878032e-01,9.248941010763922499e-01,6.458066720388173643e-01,5.516429079435996446e-02,1.897873088202903513e-01,-1.004797173799037852e-01,4.587872028350830078e-01
4.500792661196689748e-01,4.159555917593079633e-01,4.168675969624207056e-01,-3.867032626112760010e-03,-7.069505780071050523e-03,-7.255001332268774632e-03,3.855951875448226929e-02
4.225466504675454704e-01,4.276329074106893779e-01,4.286522010292181384e-01,1.501516972950093154e-03,2.506071166094910735e-03,-2.317412610263766201e-03,8.591239340603351593e-03
4.523652484463540624e-01,4.343218969209740599e-01,4.350769391094096439e-01,7.182344562360038105e-03,5.588171797289940082e-03,-7.459381671549656333e-03,2.697920426726341248e-02
4.348937906698144285e-01,4.240866429494810630e-01,4.157051820407024478e-01,7.417800016793371816e-03,3.737035168979761270e-03,-5.134360939604254784e-03,2.374185249209403992e-02
5.000402539942785385e-01,4.308778147729754870e-01,4.062840626990763537e-01,3.910475885579849965e-03,3.568282435566514591e-03,-5.644569432086570838e-03,8.525793999433517456e-02
4.299653784653463817e-01,4.232863005697731773e-01,4.300346203253286315e-01,3.722840109510492951e-03,4.981325569981391067e-03,-2.333740180668794108e-03,1.332050282508134842e-02
4.286572570421404160e-01,4.523112196245858141e-01,4.077749143368973317e-01,8.415711541234553034e-03,2.492710876488101693e-03,-3.019536926585788313e-03,4.180907458066940308e-02
4.200460913885392111e-01,4.166259711078256767e-01,4.535747509356263807e-01,1.550575885713385837e-02,1.603518657999977032e-02,-1.531669013002868486e-02,5.871124565601348877e-02
4.149543195689934239e-01,4.213550800710456068e-01,4.350491811181181334e-01,5.782969208135578867e-03,5.351667887405203196e-03,-8.200285900381260734e-03,2.653552591800689697e-02
4.112719971372134076e-01,4.303348999704242894e-01,4.142045913978252281e-01,4.614404755757577081e-03,7.282611157654061279e-03,-7.741153167036481618e-03,2.681146189570426941e-02
4.883237982349531436e-01,4.803183609185093794e-01,3.246218537947990201e-01,-1.299727004665711741e-02,-1.768975278839354792e-02,-1.073934104183476602e-02,1.653586328029632568e-01
4.232188984167254975e-01,4.437585475581294903e-01,4.187585503625268490e-01,4.149630909476901414e-03,1.680786171888129683e-03,-5.583959361313169372e-04,2.438144199550151825e-02
4.045037311833617477e-01,4.770900590472715308e-01,3.932976914155417170e-01,1.508684704678183797e-03,-3.250849201762940222e-03,1.117813629480954828e-03,7.905717194080352783e-02
6.175860873601021206e-01,7.253844328741427816e-01,1.520113284137972753e-01,8.324485343119385206e-02,-4.505342599994376952e-03,-3.819195333205754189e-02,5.511754751205444336e-01
4.252681132835405275e-01,4.395459968432692821e-01,4.250859503266721795e-01,2.361835195963141610e-03,-1.116276939925782046e-05,-2.409879922421509263e-04,1.494661998003721237e-02
4.547245273228840978e-01,4.208665195653376601e-01,4.238047029068945371e-01,-8.140200982698432607e-04,-3.825127834582530469e-03,1.141619512390002275e-04,3.318792581558227539e-02
4.196850402712141714e-01,5.102492444103267077e-01,4.445002249390143101e-01,2.006452517875844787e-03,-3.674514639076937456e-02,-6.749189340187095347e-04,1.031230464577674866e-01
4.786521823021451238e-01,4.478493909639012505e-01,4.092804254377514495e-01,1.716469156759576828e-02,1.987711140156329589e-02,-3.018560027494327988e-02,9.179922938346862793e-02
3.889486855494838080e-01,6.825808176107490688e-01,6.247799425526453510e-01,1.986839458294933046e-03,-8.016593989390953523e-02,-1.630336810444202008e-03,3.031305372714996338e-01
4.193049530605423292e-01,4.345033362243701514e-01,4.574954668220391207e-01,-4.690478413625427841e-03,-3.543909192005684390e-03,-1.009857969266937140e-02,3.897044807672500610e-02
3.542903863488022220e-01,5.240344962197502898e-01,4.865565824717535404e-01,1.906397316384342766e-03,-2.489457645675257139e-02,-3.665109477801032408e-03,1.605192273855209351e-01
2.865363959098842783e-01,4.104511600979059427e-01,3.279164671424525945e-01,-2.813108129713023237e-02,-5.892329254747752376e-02,-2.310938401105903234e-02,1.622702777385711670e-01
4.821424310810592528e-01,3.532955618090605210e-01,4.251195887274454854e-01,-1.675454311244397492e-03,3.836023362993249645e-03,9.924228721813909207e-03,1.133752316236495972e-01
3.141407651665214518e-01,4.482996533941684403e-01,3.768231816202209372e-01,7.845023740618161864e-03,-1.945444971548609264e-02,5.644543430886660683e-03,1.222044676542282104e-01
3.141372597798844923e-01,4.811717063855165955e-01,4.428186069772890310e-01,-2.787788842268633990e-03,-2.955957997774011706e-02,-1.594509843411090477e-02,1.623962372541427612e-01
5.026043744398113189e-01,4.851513414621593800e-01,3.259269652224367486e-01,-6.040414057223685018e-03,-6.024560774685861451e-03,-1.202768952072511346e-02,1.705529242753982544e-01
4.380028927194407062e-01,4.200661714860239315e-01,4.515160225872543731e-01,-1.362256115271676810e-02,-1.381431196476633205e-02,-8.847340429602440839e-03,4.594307765364646912e-02
4.308041422012264254e-01,5.156491426802557454e-01,4.396637400260704487e-01,-4.587498580688013049e-03,2.179306938734524440e-02,2.893675801765702941e-03,8.965792506933212280e-02
4.323219171039788256e-01,4.938070573850941725e-01,4.310342760582845933e-01,-1.112378374406981264e-02,1.804072294118965261e-02,1.301627551240598819e-02,7.561177015304565430e-02
4.127643565157775862e-01,4.871891433215168044e-01,4.189045190058610091e-01,-9.209968015746518039e-04,2.929640369905998150e-04,1.966124973174060951e-03,7.165312021970748901e-02
4.020956785313372639e-01,4.795468187982367958e-01,4.065344833877888031e-01,-1.848557725852348192e-04,-1.128610319256253321e-03,3.036187587841800389e-04,7.535775750875473022e-02
4.934694090955058510e-01,5.102399902951778587e-01,2.952435160548108062e-01,5.491874352375957728e-04,-3.938722874466150936e-03,-3.531475087281891849e-03,2.073257863521575928e-01
4.011190864888041774e-01,4.965146696422856887e-01,4.163152749429047117e-01,2.993899422468640319e-03,6.187306295828870137e-03,3.708527788100750549e-03,8.980306237936019897e-02
4.188505874667488027e-01,4.996105648114878561e-01,4.243006980931178784e-01,1.785182057111977432e-03,2.465135536325372919e-04,-6.897634569596713039e-04,7.824894040822982788e-02
3.318239062901039982e-01,4.701046909796612883e-01,4.844128860652870405e-01,-9.749423191816437850e-03,1.204269025385023423e-02,1.708915949268437554e-02,1.513314247131347656e-01
4.064273983148677383e-01,4.207258419708523878e-01,4.151460586000415010e-01,-4.489233633468450030e-03,-4.334154431231029836e-03,-5.713247436268624815e-03,1.924929022789001465e-02
4.255376896814574428e-01,4.227467968969640943e-01,4.324329539579487847e-01,4.249133406633584867e-03,9.921185118965661007e-03,-5.436914888737732002e-03,2.264316566288471222e-02
4.275581643132377874e-01,4.261169375602020248e-01,4.301733194976664620e-01,1.727841067126089768e-03,3.460299618349939842e-03,-1.619910836299004236e-03,8.089181967079639435e-03
4.491071675408546127e-01,4.293943745381069710e-01,4.052817537844598528e-01,-1.084243623572320354e-02,-2.670339892152840192e-03,-3.698141177242486588e-03,4.313277080655097961e-02
4.291414852405632252e-01,4.363775320368206700e-01,4.121826268159350382e-01,-1.027529954806120221e-02,-3.931521189494281698e-03,-7.184586813131907911e-03,3.131531924009323120e-02
4.492708475881887487e-01,4.427201394693501268e-01,4.290885302868887030e-01,-5.684272157709016181e-04,-8.925880137996205360e-03,-1.080703870130093891e-02,3.013948909938335419e-02
4.093096050139199971e-01,4.445812458364075126e-01,4.130638558680742589e-01,-6.518021615243045457e-03,-2.853940501212892927e-03,-2.340865255723114258e-03,3.597349300980567932e-02
4.398227255436094607e-01,4.036939860591264861e-01,3.963242088663534446e-01,-7.272021188021465625e-03,-3.865684816387836547e-03,-3.919967313198913748e-03,4.330630600452423096e-02
4.408748303694676185e-01,4.110110084029426902e-01,4.302679793812520526e-01,-1.256038824934194425e-03,-1.215330254425575282e-02,-2.357500917731719832e-03,3.394269570708274841e-02
3.951194615473114236e-01,4.619442575207663437e-01,4.861682449959565111e-01,-5.560375854808567025e-03,-3.683080350039774110e-03,-1.068234374926495082e-02,8.453936129808425903e-02
4.257160225825185051e-01,4.223165145038869639e-01,4.028530187308979604e-01,-1.738960987705854763e-02,-1.389336540872275483e-02,-1.716668371993362169e-02,5.316867679357528687e-02
4.050372591888215523e-01,4.365453841880195252e-01,4.081834154048472052e-01,-4.945316121033192097e-03,-7.561620367269828065e-03,-8.176375464075501601e-03,3.672863915562629700e-02
4.160911385995759160e-01,4.345024607361835378e-01,4.171022815815069174e-01,-2.199196253343931387e-03,-7.114800380951534541e-04,-2.533374519646409799e-03,1.888556778430938721e-02
4.011741166530257141e-01,4.215164085383605874e-01,4.765774568741791839e-01,2.040621120519335238e-02,1.274979674750189966e-02,-2.227560356187712268e-02,8.826729655265808105e-02
4.394922658163847862e-01,3.866286632054055095e-01,4.160141372686161354e-01,5.676579343654052437e-03,1.405916755898868782e-02,-4.222069225512333802e-03,5.336453393101692200e-02
4.265709996315790731e-01,4.546363569241205771e-01,4.289873502789358084e-01,-2.447091039344973656e-03,-1.546905933751181956e-03,-4.776036245628522726e-03,2.862275950610637665e-02
3.250119738336680886e-01,4.621650317265014740e-01,3.754550315524614601e-01,7.558061715587030419e-04,4.742301966698567184e-02,-1.533105361213406943e-03,1.455769091844558716e-01
5.212985125861848701e-01,5.818159669986630034e-01,5.851059946492085384e-01,8.684304772652980120e-02,1.050453537368436219e-01,-7.664979761854197327e-02,2.778967320919036865e-01
4.004075150416847584e-01,4.029980161740748246e-01,4.005955741502700840e-01,4.254084642400494769e-03,5.214132081281338225e-03,-1.004374879439549201e-02,2.108892612159252167e-02
3.636230825057750193e-01,4.467355104191268467e-01,5.063667899400816630e-01,-4.363635741773499999e-02,-7.244138369852427123e-03,5.408250696478301978e-03,1.462095826864242554e-01
4.097836515840642124e-01,4.600971146851179916e-01,4.103220921036455637e-01,1.437698743053902536e-02,1.092536225737587158e-02,-9.125407416857066537e-03,6.109539046883583069e-02
3.999506110526416247e-01,4.004034198324901150e-01,4.492455553914969646e-01,-4.543456828393274520e-03,-6.397084013089478216e-03,-7.601076751299740315e-03,5.259183794260025024e-02
3.700204043465870618e-01,4.781705735646645250e-01,4.565292531994596392e-01,6.519862900485218042e-03,8.619454576431203469e-03,-1.691371209121791258e-02,1.050377339124679565e-01
2.877273775271116940e-01,4.772486990705591681e-01,4.723920794965969505e-01,3.041338944389581495e-03,1.045573215478811172e-02,-5.172193546637465604e-03,1.883015036582946777e-01
4.722755079258232902e-01,4.993266996787815160e-01,5.963445171637193898e-01,1.315330958123101801e-01,6.260453533185586505e-02,-5.364361740935984918e-02,2.916546463966369629e-01
3.500421767271202356e-01,5.067099193800510548e-01,5.053481706673401685e-01,4.993730862775235674e-02,1.953838592939306784e-02,-1.326599527143186574e-02,1.829964518547058105e-01
4.138837248779025924e-01,4.528041149418118305e-01,4.072704220198071767e-01,4.235623515150037204e-03,2.143771370074665835e-03,-1.422040878254655699e-03,4.346953332424163818e-02
4.131590550410478846e-01,4.181971748655156640e-01,4.389872208112184371e-01,1.411965245621780128e-03,-1.910496827460626736e-03,4.245190519377429333e-03,2.516639232635498047e-02
4.283402989961808127e-01,4.270470106832794377e-01,4.319988457153126071e-01,1.260861501636391336e-03,-2.468547686144296951e-03,-1.485306441852207531e-04,6.550251506268978119e-03
5.884986423879273731e-01,5.009526284536649499e-01,4.143795204937499310e-01,4.105795494863707061e-03,-9.040714729356413848e-03,-5.043805913657626455e-02,1.751174181699752808e-01
4.831534047740500548e-01,4.367952239248119595e-01,3.483243975826314509e-01,-9.829978426046688880e-03,7.343470950699863831e-04,-1.211141129847665039e-02,1.216925531625747681e-01
4.124161418058702178e-01,4.119121581472265925e-01,4.264405748460320389e-01,3.274942262620592244e-03,-7.431233868728366783e-03,3.890561492770189516e-03,2.114856243133544922e-02
3.238777506161800712e-01,3.784418505382307618e-01,4.436261714451330551e-01,4.409633988384589059e-02,-1.373441259507085337e-02,1.811146474137274864e-02,1.347827911376953125e-01
2.843888607997756557e-01,4.113144398544193447e-01,4.662616335545702317e-01,3.476784022653445910e-02,-9.066014618842160519e-03,1.322396452498224816e-02,1.746456623077392578e-01
2.294609039416594665e-01,3.947384034394337271e-01,4.608586223426035522e-01,8.810560023501816385e-02,-1.848203025145246994e-02,9.836984416697953926e-03,2.592673599720001221e-01
4.504089289642362326e-01,4.004595417449893224e-01,4.087177464384733616e-01,-2.679668897293638330e-03,-7.528288031732521292e-03,-6.858010572232909816e-03,4.983283206820487976e-02
4.732451669329468258e-01,2.794980506250944741e-01,4.553532973894651725e-01,-3.403485741712664742e-02,1.795706331808153908e-02,5.380577860596823941e-02,2.179890722036361694e-01
9.141812208230326586e-01,7.601868651055253556e-01,6.926766660875990356e-01,4.636098556023750955e-02,6.834256701617300034e-02,-2.119566884299783349e-01,4.403465986251831055e-01
5.893736521612429335e-01,3.942585833935361994e-01,4.941248767779443662e-01,9.477171363334165044e-02,1.313116964505580686e-01,-1.547459209739520669e-01,4.231666028499603271e-01
4.836553711311765702e-01,4.806806635487118617e-01,3.537535059629310918e-01,1.170081553061256933e-02,-8.853127062257505273e-03,8.679066763655785346e-03,1.317906081676483154e-01
3.605399874085853940e-01,4.893066216467919505e-01,4.400849307310595870e-01,7.364085099487044936e-04,1.100795637203096436e-02,9.012918330936914996e-03,1.152144074440002441e-01
6.443549480683955499e-01,7.762761751934303955e-01,3.037449415600354530e-01,5.855560492148768892e-02,-2.112504153209701918e-01,1.501916839687988392e-01,6.246528625488281250e-01
4.723075524430351280e-01,5.609325891910932338e-01,6.362829722657572518e-01,1.129110126036963618e-01,-6.656480490371648184e-02,5.722952491756577026e-02,2.856133282184600830e-01
4.447060718364638232e-01,4.261802262627587545e-01,4.523840204783395880e-01,-1.106516846203344645e-02,-1.584110243194635295e-02,-1.033708932571275954e-02,4.455446079373359680e-02
4.897477703174794583e-01,2.586409206911610692e-01,4.891085668323637003e-01,-4.100886422031130296e-03,-1.456243396207404419e-03,-1.922380567282089801e-03,2.309349775314331055e-01
3.518850071684158642e-01,4.124583086137603161e-01,1.145832210353545655e-01,-2.299882186887428070e-02,1.008919941844826085e-01,5.146949916584606100e-02,3.382708430290222168e-01
3.749311044603861887e-02,2.792854718065052033e-01,4.134030695499324448e-01,-2.148028280366354459e-01,-8.000261357871521484e-02,-4.401729567794523262e-02,5.218374133110046387e-01
5.382071704058887240e-01,5.321359942352245076e-01,3.042386396320153619e-01,1.961332463218425429e-02,5.147899781798152136e-02,7.436836156507864448e-02,2.811653316020965576e-01
4.958811856581746280e-01,4.654464357765691895e-01,2.376248131826448062e-01,-8.802571536345957584e-03,-1.211643686197193433e-02,-2.329330707039029003e-02,2.491250187158584595e-01
5.059008784099678913e-01,4.415249706339784419e-01,4.072017200688483607e-01,4.939907631613960895e-04,-1.016210133840889573e-03,-3.460563286391609567e-02,1.054912954568862915e-01
4.040527165900684725e-01,4.583531387260200152e-01,4.077771590984672900e-01,-9.690764572736328131e-03,-1.451614486527734796e-02,-1.539458498889565742e-02,6.621960550546646118e-02
4.744072269404123743e-01,4.735171283873892967e-01,2.274894082045145205e-01,-3.279748583586879207e-03,6.967645920433812243e-03,-2.426498362684232062e-03,2.468704134225845337e-01
5.383909124819394876e-01,5.298805298274944509e-01,3.221020450803588897e-01,-4.502381586276606867e-03,-2.813561297748447439e-03,2.249126555438037828e-02,2.159044593572616577e-01
4.371943137557318115e-01,4.349638170750130262e-01,3.851714905228323382e-01,-1.628524161619345975e-02,-5.625293604952021596e-03,-7.454894988821955844e-03,6.043672561645507812e-02
1.984583165197517096e-01,2.764363533590171729e-01,1.703241147773110753e-01,-1.211873968521688244e-01,-2.026597312209453550e-01,-1.152712742778033150e-01,4.649735689163208008e-01
4.182329516847367312e-01,3.786392221410151970e-01,1.862555196287243309e-01,-1.928944626568662724e-02,4.530372223094829981e-02,6.841020438893134770e-02,2.598263621330261230e-01
4.723139443648282643e-01,5.020024790162742612e-01,4.014869466221621108e-01,-7.462890913409949908e-03,-7.293965476227931566e-03,-2.876519438814179562e-03,9.139002114534378052e-02
4.846763181106092389e-01,4.867777972821141219e-01,3.556187273322936049e-01,-8.512163920835171677e-03,-1.103049066329720405e-02,-6.888700675265518186e-03,1.328767836093902588e-01
5.035530846802931393e-01,4.867455398237545694e-01,3.270505876255919153e-01,-5.711220901657875458e-03,-6.018373446147293193e-03,-1.183514480193118522e-02,1.705748587846755981e-01
4.813800529645665405e-01,4.447573369249306907e-01,2.540874208896227726e-01,-1.093953493547523970e-02,-7.619272297836129741e-03,1.373628828317161564e-02,2.139587104320526123e-01
4.927162735199039356e-01,4.979147881770080164e-01,3.539845719869860186e-01,-1.050991699060815736e-02,2.123437104451851576e-02,3.791637154916017299e-02,1.612195223569869995e-01
3.438236480108758375e-01,4.543079982939828843e-01,4.261467640317563310e-01,-7.273958134865660813e-03,-1.641785352345965371e-02,-1.535348722826807878e-02,1.075315251946449280e-01
4.419140253491743997e-01,5.252772446185276500e-01,4.643549884483345602e-01,-1.557686825339312311e-02,-2.693103269857928181e-02,-1.473893172198539013e-02,9.559152275323867798e-02
4.817257260649600581e-01,5.134712444497526729e-01,3.623280251982580191e-01,-8.584026808963595573e-03,-5.416185630980745874e-02,-1.717332935701979891e-03,1.675838679075241089e-01
4.997022119418348951e-01,5.263365075796110348e-01,4.155171707587003715e-01,7.676320996128611386e-03,-3.728088692684618927e-02,1.777782116915391231e-02,1.238274648785591125e-01
4.243269496719450085e-01,4.465254468501300145e-01,4.042641839154788030e-01,-1.261064293258690357e-02,-4.109307326457973045e-03,-1.927311425104314725e-03,4.335364699363708496e-02
3.309027717368309696e-01,4.236781118775470589e-01,4.094026060362045971e-01,-1.586737083618117508e-02,-1.873279613791252116e-02,-1.861813702332181311e-02,1.016593202948570251e-01
4.197523233795478204e-01,4.629320847161804697e-01,3.791756006321599370e-01,-9.584485090964081980e-03,-6.558565872309668650e-03,-3.112490202724491149e-03,7.547681778669357300e-02
4.277576089436840312e-01,4.826800299733698951e-01,3.902947905486066071e-01,-3.260853963014139975e-03,-3.801998271999821547e-03,-2.746094267386480717e-03,8.108866959810256958e-02
4.776500416454774189e-01,2.917159563177760817e-01,4.629222102148720097e-01,-4.292666439264312093e-03,-6.522773947428633749e-03,-9.558694449764601822e-03,1.802970170974731445e-01
3.486166776649737842e-01,4.191022826357346243e-01,3.850721354927072460e-01,-6.313865220486597832e-03,-1.550282245532189941e-02,-1.067080475855526449e-02,7.007025927305221558e-02
4.422084966788859539e-01,4.846718582501153283e-01,4.604339218593718197e-01,-1.326844301310850689e-02,-1.848252786567113753e-02,-1.473152181476890428e-02,5.971105396747589111e-02
3.475650485360711750e-01,4.639010064734928607e-01,3.999424544192162201e-01,-7.654628246651566485e-03,-1.883020469324375029e-02,-1.809356913112413270e-02,1.113809421658515930e-01
4.151703503766301928e-01,4.191474892754848969e-01,4.234451873534781363e-01,-2.455515075862481789e-03,-2.282213395744056399e-03,-5.849268170152834012e-03,1.370169129222631454e-02
4.600633036530177300e-01,4.222250136022726030e-01,4.074928153433216016e-01,1.131144677564819775e-02,2.261367374086776117e-03,-7.184849386614668328e-03,5.253826454281806946e-02
4.464146226902689363e-01,4.303108615994215014e-01,4.353584341881807651e-01,2.449499490234496174e-03,6.174347881681376731e-04,-2.870869781690763185e-03,1.572875492274761200e-02
4.796592450679159070e-01,5.488130744889360146e-01,4.247322730565112892e-01,2.055624404790180187e-02,7.136647978318476360e-02,-2.435107275049818928e-02,1.729848533868789673e-01
4.554285962431496304e-01,4.509664727658364014e-01,4.191147087972036944e-01,1.219265090031085991e-02,6.295847760230581860e-03,-5.862177762484909078e-03,4.294837266206741333e-02
4.537013085560640535e-01,4.104125583125157184e-01,4.105366419037754233e-01,7.135692700510534899e-03,1.199613888118532083e-02,-7.146409160026518347e-03,5.105144158005714417e-02
4.079611463184403264e-01,4.656714554756594127e-01,4.069143448286505205e-01,2.591638857468848370e-03,-7.947034105987099912e-04,-2.184040852527539822e-03,5.855203792452812195e-02
4.556249881305411420e-01,4.160156163912716032e-01,4.069178694479684832e-01,6.755206017656704802e-03,1.731903942235935674e-03,-3.558551645508425867e-03,4.686058312654495239e-02
3.872194523016390111e-01,4.552193009702107940e-01,4.442467756800962397e-01,-1.249885842669511138e-02,7.176475628168598603e-03,1.732720410548913362e-02,7.431091368198394775e-02
4.575176179916901065e-01,4.280725294271057746e-01,4.288900397140294474e-01,1.889707596855521839e-03,1.335103448292595564e-03,-1.786064683089320536e-03,2.948288433253765106e-02
4.608500728047945083e-01,4.116281787018264970e-01,4.319181177325954191e-01,5.806087267048812457e-03,1.702266580002244345e-02,-8.600170853589064746e-03,5.502818897366523743e-02
3.829794568724386727e-01,3.914148717309849923e-01,4.635403791192274081e-01,-1.088614725734681626e-02,1.758492978110292584e-03,5.210477635112934283e-03,7.954811304807662964e-02
4.248175513563802186e-01,4.194367607894459726e-01,4.732200301870980730e-01,1.580883179899816990e-03,5.782792938961810354e-03,-3.453177189661712099e-03,5.268575996160507202e-02
4.812752558329609354e-01,4.793928646176268127e-01,3.404485476105310049e-01,1.483564831860391398e-02,9.164250581784544672e-03,-9.345820866440058064e-03,1.440308541059494019e-01
4.199412525449683353e-01,4.200875483960606616e-01,4.712568840901990574e-01,1.140321975112747188e-03,3.727811949079104948e-03,-5.381134011315737500e-03,5.251922085881233215e-02
3.934221673413842435e-01,3.953933910120728812e-01,4.515734769008863392e-01,7.913050692558326257e-03,5.280179343535500690e-03,-7.103634508343063120e-03,6.077586859464645386e-02
4.152858665057242993e-01,4.637441783012238306e-01,3.947199134889700090e-01,8.619203750452813367e-03,2.466137526006585267e-03,-4.345576383392431817e-03,6.376148760318756104e-02
3.877407590876165711e-01,3.999004473620080269e-01,4.690119009711000708e-01,7.721168156599758810e-03,2.659396510164082923e-03,-4.900380021898088564e-03,7.769641280174255371e-02
5.164530828934249529e-01,5.008118786641491127e-01,6.966689652637431118e-02,-4.848323109297460881e-02,-1.043158737971638383e-01,-1.654676563355895746e-01,5.609903335571289062e-01
5.782908234031196582e-01,4.357486978802367905e-01,3.842413562505008207e-01,-5.368165960108285673e-02,-1.244577823519836882e-02,-1.003367306543226228e-01,2.638663649559020996e-01
5.919810450621452169e-01,4.276334181829807846e-01,3.461454026386492355e-01,2.050166056242113191e-02,7.168287919125531510e-03,-9.541902025988720226e-02,2.752676308155059814e-01
4.278703093713133732e-01,4.259597905438315957e-01,4.222973578658770211e-01,3.473098459370053698e-03,2.892806953023616991e-03,-1.572947268214794012e-03,9.631996974349021912e-03
4.647675125987739131e-01,4.841953291570111340e-01,3.974534936584885880e-01,1.222170415623683934e-02,7.877844108514237692e-03,-5.598420040068037215e-03,8.333486318588256836e-02
5.242909242653597257e-01,3.794395673342265685e-01,4.508457670792151428e-01,-3.440590425983060772e-03,-2.264645084399528191e-03,1.454147284620530001e-02,1.281512379646301270e-01
4.776244239027550575e-01,4.999415017754328394e-01,3.254849009347907107e-01,-4.184593033414556185e-03,-1.466075795902379957e-02,-2.461418759707564591e-03,1.665992736816406250e-01
6.772758013742438132e-01,5.491466465040187872e-01,4.087591662975732509e-01,-5.120671256445307948e-03,5.896763910068519854e-03,-1.229921005934676709e-01,3.157176077365875244e-01
5.662723166402295893e-01,4.506053659584055016e-01,2.832134130008192585e-01,-1.393527665702520672e-02,-2.777437813126949762e-02,-1.427188427402328597e-01,3.532187044620513916e-01
4.503782695957684878e-01,4.894373302983939245e-01,3.715887817743452337e-01,-1.193761947669402107e-02,6.341669818355089722e-03,3.518781047669782957e-03,1.067527681589126587e-01
4.171819652314072147e-01,4.132998709191167963e-01,4.292468095760261781e-01,-4.024702729787172327e-03,-5.682592073056010225e-03,-2.656768483689596078e-03,1.934201456606388092e-02
4.956351357623974274e-01,5.005745471328928442e-01,3.662475340404412472e-01,-5.451747453224745771e-03,-1.044994209481106898e-02,-5.488423225509206881e-03,1.338349133729934692e-01
5.619221767504701814e-01,5.363248352532629104e-01,2.375465467077641502e-01,1.469515727338199795e-02,-3.711241822315310135e-02,-1.105492333419750839e-01,3.728469610214233398e-01
4.425356644940037221e-01,4.362599906850855858e-01,-6.174910635207014886e-02,-3.623325007028812411e-02,-2.646986732395154723e-02,-1.833985018491326446e-01,5.984340906143188477e-01
6.106469997558694462e-01,6.587533011087515211e-01,2.410273402250158181e-01,-1.777200900440958908e-02,-1.168005618634612719e-01,-2.106088748342676842e-01,5.758966207504272461e-01
4.675637546377400255e-01,4.186670314228326806e-01,4.149861528205373573e-01,-4.053232306446247213e-03,-1.557461220223365804e-03,-5.282203937718492554e-04,5.139865353703498840e-02
7.054565349322395873e-01,5.993470494209695021e-01,4.089164640038331910e-01,-5.792843490810840879e-02,-5.864414739820273531e-02,-1.137537331756785092e-01,3.562776744365692139e-01
4.033858786542087183e-01,4.714450871020262057e-01,3.440980754907407846e-01,-2.448297555150110230e-03,-2.010062762470419054e-02,-2.310615126611863593e-03,1.158804818987846375e-01
4.965433167880083931e-01,5.007928212462106066e-01,2.875844733376053397e-01,2.067421668025367937e-03,-4.868053069672455529e-04,-1.395521147331677718e-03,2.111615538597106934e-01
4.809947230141141672e-01,3.067161392421610122e-01,1.585077903648290654e-01,-3.247655039462469390e-02,8.770015161890106284e-03,-1.988641672328225474e-01,4.474416971206665039e-01
5.164685159968076533e-01,5.760638099268350354e-01,1.350337542475609776e-01,-3.576284252399731384e-02,1.566249608209081545e-01,-1.063664958673758883e-02,4.995460808277130127e-01
4.431804982964854811e-01,4.407940520717234523e-01,3.525236065349692804e-01,2.412142402575481737e-02,-1.275991032908034041e-02,1.232295189683347073e-02,1.034290120005607605e-01
4.576495523382135833e-01,2.794363398285300004e-01,4.773813949583156635e-01,-1.301724953084122324e-02,2.544402731407663029e-03,7.287493225600004745e-03,1.906642615795135498e-01
3.447870252844530414e-01,5.201072409610141278e-01,4.978697251793410272e-01,5.184106762338431054e-03,-9.888557217119699899e-03,8.513488015680246643e-03,1.671059876680374146e-01
5.445711376431110473e-01,5.680616170280663457e-01,3.983907510915799532e-01,-2.719563514575766561e-02,4.518290036842947943e-02,4.352072768998446750e-02,1.984434574842453003e-01
3.204687580464522512e-01,4.318796059771559670e-01,3.296647728842784231e-01,5.918079429890173507e-03,-3.862286688990976269e-02,7.119486911838056840e-03,1.272977590560913086e-01
5.861345459206190878e-01,6.006246658409595263e-01,2.230945838125227010e-01,5.816793502655930558e-03,-2.451386695870474280e-02,2.044925450107518139e-02,3.747362792491912842e-01
4.447954419280591432e-01,3.854115776478928557e-01,3.208373801994360841e-01,3.427113324047982579e-02,-2.590337213965667601e-02,4.461776058887326202e-02,1.517881900072097778e-01
5.370962531012433150e-01,5.368089298418430300e-01,3.233866593868753303e-01,-6.371728106282880180e-03,1.009914808939509946e-02,-2.006114638572698353e-02,2.173605114221572876e-01
4.420070763489214460e-01,4.042519264254586520e-01,4.033220036708393685e-01,2.724511087882923368e-03,-5.915666780497600558e-03,2.325604715751851230e-03,4.006126523017883301e-02
4.644567275366046077e-01,4.822333171320481449e-01,2.995078708578317039e-01,-5.369590170186845776e-04,-1.011593166068777867e-02,4.627222481240127021e-03,1.755803376436233521e-01
4.119099928526597232e-01,3.761278894742916545e-01,-2.564612780609548670e-02,-3.701118762015359435e-03,6.707891377546755692e-03,1.491877710625317544e-01,4.939899742603302002e-01
4.072265922959903417e-01,4.702225494821333229e-01,4.102146114514546027e-01,-3.274065886332742491e-03,-1.189272316898896346e-03,-3.448671918698215533e-03,6.213909760117530823e-02
2.988076912187903611e-01,5.550161515474447693e-01,5.841573506998581911e-01,2.029215055811840404e-02,-5.622667157210361338e-02,-5.930571956720291464e-03,2.911758124828338623e-01
4.757017263042707667e-01,3.435741370607636735e-01,4.204188186437832209e-01,-2.383683927163135052e-03,-3.949248519492042954e-03,-1.028583710383773435e-02,1.165793016552925110e-01
3.289268755273645484e-01,5.336918260158241001e-01,5.313335195821843326e-01,9.194262017628813261e-03,-4.804815349670542128e-03,3.752106144452516633e-03,2.044906914234161377e-01
3.049559510392260142e-01,5.090963366817707891e-01,5.082719536228195167e-01,-4.091306939472172974e-04,-1.954317445094400779e-02,1.850697098486806923e-03,2.065484672784805298e-01
4.348106009897031443e-01,4.534650525360003348e-01,4.112713710583304483e-01,-1.058037040539953899e-02,-4.082130451958787890e-03,-1.914564426337687919e-03,4.168951883912086487e-02
4.177609219740867630e-01,4.668257537047419414e-01,3.798303401641486277e-01,-9.360221000075701764e-03,-5.935398775280973684e-03,-3.857876100455302163e-03,7.823248952627182007e-02
3.529444329679919390e-01,5.596590558634866319e-01,5.622885032307831654e-01,-1.120496766847498514e-02,1.070478261248479154e-02,1.424868012038499245e-03,2.097806334495544434e-01
1.984410495271639041e-01,4.663056248959668304e-01,4.550520440211891504e-01,2.906015183179471925e-02,2.289175806898759158e-02,-4.053891288064295296e-04,2.701290547847747803e-01
3.020651035708645793e-01,7.283734162073176588e-01,6.576021814829163814e-01,2.784414140436974189e-02,-5.655684825283159578e-02,4.818135315822427711e-02,4.188833236694335938e-01
2.954057987006892261e-01,5.104203861205413029e-01,5.232790542462001371e-01,-2.663489527944515583e-03,3.564282826207416932e-03,7.506193319888776905e-04,2.218614518642425537e-01
3.089539933921179871e-01,5.450922602639054482e-01,5.440257834990102070e-01,9.787610667598934874e-04,1.474809515972588109e-02,-5.450067070106934860e-04,2.369955033063888550e-01
4.416986197388944047e-01,4.277310366487777071e-01,4.600835484103485418e-01,-4.052212791060841313e-03,1.024294573033095353e-02,-3.571861163863827415e-04,3.397484123706817627e-02
4.370541625484481441e-01,4.265106974575235688e-01,4.264866035172307779e-01,6.451070005127005312e-03,5.069870385322030118e-03,-4.015333437938250170e-03,1.901966519653797150e-02
4.122990918101753222e-01,4.804822194967885429e-01,4.082973097143141605e-01,-1.403499805210044855e-04,2.197152310050149143e-03,3.970817026380647172e-05,7.037296146154403687e-02
4.025487655244253116e-01,4.398330164063903869e-01,5.134195426230732107e-01,-3.166659955608700644e-02,1.535874435887469788e-03,-3.107404111486622043e-04,1.120910272002220154e-01
4.238182730552328414e-01,4.515879744375161375e-01,4.416090942210671999e-01,1.289100392260337895e-02,1.596244260904883250e-02,-1.111508172517586962e-02,4.719313234090805054e-02
4.010782356378932989e-01,4.385815973884128471e-01,4.686308254525682337e-01,2.861591631329673049e-02,2.561777157011069575e-02,-3.231764683038619579e-02,1.048576086759567261e-01
4.195688674968305887e-01,4.390637133913640744e-01,4.198781123631009082e-01,3.572734847852610321e-03,-1.122759303563520792e-05,-1.593620425110408483e-03,2.049459703266620636e-02
4.181408495735106090e-01,4.324558604448294208e-01,4.226653655144536059e-01,7.760143258270055678e-04,-2.953940610577809184e-03,-2.319136032607251822e-03,1.430878601968288422e-02
4.417777736322037185e-01,5.155995402458499743e-01,4.133548103508618565e-01,9.358603539775694688e-03,5.253636107220539635e-03,-3.513616229483102014e-03,9.347908943891525269e-02
6.030519758623850146e-01,5.368937111694295217e-01,2.687832374264084168e-01,2.004004005284114667e-02,1.452939304616459324e-03,-2.923996055241191022e-02,3.126882314682006836e-01
4.290613892430615306e-01,4.059614659297761663e-01,4.053437635670480987e-01,8.655955852881619395e-03,3.725919669361288464e-03,-6.076152833014074849e-03,3.042104467749595642e-02
4.262831968129072724e-01,4.352697795857881635e-01,4.225620756605916184e-01,6.236737156564703052e-03,1.833872016710495897e-03,-3.626675628218794037e-03,1.715470291674137115e-02
4.359870500025877504e-01,4.433981977614752656e-01,4.339249150568068591e-01,3.961078136354350375e-03,-1.321200519162111326e-03,-2.345333972695365019e-03,1.196951139718294144e-02
5.003279641838276337e-01,4.950999137348348622e-01,2.730084236692016386e-01,3.204566923460574340e-04,3.156404523870553081e-03,4.668165210279013114e-03,2.249636352062225342e-01
4.656700984030235912e-01,4.439683400128989765e-01,5.470162952713388815e-01,-3.285744007490819935e-02,-1.036361772576681849e-03,-3.141605590455031228e-03,1.101144477725028992e-01
4.232061985369202084e-01,4.504247981221399799e-01,5.238864988179706694e-01,-3.056770370040570381e-02,-3.229686042664067433e-03,4.842794738190780296e-03,1.050799787044525146e-01
4.393924640345938104e-01,4.816580475802098027e-01,3.301505518861033162e-01,7.147547373834892484e-03,1.259079211076616876e-02,-2.589735316973550399e-03,1.377908438444137573e-01
4.417798892029025648e-01,5.070225909343220039e-01,4.431207682696114980e-01,-7.132711130384853000e-03,1.298964873926679135e-02,9.162587484662025605e-03,7.128537446260452271e-02
4.141347208751537945e-01,4.933765723938036141e-01,5.431372085922804294e-01,-3.321537755669910774e-02,-4.062513991293918020e-02,-2.627039080574161342e-02,1.517560780048370361e-01
3.474439229142921026e-01,4.602985245621900035e-01,4.954275698378102777e-01,-3.613557459769652092e-02,-2.760614947035719760e-02,-2.314101273017051333e-02,1.604519933462142944e-01
4.931770374035824300e-01,4.947765853866523122e-01,4.221109852540542162e-01,-2.380828792914593817e-02,3.365394820428529998e-02,1.921977571510692998e-02,1.066446602344512939e-01
4.701378122899197431e-01,3.050140908886727065e-01,4.891232508918743060e-01,1.234612970939940463e-02,-3.390392080940964319e-03,3.468454363566201605e-03,1.768872290849685669e-01
4.883017632243627504e-01,4.864096568427624945e-01,2.636691239309866264e-01,-2.528106320799888840e-03,3.073398468201535023e-03,4.678228259274590933e-03,2.239453941583633423e-01
2.679097681353163063e-01,2.955349042401670401e-01,4.854347450672553688e-01,-1.139811236971743080e-01,-2.664835568436435542e-02,-3.176892920534175879e-02,2.936058640480041504e-01
4.141116971149266246e-01,4.572486137945619977e-01,4.180931782922426843e-01,3.682967195867205583e-04,-1.639877287369948455e-03,-4.349308244978162402e-03,4.207280650734901428e-02
3.483899237430356233e-01,3.977856978360654883e-01,4.743796908670370183e-01,-2.092033139382850487e-02,4.631098618328238596e-03,1.781664181917540354e-03,1.160898208618164062e-01
3.496341168021100954e-01,3.971350760365242594e-01,4.834416963756444918e-01,-4.793782523956519048e-02,-4.238779661420715751e-03,-2.026603814414489491e-03,1.441011726856231689e-01
6.681153739557545990e-01,4.106111524668651369e-01,6.677951970304585316e-01,-3.491912454511279795e-02,-4.639344598955505959e-03,-3.210156861810428003e-02,2.702595293521881104e-01
4.130830423327661594e-01,4.794603593154768140e-01,3.955113080394483949e-01,-1.243528286298192656e-03,-4.237414763870630055e-03,-4.473740120252887864e-03,7.745726406574249268e-02
4.433009718612881400e-01,4.051097311334955209e-01,4.041135814504778212e-01,-4.878685035821271089e-03,-2.503622105607315913e-03,-1.027175680459945731e-03,3.988711163401603699e-02
4.577810136113411588e-01,2.166458809011312381e-01,4.669442673836489699e-01,-2.218894254636021371e-02,1.145402080149461078e-03,-3.437140474031608051e-02,2.558610141277313232e-01
4.801865807437543099e-01,4.714004411188309485e-01,3.249673508816790513e-01,-9.217859300922746912e-03,7.511072301047258017e-03,7.438172573957571414e-03,1.529593467712402344e-01
5.411415401662229563e-01,1.243712016747042792e-01,7.256809960328999276e-01,-1.438707470367623920e-01,4.961730405711205910e-02,-5.758393082963771809e-02,6.034008860588073730e-01
5.227421679101402763e-01,3.250858769612442467e-01,5.157119592181205192e-01,-9.614404113316193240e-03,-1.597895972037529462e-03,-2.267581972855384556e-02,1.988854408264160156e-01
4.899545432188374128e-01,4.083059773080348620e-01,3.586336630178968976e-01,-5.845391865485273855e-03,-1.500705220712523743e-03,1.572874419300263060e-02,1.184944808483123779e-01
4.800660318518406022e-01,2.269444376873261948e-01,4.653783009971521611e-01,4.174094727889178340e-03,-6.843956053687373121e-04,-2.890076632077716659e-03,2.462665587663650513e-01
4.591258687200131527e-01,5.114578135064988818e-01,3.660225409428694565e-01,-6.207131440531823106e-04,-1.295970975481738376e-02,7.958249055441618883e-04,1.295610219240188599e-01
4.412555665462833399e-01,4.210357343425492616e-01,4.187592938961391953e-01,-9.157796388711914384e-04,-4.061487693921942387e-03,4.873713421820838354e-06,2.262865751981735229e-02
4.385076442507442884e-01,1.950556644228692016e-01,4.121238557929574053e-01,-3.290546075355093442e-02,-7.742550072820594993e-03,-5.383045471545743615e-02,2.562480866909027100e-01
4.534789462614871591e-01,2.550103187626537871e-01,4.396650420477971610e-01,6.905642406209771579e-03,-1.976832660717960793e-02,-6.669466921306164801e-03,1.956728398799896240e-01
5.356798217237597193e-01,3.943090864669018814e-01,5.366652480623799182e-01,-9.049963187117145841e-03,-7.873130271868930899e-03,-2.929526841244428290e-02,1.520929634571075439e-01
4.941287022886311497e-01,2.838827440945752567e-01,5.287164211627237709e-01,-1.903525386575940018e-02,-9.849845783255309004e-03,-7.826538402079896359e-03,2.328807562589645386e-01
3.127364944910154265e-01,2.845211581898995368e-01,3.596013841156882052e-01,-1.624555421625996920e-01,1.085865136594595104e-01,1.540261274554093895e-01,4.359304606914520264e-01
4.182245271384262275e-01,4.886972050743524920e-01,4.153032722210365790e-01,2.268994646201374834e-03,-1.404018313138705653e-03,-1.120879861612828149e-03,7.215212285518646240e-02
3.911370250337876664e-01,4.927348585548282367e-01,4.282730856499671890e-01,1.301356315773866297e-03,-9.054927784523828654e-03,4.701157728703571521e-03,9.080540388822555542e-02
4.189013487736576447e-01,4.895002379545898008e-01,4.041254904219053756e-01,4.605904687073717439e-03,-3.217797373433114397e-03,1.106450883984150995e-03,7.964964956045150757e-02
5.180526463616718091e-01,2.953720671440684398e-01,5.402622600884111614e-01,-1.192210387594744812e-02,-1.179025593535846898e-02,-8.899810045272600958e-03,2.368683516979217529e-01
5.281227592881712063e-01,5.122786124549757458e-01,2.760003953612731875e-01,8.625110387575382620e-02,-1.494010479314528683e-01,1.607377865183036436e-01,4.760375320911407471e-01
4.538251318195665185e-01,1.113276085315603736e-01,3.309523483943869193e-01,9.632600453815977348e-02,-9.058351356840702029e-02,2.022009948740045027e-01,5.151956677436828613e-01
5.623676389975205137e-01,4.113967045043453452e-01,5.502210219787646572e-01,-1.032818195125534758e-02,-9.474250895881230344e-03,-2.782714985802248533e-02,1.549784690141677856e-01
4.380145064517821929e-01,5.066277199309567880e-01,4.039599245453363019e-01,6.542292526193710465e-04,-8.696427029629756611e-03,2.995918861109343962e-04,9.182874858379364014e-02
4.696364566754585579e-01,3.713864687731653902e-01,4.151353200752497252e-01,5.373770048345887125e-03,-1.053114733885741200e-02,1.021793954461437323e-02,8.944978564977645874e-02
4.462718743702465130e-01,3.011137363426788505e-01,3.753063402839877383e-01,1.126163191379104048e-02,-1.246677690677507055e-02,5.532759456866054304e-02,1.607355922460556030e-01
4.285089471802335792e-01,4.266870146658374718e-01,4.926448454406002209e-01,9.682274939067199643e-06,-2.673359054432998625e-03,-4.241123484414809769e-03,6.564287096261978149e-02
3.510489391977351659e-01,9.446280125228896651e-02,-5.654177037818586271e-02,-2.947510363514729836e-02,3.795852925871850275e-02,2.273424321732511189e-01,5.379285812377929688e-01
6.686903866136220120e-01,5.327875957629598647e-01,4.511411612984619346e-01,-1.755057590955132543e-02,1.659598015671390897e-02,1.081842982523219393e-01,2.703582048416137695e-01
4.277515838974011442e-01,4.607752783461659951e-01,4.314474449834656555e-01,-1.024561859588856262e-03,2.993604492404308270e-03,1.706309848815946171e-03,3.195217624306678772e-02
4.336070642328758717e-01,4.218622685663755423e-01,4.187069497271751484e-01,-2.449380056022814126e-03,1.370654322098172799e-03,-1.703682270956713212e-03,1.474099420011043549e-02
4.537219955225602064e-01,3.490929031426972529e-01,1.320641237529621148e-01,4.279987468622460656e-02,-1.026437313778164606e-01,2.241943542469905792e-01,5.183129310607910156e-01
4.073803690821298229e-01,4.830171022680345150e-01,3.990958646269786025e-01,-1.725070245506852033e-03,6.285627379053710523e-03,1.528567224389993989e-03,8.093593269586563110e-02
5.675499263720584775e-01,4.976901545153684103e-01,4.317314022000388052e-01,7.363684937355115950e-03,-2.437180845760516731e-02,4.871665998509847051e-02,1.513386070728302002e-01
3.354709043475220809e-01,3.644997946062183969e-01,4.332983852107480938e-01,-4.844127800713284721e-02,2.868015649045900159e-02,2.751745643984850748e-02,1.391115635633468628e-01
4.865063789454116550e-01,4.065402284158664004e-01,4.126732595182838748e-01,-4.167716197020231855e-03,1.358912814060406855e-03,8.850145667339756606e-03,7.895814627408981323e-02
3.824469315692806681e-01,4.317327667552595116e-01,3.709904008285854204e-01,-2.202888280293375384e-02,2.592242212382223077e-02,2.020264554300631177e-02,8.843733370304107666e-02
4.773476379100470290e-01,3.743166312694448661e-01,4.102614733841261629e-01,-5.626723836593182024e-03,4.680502275179745757e-03,1.336660041508087697e-02,9.434344619512557983e-02
4.456915541946382953e-01,4.089395186626802459e-01,4.359858811119479705e-01,-1.184328463629287162e-02,1.897188624587132708e-02,1.755987876867351472e-02,5.927769094705581665e-02
4.437475076506939287e-01,4.645593845330148741e-01,4.244381670519665750e-01,-7.942100948687141546e-03,4.933904126013694512e-03,2.852048651458506754e-03,3.865892067551612854e-02
5.695659718712858810e-01,5.041764137706193916e-01,2.552099347752616598e-01,1.378749844751375395e-02,7.831548441937596916e-02,2.827370403446825137e-02,3.223481774330139160e-01
4.355515730756867043e-01,4.327003226687280435e-01,3.382137969459130256e-01,-2.551127754988802981e-02,1.906224065305841403e-02,1.971192592662692616e-02,1.158166676759719849e-01
4.611228148255047121e-01,4.484369990821180929e-01,3.068103731897441899e-01,-1.472769174520360651e-02,6.849812637147730671e-03,5.914135980982415143e-03,1.513673812150955200e-01
4.027183122461571729e-01,3.991185132340243635e-01,3.700096392143726320e-01,-1.728167186213337703e-02,8.881767247607140134e-03,9.542751487001614741e-03,4.869177937507629395e-02
3.937811549998931349e-01,4.437829260255392594e-01,3.895034997246933361e-01,-7.457423360157376495e-03,1.837285628257341250e-02,1.263784818809942853e-02,6.626489758491516113e-02
4.669643882702275706e-01,4.605551185124975300e-01,-1.934718040362265468e-02,-1.383251068978965390e-03,-7.871344814924240152e-02,3.808349102661499896e-02,5.063273310661315918e-01
4.653150766010527017e-01,4.195385558672958815e-01,2.090708146613451113e-01,-2.179699032635306830e-02,1.661155113295479865e-02,7.968585844359038495e-02,2.780814766883850098e-01
4.846751733166207998e-01,2.603266524792423597e-01,4.481321903610532842e-01,5.209716357603115175e-03,-6.751300901414898463e-03,1.237106582168622827e-02,2.101108729839324951e-01
6.208985667512256779e-02,4.452393226203884558e-01,4.758986988030247112e-01,-5.090537659035194312e-02,-2.877943629084819474e-02,-1.098408712238906765e-02,4.124456644058227539e-01
5.837075594182783433e-03,3.886381730627536668e-01,2.581111697564785756e-01,-8.715840473921171450e-02,-1.891964257049062459e-01,-5.520511883657082397e-02,5.029180049896240234e-01
4.462162428476501574e-01,4.875708450383612336e-01,3.536670943777940890e-01,1.601224067897726120e-03,-1.541058824816905586e-02,3.293802441779788721e-03,1.218834668397903442e-01
2.848279427587704360e-01,4.834113112623520947e-01,4.918333429003096113e-01,-7.463270606622837700e-02,-2.437749295841953878e-01,-4.933093389783017868e-02,4.934249222278594971e-01
9.177518945235832448e-02,3.933617429940233778e-01,3.927243204605599391e-01,-1.300428834983959232e-02,-6.111840780659744815e-02,-6.690880152659634678e-03,3.203289508819580078e-01
-3.912158423696809884e-02,4.202767764618364210e-01,5.786914964868494771e-01,-1.016183105985533630e-01,-7.097873535333035222e-02,-2.763324125760282385e-02,5.977466702461242676e-01
2.846012245534080831e-01,4.729229136947150636e-01,4.935177234560817472e-01,-8.697516012553620224e-03,-3.091106497567481723e-03,-6.274882321975357689e-03,2.003531455993652344e-01
1.047307078538510794e-01,4.230358228305295398e-01,3.869353590322421876e-01,-8.627796743801168303e-03,-5.790373863315188135e-02,1.496696249666645264e-03,3.184634745121002197e-01
4.988117940860899435e-01,3.646864779921900057e-01,4.975793559452105774e-01,7.617963975863352964e-03,-6.124586534808222453e-03,7.316998639985005867e-03,1.351778954267501831e-01
5.495925959833338759e-01,6.983675759963212659e-01,6.183457058369913328e-01,5.048331878340580475e-02,-1.229903975116664189e-01,3.496526106726802197e-02,2.707869410514831543e-01
2.739577891449572755e-01,5.523549041704682860e-01,5.898119577612496167e-01,-1.340691515631705147e-02,-2.212885175573105906e-02,-2.133534441497776310e-02,3.044828474521636963e-01
3.580704845616935472e-01,6.610772009260748039e-01,6.548320883107181523e-01,-2.566320619598807563e-03,-1.991920893398215625e-02,-6.333426920822621134e-04,3.019454479217529297e-01
5.483273415066420853e-01,5.510082676362132448e-01,3.252675730557325617e-01,-2.855794148847527227e-03,-4.791484000598885025e-03,8.207049381916780434e-03,2.250694632530212402e-01
2.710325031757738756e-01,6.477770344645146228e-01,6.033879943335708207e-01,-6.086530777362725991e-02,-4.642919034522861692e-03,-2.569757270676978865e-03,3.719969689846038818e-01
4.328219210972858999e-01,7.008791393606211839e-01,7.184334587081367962e-01,4.377513911965445065e-02,8.783792832019908167e-03,4.262434673611772105e-03,2.879290580749511719e-01
4.178667321738385176e-01,4.822759501230001189e-01,4.077251953342245216e-01,4.813289842427164594e-03,-3.048589458863176609e-03,7.129053048084647154e-04,7.073553651571273804e-02
4.571709427926547997e-01,9.382401627149584700e-01,8.092066195370022363e-01,3.482174867530186263e-02,-1.402470962387784847e-01,1.347893007475778511e-02,4.991929829120635986e-01
3.056612710243795661e-01,5.342951214054236786e-01,5.312526238635844056e-01,3.872002781219109190e-03,1.021640118745341559e-02,5.558532400328227742e-03,2.281181067228317261e-01
2.278891099218834093e-01,4.537919698714897310e-01,4.394936230155029322e-01,1.159647462296439432e-02,-4.640639201769657107e-02,1.059018059323128553e-03,2.342519313097000122e-01
5.420971472688209669e-01,5.387297840088879353e-01,3.018116089263296331e-01,-4.381630720873168523e-03,1.482468916908984483e-02,6.288027832880219506e-03,2.403640598058700562e-01
4.775018045514788367e-01,4.723231140882370727e-01,2.829320084580325134e-01,-1.805922146803648487e-02,-2.452438567083733631e-02,-1.337402423440339078e-02,2.004892677068710327e-01
5.820515859286589100e-01,5.920363862722554105e-01,2.984477078650690229e-01,-3.498016734516522230e-02,-3.634183125346160392e-02,-1.976182669990583091e-02,3.035905063152313232e-01
6.590035320370234428e-01,6.541330390644596315e-01,3.964936970477592193e-01,-2.475684461871352146e-02,-5.741495248186141015e-02,-3.767726396460114452e-02,2.892117798328399658e-01
4.314296444615565163e-01,5.006109829116878185e-01,3.987274653072508390e-01,5.687239452723335566e-03,-1.004095565115810385e-02,3.225926433202301342e-03,9.245856851339340210e-02
2.929814557435372335e-01,5.323583609243854875e-01,4.566604381515198541e-01,9.775174402125684503e-02,-1.097597925444187966e-01,7.026129643881799669e-02,3.528865873813629150e-01
4.115080807199888446e-01,6.625853356518107695e-01,4.011587911321536914e-01,-6.573890141337208892e-02,-2.773938625822155446e-01,5.497313450677030616e-02,5.644629001617431641e-01
8.877692079267962555e-01,5.498645250422424802e-01,8.566995923908639066e-01,1.307380055201458335e-01,-4.860704996478065060e-02,9.918556684579910021e-02,4.387765526771545410e-01
4.217171882409931905e-01,4.223117234306369983e-01,4.215068863142219513e-01,-2.929812603089730020e-03,9.009173859057820416e-04,1.122155766606315434e-03,5.699718836694955826e-03
4.171687263800462064e-01,4.122381178203909924e-01,4.825631056338945402e-01,3.100283579590121675e-03,-1.168363335167514356e-03,6.538457061444273675e-05,6.823571771383285522e-02
5.330061521358429033e-01,4.884423780325460318e-01,2.989826551440585289e-01,-1.418582929421218809e-02,-1.214489070278619229e-02,-6.575017386352360882e-02,2.456408441066741943e-01
4.149124225795835508e-01,4.485812687346455441e-01,4.113885213008373065e-01,-1.057941308480378787e-03,2.376205774645245242e-03,5.367903513026412408e-03,3.703234717249870300e-02
5.193028689671841391e-01,5.296864564393201080e-01,3.188798977123515899e-01,3.005540903416576478e-03,-8.582656270342768276e-03,-4.978206750748597614e-03,2.065931558609008789e-01
5.342048329095453463e-01,5.497047104338025347e-01,3.440377293861256458e-01,-2.673719358557302955e-03,-1.954810067103948321e-02,4.497876059162816075e-04,2.012952566146850586e-01
5.157929703688401979e-01,4.877354082740963381e-01,2.445584856942547569e-01,-6.885718069362010800e-03,-4.256818902341800298e-02,-1.257297024898681830e-02,2.698107063770294189e-01
4.306821516278538931e-01,4.304540475188534110e-01,4.245513966657749050e-01,1.388296979071108493e-03,-1.284349154769506623e-03,1.448772693736826529e-03,7.298447191715240479e-03
4.283778360615992931e-01,4.308957105934138609e-01,4.268504734707184167e-01,7.870379080132418326e-04,-1.016892913986170094e-03,2.526176627196707533e-03,6.051730364561080933e-03
4.229349141468626838e-01,4.719506881123868847e-01,4.182924530550338194e-01,-1.961576921588234143e-03,2.956723233438573670e-03,1.129473961759673833e-03,5.189652740955352783e-02
4.078422549910527550e-01,4.355882520322743034e-01,4.052493682732588587e-01,7.531086741794991088e-03,-5.010314171221020955e-03,1.562027180623186233e-03,3.318564593791961670e-02
4.242802702562867845e-01,4.480767677477117683e-01,4.234020660253319246e-01,3.904093554166363704e-04,-3.544696759954299860e-04,4.120199773096464187e-03,2.529239095747470856e-02
5.179284707502546103e-01,4.403768038280664876e-01,4.273897755286500955e-01,-4.714036046881179935e-03,-1.557830547977016519e-02,-3.501248575181749312e-02,1.079927310347557068e-01
4.663756934166197188e-01,3.494421933823409487e-01,3.962031800398417847e-01,-3.803785079058096073e-03,-1.086112380877444356e-02,-1.845266207652033683e-02,1.086779981851577759e-01
3.567918063204427170e-01,4.439709977107846317e-01,4.968106086053088455e-01,-1.554129055915800736e-02,2.531303626554686544e-04,4.903030903525621570e-03,1.256807744503021240e-01
4.373419999317395002e-01,4.670669595827244280e-01,3.568830364410768285e-01,-1.450149050927407313e-02,8.279980588298251412e-03,6.834365441235917826e-03,1.035641655325889587e-01
4.538072990116511773e-01,3.873685675196995026e-01,3.914112202485199310e-01,-2.252121266217814877e-03,-8.024885955609951244e-03,-7.900777253827725652e-03,6.750954687595367432e-02
4.439570400874716660e-01,4.645667159626522547e-01,4.443247061890335803e-01,-2.388525455703626593e-02,2.883081115657498694e-02,2.515497454533760849e-02,8.075145632028579712e-02
4.687173529218402468e-01,4.214789611145929871e-01,4.112794745671826679e-01,-6.417454598276499909e-03,-8.149237575375363821e-03,-8.087363582069162157e-03,5.776071548461914062e-02
4.754674645135968380e-01,3.513199349791132353e-01,4.817431829846636204e-01,-6.311463025145513939e-03,-8.287643200230466675e-03,-1.397104756096870584e-02,1.309283673763275146e-01
5.085420441046788476e-01,5.029784177426432912e-01,2.646780814688167727e-01,8.856500776843909085e-04,-5.571371888650884091e-03,-2.974900686170158393e-03,2.413831800222396851e-01
4.014144154866719494e-01,3.775111803431114854e-01,4.066925537011206182e-01,-4.552618934312688964e-02,3.621154493242408762e-02,5.912813938639015915e-02,1.461695134639739990e-01
4.478072061406315196e-01,3.831745809468223851e-01,4.207887567299568032e-01,-5.800967885732339659e-03,-1.862092496415555798e-02,-5.888873595930529947e-03,6.638001650571823120e-02
4.690231639543799291e-01,4.097084811232564738e-01,4.063779390314882778e-01,-4.593896800915807724e-03,1.341965520043509642e-03,2.326488030965548088e-03,6.173998862504959106e-02
3.307155337109939364e-01,3.861147238427665163e-01,4.541462729773900753e-01,1.944276938840163588e-02,-3.095250565837334689e-04,2.214722805736824181e-03,1.123179420828819275e-01
4.982534461483482113e-01,4.822068494246906645e-01,3.374402256638964204e-01,-6.702545243263474326e-03,6.833756500202454835e-03,6.960306366636025664e-03,1.547840088605880737e-01
4.065626496898063769e-01,4.355488751975443718e-01,4.932536974720450607e-01,6.049608906498288481e-03,2.341320205272542053e-03,-7.134775946241287900e-03,7.824095338582992554e-02
4.000101950332893286e-01,4.082003525310564651e-01,4.808736436596145469e-01,9.553829423505740687e-03,3.923498280866142066e-03,-3.980618537147863518e-03,7.944329082965850830e-02
4.010714705721750706e-01,4.146066355984466822e-01,4.910251759928767057e-01,1.071739267247696914e-02,1.301259992071285287e-03,2.573186162697269162e-03,8.617924898862838745e-02
5.830025089611229339e-01,4.448363994185991488e-01,2.790050601721331125e-01,-4.143428496510743325e-02,-9.812093420698258378e-03,-1.100608546295052392e-01,3.335889577865600586e-01
4.994773805372706432e-01,4.760772769948075633e-01,3.276580495521462244e-01,3.745929936922405383e-03,-2.256424597293997178e-03,1.053051073074188701e-02,1.626004427671432495e-01
4.319631036079363273e-01,4.307504500021922533e-01,5.077482274769876680e-01,1.663682371164501919e-02,3.837461952986848199e-03,-3.024532755175674947e-03,8.208976686000823975e-02
4.108048466882574523e-01,3.713279694233687644e-01,4.352388370489102543e-01,1.263054209643942050e-02,-1.451779085022420965e-02,1.189570158089897287e-02,6.823074817657470703e-02
3.949872179905894454e-01,3.838273634223913766e-01,4.615255003719216931e-01,1.285731403323822804e-02,5.179692730292756453e-03,-1.450947940914293702e-03,7.666275650262832642e-02
4.058642281739556767e-01,3.907348965850960254e-01,4.837494250593076250e-01,1.262086959484857995e-02,3.808503643423452080e-03,-9.819315331486720352e-04,8.942940086126327515e-02
4.234315139859307631e-01,4.230528881687191101e-01,4.948163025609264021e-01,1.696353371051814024e-02,5.150270741167824358e-03,-3.891636747188297746e-03,7.817450910806655884e-02
4.007420416724084000e-01,3.876460743643486140e-01,4.730770046189757272e-01,1.233595659975112238e-02,4.477074866916297587e-03,-1.643647910417863093e-03,8.292111754417419434e-02
3.901399189543920398e-01,5.168059376467042387e-01,4.859852512719355921e-01,-1.926246758208426460e-02,-3.488772181797520494e-02,-9.484166076424327407e-03,1.346279978752136230e-01
2.986019137636109488e-01,4.455865319461606022e-01,4.928274810132191597e-01,-6.523901697194185723e-02,-1.467144265924293089e-02,-1.120449559253161283e-03,2.102326899766921997e-01
2.973125836912456355e-01,4.836718200788694411e-01,4.815962221269863286e-01,-4.437794792184061865e-02,-2.448470087069576362e-02,-1.930392595155924762e-02,2.077784836292266846e-01
3.496199536244964379e-01,3.235808645300234376e-01,3.495550778161529148e-01,-2.598202713151522708e-02,-3.233913610985970216e-02,-2.927821758892760681e-02,9.170958399772644043e-02
3.932842515363819680e-01,4.383246076115197010e-01,5.155555950314280045e-01,-3.432077600929839961e-02,-3.908504402641522352e-02,-3.321656088143484092e-02,1.513223648071289062e-01
4.260136736536490054e-01,4.238778414798520244e-01,4.381855212770569552e-01,9.358002847616711875e-03,-9.261560479671169382e-03,8.166132791008378147e-03,2.998026087880134583e-02
4.830121215174915661e-01,4.534049567104183609e-01,3.731722089669458065e-01,1.354974877917833678e-02,-5.908671903709583617e-03,9.282366532279687568e-03,1.029725894331932068e-01
4.667237251110066820e-01,5.505076513908343516e-01,5.078980686138401257e-01,-9.097049224471653872e-02,-1.101366436762366285e-01,-5.893163844248587580e-02,2.773107886314392090e-01
3.967041092322098339e-01,4.316810743061312294e-01,3.599624297040101562e-01,1.245553270445757393e-02,-1.335927169189940131e-02,7.270227322414000645e-03,7.083679735660552979e-02
4.434169983200858534e-01,4.531980547695307893e-01,4.376841561106220024e-01,8.335976364379285575e-03,-2.638760181644767781e-03,9.832703701278129246e-03,2.653316222131252289e-02
5.478223102448764870e-01,4.381995761572632375e-01,5.734094128414445324e-01,-1.005945622749497281e-01,-7.507601804624856878e-02,-7.607639180831465842e-02,2.830311655998229980e-01
4.229690417643644507e-01,4.737096694919827877e-01,4.126382993769354135e-01,4.503711122827019908e-03,-1.885942520230739390e-03,1.815982057435491966e-03,5.733182281255722046e-02
5.296199903633649342e-01,4.253328841207461020e-01,4.599930071052475977e-01,2.350080779843912154e-03,3.111461631278699823e-04,3.353721924610929273e-02,1.088743060827255249e-01
5.235587621378512413e-01,4.522411591994193736e-01,4.236369872878021359e-01,-7.194502791327040542e-03,4.827674845401449047e-03,2.754462090640938041e-02,1.022042110562324524e-01
4.390916121962420982e-01,4.845306881239063168e-01,4.159700964240152232e-01,1.046467649788344022e-02,-3.580864260508556142e-03,1.799542677999128957e-03,6.345585733652114868e-02
3.531115458761939774e-01,4.909055921468008510e-01,5.318033739494244516e-01,6.378433364505733949e-02,-2.514727479645649869e-02,1.639178657127020669e-02,2.029873132705688477e-01
4.330588147749726002e-01,4.278689002385081541e-01,4.203173100918605187e-01,4.461888558835472481e-03,-3.825850501618447298e-03,4.668149135765851596e-03,1.709284819662570953e-02
4.349515143318290478e-01,4.525865853214020573e-01,4.112715207262582773e-01,1.011223962819737289e-02,-3.519738787525618622e-03,1.834127729820312974e-03,4.053845256567001343e-02
4.622293755359800360e-01,3.487736701960433283e-01,3.957058900523210410e-01,-1.756092805528404455e-04,4.546446569895918862e-04,1.518340375411599170e-02,1.021881699562072754e-01
4.109722293474242227e-01,4.093998936475108930e-01,4.821028367216184662e-01,2.513206990358240328e-03,-1.945343461846267595e-03,4.283135438602940839e-04,7.214380800724029541e-02
4.982765517282302659e-01,4.185631466488215491e-01,4.234206182183316014e-01,-4.877153883408856007e-04,-2.850654481062734236e-04,1.601763106004423440e-02,8.222692459821701050e-02
4.274584272157603837e-01,4.359060948493114762e-01,4.105934553173653523e-01,-1.052324545953254448e-02,3.797873635113583474e-03,2.675479766590026839e-03,2.992026507854461670e-02
4.034757037340729324e-01,4.067441367662096852e-01,4.609139621638457807e-01,-1.218168783214917256e-02,9.997904422288345083e-03,9.759994854296741990e-03,6.444323062896728516e-02
4.355032687044108064e-01,4.317244869859467316e-01,4.356574679819842366e-01,-3.983852869669855627e-03,2.538535564581025777e-03,4.573455334818152945e-03,1.202417910099029541e-02
4.211208136830634774e-01,4.069519145636409374e-01,4.276665723613912728e-01,-2.756156599060373847e-03,6.528223165266578733e-03,1.831394365338092972e-03,2.229473367333412170e-02
5.067291191818106277e-01,4.168320097267843027e-01,4.507114103987071019e-01,4.175257016998263617e-04,4.565923221396566063e-04,3.170242902476854557e-02,9.591623395681381226e-02
5.711597904015864868e-01,5.566725634984091009e-01,5.493080515360997396e-01,-8.101393947304756649e-02,9.552648590294013364e-02,8.781541970512818374e-02,2.656523287296295166e-01
4.078657696592826731e-01,4.124782382613692011e-01,4.860265814049032351e-01,1.623930699313579692e-03,-1.386680388345475946e-03,2.011751918250813701e-04,7.605047523975372314e-02
4.831992399936079763e-01,2.459682982027843190e-01,3.840993623335805518e-01,-1.771018044596846946e-02,-1.438905306112237860e-02,-8.307356727972788069e-02,2.546674013137817383e-01
3.791204126711876232e-01,-1.099062962534728682e-01,4.463326813903414347e-01,-1.469900965056657738e-01,-7.529859538874199461e-03,-6.117545463839898189e-03,5.844945311546325684e-01
4.304123354035359617e-01,4.251186439576368215e-01,4.382679556816784228e-01,-8.403307059752605909e-04,3.354420645965282017e-03,1.395737657173066375e-03,1.315440237522125244e-02
3.873843440152446860e-01,-8.205311142978594097e-02,4.246890786134723816e-01,1.014567501954363599e-01,-1.462267435904153305e-02,2.223550086666210499e-02,5.218051075935363770e-01
6.723063110963060085e-01,4.331813499214663965e-01,6.213359218740986956e-01,-2.804013449285422052e-02,-1.690529665983208849e-02,-7.469995012281038793e-02,2.598976790904998779e-01
4.524244688668591641e-01,4.525106290923852637e-01,3.950101709677056316e-01,-1.249221933046081728e-02,6.798166706881233687e-03,6.080810987468545162e-03,6.339634209871292114e-02
4.312678211848371967e-01,4.181128833840035419e-01,4.210739183137930386e-01,-4.858723133638186142e-03,2.238271090133327028e-03,7.087406141155637614e-04,1.517319865524768829e-02
5.188037664033624541e-01,4.594385939296152799e-02,5.006588310068189607e-01,2.781935778413396898e-02,-4.874764700966729980e-02,-1.816554724918178487e-01,5.690277814865112305e-01
6.908225507024041701e-01,4.519294994325411818e-01,6.328028381800763214e-01,-1.017757277447777116e-02,-1.386946699386342081e-02,-7.815050458157088431e-02,2.564878463745117188e-01
4.804419935823155963e-01,1.451914872909119414e-01,4.999479314791033246e-01,1.016466651319603426e-01,2.421067609538720203e-02,-9.419586533708669551e-02,4.227125942707061768e-01
4.772157489096004457e-01,4.511958334802945725e-01,3.745265241281353630e-01,-1.258089455838785203e-02,5.564046200461033632e-03,8.243600855582998779e-03,9.654911607503890991e-02
4.439945770752214416e-01,4.090772771537811714e-01,4.076344585065571624e-01,-5.895712706726464677e-03,1.728321776072004297e-03,2.610888720561710570e-03,3.748824819922447205e-02
6.230711420531938050e-01,3.595096989224969564e-01,6.259256276149449683e-01,7.726357914250790715e-02,1.139184058371100691e-02,-4.846060522125100051e-02,3.091419041156768799e-01
4.886017652749613527e-01,4.107251744995122911e-01,4.042589588598737294e-01,6.248772498555824756e-03,-5.519957408328848847e-03,9.918123395698218159e-03,8.434335142374038696e-02
5.008017200077152786e-01,4.394795774434376856e-01,4.090919675803358913e-01,9.160116930532768292e-03,-4.003994921812513777e-03,5.240698988360172582e-03,8.324337005615234375e-02
4.696461230571221668e-01,3.960597346182760381e-01,4.033313757603591565e-01,-3.074994837490426999e-03,5.175356781726554896e-03,8.203235118295791259e-03,7.241089642047882080e-02
4.541847380674679524e-01,3.639469323840027748e-01,3.598553952121817945e-01,-2.455355940648245704e-03,9.437682065819270145e-04,2.943041543199753293e-02,1.055841818451881409e-01
4.889647589698624119e-01,4.114391691144709817e-01,4.153871098513597926e-01,-1.119239465208071455e-03,1.809583677350748866e-03,1.661412030468075590e-02,8.100250363349914551e-02
4.727697552768734268e-01,4.220003360044640717e-01,4.129909876710194938e-01,-2.739615466610746935e-03,1.006521100128911694e-03,3.104111399454437953e-03,5.630775913596153259e-02
4.625338904489883496e-01,3.374001533268869424e-01,3.853600846425486726e-01,-2.039613629781526858e-03,2.422863698946582395e-03,1.876643523669321509e-02,1.142095848917961121e-01
4.938092917424539152e-01,4.075167688523529952e-01,4.316263175653914930e-01,-2.115494958826489441e-03,5.504720635308972369e-03,4.645856585790738257e-03,7.820665091276168823e-02
4.860967967720133953e-01,4.427595585511460152e-01,3.576872954523497294e-01,-3.932079665750021734e-03,3.928549821551535932e-03,1.085394908098670508e-02,1.151013150811195374e-01
5.104074375984405387e-01,4.536938483968929736e-01,4.212636938930802155e-01,-1.316593091527976794e-02,1.144260243517493392e-02,2.629641573347916983e-02,9.536616504192352295e-02
3.924743753991244977e-01,4.041596642795114991e-01,4.718364454067743852e-01,7.863345520923763210e-03,-1.453659093346220668e-03,4.521694804756114759e-03,7.589919865131378174e-02
4.854945749929503451e-01,3.971564328927521537e-01,4.096617393940967800e-01,-3.851259688868716624e-04,-1.449214362334797358e-04,9.461470680931314409e-03,8.440604805946350098e-02
4.062620041038944585e-01,4.528560140368855791e-01,4.073097553150700212e-01,8.887072603100981683e-03,-1.188783497772912499e-02,1.179894829746081820e-02,5.658470094203948975e-02
4.234882978108516216e-01,4.655358512252199543e-01,4.222066226153299295e-01,6.932677366636830207e-03,-7.254507203744917088e-03,8.575241513522301878e-03,4.843763634562492371e-02
4.940781370307748555e-01,4.236793126917590691e-01,4.141351841443311477e-01,3.840927551994977127e-03,-1.087831237047161238e-03,3.087700444493485068e-03,7.612746208906173706e-02
4.676616052157485104e-01,4.213050563094464795e-01,3.942286540992334110e-01,5.901925561700881694e-03,-3.632208812948605620e-03,3.870058175903084638e-03,6.577415019273757935e-02
3.888516615134928744e-01,4.238248005548881925e-01,4.074963297697970499e-01,2.281095651344779499e-02,-2.601195386327528197e-02,2.399061532111286879e-02,7.896970957517623901e-02
4.385006875157558826e-01,4.372239001664516844e-01,4.292948321087142749e-01,7.842530700258832158e-03,1.825304230252370750e-04,2.749076624156755397e-03,1.679023914039134979e-02
3.876429250541986171e-01,4.241265154378026647e-01,3.851361810691038556e-01,1.260459107278936661e-02,-1.315623018751388949e-02,1.071746360633714541e-02,5.262384936213493347e-02
4.633057330673376328e-01,4.145798330287289724e-01,4.155631058304675163e-01,6.385961012042352686e-04,-4.695977380795653307e-03,1.428558126858954025e-03,4.899767041206359863e-02
4.146463832056446752e-01,4.208282636272187016e-01,4.903679239794472844e-01,1.277656876828032768e-03,-1.659982044248524500e-03,2.655146873455532883e-03,7.306284457445144653e-02
4.575972424360285618e-01,4.568759727672058180e-01,4.023892483484997618e-01,1.448774354828702426e-02,-4.292110684462393903e-03,3.845604783340038964e-03,6.113869324326515198e-02
4.384062525439476610e-01,4.559943866870063145e-01,4.323244609069177291e-01,7.046249661759805029e-03,-3.888228432602152534e-03,6.190206686716744414e-03,2.761445008218288422e-02
4.249329963303552504e-01,4.484229787097647191e-01,4.228036572171978147e-01,4.534187886600455665e-03,-2.555800182882704639e-04,1.200844048067214797e-04,2.585048042237758636e-02
5.313220047116429257e-03,3.158481823447610859e-01,4.290887440996314917e-01,-1.849248779701459233e-01,-6.706233640619322159e-03,-2.958128013243592480e-02,4.997721910476684570e-01
3.154426751238861848e-01,3.661663063672138674e-01,4.528705244619297132e-01,-5.295070666950214833e-02,-8.848126250979687982e-03,-8.383769841924322910e-03,1.527924239635467529e-01
3.538326386180328242e-01,4.999758790404695841e-01,5.766294153117204058e-01,-1.314593133758337196e-01,-2.966061102674325684e-02,-1.871322316379478087e-02,3.065460324287414551e-01
3.686387836595977352e-01,3.607902116944600723e-01,4.465323985388000017e-01,-2.722760014239001061e-02,-4.689268367819843068e-03,-5.688175966223378392e-03,9.553758054971694946e-02
4.231201476074930024e-01,4.519337438673881602e-01,4.062119416992938103e-01,8.690679162541830455e-03,-3.324778528454547938e-03,1.716450493495549120e-03,4.326524958014488220e-02
3.842827872680817936e-01,4.648555909348957571e-01,5.499919925458258696e-01,-1.300810094386823657e-01,1.339839571927198443e-02,-1.656584891834827784e-03,2.681601345539093018e-01
4.107095729125520012e-01,3.227513452897819990e-01,3.612972226511955154e-01,1.844484723431822140e-02,-2.372468514219887650e-02,4.193758516625090138e-02,1.175479069352149963e-01
4.099888200490282575e-01,4.160310507689313764e-01,4.826879066797766793e-01,1.583733846565584923e-03,-5.088863491558560893e-04,2.287493999682044428e-03,7.004570215940475464e-02
4.496523195703908127e-01,5.170995882257126697e-01,5.754056771195827924e-01,-7.549940713522046432e-02,3.190959007396201169e-02,1.429287512271648630e-02,1.806912422180175781e-01
5.595244822668222762e-01,5.213420731325768553e-01,3.348728007881945357e-01,1.265662230815818058e-02,2.021519154610920341e-02,-5.678475068695697237e-02,2.339414209127426147e-01
4.367211740543708309e-01,4.319695825283370039e-01,4.272571717347403708e-01,4.603522089996158612e-03,-7.215578904683284719e-04,3.083342513433720219e-03,1.268211659044027328e-02
4.372990070228262582e-01,4.333211913999447940e-01,4.301203464133223631e-01,3.650206318083177442e-03,-4.267506500596245566e-04,1.929273915982149083e-03,9.512384422123432159e-03
4.179992123635128398e-01,4.326235778969940160e-01,4.219854961526576798e-01,-5.020737743453734282e-03,2.368465510340106699e-03,1.964794907423875799e-03,1.659816876053810120e-02
4.023842093784171237e-01,4.806860170465758197e-01,5.122826605292114532e-01,-2.783620986938176167e-02,2.058227029535810576e-02,2.033343614047582529e-02,1.201640293002128601e-01
4.516589878625715260e-01,4.698851118107980063e-01,3.884681994351291134e-01,-1.550324336142312395e-02,7.158323418569638441e-03,1.157123319282653794e-02,8.217936009168624878e-02
4.220720479918942947e-01,4.441099241304799494e-01,4.651288980131021988e-01,-2.631646375180557700e-03,4.923376273162988030e-03,6.740502528704612854e-03,4.025515541434288025e-02
4.211311031610324718e-01,3.975687367104425163e-01,4.523285082198252871e-01,-2.446622108472670809e-03,1.092370956529071027e-02,6.032689355004502291e-03,5.242774263024330139e-02
4.380437781370984940e-01,4.439005031842822024e-01,4.323327124294699675e-01,-1.443014169485206874e-02,7.499691995784433379e-03,1.031579656234968972e-02,3.482866287231445312e-02
4.238449307003770428e-01,4.248305576675162065e-01,4.244553276963401456e-01,-1.256407864710944091e-03,6.074567271690088513e-04,1.872941923696078538e-03,4.136284347623586655e-03
4.269774563484066698e-01,4.335498570713984812e-01,4.290533306388055745e-01,-1.701611267134169828e-03,5.088975882653679669e-04,1.679618417054838274e-03,7.196454331278800964e-03
4.141384372215589638e-01,4.095206337545931330e-01,4.097857063169265124e-01,-8.394292860120246974e-03,8.131327137014039697e-03,1.023337384325755800e-02,2.727790363132953644e-02
4.283018723121865823e-01,4.259103538516033627e-01,4.246632573646728637e-01,-5.891610825544951876e-04,1.018184915047445254e-03,-2.209982837137186432e-04,3.815104020759463310e-03
3.919000281645868000e-01,3.924511390729186755e-01,4.246255613601352397e-01,-1.080555245760466028e-02,1.062775672519760718e-02,1.063162333265867988e-02,4.562291875481605530e-02
6.044924879305380028e-01,5.746671979031386934e-01,6.383705411608427971e-01,-1.043113396267591197e-01,8.704281417536606502e-02,1.000770082382597403e-01,2.974320650100708008e-01
6.779316718851069457e-03,7.301759984978762885e-01,5.682743736644193522e-01,6.118241893792048663e-02,1.836126601934318786e-02,-5.799256545089408882e-02,6.743341088294982910e-01
4.375839266416230444e-01,4.157855040566823535e-01,4.335310623542947273e-01,-1.666844705225789189e-02,1.469956157794664528e-02,1.167813137104063009e-02,4.789707437157630920e-02
4.062748120145295849e-01,4.236079044108451153e-01,4.461850017694052872e-01,-3.922300508758560546e-03,5.920205811397871200e-03,1.127445538209229797e-02,4.164291173219680786e-02
4.451437091851476735e-01,4.459025124594446221e-01,4.293622877962948170e-01,-5.579044202316044143e-03,2.372542286037912160e-03,2.378049816520109040e-03,1.971886120736598969e-02
5.090163617053139467e-01,7.198039434857982366e-01,7.784341314745684137e-01,1.102427475132892742e-01,-1.827889275960884255e-02,2.589762100228837696e-02,3.157565891742706299e-01
4.318306335642776439e-01,4.110945098070878934e-01,4.274929706660002826e-01,-1.399459213263713796e-03,7.715036018065839392e-03,9.667611820643566556e-04,2.336879447102546692e-02
4.751445315056956331e-01,4.788732569934278649e-01,4.738568496557564180e-01,-1.867689343816971576e-02,-1.840263246502071848e-02,-1.889059720948670085e-02,5.615493282675743103e-02
4.662127279086785703e-01,4.472299058403126359e-01,4.280334040637455151e-01,-8.135560681150885709e-03,4.069223524279959141e-03,3.235913037409691648e-03,3.705277666449546814e-02
4.154950672784168964e-01,4.154864915136926573e-01,4.234592368885762848e-01,-4.570479876911776387e-03,-4.509284092913868995e-03,-2.641843875192346602e-03,1.442578155547380447e-02
4.101505131549862404e-01,4.256677014015082805e-01,4.246334362410238983e-01,-2.498922237027949127e-03,-3.993692766119982633e-03,-9.728051217482667004e-03,2.400607243180274963e-02
1.911159048248602943e-01,4.623126594106303777e-01,1.394850511781404734e-01,-8.136041921509976071e-02,2.640895587559006219e-01,2.414863557954415874e-01,7.030298709869384766e-01
4.895433796338429788e-01,4.733148125480466928e-01,2.750039911740557175e-01,-4.616816118792579221e-03,2.567465188050261238e-03,2.558837730483824041e-02,2.117943912744522095e-01
5.215458190579526088e-01,4.935722039333914068e-01,3.564878277744930601e-01,2.112781823580070235e-03,-7.388615747141777552e-03,1.357822425916148899e-02,1.553694456815719604e-01
4.675855330026396639e-01,4.066043975472481975e-01,3.530201370737924282e-01,-1.485283798882241178e-02,5.647704933170530350e-03,1.396934983847516326e-02,1.058325991034507751e-01
4.167286602568100462e-01,4.224217779582793986e-01,4.195886225870329445e-01,-1.096280889663560961e-03,-3.344068360627062888e-03,-2.873811173164031278e-03,9.286502376198768616e-03
4.400888828436502198e-01,4.426219753388012657e-01,4.386363772053368804e-01,-1.737365925475284996e-03,-4.516380147395232698e-03,-4.695560519099408088e-03,1.219011563807725906e-02
4.819777812454978383e-01,4.232893496322456817e-01,3.935160982874431612e-01,-5.570606185378969635e-03,4.638775115760236938e-04,4.531005590189285739e-03,7.895223051309585571e-02
4.204743729138003538e-01,4.334673264496201606e-01,4.245595197398441822e-01,-1.262322477222926507e-03,-2.222347259775210408e-03,-3.659499572681979614e-03,1.386361476033926010e-02
5.054816266083033138e-01,4.395273869169439296e-01,4.094836022891354399e-01,-9.571062213235149562e-04,-1.566582372483681877e-03,4.288203084463536839e-03,8.543642610311508179e-02
2.389264215177626105e-01,4.018398475543489279e-01,2.162579599232375416e-01,-1.658741743368027585e-02,-1.171676735665715813e-01,-1.829690782441314653e-02,2.715919613838195801e-01
4.251311943618617528e-01,2.928509774223927442e-01,3.131043768810579109e-01,-1.116145820452597512e-02,1.588852435017601775e-02,6.537138311901767584e-02,1.708228737115859985e-01
4.713883598066775926e-01,4.143806813545217738e-01,4.367615306876875825e-01,-2.830939150318363857e-03,1.015129463610060269e-02,6.169321020042830422e-03,5.405800789594650269e-02
4.744220961855173946e-01,3.695091124433322327e-01,4.345447500581359757e-01,8.504275642772639310e-03,-1.004833956094323792e-02,3.143658362368930564e-02,1.090776696801185608e-01
4.790591793353128347e-01,4.176795988161026707e-01,3.803016422919698325e-01,2.725818072163155303e-03,-2.472464764134093304e-04,8.349146505050281108e-03,8.769495785236358643e-02
2.865179697208780629e-01,4.067907454483679630e-01,1.735171120376022835e-01,-2.603026392798591174e-02,-1.139920397273570113e-01,-2.198794362751486930e-02,2.886024117469787598e-01
4.388432913570080030e-01,4.744899698699874269e-01,3.223401328594491244e-01,-8.011181919146789093e-03,-2.549166213842974857e-02,-2.886619596225494314e-03,1.454772502183914185e-01
4.885947379298813398e-01,4.371236055646913754e-01,4.088732118652588232e-01,1.008108002104770445e-02,-5.247778472381329183e-03,3.441233082420226165e-03,7.296896725893020630e-02
4.429635198299019527e-01,5.027624289521124279e-01,3.897697409783674738e-01,-1.229829264001580484e-02,-1.401369324952656849e-02,-3.549576669449489366e-03,1.032817065715789795e-01
4.613013213705224325e-01,5.006148616392174233e-01,3.437165498359782134e-01,-1.341718394302746260e-02,-1.940182045459777627e-02,-9.458264231862705332e-03,1.480950266122817993e-01
4.424149195678570012e-01,5.260601808452719519e-01,3.444373807630308204e-01,-1.094694730937987789e-02,-3.721624462996898919e-02,-2.719786415820399719e-02,1.775536835193634033e-01
4.288353211030823120e-01,2.579963788417800052e-01,2.919558048599897870e-01,5.856173392711012254e-03,-4.439163115882895604e-03,1.511418675819692359e-01,3.053378164768218994e-01
3.163242093294550972e-01,7.977634254630388000e-01,5.825017582200018307e-01,-7.518852060851261010e-03,-1.513641979815273098e-01,9.486900277604054521e-02,5.199896693229675293e-01
4.199740984299713542e-01,5.117088610865179188e-01,4.585656162159830185e-01,1.536803425171771875e-02,-2.522973553242396916e-02,1.050638876740359572e-02,9.650745242834091187e-02
4.307928444523170253e-01,4.292458031768792148e-01,4.271488181960474972e-01,-3.810888083569682438e-04,-3.422341334020720122e-04,1.397236709296658134e-03,4.083953332155942917e-03
4.194696526111240109e-01,4.174007899008052025e-01,4.340939163123565536e-01,9.011630697555029872e-04,-3.756541919402159400e-03,2.249516942394039990e-03,1.756009645760059357e-02
4.628306178839403096e-01,4.332831094125176863e-01,4.250490333225719897e-01,5.973500532977571442e-03,-1.690109207587248141e-03,1.770077845897782701e-03,3.618243709206581116e-02
4.348868773971958368e-01,4.271451643642295015e-01,4.434319855353475726e-01,1.685462201822388864e-03,-9.609256789322619249e-04,2.194097003562170412e-03,1.499471347779035568e-02
4.289974178083070244e-01,4.169465263021283064e-01,4.163796573485965546e-01,3.986524414476195523e-03,-2.136507990548966202e-04,1.552512553110208925e-03,1.440213713794946671e-02
4.313892904388295646e-01,4.257624076050412487e-01,4.224385499077318307e-01,3.492429004548922890e-03,-2.983445669439020102e-04,3.724568379811049948e-03,1.182743534445762634e-02
4.364473846715132832e-01,4.236110638591130684e-01,4.259707446055486235e-01,2.471752642735512619e-03,1.368167315356789504e-03,-1.154367981482541834e-03,1.296115852892398834e-02
3.969860232572763881e-01,4.084817785061956585e-01,4.792520163266442701e-01,7.560490827595839521e-03,-2.452838274693150758e-03,4.456882073101011907e-03,7.876078039407730103e-02
4.368360487701435368e-01,4.308777347580228234e-01,4.337711969415387059e-01,1.538801106789399603e-03,6.798664841849848972e-06,2.151226004393114351e-03,6.900772452354431152e-03
4.414608082158700819e-01,4.349898058059091799e-01,4.349859904996833393e-01,4.019756895682530945e-03,-2.887928447286317035e-03,5.163812525495862366e-03,1.397816836833953857e-02
5.655781125276146959e-01,5.475492450628626218e-01,3.696433435945871149e-01,-5.033938176225924432e-02,-3.050445096792231067e-02,-1.256162185626163996e-01,3.048196434974670410e-01
4.516226982248456867e-01,4.801833895521959161e-01,2.749821181579175655e-01,7.873389060020248922e-03,-1.066967371448008205e-02,-8.532380449004896630e-03,1.944440454244613647e-01
5.201887342807290926e-01,5.542013310748846733e-01,3.648827490433894094e-01,-6.082419529935680774e-03,-5.316479667015965721e-02,-2.161932045697649227e-02,2.013748437166213989e-01
4.823482093581968888e-01,4.800007911961903795e-01,2.862622288135914794e-01,-1.861019416936475143e-02,-4.004632854451151830e-02,-2.753770529667947872e-02,2.147557735443115234e-01
5.356134879614888877e-01,5.616449689649639643e-01,3.461162196810180780e-01,-1.629944980081638167e-03,-1.951724619672116565e-02,-1.219129465523205447e-02,2.076448202133178711e-01
4.565477640733888731e-01,4.884445749445659457e-01,3.299625355628489354e-01,4.435896439811879127e-04,-2.815116223975817900e-02,-1.254406782834546329e-03,1.531720161437988281e-01
4.530946916872921060e-01,3.845920196816443593e-01,4.448159641746223247e-01,8.303282913205143820e-03,-1.267268317261655702e-02,6.691680215315043770e-03,7.083076983690261841e-02
4.225396043953684733e-01,4.367672440107229215e-01,4.206085888291813402e-01,1.644336190096007009e-03,5.079753093679907801e-04,8.347272407708371386e-04,1.563983038067817688e-02
4.711209165998888615e-01,3.965667094092367173e-01,3.798414832927863305e-01,-2.165662645941245860e-03,-1.579042236787773969e-03,-1.073701048984917507e-02,8.632728457450866699e-02
4.611851516495383274e-01,3.954761583215793963e-01,4.055241852091292509e-01,-4.144198757338448877e-03,-7.721214823519885646e-03,-9.538526751738902326e-03,6.528180837631225586e-02
4.604842519798798550e-01,3.699635934992605013e-01,3.618679915979371442e-01,-3.999011614562364880e-04,1.076825636365307242e-03,-3.073682532953428762e-02,1.087683960795402527e-01
4.804678007881976187e-01,4.397909105032762334e-01,4.171323349409168380e-01,-9.800248967642914699e-03,-5.027814468815212587e-03,-4.221458462022142748e-03,5.922106280922889709e-02
4.400950303417698328e-01,4.558268362140921459e-01,4.167977638543179375e-01,1.255137031568474663e-02,-1.513562363160298775e-02,1.028545139388581907e-02,5.132254958152770996e-02
4.540843599546015574e-01,4.122770706516161177e-01,3.760125882623859273e-01,-1.359074412098131880e-02,-8.381467692256542104e-03,-1.248761556053204318e-02,7.623500376939773560e-02
4.611348753405177803e-01,3.827678517711707862e-01,3.844536153356966079e-01,-4.973544802712641030e-03,-4.667272276905767500e-03,-1.037015409880167466e-02,8.046305179595947266e-02
4.287249681285589253e-01,4.271859019430601090e-01,4.245760624187390753e-01,2.172847647504036440e-04,-1.153531942425301384e-03,1.396095149947381093e-04,4.169978667050600052e-03
4.103206766244877901e-01,4.551036895512843850e-01,4.152048841999351758e-01,-1.163220117737741657e-02,-1.585986574258983761e-02,-9.181900935483331208e-03,5.678112804889678955e-02
4.222390803717489538e-01,4.028820208389499724e-01,4.505435682661305674e-01,5.635455502561432725e-03,-9.628067656523405654e-03,3.410347701153959316e-03,4.617355391383171082e-02
8.419074220933903119e-02,4.406019782261718087e-01,3.821383959578028011e-01,2.229081163673937716e-02,-1.893850550993697590e-01,3.384818613657838288e-02,4.713148772716522217e-01
4.271159283911761251e-01,5.432602926544716215e-01,4.706661388472868635e-01,-2.729429152404803417e-03,-3.726131443061822535e-02,4.671666892267803579e-03,1.207520663738250732e-01
4.289951711431965187e-01,4.315467524621487971e-01,4.259922938505354972e-01,1.245464693292925619e-03,-6.626721564844743591e-04,8.635875828809963148e-05,5.402152426540851593e-03
1.405971098102263284e-01,4.595965559071414352e-01,4.277484087183036632e-01,2.026256290892107861e-02,-5.542027628484209184e-02,-1.062061047569234570e-02,3.215582966804504395e-01
4.933351140604871343e-01,5.397588233947765435e-01,3.781396408017146937e-01,-2.764079360025325973e-03,-5.409237267585135372e-02,-1.905215381860295371e-03,1.720021069049835205e-01
3.842343235765365295e-01,4.468402016608565286e-01,3.428360823268128410e-01,1.350004802448273415e-02,-1.720454616872478873e-02,3.302582026763494286e-03,9.845073521137237549e-02
4.117712335517082489e-01,4.807072091195975783e-01,4.121169961336415555e-01,4.029207203390253351e-03,-1.028022039975765196e-02,5.540229869663434829e-03,7.201588153839111328e-02
4.640437126902278164e-01,4.008468020882677285e-01,4.038560244353114337e-01,3.748458093738291086e-03,-8.973963679747152394e-03,5.847956197204119862e-03,6.480027735233306885e-02
4.129186537482775199e-01,4.919528000412551894e-01,3.966678514783440468e-01,-3.890441650901453087e-03,-1.028993044583008214e-02,6.256005078608840170e-04,9.032763540744781494e-02
4.533513042331865917e-01,4.188051486825158931e-01,4.132623900958511398e-01,9.390777243517709144e-04,-2.687960617485237510e-03,2.155025105949160227e-04,3.794865310192108154e-02
4.613202833094031674e-01,4.284554501785260427e-01,4.295244168306847077e-01,1.149668224482691507e-03,-5.407226519570988016e-03,1.306109141794883303e-03,3.380689024925231934e-02
3.918338346950313578e-01,4.628261289878068396e-01,3.365096591350049127e-01,4.588542927196538439e-03,-2.209617118249276521e-02,2.054717372073210091e-03,1.164852455258369446e-01
3.818015725513926317e-01,4.628237124943326841e-01,3.889252654191003855e-01,6.361237954227738980e-03,-1.207244668556211112e-02,6.535228123592970624e-03,8.200556784868240356e-02
4.150646653344140513e-01,4.781431950504847483e-01,3.976726367404451734e-01,8.013116151481317756e-03,-7.555138523863754764e-03,1.662712358016174650e-03,7.583278417587280273e-02
4.851237776170552740e-01,4.059678604406045110e-01,4.127540941398104013e-01,2.679617682677715596e-03,1.887993845820821288e-03,-1.490659338397927122e-02,8.045741915702819824e-02
4.594586716290016137e-01,3.853103881301725986e-01,3.340709257344178784e-01,3.713366772217370731e-04,-4.529686921380145898e-04,-1.884007160301843717e-02,1.139677241444587708e-01
4.373421823073050940e-01,4.236906689875430398e-01,4.247161952094822834e-01,2.062063042074175137e-03,-1.589503434342676115e-03,-1.929627689257408041e-03,1.431509014219045639e-02
4.132843870979465151e-01,4.468299466484536575e-01,4.146825554166624905e-01,2.347216943543376736e-03,8.694976914742703119e-04,1.858369873916379707e-03,3.330937027931213379e-02
4.688976111510420042e-01,3.926317793030637548e-01,3.823025824735724609e-01,1.027728171134739514e-02,6.466092367285392745e-03,-2.400039265013101039e-02,9.424059092998504639e-02
4.433941081864529732e-01,4.479434145536472789e-01,4.143881708167245215e-01,1.448139786024120121e-02,1.713320954505883134e-02,-1.119637611772205527e-02,5.366420745849609375e-02
3.903312032588743818e-01,4.293824964449949322e-01,4.189062428604156674e-01,5.146814560046782810e-03,7.159246638456936811e-03,-1.216183524670660585e-02,4.361889883875846863e-02
2.874920083827526285e-01,3.969232791721792886e-01,4.041145954597460399e-01,3.207410360386867693e-02,-3.149888302394019540e-02,2.257524234631603025e-02,1.428481042385101318e-01
3.990014736782513394e-01,4.300687123133945522e-01,4.454385521530326852e-01,6.353261482035575322e-03,4.851952049621940759e-03,-1.388661420544689239e-02,4.948872700333595276e-02
3.882247696470534359e-01,3.311163291307773204e-01,2.768642581111507850e-01,2.495758718315868249e-02,-2.461312693608417451e-02,5.207398368263002619e-02,1.453412324190139771e-01
3.965182930143549833e-01,4.199016416139140229e-01,4.545693508641489022e-01,1.771933965380548606e-02,1.188810187568007173e-02,-1.542369613982370359e-02,6.810913980007171631e-02
4.138957919379839812e-01,4.201495994814304913e-01,4.496795862044848380e-01,2.344461694821228272e-03,3.894961708674998194e-03,-8.337152078730628371e-03,3.696391731500625610e-02
4.270375659030010707e-01,4.119427470550356407e-01,4.345624633785055702e-01,4.561370049238292618e-03,8.779293507409583613e-03,-5.004747564811160010e-03,2.769211679697036743e-02
4.408950735926865372e-01,4.248512932683581322e-01,4.401190127282839648e-01,1.649673279474388188e-02,1.346745179377870430e-02,-1.511292707019412825e-02,4.786751791834831238e-02
4.283016498864899990e-01,4.311944369871131277e-01,4.297427918179578255e-01,-6.971905271486913275e-04,1.252452336685804272e-04,4.251577918167296515e-04,2.885091118514537811e-03
5.198475890347411532e-01,6.717279223066499050e-01,4.945700461692982275e-01,4.866692197159963595e-02,1.391876049005529026e-01,-4.056712868835592178e-02,3.125824630260467529e-01
3.424998973553067261e-01,4.793638201251100295e-01,4.455528686925883108e-01,-1.602548626375789251e-02,5.094004843169894214e-02,1.611526924904068889e-02,1.567853093147277832e-01
1.992646493817933351e-01,3.630330925172085554e-01,3.215529433802157833e-01,7.557044221934440531e-02,8.911488498399497415e-02,-4.915219857777474582e-02,2.644852399826049805e-01
3.344492462509729425e-01,3.983300732433352476e-01,3.046853584990718011e-01,4.128270527265946038e-02,5.660885621949901525e-02,-3.738992888725760355e-02,1.605879366397857666e-01
4.759355382240968435e-01,5.115009402718169174e-01,3.306540392899772751e-01,2.065504365720547547e-02,6.019694011088388280e-02,-3.264522569244156930e-02,2.070909142494201660e-01
6.034340705638464586e-01,6.226167977420746791e-01,6.132206035266722921e-01,8.367541527984277694e-02,8.211138860027510089e-02,-8.460947920880472484e-02,2.509658932685852051e-01
4.974874493418750543e-01,4.201820715792697891e-01,4.194749379720581484e-01,6.170363619684707084e-03,-5.317245929720130701e-03,1.700606140322486262e-02,8.424930274486541748e-02
5.255425585330528726e-01,4.503155237713651893e-01,4.341962086209796845e-01,9.460703198551908416e-03,-1.192938573322723309e-02,2.924390233129856367e-02,1.019441559910774231e-01
4.669243770339953081e-01,4.090663522783780648e-01,4.052465577747814685e-01,1.601779687006507462e-03,-2.741908380238322097e-03,2.859200019892204204e-04,6.011359393596649170e-02
5.565520330986547526e-01,3.384397694761504538e-01,4.599256968325968753e-01,-7.592923623578202996e-02,1.994208437038317433e-02,9.544678442558181264e-02,2.857503890991210938e-01
4.519255998739436508e-01,3.690319566323431721e-01,3.706481811262004045e-01,9.340524034015465146e-03,-7.634511246895037476e-03,2.772352007653094974e-02,9.737744927406311035e-02
5.051577835781965176e-01,4.310078234471755310e-01,4.306908724704142100e-01,-4.587339925636413178e-03,3.133453015519097745e-03,1.458535860662052604e-02,7.907340675592422485e-02
3.945073740471153889e-01,4.722897237863539766e-01,3.876716268744270777e-01,3.343594397810138209e-03,7.684727351887398264e-03,2.349638704736553649e-03,8.279968798160552979e-02
4.972111078181629118e-01,3.760360406651591103e-01,4.250418202491685893e-01,-3.322876417879964787e-03,-6.243412960870271637e-03,1.667434024657523869e-02,1.101401448249816895e-01
4.907658821390397108e-01,4.289710218397974617e-01,4.229488660257125221e-01,8.967131420570768896e-03,-4.029491631013625529e-03,1.305809020273574622e-02,7.091183960437774658e-02
5.004768164059901769e-01,4.365708388968243536e-01,4.337929407515339064e-01,8.097311198525639769e-03,-6.473452179708039447e-03,1.373922773942084369e-02,7.181873172521591187e-02
4.771445367364950396e-01,4.079894566893911279e-01,4.022476191106951204e-01,1.078462308896403115e-03,-1.798387480090883530e-03,1.630254649945926324e-03,7.234387099742889404e-02
4.081870434203320741e-01,4.097108159851843845e-01,4.690502281597694334e-01,-1.393890874874111367e-03,2.674876442906943836e-03,1.344541770248232695e-03,6.038728728890419006e-02
4.619450882360414679e-01,3.531645876930488148e-01,4.036939726400948780e-01,1.473382029914175294e-02,-1.510698139787166293e-02,3.682931792894855033e-02,1.195613592863082886e-01
4.293746946006435361e-01,4.161432040931141718e-01,4.071931092071209846e-01,-6.942367940401464668e-03,4.565675032531506944e-03,5.253937315241998494e-03,2.575920708477497101e-02
4.830616364242733551e-01,3.636938059560266834e-01,4.752041209770721530e-01,6.155903495162384081e-03,-1.849104741067758920e-02,1.394442380428764436e-02,1.228628009557723999e-01
3.963264263552747635e-01,4.101684360004572150e-01,3.072775452747552039e-01,-2.160719938218044409e-02,-2.284869809110045419e-02,-1.696594062012208096e-02,1.148226931691169739e-01
4.587600533282623072e-01,2.661929273754739533e-01,2.657603490614694475e-01,-1.194811220418383162e-02,1.667251671435916868e-03,-1.227466414152864477e-01,2.877540886402130127e-01
4.526946033343061671e-01,4.205441379680886493e-01,3.808505131304176228e-01,-1.767142856385352928e-02,-7.858219919476112925e-03,-1.076340144622670719e-02,7.317820936441421509e-02
4.629118766595986534e-01,4.813960759540649725e-01,3.074671377798764982e-01,-6.323886257546205633e-03,-1.358588767503875888e-02,1.314701978506798959e-03,1.675019264221191406e-01
4.502782379075395691e-01,4.936408293098789590e-01,3.602778194013961377e-01,-1.115695039611637289e-02,-8.786495472243124882e-03,-2.815827579808505808e-03,1.204652115702629089e-01
4.829728301862004081e-01,4.173563418822669457e-01,4.104286624984535004e-01,-7.679235179689842183e-04,-7.400454129889386676e-04,3.404871617456855463e-03,6.961521506309509277e-02
4.114482513837324218e-01,4.587779699162182201e-01,4.052524969046018000e-01,7.075371485578333189e-03,-5.292489989086319839e-03,5.078784365058725686e-03,5.369663983583450317e-02
5.001122631099398363e-01,4.909872707408963755e-01,5.945685700485029423e-01,-5.229569808654217083e-02,2.144588374677595249e-02,2.593638096537175669e-02,1.465249359607696533e-01
3.875159825385068868e-01,4.409542076785716858e-01,3.355860226840495231e-01,2.059605620087639338e-02,-4.312487565802411438e-02,1.728177104381235091e-02,1.267881989479064941e-01
4.993619938440415074e-01,3.971819828108785200e-01,4.258863308684899263e-01,1.649383096356944484e-03,4.493177345436317680e-03,7.339589465611839544e-03,9.253118187189102173e-02
3.696764395324483865e-01,4.547858699192174337e-01,3.258885721513077316e-01,2.702804004124222462e-02,-7.256734814384337151e-02,2.396368383946147901e-02,1.805550605058670044e-01
2.134910495357953408e-01,4.346785906754337125e-02,1.812586537418039989e-02,-1.592953308085921227e-01,-1.305922186757632053e-01,-2.760859016859837367e-01,6.243533492088317871e-01
1.868849688534272024e-01,4.110799909288319620e-01,4.385093676344611335e-01,6.318919741266093570e-02,-4.778133362843717952e-02,3.604711868181378898e-02,2.826504707336425781e-01
3.905725835818553704e-01,4.784221751585189253e-01,4.229955437120656581e-01,5.832871739872075821e-03,-8.037153957776082408e-03,7.535608321015727085e-03,7.991661876440048218e-02
4.351325410251077330e-01,4.773198860177360614e-01,4.347683275176171258e-01,8.020900621575201977e-03,-9.192487179530448721e-03,8.823729408738004154e-03,4.975293576717376709e-02
4.041475376106860584e-01,4.466724748513657417e-01,3.975403284589883457e-01,1.458459807145687584e-02,1.607050836096793334e-02,-1.318967135945404122e-02,6.377942115068435669e-02
3.691273392985509605e-01,4.829486569670566887e-01,4.256677159721084513e-01,1.652941022223511228e-03,-2.148530254713377705e-02,5.960660602531200718e-03,1.059067770838737488e-01
5.572951574826543464e-01,4.753858292864829305e-01,4.000497754120735383e-01,-1.244307022073286653e-02,6.734546291862189560e-02,1.235951782572497215e-01,2.800953686237335205e-01
4.158166570327032630e-01,4.581598481986336457e-01,4.406007324158504601e-01,1.806473231758266070e-03,2.527596872408147469e-03,-8.844998757986142351e-03,4.026683047413825989e-02
4.321911901906930753e-01,3.995137566771161386e-01,5.002731524208532399e-01,-5.897708144359517166e-03,1.911874663330000125e-03,-9.942833517838832404e-05,8.968308568000793457e-02
4.004789369579646041e-01,3.539771572597157911e-01,4.552535867225196431e-01,-1.252549127412787289e-02,1.226550145939082036e-02,3.853995878178685837e-03,9.314691275358200073e-02
4.502212444934202695e-01,4.726268999494619427e-01,3.708488185560737116e-01,-1.078436135455405551e-02,9.564187458174088982e-03,7.930037073920969196e-03,9.691424667835235596e-02
3.927661126750249254e-01,3.985635791063293354e-01,4.707395418747560845e-01,-7.635413737688156836e-03,2.502910187916868381e-03,3.593505923136930923e-03,7.677141577005386353e-02
3.641183126567151818e-01,3.142600649601022811e-01,4.441357813645346320e-01,-2.213225013059687968e-02,1.916548899521260335e-03,-2.117669743443107507e-04,1.198283508419990540e-01
3.671221829940849446e-01,3.744747393414189496e-01,4.725866950101942354e-01,-2.882886821538910987e-02,8.668690269060082970e-03,9.179443087364947546e-03,1.156413629651069641e-01
3.470952994782602885e-01,3.801919103128134636e-01,3.969611457764964935e-01,-3.274133233598792297e-02,2.058178400057713783e-02,2.200902155100844387e-02,8.872205764055252075e-02
4.351528449364756024e-01,5.177246184211395930e-01,6.624785702644802043e-01,-1.636650090341838781e-01,4.668438169980894392e-03,-7.025125624112490107e-03,3.468379080295562744e-01
4.437792777744653527e-01,4.289618259664547684e-01,4.338223718239946902e-01,-1.937178753654570512e-03,1.664613826174441476e-03,1.936720606755558622e-03,1.421211939305067062e-02
4.591784012318241848e-01,4.294547283747125466e-01,4.237690934961664824e-01,-2.072827673076227742e-03,1.579728157013261629e-03,2.570691632982715670e-03,3.354136273264884949e-02
4.285003147152753877e-01,4.703843338025684995e-01,4.271899729976730287e-01,-5.263991136730659763e-03,8.497995662212215126e-03,8.666919649289974575e-03,4.833211749792098999e-02
4.327622150746967544e-01,4.091240087009564430e-01,4.113677728608959305e-01,-5.717380168615195796e-03,-4.468032378254803601e-03,-3.911097405221956348e-03,2.673211507499217987e-02
4.131272802822302803e-01,4.565224063407872235e-01,4.083344454229066445e-01,-6.852510973903610560e-03,2.641605408862673313e-03,9.261187412289051575e-04,4.773334041237831116e-02
4.321211205908122022e-01,4.347004377047906654e-01,5.132686016719373301e-01,-1.450410299910448106e-02,3.096891894452267514e-03,2.923780836205389609e-03,8.407012373208999634e-02
4.033441051417286372e-01,4.110881078061807692e-01,4.842927797210169749e-01,-8.262336467179555791e-03,3.227439881405235172e-03,4.173871173407947620e-04,7.888194173574447632e-02
4.163771443421787621e-01,4.147354729487082170e-01,4.668316397630384862e-01,-4.359631022725437947e-03,6.954140137783908562e-03,1.025057643980468135e-02,5.611152574419975281e-02
4.134078914352656842e-01,4.433104253975740372e-01,4.341122360415343162e-01,3.227657193348992728e-03,2.312619799130059568e-03,-9.281283481580322042e-03,3.177174180746078491e-02
4.178729034603360648e-01,4.411350236449040341e-01,4.204480374808969856e-01,-2.019971576541408111e-03,6.137128758136827346e-04,4.141773120824322404e-03,2.350931987166404724e-02
4.218052197582511376e-01,4.295546008019733852e-01,4.670755659802129922e-01,-1.717771379004274894e-03,3.935994933919766993e-03,9.631671770555150572e-03,4.574140161275863647e-02
4.524248306740276671e-01,4.535091448466456732e-01,3.917615471582574505e-01,-1.352705606630118934e-02,7.483533591856653643e-03,6.617141836121244285e-03,6.778865307569503784e-02
4.609375076378918190e-01,4.161266224313559525e-01,4.408591003505210049e-01,-2.919075581987634008e-03,8.170261828882316793e-03,4.731172612645085339e-03,4.247824475169181824e-02
4.305809845490421450e-01,4.362450228461990931e-01,4.538317033291618952e-01,-3.729841983471040082e-03,6.693770137411682655e-03,4.921258699107756464e-03,2.626395784318447113e-02
4.317204038890190554e-01,4.243746903285735006e-01,4.932255682041692957e-01,-1.036526213732055605e-02,8.710094460762532118e-03,4.912068806462059796e-03,7.007811963558197021e-02
3.905394905812253903e-01,3.957524370913175771e-01,4.577268904127037574e-01,-1.055200223052252598e-02,2.805530271902743466e-03,6.233808958008842799e-03,6.830304116010665894e-02
4.303935352394735459e-01,4.300870814387713903e-01,4.386531764118630772e-01,-4.583315422381998433e-03,6.046841628292660802e-03,3.425139951982220272e-03,1.669595018029212952e-02
4.252491554969401455e-01,4.293170256723815026e-01,4.055403315655936036e-01,-1.138011580483941354e-02,3.657027291152734928e-03,3.594828668192119256e-03,3.086372092366218567e-02
4.221242662355184638e-01,4.225345896159644066e-01,4.229412004531193925e-01,-1.570558902489218450e-03,2.968955893044095389e-03,9.944249786069687264e-04,6.108293309807777405e-03
4.185674022441461806e-01,4.118358539518606753e-01,4.240008977324404849e-01,-4.029383165094481585e-03,4.889208460969686823e-03,1.540413829799107924e-03,1.545807067304849625e-02
3.545452517407100546e-01,4.413373626912157066e-01,4.388930032450924501e-01,-2.105762138590955637e-02,2.397249161123638991e-02,2.085213972547464434e-02,1.080992147326469421e-01
4.321194700307413039e-01,4.148879479811578563e-01,5.103582635848650240e-01,-2.957239432469838114e-02,7.742631151503935952e-03,4.800866091349120096e-03,1.031454205513000488e-01
5.853650978457737297e-01,6.464953978926696321e-01,5.151655259125615949e-01,-5.158196660573838299e-02,1.305279310213388055e-01,4.901346918304698430e-02,2.815277874469757080e-01
4.731859107295254829e-01,3.959423495527255032e-01,4.248616306969377199e-01,-1.950591639855928225e-03,9.362633159671646110e-03,5.770738384143912943e-03,7.030902802944183350e-02
5.566603617587239095e-01,5.482505593695664592e-01,4.456477022330929683e-01,-7.316407092193848161e-02,1.365387536199962615e-01,1.364344889492233870e-01,3.732177615165710449e-01
4.204167124573133796e-01,4.240500600204722970e-01,4.350922079770309092e-01,-2.241116819002533355e-03,4.440960858190031064e-03,1.390396204812381804e-03,1.597760990262031555e-02
4.063048743981799160e-01,4.486053786986899383e-01,4.363228762806444783e-01,-2.320022136855362255e-03,4.049586455939921219e-03,9.669048976618101893e-03,4.202919080853462219e-02
4.492197010205791763e-01,4.213101436009609735e-01,4.067324580425522584e-01,-1.288920376362805501e-02,2.703130482381557644e-03,6.284799391472493078e-03,4.513447359204292297e-02
4.394875745591489413e-01,4.203372263703962219e-01,3.818177133408694468e-01,-2.444983407295084690e-02,2.503499921388795818e-02,2.799680537665993202e-02,9.280759841203689575e-02
4.886364961486714398e-01,4.229372809069499306e-01,3.607082292606483831e-01,-7.805167832980473841e-02,1.507943115137371781e-01,1.251541531479467284e-01,3.817864656448364258e-01
4.324422690961823301e-01,4.181630116997567814e-01,4.176651128057558560e-01,-1.813756957223707986e-03,4.761574373707017777e-03,8.222157159021147715e-04,1.706369780004024506e-02
4.284713819287485626e-01,3.564363724029038782e-01,4.687847705935590525e-01,1.122241919976423377e-02,-1.203904281794012168e-02,4.507272681558638187e-03,1.029163599014282227e-01
9.933336497752243144e-02,2.248535362775649915e-01,1.894337739104006713e-01,-1.390155986743813188e-01,2.066831212093368231e-01,1.237108032027723070e-01,4.945774078369140625e-01
4.308042206848374800e-01,4.080451394992559710e-01,4.548589198199660122e-01,4.755343513143623496e-03,-1.110165810606816850e-02,3.249411057669549484e-03,4.597089812159538269e-02
4.274476991995861397e-01,4.856378155622842474e-01,3.899111776999137913e-01,7.915341254623618414e-04,-6.362359440307762196e-03,3.162883565833370407e-04,8.427902311086654663e-02
4.390195745828460172e-01,4.095469413979875295e-01,4.270678733911453806e-01,2.820951956042052310e-03,-1.165393808669046120e-02,3.552212467625617386e-03,3.359169512987136841e-02
4.154020507476395840e-01,4.890957990225443530e-01,4.084423488202800767e-01,8.761665066748217275e-04,-2.654273434579926694e-03,-1.977929884288249628e-03,7.763548195362091064e-02
4.245699907798013983e-01,4.696832545035512507e-01,4.199988116941633653e-01,5.185000180760144205e-03,-1.374715700676543573e-03,3.819576648654602127e-03,4.891229793429374695e-02
4.311367406411136805e-01,4.903674149988843101e-01,4.135422921800587792e-01,1.235818048100179208e-02,-2.092717739623357887e-02,6.557269704750643378e-03,8.222515136003494263e-02
4.214307104984295060e-01,4.691981565580726210e-01,4.223103003277215994e-01,2.978614040468617694e-03,-1.299236962517430613e-03,5.972268800570114736e-03,4.877674952149391174e-02
3.422676370540911894e-01,3.989651722154912150e-01,3.329265746252864089e-01,1.308431767853123207e-01,-1.386010306031944250e-01,7.621791142351547199e-02,3.609009981155395508e-01
4.007306305605639052e-01,4.534610228097712969e-01,3.504036454877088036e-01,1.902173541998241138e-02,-1.736938459165108736e-02,5.684502236109494934e-03,1.002724692225456238e-01
3.486167483345902762e-01,4.726102621943059079e-01,3.997506994098908861e-01,2.460049903783776293e-03,1.644549342623340127e-02,-6.839168544579488562e-04,1.117126494646072388e-01
4.163850010886391284e-01,5.057300960351625019e-01,4.407522376796650931e-01,5.114688067548098238e-02,6.282462535401162063e-02,-2.869770773210458467e-02,1.689932048320770264e-01
4.051611238689264982e-01,4.720072035294788360e-01,4.330048993414788994e-01,1.664908935361267706e-03,6.352034652247522811e-03,-9.015127282607820342e-03,6.128299236297607422e-02
4.615569238997566104e-01,5.403690542990788881e-01,4.338173002021666891e-01,1.316391351716424303e-02,3.540071550976462561e-02,1.136637757152486941e-04,1.159594506025314331e-01
5.002706991102704448e-01,4.368332800578264008e-01,4.125089586597787683e-01,9.510364429296879829e-04,-5.605875594954463047e-03,2.861902432676911162e-02,9.334445744752883911e-02
4.831550354410952264e-01,3.980053208493110617e-01,4.205202755951422122e-01,2.446911983947167631e-03,-4.064946825615847552e-04,7.136134481360148496e-03,7.753377407789230347e-02
4.387831224483642600e-01,4.955536258083421686e-01,4.383759559237441206e-01,1.078973041341921638e-02,1.253834591458254273e-02,-5.845362358430116964e-03,6.457214057445526123e-02
4.538961024305633307e-01,4.624397243143229530e-01,4.413570078512770722e-01,1.322611337587381239e-02,-1.153850741673575001e-02,1.306172966280447906e-02,4.211151599884033203e-02
5.042805669058920692e-01,4.592578866486349276e-01,3.714859391519735321e-01,6.450830961344850359e-03,-6.087731013614260415e-04,1.235746013127435664e-02,1.194435283541679382e-01
3.875846947233302919e-01,4.602983504368001744e-01,4.032400674825222797e-01,4.571647570966574231e-03,9.869388755754864712e-03,-7.107651754360708868e-03,7.000341266393661499e-02
5.110186395472885446e-01,4.154916667088388027e-01,4.368060027414463753e-01,2.406386980892223290e-03,-5.436748535362510328e-03,7.017929775326913790e-03,8.830294758081436157e-02
4.789446750209509496e-01,5.452202537334670529e-01,4.032021509697436001e-01,4.066723752164736611e-02,5.956066346278355433e-02,9.292635891064481360e-05,1.753658354282379150e-01
4.212993853212291251e-01,4.786183521877930280e-01,4.120084239487890043e-01,1.019736509292336508e-02,1.369061092752023832e-02,-1.751836515326365236e-03,6.919391453266143799e-02
3.934634162975515492e-01,3.805217712962756238e-01,4.693151718363375857e-01,1.440894791512715122e-02,2.675971992280978384e-04,2.705108444205969330e-04,8.675199747085571289e-02
4.822488045310837079e-01,3.906938005377887380e-01,4.257963288030307547e-01,-9.103314879167725320e-04,6.439267734554515558e-03,5.866832324518950550e-03,8.142992109060287476e-02
3.377696507334854159e-01,3.744818765439056896e-01,6.791876819726884174e-01,-2.064862125689859162e-01,5.337151922729070630e-02,6.091945552274457415e-02,5.029598474502563477e-01
4.820133832326921608e-01,3.492418916191873945e-01,4.276346006152870194e-01,1.405668783653877792e-03,-1.056066203006812785e-03,1.150491093902279022e-02,1.173530220985412598e-01
3.484672759548773646e-01,4.462046199689970183e-01,3.955451927316293026e-01,5.532371549084063277e-03,1.975191859942836484e-02,-1.408403459833030419e-02,9.499981254339218140e-02
4.379947090789643727e-01,3.864966923810903565e-01,4.184704197483772314e-01,-4.705221371511785627e-03,1.501802562950371386e-02,6.056865565091556700e-03,5.367381870746612549e-02
5.987460920287297483e-01,7.773346781542974648e-01,1.027262078070651619e+00,-2.364484793489781966e-01,-4.637020899490060244e-02,-1.279726337438649893e-02,5.600512027740478516e-01
4.402350171671990942e-01,4.106015390832197243e-01,4.137440879622492074e-01,-3.874604411975901552e-03,7.180229726593477871e-03,4.730916255632237541e-03,3.258440643548965454e-02
4.117256243459117560e-01,4.119893070779281352e-01,4.345085508383652040e-01,1.319380508985390933e-03,4.288441461937740271e-03,-2.611810107556528354e-03,2.437176555395126343e-02
3.761320781839973537e-01,4.164975037695685112e-01,4.519451639618689009e-01,-1.191365559682473069e-02,7.562472443937557492e-03,1.681892787298139985e-02,7.591292262077331543e-02
4.722223249349289387e-01,3.755059163047819171e-01,4.451292785001125796e-01,-5.555645921014406782e-03,1.298504051554150857e-02,9.744542218964374544e-03,9.138409048318862915e-02
4.037686044320761281e-01,4.106555768900631009e-01,4.792541197808967701e-01,-1.745839856067570028e-03,1.055675125399870668e-03,-2.601494591503876789e-04,7.237622141838073730e-02
4.985217377181550558e-01,4.191610377049043157e-01,4.203715965396095933e-01,-1.098869197519876037e-03,4.050537447374868809e-03,1.371643134218199049e-02,8.258800953626632690e-02
4.523403101313975827e-01,3.783887169093897995e-01,3.358647187096543973e-01,-7.903619806047658056e-03,7.766583816948306393e-03,2.122992177750158624e-02,1.101922690868377686e-01
4.356733901961448163e-01,3.759104600763520376e-01,3.291206372204565356e-01,-1.141240811740136876e-02,5.010509392117877027e-03,2.310847694793452187e-02,1.030788123607635498e-01
4.735955650379299331e-01,3.900673481514845831e-01,4.071473003563542137e-01,-4.975095666484323151e-03,6.436382259039549400e-03,6.651630041099108881e-03,7.857033610343933105e-02
2.742752808594398628e-01,5.310850221908027802e-01,5.343912721002612720e-01,-1.122142190636586656e-02,-8.125772625904496924e-04,5.048101994147506655e-03,2.593596875667572021e-01
4.236285181847485592e-01,4.352213933260962175e-01,4.546432340700093389e-01,-1.975758845823652476e-04,2.316368312326549245e-03,9.770565204277010390e-03,3.223915770649909973e-02
4.651099599539296747e-01,5.042729173254532071e-01,3.482959920591546243e-01,-1.434727297113045849e-02,1.686185673870081725e-02,1.295505402814728542e-02,1.474042683839797974e-01
4.578008924971287974e-01,4.067383625686792348e-01,4.173504794502035931e-01,-2.390729635768014914e-03,7.654070494772010486e-03,3.342632383995626857e-03,4.903608933091163635e-02
4.698413711490664890e-01,3.685195066080342863e-01,4.311185777422533727e-01,-5.172887112017025141e-03,1.497980366065069374e-02,1.061333605148047539e-02,9.451718628406524658e-02
1.975183074132694783e-01,2.270332837754803212e-01,-7.355007282602379903e-02,-1.106430454473173730e-01,-2.219001909264964878e-01,-1.650576203462571778e-01,5.903613567352294922e-01
4.509567743532454931e-01,4.211465458312008692e-01,3.834161591277628345e-01,-1.696670957703752536e-02,5.251592530323570020e-03,8.876744513899833058e-03,6.796851009130477905e-02
4.173141367196381291e-01,4.232346636183964561e-01,4.342976465534492680e-01,-2.219754332874968473e-03,4.107149895761700968e-03,5.870541013871174128e-03,1.979188248515129089e-02
4.629040937502794661e-01,4.014287085470843452e-01,4.256347574723277627e-01,-6.812436011147744025e-03,1.232241420871751751e-02,4.315116222355261724e-03,5.939439311623573303e-02
4.264095071811877524e-01,3.959162494866707571e-01,4.389507934323721439e-01,-7.639418264656807137e-03,1.424708338986953836e-02,4.659479922474415656e-03,4.815287888050079346e-02
4.206044207894508724e-01,4.807454756585539668e-01,3.943686421214829818e-01,8.695427726459729542e-03,7.323301673188968054e-03,-3.040114324577620868e-03,7.936347275972366333e-02
4.360492866110746157e-01,3.660182814930725281e-01,4.090419440694158526e-01,-1.425633448488853976e-02,1.929269857252463582e-02,8.019136338494938301e-03,7.524400204420089722e-02
4.336889196843298211e-01,3.086420620880799270e-01,4.307392161167133970e-01,-5.623184767386864985e-02,4.849488241590227400e-02,4.305571815300163196e-02,1.933372020721435547e-01
4.360744619329899319e-01,4.013999798604469538e-01,4.932961288294693825e-01,5.524191684395877988e-03,-3.934882612447277578e-03,3.833376429903329399e-03,8.150371164083480835e-02
2.891494280292239982e-01,3.989470169332542393e-01,4.623131227862549153e-01,-3.297254273565743132e-02,1.111731225109459826e-04,-1.067156562949050317e-03,1.621519029140472412e-01
3.562999541750573318e-01,4.964923435277202035e-01,5.355283078329320379e-01,-1.307418022522402641e-02,-2.238053085675404102e-03,3.557737898078029530e-03,1.649729013442993164e-01
3.278390747176083142e-01,5.193724839789302106e-01,4.910469725641147254e-01,-1.190067713365503682e-01,5.010207358242507042e-02,3.365801919153938587e-02,2.923682034015655518e-01
4.051191287521376805e-01,4.076623448672201389e-01,4.453824772334530890e-01,2.184827855556932021e-03,-2.850582562565324996e-03,5.629991017058929778e-03,4.073076322674751282e-02
3.427813683193830507e-01,3.519020434553775112e-01,4.365483228025296425e-01,3.266575086096668024e-02,-7.915227141527831495e-03,7.460417160732270812e-03,1.075931712985038757e-01
3.385247632885822755e-01,5.055370868120153682e-01,4.993862557918420375e-01,-2.555791527257691986e-02,3.254581551048446597e-02,2.224812775737523840e-02,1.831008791923522949e-01
4.721567604941560581e-01,3.075518494452559315e-01,4.996779325703868402e-01,1.191068426211689367e-02,7.369656751025990132e-03,-4.149054593778504774e-03,1.817208975553512573e-01
2.981851597004728238e-01,5.625317282905362148e-01,5.004287697796899748e-01,-5.428808373757691014e-02,4.916630090998225927e-02,1.301746092636706618e-02,2.718843519687652588e-01
2.953025565467745639e-01,4.846327780445680578e-01,4.705316404215354464e-01,-1.589802235159190960e-02,1.783434168894478325e-02,2.180758794376986068e-02,1.910867542028427124e-01
3.467732924027093211e-01,4.588520350829783379e-01,4.691461187293873847e-01,-1.484707772117744261e-02,1.011729837807798411e-02,2.111351664337691308e-02,1.269924789667129517e-01
4.196571613310087767e-01,5.410852421552418967e-01,5.012160318237847134e-01,2.650335415790069579e-02,-3.108130553334030946e-02,2.817491297527213029e-02,1.374044865369796753e-01
4.187303840269642197e-01,4.201382458480373283e-01,4.838707676176902672e-01,1.570370924974974144e-02,4.921103159347614553e-03,-7.004833453348974052e-03,7.150676101446151733e-02
4.614674688795192270e-01,3.656862757832068378e-01,4.385087718785927735e-01,5.545483942198836669e-03,-1.139484129334706643e-02,7.313793269878125780e-03,9.024625271558761597e-02
4.038518437904712322e-01,4.092655357175680741e-01,4.643408952245980936e-01,1.336219758996081515e-03,2.378354487744439513e-03,-1.715268314371802940e-03,5.824016407132148743e-02
4.315833959166958667e-01,2.798942406243654646e-01,3.997649204993328209e-01,1.362066519266307181e-02,-2.474776956370606032e-02,2.782214630066123795e-02,1.546338796615600586e-01
3.909004561733617211e-01,4.184806341532221197e-01,4.640551606293268350e-01,6.383215223084618729e-03,3.320312148652577403e-03,-7.630062559576337479e-03,6.651782244443893433e-02
4.283469249883679053e-01,4.198586220231082522e-01,4.356231512834912722e-01,3.551365349896348778e-03,-9.147125640981879427e-03,2.989142576202148249e-03,2.241447754204273224e-02
1.001171896028542951e+00,9.134114613098525126e-01,7.127300329244157240e-01,-1.299694663322744281e-03,-4.556733727861997547e-03,1.673050998209857088e-01,3.868167102336883545e-01
3.700264097245598016e-01,4.133773731221800918e-01,4.827697625627136446e-01,1.434028975886071124e-02,2.694396728611614562e-03,-4.172695464668882068e-03,1.019499003887176514e-01
3.523806035797293346e-01,4.014047507470070442e-01,4.503897672605767788e-01,1.534886857374443206e-02,7.992433394292366294e-03,-1.708915984579960010e-02,9.475687891244888306e-02
4.070551932197698508e-01,3.910241368176641252e-01,4.712683158717576037e-01,7.960491659935649625e-03,7.928176049623678751e-03,-5.391130993477454870e-03,7.665241509675979614e-02
3.702803840889903331e-01,4.107376402187564168e-01,4.427050911342499950e-01,1.096297045165737713e-02,9.106182764313052944e-03,-1.429321099018083206e-02,7.193218171596527100e-02
4.160154272704201794e-01,4.270786170046450558e-01,4.767895368356085961e-01,2.108484915264901075e-03,2.222958694427744613e-03,-5.164788244813992013e-03,5.702383816242218018e-02
5.425869263445343149e-01,2.973228717539027066e-01,3.244377313833979870e-01,-2.661502002179924609e-02,-4.840989291823351477e-03,2.031995843215065878e-01,4.246233105659484863e-01
4.846806074649326335e-01,3.555741554660543646e-01,4.303141448067299701e-01,2.671362389293897941e-03,1.168406299817624679e-02,1.010189736664605410e-02,1.155085787177085876e-01
4.678243264284405734e-01,3.893089769427420799e-01,3.774048576442503022e-01,2.409025657802077534e-03,-4.203836453409580572e-04,1.400601421753105459e-02,8.858594298362731934e-02
4.980794275163880069e-01,3.449983013277272414e-01,4.637278280817510034e-01,3.612198427088267327e-02,-2.509089865031182906e-02,3.236779541493574330e-02,1.682300716638565063e-01
4.600028173639907902e-01,4.342169309910673958e-01,3.471436210423434199e-01,1.285726811795683856e-02,-5.110889909687691031e-03,9.780819242472683916e-03,1.065514907240867615e-01
4.658264318530868087e-01,3.880730009668389990e-01,3.963512699364521996e-01,3.298793355401729264e-03,-4.160030813324991014e-03,1.053900505680079557e-02,7.673484832048416138e-02
5.270793822444046484e-01,3.846009750679639794e-01,4.579765755051878884e-01,5.532623863659075865e-04,3.096059356646217297e-03,9.913511673457116313e-03,1.247162595391273499e-01
5.114376933026456573e-01,2.980912380828621977e-01,5.022861924173043224e-01,4.643961464944075697e-03,1.547625636483412372e-03,9.796281862265771370e-03,2.097803801298141479e-01
4.756331613380808676e-01,3.675812570607547292e-01,4.133876562563923440e-01,9.868426704653206899e-03,-8.616803248180083391e-03,1.521177983639999086e-02,1.001652255654335022e-01
4.511975420318702357e-01,4.116998768424967037e-01,3.696849491316057112e-01,1.155181671667993015e-02,-6.568749481953589479e-03,1.163649130829147275e-02,7.694682478904724121e-02
3.566149472559528855e-01,4.486587934540635092e-01,5.133825779413125900e-01,-1.559361277151023392e-02,5.032467359131883623e-03,-2.201878093163376314e-03,1.394226253032684326e-01
4.045585844299280365e-01,4.099990348952384234e-01,4.831764551066360380e-01,-3.143802484991139925e-03,-7.531774038884559395e-04,-7.916232614165829131e-04,7.626194506883621216e-02
4.616935752399002335e-01,4.057655107429467001e-01,3.933951128409719500e-01,7.865574292802940057e-03,-2.657786680476092230e-03,7.274868734850102082e-03,6.586647033691406250e-02
4.314639353172307623e-01,3.149612946769564936e-01,4.764651679532182493e-01,2.617194380345536087e-02,4.333461864313370264e-03,-3.180135833974040600e-03,1.515992283821105957e-01
4.872914949605700596e-01,2.386229940977192543e-01,4.803705247412236590e-01,-4.293431015555787024e-03,5.434388172133102109e-03,4.807566631528307176e-03,2.457155585289001465e-01
3.825773043444428145e-01,3.387970263771838964e-01,4.431719049892635653e-01,-1.428798920131153088e-02,1.064965638729327944e-02,4.187603461139098940e-03,9.615903347730636597e-02
4.755257060119296719e-01,4.333402737782231506e-01,4.109395004761740022e-01,9.630528320415684615e-03,-4.091056075656688412e-03,3.921918517634582699e-03,6.000822782516479492e-02
3.130301877350402662e-01,4.995862104086442046e-01,4.358938582627454039e-01,1.238238198456946852e-03,2.047789983285039708e-02,4.893245838208675922e-04,1.680506616830825806e-01
4.123170125980568090e-01,3.753289046592868106e-01,3.731609453251074626e-01,-5.717179004231429801e-02,6.595331362302117584e-02,8.848150162249206196e-02,2.186213582754135132e-01
3.507026092116527494e-01,5.837817893470454989e-01,5.363027729197628046e-01,-1.427212148729618477e-02,5.024316567698539071e-02,3.959724734217054398e-02,2.416646927595138550e-01
4.211465990601044873e-01,4.201765708666925225e-01,4.462081026611726120e-01,-4.567541667302683212e-03,6.540257221469264644e-03,6.544535320282342077e-03,3.118870407342910767e-02
5.885083567790412307e-01,8.745163170039980116e-01,1.095728472782941276e+00,-1.474056139500142248e-01,1.661180421555143519e-02,1.254920667099644963e-02,5.103815793991088867e-01
4.294154248013755115e-01,4.201318576517397707e-01,4.495351666403302748e-01,-4.638077160471359289e-03,1.290615377663544353e-02,3.671934136955765701e-03,3.581148758530616760e-02
2.850142019296208473e-01,5.000526219993342014e-01,5.129099774199367134e-01,-3.723699642974096641e-02,2.829124186214623804e-02,6.675012085342478876e-03,2.363605052232742310e-01
4.661410444353182858e-01,5.231002144356119432e-01,3.240331056201962712e-01,-1.282104031034533680e-02,4.468604707718156627e-02,2.104748232150037424e-02,1.983583122491836548e-01
4.097563643559326008e-01,4.039831109836592438e-01,4.847449159329995094e-01,-8.968598011856154448e-03,-5.899275657806742068e-03,-5.244507870897138942e-03,8.073268830776214600e-02
4.131190432364988396e-01,4.178091558718463605e-01,4.853859112942179865e-01,-1.733006732832763916e-03,1.709573512973942876e-03,1.840399193696067590e-03,7.023885101079940796e-02
2.141661586721463617e-01,4.425273548710148552e-01,4.285147178836516968e-01,-4.320941758228859231e-02,4.100340809677222031e-02,1.642457252266684223e-02,2.461697459220886230e-01
2.945847623024312467e-01,4.835853278400205069e-01,4.938270277006887587e-01,-1.912279737908082269e-02,1.356828382480380381e-02,1.174590427449986874e-02,1.995621025562286377e-01
3.330093225038160965e-01,5.028071336038116845e-01,4.930014672330474967e-01,-1.331496480236129057e-02,9.047404645605858914e-03,1.199795731789830497e-02,1.687357425689697266e-01
3.959531814070041400e-01,4.588523690761642237e-01,4.023184152188327145e-01,3.235588205515909158e-03,1.013874906891147620e-02,-7.202109931210685760e-03,6.396762281656265259e-02
4.322086446429383999e-01,4.394766641798692475e-01,4.078390356821602891e-01,8.128053995985828201e-03,3.652449116139021897e-03,-4.209004429448249228e-03,3.339438512921333313e-02
4.156037106152462024e-01,4.486638584931257889e-01,3.971313304600891381e-01,9.593386143516456285e-03,5.717960143331045179e-03,-4.443749558858655843e-03,4.978279769420623779e-02
4.276429767463372222e-01,4.230933186487345066e-01,4.822355485113116180e-01,1.312792306628796915e-03,-5.670947737598162203e-03,1.992173388958456883e-03,5.799121782183647156e-02
4.203684716806133093e-01,4.784752995501530548e-01,3.941675913427703515e-01,1.107080900035168833e-02,4.636727470331375618e-03,-2.752721927459005936e-03,7.771909981966018677e-02
4.111951211484019542e-01,4.604527005262790684e-01,4.099223162635468598e-01,7.123925580855958520e-03,6.989512428019342000e-03,-6.281619545925250757e-03,5.392412841320037842e-02
4.081925295881655424e-01,4.631829784183806309e-01,3.655780421189403495e-01,1.382667942255617205e-02,8.915412558689907868e-03,-5.173992474388726739e-03,8.986450731754302979e-02
4.084997633547036711e-01,4.117498497583057526e-01,4.706259724078834528e-01,2.207776746502356727e-03,-1.914502953507989146e-03,3.760332094811446799e-03,6.112571060657501221e-02
4.086875637292670671e-01,4.436699537032095519e-01,3.799644192993543723e-01,1.544100017463868879e-02,1.165962613274728818e-02,-1.574085998179395804e-02,7.014291733503341675e-02
4.217883871675126572e-01,4.349374189002123137e-01,4.137761150395298793e-01,9.441368179891397247e-03,1.195939113039097383e-02,-1.243193328291852286e-02,3.876345604658126831e-02
3.712749134556318498e-01,4.534705679219317442e-01,3.153647629311845946e-01,8.459808067576018650e-03,5.482205142162423217e-02,-1.042534844375876506e-02,1.550315469503402710e-01
4.176668932163078440e-01,4.643034071711021893e-01,4.137909853396777859e-01,1.159826232157680319e-02,9.752821004618991013e-03,-6.319071813509780262e-03,5.638660863041877747e-02
3.272530100951854815e-01,4.857509400897536134e-01,4.550403837727318157e-01,5.616211109172074452e-03,2.249522687636874851e-02,-8.948057528236691080e-03,1.518226116895675659e-01
4.200856415548470668e-01,4.733284624360233894e-01,4.352948096441925374e-01,5.579811237004923125e-03,5.290858086472258019e-03,-9.220590866909269059e-03,5.185342952609062195e-02
3.539354200841574594e-01,4.332869414629098026e-01,3.953563081365399912e-01,1.199610878415005577e-02,1.674418855470612491e-02,-1.631950430525815413e-02,8.244601637125015259e-02
4.390257619660443145e-01,4.176277344482143272e-01,4.149716401418155343e-01,6.702325109938911570e-03,-8.138128812652117156e-03,7.847387773847141687e-03,3.224842622876167297e-02
3.451426468760699917e-01,4.546749128612273538e-01,3.926738457628933254e-01,7.562557669961056384e-03,1.490445856913840371e-02,-1.085568433904354237e-02,1.012021526694297791e-01
4.248515605753611646e-01,4.225648064544865190e-01,4.691497220897997700e-01,-1.097741086198036030e-02,-7.562312397712024625e-03,-6.768818822755756116e-03,5.233911052346229553e-02
4.398460464096694000e-01,4.082758201624823724e-01,4.931452537771420785e-01,5.952405773066423399e-03,-9.766919008366722887e-03,4.726056779022683348e-03,7.732807099819183350e-02
4.580993433557603578e-01,4.667801692629069410e-01,4.855982889248385836e-01,-1.902147647973842504e-02,-1.810235571620328124e-02,-1.604792913771205601e-02,5.860016122460365295e-02
4.623115548473892278e-01,2.440021817901310841e-01,4.380678325490042213e-01,-1.934818004236728197e-03,9.195642401491531392e-03,1.263793593748334387e-02,2.090410739183425903e-01
4.136595615688647420e-01,4.255152744767075612e-01,4.356929703224753370e-01,-3.675467090998016818e-03,-4.022600893283470938e-03,-8.695511263390735823e-03,2.609049901366233826e-02
4.756864218192217719e-01,3.115597072586973049e-01,4.985702056410528105e-01,8.721154211029778780e-03,-2.018191305169540588e-03,3.323506847835113256e-03,1.774559617042541504e-01
4.086082790153015010e-01,4.085485800529042311e-01,4.360281728116460753e-01,-3.804940759917494093e-03,-8.792415044829847773e-03,-3.334889021130708030e-03,3.259153291583061218e-02
2.777512979165855378e-01,4.299675137852547180e-01,5.064889780600735358e-01,8.805058898869592976e-02,1.505370004526174156e-03,1.181481322397990447e-02,2.536876201629638672e-01
7.400069243432152444e-01,6.286019100342696841e-01,9.841853964723717985e-01,2.018673350213665840e-01,-9.146928393920965294e-02,7.520838505065335911e-02,5.133780241012573242e-01
4.497924032547354067e-01,2.448635630188910062e-01,4.442263497754311841e-01,5.499527227218870169e-03,-6.047754833711123379e-03,6.475714411725588121e-03,2.030084431171417236e-01
5.275151234240739173e-01,2.886482793170267458e-01,5.182006445764303360e-01,-7.537534452483568223e-03,2.272901347018950382e-03,2.837260750296658265e-02,2.398336231708526611e-01
5.453427471273116778e-01,3.647698728405615043e-01,5.109512752983486061e-01,2.714518285656189814e-02,-9.394738487674521993e-03,1.273379023418278778e-02,1.747597903013229370e-01
4.678700855596536479e-01,3.158835423912493834e-01,4.640879463499143487e-01,8.833358160039942591e-03,-1.124974022725738244e-02,7.645134622221697387e-03,1.527366340160369873e-01
5.493447364110095599e-01,3.925966254418276069e-01,5.000244709118122355e-01,1.928486689206802829e-02,-9.301861148937270313e-03,4.533367155141262289e-02,1.637446731328964233e-01
4.707822689707777397e-01,2.595510896595301653e-01,4.565287625918488246e-01,1.777706027105961564e-03,-1.061337651818929431e-02,6.473723357972314789e-03,2.056310474872589111e-01
4.356265587181813448e-01,1.700093563686181641e-01,3.256022082098046222e-01,-4.900213283286461614e-03,1.126395902998620843e-03,1.032054665149774592e-01,2.923413217067718506e-01
6.546915056942195221e-01,3.948619069987968633e-01,6.494172469483927568e-01,-1.979523183936021322e-02,-1.986403237099111652e-02,6.154772127115576419e-02,2.826525866985321045e-01
5.409702865829925100e-01,3.144804276442866864e-01,5.248530696220060632e-01,-5.394992933710488631e-03,4.435934092343410580e-03,1.332841509791819236e-02,2.204230576753616333e-01
3.803609179715329858e-01,4.657559942291438215e-01,5.154043540909173382e-01,-1.172605664667554330e-02,3.148251489153088608e-03,7.854130872725080537e-03,1.209309771656990051e-01
5.484060319057817434e-01,3.528454577025710304e-01,5.450614563740605600e-01,2.250936031818796812e-02,-1.117148653876138924e-02,1.928115974933071117e-02,2.015211284160614014e-01
5.092428221331029015e-01,4.520276918749191464e-01,3.655032469602203515e-01,-4.785262162727016953e-03,2.863052812872743120e-03,-1.203486595781693737e-02,1.274298280477523804e-01
4.664010328214430734e-01,4.037876970113596919e-01,4.019984891579305164e-01,-3.384868783640543593e-03,-2.018264178310902150e-03,-1.931631092895081227e-03,6.398003548383712769e-02
4.807947247490596543e-01,3.387033629727783102e-01,5.232342107948739773e-01,-1.201375836726513088e-02,2.004958929736664220e-03,5.985947203376842853e-04,1.687230765819549561e-01
4.313408696880994819e-01,3.574129326833055953e-01,4.933773700548282348e-01,-1.985689125187849874e-02,5.566552960755408175e-03,6.478311871197952806e-03,1.237006485462188721e-01
3.915437292027462712e-01,4.047420976339718424e-01,4.839824161616279596e-01,-9.509029189304005203e-03,-4.356595808583814378e-04,1.209752365828686057e-03,8.817762136459350586e-02
4.107780810856487275e-01,4.147721980551850041e-01,4.869092871854744931e-01,-4.225703228902776866e-03,2.422567325630804204e-04,1.744511435025056581e-03,7.463720440864562988e-02
4.106307373300953634e-01,4.174854238920716609e-01,4.833399995219773149e-01,-4.808681285448378889e-03,-4.146311127957805773e-04,1.834882178281785521e-03,7.010856270790100098e-02
4.299703021581994800e-01,4.033144280992264075e-01,4.846758725281378744e-01,-4.151479370139211401e-03,8.743028641480294141e-03,8.484155586525941699e-04,7.378783822059631348e-02
3.890476837327087045e-01,3.838901024224594116e-01,4.828340825590053953e-01,-2.586932367064368604e-02,1.100663669140833356e-02,3.948986587468576205e-03,1.082778275012969971e-01
4.471220562986463753e-01,3.712803627287511454e-01,4.779714362099751201e-01,-8.008428973860899636e-03,1.295315490486643496e-02,3.495226652171352227e-03,9.887225925922393799e-02
5.210026883860332525e-01,2.827169906264375143e-01,5.272508703601295199e-01,7.852034863411006677e-03,-9.268970497145995885e-03,1.045523475648999986e-02,2.430609166622161865e-01
3.634675599795628709e-01,4.523012806975320599e-01,4.025772155356811544e-01,-6.087420835691705577e-03,-1.405610433211536454e-02,-1.169044046088749816e-02,8.402755856513977051e-02
3.923360414323381340e-01,3.459710528662339746e-01,4.584441034149809302e-01,-1.276880538767545537e-02,-2.674940659177190046e-03,-1.572498101323902909e-03,1.005141735076904297e-01
5.235513012483924422e-01,3.266696408719184652e-01,4.914458482717224963e-01,-2.393920759355050909e-04,1.668169385839004572e-03,-1.075362582559240450e-02,1.839228570461273193e-01
4.460994731069057306e-01,3.729442973703704922e-01,4.832251327241618988e-01,-8.538405380105600420e-03,1.245149120057489033e-02,2.722941519545113518e-03,1.007571518421173096e-01
4.661879198100945532e-01,2.253068161581021078e-01,4.951862625649938732e-01,-4.523409936522858332e-02,-7.101892479029913233e-03,-2.115126679025204279e-02,2.710748612880706787e-01
4.036441688185700150e-01,3.547561969113677272e-01,4.715714377137820157e-01,-1.356422519084442453e-02,2.887485358695029806e-03,-5.790526143937676715e-04,1.044172272086143494e-01
4.323139420047713566e-01,4.018851679031866797e-01,4.783036214480941295e-01,-3.240543233293152400e-03,9.193044398577092380e-03,2.030390005897568430e-03,6.883151829242706299e-02
4.818510746761452967e-01,3.776523053744995639e-01,5.326153572676899373e-01,-3.219393658865878777e-02,1.956395676339928169e-03,-8.224125915151115143e-03,1.484847217798233032e-01
3.858119576836271380e-01,3.969569594635995458e-01,4.689679226357909014e-01,1.118817762390035206e-02,1.057604718205688247e-03,-2.465506365645504013e-03,8.068128675222396851e-02
3.950976883737799539e-01,3.857078581759621483e-01,4.731967996175077129e-01,-1.057682559785558946e-02,-1.416502625139072274e-03,5.005558030470149203e-04,8.522532880306243896e-02
4.192927739395021502e-01,4.149261835607898630e-01,4.854773582854544078e-01,-2.353042961567284631e-03,1.579970273034822384e-03,2.326009179224508040e-03,6.876625120639801025e-02
3.613320727748971506e-01,4.596453030956181296e-01,3.619740510724735461e-01,1.460584287305513596e-03,-2.956010028540643347e-02,1.089430311012163461e-03,1.106080785393714905e-01
4.413099668074537685e-01,4.885700378245690367e-01,3.484040539025812233e-01,1.333577603856837216e-03,1.393181511713675533e-02,-1.748043406567986215e-03,1.259069144725799561e-01
4.040957814804977954e-01,5.008211488952868384e-01,4.310673287407156828e-01,-1.387986211497962063e-03,-5.506321961135971811e-03,-2.668308220663991731e-03,8.713510632514953613e-02
2.565408324186986277e-01,4.200608634175020395e-01,3.636582680238965026e-01,9.149200050284373581e-03,-3.412904865202710802e-02,1.852304746588825241e-02,1.595992147922515869e-01
4.537806455493362257e-01,4.283971498220649488e-01,4.227178710270502182e-01,3.872899869560815674e-03,1.499540574512108621e-03,-2.835969721824950973e-04,2.954185567796230316e-02
3.457414896939051685e-01,4.701538991195633455e-01,3.978945910240674344e-01,1.404838898542908531e-03,-1.821952044370881221e-02,4.125275622262644486e-03,1.129722446203231812e-01
6.096626976393766384e-01,7.204885152438087470e-01,4.916849416259162497e-01,-7.729191137103181078e-03,1.328664427245556945e-01,-8.045834322870678082e-03,3.043189048767089844e-01
4.140560520960923641e-01,4.113142584246552991e-01,4.868294135025078573e-01,2.810530700427377009e-03,1.539208752078472658e-03,-3.740495419060793050e-04,7.439243048429489136e-02
4.094859430433525072e-01,4.066793800422641714e-01,4.797959762412322138e-01,2.578037147142460146e-03,3.099316234917796333e-04,1.273081488716472798e-03,7.192910462617874146e-02
3.991854547775898210e-01,4.794814081362095415e-01,4.260148896459969858e-01,-2.470568390440405727e-04,-5.464951386749338294e-03,-7.765606526882663785e-03,7.268877327442169189e-02
3.636124393717793946e-01,4.780720015324817496e-01,4.208411907973609867e-01,-1.112922557640651450e-03,-1.169842414606886948e-02,-5.525865748095124506e-03,1.016445979475975037e-01
4.020454215099177886e-01,4.782420502397935480e-01,4.177183986527049364e-01,-1.841399067508390011e-03,-6.964154206125201287e-03,-6.871087675893534398e-03,7.179586589336395264e-02
4.246021215454960918e-01,3.027829983622016274e-01,4.775643913324145728e-01,2.339664771040921021e-02,3.778381472987025341e-03,-3.669042698767821780e-03,1.606926918029785156e-01
6.320610834501476649e-01,3.791997816985971381e-01,8.108902830376772952e-01,2.535578654855136782e-01,-4.757396538463255775e-02,1.913197225211094032e-02,5.847225189208984375e-01
4.483318095646167678e-01,5.591003780124513822e-01,4.540441760841911201e-01,1.195396738249989571e-02,-6.730616855753385197e-02,1.715068538551191638e-02,1.630062758922576904e-01
4.087772830560756909e-01,4.833831784765537098e-01,3.925828429820620857e-01,-3.627294599659954596e-03,-8.534362362395041257e-03,-1.737567510289170919e-03,8.546072244644165039e-02
4.208539271036312313e-01,4.882863051522181030e-01,4.033300146637399664e-01,-2.654081312153083738e-02,-5.199573937672399837e-02,-4.271213754964023335e-02,1.474204510450363159e-01
3.906589895948786029e-01,2.073066146993432224e-01,4.114129551810740137e-01,-2.922951597411212535e-02,-2.556831530542044359e-02,-2.247317901275525109e-02,2.095078825950622559e-01
4.665916476307229166e-01,3.038879578605737652e-01,4.901375419728752347e-01,8.810105572247525774e-03,2.726858854147416289e-04,3.323605333083879364e-03,1.764202862977981567e-01
1.245643794395761006e-01,1.278556613522872920e-01,1.214662598178594677e-01,-2.191231567767040755e-01,-2.250685908789739897e-01,-1.938702379314942714e-01,6.393747925758361816e-01
5.109570661491619203e-01,2.411874172500225177e-01,5.666775854959603675e-01,-2.861256557724298558e-02,-1.130079341681185766e-04,-4.594817782591462119e-02,3.157561123371124268e-01
4.877907991175896296e-02,1.363347476347589460e-01,2.898658742492867813e-01,2.207112981651610795e-01,-1.538819785217142300e-01,1.222053959589194938e-01,5.537708997726440430e-01
3.523471274532333775e-01,4.581964178900239659e-01,4.337452106746547131e-01,5.599679335179021458e-03,1.047567376802520031e-02,-1.182195070068571378e-02,1.002813801169395447e-01
3.241279830257792205e-01,4.146191156506337516e-02,4.520419744626560377e-01,1.586442666950588221e-01,-4.623099227226432767e-02,7.873576969410051030e-02,4.826312661170959473e-01
5.474348485308233592e-01,2.516039210501155310e-01,5.365144830691058742e-01,-5.077648130400561760e-02,-3.685313962651968339e-02,-7.030100237025994382e-03,3.104224503040313721e-01
4.677874413259548447e-01,2.919594046300197920e-01,6.397233871355620938e-01,9.728598136353058812e-02,-9.362595709419363477e-02,1.648016897658262370e-01,4.763177037239074707e-01
4.265094162537255151e-01,1.263002750985690315e-01,4.124153331025940949e-01,-3.265007247276684177e-02,-4.066782766839019923e-03,-5.991111128821245690e-02,3.163996338844299316e-01
6.457826558473336309e-01,4.292464486092275600e-01,6.750852315530384562e-01,-6.934958014043927921e-02,-1.605425501920068956e-02,-4.947811672388546800e-02,2.768342494964599609e-01
4.379902571977731252e-01,4.347311781266287034e-01,4.187340774989966041e-01,-1.421333835210553294e-02,-1.154901166871658350e-02,-1.318056644187202107e-02,4.296559840440750122e-02
4.483727305898345117e-01,3.593110691565861159e-01,4.997728950215727939e-01,-1.250365143622841381e-02,1.635098093382295146e-04,1.857102041047528022e-04,1.249837875366210938e-01
4.522843468834299996e-01,4.549812475139327628e-01,4.354075257165879176e-01,-1.202998453127090278e-02,-1.062331794503581714e-02,-9.287582223445240565e-03,3.700160980224609375e-02
4.477903025286296690e-01,3.880977948570857317e-01,3.809988569486750243e-01,-1.012725258663462954e-02,-1.633167376036328416e-02,-2.057465104705712144e-02,8.009461313486099243e-02
5.180627621496844970e-01,3.238550118874771178e-01,5.411433499521193236e-01,1.406459674265873525e-02,-4.684529639571077299e-03,1.322560129445333977e-03,2.083178162574768066e-01
4.717312882148485542e-01,4.167621785380892785e-01,4.149988675232381685e-01,-6.481241465320903769e-03,-7.595569507587902197e-03,-7.277198686478730111e-03,5.982984602451324463e-02
4.394577063356661095e-01,4.123364837122683313e-01,4.201391798316889137e-01,-2.699398312104608205e-03,6.559768028303103460e-03,5.577023971740163559e-03,2.879384718835353851e-02
4.435022130995130429e-01,4.271249846854926480e-01,3.980017904736218859e-01,-1.330052393332836584e-02,-4.999127392175837722e-03,-6.396071262039970153e-03,4.818449914455413818e-02
9.452232455796971688e-01,4.986106714125673744e-01,8.028422433674626824e-01,-5.288894028369221095e-02,5.010724906020737855e-03,-1.540032913516028445e-01,4.855554401874542236e-01
4.086403232024707344e-01,3.986543190431800499e-01,4.915137560438114228e-01,-1.134530251967286359e-02,3.125433524927172853e-03,-7.653622358342548025e-04,9.062290191650390625e-02
4.429923418876995922e-01,4.019300652255675121e-01,4.016698556558682132e-01,-1.235070322338232239e-02,-1.254435244132257217e-02,-1.362003231239337399e-02,5.641879886388778687e-02
4.423505802513389429e-01,3.907479796053412446e-01,4.112476172717788869e-01,-6.482482602298636661e-03,-1.007603517260967016e-02,-5.630012683713690042e-03,5.050710216164588928e-02
4.435948608363081691e-01,4.203966943158513048e-01,4.205153103658755276e-01,-7.475400811874034247e-03,6.138727458024301718e-03,7.064207435370224546e-03,3.107769601047039032e-02
6.174686408502606527e-01,5.354356084026181684e-01,3.808299302600303138e-01,2.964958166982467960e-03,-4.231713729813141138e-03,7.391603210703795446e-02,2.445116341114044189e-01
3.502770857073214117e-01,3.998421049252695036e-01,4.869533122805292380e-01,-1.725203246583051353e-02,2.372169254712339634e-04,4.121489292761056598e-03,1.237204447388648987e-01
4.131493084010222638e-01,5.306166179939139083e-01,5.188351313631002215e-01,-4.001599721181087199e-02,1.175274238651060760e-01,2.662882885293587840e-02,2.468251287937164307e-01
4.289571206624647193e-01,3.979658051749707104e-01,4.928605593119902983e-01,-6.769370302958371312e-03,2.812223717086412798e-03,8.730288452405607878e-04,8.478235453367233276e-02
4.285358309769429774e-01,4.335260554323843163e-01,4.712414887368245875e-01,-7.614544046119102461e-03,8.659789402657483079e-03,9.564227418314074150e-03,4.805109649896621704e-02
3.293561146973837950e-01,3.482731971360545353e-01,3.197981016852056713e-01,-4.959043432895866854e-02,5.618426176324758242e-02,4.856455941719873409e-02,1.566946655511856079e-01
4.080339166988224964e-01,4.391061788663619403e-01,5.118420323980266140e-01,-8.907233131032785828e-03,8.314054786478356808e-04,-4.988768157015267086e-04,9.357827901840209961e-02
3.848099543191613181e-01,3.959089330065195811e-01,4.721986850404167324e-01,-1.133826040819275148e-02,-2.468376435894576067e-03,-2.808725214129924493e-03,8.495684713125228882e-02
3.987453187382562492e-01,4.200613662980670626e-01,4.138547434797152924e-01,-7.722504820584591423e-03,3.999156725857750880e-03,6.764864422274641242e-03,2.692167460918426514e-02
5.689223994663997752e-01,6.586484032586454873e-01,5.101848122768403160e-01,-4.775039821675619578e-02,-1.209605568192541614e-01,-5.263742267701113087e-02,2.753505408763885498e-01
5.014583259684853855e-01,2.811622852328197197e-01,4.881287757250459269e-01,-1.454181824354085131e-03,-7.862053297035759628e-03,-1.755316186554659041e-02,2.165356725454330444e-01
4.387706975815527377e-01,4.127593351278889822e-01,4.782801643583352025e-01,5.877179707289997140e-03,7.869077347329622024e-03,-3.445981374722447386e-03,5.991910398006439209e-02
4.289805542994705179e-01,4.209974821185585303e-01,4.387485629542249299e-01,-6.719976355215444633e-03,9.080795372970950144e-03,6.758837981110705009e-03,2.751407958567142487e-02
4.028064915505711885e-01,4.071917825885026931e-01,4.410993239171620006e-01,1.903327756163693957e-03,5.712858931969397834e-03,-2.264559715525070807e-03,3.797116503119468689e-02
4.433055152700910995e-01,4.256685417621575152e-01,4.187888617164592930e-01,-6.229013880684066730e-03,-4.801027802235803207e-03,-3.639465136825129499e-03,2.655217796564102173e-02
4.489833204710437231e-01,4.117508436667418614e-01,4.158754796593100989e-01,-3.675506155785759118e-03,-5.777798425269309139e-03,-4.627501091098070070e-03,3.813945129513740540e-02
6.455453783524911504e-01,6.340450768549266147e-01,4.810096027466681523e-01,-7.057887421404979156e-02,-7.425592164928547512e-02,-9.848356279605034735e-02,2.930786013603210449e-01
4.047724158786950577e-01,4.908706126494448707e-01,4.305539797980174055e-01,3.607674629765632822e-03,4.586783953978953651e-03,-6.460216965027671884e-03,7.800773531198501587e-02
4.665893424422154490e-01,4.659623297301296874e-01,3.970170685837351998e-01,-2.152507981325468486e-02,-2.404191609821879766e-02,-3.125629323685995969e-02,1.041727811098098755e-01
4.212985473501295597e-01,4.729385607567115346e-01,5.226249744335805802e-01,2.776737836636735540e-02,2.258331640805464821e-03,-4.932365362915787019e-03,1.005117148160934448e-01
4.358389475839749005e-01,3.826112303172059526e-01,4.174808241207111359e-01,-5.538705428144339096e-03,-1.898096250624530315e-02,-7.775620479168788429e-03,5.955915525555610657e-02
4.518488470117420497e-01,3.944782935078617880e-01,3.936458842891031318e-01,-3.307867081497458880e-03,-8.389090086130372020e-03,-8.093403811881092619e-03,6.148410588502883911e-02
4.268474683883423104e-01,4.836439378030121250e-01,4.529539266528918029e-01,-8.400114547911829987e-02,-1.226003121189568473e-01,-4.400159663074491162e-02,2.729361355304718018e-01
4.158102453099536966e-01,2.952068894535830879e-01,4.714525683087482655e-01,2.495336426819024650e-02,-3.861789896966548799e-03,1.928674169599228988e-03,1.620981097221374512e-01
4.441860580350853738e-01,4.147344572643362759e-01,4.270263748528903003e-01,-4.147468143274325204e-03,-9.458954792362028741e-03,-2.897180064202822380e-03,3.164920583367347717e-02
4.693858882315323777e-01,3.001598895025479052e-01,5.064975063308490011e-01,9.982199580662973193e-03,-5.105071333504197870e-04,-3.806831712293221471e-03,1.914109438657760620e-01
4.140849177479511978e-01,3.770110497166297980e-01,4.072000396192992921e-01,-7.590705947733364552e-03,-1.771170990827468025e-02,-8.330829611390368553e-03,4.988790303468704224e-02
4.927216672874947800e-01,4.140492116507349940e-01,4.187434341091691437e-01,-5.053423970134612864e-03,5.813352982418863203e-03,-8.694233888688474368e-03,7.903701812028884888e-02
4.813793450443777933e-01,2.416532000622783616e-01,4.847219632705989101e-01,4.344088615414264110e-03,3.101692518501418961e-03,-2.850932847413753350e-03,2.416422367095947266e-01
4.764856662605516657e-01,3.720918713661919286e-01,4.756466766680997882e-01,1.426548090201974241e-02,-1.546606199515741797e-02,1.339212533341220882e-02,1.125936880707740784e-01
4.423145540258117681e-01,3.196788560787298117e-01,3.631093982941329679e-01,-9.048813321238471810e-05,3.605488748231259945e-03,-2.191316092208108607e-02,1.143642216920852661e-01
4.700355230083860802e-01,3.939933641151023846e-01,3.837165447593956502e-01,1.743937377639938942e-03,-4.922678384107792874e-04,-8.184296419577389084e-03,8.294753730297088623e-02
4.812681709949351849e-01,3.962031664578686274e-01,3.991654744464570581e-01,2.649750340044750799e-03,6.871227954460693357e-04,-7.962767219551372677e-03,8.488544076681137085e-02
4.495747246431562871e-01,3.821336860170124194e-01,4.792399285966656985e-01,1.067970673939617164e-02,1.170365313568462115e-02,-3.844939444574822177e-03,9.069959074258804321e-02
5.476990731315126704e-01,4.442658733487029332e-01,4.722244333377325631e-01,-1.807131679436924055e-03,-7.099263253045690926e-03,-3.301806068020983476e-02,1.096350178122520447e-01
4.717161054050857949e-01,4.333740497845644524e-01,4.464713581662047015e-01,-1.135601499867820025e-02,-1.461130382203843815e-02,-1.828684870792968153e-02,5.630319193005561829e-02
4.636459198253499725e-01,3.400399684474483264e-01,3.924643109013383202e-01,-2.969453120944200337e-04,-5.689029808995146875e-03,-2.355247142384264344e-02,1.153616011142730713e-01
4.576809580140647205e-01,3.474475626753754653e-01,4.091753850962150385e-01,-1.482799908263062599e-02,-2.346008755694508133e-02,-1.947624487321145126e-02,1.122762933373451233e-01
4.925384660180098240e-01,4.230841309928860539e-01,4.181529189367395594e-01,2.162889543203119075e-03,1.985004631120895410e-03,-3.046304417751267719e-03,7.241830229759216309e-02
4.757822155843755008e-01,3.332987099301067957e-01,4.815678950375145706e-01,1.244037454104479287e-02,1.423659715751495608e-02,-1.160082599619581718e-02,1.504508405923843384e-01
3.376249824123492282e-01,4.402204221858894151e-01,4.875022657152454642e-01,-4.503113811977238479e-02,4.017230117206682834e-03,5.657014625526284664e-06,1.540912836790084839e-01
4.589863451431981378e-01,5.144557666775871896e-01,4.254940785988757801e-01,-8.741646668083932412e-03,-2.862339210737508549e-02,-1.452231137968262864e-02,9.683089703321456909e-02
4.270800685283802078e-01,5.634908183943118098e-01,6.694928860638118540e-01,-1.211781545131417059e-01,-3.129106406144788795e-03,-1.320725713359885423e-02,2.981765568256378174e-01
5.081125988275753125e-01,3.000973943766692686e-01,5.005179342902239537e-01,1.215534357326506811e-02,1.176778746891324855e-02,-1.972401737223339682e-02,2.092223912477493286e-01
4.885735621438672682e-01,4.369350585958896027e-01,4.059729851798867251e-01,-5.114521668873543703e-03,-2.863971156626207541e-03,-7.004990560848183001e-03,7.398859411478042603e-02
4.843788543777933220e-01,2.430176780985590645e-01,4.847079268910846617e-01,4.001899836778359011e-03,2.681704074768563335e-03,-3.038898867443066108e-03,2.417272776365280151e-01
8.013943245715984265e-01,3.621400024764523939e-01,8.704733276521741114e-01,8.230584529885280609e-02,-1.830392513827217710e-02,4.949673261369390981e-02,5.066923499107360840e-01
4.618169076621825297e-01,3.228002964006793096e-01,4.290987231450409389e-01,-6.756158543548687785e-03,-1.976864387602659742e-02,-1.229976197771581736e-02,1.327061206102371216e-01
4.708568234401498409e-01,4.170933882921361580e-01,4.007658434377051049e-01,-9.207775228654065808e-03,-4.694287322082317526e-03,-6.058884792367624263e-03,6.682446599006652832e-02
4.991471614592891126e-01,5.003173231647735086e-01,4.489077034548655254e-01,-1.949412276516184275e-02,-2.024230562721018867e-02,-2.369090466567765063e-02,8.146933466196060181e-02
3.354796484224558673e-01,4.425326605203013242e-01,5.615178052445247703e-01,-1.353628116903490830e-01,7.550660339314439751e-02,4.924553315698074890e-02,3.430800437927246094e-01
2.723701460319343237e-01,1.976771755515599471e-01,2.638435107370709076e-01,-1.614510648903479950e-01,1.728500005038524356e-01,1.930814703451491088e-01,5.335606336593627930e-01
5.436295458024399396e-01,2.041447107670347205e-01,7.717999962164445726e-01,9.116591384538047516e-02,-1.158525174056305312e-02,5.371480298063514153e-02,5.279813408851623535e-01
2.213221206649848838e-01,4.574122382149061750e-01,5.308688385218350847e-01,-5.659761209625976952e-02,2.313581389989147197e-02,4.305643926362876114e-04,2.994879186153411865e-01
4.298072086450035467e-01,3.699903572589024470e-01,4.482754093520726624e-01,-6.481591598634297603e-03,-1.658151358317788010e-02,-1.122174270967671826e-02,7.970254123210906982e-02
3.834917979587613712e-01,3.827299648088725581e-01,4.420593748094397979e-01,-1.954425126638453802e-02,-1.379179699034389049e-02,-1.312954048259298845e-02,7.555851340293884277e-02
4.138801823328669416e-01,3.846898205092768586e-01,4.287753976124335509e-01,-1.007535170180961365e-02,-1.486296756603971633e-02,-5.702155251864588631e-03,5.073013529181480408e-02
5.109016055604022055e-01,4.516439423569281186e-01,3.635359729353852543e-01,3.349361113893599765e-03,2.501860588235628458e-03,-1.120237979716265375e-02,1.300940811634063721e-01
4.070660671596042501e-01,4.054979436341223931e-01,4.678644846408691604e-01,-2.584208254372665457e-03,-1.676441637797807492e-03,-4.885634065787371021e-03,6.240448728203773499e-02
4.434511290922374949e-01,3.584271918914800903e-01,5.033180891997911521e-01,-1.433134085818792668e-02,-5.426904790965593993e-03,-2.484945647512743199e-03,1.289429664611816406e-01
3.988361390092626801e-01,4.100444708298002228e-01,4.664073059865486148e-01,-8.546441788455462485e-03,-2.387261816778357085e-03,-6.557951025013662380e-03,6.556959450244903564e-02
4.125796543890639656e-01,4.179158623123349625e-01,4.500428671807376046e-01,-3.086451240916201957e-03,-3.209232825991406145e-03,-8.145492915181930943e-03,3.860801830887794495e-02
4.025321560602385107e-01,4.345055378277011271e-01,4.767291441752385950e-01,-4.437298888300772459e-03,-1.299447968525678076e-03,-8.756229828235026491e-03,6.670315563678741455e-02
3.793662440373337663e-01,4.395553754484305409e-01,4.500162768848342543e-01,5.136630900484233722e-03,4.387700436931268530e-03,-1.397459952094287639e-02,7.130619883537292480e-02
3.731598512713152904e-01,4.458548366389722406e-01,4.064952680995621570e-01,-8.078429881784419606e-03,-1.680250173417090903e-02,-1.652603786320430701e-02,7.638441026210784912e-02
3.873989674383897519e-01,4.206909553553472847e-01,4.698756091371745769e-01,-5.094447720309118119e-03,-2.230758593815638808e-03,-1.080708877014163044e-02,7.488731294870376587e-02
4.358545800989153118e-01,4.122469415203309784e-01,4.875270369871364529e-01,-4.367171908473337777e-03,-8.735669431950627770e-03,-5.104833322322151201e-03,6.936539709568023682e-02
3.804890525442036764e-01,4.053187835933128591e-01,4.370624760380467100e-01,-5.397639910315318867e-03,-6.380716049174934125e-04,-1.312865457181243943e-02,5.493700504302978516e-02
4.133213632677264493e-01,4.373744574061571022e-01,4.877182749027403341e-01,-5.715775628850838785e-03,-4.433026821239098060e-03,-1.151729914015074165e-02,6.984902173280715942e-02
3.796746488166750644e-01,4.117762580454631394e-01,4.337014421056836766e-01,-1.148405846330430129e-02,-6.892249047780047745e-03,-1.389012571439776286e-02,5.772371590137481689e-02
3.905267095175888326e-01,4.045495082848636348e-01,4.651841203998282048e-01,-1.061186073177492264e-02,-3.693031955597438683e-03,-7.771756978410712148e-03,7.268708944320678711e-02
4.431664783155144782e-01,4.338642502207515905e-01,4.274380870665623333e-01,3.653942201576259024e-03,1.903625905820200467e-03,-1.475406607978637123e-03,1.565440557897090912e-02
4.279910660250110799e-01,4.229279024884283755e-01,4.253610993404861595e-01,3.041689041337790594e-03,3.558511280279669578e-03,-1.437837231168204557e-03,9.548987261950969696e-03
4.704343953563994707e-01,3.385684323786615213e-01,4.680020500837584474e-01,8.088061574120392408e-03,1.139667961942592012e-02,-1.071563825045408584e-02,1.341796666383743286e-01
4.170726794774917701e-01,4.108969169846944935e-01,4.307361587379199275e-01,7.929284083321774812e-03,9.782488097233484059e-03,-3.822358030357872992e-03,2.878812700510025024e-02
4.335716061194340720e-01,4.280014962210712537e-01,4.085122032313626694e-01,6.805614695032508737e-03,4.293416605337635472e-03,-4.091440898374897051e-03,2.763847447931766510e-02
4.159385541403566866e-01,4.126756547635110906e-01,4.701192232453432207e-01,2.984644342598053064e-03,2.193646838822330657e-03,-1.881565638519435866e-03,5.634500086307525635e-02
4.129599372691715176e-01,4.033557105040854740e-01,4.147303937808320407e-01,-9.455252441441398120e-03,-1.084674390216206104e-02,-1.089753817506881189e-02,3.301226347684860229e-02
3.664912380870630759e-01,4.164342099634316119e-01,4.602552915515271126e-01,-7.737131152049761193e-03,-4.821489516507859903e-03,-1.372375226940044692e-02,8.612488955259323120e-02
4.127932677398024608e-01,3.684456880230712050e-01,4.887894698230871304e-01,-1.568863778062835890e-02,-9.014948893041314568e-03,-5.098689643602733607e-03,1.103293970227241516e-01
4.024732848294949594e-01,3.604923548590182047e-01,4.344202018194042725e-01,-1.084847237403201332e-02,-1.888565586920259304e-02,-1.246761255599453805e-02,7.754715532064437866e-02
3.999221358027083562e-01,4.312240153616272442e-01,4.988427130743005589e-01,-3.033023105080532786e-02,-1.660184071283261550e-02,-1.118518380857210469e-02,1.078454703092575073e-01
6.055287857727711387e-01,5.929477998391984306e-01,6.230520358368207834e-01,-9.566108551982006880e-02,-8.995303335478578577e-02,-6.736250313048422478e-02,2.569566071033477783e-01
4.110841314421505022e-01,4.415105830206864646e-01,4.980516624898764233e-01,-6.278124888967376305e-02,-9.164751163608114704e-02,-8.073319103899999349e-02,2.498375624418258667e-01
3.055875241742009307e-01,5.017312718308583053e-01,5.085667576777983534e-01,6.384593543580885204e-03,-2.169624627769976832e-02,9.477627460788513869e-03,2.041170746088027954e-01
2.929631435946148388e-01,4.336375694745916443e-01,4.457141772440393335e-01,7.536503334003168131e-02,-1.003721538514633221e-01,3.720666080314716934e-02,2.702783644199371338e-01
4.483077355645584960e-01,6.539244651700741873e-01,5.822197493954318626e-01,5.320265892094887261e-02,-8.956428859447004842e-02,4.203451390253493819e-02,2.655817568302154541e-01
4.784641782749465833e-01,4.272525535744061687e-01,4.137148809510791114e-01,6.134783449665753841e-03,5.864594604042581245e-04,-3.839960003815557580e-03,6.047610938549041748e-02
3.223922928416820266e-01,4.910615915256290598e-01,4.373495803266931881e-01,1.858698849798736362e-03,-2.624479681340594756e-02,4.475157143992037484e-03,1.562419831752777100e-01
3.332196002521701228e-01,2.658852566951745433e-01,3.374491254836716747e-01,1.540115831286000825e-01,1.071159702455534296e-01,-1.532020749199463350e-01,4.252404272556304932e-01
3.800217756032690519e-01,1.232498712286685949e-01,4.399701775516897673e-01,-1.313261905952255171e-01,1.530116003513657015e-02,3.863057921384319832e-02,3.766134977340698242e-01
7.891085686765679785e-01,2.501268310479884960e-01,7.684777307233663368e-01,1.325460273692034494e-02,-1.259384684634694447e-02,8.712316805190198354e-02,5.509822964668273926e-01
4.680570018742845062e-01,4.284228046278921176e-01,5.597903211244604771e-01,-7.683714576505455696e-02,2.373078065499431913e-02,-4.351926972433297833e-03,1.818784177303314209e-01
5.385681463920058976e-01,1.767883833206598254e-01,5.734987627915443253e-01,5.567309048546299072e-02,2.766641315773427437e-02,-6.904932291285374724e-02,4.130861163139343262e-01
4.861621769090531120e-01,3.883366055300679909e-01,4.528811217698379687e-01,4.500979592810035873e-03,1.371889970407741584e-02,-1.233181942384123028e-02,9.221363812685012817e-02
4.686389469963620491e-01,4.172943562276419938e-01,4.630006634019697698e-01,5.748821957082312153e-03,1.311187154341429510e-02,-7.432225651167486888e-03,5.620663985610008240e-02
3.889982306866074380e-01,4.351814021665285637e-01,4.037246225613797534e-01,7.914632223143092116e-02,7.503766600734480818e-02,-5.765542936076831215e-02,2.175464630126953125e-01
4.620328137324960505e-01,3.748257045058984716e-01,4.907690273904424250e-01,-3.461401997335880609e-02,1.314980991929309319e-02,1.042487144846771657e-02,1.240001171827316284e-01
5.108385120648206712e-01,3.788060880562393873e-01,5.112144664349497214e-01,-6.729796228758204782e-03,-1.615669814071189758e-02,-1.335269822792805108e-02,1.376089006662368774e-01
4.598003859989212017e-01,3.666377388870998288e-01,4.134811117750969434e-01,2.210384162622084769e-03,1.115776630406291325e-02,-1.125685991442014824e-02,8.531016111373901367e-02
4.433300376503935825e-01,3.784813316318068610e-01,4.768461506939978833e-01,-8.705238714801138977e-03,-8.156301003152949605e-03,-6.281634806437052035e-03,8.970762044191360474e-02
5.223461967861093846e-01,4.813648869775495331e-01,4.770154004866892228e-01,2.849125651965117231e-02,5.362352870407445515e-02,-4.694321433401500016e-02,1.398189365863800049e-01
4.292332744460904959e-01,3.070707499579855559e-01,4.653958053396797245e-01,1.907394246126072057e-02,2.217157642080789734e-02,-1.665138838840900248e-02,1.550712883472442627e-01
4.539723713228632773e-01,3.355488900447259892e-01,4.880357536480749436e-01,3.842032969258477038e-02,1.703583421390880703e-02,-3.516005208013563837e-02,1.680061072111129761e-01
4.629702293214918440e-01,3.658176689683844685e-01,5.520040460647765990e-01,9.766182711943426076e-02,2.379918405150617186e-02,-9.608186730589339530e-02,2.898678779602050781e-01
4.463964126466739568e-01,4.438735419055533926e-01,4.283261100827336909e-01,-5.852757818810425811e-03,-2.513425206998506998e-03,-3.160246051819217989e-03,2.095207385718822479e-02
3.294661199469174906e-01,1.818916835704767199e-01,2.552344721794344018e-01,7.949089234222551925e-02,5.928660431252209123e-02,-1.266957891068709874e-01,3.065786063671112061e-01
4.240866552526386113e-01,4.157466044559174345e-01,4.760423683552107432e-01,-1.565352613239485990e-03,-4.282370933069813874e-03,-1.889766484815263645e-03,5.723064392805099487e-02
4.534004989323231483e-01,3.582735122293336238e-01,4.452089933582678016e-01,2.285483952273708458e-02,2.058608538785270184e-02,-6.628635836931803284e-03,1.063354089856147766e-01
4.406873513752676552e-01,4.146517581919269002e-01,4.611757652241459393e-01,2.247159644300016426e-02,-1.462538811771732332e-02,1.543763112952191603e-02,6.710171699523925781e-02
1.892401603269794619e-01,2.281792997213847873e-01,3.826656026065523575e-01,-1.159159650923066581e-01,4.153886887695831809e-02,4.566012624620013199e-02,2.883372008800506592e-01
4.570894959723905693e-01,3.846259344589526008e-01,5.100045305346502245e-01,-9.947774226276536944e-03,-1.069309224552862821e-02,-6.727226796559327392e-03,1.125213280320167542e-01
4.385053634482315443e-01,4.172497399760927705e-01,4.606187203839884337e-01,-1.582378033710478372e-03,-1.303628081088349308e-02,-2.748736484573281562e-03,4.416840150952339172e-02
4.193776428352999353e-01,4.220542525923881017e-01,4.425656999915427159e-01,-1.084196999599854657e-03,-1.216319115810416806e-03,-4.396428126053271088e-03,2.342510037124156952e-02
4.429662487784219449e-01,4.117956921205091492e-01,5.077356622357043214e-01,2.990084465013496950e-02,-7.287420960538544719e-03,-3.755318061093993582e-04,1.001374199986457825e-01
4.204954873204811983e-01,3.732640247791012555e-01,4.788015312310495153e-01,2.247682624564322634e-02,-4.767095793435518298e-04,7.867803211134775931e-03,1.004305630922317505e-01
4.299163398720231566e-01,4.163924370715257339e-01,4.785464544220449090e-01,4.359904012405645471e-03,-7.023533465850527631e-03,4.287515460015249406e-03,5.886949598789215088e-02
4.246796582794408748e-01,4.223783469522587875e-01,4.575565132038780236e-01,2.705212672063167512e-03,1.349412658070218464e-03,-2.444555843900139171e-03,3.474461659789085388e-02
4.426405904202302954e-01,4.502499233228807740e-01,4.353610658834408120e-01,7.622692320096845220e-03,6.971046095805342666e-03,-1.008635573633352191e-02,2.813524939119815826e-02
4.850509056135667296e-01,2.829549742025168069e-01,5.522161774610697682e-01,-1.309152227746007979e-01,-5.325159882832040861e-04,-4.602488053021538961e-02,3.416136205196380615e-01
4.720863393074331005e-01,2.328945000007415500e-01,6.233190201626249705e-01,-1.171877036699236208e-01,8.621644871461324466e-03,3.139546539159099314e-02,4.007949233055114746e-01
4.230580447511232411e-01,4.381626083523257886e-01,4.237080366956317845e-01,1.994703956846826613e-03,-4.052954953062802177e-04,-6.103727764835138563e-04,1.524137426167726517e-02
4.023780972955128266e-01,4.093321341940560631e-01,4.441690884381623294e-01,6.215122436725395655e-04,1.775036847016631765e-03,-2.212630119841337527e-03,3.910917788743972778e-02
5.757194227566511113e-01,3.365763376768303727e-01,5.298981677863425777e-01,1.119871718358923102e-02,-5.252652373449785694e-02,-6.593313333883978056e-02,2.646243274211883545e-01
5.301104546737118728e-01,3.020852355133620271e-01,5.833643022813206347e-01,-4.814464328770402812e-02,7.665661695780606570e-03,-3.267454813288334786e-02,2.780424058437347412e-01
4.029028854632089596e-01,4.364476998429499544e-01,4.995507909995371976e-01,6.155785015282353931e-03,8.201455882978249401e-04,1.641933046862210878e-03,8.571944385766983032e-02
3.551151482247056901e-01,7.569029846868693956e-02,4.259597891152374083e-01,-1.360656785578855665e-01,4.677712844379511292e-03,5.486116810085159192e-04,3.981219828128814697e-01
4.836254713596453980e-01,4.031941914544701078e-01,4.130859749074557996e-01,1.172956582765502694e-03,2.979312013777477008e-03,-1.501477871054219572e-02,8.048923313617706299e-02
4.267319281117016305e-01,4.367132887081731085e-01,4.095209247498013405e-01,1.046690653124180206e-02,9.442962141586021610e-03,-9.062415847053400392e-03,3.755255788564682007e-02
4.521760487137587159e-01,4.302112962832984056e-01,4.166336172773669744e-01,8.378896076723136785e-03,3.401680305975467427e-03,-1.617817272801149635e-03,3.490298241376876831e-02
4.328173736046975195e-01,3.950560066115336166e-01,4.504371253709224532e-01,5.153927475565909556e-03,1.495729020713691161e-02,-6.021618658885666796e-03,5.710825324058532715e-02
5.023688615924091216e-01,4.225151532061971471e-01,4.372032510671391980e-01,1.070077734481216306e-02,7.311085225769084137e-03,-2.773954030737670745e-02,9.072914719581604004e-02
4.933026009263176692e-01,4.123466045831954974e-01,3.564353366410267787e-01,9.151785469019096952e-03,3.601468812762556940e-03,-1.795245076428540407e-02,1.243516951799392700e-01
7.278973263705520447e-01,2.971632786297945250e-01,2.084324178637532443e-01,-3.956546909570794111e-05,1.211200835523269098e-01,-2.312334546693523563e-01,6.603342890739440918e-01
4.979027051965441708e-01,4.180682226609866992e-01,4.287138778004937478e-01,4.821283149043040055e-03,4.684386440484361244e-03,-1.191835379117723442e-02,7.873176038265228271e-02
5.724206058218361814e-01,4.276501200530060109e-01,5.223172648703120480e-01,-2.422695042555463030e-02,-1.914060591531148089e-02,-4.312238971337636895e-02,1.570156067609786987e-01
4.658301461318761216e-01,4.053398274875199547e-01,4.045764176625919473e-01,4.651595250056651289e-03,9.360681308691455246e-03,-2.185940367815854529e-03,6.362354010343551636e-02
4.647189459253494581e-01,3.974317515390184408e-01,4.098908839456590902e-01,3.806390103399781132e-03,9.009232975972452859e-03,-7.187664763314491334e-03,6.547067314386367798e-02
4.868139535907192728e-01,3.598730990157790743e-01,4.406940450509854723e-01,1.252090818779792638e-04,8.704627501384114285e-03,-1.269274724362265405e-02,1.144430115818977356e-01
4.902465924592320778e-01,3.840447803783599845e-01,4.224339867894756351e-01,6.978372553127614722e-04,2.201971337704129901e-03,-7.204619552685429321e-03,9.405997395515441895e-02
4.801659281251410283e-01,3.855788614244233248e-01,4.520525843001015343e-01,5.231957053451955289e-03,1.452848496903172935e-02,-1.198821553969592682e-02,9.068857133388519287e-02
4.656358990346835536e-01,4.053256042250305002e-01,3.996480141399095798e-01,2.159338401657354307e-03,5.152086238095241822e-04,-2.102313825355384049e-03,6.356120854616165161e-02
4.723194075607521913e-01,4.024479677294996449e-01,4.337707853328710561e-01,-3.966107649578361205e-02,5.078571974628749708e-02,5.447655530866637313e-02,1.582220643758773804e-01
4.903062561251415596e-01,4.166080533012760378e-01,4.156035642916031669e-01,2.943572388707506923e-03,2.888847056881780912e-03,-4.524097367496118967e-03,7.495929300785064697e-02
3.966905609215633510e-01,4.700725844821798116e-01,3.258639445888870112e-01,-2.575156671112356979e-02,9.991769649872891956e-02,4.579137782433598952e-02,2.320115268230438232e-01
4.257015083188883109e-01,3.939146568154156536e-01,4.793126996861319933e-01,5.352773566752465177e-03,6.261609285471679727e-03,-5.635699205133464992e-03,7.673042267560958862e-02
4.023314252479164854e-01,3.692983025936776853e-01,4.208868238981271492e-01,1.449005827885394872e-02,-1.636841901682083503e-02,9.777766321582739839e-03,6.139143183827400208e-02
3.812044123403678375e-01,3.382444845139984668e-01,4.309339543430790176e-01,2.030479292648213266e-02,-1.355094552008715911e-02,7.214276901253771634e-03,9.164516627788543701e-02
4.319275870382877081e-01,4.388506992488415692e-01,4.482485427733313710e-01,1.287648813436000376e-03,2.649539995039021031e-03,-2.707361154175274686e-03,1.579034514725208282e-02
4.356883871778230999e-01,4.363415660204831292e-01,4.770983111556074130e-01,-6.385672074772918115e-03,-1.088082531952549656e-02,-8.002133955353500985e-03,4.855687543749809265e-02
9.377923920581432427e-01,8.264629366067297589e-01,5.892778877809929927e-01,-4.878494754090914598e-02,-3.324086712831352680e-02,-2.059936254679279877e-01,4.825055301189422607e-01
5.021184156170478419e-01,4.292117248526104989e-01,4.315420983438830738e-01,4.129471102908958274e-03,1.742898093659969207e-03,-1.177230031571255796e-02,7.501298934221267700e-02
4.731174176797227071e-01,4.123565656256249490e-01,4.184224145904933412e-01,-3.773904474009915429e-04,-4.034322990392334024e-03,-1.729767538695004729e-03,5.846657603979110718e-02
4.082772638855861613e-01,4.454009772057721528e-01,3.677273465689239185e-01,-1.563854880765148947e-02,-1.234060352518861342e-02,-5.931759610934072419e-03,7.631481438875198364e-02
4.864290385972809272e-01,4.219877992365393959e-01,4.191352478668073367e-01,4.542994393258861958e-03,4.751070624796760314e-05,-2.724372568215524624e-03,6.654939800500869751e-02
4.744590020629287919e-01,3.870884237307460340e-01,4.009922391021341070e-01,8.186637744597113865e-04,2.507793972708170002e-03,-6.273977354480935950e-03,8.216517418622970581e-02
4.965453407449209600e-01,3.922673375736951407e-01,4.018435075591617611e-01,8.675920878023180797e-04,-1.377581822369795470e-02,-3.632061889043572411e-02,1.204000040888786316e-01
4.272864604327801796e-01,4.481261334047264011e-01,4.221767194437926474e-01,-5.454675183142000672e-03,-4.470711318126414577e-03,-6.747823450242451844e-03,2.920117042958736420e-02
4.568072485738860489e-01,4.167175938213911190e-01,4.385076780827520393e-01,-3.947507205659967627e-04,-1.323396418319145590e-02,-1.814059804943049959e-03,4.176343604922294617e-02
4.173376078343828399e-01,4.033642688530578169e-01,4.468876649957932434e-01,-3.445656146495638603e-03,-9.099838072008677517e-03,-2.685404058408781460e-03,4.227346554398536682e-02
4.853672744651443827e-01,4.256359059608925688e-01,3.950466465090919366e-01,-9.539555971782973445e-03,-3.031710255373977134e-03,-5.819147826856113301e-03,8.205393701791763306e-02
4.164740871056291649e-01,4.179257483529880135e-01,4.674748452078295036e-01,-1.220776927730497265e-02,-7.576486175742887588e-03,-6.907937280253119601e-03,5.737251788377761841e-02
3.314653692324922019e-01,2.435697936794069540e-01,3.980137986286955143e-01,-1.575423011195682399e-01,9.079879714375696520e-02,1.308599828974633672e-01,4.105710983276367188e-01
3.213716855851688758e-01,2.563284131026858370e-01,4.987139175301890104e-01,-1.842417177907171855e-01,4.202429543410310386e-02,5.703404442937616559e-02,4.051019847393035889e-01
4.323232280144806428e-01,4.326394627411873084e-01,4.367627975298314924e-01,-5.129647714035427989e-04,-2.663052997381583960e-03,-1.344942888710959437e-03,6.774762179702520370e-03
4.169311759804621431e-01,4.271937603743346523e-01,4.278746140728470482e-01,-1.576775018941918224e-03,-3.733096256457955550e-03,-9.401650743290027729e-03,2.066909149289131165e-02
4.607186224671265817e-01,2.044293236312619555e-01,4.387483871530801771e-01,-1.065256625199869078e-01,6.592887527291976801e-02,1.429215292202043741e-01,4.109730422496795654e-01
4.065327271504622364e-01,3.836981671787526027e-02,7.112333510211907850e-01,-1.485185637493315891e-01,-6.517724296523227934e-02,6.061202453948453389e-02,6.561286449432373047e-01
3.939938815101938774e-01,4.257969504346435508e-01,4.640611106382099282e-01,5.325057995648548211e-03,2.648264365004240808e-03,-8.499120680127576419e-03,6.336649507284164429e-02
4.143020898067009128e-01,4.197302383446054330e-01,4.330749656947274207e-01,2.758722266023519963e-03,5.695477692534776058e-03,-1.881791812070098512e-03,2.026707120239734650e-02
5.612855421307896275e-01,3.563560397717316919e-01,6.270916024757958729e-01,-3.701920119540244580e-02,-4.857436275459326054e-03,1.990560829789341998e-02,2.553094029426574707e-01
4.424509798709854169e-01,4.063006180281510393e-01,5.159552352280658560e-01,-2.832397212085397201e-02,-1.741465708472243962e-03,-1.627796102959973984e-02,1.121502816677093506e-01
4.300876077403247844e-01,4.152231552424316408e-01,4.132714527807729299e-01,2.485357354210611901e-03,4.945085891718349440e-03,-2.912898041964651942e-03,1.926446519792079926e-02
4.475158625750178532e-01,4.445955513610225229e-01,5.665527854263451291e-01,-6.601788373338771110e-02,1.293889765748490808e-02,2.206973401554353925e-02,1.719432771205902100e-01
4.291667093316974824e-01,4.311263280230528405e-01,4.080337348666003283e-01,6.679203910741567107e-03,2.881303868315277742e-03,-2.788233290398313240e-03,2.595995180308818817e-02
4.377775317737483962e-01,4.347553396599948550e-01,4.478355377271395765e-01,2.719104568128346416e-03,1.395080326938568380e-03,-1.854770164556548886e-03,1.338036637753248215e-02
3.327440538298821471e-01,3.840427976121562059e-01,4.575404801344993277e-01,-1.829773561485647723e-02,-4.332592703182875906e-05,4.180752324925486943e-03,1.134049072861671448e-01
4.008775120953150806e-01,4.119436935055658111e-01,4.931533583899044282e-01,-9.734504267181908269e-03,8.356279358453676991e-04,-1.641602991212227865e-05,8.889616280794143677e-02
4.034322205770825009e-01,4.334975558495599568e-01,5.018218032825350061e-01,-5.630357162322371586e-03,-7.858832186044327570e-04,3.221084252000423927e-03,8.805907517671585083e-02
3.066372231429975725e-01,2.520005887407676948e-01,4.492175630575746537e-01,-1.448434083681284512e-01,-1.705935565893107464e-02,-4.658730519744616952e-03,3.081905841827392578e-01
4.276955253810506008e-01,4.286055370439166290e-01,4.879760396360485752e-01,-1.119192239501023978e-02,-6.790467738343502341e-03,-7.688857985974829889e-03,6.535424292087554932e-02
3.892890611100786047e-01,2.874175678157411817e-01,4.306059319680243802e-01,2.662473766122984073e-02,1.470177245305451415e-02,-8.101015660483171232e-03,1.388014107942581177e-01
4.363768838391018368e-01,4.400134580694834430e-01,4.500646824486440045e-01,-4.114405902047639507e-03,-6.327474243961783533e-03,-8.301189986132729778e-03,2.298757992684841156e-02
4.587212890031575063e-01,4.135197951755246182e-01,3.582049312594023371e-01,1.574417874485246893e-02,5.022959947313007135e-03,-1.280154410775864379e-02,9.441498667001724243e-02
2.522210172100499137e-01,-2.015745623157122468e-03,2.688506006083668520e-01,-2.098971334378192943e-01,1.057437074709064867e-01,1.791440006758263648e-01,5.754424929618835449e-01
4.438118406192424481e-01,4.146112641947859445e-01,4.086150669244815736e-01,1.906728820062296610e-03,5.181243189590648175e-03,-1.724958321743728625e-03,3.411875665187835693e-02
3.734810242285666049e-01,4.190702563584920992e-01,4.591033283227683448e-01,-8.072575700435891816e-03,-3.932696517756765694e-03,-1.378223065052748553e-02,7.948490232229232788e-02
4.793078370604752503e-01,4.063464864654716679e-01,3.960899520831396847e-01,2.967272941658372770e-03,2.916351262037826953e-03,-6.198083290168241929e-03,7.964963465929031372e-02
3.451887929835507629e-01,4.660473531671801561e-01,4.509005403902766052e-01,8.365316123538798360e-03,1.378373001861349194e-02,-1.995004192512860389e-02,1.223908364772796631e-01
4.120101529758014025e-01,5.631110221556693274e-01,4.854254330025983277e-01,1.464424720232291796e-02,5.449453794239886295e-02,-1.986715369324831837e-02,1.669269353151321411e-01
4.758025997578195776e-01,4.003838541786350347e-01,4.230005613989577529e-01,4.208654191670932639e-03,1.019551594913126365e-02,-8.917240269590820043e-03,7.139547914266586304e-02
4.654979295804101969e-01,4.024344920508350909e-01,4.071023296007517667e-01,1.047600186445430152e-03,3.983958155684418599e-03,-4.635143645005574548e-03,6.180435046553611755e-02
4.499433745160502651e-01,3.327299095909712623e-01,5.083503307873523669e-01,-2.288271765150547837e-02,6.966067195937886408e-04,2.447713226078776158e-03,1.599585413932800293e-01
4.165223892477259438e-01,4.124992520531327589e-01,4.158344865102967525e-01,5.272636452552425905e-03,8.103742536394082513e-03,-3.860625906255250872e-03,1.841245777904987335e-02
4.194138865602168864e-01,4.016864006831728506e-01,3.944055960048578613e-01,1.350119299394347654e-02,1.535528722819606839e-02,-1.304041275989123623e-02,4.754684492945671082e-02
3.888041327236506639e-01,4.741421338123599227e-01,3.988257157426929322e-01,-1.697711385228414891e-03,9.639136350410602849e-03,3.240372397770465915e-03,8.274460583925247192e-02
3.980058877288473740e-01,4.903242775665525022e-01,4.082489116274760077e-01,3.062448836391182066e-04,9.941168863034711631e-03,1.793114732005434515e-03,8.937781304121017456e-02
4.236691047463213011e-01,4.874314024394418854e-01,4.181816922505197098e-01,-5.142420264265251152e-03,1.536682188105102827e-02,4.403127994644872277e-03,7.274301350116729736e-02
4.750742454163455752e-01,4.288149304695627606e-01,3.861117287090192196e-01,1.020238595636134907e-02,9.894809034754365254e-03,-1.737581872601932226e-02,8.631716668605804443e-02
3.747992609768853733e-01,3.809397458244567214e-01,3.377164555239469679e-01,2.602018062709297169e-02,2.476536038570323686e-02,-2.509096371422603333e-02,8.602519333362579346e-02
4.441175312100987260e-01,4.056328525532066909e-01,4.110852863803544088e-01,-2.313122463099317495e-03,-6.321774126176100440e-03,-3.878665522604917131e-03,3.849730640649795532e-02
4.917535044052127602e-01,4.171359715015083847e-01,4.412823279682909217e-01,-4.342138450634763606e-03,-1.144365946664631026e-02,-4.654419596992058136e-03,6.973884254693984985e-02
4.504119081478887288e-01,5.327111180890722331e-01,4.274122741002955861e-01,-1.406521082580891330e-03,3.383186770614134142e-02,5.924343315029863624e-03,1.128716468811035156e-01
4.267656071262836415e-01,4.193177450145008645e-01,4.547989418802005357e-01,4.717968374299435531e-03,9.332141001297502431e-03,-3.079953224255310359e-03,3.750506043434143066e-02
4.614873391309011197e-01,4.205931230880921023e-01,3.733856489795405187e-01,-1.019674541503215459e-02,-3.519329487744998330e-03,-8.763715014806765236e-03,8.006797730922698975e-02
4.243194597966474246e-01,4.299110473957658551e-01,4.316262535992242966e-01,-1.446036557816221535e-03,-2.980875041375983386e-03,-4.992977836244525021e-03,1.230926066637039185e-02
3.522979115697258967e-01,4.789730144186409300e-01,4.917989278520731866e-01,-1.142175821049477430e-01,4.802434066427299642e-02,4.570482405630092726e-02,2.648746669292449951e-01
3.985238563274265400e-01,4.961041040314796979e-01,4.259134157837129453e-01,-1.048948015826966758e-03,2.878185126085374551e-02,-2.661933154855468300e-04,1.004395857453346252e-01
4.770083839519138058e-01,4.264379935152766143e-01,3.912099461613086637e-01,-9.358363082040859968e-03,1.871952726596860447e-03,-5.156428391628149407e-03,7.702526450157165527e-02
4.669569951834035559e-01,3.974806578800690327e-01,4.169739534763182154e-01,-3.171320936724039089e-03,-5.865542499483856684e-03,-5.781463411205896297e-03,6.392408907413482666e-02
4.479062904374062071e-01,4.060572047552911124e-01,4.206401559992860029e-01,-3.987825403101198109e-04,-1.021442134514492957e-02,-1.832587373244934197e-03,4.095461592078208923e-02
4.401485990661392900e-01,4.195923281117367454e-01,4.334021233218241509e-01,-3.896188709838717726e-04,-9.734043576065727621e-03,-9.058284950349269112e-05,2.478159964084625244e-02
4.452650542995215122e-01,4.961659914201437815e-01,4.092298809960521200e-01,-1.011948024240061708e-02,2.749914179049497628e-02,6.045999010922579499e-03,9.170139580965042114e-02
3.581927470899302635e-01,4.394577283958475689e-01,3.033749903920949231e-01,1.294280495308551852e-03,2.092508189353612172e-02,-1.306366090791187930e-03,1.240462437272071838e-01
7.483690035136104646e-01,7.665202662687579105e-01,7.965018116963177297e-01,1.637032807911412147e-01,1.117179949904764380e-01,-1.075732876474380789e-01,3.928455412387847900e-01
4.341112936569790359e-01,4.313244213134017624e-01,4.427188646457201338e-01,2.415808238106051831e-04,-3.583993024921993016e-03,-1.209435545400622258e-03,1.220423914492130280e-02
4.489488670395780368e-01,4.408114371365124406e-01,4.371427571042219573e-01,-9.023944211607652459e-05,-2.749400573538105831e-03,-2.160953729346261083e-03,1.209304761141538620e-02
7.355306205304162903e-01,4.836136074336046531e-01,2.981688429990461686e-01,-1.232228751177315007e-01,-1.923260019292814121e-02,-2.094862505685739507e-01,5.682283043861389160e-01
9.021277876991922184e-01,4.831833005147097571e-01,9.523442220472980724e-01,-7.566992052493044796e-02,2.370760250459643878e-02,6.527074875467682447e-02,4.803320169448852539e-01
4.167453722062901544e-01,4.918788398345069757e-01,4.140961430627325690e-01,-1.685899989898461413e-03,1.298691549813405822e-02,-1.882582710453165747e-03,7.985136657953262329e-02
4.293504229484166324e-01,5.092099390001028070e-01,4.285594713970044545e-01,-1.648009508700309716e-03,1.288377273895967290e-02,1.796070206116564009e-03,8.340942859649658203e-02
4.406915874119017862e-01,4.341072546370851049e-01,4.232203961816887738e-01,8.897682599438468121e-03,7.926028110231140081e-04,-2.357002785405609441e-03,2.212729305028915405e-02
4.549296785137026400e-01,4.168340191996678379e-01,4.206388716830660179e-01,3.335870095610466053e-03,1.682398049698371600e-03,-4.302282989740440909e-04,3.692205995321273804e-02
4.387102150366439246e-01,4.879213739025348717e-01,3.878596571430557582e-01,1.335836732741036911e-02,2.725302088607929260e-02,-6.301290851963810453e-03,1.019439548254013062e-01
4.387259358847316881e-01,4.552913973567762618e-01,4.170629025464391293e-01,1.123461911770728960e-02,2.110886000415422657e-03,-1.296987782223335030e-03,3.872497379779815674e-02
3.957963938355784084e-01,4.958607865229467393e-01,4.259457244894587769e-01,2.507725382610825329e-04,4.454157185069014188e-03,1.682613907547554155e-03,8.929272741079330444e-02
6.441099519452115896e-01,5.058467556393135833e-01,4.642091660806944575e-01,5.334087515998423186e-03,3.959368336101436875e-02,-1.460421893588821907e-01,3.088375627994537354e-01
4.159209075987296278e-01,4.281793787555398523e-01,4.294060844718328163e-01,4.608629457818370391e-03,3.202974211031634801e-03,-1.010617668667139826e-02,2.382671646773815155e-02
4.347028734487674018e-01,4.437586931156575210e-01,4.353447879598925097e-01,2.380404500623797218e-03,5.570011225351644175e-04,-4.446219654630585369e-04,9.753443300724029541e-03
3.105364061704277145e-01,4.838733697453897475e-01,4.550983923256644026e-01,2.033120041317226095e-02,4.316300364772782810e-02,-1.991877694958875400e-02,1.841342300176620483e-01
4.048654663790677843e-01,4.843598892805557332e-01,4.095083740794319693e-01,1.698849903124927921e-04,3.321658304214927023e-03,-1.963200832670730124e-03,7.756663858890533447e-02
4.014986615917007784e-01,4.822601364176185013e-01,4.164908648004534975e-01,-3.253060301303354988e-03,7.742078803044192235e-03,9.523000952954340653e-03,7.758878171443939209e-02
3.993593705634868041e-01,4.748769260947832693e-01,4.002528736810951893e-01,1.450000228782883814e-03,6.565670681192642888e-04,1.351351697225098496e-04,7.512576133012771606e-02
4.170432516201376116e-01,4.721473627846454191e-01,3.709238003246030368e-01,-1.065506460739264714e-02,6.342383559848140985e-03,5.712702328720422468e-03,9.090661257505416870e-02
3.693599579985217263e-01,4.706907855971962373e-01,4.087461410733878031e-01,5.780465414419968433e-04,4.620185683837720568e-03,-4.625818574969953016e-03,8.920431137084960938e-02
3.482442998876352780e-01,4.802176547207970825e-01,3.976836261425634178e-01,1.355266511336697529e-03,1.544358777084197352e-02,5.295436888045098982e-03,1.189188286662101746e-01
3.925949045189740527e-01,4.419636453747277094e-01,4.237313489646465370e-01,3.532969820724478349e-03,5.529998686562888517e-03,-1.447530291455982956e-02,5.125792697072029114e-02
4.687163877079337793e-01,3.690760172206162815e-01,4.069058350345162167e-01,-1.451328891719234904e-03,6.643699986681901419e-03,-6.995261077591961515e-03,8.874377608299255371e-02
5.923074820353485537e-01,5.698075167107437000e-01,3.193986503437080127e-01,-7.290459510037155524e-04,8.391148382446132759e-02,-8.251273721471887035e-02,3.322575688362121582e-01
4.121051333977924225e-01,4.909429294419548340e-01,4.199806401094305919e-01,3.053338224524664002e-04,-2.550597387066174402e-04,3.154220099245822612e-03,7.541124522686004639e-02
3.322709515610631770e-01,4.422318326505427777e-01,3.777450070889837308e-01,-1.886782494169983839e-03,1.536631704581227324e-02,8.029984905309843143e-03,1.003564223647117615e-01
2.421489923849997061e-01,5.638747043153745642e-01,2.869188137276562633e-01,7.555781432975280931e-02,2.412440611747630470e-01,-4.432462332320578208e-02,5.373315811157226562e-01
5.787321550450003071e-01,6.779113301695773863e-01,6.022230678859674669e-01,6.437734744923710728e-02,-1.396884865751744365e-01,7.114688373570614288e-02,3.069464266300201416e-01
3.886225774898831586e-01,4.589666608376950507e-01,3.906717338220732083e-01,8.474681664527259142e-03,7.770587554705765503e-03,-3.998320687733015154e-03,7.247696071863174438e-02
3.636569521884616130e-01,5.050865798826449371e-01,4.364772805617139761e-01,-1.444446789143000696e-02,6.470076733519003476e-02,1.783533675812460501e-02,1.707190126180648804e-01
6.768826468157778109e-01,4.555625701602745159e-01,3.483132509118567199e-01,-9.152144822984209505e-02,-1.281678432047096000e-02,2.091617047445044619e-01,4.910077452659606934e-01
4.075480064749533726e-01,4.832422308130147615e-01,4.143408284163733746e-01,-3.086766308661051481e-03,-6.455549007343273004e-04,-2.457223422947104013e-04,7.274335622787475586e-02
4.261449203339517378e-01,4.294979920936573548e-01,3.352579717824440420e-01,2.705677716044921008e-02,-2.018026932492951800e-02,2.293207453668448526e-02,1.164989620447158813e-01
5.253955776014741508e-01,4.561604919790908652e-01,4.204730593178259701e-01,1.847465221668172708e-03,5.307615151979622366e-04,2.455430127645338509e-02,1.017729714512825012e-01
3.907845252187097662e-01,4.733232675731693928e-01,4.038613957381781416e-01,-1.973622774897407055e-03,7.950629591346130773e-03,3.780535201987410103e-03,7.841237634420394897e-02
4.483712122512460985e-01,4.116338466013537145e-01,4.119029871145259980e-01,-1.598518489837073625e-03,5.213297363338309509e-03,3.639633281559983852e-03,3.832441568374633789e-02
4.353045992929243102e-01,4.062845384878417954e-01,2.692431656632017778e-01,3.391736445837705699e-02,-4.245356440144196913e-02,8.131843560862514475e-02,2.286822944879531860e-01
5.009552925209804775e-01,5.313035027856713999e-01,3.864853507878620587e-01,6.037751245482904892e-03,2.463834172867624892e-02,-7.132909508242908474e-03,1.399338394403457642e-01
4.769701726920893559e-01,4.589250026603285959e-01,3.547105411600153801e-01,1.719956288282881163e-02,-7.075757911005634004e-03,2.039536620082304727e-02,1.239049509167671204e-01
4.646675120740883513e-01,3.786327724436703845e-01,3.723465356155499228e-01,6.766792288481177087e-03,-5.830210966828905730e-03,2.684131620849512442e-02,1.018972024321556091e-01
4.449867343293843480e-01,4.024108970615152825e-01,4.121828848265685630e-01,-3.467707675037742278e-03,7.213408405290950252e-03,4.733876134595285147e-03,4.185148328542709351e-02
4.355081303028550677e-01,4.113534448640094876e-01,4.075566170665381183e-01,-7.518257586387524019e-03,5.048259592357147094e-03,4.529655559211437192e-03,3.157778829336166382e-02
4.532472871417426719e-01,4.782214349219614524e-01,5.080474465870704615e-01,-2.066476551601908671e-02,1.741101687457460509e-02,1.963475192497262864e-02,7.486839592456817627e-02
4.729578419288230640e-01,4.427429302050389093e-01,3.175276824538039167e-01,2.812670048888095409e-02,-1.361142999778005604e-02,2.742913382329537422e-02,1.598792821168899536e-01
3.830154172857702655e-01,4.379873942822088417e-01,4.804257416950007409e-01,3.642371745749240636e-02,-2.699573928270352155e-02,3.608164791717236725e-02,1.312550157308578491e-01
3.983167262642226536e-01,4.155732883641233832e-01,4.803102723521138762e-01,8.300837856861592243e-03,-3.334048388051353683e-03,7.704974674572243401e-03,7.761419564485549927e-02
4.046632157684741382e-01,4.442884349405309963e-01,4.105727135231069802e-01,-6.644346628228314615e-03,2.080370591785815019e-03,1.291540914515009169e-03,3.900442272424697876e-02
4.262065001082729898e-01,4.285743917897256172e-01,4.279134745342016988e-01,-1.222293356523884147e-03,1.218763365653679305e-03,1.514480174391651416e-03,4.505313467234373093e-03
4.004066625550166680e-01,4.158232453442488596e-01,4.547256861661281846e-01,6.120119246085072712e-03,-4.836166603662961014e-03,8.440702963413673071e-03,5.241262540221214294e-02
4.450847715649235425e-01,4.641268554144746816e-01,4.226500995103905645e-01,-8.410658749319645938e-03,4.968397453389207519e-03,3.936250057118274165e-03,4.032211750745773315e-02
5.239104502445566247e-01,4.978821147575784867e-01,3.561018582283892453e-01,1.923868333880050241e-01,-1.043973946330402081e-01,1.523063023704656904e-01,4.876428842544555664e-01
4.311483849064150498e-01,4.244499455916240227e-01,4.271837590150039388e-01,-3.342790254382274140e-04,2.853678142275385601e-03,8.714680710549765983e-04,7.815022021532058716e-03
4.628065237732729154e-01,4.860890286817096673e-01,3.338155870405384307e-01,2.612216561555708721e-02,-6.209331605598205489e-02,5.264661290473179184e-02,2.052140533924102783e-01
4.291929730764054707e-01,4.342785485966320635e-01,4.313714648428761955e-01,-3.324431134395174764e-03,5.488572267026108412e-03,4.240494521576865065e-03,1.403581909835338593e-02
4.256529376093325379e-01,4.101428552531034555e-01,4.252732105307143740e-01,-3.945919833398224552e-03,9.966350532834285930e-03,3.753962063075317549e-03,2.493570186197757721e-02
4.134523574691775782e-01,4.288382835649810487e-01,4.180237771873493435e-01,-5.646451314210571004e-03,5.021080531339523409e-04,1.860580283133835304e-03,1.714869961142539978e-02
4.140870965582432173e-01,4.326442292874355111e-01,3.797540155432243547e-01,-1.451287341089225850e-02,1.069777193551347226e-02,5.399364142982624251e-03,5.677065998315811157e-02
4.903268654314190123e-01,3.824077709374163470e-01,4.186974778692938992e-01,-1.714111195105080462e-03,-4.775534538697585353e-03,-7.360690807379530881e-03,9.636852145195007324e-02
4.540484942885730790e-01,4.342572816606710129e-01,4.110716188363865431e-01,1.096726641348283980e-02,2.554667536789518266e-03,-5.152705375075832851e-03,4.299084097146987915e-02
4.374139225379807816e-01,4.728787572663831762e-01,4.132738194577856294e-01,-1.422505228688595268e-02,2.076092297223692748e-02,1.144543884859042064e-02,7.063796371221542358e-02
4.028948754465999649e-01,4.519778447994190484e-01,4.018173273826411984e-01,-6.858318667846270006e-03,7.687808227133092684e-03,3.700980553889625119e-03,5.312905833125114441e-02
4.510404548679994852e-01,4.458877494332102454e-01,4.261010950710014678e-01,-1.781781524321007781e-02,1.419911622035901870e-02,1.725892596115487232e-02,5.450593307614326477e-02
3.840109108274867289e-01,4.467922715963343339e-01,3.762664171740706109e-01,-1.590605539846133218e-02,2.555513017582819110e-02,1.471384902577145375e-02,8.863057941198348999e-02
2.206842457806072466e-01,-2.605745423732266919e-02,3.626076132138824071e-01,2.127913677997284869e-01,-5.817458232196422163e-02,6.163202286492218407e-02,5.229063034057617188e-01
4.315134787020653562e-01,4.437861426797108932e-01,4.145628846038431625e-01,-1.019312155462180104e-02,1.185506822204923649e-02,1.890202651807947748e-02,4.950916022062301636e-02
4.401049311028281674e-01,4.226184896893318554e-01,4.240875995448609714e-01,1.982606677862444600e-03,1.097036108634156810e-03,-5.292831656282916478e-04,1.727678999304771423e-02
2.849604727936858595e-01,5.991126193977265313e-01,2.850117744531542319e-01,1.850985995115905433e-02,-2.371066133575284174e-01,2.020263030509290847e-01,6.251446604728698730e-01
4.779418191630344648e-01,3.978749749024697024e-01,4.114806809887108785e-01,8.926720459458149500e-05,-1.094597432256945403e-03,-4.414179747672978930e-03,7.462253421545028687e-02
4.528700607588067029e-01,4.093577005617240472e-01,4.027997007435701327e-01,8.022087160325668334e-03,3.595311768798187344e-03,-6.219065842613587594e-03,5.069080367684364319e-02
7.736490158390579852e-01,7.716591265421135493e-01,3.189016965923087699e-01,6.573726035058610750e-02,1.411354750659899737e-01,-1.565459316717797977e-01,5.934103727340698242e-01
4.973907400660558809e-01,4.085323300150083270e-01,4.387148440847605801e-01,-7.919502305462212521e-04,-3.586879961205028614e-03,-1.153294556579837968e-02,8.102059364318847656e-02
5.118462820352936982e-01,4.490630860484257636e-01,4.186178567458811450e-01,8.450572223943764519e-03,2.231275729549263894e-03,-5.636685339180391892e-03,8.428866416215896606e-02
4.218450833799670674e-01,4.332467188804021152e-01,4.092458111509851837e-01,-8.676431380073108476e-03,4.449272117439156266e-03,3.588398737024097590e-03,2.750000916421413422e-02
3.427586360330854287e-01,4.422450516010247301e-01,3.877160789684157560e-01,2.567023153641546929e-02,-4.077995930369034822e-02,2.923764455325369299e-02,1.302938312292098999e-01
3.687861900381038671e-01,4.565324637713588096e-01,4.066755187463608201e-01,6.016009408700768654e-03,-1.053528820915767411e-02,1.260633630729623630e-02,8.202850073575973511e-02
4.014745453147337551e-01,4.495460471746517972e-01,4.122231809266507230e-01,5.898191570212733478e-03,-4.529249827229561709e-03,8.333484068263336333e-03,4.779067635536193848e-02
4.900078026726852332e-01,4.662841764153813351e-01,4.451578743422210382e-01,1.790539666083224707e-02,-1.819921646901737772e-02,1.861035579733365253e-02,6.711783260107040405e-02
3.288597825571542010e-01,4.822534394284473391e-01,4.483088745662234254e-01,3.493244218350482350e-02,-3.126876041029498510e-02,2.742249305321656574e-02,1.683002561330795288e-01
4.077303824654187614e-01,4.799245739909587805e-01,4.062638518514510300e-01,3.582371314078365739e-03,1.169153276823868028e-02,-8.032367904826471020e-03,7.721502333879470825e-02
3.574417821007219165e-01,4.589539190576504279e-01,4.026240049716210967e-01,-1.487147227400757894e-02,3.321038600591627588e-02,1.189171895247782829e-02,1.102547645568847656e-01
4.337803574748267943e-01,3.947886581856252519e-01,2.589220227053440349e-01,5.304548491474325028e-02,1.181722365381343842e-01,-1.581383061689374536e-01,3.881191015243530273e-01
4.804268810770377374e-01,4.194209409633670171e-01,3.939302076838404054e-01,1.442725820601116959e-03,1.333479149680345474e-04,-7.227675985315777131e-03,7.803591340780258179e-02
4.513794155010016906e-01,4.709297423341110567e-01,4.307687864944672040e-01,1.150152265305321407e-02,-1.671544376654847744e-02,1.534030679342607457e-02,5.613382160663604736e-02
3.554480751663693927e-01,4.235038053237688560e-01,3.894969721948871033e-01,7.969144191632438270e-03,-1.131996531511437337e-02,1.218008095802966193e-02,6.703504174947738647e-02
4.528200203678085511e-01,4.813368135385087121e-01,3.737697569242972029e-01,1.178690645226345562e-02,9.959001858217337785e-03,-6.633254084133943622e-03,1.008104681968688965e-01
4.016044526090631339e-01,4.599225773647199200e-01,3.916478243364051037e-01,8.435292217579701268e-03,-1.021959826730677208e-02,3.710621016463567373e-03,6.818269193172454834e-02
4.357751482655445319e-01,4.452284451881656224e-01,4.358108676214427768e-01,4.809748195159843989e-03,-6.220368547079429926e-03,5.364186436190390185e-03,1.899557560682296753e-02
3.994311734348303666e-01,4.837819404473941987e-01,4.282595156689597005e-01,9.567351815621899860e-03,-2.901037254201718762e-02,8.972090913534317910e-03,9.249505400657653809e-02
4.276031117571557072e-01,4.657779605595753769e-01,4.290059096327483168e-01,8.220104210730581201e-03,-4.842358989059641211e-03,8.255161040646441517e-03,4.339624568819999695e-02
4.272103945282884063e-01,4.702428514788152825e-01,3.862097865865983803e-01,-9.980583704448970847e-03,7.594686881953393795e-03,2.322305144354216717e-03,7.606084644794464111e-02
4.203900098400598084e-01,4.762540248908579410e-01,3.615763053983175879e-01,-4.483982598961837665e-03,1.300999903022882070e-02,2.141879138545201098e-03,1.022118926048278809e-01
4.491830006079653437e-01,4.913726714391506989e-01,4.688878819604943571e-01,1.351976159546277104e-02,-1.546932475568497597e-02,1.728694109430662859e-02,5.915805324912071228e-02
4.270342228022508957e-01,4.682126187414079599e-01,4.364027353442739843e-01,1.363739577842524101e-02,-1.654837059554904385e-02,1.105756971638435955e-02,5.607084929943084717e-02
4.146350889393042305e-01,4.406186170337662578e-01,3.760554985644370962e-01,1.188507805465218239e-02,-8.283464326665932950e-03,9.891652700945231455e-03,6.394614279270172119e-02
3.977710341600142474e-01,4.286100307255236164e-01,5.002595314386901748e-01,4.684230298315234658e-03,-3.071698502410480716e-03,7.171403495829994923e-03,9.242679178714752197e-02
5.183997007359051334e-01,5.210754117373875838e-01,3.088990918766482685e-01,1.131722070940310637e-03,2.381130916087315780e-02,3.101555244962651598e-04,2.148564457893371582e-01
4.630101372679252814e-01,5.041449112718555670e-01,3.648737316100977846e-01,-4.583011308263407191e-02,5.762577224042394336e-02,3.728030692385254918e-02,1.891890466213226318e-01
4.849353508274293345e-01,5.213227157873452366e-01,3.577714587617345510e-01,-2.212374149418394609e-02,3.351382329804199894e-02,2.544171131050236654e-03,1.642534136772155762e-01
3.958767707072922692e-01,4.210475954618922989e-01,4.219475880388096622e-01,-4.708240412486420709e-03,4.178152703416409403e-03,9.544935330418490363e-03,3.239173814654350281e-02
4.289060782258122817e-01,4.057436589927426729e-01,5.027289803366156162e-01,6.796977534273699120e-03,-4.078459353701795707e-03,-1.385742567530111368e-04,8.879634737968444824e-02
4.509755576189874438e-01,4.649150663191537469e-01,2.393280309345528767e-01,-8.119605917037609269e-03,3.777859381035000852e-02,3.768576923231385916e-03,2.290443331003189087e-01
4.752692471659707985e-01,4.151990359364380878e-01,4.149350873272557028e-01,-1.230017367625816857e-03,3.161545431145852941e-03,4.621220045555830477e-03,6.101595982909202576e-02
4.987003672511557406e-01,4.683404912609057114e-01,2.742562146833768533e-01,-6.126414239579205598e-03,3.297151968294388148e-03,2.733083957940467962e-02,2.164923548698425293e-01
4.462492803045526313e-01,4.458130390542336952e-01,4.293724382169936682e-01,-6.168805912361891193e-03,1.397606690470989867e-03,1.507990004918404077e-03,2.011219225823879242e-02
5.276713681308606851e-01,5.643771351257903524e-01,3.657114964554766812e-01,3.306232020101853870e-03,4.761441467306821995e-02,-2.577809199024001796e-02,2.057933360338211060e-01
3.949400240168423060e-01,4.912025978488103739e-01,4.002007815341224739e-01,1.317522405971115543e-02,3.397793704409554638e-02,-2.146630059464816123e-02,1.189723089337348938e-01
5.015473638965970427e-01,5.596027237105147822e-01,3.956229049994242630e-01,-7.802697472176232723e-04,4.638558671010210160e-02,9.540025502515281711e-03,1.657396405935287476e-01
4.224855660709160854e-01,4.324486806084668067e-01,3.742022307003241011e-01,6.043762688947570266e-02,-6.609032706932574386e-02,1.280895968876577806e-01,2.760332226753234863e-01
4.294637429774841308e-01,4.293642338587721485e-01,4.162393914816603369e-01,-9.942520050740656298e-03,2.378054353144544528e-03,2.402625371699971396e-03,2.245933748781681061e-02
1.686338405654195238e-01,5.260227132260468785e-01,6.584353780949767643e-01,-8.433749895058011148e-02,-5.000939017785683421e-02,-5.052841519410850024e-02,4.786265194416046143e-01
4.466433670836771896e-01,4.267186769295033821e-01,4.461644470778508009e-01,-2.727356113520378218e-03,5.203095650174174511e-03,2.563863427776306991e-03,2.260381728410720825e-02
4.271473192782817008e-01,4.369554946838727361e-01,4.225511253396288525e-01,-1.373330399704116456e-03,-1.455613713060040183e-03,1.998425055574252953e-03,1.365288347005844116e-02
4.612537825782880296e-01,4.148393945063902355e-01,4.180329792887731988e-01,1.034133646510601362e-03,4.174048658963506672e-03,2.411187397261328833e-03,4.570759087800979614e-02
4.698011205331854012e-01,4.447737727959698573e-01,3.563467566841244105e-01,-1.379262828816769232e-02,4.044674623765908555e-03,1.255441485026275415e-02,1.084039956331253052e-01
-1.354184014328450592e-01,3.894838208607068197e-01,4.023920520616132146e-01,2.025347215317808980e-02,2.082055418441482522e-02,5.182377757292785936e-03,5.339252948760986328e-01
3.517215790123390251e-01,5.188651775866375271e-01,4.989854290709856421e-01,8.208284094731363098e-03,-1.466829142978830387e-02,-6.175760455413518285e-04,1.608047336339950562e-01
5.320010067116063279e-01,3.926376694140786827e-01,4.731224364310845920e-01,7.356324114803933743e-03,1.113233908657925569e-02,-6.921307080668277420e-03,1.239401400089263916e-01
4.721718734447252763e-01,3.169792177574181635e-01,4.091622610488636624e-01,-3.395709593761653787e-03,-1.661996407150891433e-02,-2.634246853921900361e-02,1.456755995750427246e-01
4.551414016247686267e-01,4.550093618990392885e-01,4.012153914656172438e-01,1.194418122765263796e-02,4.442870535789188863e-03,-6.795116648061280337e-03,5.938552320003509521e-02
3.104710789286113104e-01,4.809758719806925820e-01,4.310519744627812067e-01,1.785579581645236561e-03,-3.046860858811445416e-02,-6.335189947832503207e-03,1.611427664756774902e-01
4.562270081285376699e-01,4.519263939581538159e-01,4.004073035273343906e-01,1.171140891172059613e-02,4.491763626343721859e-03,-6.857460552687531276e-03,5.922287702560424805e-02
3.377691417581010769e-01,4.684723593588857038e-01,4.109546273310867859e-01,-1.520658268554699044e-02,-7.719937278124906765e-02,-4.034997039635326160e-02,1.906073987483978271e-01
3.570147886944675664e-01,4.385033291576891368e-01,4.474250885731735350e-01,1.791183511916349946e-02,2.471219495569730584e-02,-1.992649172528013213e-02,1.069241613149642944e-01
4.179591568324426132e-01,4.506739925003810376e-01,4.172014351324540571e-01,7.015307375888234741e-03,3.979858965767439291e-03,-5.594043773072972757e-03,3.721108287572860718e-02
4.591453025555760070e-01,4.116887147706095873e-01,4.172304874513358408e-01,1.840253542118884750e-03,5.264659557230550423e-03,-1.823817672814223101e-03,4.607747495174407959e-02
4.859154395231037316e-01,4.144517691048459351e-01,4.074030439727223674e-01,-5.655093467497644688e-03,-5.343845311484845574e-03,-1.240522643757738935e-02,7.939614355564117432e-02
3.173057675771347452e-01,4.851223370121300338e-01,4.443637850158160818e-01,3.707450665496229785e-04,-2.279109515030182040e-02,7.068435454693530740e-03,1.571378409862518311e-01
2.677313106425057154e-01,3.707578091683859656e-01,2.043340107909607795e-01,5.980331441692670474e-02,1.359345105394912379e-01,-6.683221939195524430e-02,3.173780143260955811e-01
3.153147706827386099e-01,5.056081831091916445e-01,5.095311572445905268e-01,2.273781191460692245e-03,-1.748410776595842389e-02,5.123407732614862833e-03,1.948969662189483643e-01
2.776010926070075491e-01,4.903062120928399770e-01,4.790274117929929076e-01,-5.460401359531359255e-04,-1.480030064112906017e-02,-5.299497257813263161e-03,2.090787291526794434e-01
7.460980260748437676e-01,7.737369204022677138e-01,8.317137902229423396e-01,-2.081817394374918806e-01,-1.348265587620103567e-01,-1.105539767214573366e-01,4.763902723789215088e-01
4.123485151459096998e-01,4.182490676693610410e-01,4.843001830610477176e-01,1.283026858149786086e-02,-1.741783326317100948e-03,4.405467744296377719e-03,7.313328981399536133e-02
3.076899619612876724e-01,5.250302079099027353e-01,5.226758487193128300e-01,-4.892079284182502749e-03,-2.157611735870782269e-02,-1.015345836862501655e-02,2.202459722757339478e-01
2.811481451934244036e-01,5.013852893779550124e-01,4.997509414819717444e-01,5.906509005117990124e-03,8.657319828777494675e-03,-2.746065453548104680e-03,2.202254682779312134e-01
4.471196729651122914e-01,4.319556064678883867e-01,5.126722732370958546e-01,2.743269257577948123e-02,3.292778047063099622e-03,-4.716601424530461086e-03,8.875843882560729980e-02
4.774014494852421575e-01,4.392585241303279542e-01,4.136314174940435850e-01,9.778113666966292694e-03,4.841195116976352610e-03,-5.724986430851648246e-03,5.953651666641235352e-02
4.069921411422285917e-01,4.189640069938311284e-01,4.970665771755743423e-01,7.931826011216430022e-03,-3.871245752393603521e-04,4.278468983595307314e-03,8.615380525588989258e-02
6.420173739541984448e-01,6.171273056498804976e-01,4.427784923412722562e-01,5.153369408170305893e-02,-9.534648435586903781e-02,7.979376435567224479e-02,2.994957864284515381e-01
4.807938312077698062e-01,4.812341412136869057e-01,3.504343396650777542e-01,1.162994457314220006e-02,1.041674214312523356e-02,-7.528576321022408674e-03,1.339870095252990723e-01
2.113031371334154751e-01,2.444445413648826948e-01,4.069590596392603787e-01,1.217841948779684325e-01,-1.139556995526462904e-02,5.743573967715737486e-03,2.790662944316864014e-01
4.086461600350668744e-01,5.144140926561648897e-01,3.710225680316291963e-01,7.711675010196287691e-03,6.638267517574855670e-02,-4.519584523205973786e-02,1.900214254856109619e-01
3.189808331139321051e-01,2.014997308109838237e-01,4.193210415996367901e-01,1.181014523980168790e-01,1.995768708813810965e-02,-2.415171183227283677e-02,2.836313545703887939e-01
3.916678018555411200e-01,3.886739583350267702e-01,4.717070957776115514e-01,1.504606036436410138e-02,-4.133522582712212401e-03,-5.568612920835319148e-04,8.594310283660888672e-02
4.442925164308743624e-01,4.659309367806195867e-01,4.223962696489654278e-01,-7.608508128401208007e-03,-5.143300885164394862e-03,-5.226374183734987071e-03,4.190991446375846863e-02
4.042879278128617693e-01,3.670082222440941289e-01,4.543891545371794849e-01,1.132250373008263609e-02,-1.329874943563044351e-02,8.640918193836310754e-03,8.310735225677490234e-02
4.630068764209132048e-01,4.880027094438115776e-01,3.123734263822394719e-01,-6.624899323205143270e-03,7.796368924827086141e-03,3.845060692282241486e-03,1.656466424465179443e-01
4.290201995441637606e-01,4.342247896147252151e-01,5.104159946254989144e-01,1.256222715764314032e-02,-2.760043885572971076e-03,4.228800517161884938e-03,8.233262598514556885e-02
4.639445695839993777e-01,4.216235323031434223e-01,4.169919854759341349e-01,-6.327469305609220718e-03,3.533558077823838531e-03,1.039347053963798374e-02,4.990164935588836670e-02
4.473732987467349820e-01,4.535912490905389394e-01,3.253804843430463389e-01,-3.849436392476576763e-02,6.079976700592815142e-02,7.528501920822139315e-02,2.195865213871002197e-01
4.270727351590246079e-01,4.582045223934608780e-01,2.876496138135501424e-01,-1.592861106053443387e-02,3.322308179849866455e-02,3.244488214068758092e-02,1.788266748189926147e-01
4.462390582988208232e-01,4.232207320352103785e-01,4.269362289500715502e-01,-6.844864932001253066e-03,6.665484543966640994e-03,6.445310377537472740e-03,2.926759980618953705e-02
4.952793453908317933e-01,4.156138432435058649e-01,4.147776195730125681e-01,-1.119110537875720509e-03,5.623884415755440493e-03,8.460558565084711630e-03,8.202008157968521118e-02
4.710179359773718488e-01,3.866638476294933513e-01,3.988172983892552259e-01,-2.372749979320164411e-03,3.421366787128399256e-03,1.051774600983103498e-02,8.137568086385726929e-02
-3.440236336278362783e-02,3.882123094062572832e-01,4.089079341799055634e-01,-8.873194507850114265e-02,-8.819038296591276416e-02,-2.676821478294433287e-02,4.867032468318939209e-01
4.558848638814401721e-01,4.541169960795393701e-01,3.934263934157787856e-01,-1.304286783267817433e-02,7.382146633819600991e-03,6.652533744482189842e-03,6.782605499029159546e-02
2.515598948920010347e-01,4.930007582442810232e-01,5.581762827230208890e-01,-6.147925023248916598e-02,1.910657013478744490e-02,2.549960039225699499e-02,3.044052124023437500e-01
3.732500989191310792e-01,4.976296765450304305e-01,1.987767448733958608e-01,6.093475507418023157e-02,1.843794698107673324e-01,-1.339200694076256304e-01,4.842957854270935059e-01
4.648436998220788485e-01,4.452214908930559045e-01,4.226582649154304039e-01,-8.328218448286095824e-03,2.581839610021972008e-03,4.147881112436371809e-03,4.020647704601287842e-02
5.783037614636115098e-01,4.842958282859866070e-01,3.830470198839357465e-01,2.425860914213513395e-02,-4.252099772144427720e-02,7.416245138916689739e-02,2.286848425865173340e-01
1.430124362485686029e-01,3.480233435792305929e-01,4.705045139997906523e-01,-1.697988407365313146e-01,-7.241818187607475255e-02,-5.294952172963093145e-02,4.390673637390136719e-01
5.149156075705016433e-02,2.290875289683170224e-01,3.661339210444577441e-01,-2.015957035245838358e-01,1.120603654825445272e-01,7.551374043046718554e-02,5.013611316680908203e-01
2.905307064521946425e-01,4.663592760474917776e-01,5.446363077850422396e-01,-1.305376026632448505e-01,3.235629810393977207e-02,-2.676981518936429397e-02,3.274403512477874756e-01
2.674342170302006494e-01,3.876116098371955032e-01,4.363855923377432111e-01,4.575765230017671270e-02,2.017027366054879520e-02,-2.340191139342120280e-02,1.784034520387649536e-01
4.844623617564796647e-01,4.089844749967467274e-01,4.127385561520273138e-01,-6.326979221164167428e-04,-2.468392071049944490e-04,2.411343576890206432e-03,7.380028069019317627e-02
1.462659285182548174e-01,3.952453098807250376e-01,4.111075566591857466e-01,7.601104300778765976e-02,2.329501241689369007e-02,-8.897601582934596201e-03,2.922160625457763672e-01
2.180642290114840620e-01,4.261601081321463314e-01,4.390127257902210478e-01,2.478410994161190858e-02,3.727084408682840473e-03,-9.586195148413027139e-03,2.197812050580978394e-01
3.128630492277004738e-01,4.654657697574584030e-01,4.887893131169784300e-01,1.080804503473153759e-02,1.572196886086873677e-02,-2.982289060733194896e-03,1.688475012779235840e-01
4.616773732892278659e-01,3.900912717628800541e-01,4.036288096818061999e-01,-3.601369553493987720e-03,5.623915974888784447e-03,8.469553316248941421e-03,6.846699863672256470e-02
4.054863745864425995e-01,4.763551658665032273e-01,5.132495852634939570e-01,1.111337161462729040e-02,3.106974250313685945e-02,-1.203270650901720924e-02,1.126903370022773743e-01
2.425384785222975403e-01,3.439184656341396917e-01,4.217549243487764832e-01,5.374177514627499763e-02,1.007593512081059531e-02,-1.105309597138163721e-02,1.832023411989212036e-01
3.721407322019951724e-01,4.971117891584267423e-01,5.135447545496514277e-01,1.114965037549898834e-02,7.744423137144041194e-03,-1.213259397756323750e-02,1.376078575849533081e-01
4.973059920367900455e-01,4.691183446115748112e-01,4.202624249243149257e-01,-2.344123394124946261e-02,8.175879078291384272e-03,2.054578836687986909e-02,8.760122954845428467e-02
8.236724916614036607e-01,6.302033881145825411e-01,3.687431446166765658e-01,2.691022579624834099e-02,-1.021707792663817393e-01,2.363717905385949725e-01,5.978964567184448242e-01
4.447695219822542789e-01,4.320079915776063317e-01,4.314501279923361743e-01,-6.757940050288369430e-03,6.178089199022663257e-03,8.961571992672110951e-03,2.574358135461807251e-02
3.821081045762697026e-01,4.169236491896981534e-01,4.331896787336040333e-01,8.915666445038033378e-03,-4.746223656704052184e-03,1.301204242975103481e-02,5.345094576478004456e-02
4.265909763776995489e-01,4.179469985483463823e-01,4.542378635962494582e-01,7.058978179490324337e-04,-7.770328896048169648e-03,3.682715684567004679e-03,3.607442229986190796e-02
4.614883226610301259e-01,4.205817095768060176e-01,4.429984500980002626e-01,-3.291556304963589707e-03,-7.901262061228143257e-03,-3.603248300141150082e-03,3.895653039216995239e-02
3.712794209053915107e-01,4.028397656090139112e-01,4.054717799576768589e-01,1.027732060850554928e-02,-7.484574421989729533e-03,1.117843325242911384e-02,4.411177709698677063e-02
4.839387401625739882e-01,3.946273664528823222e-01,4.559879090568308424e-01,-7.766706796242523261e-03,-1.280355836811489928e-02,-1.009609684264058983e-02,8.508816361427307129e-02
4.071256896768552513e-01,4.180196929227881220e-01,4.281720197520554327e-01,4.773691888920594296e-03,-5.769766751075158621e-03,8.211637159255576537e-03,2.651181817054748535e-02
3.993475553066069272e-01,3.861236706624285864e-01,4.282877142681320581e-01,5.662018763032385105e-03,-1.097721962392477109e-02,8.381973435248546433e-03,4.542632773518562317e-02
4.678188055664676548e-01,4.309240351523208612e-01,3.621198229195218277e-01,1.011096090104568468e-02,7.329397235004290849e-03,-1.006267922351547148e-02,9.698136895895004272e-02
4.523800901253256512e-01,3.787190987909146433e-01,1.504892913957600886e-01,3.372435023872631665e-02,1.025542322279855978e-01,-1.208974942446601614e-01,3.913299739360809326e-01
4.079644914836166869e-01,4.048077677930334572e-01,4.064029044029401905e-01,1.005576206576069657e-02,-7.505815743347440776e-03,8.812816400890481627e-03,2.669902704656124115e-02
4.707681684875637540e-01,2.669154527642356167e-01,9.892049385501966441e-02,-5.021488461822266186e-02,-9.087820243812116949e-02,-2.110539696700139412e-01,5.196123123168945312e-01
4.948465579128911718e-01,4.395962072237512008e-01,4.131224557631491545e-01,-1.489487652081188107e-02,-1.758976110326869804e-02,-2.457682018705195301e-02,9.285459667444229126e-02
4.744645797603837534e-01,4.208857105574871360e-01,3.929816079525778605e-01,-8.375772543673236717e-03,-9.317389854603276957e-04,-5.431180506955962314e-03,7.379676401615142822e-02
3.971454124727664681e-01,4.463014240122645249e-01,4.930293362572156224e-01,1.976480719927932450e-02,-7.537995102978710220e-03,1.337903389561538939e-02,9.368122369050979614e-02
4.602965097276558448e-01,9.089776081923134354e-01,7.425616243767874103e-01,-2.936130320387836043e-02,1.614819651141970458e-01,1.048211256551868920e-02,4.852694571018218994e-01
6.028813148923699572e-01,5.064075036402541086e-01,4.819576472096572251e-01,-6.804850712763226006e-02,-8.332832396238043504e-02,-1.357349516691444824e-01,3.197785615921020508e-01
4.001418105242354195e-01,1.345528817434141211e-01,3.346448341109519720e-01,-9.887597630611494326e-02,-7.510962446058179476e-02,-1.773557082961019771e-01,4.450291395187377930e-01
3.885386161931726479e-01,4.777637340760437779e-01,4.082455863314993771e-01,1.322800695664337611e-03,8.008737050639614177e-03,-3.676797912071295537e-03,8.263991028070449829e-02
3.291461246915559635e-01,4.993343653019639561e-01,4.826966019040751510e-01,6.116727993344661489e-03,9.380949632128519206e-03,-1.625645488617931053e-02,1.660673618316650391e-01
5.014921028313181761e-01,2.975229011194021611e-01,4.358858525206815160e-01,-4.457176172937328713e-03,2.997721574136366120e-03,-8.670598987738310781e-02,2.348750829696655273e-01
7.988097945864561789e-01,5.999239195127661350e-01,6.996565784241276509e-01,-2.483456163935691616e-02,-2.921298475368329026e-03,-1.114065443586416959e-01,2.622534930706024170e-01
7.314270398477622503e-01,6.151704712271784947e-01,5.156696315976192491e-01,-1.903618883984907126e-02,-3.539238914674767283e-02,-1.238270708976987045e-01,2.929642498493194580e-01
4.277824902040184840e-01,4.630473041347183405e-01,4.064692938505578557e-01,-9.863131345018313206e-03,4.036528170939957666e-03,2.230187453577681285e-03,5.296330153942108154e-02
4.373730364062559661e-01,4.199208853274847830e-01,3.866536906528203477e-01,-1.433986403041392910e-02,5.929133248734267184e-03,8.363937282043704471e-03,5.407488718628883362e-02
4.545459198627321284e-01,4.432299328066718891e-01,3.740429552244858846e-01,-1.611192121571661598e-02,1.242411387869269031e-02,6.821231307807226404e-03,8.413830399513244629e-02
4.280724789671104258e-01,4.215454977268215386e-01,3.349052202268016920e-01,-1.941013676030842877e-02,1.786569201118269265e-02,1.548431784386162212e-02,1.045071259140968323e-01
4.018085506941350693e-01,4.189972664528890389e-01,2.926461978150586840e-01,3.873398069097315488e-02,-1.037253583619797276e-01,7.256038568661045407e-02,2.581880688667297363e-01
5.071362226421557429e-01,5.290905832370889073e-01,4.060330773282123662e-01,-4.535593674943798857e-03,-5.328596470982070038e-02,-2.876820755268049475e-03,1.467249840497970581e-01
5.098764897913772298e-01,5.376157048774119485e-01,4.449460254039782625e-01,-7.959358647391978625e-02,1.106151126530732498e-01,1.111267817280747333e-01,3.155100047588348389e-01
5.065125764798840136e-01,4.987253110161825043e-01,3.832841416247252386e-01,-1.398206032123926364e-02,7.285519215806052565e-03,1.293627298531394368e-02,1.246356591582298279e-01
4.978702586240125183e-01,4.354690330719821478e-01,4.471849502640730667e-01,-1.354113447840417025e-02,1.380068631262522903e-02,2.068487339653470036e-02,7.553239911794662476e-02
4.388208277336889118e-01,4.777874963534557429e-01,3.448135072615377550e-01,-3.410876752412783739e-03,-1.585909681705939198e-02,6.215644583171658086e-04,1.216943860054016113e-01
5.021202546425118651e-01,5.094241044620372305e-01,3.860110421585202789e-01,-1.322449042313507753e-02,9.459436094894991057e-03,1.024959008330088815e-02,1.244628727436065674e-01
2.513515523445483679e-01,4.048626200571950884e-01,3.813691700451423139e-01,-5.144690685108665312e-02,7.431382429073207785e-02,4.605978658727785668e-02,2.266794741153717041e-01
4.691712379228299423e-01,4.324344046224923854e-01,3.500718429896005901e-01,1.376351639541081688e-02,-3.858032174543449093e-03,8.893696137925141340e-03,1.095863878726959229e-01
4.678761255199420654e-01,4.095397220737040933e-01,4.050236155006491368e-01,-3.644763947734375870e-03,1.047624334129164695e-03,3.133875895941362275e-03,6.131552532315254211e-02
4.820519853100111440e-01,4.371150053633579002e-01,4.157381959535697002e-01,-8.464036392974801440e-03,3.369188492897732135e-03,8.483905962968031622e-03,6.246449798345565796e-02
4.940560896272961355e-01,3.822004074590900635e-01,3.837068547033661292e-01,7.429322583816357160e-04,-2.828621099556143624e-03,2.718909655076490531e-02,1.207843497395515442e-01
4.106625800741587340e-01,4.609650352773584370e-01,3.641608828419070631e-01,-1.511529788157379810e-02,8.303104359142979632e-03,6.422277221580263359e-03,8.970993757247924805e-02
4.520063422052053026e-01,3.974734737697802056e-01,4.000953564152192055e-01,-8.001951195695243199e-03,1.030928085121850767e-02,8.611161853764360413e-03,5.975887551903724670e-02
4.342885173901214757e-01,2.851579199978602208e-01,3.502317344513414255e-01,-1.191276094888345759e-02,1.085006324298698824e-02,5.605537989784652869e-02,1.642424166202545166e-01
4.460258757044481270e-01,4.149067446873551668e-01,4.348359787277718547e-01,-1.169621974438471348e-03,9.658988457294676380e-03,3.375948675653524158e-03,3.261253610253334045e-02
4.126835356503043561e-01,3.785386030901530807e-01,3.674607573836071173e-01,-3.616542433669436146e-02,4.400669418270990868e-02,4.292365236080714769e-02,1.301066875457763672e-01
4.946194393992370819e-01,4.306841638046272625e-01,4.184346107288767214e-01,-8.814605895851580081e-03,9.483445542533665631e-03,2.256228179442217735e-02,8.397033810615539551e-02
4.894910309387184855e-01,4.343647271831686529e-01,3.775510207112083294e-01,-6.407687269465078307e-03,-1.048068544854169684e-03,-2.013580958434986815e-02,1.036410108208656311e-01
4.557756522261157128e-01,3.674895850441436962e-01,4.069076561056098607e-01,-4.257407863429129788e-03,1.589985008302496547e-02,1.768076868778777413e-02,8.728555589914321899e-02
4.893303235301389442e-01,4.203077667931369721e-01,3.887622957412429359e-01,-4.487746197151407969e-03,-3.825021961545446519e-04,-7.919209573013136910e-03,9.047418832778930664e-02
3.410063925801132267e-01,5.459460993178527621e-01,5.860727177308617808e-01,5.253260991420435205e-02,-2.632167917297984893e-03,-7.189999216514494570e-03,2.455379068851470947e-01
4.590891292271919721e-01,3.933384664276546872e-01,3.791197689563209350e-01,7.545924596376669263e-03,4.135630176397412684e-03,-1.214535893146629492e-02,7.826156169176101685e-02
4.363752872635859870e-01,2.723953717296975219e-01,2.236619189334321245e-01,-7.304055492891629864e-02,9.124236243555072789e-02,2.028176662468964275e-01,4.490444958209991455e-01
4.999425358388879803e-01,3.715049589061093505e-01,4.165326278466840448e-01,-8.080695728728812255e-03,-4.495115958296472605e-03,-2.405664773106917786e-02,1.213801279664039612e-01
4.832007884887625226e-01,4.682414901162220700e-01,4.613684087096115438e-01,-4.963876490911928868e-02,4.100375126742487886e-02,5.445552281084077573e-02,1.473295390605926514e-01
4.795544184515593278e-01,4.734033225921420729e-01,4.051538661113878725e-01,-2.397356481659230695e-02,2.892515734984871245e-02,2.608996856446295365e-02,1.067327633500099182e-01
4.820754934998868202e-01,4.206556279001624765e-01,3.861673394844665763e-01,-5.285574724469280922e-03,1.440379353960613891e-05,-8.186095288842638179e-03,8.581932634115219116e-02
5.008865298292377588e-01,5.330199494368448310e-01,4.546122290511286912e-01,-7.221962786385836830e-02,1.147281502078605492e-01,1.058905222993008488e-01,3.056695759296417236e-01
3.473068026978377576e-01,3.978816750169861249e-01,4.461029255917188241e-01,-1.958480456359038696e-02,1.031151142289371894e-02,1.910703227847730321e-02,9.943240135908126831e-02
4.793054012938585684e-01,4.378358341514886898e-01,3.460017187391796201e-01,3.585614672261142576e-03,-1.675087907457940622e-03,-8.143806602489634533e-03,1.191952303051948547e-01
3.346746096776341828e-01,3.690443523034414031e-01,4.409712594057907942e-01,-2.098469720846054751e-02,6.434612943586123443e-03,1.234079118365596743e-02,1.035810783505439758e-01
4.754328299715558925e-01,4.569613677871744439e-01,2.209978266285687609e-01,4.422465727997232691e-04,1.391136380576363024e-03,5.049924252974171031e-03,2.458891570568084717e-01
4.220103034070706860e-01,4.173183573172461469e-01,4.950183885265703188e-01,-1.349302937625667699e-02,5.989694461015173353e-03,6.431449199696201956e-03,8.045278489589691162e-02
4.309045181887780629e-01,4.675191625747429081e-01,3.745292245143850285e-01,-1.589826096080691753e-02,1.485669042023055053e-02,5.174164455390735731e-03,8.990945667028427124e-02
5.426853740551733640e-01,6.848792920858477462e-01,4.722357739870301496e-01,-3.305743211357986544e-03,-1.209630348580819498e-01,-9.943733748189435492e-03,2.818250358104705811e-01
4.870511908479522312e-01,4.534552782201934917e-01,3.024002680992632364e-01,1.563306484972196934e-03,4.118314476595993229e-03,-1.147941538291852824e-02,1.716819107532501221e-01
3.942121221674916853e-01,3.936974543257778514e-01,4.529856588273334372e-01,-8.033758398152450464e-03,1.042385675881341879e-02,4.939176144776863224e-03,6.385626643896102905e-02
4.420273412674141644e-01,3.851782015792408753e-01,3.931871572051361396e-01,-2.359259820146786257e-03,-1.042613566002333764e-02,-9.598517459164814664e-03,5.882067233324050903e-02
4.235463658180062541e-01,4.377498005800258829e-01,4.715076519217333284e-01,-1.460864965661705719e-02,1.504497235583315308e-02,1.086512602872038991e-02,5.911219865083694458e-02
4.812351658736798710e-01,4.400414119879075270e-01,3.446361349157773257e-01,-5.528377518198725367e-03,-2.339315800960334584e-04,1.288278354251655607e-02,1.237697228789329529e-01
9.276232607057401935e-01,7.105269640263643938e-01,7.109399231700670452e-01,8.491314714559761168e-02,-7.524781590501024298e-02,1.919264824981786188e-01,4.429063796997070312e-01
5.122686007885580706e-01,5.039215832727191868e-01,4.568867026413137578e-01,2.889342985974582140e-02,-5.080308742336544364e-02,1.718507204580188574e-02,1.175069585442543030e-01
4.022101972159123351e-01,4.329005377183480219e-01,4.886392121121282406e-01,-6.720040578762050479e-03,2.797503169007216003e-03,7.971859361241943887e-03,7.815971970558166504e-02
2.731985640357497136e-01,4.784918755715966143e-01,5.191521077684297936e-01,-6.438530469004551116e-02,1.581382849740591706e-02,1.506270220878050056e-02,2.569302618503570557e-01
2.718360965365045345e-01,6.235695480379218614e-01,6.703276281566205030e-01,-1.886486604724335603e-01,-8.718161581711357522e-02,1.036909586973431968e-01,5.515173673629760742e-01
3.361464867122673228e-01,5.965252792854824904e-01,6.274879841788758572e-01,-6.738372269875674003e-02,5.857560476950115363e-02,-2.581772833927761454e-03,3.174158632755279541e-01
3.142741232538903695e-01,4.806063105918372824e-01,4.298008851972769939e-01,9.650186231140100383e-04,-2.494870190511748118e-02,-5.709993655087021967e-03,1.541587859392166138e-01
4.413543139423675155e-01,4.580816970572310076e-01,2.387483196901335480e-02,3.727021727014436653e-02,1.377888993390332661e-01,-1.037393928351003497e-01,5.243685841560363770e-01
3.457964211101810514e-02,4.319783103960023185e-01,4.728093694115059198e-01,-1.728693321264190286e-01,-1.414611566223489400e-03,5.810363931931059045e-03,5.153424143791198730e-01
4.619286109330884571e-01,3.877645218375448399e-01,3.757163612121061647e-01,2.508001567233265200e-02,-7.921231403097586665e-02,1.311327720398038077e-01,2.807796597480773926e-01
3.990472075826017595e-01,4.642712860769777627e-01,4.109740520044795620e-01,-3.362995444431584116e-03,-5.970426441133627922e-03,-5.057052305850348768e-03,6.193626672029495239e-02
1.640886065431809981e-01,4.894578318209895085e-01,5.708996958335380567e-01,-1.318557006119591979e-01,7.886029719314352482e-02,8.251451446519041111e-02,4.798303246498107910e-01
4.141197917593554267e-01,9.177602766949867485e-02,1.332334855903018755e-01,-3.802019431348040157e-02,7.103113814742381682e-02,2.406414531676000779e-01,5.342831611633300781e-01
4.109886350088906015e-01,2.373866905123337978e-01,2.479220107575590137e-01,-9.174413687657667626e-02,1.312519052986660939e-01,2.145576599266676154e-01,4.934134185314178467e-01
5.267350107069768139e-01,4.963946009703584794e-01,3.204313443640508519e-01,2.367945664139807158e-03,-4.392625544526795119e-04,1.379679843041814284e-02,1.944501549005508423e-01
4.573631101935337062e-01,5.309877786706570513e-01,4.357343914967981013e-01,6.709510930773552977e-03,3.073799484634084922e-02,-6.458533941120744512e-03,1.028370782732963562e-01
4.163957736166887802e-01,4.909160797754481553e-01,4.189473998008447775e-01,7.563395287486092758e-03,1.222453903098253032e-02,-5.629366214871108984e-03,7.800410687923431396e-02
4.882517729633621961e-01,4.162062934894878996e-01,4.118802707500009985e-01,-3.106945350644106153e-04,1.087816498289762203e-04,2.803220293137466054e-03,7.446365058422088623e-02
4.783182077571934143e-01,4.200204646404627762e-01,4.231076618182826876e-01,1.888123133932741648e-03,-5.119254137648722447e-03,8.223211810828156155e-04,5.761531740427017212e-02
5.043084796599106578e-01,4.319871282438732529e-01,4.098531984129423211e-01,1.450055373415834414e-05,-1.060829290534522767e-03,6.128446660713822262e-03,8.623859286308288574e-02
4.688279445917047372e-01,4.364816659915906616e-01,3.380008132370162510e-01,-1.398394175803225649e-02,2.864072646094513886e-03,1.242535912446406966e-02,1.224935874342918396e-01
4.226709878654901775e-01,4.656577080247772948e-01,4.235867217689800457e-01,7.671281447231594920e-03,5.761722841879693933e-03,-5.404043623776311721e-03,4.661631956696510315e-02
4.512589581714701592e-01,4.545621288175167307e-01,4.242302939915946758e-01,1.677940641124223489e-02,-1.307262936204397520e-02,1.670485626109327257e-02,5.500202625989913940e-02
4.122373462187222115e-01,4.682214708492294375e-01,4.094827114414243407e-01,2.522674547555150016e-03,-6.560779297746619930e-05,-2.241667154526859329e-03,5.770793557167053223e-02
3.420246811765603745e-01,4.653503222633100234e-01,3.900324747296370353e-01,-7.455378722517914123e-04,1.597470862215364523e-02,5.472123860803892320e-03,1.115815564990043640e-01
4.341233238479846879e-01,3.487876680456258871e-01,3.569041299231821007e-01,9.605573914721702092e-03,7.317682904153840172e-03,-3.024481075855992365e-02,9.918225556612014771e-02
4.939634149969328591e-01,4.363522049272323677e-01,4.037968624673855533e-01,7.224120082588975263e-03,-1.352345130007819637e-03,-6.899451851324948926e-03,8.098957687616348267e-02
5.756349997197245383e-01,4.642924162736207783e-01,3.159815696053946965e-01,-6.469006192955575885e-02,5.557454241558833913e-02,-2.503164261849372130e-01,5.105894207954406738e-01
4.803046596967123771e-01,4.305732915612879297e-01,3.954585676162979402e-01,2.095187617015030826e-02,1.290105238695433585e-03,-2.273034642162234317e-02,9.123869240283966064e-02
4.734215445968034119e-01,4.148105400401618237e-01,4.216943903495622425e-01,-1.772154478492527462e-03,-1.431365760353715951e-03,-4.508646751698119383e-03,5.617579072713851929e-02
3.763461727512219523e-01,4.218529047649652308e-01,3.780841266819771618e-01,6.718861038318596490e-02,5.457373029234333095e-02,-6.462001831071023661e-02,1.923534274101257324e-01
4.147117256178802225e-01,4.114990779026244105e-01,3.861032461220846312e-01,-1.589213811389849490e-02,-4.570936708033019637e-03,-7.508825145550404416e-03,4.154955223202705383e-02
5.900526710498115168e-01,5.321171051746345082e-01,4.524741352960216512e-01,-1.853158079719212023e-02,-2.670912582409335628e-02,-6.165519730127282799e-02,1.699652075767517090e-01
4.400990330606103229e-01,3.971462546594267118e-01,3.589552117275469634e-01,1.485135554207189443e-02,9.647693326737885600e-03,-1.632392542158242824e-02,8.175721764564514160e-02
4.748947489928417864e-01,4.000231785220224601e-01,4.172724548813602219e-01,2.911085909989371071e-03,7.180818522196839859e-03,-6.379317480039405595e-03,7.010001689195632935e-02
3.462287126817935601e-01,4.752395236164726477e-01,4.328904523011480321e-01,-3.028421335113216581e-03,-6.106678874820325488e-03,-2.595515485666622865e-03,1.146007999777793884e-01
4.296440414753698867e-01,4.080661743420979093e-01,4.773928187810304036e-01,-7.068215459524628506e-03,-9.743760610951794979e-03,-2.993835495884239299e-03,6.509575992822647095e-02
4.585008250066050506e-01,3.622726539967763837e-01,4.101865766892084930e-01,5.694934752977281675e-03,1.110653657790622653e-02,-8.549562981573869194e-03,8.735892921686172485e-02
4.705118372460311837e-01,4.762242582454051520e-01,2.364439645448122296e-01,-5.238700423742614996e-04,-4.599529283864113409e-03,-2.490451843743893626e-03,2.371505647897720337e-01
4.729351764249626888e-01,3.942407272719982703e-01,4.178634563866782115e-01,3.047118647113301448e-03,7.013382624471333447e-03,-3.320665804483495000e-03,7.141687721014022827e-02
4.376658030962850554e-01,3.913485778939387871e-01,3.926677090776617973e-01,1.456046673930362634e-02,1.211629572953961363e-02,-1.394326067890242285e-02,6.120135635137557983e-02
4.348103244149792435e-01,3.672200149890182952e-01,4.085272748331010839e-01,6.671608087604776610e-03,1.600075312799877428e-02,-7.541156156096839695e-03,6.749059259891510010e-02
4.254974469230294876e-01,4.117430743009097838e-01,4.570274549190208591e-01,-6.416195373833729135e-03,-1.722289005832903933e-03,-3.358526011855413485e-03,4.222843050956726074e-02
4.564853080535710705e-01,4.545545116340962699e-01,4.100980948931426395e-01,-1.454681878345024520e-02,-5.004372368528102119e-03,-6.344569509742781395e-03,5.382061749696731567e-02
1.534407211997859954e-01,2.237725606458369487e-01,2.748625840284611987e-01,-2.259174497967593731e-01,-1.339898457826154687e-01,-1.102323454068402375e-01,5.045586824417114258e-01
4.544962783722221733e-01,4.011296552606206101e-01,3.979465081513237634e-01,1.159294630501449264e-02,-4.115592973060729597e-03,4.549049667912834737e-03,5.953224003314971924e-02
4.903321349430331266e-01,4.222141525684852126e-01,4.123707148558070079e-01,7.447591656548661725e-03,-1.536399429461275277e-03,6.126567084920715722e-03,7.545564323663711548e-02
4.901717716655193957e-01,4.064113053607795178e-01,4.253873277083085602e-01,2.864479904965551785e-03,-9.660229453496753382e-03,5.199620613388701226e-03,7.856302708387374878e-02
5.107179343418953854e-01,5.314716620234594124e-01,3.180653291393170656e-01,4.491836708886955999e-03,-9.342130471593053376e-03,7.486270232566192596e-04,2.046168148517608643e-01
5.472859965320507891e-01,6.189785328413071053e-01,4.291030617755559051e-01,-3.548085194277311727e-02,-8.120572434475092916e-02,-7.767093367873278975e-02,2.631310820579528809e-01
4.756628441055337775e-01,4.094373820455047275e-01,4.012876316186680947e-01,4.439976645851095687e-03,-3.515999874797059999e-03,4.505227577836363496e-03,7.175701856613159180e-02
1.191820198419263621e-01,2.929067941841941858e-01,3.185435605610399401e-01,-1.876256658610561401e-01,1.314537439389124041e-01,1.195149735664512436e-01,4.853794276714324951e-01
2.424817351327742676e-01,2.902087332350776760e-01,-2.997368640947635776e-01,-1.796265193226095555e-02,1.396526258734936687e-01,7.518365052821691930e-02,6.313411593437194824e-01
4.691570326631517296e-01,3.874330302391619241e-01,3.927275369980637865e-01,1.227688222307855284e-03,-2.939702867972836167e-03,8.750312875139866498e-03,8.083505928516387939e-02
4.264314560731410353e-01,4.197260328745842650e-01,4.240502113719545885e-01,-3.687469725714121252e-03,-6.595768950806330487e-03,-2.843450642419283105e-03,1.517320703715085983e-02
6.345083589226668819e-01,6.160046147526314630e-01,5.510842051702600219e-01,1.527162198589920861e-01,-1.508106446305333137e-01,1.808114924514236388e-01,4.919705092906951904e-01
4.688462914445785668e-01,4.105275062134014497e-01,4.089448212690130480e-01,1.905179521056510556e-03,-2.432842787624515685e-03,8.297483477559478970e-04,5.938515439629554749e-02
4.878214309189313758e-01,4.248962922168636469e-01,3.900303846691625109e-01,-2.657773098533904987e-03,2.585321116579303302e-03,5.863015753939634749e-03,8.668053150177001953e-02
4.408660733568501855e-01,3.254612493644001847e-01,3.702654506500318021e-01,-2.988919319024831763e-03,6.708128595009771322e-03,1.994186334894454057e-02,1.072842031717300415e-01
4.902377725929246144e-01,4.121715895995520240e-01,4.173891232294214548e-01,-3.865428300128506862e-04,1.229894429512626243e-03,2.405282442383536827e-03,7.574021816253662109e-02
4.536187876718994483e-01,3.892489431000701883e-01,-4.977004890664143977e-02,9.426413040417898001e-03,-2.646726049433562392e-02,8.809723562678122011e-02,5.007916092872619629e-01
4.786603291674905725e-01,4.595115139068817744e-01,2.696924540512185553e-01,7.554891794429802535e-03,-3.639933211930533596e-03,1.184385676180359920e-02,2.016545832157135010e-01
4.379906485363479485e-01,4.692794586695665515e-01,2.519892661841302561e-01,6.062659920597145797e-04,-9.371787747689605888e-03,1.286113225419420643e-02,2.053194791078567505e-01
3.751461914799866237e-01,4.177892276606811617e-01,7.646288608960799538e-02,-5.651839703931459818e-02,1.527539902739945554e-01,1.358154570159723351e-01,4.885578453540802002e-01
4.820513404509657041e-01,4.177134530021743841e-01,4.104040389777315334e-01,4.759781936262135783e-03,-3.043817312977320044e-04,2.449455572860910306e-03,6.891521811485290527e-02
4.984999711391780441e-01,4.308171711759725686e-01,4.098121578026985845e-01,6.333535917101951185e-03,-1.845329484450217942e-03,4.067189235855577824e-03,8.138816058635711670e-02
4.975925079688295893e-01,4.528600785742046830e-01,3.583630439631971254e-01,3.021108992840420334e-03,-7.973582764764026087e-04,1.255743495879216819e-02,1.251403987407684326e-01
4.794359173080628422e-01,4.067433386476962398e-01,4.014162985618897617e-01,2.181700481405853833e-04,-1.409590387137743149e-03,2.629627239138682213e-03,7.567478716373443604e-02
4.740036119008284587e-01,4.242640688527711812e-01,4.801688728666104189e-01,-3.035592396008658309e-02,-2.542122752404540886e-02,-2.960443553443022416e-02,1.007527709007263184e-01
5.535148797674271925e-01,4.502149624060830524e-01,5.461525424811525253e-01,-2.003620737719739309e-01,-5.695057621007845738e-02,-1.062302862059454484e-01,4.171140789985656738e-01
4.805325373829718028e-01,4.181909114685415929e-01,3.976432985124916941e-01,2.834805075840022767e-03,-2.106664519473885194e-03,4.088286512395705730e-03,7.534731924533843994e-02
5.004559400424197779e-01,4.287841121412263590e-01,4.217042172925982713e-01,4.216533512316313244e-03,-3.111082281790258485e-03,8.213943157098366893e-03,7.732519507408142090e-02
3.958494408421167066e-01,2.950265553561701171e-01,4.138178286338369816e-01,-7.347938988159082030e-02,-4.582786318066183612e-02,-1.265191771975560098e-01,2.877834141254425049e-01
4.833372085037238031e-01,4.345108490837115145e-01,4.053921649324783716e-01,1.373707484807838719e-02,-3.572458304863806219e-03,3.872820671118293659e-03,7.282222062349319458e-02
2.718012815695454720e-01,4.341354531754653134e-01,3.389661075060729223e-01,1.172557314295665301e-02,6.332816348983626165e-02,-1.830345842432579487e-02,1.827819347381591797e-01
5.231233966240781408e-01,4.249543040133387795e-01,4.496786178425067337e-01,1.128516804731939053e-03,-8.352292527149489734e-03,-3.111246401445736179e-02,1.045866087079048157e-01
4.147086048171412798e-01,4.081969137144866311e-01,4.008151555112374198e-01,-9.796827120046628160e-03,-6.505314911478296373e-03,-7.389227957016049689e-03,2.690080180764198303e-02
4.212713755314425601e-01,4.238986503260178118e-01,4.263500826735838189e-01,-5.174718894602789443e-03,-4.530331662511505146e-03,-5.845328521827748876e-03,1.624072529375553131e-02
2.448030842602257895e-01,2.178205431286508731e-01,3.192173992138082617e-01,-1.857663239044106129e-01,-1.382101781913637195e-01,-1.062595112600287356e-01,4.505332708358764648e-01
3.902502965587157924e-01,4.052481783490988754e-01,4.768642463797416187e-01,1.053460954530197578e-02,-1.304699443064373477e-03,2.573196267484380816e-03,8.237591385841369629e-02
4.485620505559593796e-01,3.897193123456639263e-01,5.109725268131062315e-01,3.577991515961944508e-02,5.573392599357896576e-03,-3.327180370386884252e-03,1.224620118737220764e-01
4.328684569629970280e-01,4.518221250706426773e-01,5.387182156950760525e-01,6.216972508377185264e-02,3.789804968158529824e-02,-5.075447260557357232e-03,1.598075777292251587e-01
4.586965250930382099e-01,4.354718895728091899e-01,4.280263583707296093e-01,-1.950464872859491560e-03,-2.726614003822102391e-03,-1.879482214961668285e-03,2.849654294550418854e-02
4.277129724162277991e-01,3.673277372142570441e-01,4.945012535348475291e-01,1.958608957265956310e-02,8.008121402605424682e-03,4.522721557406291643e-03,1.163816004991531372e-01
4.971802033328230896e-01,5.308293574200497744e-01,3.438057520146632351e-01,4.442946323076771634e-03,-1.258055493820679077e-02,4.827974484829654356e-03,1.744157820940017700e-01
4.187630633195523200e-01,3.599507679335441912e-01,4.767102640867873498e-01,1.186287483259630161e-02,5.890861414025841446e-04,2.547279781217813736e-05,1.031891405582427979e-01
4.055552237817582339e-01,4.620955813987874805e-01,4.191838121584683940e-01,-5.271801786373871840e-03,-6.513007136171666302e-03,-7.892789257758645038e-03,5.485897511243820190e-02
5.003575626477462235e-01,5.072730535096330318e-01,3.207614755569699883e-01,8.838773624589258641e-04,-8.227916937874302575e-03,9.136188022820726160e-03,1.843920350074768066e-01
4.172457578504199516e-01,4.176377133658319418e-01,4.915157387423439439e-01,1.857773437651662543e-02,3.406964837983704301e-04,-1.262530429964231959e-03,8.079356700181961060e-02
4.159148672511168709e-01,4.362204326650128139e-01,3.991641477945973016e-01,-1.430396124166848429e-02,-6.512940442828588951e-03,-6.969358962074235532e-03,4.381570965051651001e-02
3.880598460331541322e-01,4.303951349093739775e-01,4.911243981836375117e-01,3.499103039633229967e-02,5.405574812287890392e-03,3.798763690423516241e-03,1.088824123144149780e-01
6.864757865054605945e-01,3.245665355011149167e-01,4.855750639073510566e-01,2.221802320939090733e-02,-9.296613623183656860e-02,-2.041450381662413827e-01,5.010650753974914551e-01
4.611445967917521815e-01,4.585309807395696602e-01,4.136029451708421734e-01,-1.353788438590972434e-02,-4.750454906905470301e-03,-6.211061059783795461e-03,5.362871661782264709e-02
4.348046989949255758e-01,4.393758034816577229e-01,5.030998269731201678e-01,1.323326315410587421e-02,-7.865676727282729097e-03,7.299964130344072273e-03,7.241386920213699341e-02
4.272500038470979922e-01,4.365034178600362691e-01,4.666060157834228117e-01,-2.362506550394118197e-03,-2.938435323930216943e-03,-6.427138208370956549e-03,3.790667280554771423e-02
7.155335872281757270e-01,5.148876880085184737e-01,8.208632988745995229e-01,-2.163779234492474168e-01,-5.837281464106185841e-02,-4.982482541743426391e-02,4.802239239215850830e-01
4.309993135100844142e-01,4.732095530658059768e-01,3.889855819271000881e-01,-9.175430737507027715e-03,7.515491364036025294e-03,2.295477970590336161e-03,7.588206976652145386e-02
4.755268154181813700e-01,4.408940273477047755e-01,5.415572417233222025e-01,2.957008694940932436e-02,1.157733073637783570e-02,-1.112085237243815548e-02,1.060309335589408875e-01
3.544007959106072470e-01,3.953767726497048329e-01,4.590211406367872837e-01,1.579465407967694732e-02,3.882707016935475156e-03,-8.970305800806198729e-03,9.681200981140136719e-02
5.312104146488345613e-01,5.395464597401136153e-01,5.510280806884311211e-01,-1.193471816269969510e-01,-1.040121410275175046e-01,-1.113064917847239599e-01,3.356356024742126465e-01
5.010552087197424065e-01,4.986230543566176343e-01,2.971630320281241078e-01,1.052190407628781797e-03,-3.326098275651135586e-03,1.127307558226251470e-02,2.037149816751480103e-01
4.338356686173847621e-01,4.655828843502321512e-01,3.431970851606930273e-01,-1.231726842545853053e-02,-9.299542895337917572e-03,-3.326880238512450183e-03,1.133514717221260071e-01
4.243919371532215434e-01,4.258471380345212887e-01,4.979357893959337478e-01,1.908785711996525969e-02,-2.328241941136914052e-03,5.819944516501742056e-03,8.071375638246536255e-02
4.018310089446696654e-01,3.931288924494296677e-01,4.706472180388541759e-01,9.972576902109344180e-03,-5.571790972407287580e-03,1.868313425274273180e-03,7.623783499002456665e-02
4.191610845215528180e-01,4.209458707561575808e-01,4.871149737766030663e-01,1.637151056419647657e-02,-5.589213295998939762e-03,4.177260319301241177e-03,7.382261753082275391e-02
4.064387367931230899e-01,4.149080340315408622e-01,4.816910892275423905e-01,3.018656319220865657e-03,2.973038569840045489e-04,1.277526184167813994e-03,7.162268459796905518e-02
3.666825996662544940e-01,4.202263803829019428e-01,4.799237802925209739e-01,1.105884588066218845e-02,-4.128386745899432879e-03,5.650045397826748347e-03,1.007022038102149963e-01
3.729395268235780048e-01,4.459448973944250549e-01,4.839603683495639630e-01,8.500317622519560495e-03,-3.774299851186775200e-03,1.310614851535042355e-02,1.016125455498695374e-01
3.761848444638121181e-01,4.614678272721736696e-01,4.134555078008986251e-01,-3.265479207279970916e-03,-1.542300134299621345e-02,-1.538054209615297499e-02,8.330076187849044800e-02
4.532077835316138947e-01,5.084481298897896018e-01,3.676718979907962481e-01,-4.554589816589004370e-04,-1.318115409001268182e-02,1.984729550094106731e-03,1.250063329935073853e-01
4.156810710964793376e-01,4.880455992222246797e-01,4.072361008105850333e-01,2.494988834249606095e-03,-2.286299074736616085e-03,6.362393608573304856e-04,7.716624438762664795e-02
4.102696267784791684e-01,4.176127977232987343e-01,4.888998509166522233e-01,2.839889576152935646e-03,-2.277150956618834415e-04,1.461075911736823836e-04,7.539001107215881348e-02
4.613998100916779643e-01,4.647531017785152541e-01,3.058930051195781763e-01,9.701843879095360668e-03,-8.520957912916989410e-03,1.149966858446617619e-02,1.600374877452850342e-01
4.503704986950380906e-01,4.126433220580095762e-01,4.374869783552270963e-01,-1.079303870437038973e-02,1.098166001654534915e-02,1.115125168494011942e-02,4.677154123783111572e-02
4.642469687804086642e-01,2.479199433063870583e-01,4.649381630481157490e-01,-2.572568600478676581e-02,1.081726427364882240e-02,4.137332027422040148e-02,2.332790344953536987e-01
4.204719027795754127e-01,4.479285796043286916e-01,4.663125757222226220e-01,4.141987314366915932e-03,-3.992643685688622782e-03,8.331223214248024284e-03,4.363626241683959961e-02
4.874509842895027312e-01,2.285164044912678660e-01,3.852642776600313512e-01,4.772093026240762509e-02,-5.500866541489066175e-02,1.699579594875779975e-01,3.919137716293334961e-01
4.819829544670019006e-01,4.291411744083996616e-01,4.193516973785007540e-01,5.602015498330946940e-03,-2.705506760557886518e-03,2.821271122892292566e-04,5.934413895010948181e-02
4.165115222359072056e-01,6.567638553101854404e-01,5.624585999762259370e-01,2.306992162944982716e-01,-1.159054601433107540e-01,6.766215280377697872e-02,5.076029300689697266e-01
5.153360259992408876e-01,1.679756006273335212e-01,5.879303533473112520e-01,8.441785821212227647e-02,7.279219904611210776e-04,2.330051875351992971e-02,4.173188805580139160e-01
4.360222682997372257e-01,4.254320702726698267e-01,4.259991668165472034e-01,3.746948245638745401e-03,-7.543334733769534346e-03,1.503520222979208175e-03,1.805753260850906372e-02
4.460635228040140676e-01,4.510643627517458842e-01,4.013687479012952308e-01,1.419233924073611507e-02,-6.041651912879073862e-03,3.428689989826202295e-03,5.472826212644577026e-02
4.833635046959570691e-01,4.189044597036460371e-01,3.963089749961470343e-01,-3.916526436888080435e-03,-1.074602988076348411e-03,6.208001449582860841e-03,7.929128408432006836e-02
4.608847611094162855e-01,4.067674556168447975e-01,3.851630032980010165e-01,7.986444460597635214e-03,-3.896664094138262494e-03,3.366943723204986628e-03,6.953790783882141113e-02
5.567926780540132237e-01,4.470628944784712511e-01,6.238678682448217661e-01,2.174942237742630846e-01,-3.106302574379979711e-02,1.205966939483058831e-01,4.607998430728912354e-01
4.402097071310096532e-01,4.127129344269085953e-01,4.221484831369191615e-01,4.982914338419349581e-03,-1.040368741260777781e-02,4.462608634885415794e-03,3.232024237513542175e-02
4.523050622510374486e-01,4.353172678122397832e-01,4.077584055867687352e-01,1.256755732302114459e-02,-2.616877539074263619e-03,-3.810077033178749066e-04,4.484473913908004761e-02
5.406237523940675693e-01,4.126916707318916688e-01,5.144598763679725240e-01,6.429699087761207681e-03,-8.375890719821808481e-03,4.642191254091506541e-02,1.431902199983596802e-01
4.183353154867541779e-01,4.213387795734689356e-01,4.349128878781681196e-01,-8.709534182421472355e-04,-2.335433934927449735e-03,1.114981786416675835e-03,1.601294986903667450e-02
6.884210692627974471e-01,4.216306581348656102e-01,5.819364207851330795e-01,-5.680495741563656303e-02,5.431258373731443628e-02,7.481605331829509209e-02,2.990473508834838867e-01
7.120321448275052090e-01,3.675799803583009728e-01,6.617528366725999867e-01,2.126425001922563687e-02,2.449689910056000730e-03,3.891121339433790960e-02,3.313204646110534668e-01
4.164123299028643088e-01,4.221232545487108578e-01,4.316049631538533826e-01,-3.671957690678232487e-03,-3.101181864005782447e-03,-5.224744865457799092e-03,1.810697279870510101e-02
4.419543197243800958e-01,4.192610764397467493e-01,4.014763127248468511e-01,-1.271313190367846270e-02,-4.628240260645002588e-03,-5.864636023027097918e-03,4.344179853796958923e-02
4.467436742195250443e-01,4.467545957713501825e-01,4.312409715274674316e-01,-4.193126169034602432e-03,-2.026572889089527617e-03,-2.350191812665997169e-03,1.794829592108726501e-02
4.532786385590472089e-01,4.344631008889560109e-01,4.121119275494225520e-01,-9.625602380575413661e-03,-4.608776792158366872e-03,-5.925340846988265409e-03,4.148682951927185059e-02
7.444458464530738784e-01,8.940180371546306848e-01,6.286651546250877631e-01,8.311947411134025521e-02,-1.712439215161285777e-01,1.542086292489313337e-01,4.828410446643829346e-01
4.202552837953620890e-01,4.249924556518245300e-01,4.512716206028433708e-01,-4.044061553321637477e-03,-5.625815557674318339e-03,-7.674457716206097881e-03,3.403276205062866211e-02
3.909069783193187542e-01,4.268291444874874885e-01,4.410775520929026694e-01,-1.342769292648109819e-02,-3.963276927304492693e-03,-1.913568659210739334e-02,6.076024845242500305e-02
3.547227457518032923e-01,4.777937364180930291e-01,4.462353431466936082e-01,2.371431597337013072e-02,-5.112615698436576844e-02,1.615156564125102417e-02,1.502326726913452148e-01
3.749339803535089999e-01,5.348577429994808563e-01,5.186330822746454405e-01,8.457980274597506898e-02,-8.708950895607117659e-02,5.037557246254438514e-02,2.739930748939514160e-01
5.326936837563566174e-01,5.993577033408815646e-01,5.938804238188439832e-01,1.082868111593296712e-01,-1.131100760978266673e-01,5.114729643798081316e-02,2.924326658248901367e-01
4.093968490030956975e-01,5.276252030117711822e-01,5.343954682917909649e-01,1.454488552719861161e-01,-1.237907847114318033e-01,8.911639052393384441e-02,3.848220407962799072e-01
4.370029897332738389e-01,4.770203828835353765e-01,4.381011050417150665e-01,-6.897451363147453704e-03,-9.497094198828203229e-03,-6.002701696714483025e-03,4.560767486691474915e-02
5.298753867014025509e-01,7.222729334182854677e-01,5.408435667993843898e-01,2.292388079809690171e-02,-2.370718158892710925e-01,1.598629243865793970e-01,5.309246182441711426e-01
4.056835700335191253e-01,4.852294194074139311e-01,4.104447382676867928e-01,-6.679123720463586711e-03,-1.389122295915815215e-02,1.347977654449361443e-04,8.175735175609588623e-02
4.144876990231235458e-01,4.499935861980046137e-01,4.162805700299613831e-01,-2.879267405385305210e-03,-1.531187023963144662e-03,-1.935653690253587864e-03,3.526144102215766907e-02
1.966049945567210633e-01,3.466413577928639800e-01,2.160563989835262433e-01,1.311641074560526976e-01,-2.615302725304030629e-01,1.166703502409830312e-01,5.635716915130615234e-01
3.193342966342015976e-01,4.740606811466793746e-01,4.830966740829052974e-01,1.272124159309859920e-02,-1.099005504342656127e-02,1.480850626051565325e-02,1.640905886888504028e-01
4.078291748167077180e-01,4.900011366421915815e-01,4.494469573654567007e-01,-1.009610171134431994e-02,-2.876746688352516124e-02,-5.316211636291405356e-03,8.909398317337036133e-02
4.895101419571171730e-01,4.680014292995178238e-01,2.828509157589305101e-01,-1.494871433303021288e-02,-2.114722830163263522e-03,-2.865633379075570308e-02,2.046290636062622070e-01
4.343884134793271068e-01,4.133760231645710048e-01,5.068684515300476701e-01,-4.696465677837505237e-03,-3.156663222267258075e-03,2.986415659076185631e-03,8.567774295806884766e-02
4.406779879768996655e-01,4.604882696738026304e-01,4.273985731440125280e-01,1.052430622446289508e-02,-2.816691849088701766e-03,2.856453361292583641e-03,3.481984138488769531e-02
6.117682669384355565e-01,4.216572342714344224e-01,5.735733791363992751e-01,-5.668885580880824587e-02,-4.788025114488294459e-02,-1.161696126771480375e-01,2.955407798290252686e-01
4.446605581271536045e-01,4.719342557589606413e-01,3.761373892176728129e-01,1.032798501579113189e-02,-6.318301691839535439e-03,8.015973887832851530e-03,8.911056071519851685e-02
4.126801185156056540e-01,4.381714669429349618e-01,4.151533606906012142e-01,3.513358376876113062e-03,-3.321443104272106452e-03,6.461255915769398631e-03,2.807579003274440765e-02
4.356897175724750992e-01,4.216191725062945483e-01,4.096998611556660896e-01,6.190432368416116243e-03,-3.482414177580223612e-03,3.894497897876736305e-03,2.654446661472320557e-02
4.350684888782114790e-01,4.285223786888744391e-01,4.067404977162041857e-01,8.576058909118340623e-03,-5.603628307198546803e-04,3.495644209729326362e-03,3.030074946582317352e-02
3.886502425964648566e-01,4.123590793026878920e-01,4.306902238344396117e-01,-9.037597633093476593e-03,4.768001920932482193e-03,1.008121822504603159e-02,4.416875541210174561e-02
4.226940455581424394e-01,4.292756577103719606e-01,4.466898502938198567e-01,-1.293643036775542383e-03,3.165181181858879936e-03,5.914948485144649014e-03,2.451980113983154297e-02
4.488887330152565580e-01,4.924425765519634957e-01,3.593734477191607990e-01,-2.896391029936248255e-03,-1.337053000430172070e-02,2.219041921314475387e-03,1.199371144175529480e-01
4.231971541273803483e-01,4.163610615694464112e-01,4.346760824842279547e-01,-4.286858296113640714e-03,6.886810407978695252e-03,2.114050652770452406e-03,2.162851206958293915e-02
3.843754666041367396e-01,4.076120887114103586e-01,4.291040595335068319e-01,-7.528916962806334739e-03,3.962265472231025522e-03,1.174666771882665328e-02,4.617738723754882812e-02
4.349300721152796756e-01,4.351824061212477557e-01,4.464809447776438289e-01,-4.480543168331413938e-03,6.386623238016005469e-03,4.195626395646610135e-03,1.913045160472393036e-02
4.334851572311300694e-01,4.330547021278756681e-01,4.597803219824010967e-01,-1.838929820463809303e-03,1.874334471453825268e-03,2.052982407348131425e-03,2.713426761329174042e-02
4.111959232899380923e-01,4.180292318115376160e-01,4.440731421642183374e-01,-8.438220629453339894e-04,6.165090672032867529e-03,1.936872738944076574e-03,3.209923580288887024e-02
4.621190767011797429e-01,4.186547227872893240e-01,4.118033761423844918e-01,4.747299554122117946e-03,3.567258133628006789e-04,1.123987792621762832e-03,4.801731556653976440e-02
4.124340754896487216e-01,4.087605028251522499e-01,4.873552514265753755e-01,-1.488566729944839490e-02,-5.878944290205099198e-03,-7.935167807485377089e-03,8.282054215669631958e-02
4.255708946362004030e-01,4.237191129298897851e-01,4.219961005373659146e-01,9.564173717043044764e-04,-1.464953717758891560e-03,4.479098416213724986e-04,4.401459824293851852e-03
4.449158397759119254e-01,4.626071293711511712e-01,3.924777554704720339e-01,-1.443134178926500956e-02,2.362919380125567959e-02,2.201032897886625109e-02,8.799774199724197388e-02
2.464145502719108649e-01,4.407947893512731419e-01,5.185995529433411466e-01,-9.161420987112514625e-02,-3.752828388500962370e-02,-4.850050493496752685e-02,3.089052736759185791e-01
4.844981841810193091e-01,6.008778814126897183e-01,6.492995441358520026e-01,-7.711234237212763465e-02,-9.881460772646401269e-02,-6.221978587056636867e-02,2.833196222782135010e-01
5.261477523027169312e-01,6.072039728384599488e-01,5.974293025828569803e-01,-9.054731746831945483e-02,-9.382201403789572347e-02,-6.116771299371864118e-02,2.609635591506958008e-01
4.372873579404422117e-01,4.120255625937441768e-01,4.120424271575849340e-01,-6.491788778642968750e-03,-6.411517027594140772e-03,-8.405403491847464326e-03,3.315776959061622620e-02
3.522265359368289550e-01,4.350748665980957997e-01,4.599603978233588464e-01,-1.357734641159579793e-02,-1.024917612236723140e-02,-1.888982045926987027e-02,1.071611195802688599e-01
4.223335501324068653e-01,4.865743742295859930e-01,4.311201455792608717e-01,-2.574995196328362049e-03,1.065625889765527048e-03,5.855815773575690809e-03,6.136611476540565491e-02
4.279991027050750185e-01,4.251507275785038065e-01,4.225419037703563307e-01,-3.334018831949188150e-03,-2.646752812588964911e-03,-1.091238775468889640e-03,8.960215374827384949e-03
3.623970815053801364e-01,4.494799751649370956e-01,4.906688209602650952e-01,-1.057095211789419245e-02,-8.565215361000477062e-03,-1.763079554275406857e-02,1.198109090328216553e-01
3.988663879496813225e-01,3.032512110785668402e-01,4.047785518757951451e-01,-2.217468193531151391e-02,-2.790737929598395214e-02,-2.197653062385995434e-02,1.224868446588516235e-01
5.749343046710362337e-01,7.687275167019412825e-01,5.255057827892138933e-01,-3.912912840544285897e-02,2.909642904647495310e-01,9.154831973215071805e-02,5.773171782493591309e-01
4.090390143082214824e-01,4.475531675814332644e-01,4.089607953632292126e-01,-5.932376702922539241e-03,-2.044504447004573053e-03,-2.178467359659787099e-03,4.023325815796852112e-02
3.698676202785029510e-01,4.757991788843418668e-01,5.321755406001491551e-01,-3.839786627221804943e-02,-1.165037779741430295e-02,-6.633918948031901179e-03,1.591673195362091064e-01
4.250204115833665086e-01,4.490467588810297395e-01,4.208140319717835198e-01,-4.358662950366357786e-03,-1.695361951748737160e-03,-1.468170252197948701e-03,2.771472744643688202e-02
3.094290900918415521e-01,3.315324195785750994e-01,5.139368063587903546e-01,-1.061026372088186426e-01,1.623865326516160841e-03,-3.273939244963048559e-03,2.675911784172058105e-01
4.412688504481394047e-01,3.731207969946769842e-01,4.119477487874760313e-01,6.400863967054849953e-03,-1.871157982449857954e-02,1.314548120506979501e-02,7.209300994873046875e-02
4.333233637005575178e-01,3.689232934961541588e-01,4.066082369973103017e-01,6.906919616997768060e-03,-1.735552618757288390e-02,1.285107478962293527e-02,6.843113899230957031e-02
3.881910433216505529e-01,3.889775305066697775e-01,4.695715112865046503e-01,2.457366728888241147e-02,-1.633935279179180369e-02,1.405579865255543286e-02,9.881603717803955078e-02
4.320222319466905936e-01,4.045022012130468081e-01,4.067759787628017487e-01,3.043523689796592477e-03,-8.536643686328601599e-03,6.678506183850694937e-03,3.286589309573173523e-02
3.979503417186735503e-01,3.559920600531927826e-01,3.884650500622354174e-01,1.106257475234877045e-02,-1.857536850060955563e-02,1.368111950097891660e-02,5.844891071319580078e-02
4.482048474784722236e-01,4.349933244759356388e-01,4.399403983944883412e-01,1.323552088191805309e-02,-1.714256908190303283e-02,1.968784521066955714e-02,5.199647322297096252e-02
4.280376648945450335e-01,4.998874249426488170e-01,3.955283046184019380e-01,2.429782348199041771e-03,-7.468210832924458871e-03,2.323886737320020410e-03,9.357494860887527466e-02
3.585559171799381772e-01,9.473112735444148835e-02,1.272524204860658870e-02,2.663878501801188181e-02,-4.810678321210190567e-02,2.585489808469265127e-01,5.545971989631652832e-01
4.019844132734460840e-01,4.264039627387294362e-01,3.666135271663773509e-01,2.045846083097597329e-02,-2.852755755822598480e-02,2.465041655567085793e-02,9.072592854499816895e-02
4.616903143994467995e-01,4.108964230732412570e-01,3.688830695968919882e-01,-1.306985172807271535e-02,-4.844746114925769023e-03,-9.680428003573958440e-03,8.569231629371643066e-02
4.112960921867098163e-01,4.195627741633607410e-01,4.434643303340191078e-01,9.227360212146694385e-02,-1.556598901483222663e-01,2.258723301704429198e-01,5.021209120750427246e-01
4.162909354813331686e-01,4.498696637325598768e-01,4.731443466784803764e-01,2.014881784522907018e-02,-1.185431973772676194e-02,1.215269240184003487e-02,6.733007729053497314e-02
5.279951409516122629e-01,4.478259477128579413e-01,4.153812086937009873e-01,2.118548394304688859e-02,-1.462461025547718424e-02,6.708280963487305015e-02,1.599038839340209961e-01
4.740256340512574718e-01,5.021711860440027930e-01,4.400483943653841767e-01,-8.407858152030366419e-03,-1.931988667897759082e-02,-1.500694306285528697e-02,7.007430493831634521e-02
1.943974724014243538e-01,2.216729876989007864e-01,3.995489118237605664e-01,-1.313861957091556065e-01,1.909595383015663325e-02,2.150016272293007319e-02,3.024949431419372559e-01
4.206963858250153399e-01,4.793422087798156483e-01,3.917421632365762907e-01,-3.908556321919879305e-03,-2.792497835410018628e-03,-2.430955060209515593e-03,7.786319404840469360e-02
3.425658403037877275e-01,3.068541482351447858e-01,2.787451660157105882e-01,1.238005964175917378e-01,-1.118127091524652728e-01,1.734596837940323433e-01,4.204997718334197998e-01
5.552691016000605995e-01,5.241187055998913769e-01,4.188835899783884820e-01,1.941853300919396674e-02,-1.293224727344044478e-02,5.145342575488438819e-02,1.577917188405990601e-01
5.151183012330392552e-01,3.211026316822790383e-01,4.439234442714570239e-01,4.669765689240872909e-03,1.275735379434457528e-02,-3.655282184436071946e-02,1.829203814268112183e-01
4.149007026476381199e-01,4.822598880533643939e-01,4.069696416668459049e-01,7.242459775278329084e-03,-1.502291700135973719e-02,5.418018434093285762e-03,7.782595604658126831e-02
3.097263109835139416e-01,4.952862538942625625e-01,5.062927369276508660e-01,-1.180562428150397011e-02,1.016810304032789158e-02,2.101761427317409836e-02,1.965947747230529785e-01
4.656491742142291890e-01,4.227645881463894528e-01,4.233730876687029077e-01,7.843398134277470776e-03,6.109795839115323562e-03,-7.963781600769753027e-03,4.796012490987777710e-02
4.956838033277336519e-01,4.047067018155655616e-01,4.263342549805174131e-01,-2.938569581091152877e-03,4.294524098605597730e-03,-3.386041608279795334e-02,1.014780253171920776e-01
4.635184910934828095e-01,3.393422649389569168e-01,4.323737375515219750e-01,7.601334415944251653e-04,1.707536334947450801e-02,-8.778173327042846155e-03,1.167471632361412048e-01
4.837298409214043637e-01,4.206409292010806489e-01,4.209602854690603913e-01,7.659955650500357982e-03,4.388491819973670133e-03,-1.462437148155370549e-02,6.953835487365722656e-02
4.688186066631623294e-01,4.092769355332012693e-01,4.190970086091109770e-01,2.387519597107289667e-03,6.282168316360998463e-03,-5.377411752942735414e-03,5.726419761776924133e-02
4.272486650624996440e-01,4.309716822616004306e-01,4.298949745730783478e-01,7.124027486485881100e-04,5.800763144700006113e-04,-3.673979924430457056e-04,3.734771395102143288e-03
4.278435423746472788e-01,4.306134713279669568e-01,4.283724791998531067e-01,8.264878987560859286e-04,4.775589550829029530e-04,-2.544855034992604464e-04,3.068368649110198021e-03
4.054620720402039025e-01,4.703433010671341785e-01,4.161324594031985957e-01,3.678609047713440623e-03,-5.083228023074401296e-03,7.762789051714426118e-03,6.268987059593200684e-02
4.236063987756972793e-01,4.428723453241443231e-01,3.987725421912751700e-01,1.380614475246470275e-02,-7.806384445303560932e-03,5.876040838884059349e-03,4.821385815739631653e-02
4.400869984556327053e-01,4.207418759340010306e-01,4.166093848974601332e-01,2.387860240970169929e-03,1.611176718714477443e-03,-1.015881488513283156e-03,2.234377153217792511e-02
4.399434552898944806e-01,4.184362222520051078e-01,4.183052345316092824e-01,1.017875892767114042e-03,2.993938466878429822e-03,-9.732470053694553154e-04,2.232120558619499207e-02
4.378963670806351183e-01,4.132630139692481941e-01,4.177637300331005776e-01,3.759513381469623602e-03,8.672087625865401370e-03,-3.516294267272079138e-03,2.865834720432758331e-02
4.450365765938703033e-01,4.262137255775468314e-01,4.411813476095046704e-01,3.417532288637124653e-03,9.681885923757852647e-03,-5.895006823207266621e-03,2.677881158888339996e-02
3.878762495795269327e-01,4.000206280891428490e-01,4.678278689873374696e-01,1.033015245529503127e-02,-1.759064201754051903e-03,4.499039573038023966e-03,7.719409465789794922e-02
4.273285536862506118e-01,4.281057372124869032e-01,4.283309811177515858e-01,2.170913361121075598e-04,-1.414879635916648079e-03,1.394852334860477536e-04,2.652397379279136658e-03
4.311545140087519878e-01,4.234290966898644482e-01,4.187388458099236543e-01,4.610697183554555642e-03,-2.914038761828271346e-03,2.509144912801060476e-03,1.503504440188407898e-02
4.341949738105973511e-01,4.331296298023170066e-01,4.356762835088148766e-01,1.285107316457164469e-03,-3.380696581580399121e-06,-1.285146315750205744e-03,3.849244210869073868e-03
4.323373270792946199e-01,4.306491581890695142e-01,4.147002643158128610e-01,7.772178569340188956e-03,1.615041721218835090e-04,2.805645635673674563e-03,2.211458794772624969e-02
4.187997014981738597e-01,4.122712852355123747e-01,4.403538148529810292e-01,5.837724577511188909e-03,1.097083511763127621e-02,-3.748960269346402353e-03,3.396164253354072571e-02
4.265041085078050687e-01,4.871949329244237847e-01,4.339525491789983924e-01,-2.088531461951000090e-02,-1.549410356830574834e-02,-1.282632451500539256e-02,7.621770352125167847e-02
4.285881172819975271e-01,4.625858244621105508e-01,4.452522008882184856e-01,2.583674349505619104e-03,6.067271357015829175e-03,-1.181484902704601180e-02,3.763281181454658508e-02
3.365249011389195855e-01,4.163520016546388702e-01,4.447845207500512044e-01,2.017637200005346215e-02,1.615108745893656383e-02,-1.546302727878255678e-02,1.103250011801719666e-01
4.238093557311454762e-01,4.269636703382520548e-01,4.394559456942761511e-01,3.495687337754245071e-04,2.868016777068273151e-03,-4.056408280911110082e-04,1.519697345793247223e-02
4.917320683584205376e-01,2.291417830449207493e-01,4.941863331599253839e-01,5.300027056397064312e-02,-2.739826266760295170e-02,9.361215135929084816e-03,2.838065028190612793e-01
3.061875589885109106e-01,3.319025553656584915e-01,4.438959298132194586e-01,6.097848762934901523e-02,-3.609733807923895706e-03,3.921410347289288646e-03,1.652998328208923340e-01
4.136605313294649533e-01,4.827099869631225060e-01,4.202463720557498283e-01,-1.449843907720519169e-04,-1.499551353975594505e-03,-2.763924350124303316e-03,6.622823327779769897e-02
4.101218070317606545e-01,4.236289958454515503e-01,4.077453271936666845e-01,-5.907641179272557670e-03,-2.531007809919449698e-03,-2.516061855462678552e-03,1.905522868037223816e-02
4.325261738932453803e-01,4.435754689906882264e-01,4.243531269718219257e-01,-1.089170500077388986e-03,-4.958835114361757890e-03,-3.979579709808010561e-03,2.010055258870124817e-02
4.252569032171157892e-01,4.247769535734084445e-01,4.243188055246435164e-01,-1.815741223448375527e-03,-1.074399656552172625e-03,-3.531528301916236402e-04,3.793157404288649559e-03
5.778751613560706435e-01,2.742262391906826191e-01,5.551733544599237735e-01,5.259234348745348009e-02,-2.600058810822492364e-02,1.530262374927773492e-02,3.112123608589172363e-01
4.126673554905683772e-01,4.068853090173669695e-01,4.793626702292574926e-01,-1.376878708032704514e-03,-1.008108333104095053e-03,-9.021408414437051375e-04,6.984633207321166992e-02
4.228938632449016910e-01,4.378711340656115669e-01,4.333351035562572617e-01,-3.079506520673589397e-03,-1.464076047327706994e-03,-6.178695017777593307e-03,1.806561090052127838e-02
4.993976095050765562e-01,2.642435418700337380e-01,5.172175609835312216e-01,3.505422572328092262e-02,5.136243224447531279e-03,1.600668131355937468e-02,2.536525130271911621e-01
4.155838664803407356e-01,4.861670461922656949e-01,4.149018343445709522e-01,6.443173707210597982e-04,-1.162146230459915660e-03,-8.144693072805697610e-04,7.097800821065902710e-02
3.243683080571576616e-01,-1.396275908024206536e-01,3.940944992410118086e-01,1.199487773519194583e-01,-1.127937936764697143e-03,-9.222663694936242967e-03,5.439932942390441895e-01
2.404579161778499508e-01,-9.150910681934931734e-02,3.801821907835850611e-01,1.724358642497053895e-01,3.683283170006049906e-02,-6.426935139462493229e-02,5.308228135108947754e-01
4.085066887248596235e-01,4.709008579503548564e-01,4.134612500896915344e-01,-4.676283362971728891e-03,-4.090006244859331792e-03,-2.878490439642379835e-03,6.122980266809463501e-02
3.673527007412827894e-01,1.339113273896886114e-01,4.922285406959601151e-01,1.773918078358612260e-01,-4.599851312615229476e-02,7.210206928558195172e-02,4.643138051033020020e-01
5.468696789613637366e-01,6.155226344337065836e-01,6.802546447643277316e-01,-9.686297985805310262e-02,4.950374978523867930e-02,5.450858739577785911e-02,2.403336018323898315e-01
4.154138755481327494e-01,4.743793073402721161e-01,4.227833059968730822e-01,2.262876637018492246e-03,-3.448163115273493624e-03,2.041114172302766795e-03,5.621582269668579102e-02
4.108376538839857428e-01,4.804758667954335816e-01,4.107713000681376125e-01,-5.442397251430974425e-04,-1.151957378634800491e-03,-7.765665602245955734e-04,6.971932947635650635e-02
2.415550383436540216e-01,2.677216534646212898e-01,-2.838206023854142335e-01,-3.594507712881005179e-02,1.384175015011528675e-01,9.675750412002935563e-02,6.163537502288818359e-01
7.967045110128956331e-02,2.606996416330802369e-01,4.378502813734269639e-01,-2.063232730001529902e-01,4.262130992188190720e-02,-2.115422114615628235e-03,4.789513349533081055e-01
1.857049470331120222e-01,5.377579543261088446e-01,7.639873018442273622e-01,-1.286173442124825816e-01,5.914351598820800221e-02,3.455904052293143347e-02,5.643313527107238770e-01
4.162657509649821952e-01,4.276728882474601368e-01,4.336839565130058416e-01,-2.267332601979573769e-03,-1.953508829573116432e-03,-7.556528285272496454e-03,2.080863155424594879e-02
1.576924924369571268e-01,3.143057620087059134e-01,4.354592176697375527e-01,-2.010735370267303368e-01,1.076775278280712456e-01,5.527320373662159003e-02,4.726738333702087402e-01
5.679580479877710530e-01,6.286988127462174170e-01,7.107598961987789954e-01,-9.058489717575410327e-02,5.994128620855460055e-02,5.210782599669672166e-02,2.427948415279388428e-01
4.274764221879900350e-01,4.329576468751112905e-01,4.714450147853367357e-01,8.263780937525302267e-03,-9.041995374425562323e-03,8.416562180071611096e-03,4.883582890033721924e-02
4.062017131090427946e-01,4.785234582087981581e-01,3.996291108607777365e-01,3.103072003582868282e-04,-2.007124234886676403e-03,9.973621785589060606e-04,7.592321932315826416e-02
4.103480019447013349e-01,4.788972447871174820e-01,4.344293330925031449e-01,3.335410671978816799e-03,-3.068144582103482683e-03,8.394761584185261513e-03,6.245945766568183899e-02
4.007474748705097123e-01,4.104127605515531241e-01,4.347081492093853861e-01,5.575976681437441913e-03,-3.495431362448377967e-03,8.224513638230296006e-03,3.537459671497344971e-02
4.060080195252119828e-01,4.170564272186997323e-01,4.492615921426970083e-01,4.311496331862820809e-03,-4.063165029829683521e-03,8.390582409695047580e-03,4.279668629169464111e-02
4.149827279791654111e-01,4.472528984957257481e-01,4.181932383221659277e-01,3.707112133635401176e-03,-1.799309095062666527e-03,7.719982953858449924e-03,3.431912884116172791e-02
4.128367694037999303e-01,4.180270043901954113e-01,4.646404258598769710e-01,1.292109080785976052e-03,-1.940605972218296081e-03,4.281932369529550635e-03,5.012978613376617432e-02
4.087308396629413254e-01,4.131537152161620097e-01,4.401842090911341487e-01,8.988254917274837025e-03,-1.024070014237590462e-02,1.072862089501574155e-02,4.209576919674873352e-02
4.336739705481199025e-01,4.735273353604713131e-01,4.404471416678058526e-01,-7.061627669481727876e-03,8.489522290362504220e-03,1.055525957710817114e-02,4.543444886803627014e-02
4.322299000838693006e-01,4.770650305189941265e-01,4.001309393768954781e-01,1.252814273378394933e-02,-2.488512275720231384e-03,4.536972020806438397e-03,7.092874497175216675e-02
4.017127662016057865e-01,4.529603415033002234e-01,4.181666840784061812e-01,-6.079198804064898064e-03,4.247546310429170698e-03,1.100326691782539494e-02,5.081370472908020020e-02
4.352509640454422235e-01,4.371873779509528601e-01,4.471396649772010901e-01,-6.544179492714850485e-03,6.851647846615842308e-03,6.918035775779998731e-03,2.312922850251197815e-02
4.219939939636383475e-01,4.234452313258622036e-01,4.208485065914346346e-01,1.337740405568088034e-03,-1.561023123293292817e-03,2.516453193109274324e-03,6.062775384634733200e-03
4.190215339758117108e-01,4.473672073138060257e-01,4.280663168973696253e-01,-6.817580364405250934e-03,5.383372586101864074e-03,6.712738604764751510e-03,3.147169575095176697e-02
3.598068502911759836e-01,4.256202770198129204e-01,3.937753345857038512e-01,-9.364175912758593290e-03,1.231267739128703506e-02,1.178496677637561919e-02,6.621335446834564209e-02
4.020767937258709068e-01,4.221391134223406727e-01,4.277017467149982766e-01,-2.454700767273612898e-03,3.726431451817011856e-03,7.302255414029584606e-03,2.765399217605590820e-02
3.826948844420922646e-01,3.889093415057578440e-01,4.622732255602752804e-01,-1.011437464964921699e-02,-3.619934383291549974e-03,-6.827754857741554981e-03,7.976756244897842407e-02
3.944240708356208103e-01,3.821979541107971556e-01,4.719152678573377280e-01,-1.168799080761392765e-02,-3.995721902516110279e-03,-1.128438610201811659e-03,8.696737885475158691e-02
4.093262099162225387e-01,4.110023719543333121e-01,4.802946621812435035e-01,-1.450839226109707772e-03,-1.983114951567787904e-03,-3.148901624194371061e-03,7.048571109771728516e-02
4.252113975184959038e-01,4.273193739297978522e-01,5.076236597909750126e-01,-1.462280974187303920e-02,-1.468036121622633876e-03,-6.396685383018514736e-05,8.526698499917984009e-02
4.204187916782895496e-01,4.347676489967122748e-01,4.277603469585411489e-01,-2.299336676026943541e-03,-8.841954337630012666e-04,-3.758361161772871134e-03,1.466380897909402847e-02
4.089723353622747304e-01,4.559388737838958594e-01,4.162189810428552073e-01,-4.808010679804877903e-03,-2.288631651407491922e-03,-3.078478359011812410e-03,4.507233202457427979e-02
4.473682246956495745e-01,4.307059474047890690e-01,4.468237785117279981e-01,-3.717332723880032580e-03,-4.100406167400381767e-03,-2.777765717937210731e-03,1.959336176514625549e-02
4.212736114271711241e-01,5.479752915790725432e-01,1.915489780205187620e-01,-7.801756859524823506e-02,-1.619875319733468100e-01,-4.498057550389164549e-02,4.483113586902618408e-01
6.254202291291484084e-01,6.014644855804675005e-01,2.612667647499096746e-01,-4.036316511636589555e-02,-2.151510449060096697e-01,-6.413006559976511256e-02,5.296730399131774902e-01
4.211972002408385651e-01,4.653144128791101286e-01,3.864639621168096673e-01,-1.169350572631506352e-02,-6.719532148436170756e-03,-1.390421603460836398e-03,7.236387580633163452e-02
4.585026448351934292e-01,5.151750485939499136e-01,1.956479010864146661e-01,-3.687646998718169256e-02,-7.544144421651831356e-02,5.970152596712730714e-03,3.293353617191314697e-01
4.072458030917719407e-01,4.517149046822145908e-01,4.239983050687129440e-01,-2.525752697621588133e-03,-4.037237743965795163e-03,-8.080233476548383253e-03,4.215548932552337646e-02
4.561305084024859235e-01,4.353357313513611659e-01,1.710692680207214766e-01,-7.717450761685440246e-03,-2.467275279044309558e-02,-4.252442578646446064e-02,2.884344756603240967e-01
4.062095084736357942e-01,4.386847343856258297e-01,4.917910474581748126e-01,-2.902436043141583960e-02,-9.374657855518284469e-03,-5.760806084602173617e-03,9.214127063751220703e-02
4.094685915289650868e-01,5.020377134596170077e-01,4.384078566258426957e-01,-3.855349252333007456e-03,-4.937839529369604866e-03,-8.153180478842883203e-03,8.393331617116928101e-02
4.259246451283083545e-01,4.769889659419991323e-01,4.231009465775366074e-01,-1.966588089156771392e-03,-4.053360094414359786e-03,-2.852699380316216660e-03,5.333885550498962402e-02
6.651466330978786923e-01,6.644912407449710123e-01,3.486835124779356088e-01,9.324475365973084557e-04,4.226816814258984450e-02,3.418580507145069485e-03,3.245603144168853760e-01
3.923830289658141734e-01,4.865342594038542523e-01,4.248386958567474392e-01,6.958705372652729780e-04,-8.488543100649904513e-03,3.779035120340849298e-03,8.439517766237258911e-02
4.095859442126031924e-01,4.314909808944867309e-01,4.265757300574444244e-01,5.730649779476206440e-04,-2.430296893060966516e-03,8.901459364422747642e-03,2.554865367710590363e-02
4.169754460890118253e-01,4.090606125849186592e-01,4.860627154344349110e-01,-2.408560160720473950e-03,1.513506988463057899e-03,1.637382985513765590e-03,7.358551770448684692e-02
4.613750886395415751e-01,4.151015928143265699e-01,4.399372243945116612e-01,-1.560660567585513657e-02,-2.643921120498435307e-02,-2.801374991265957390e-02,8.240702748298645020e-02
4.094194408676781194e-01,5.056986890210414254e-01,4.711108669178728503e-01,-4.659047803933592802e-03,-7.763885450341767233e-03,-1.591834094944545239e-02,9.023334085941314697e-02
2.985939708846388485e-01,4.965025497759011919e-01,5.093837005849658484e-01,4.234470087859912302e-02,-1.013197268847987158e-02,2.941062566456498825e-03,2.181654423475265503e-01
4.027885999296269004e-01,4.628318121981246369e-01,4.083249022819350205e-01,-3.637667662277158705e-03,-7.639335164252599559e-05,-1.248123820649674589e-03,5.786025896668434143e-02
3.893187819467460176e-01,3.377696815283409704e-03,2.636023169197068139e-01,-4.912071318904988326e-02,-3.653634448446992089e-02,-2.064501260328985288e-01,5.053159594535827637e-01
3.890990012098035633e-01,4.787198413586586931e-01,4.482156477429077857e-01,-4.878102692758255754e-03,-7.853614270817255855e-03,-1.016978966973351023e-02,8.243354409933090210e-02
4.156706428130189646e-01,4.704943266368193933e-01,4.053966063526231456e-01,-7.959445110541474300e-03,-9.914525918828631657e-03,-4.412274269468596626e-03,6.494466215372085571e-02
2.312757042262084395e-01,4.128822337683938359e-01,4.027273143953077894e-01,1.115208938645872311e-01,-1.092890226577215435e-01,6.666724017649618139e-02,3.430982530117034912e-01
3.238742919196577197e-01,5.897960859901352215e-01,5.225043152258953549e-01,2.560602461206213376e-01,-7.885776456260158718e-02,8.443286611112338358e-02,5.423017144203186035e-01
4.153133708448541461e-01,4.923609113833078976e-01,4.048273317375539193e-01,3.528900480098050036e-03,-8.321234633823301405e-03,4.600942686562851068e-03,8.463331311941146851e-02
5.833451936263669979e-02,3.830065596637023395e-01,4.312466750792739445e-01,8.683391615240798611e-02,-1.664750722967279009e-02,1.101958413773760845e-02,3.836891353130340576e-01
6.443624998652512925e-01,8.546426303624992116e-01,8.165838789821746602e-01,-8.523383511293214365e-02,-1.611388756458669302e-01,-6.876458219760504809e-02,3.892820775508880615e-01
4.398218382427638851e-01,6.537583849965974414e-01,6.781971993102758889e-01,1.101304052791339111e-01,-4.557940754035361836e-02,9.387037667307958008e-03,3.073717057704925537e-01
3.948338019873769977e-01,4.700786924627465835e-01,3.824701948216214786e-01,-1.907110652205761567e-04,-1.014865762174194108e-02,-4.774995324318751086e-04,8.399243652820587158e-02
2.980892700025058462e-01,4.983666818482470062e-01,5.612521485599960558e-01,2.307666898183962367e-01,-1.381222671916990663e-01,1.482399390330875477e-02,5.237485170364379883e-01
1.595817120324816152e-01,5.343857775416029909e-01,5.037824114424437338e-01,5.178361011156528554e-02,-5.479806327527907833e-02,-2.289190363900846584e-02,3.854472935199737549e-01
4.320682029566378368e-01,4.562252190822846942e-01,4.258782114429311427e-01,5.508853869278428073e-03,-1.003957300126256567e-04,2.018438982767331927e-03,2.957539632916450500e-02
2.409213834204110838e-01,4.720853562474389142e-01,4.757568093083803240e-01,-2.581543187904601112e-03,-2.238311514157335837e-03,6.258783277760692453e-03,2.333484739065170288e-01
4.086025966068940196e-01,4.799408667214073443e-01,4.294034918335245532e-01,2.709075231023001101e-03,-3.893587825718091127e-03,8.873987627227936104e-03,6.589132547378540039e-02
3.834631537294608816e-01,4.601621851746858227e-01,3.899899398038189635e-01,-1.043117921014280122e-03,-8.612088969587509621e-03,-3.708797281091955923e-03,7.544386386871337891e-02
4.390171014689434048e-01,3.339934927334214376e-01,3.834296571069370496e-01,-3.031924277142290965e-03,-1.073965777723896557e-02,-1.976815201185733520e-02,9.913559257984161377e-02
4.963395956865253589e-01,4.411886653774293454e-01,4.084114701561175065e-01,-7.613449446344534681e-03,-6.150650291055994104e-03,-3.352909178567123338e-02,9.789610654115676880e-02
4.658707622755363653e-01,4.184016190265604784e-01,4.092407354548320830e-01,-7.275744853123446675e-03,-3.024605657535245958e-03,-3.187649462843403659e-03,5.467026680707931519e-02
4.163860954984055507e-01,4.847514444266702305e-01,4.116285999566834386e-01,3.264354411236251776e-03,-1.802484295539649641e-03,2.329157782162740060e-03,7.127196341753005981e-02
4.115653027146396470e-01,4.303960463445860030e-01,4.313546718166997307e-01,1.460833257260745963e-02,-1.823054420541300735e-02,1.251589594386921279e-02,4.980741813778877258e-02
4.714049070320482371e-01,4.214049153223195510e-01,4.216023698888914928e-01,-1.375658631919922511e-03,-4.444466267212178814e-03,-1.330337512597923539e-03,5.060051381587982178e-02
4.632629063699709171e-01,5.269844559075133050e-01,3.376768599037708873e-01,-8.775719335550588585e-03,-3.605922099949598197e-02,-1.609076941240725851e-03,1.788139790296554565e-01
4.121805997063887061e-01,4.429242384930965337e-01,4.096798614411009676e-01,2.533426456058762016e-03,-1.030070423347823495e-03,5.136699917411265658e-03,3.361400961875915527e-02
5.401556885797126339e-01,5.660145681262841455e-01,3.160498787112639985e-01,1.549733301190733999e-03,3.419999453880858548e-02,1.252044829118928101e-02,2.463201731443405151e-01
4.642696842123706924e-01,3.925153157343836408e-01,3.872145219146013173e-01,-6.263254087685249903e-03,-4.015033116445598273e-03,-7.215212071158578523e-03,7.667703181505203247e-02
4.231556017294794692e-01,4.402957483845933440e-01,4.187659466828317356e-01,3.664997541255948614e-03,-1.465734091893948401e-03,6.454886121177603932e-04,2.088743075728416443e-02
4.183704467608687638e-01,4.522504491197699705e-01,4.280251019861322503e-01,3.697491906286346549e-03,-4.726972565715903234e-03,1.125692253754502145e-02,3.744554892182350159e-02
4.273543248270733619e-01,4.347148808268282427e-01,4.273116035402853008e-01,-5.159830363656252696e-04,-1.131111078013784200e-03,2.093167112516191621e-03,8.501473814249038696e-03
5.211162101861673834e-01,5.792269064617315832e-01,8.668549836888224114e-01,2.822873433050994696e-01,-9.501593671542613029e-02,8.332237846341163101e-02,6.243327856063842773e-01
4.728814711552296046e-01,4.188791606010417445e-01,4.108202944279660818e-01,-8.763001023087714763e-04,-1.579527498922162756e-03,-3.469595603946391826e-03,5.884126946330070496e-02
4.789893523465942882e-01,4.111906974774593437e-01,4.085788125968196072e-01,-9.949286855576975914e-04,-1.543442934263436917e-03,-7.643429756408009991e-04,6.922738254070281982e-02
4.358645867745450930e-01,4.207409758747960304e-01,4.303141826878943976e-01,1.918986117912258428e-03,-9.404323734059019321e-03,1.478851253019400564e-03,2.141310088336467743e-02
4.224557863629094245e-01,4.684269948458991140e-01,5.398544590790886888e-01,2.970543430508765584e-02,-1.044790437596817764e-02,1.121950047966820650e-02,1.176910698413848877e-01
4.226823805437024406e-01,4.194371419594633554e-01,4.460752881144945947e-01,2.339481682465214575e-03,-8.689778908160330356e-03,3.035685684825303876e-03,3.007121011614799500e-02
4.363770503296321435e-01,4.512811522599448066e-01,4.285094553984933330e-01,-1.281043425645107814e-02,-7.311057339645258245e-03,-6.430230806607890176e-03,3.432216122746467590e-02
4.141932252489042288e-01,4.203733335939900950e-01,4.378833950726543911e-01,-3.044223524972483434e-03,-3.370999812664102636e-03,-5.064523574068044431e-03,2.432798966765403748e-02
4.192793410059718062e-01,4.362490123751077142e-01,4.327787556852766282e-01,-8.975891673126699727e-04,-1.010088747115723802e-03,-8.421546146542701825e-03,2.143288217484951019e-02
4.173749775711852461e-01,4.082158436020323911e-01,4.367074232296666580e-01,-5.778914748166626321e-03,-6.831105585928538837e-03,-2.904252607591159639e-03,3.000308759510517120e-02
4.473349800026153456e-01,4.019215211521123265e-01,4.116235255368615453e-01,3.360755422697306836e-03,-9.375869113812945396e-03,8.047716103193309697e-03,4.698735475540161133e-02
3.938132385574811822e-01,3.722169183065958675e-01,3.716137286216852353e-01,-1.352207762750406300e-02,-1.455641690468685925e-02,-1.478732248882317149e-02,4.816631600260734558e-02
5.121773711950575736e-01,4.578679905418260310e-01,3.843806488170667945e-01,-6.916257832899190897e-03,-8.620382808455152868e-03,-1.101610380637518989e-02,1.143304482102394104e-01
3.737759365887978746e-01,3.879638897849828072e-01,4.143725897680207715e-01,-3.052492575205814976e-02,-2.422913631576879140e-02,-2.460543242592019147e-02,8.744227141141891479e-02
4.508542859870256492e-01,4.991316529007815972e-01,3.586892194110948284e-01,8.126295949819242314e-04,-1.553120106141387541e-02,-1.146564551258114116e-03,1.265075951814651489e-01
3.599408625233137538e-01,4.268212651080657283e-01,4.631128796521238877e-01,-8.842802009556059370e-03,-7.741282429205661834e-03,-1.046338177157030494e-02,9.465771168470382690e-02
4.431930917750245280e-01,4.403943923134166494e-01,4.283528570850778094e-01,-2.877893078913537888e-03,-3.240051954851927863e-03,-1.480778416197288307e-03,1.579400710761547089e-02
3.447471984994078253e-01,5.034457301596713119e-01,3.836820415687421937e-01,-2.772106577090552651e-02,-5.481221650098385550e-02,-2.058305236498498419e-02,1.819663196802139282e-01
4.309427793427416109e-01,4.415866733549187462e-01,3.987369677081223363e-01,-1.374867167259222721e-02,-5.316247400052903638e-03,-6.274736189667763642e-03,4.757398739457130432e-02
3.858125758042295628e-01,4.453715300482095629e-01,4.457612848784237025e-01,-5.331035393627581512e-03,-5.425753684289909631e-03,-1.620094879703126711e-02,6.731732934713363647e-02
4.162283524335204099e-01,4.823302082491197074e-01,4.039126577497886283e-01,-2.994777585681681221e-03,-4.795365899726486240e-03,-3.167485882194997007e-03,7.390002161264419556e-02
4.058492167187686128e-01,4.802381064436396230e-01,4.338015802444965541e-01,-1.192801555331521064e-03,-5.393728873738632204e-03,-1.046606878691892610e-02,6.823384016752243042e-02
7.832805281799516406e-01,5.681205650775404958e-01,9.508805836653954069e-01,-2.022973518312332075e-01,2.135748638030664573e-02,3.042043944801954558e-02,4.871978163719177246e-01
4.751384578112882728e-01,4.208792863496376158e-01,4.259080876908465374e-01,6.682654810173545984e-03,8.955286714859815242e-03,-1.084721917002961535e-02,5.851529166102409363e-02
4.063287881587264172e-01,4.677327885877222147e-01,4.294871339620294215e-01,-5.095727264702647370e-03,-5.357938477992906130e-03,-1.058301844716555591e-02,5.817875638604164124e-02
4.306371589815791712e-01,4.336534930449598702e-01,4.015775185591532459e-01,-1.232095071376198767e-02,-3.964810846168202382e-03,-6.199800390657204605e-03,3.948548808693885803e-02
4.101370202984139235e-01,3.975475957190218734e-01,4.665422670976059338e-01,-6.768297412808053741e-03,-6.759572977520891639e-03,-3.594185755561886669e-03,6.605614721775054932e-02
5.188237383672796854e-01,6.047129342398032126e-01,5.532449774025044453e-01,-8.440510060319081354e-02,-1.249738121295626558e-01,-9.046835633212167715e-02,3.136669397354125977e-01
4.637460060685124619e-01,4.087321406255743361e-01,4.069067915997149343e-01,6.691761638275069146e-03,6.800716603650912295e-03,-9.122123676615273569e-03,6.044008955359458923e-02
3.527967052192964026e-01,4.045482955553795223e-01,4.682573091156997380e-01,-1.434861219113957136e-02,-1.813755726883264962e-03,-2.889450335142816715e-03,1.033763587474822998e-01
4.626838541024343998e-01,3.186418666600585037e-01,4.241290085681687083e-01,1.628044138625273432e-02,9.153691565677945716e-03,-3.668619663221207861e-02,1.475303769111633301e-01
4.002118910485249481e-01,4.262495616443755519e-01,4.214970452532817990e-01,-4.566454847300409695e-03,-4.193231229697524411e-03,-1.218399165034251413e-02,3.372622653841972351e-02
3.917995346589905337e-01,4.957610099897788447e-01,4.333377940773348036e-01,3.840291267236137858e-04,4.772094078799528696e-03,1.082820759930878778e-02,9.292764961719512939e-02
4.250625711453445144e-01,5.012312889440315722e-01,4.052602424767665634e-01,-1.292394078000125551e-03,2.839202739957275012e-03,1.049747488854092586e-03,8.794671297073364258e-02
3.582254894760991126e-01,3.688205300542111154e-01,4.480702668830748303e-01,-2.498707819995409085e-02,-8.863201383064893413e-03,-1.041002482778663994e-02,9.831717610359191895e-02
3.784934096317439933e-01,3.387947742181545707e-01,4.438902670230950864e-01,-1.869209798801913999e-02,-7.243878252444509343e-03,-4.047596984420354788e-03,9.850710630416870117e-02
4.191828997766735565e-01,4.577320051767076459e-01,5.153275778520479689e-01,-2.888974279608838916e-02,-1.168274334088593297e-02,-1.252629303559745812e-02,1.020175293087959290e-01
4.172913874674838985e-01,4.599604720840682059e-01,4.408977538085081527e-01,-2.599928005727523538e-03,-4.511136520639849601e-03,-1.092403296753346846e-02,4.254389181733131409e-02
4.365874592441660873e-01,4.065945816856006423e-01,4.963316039583868244e-01,-3.045672985413467454e-02,-2.827655770233170746e-03,-4.141409338109733871e-04,9.522695839405059814e-02
3.995974122507535697e-01,5.468715011343597832e-01,4.716995530810657034e-01,-6.752647656391584825e-03,5.420536641769057445e-02,2.392835045529276370e-03,1.588654667139053345e-01
4.723282383442189980e-01,6.959999055447412264e-01,6.444369433452770135e-01,3.409176023058262204e-03,9.210724997805308512e-02,9.738708919165240882e-03,2.586990892887115479e-01
4.986256024812070753e-01,4.786311397717063487e-01,3.326876162463111575e-01,-6.403690450824003205e-03,-2.813583750697077994e-03,-1.081064799039605125e-02,1.584762930870056152e-01
2.643971458454452139e-01,3.947198036074660021e-01,4.521702375392259721e-01,5.242571394627006109e-02,-1.136580523135383158e-02,1.227713727583869263e-02,1.919810771942138672e-01
3.575682347774566949e-01,4.753796397557375486e-01,4.088320236903346117e-01,6.357804415153063722e-03,-1.275941332373077726e-02,1.671587839237505604e-02,1.091603338718414307e-01
3.622755756561665264e-01,4.152509169804424194e-01,4.902669725500113929e-01,-1.536704206941915882e-02,1.766007349937349653e-04,-2.276672857742742702e-03,1.145944073796272278e-01
4.142267485425521478e-01,4.006304055218490867e-01,4.868492988832257562e-01,-6.958760676182196639e-03,-4.071081879418798899e-03,3.778209953722566210e-05,8.149413764476776123e-02
3.877588224309506670e-01,4.212227279135201674e-01,4.175721201045433095e-01,-4.199497254539800647e-03,8.814766818441384030e-03,1.091348033193689955e-02,4.067328572273254395e-02
5.129825755154144851e-01,6.910586398792152307e-01,6.072891385993176572e-01,-6.449263924926462721e-02,9.258001024100295795e-02,3.077947439782797306e-02,2.546453773975372314e-01
4.052997961092825729e-01,4.323408139083938506e-01,4.333098683023754449e-01,1.819111950156580577e-03,-2.160809855094592002e-03,1.024707543600308739e-02,3.312555328011512756e-02
4.311984660786650769e-01,4.646208277904488315e-01,4.476725884157194968e-01,3.664500946017524522e-03,-2.935324360061564337e-03,7.601259237152892777e-03,3.282253071665763855e-02
4.280284510389609220e-01,4.499874619113178320e-01,4.136699369254951963e-01,9.010082352588405508e-03,-4.099928699452684219e-03,9.138604652475202598e-04,3.605748713016510010e-02
4.337818567826941529e-01,4.656425236542118262e-01,4.135991803852105964e-01,1.023860048851872769e-02,-4.566584433015260201e-03,4.761188159638737524e-03,5.010519549250602722e-02
3.948697625713246673e-01,4.529857661171853289e-01,4.554875674766354354e-01,6.892746953056147832e-03,-6.695666405489145157e-03,1.405273890308775947e-02,6.632184982299804688e-02
4.773278497459889080e-01,4.391626008439001305e-01,4.048781801567991612e-01,1.532030127454817384e-02,-1.354184789790081542e-02,1.546727462773686210e-02,7.689259201288223267e-02
2.670625701239466299e-01,4.768623528920417631e-01,4.271385510498291183e-01,1.606530671680738483e-03,5.828922578377595393e-02,1.188713906692968371e-02,2.160576730966567993e-01
4.190694774291019442e-01,4.299806072128966594e-01,4.233044711162637364e-01,4.627324014731080438e-03,-2.671162120954512394e-03,2.645531740974189135e-03,1.405053678900003433e-02
3.370401647030127346e-01,4.244278431044861133e-01,4.295935539894660260e-01,-2.148692660800424759e-02,1.821427459271785648e-02,2.234417876536826109e-02,1.095118299126625061e-01
4.205076697667194940e-01,4.855044012966372446e-01,4.433632642195404761e-01,-1.517072101401503725e-02,2.328205155857280065e-02,1.653887486115464267e-02,7.999144494533538818e-02
4.112391665651435324e-01,4.361813490563472562e-01,4.154194526062009452e-01,-4.345039782870535085e-03,4.371841476532783294e-03,1.009939181062369240e-02,3.090779855847358704e-02
4.111808758817487863e-01,4.123071773997561418e-01,4.501735247633193437e-01,8.317924529346366631e-04,-2.369526864182369165e-03,2.364105148078347787e-03,3.890326991677284241e-02
4.294843176230622728e-01,4.240300320723390803e-01,4.613603620215679935e-01,1.577654620616130701e-03,-5.689571806978859642e-03,2.350513908287285049e-03,3.661758825182914734e-02
4.052025314196923134e-01,4.255371029043056863e-01,4.226091345667118970e-01,1.714916340548561279e-03,-3.212718731675799633e-03,9.711506257418598548e-03,2.617740258574485779e-02
3.614302808451228533e-01,4.790538119153567864e-01,4.129624413710015762e-01,-5.588470368452212213e-03,1.142571469643584303e-02,1.657565949244447709e-02,1.083469241857528687e-01
4.799604336332994325e-01,4.108966908589085087e-01,4.155830278745777373e-01,5.694369106098901056e-04,3.992757744764403351e-03,-1.137965644260792615e-03,6.723682582378387451e-02
3.513378508667675537e-01,4.852171350859134091e-01,3.953540335062642463e-01,-4.581586255950869345e-03,4.542667689585332819e-02,-4.558848485307748200e-04,1.422061026096343994e-01
7.247759384768613922e-01,7.079934433956639461e-01,8.633257838008809859e-01,-2.409196003235907491e-01,-8.089803269225777360e-02,-7.546127259259702291e-02,4.823342859745025635e-01
3.836530100373774510e-01,4.461936057532873701e-01,4.395916925174756518e-01,-5.398445371905137742e-03,-5.519183404372812567e-03,-1.556886880717525679e-02,6.669338047504425049e-02
4.680271183609033825e-01,4.345063744122079075e-01,3.591601005564470928e-01,9.516633434027104224e-03,-6.436672336105796893e-03,8.271112064618987847e-03,9.963729232549667358e-02
4.062591361337960505e-01,4.683294210764847865e-01,4.092200382589191165e-01,-3.302581012439940317e-03,-2.899747881868021469e-04,1.302437097313422984e-03,6.095708161592483521e-02
8.029565132799121319e-01,4.627527522491234890e-01,8.371598526139468754e-01,-1.265316458900026531e-01,-4.075264942220171993e-02,-7.932910463044140492e-02,4.477019011974334717e-01
3.861459899052751554e-01,2.680373907576021342e-01,4.754332177697469519e-01,8.126693385006167336e-02,2.560559894577980541e-02,-2.178683584291512751e-02,2.359477132558822632e-01
3.975307225165215508e-01,4.305185631241356670e-01,4.875392311856984184e-01,-7.971059064843424857e-03,4.076396326960190618e-04,5.042053418873942809e-03,8.054763823747634888e-02
3.840708425203490095e-01,3.958391528932072578e-01,4.700296737187146245e-01,-1.068667282389251447e-02,1.236236890586737752e-03,3.220677431969018630e-03,8.303096890449523926e-02
4.040205309464049988e-01,5.111854517717915325e-01,4.860655980274923849e-01,-6.237040907809603130e-02,-5.933595256797311035e-02,-4.234271546641607542e-02,1.924436241388320923e-01
4.723668952840405222e-01,1.470471348846559834e-01,4.986333710420489673e-01,-5.325442122759833224e-03,1.052688481491437233e-02,-8.791198369420751002e-02,3.723855018615722656e-01
2.808222312979297142e-01,4.987905326333260114e-01,4.957664386779555010e-01,-5.455945208741186034e-03,2.942931684259264026e-03,1.602216391941070368e-03,2.167559862136840820e-01
4.175759146479789963e-01,4.755723891484930910e-01,3.959522207754702650e-01,-1.035636367587135925e-02,4.184081506033353326e-03,2.214010359483879493e-03,7.398825138807296753e-02
4.063735604933645384e-01,4.322414056437438590e-01,4.817729843960427694e-01,-6.307035920917661471e-03,3.074607555055785656e-03,7.397651023432987201e-03,6.867073476314544678e-02
5.310488486750440940e-01,3.181829524301972856e-01,4.755115633623313576e-01,8.544923217747756039e-02,3.175983783100235630e-02,-5.153407005670780638e-02,2.635760605335235596e-01
3.889454269743469750e-01,4.383713009011374617e-01,4.213774976036376851e-01,6.660975055427029688e-03,-8.671275341181890889e-03,1.467117756467163463e-02,5.381618812680244446e-02
7.588429631567692457e-01,6.695176006131858815e-01,5.935935178493958464e-01,-8.425518674220582038e-02,1.882854919635385815e-01,2.182977906086175923e-01,5.395723581314086914e-01
7.449117688476913912e-01,8.344223880111634184e-01,1.004647433283233804e+00,-2.151280957167387431e-01,7.324323793851621189e-02,3.885519769662139355e-02,4.600965678691864014e-01
5.879809167408484027e-01,4.207104560537867632e-01,6.310938903052617510e-01,8.799097794238396053e-02,1.403609780514966134e-02,-3.559953729447672827e-02,2.543027997016906738e-01
4.544935467655495942e-01,3.757294946794706991e-01,-5.050613179147955822e-02,2.081092285397505640e-02,2.833163199885416553e-02,-1.351516973383448950e-01,5.291104912757873535e-01
5.970518154821006229e-01,5.595826537524575262e-01,3.194049675774064956e-01,3.978705627693342184e-02,1.746203982278527259e-02,-6.857512978977629847e-02,2.964118123054504395e-01
5.197512401755572942e-01,7.549278817590656665e-01,9.308217931345037499e-01,-2.083613893805945916e-01,-1.652780567561588573e-02,-7.557022319615545013e-03,5.087701678276062012e-01
4.603800175928302596e-01,4.844785201028400934e-01,2.354769647099862195e-01,-7.499598606748358919e-04,-5.061050462265610436e-03,-2.053062184827488847e-03,2.380611747503280640e-01
3.911332377425571494e-01,4.830563595690149370e-01,4.576713106330703162e-01,5.330589772527333063e-03,-7.750947048966779634e-03,1.376337429569407002e-02,8.714675158262252808e-02
5.335736096247695182e-01,5.176939336487407228e-01,3.222082578529859020e-01,1.142606567721734211e-03,-6.301971577933785859e-03,-5.160891746148452836e-02,2.229003459215164185e-01
4.703419691726092311e-01,4.646937709610691192e-01,1.190336616528061275e-01,-3.791220339093376995e-02,-1.099329601452179034e-01,-7.182439307414859031e-02,4.213183820247650146e-01
4.156366216564633675e-01,4.203036215753133131e-01,4.411371913416616830e-01,-1.068250333220782970e-03,4.319984297684355268e-03,3.772698022707287116e-03,2.559607103466987610e-02
4.698033351747527564e-01,4.129321614020278752e-01,4.122986760478477009e-01,2.070517321311961430e-03,2.497440966516437273e-03,-5.113631249518719047e-04,5.747274309396743774e-02
5.323841144109949797e-01,4.861107859751178650e-01,2.288159026119827300e-01,-8.293412849158904310e-02,-7.733997678690364419e-02,-1.325348348262857801e-01,4.141531586647033691e-01
3.787214890067723827e-01,5.263795044379189214e-01,5.405531788761461787e-01,-2.740886663352868138e-02,-8.350330520739419893e-03,5.441256408143965891e-03,1.632433235645294189e-01
3.772504760198733820e-01,5.147890226935931679e-01,4.595686726201949623e-01,-2.073345307000118778e-03,-1.256938864856903953e-02,3.703949186707413636e-03,1.220624223351478577e-01
2.555648505557575056e-01,4.656207040071907444e-01,4.890624426331001695e-01,-2.637967349756271951e-02,-3.983148717137652804e-03,-9.301592784543937648e-03,2.280172556638717651e-01
3.047690377096820558e-01,4.884924651721569977e-01,5.110467450444079462e-01,-2.034078793810939131e-02,-1.929878800633977320e-02,-2.039488861848303553e-02,2.049711495637893677e-01
2.656385779226446142e-01,4.709173292215895201e-01,4.913291750895083521e-01,-2.365598915866011856e-02,-2.534635806814618079e-03,-5.624015405983120823e-03,2.203159183263778687e-01
3.449972176292487869e-01,5.529453302473346099e-01,6.082902373985002997e-01,-1.249522055270822635e-01,-6.956018840274834358e-02,-1.302633132210368264e-02,3.459456861019134521e-01
4.838715719500534806e-01,4.292194330380866840e-01,4.244043063135385374e-01,5.500918318944099904e-03,1.862168014330956110e-03,-1.530596516290379542e-03,5.814989283680915833e-02
3.215668829555563546e-01,4.342855325357796170e-01,4.686777106301984741e-01,-4.105057512491576410e-02,-2.365295468936179715e-02,-1.806732370138184468e-02,1.596185266971588135e-01
2.763488523096733762e-01,3.876520292858872119e-01,4.440205597368350188e-01,-3.336058993373704207e-02,8.619700104751671851e-03,1.262849277104915319e-03,1.593934595584869385e-01
4.374852902553545975e-01,4.127048851061917989e-01,3.705332168952448213e-01,-1.405176353360588874e-02,-1.203219802918133012e-02,-9.404779205004092091e-03,6.877191364765167236e-02
6.636647588808479714e-01,6.093593688241326634e-01,4.479972989353057100e-01,-3.219510443130271099e-02,6.431711833262052092e-02,9.134583039473383181e-02,2.798239588737487793e-01
3.517945731668949416e-01,4.868510685184272435e-01,4.891264338631628461e-01,8.339699948505623767e-03,-8.257268374304481406e-03,1.136187153651730536e-02,1.391158252954483032e-01
3.232147588296904184e-01,5.093656202437821801e-01,4.781543482723703553e-01,1.021058756251613450e-03,-9.331288155402434059e-03,4.679287566928777217e-03,1.736269444227218628e-01
3.646674349613825417e-01,1.022485163616367182e-01,8.156996550268129365e-02,-3.108125802966244921e-04,-2.246233684481773168e-03,2.631404738635592655e-01,5.314714312553405762e-01
4.032731468021308885e-01,4.234556987915831239e-01,4.481271085829242606e-01,6.124882688130112683e-03,-4.479113280130424778e-03,1.326832371838715732e-02,4.706188663840293884e-02
4.841229149141650923e-01,3.258317509131621326e-01,4.414756869048743759e-01,2.575214586673419195e-03,-8.927116542083123746e-03,2.122968132647082978e-02,1.474288702011108398e-01
4.388641930157451410e-01,4.156423354679152915e-01,4.815640961008557652e-01,5.727173785616088142e-03,-1.008104014687641152e-02,4.319568652123487347e-03,6.175246834754943848e-02
4.379886181188621386e-01,4.248350967981591175e-01,4.558176479980705631e-01,4.489542075613550155e-03,-1.126247881730325744e-02,5.220460396366381241e-03,3.532933443784713745e-02
4.065492333484412302e-01,4.083534353567947472e-01,4.665200936587283742e-01,3.445965865870997675e-04,-1.502050134409992901e-03,2.283212281098965894e-03,5.928172916173934937e-02
5.313663584246552940e-01,4.251682426467067177e-01,4.458023801981673695e-01,9.999514122260612370e-04,-2.386153088380128101e-03,3.169205119505635881e-02,1.120077669620513916e-01
4.099330587768078571e-01,4.028232484253461143e-01,4.843263854174801875e-01,1.257985869665748449e-02,-2.344413366566791730e-03,4.560928817645853485e-03,8.165471255779266357e-02
4.565491722561552113e-01,3.947944337883033672e-01,3.857950784193374671e-01,6.191242801986591299e-03,2.067550475025280859e-03,-1.346495552115947562e-02,7.156901061534881592e-02
3.813920743291073223e-01,4.570702339423344251e-01,4.849305697458068942e-01,-1.029014821551388868e-02,-7.210194415747181972e-03,-1.659579284918677108e-02,9.955744445323944092e-02
3.439125937550269740e-01,3.962473155373044120e-01,4.625231032714895996e-01,-1.666585470706799174e-02,2.767516839155458042e-03,1.319591786176767733e-03,1.070578396320343018e-01
4.499954862445926795e-01,4.240108375807536967e-01,5.152247444315329883e-01,-2.682870880390852975e-02,9.754852316166441606e-03,7.583574237728075984e-03,9.613718837499618530e-02
4.633904320501012197e-01,3.870041285650929752e-01,3.958144047947757538e-01,2.221206572446771284e-03,4.923368604775478843e-03,-6.586003045341770265e-03,7.387252897024154663e-02
3.843908456365473514e-01,3.662866853448294435e-01,4.311270146914393808e-01,-3.686164763893724078e-02,3.200225492245525882e-02,2.790191671384797956e-02,1.133246496319770813e-01
4.006693517615046440e-01,4.476324217369677116e-01,4.471543358234850718e-01,-4.877129766472755069e-03,6.902249973752130202e-03,1.613004439536070214e-02,5.637484788894653320e-02
4.262482300151674841e-01,3.855113050127523810e-01,4.920160558009022966e-01,-2.542094201711087020e-02,9.893773988218423562e-03,9.234727690316062859e-03,1.056042462587356567e-01
5.783193399262775980e-01,4.774405440330314332e-01,3.854089281303850756e-01,-4.426516422728365291e-02,2.357196858363807060e-02,9.291670904140525433e-02,2.477419227361679077e-01
3.181376142564639187e-01,2.793620503544443912e-01,4.426792984114243934e-01,-1.068277958682159329e-01,3.962850509166410129e-02,4.127391786939577090e-02,2.567133605480194092e-01
4.232135062212126209e-01,4.225533772357411011e-01,4.199324851010874382e-01,5.219784416591979545e-03,-5.580056194685966038e-03,2.538408265359039673e-03,1.426586974412202835e-02
4.285383079861979083e-01,4.271734382145342956e-01,4.241110219266367998e-01,7.083669496846774563e-04,-6.638827079383451775e-04,8.651879360611950092e-05,4.274469800293445587e-03
4.061524885101429061e-01,9.828216733024919272e-02,7.741312978725718441e-01,-1.584683228244614661e-01,5.835839002722757740e-02,3.440089034859658904e-03,6.550354957580566406e-01
4.085615659256933152e-01,3.962417638943933063e-01,4.738706155962396638e-01,-5.009933781655992804e-03,-2.300756428706556087e-03,-1.631718870519890431e-03,7.294388115406036377e-02
4.307916268422681827e-01,4.346613342259160739e-01,4.322232779400997926e-01,1.326383710247842516e-03,-1.547770744013358480e-03,-4.203499925002523430e-06,4.893762059509754181e-03
4.258371068417270977e-01,4.250341707850591733e-01,4.213057334145723920e-01,1.182127319497157944e-03,-1.276559719338746582e-03,5.573949624375140266e-04,5.249076522886753082e-03
5.983057409561473028e-01,4.323684567524244127e-01,8.419845225594058125e-01,-2.204687199809170772e-01,7.849437835906292182e-02,5.335813000829760927e-02,5.479002594947814941e-01
3.418120325630286116e-01,5.907584631548545850e-01,5.449970121948259916e-01,1.083879518380803653e-02,-1.087707636803112998e-01,9.573958657075022302e-05,2.975264489650726318e-01
3.318837214652599066e-01,4.918342522783756277e-01,5.167494332605130358e-01,-1.017198159256571879e-02,-4.240339034528874639e-03,-3.275053692440770621e-04,1.747993230819702148e-01
3.459324040767416397e-01,4.342712453809297046e-01,4.803851422893451462e-01,-1.564700938932112040e-02,1.460137502705624113e-03,8.100016783582858135e-03,1.222358569502830505e-01
3.150479653464216545e-01,4.783749531864796012e-01,4.632348382013825039e-01,-1.236840115360250854e-02,-7.428467675202522595e-03,-1.419385628824381372e-02,1.601905524730682373e-01
4.223893106015367271e-01,3.203314985152007077e-01,2.941685742781047774e-01,-6.925018650770878303e-02,1.081516905351451729e-01,2.035877616034428295e-01,4.331183135509490967e-01
4.096697106480023387e-01,4.820698901148391391e-01,4.077459018831822157e-01,-2.728597183433411613e-04,1.680191210747003982e-03,5.291708079094023867e-04,7.344592362642288208e-02
4.253893320190000882e-01,4.289225819122186589e-01,4.315786055860840187e-01,1.141938597900518486e-03,8.604377371600947341e-06,2.331491608807927021e-03,7.010175846517086029e-03
4.300602616008770140e-01,4.349888849514522149e-01,4.253238933463302507e-01,1.800849897271658649e-03,-1.208243556918274422e-03,-2.181170521448421947e-04,9.182578884065151215e-03
4.966342513216110977e-01,3.068095729427847695e-01,4.706953921305676580e-01,-1.859900789127260159e-02,-4.397863587496463056e-03,-3.095372270751581625e-02,1.890835464000701904e-01
5.298302175212882270e-01,3.822067834952091459e-01,5.076177882914715278e-01,-3.686741214188355310e-03,-1.126375514534708536e-02,-1.556296147630449253e-02,1.419683247804641724e-01
6.416687523403798998e-01,8.588753533734148071e-01,6.174199426706463711e-01,-2.756793198789200816e-02,-1.872854779419533544e-01,-4.244344046984985241e-02,4.073641896247863770e-01
4.943447365385193470e-01,2.671694914329276749e-01,4.948377402378982270e-01,-1.381676604398199542e-03,-2.564590771398271378e-04,-2.660154505255024962e-02,2.320553511381149292e-01
5.553767333993991917e-01,2.095149817331475595e-01,4.765059734321668294e-01,-2.226810133311103723e-02,-6.400362398954724009e-03,-5.285341386533361913e-02,3.294745981693267822e-01
6.883746255688676374e-01,4.359555887716417555e-01,6.156247172728996908e-01,3.545357302243537512e-02,1.023681349297742883e-02,-9.461014059953438970e-02,2.856272757053375244e-01
4.002332842617768449e-01,1.083862782345405285e-01,3.966858269535756820e-01,-3.203137900574936497e-02,-1.377028647471518000e-02,-6.261205794949371850e-02,3.155307471752166748e-01
3.992292581737370005e-01,4.340260292091528416e-01,4.972748793589925054e-01,5.356940193348835345e-03,9.238092002989450641e-05,6.786085462709421420e-04,8.660014718770980835e-02
4.185631521551145262e-01,4.233551744687431562e-01,4.635193764058707089e-01,-1.834156565671149659e-03,2.671573015767883964e-03,6.876952706164948109e-03,4.474344849586486816e-02
4.187532481040420196e-01,4.808340319328877621e-01,4.020233283924177781e-01,1.213466443074190729e-02,9.032164680679043156e-03,-2.136166731449906826e-03,7.663354277610778809e-02
3.705669867516192539e-01,4.202552094441371899e-01,4.597220670344984716e-01,-1.092959298782713445e-02,2.840334539067768203e-03,1.256728761874639777e-02,8.272829651832580566e-02
4.938390518202528390e-01,5.192399318969886934e-01,3.409656548167707690e-01,3.364663528077917708e-04,-1.388785831949704459e-02,-1.210403421573680782e-03,1.687659621238708496e-01
4.386465205034960624e-01,3.992777893015415080e-01,4.980029870564935957e-01,5.213913090309581569e-03,1.142318810326875067e-03,-3.130686976233753053e-04,8.657736331224441528e-02
3.737236956231927421e-01,3.791311233306002282e-01,4.614451731314149763e-01,-2.256106117942845851e-02,9.137364637194236860e-03,3.331143734802842222e-03,9.518780559301376343e-02
4.767889878051688735e-01,4.555492007131252685e-01,4.951527237994800545e-01,-1.570111758533754634e-02,1.742846298121033394e-02,1.742477360932133054e-02,6.115631386637687683e-02
3.341389044687896881e-01,3.803627111073437650e-01,4.472122820943227883e-01,-1.852554436407008107e-02,3.587039612403361295e-03,6.419604349578377292e-03,1.043425574898719788e-01
4.181419950953924047e-01,4.144955130288147105e-01,4.909067944007777240e-01,2.657892080700964381e-03,-1.943933497718766494e-03,8.515990103492778341e-04,7.488694041967391968e-02
4.235146980699827646e-01,3.920981077434445572e-01,4.688764389531147603e-01,6.200288421153786304e-03,-5.145127965270817477e-03,2.657564760303155783e-03,6.845244020223617554e-02
2.917255928594768566e-01,5.985882538296144473e-01,5.554163429678106167e-01,4.973710809364616237e-02,-1.308189200444738291e-02,7.704542337210447921e-03,3.014854788780212402e-01
3.194895626014593315e-01,5.336490460328627838e-01,5.222896086774356794e-01,-1.283719377517283065e-02,4.910966903366581308e-03,-1.273567474712698376e-03,2.100766301155090332e-01
4.965951572587739005e-01,3.027921396228882012e-01,4.641849865584635193e-01,-3.584887259320230580e-04,8.804533347297966231e-03,-1.087233013878857041e-02,1.814287900924682617e-01
3.136995765175003004e-01,5.070874290829923137e-01,5.081458257461053396e-01,9.525384142961410743e-04,2.925305166597245553e-03,2.452343011564347627e-03,1.940389126539230347e-01
2.868953344974770614e-01,4.634727044883999447e-01,4.964706507452085193e-01,2.467058003190357104e-02,1.418982284070886141e-02,-2.895231522922728402e-03,2.013708949089050293e-01
2.128569577186572859e-01,4.640665503679632375e-01,4.913551138207176150e-01,4.263881761724831743e-02,-1.794678373826359349e-02,4.289028430506045160e-03,2.778159976005554199e-01
4.097842073238139871e-01,4.340638344674500604e-01,4.869971513336479596e-01,5.237113688522371767e-03,-1.844198139977185026e-03,7.641540654325905575e-03,7.031573355197906494e-02
3.880197455090583780e-01,3.991064092819115450e-01,4.741885632287947683e-01,1.035536756662812884e-02,7.089999229279727406e-04,-1.401286549256767740e-03,8.319707959890365601e-02
5.265190065051198465e-01,4.922705971870015018e-01,3.463631091430481868e-01,6.165094047161798424e-04,-7.119456611695456141e-04,9.519583876023958099e-03,1.665340065956115723e-01
4.571160985161393242e-01,4.537373349970540426e-01,4.410000072113091640e-01,2.811886262766532044e-02,2.183108245745438505e-02,-3.354942928242823919e-02,8.599525690078735352e-02
1.310956963566496103e-01,4.211278485507511937e-01,4.457561770261082024e-01,2.164672043776312213e-02,-1.311089712641471533e-02,1.227789869053182159e-02,3.069884181022644043e-01
3.943397881476118361e-01,4.658382280626107708e-01,4.911377853289793927e-01,4.060045048416179719e-02,1.869332284394802091e-02,-2.228425014438076973e-02,1.226549968123435974e-01
4.689591698006241316e-01,5.102795750738795544e-01,3.332595442625685411e-01,3.096298175332723099e-03,3.626821166722306311e-02,-1.852641987454163586e-02,1.753097921609878540e-01
3.706235334042624618e-01,4.474715149146616944e-01,4.897351596882436597e-01,-9.126105138809049999e-03,-3.536017183947976015e-03,2.100952064812325760e-03,1.060203462839126587e-01
4.877411728773084487e-01,4.210127190573607625e-01,5.181949270736910806e-01,4.332582182575370894e-02,8.300686575421295510e-03,-1.905159625324207712e-02,1.197464987635612488e-01
4.481634829545684817e-01,3.527453059068085262e-01,4.482293101784005640e-01,1.681734336205786828e-02,2.073635343977971515e-02,-2.065239509571994980e-02,1.119327321648597717e-01
3.659928462318339237e-01,4.905459719272906027e-01,4.483946231597820686e-01,9.136040492578068398e-03,-1.017124052243911086e-02,1.257345752434183873e-02,1.143467277288436890e-01
4.523543954862548899e-01,3.250629709322899186e-01,4.832451311344317935e-01,3.377583403031841208e-02,1.644224493618061389e-02,-3.271052533084813085e-02,1.689167469739913940e-01
3.912993439463525180e-01,4.616098146326345075e-01,5.264049701901264422e-01,-8.783071938818597449e-03,-2.894550165322066007e-03,-3.905523717629275603e-03,1.183219105005264282e-01
4.754996022685352708e-01,6.667949575182225974e-01,5.734148519184970594e-01,3.972236797712591638e-02,-9.748967518187837134e-02,2.538921158902994468e-02,2.502613067626953125e-01
4.191539919839594730e-01,4.900200145678912933e-01,4.007538778286440229e-01,-3.536415017281768249e-03,3.893019313642746924e-03,6.452695295377467322e-04,8.215068280696868896e-02
-1.233836603150035849e-01,3.254226450849240226e-01,3.721100766688992811e-01,-1.247971501676505418e-01,2.159163516779715993e-05,-4.041763482545313903e-03,5.208957791328430176e-01
5.497677986348613599e-01,3.549916813953278849e-01,6.069442782928817781e-01,-9.298848196456901971e-02,7.212310180538157589e-02,1.876418334449733438e-01,4.466740190982818604e-01
3.699239811989680216e-01,4.579905533788636851e-01,4.091610616497975972e-01,-5.838558985301123445e-03,1.063243043334973978e-02,1.415575829395524475e-02,8.296000957489013672e-02
2.952578846342264196e-01,4.587192042003318537e-01,4.206509889392867074e-01,1.428536077907027572e-02,-2.903759413292150010e-02,3.188121609504050713e-02,1.677411943674087524e-01
4.096870718530024602e-01,5.297013431485130264e-01,4.962509152767770049e-01,3.012180557891389054e-02,-3.152337593515619485e-02,2.673265007998195525e-02,1.391217857599258423e-01
2.926554170179750392e-01,4.982089807163713191e-01,4.368551477520922766e-01,3.390201199459326464e-03,-1.001843564075193260e-01,4.199048354187678161e-02,2.623735070228576660e-01
2.611292869434905795e-01,4.460469557510142735e-01,4.672409270468021458e-01,-7.282501280076993100e-03,-4.699876845057231189e-03,8.831583084403464958e-04,1.969532370567321777e-01
2.977999376522967312e-01,4.865926960128245660e-01,4.938796185609010680e-01,1.034931407119952726e-02,-1.912946518803301799e-02,1.955306893388037565e-02,1.990920007228851318e-01
4.473494825600269342e-01,4.559027652158961219e-01,4.064511478670218558e-01,1.377873424412633802e-02,6.521297569147230765e-03,-4.425183514605822432e-03,5.339978262782096863e-02
4.595453698147841659e-01,4.435275742960796963e-01,4.418152426964779833e-01,6.601946864266545513e-03,-1.025330669830392359e-02,4.978428633429768727e-03,2.841534651815891266e-02
4.289622978803283582e-01,4.785470531263611438e-01,4.205580268406871602e-01,6.435511882614958212e-03,1.042089460652867363e-03,-2.159564466878362461e-03,5.556527525186538696e-02
3.698271368051611052e-01,4.465149159401400891e-01,4.900076160117722290e-01,7.215632945867511520e-03,-3.685697859691188828e-03,6.514009880269213716e-03,1.069216281175613403e-01
4.646360907467347312e-01,4.237804743595639523e-01,4.100713279534776712e-01,9.674950266284901984e-03,-2.113853339256529726e-03,2.928107635620596193e-03,5.231785774230957031e-02
2.558050738351593800e-01,4.852624158393760156e-01,4.954731572151457319e-01,-2.168380715246248213e-03,-4.511104560949222124e-03,1.654941307587377061e-03,2.349068671464920044e-01
3.586944216182191836e-01,4.822229524753000596e-01,4.843902082072398807e-01,1.075672089295826028e-02,8.806329753402971847e-03,-1.099656315224975707e-02,1.283521056175231934e-01
4.302191268386161838e-01,4.359293731302101294e-01,4.604679676378170550e-01,4.264185637256686506e-02,3.812532674726796383e-02,-5.538747120685243164e-02,1.406904160976409912e-01
4.460975368822184262e-01,4.144089401024836916e-01,4.016143081000044246e-01,9.028637217510846955e-03,-3.728828219648662110e-03,4.067794482423691717e-03,4.369457438588142395e-02
4.427610263716889039e-01,4.225715617775983590e-01,4.167588762708592243e-01,4.540725227520455397e-03,-1.898163480241692354e-03,4.816376132560250462e-04,2.514192461967468262e-02
4.814813928541137322e-01,4.511720913458133753e-01,4.122594161958268999e-01,1.556133029674901247e-02,-1.130653829346749475e-02,1.589133537013138683e-02,7.402599602937698364e-02
4.312029811790708544e-01,3.889773796076609891e-01,4.947538042732880781e-01,7.670600618322344355e-03,-1.493959566066979531e-03,2.497529329324543398e-03,9.331186115741729736e-02
4.298112931434031614e-01,3.124437608740078254e-01,3.334278112546258943e-01,1.556039772736425748e-02,-1.528875559344020259e-02,5.515441925563746572e-02,1.493528336286544800e-01
3.139083496537811158e-01,3.009924844276716804e-01,4.469713938633818051e-01,1.026181241758775675e-01,-5.500783256191607573e-02,4.168225581717732720e-02,2.558758854866027832e-01
4.280209419637794888e-01,4.484071196172584872e-01,5.020006719040913667e-01,6.269125009412283844e-02,-3.646923522727797684e-02,1.712744535684613406e-02,1.450554132461547852e-01
3.254751999063316692e-01,4.787406185924599766e-01,5.149405983600572334e-01,1.011362073066610946e-02,-4.367657289125415282e-04,2.699442583745369131e-03,1.751519888639450073e-01
3.695266815335030985e-01,4.992055810319584452e-01,5.165943242565834703e-01,1.123345877160923829e-02,3.855831778160977597e-03,-3.418844280692475649e-03,1.408267617225646973e-01
4.138908776933272193e-01,4.088253406955698610e-01,4.802612599125626325e-01,3.173920741259813726e-03,2.303581901613303406e-03,2.396111060820203451e-04,6.937724351882934570e-02
5.420189639429715545e-01,5.446298397494391264e-01,3.895615987613284537e-01,4.045495470141312680e-03,-1.268585268955673209e-02,2.605162399641358303e-02,1.619137525558471680e-01
3.683287346221872927e-01,5.081133550445234848e-01,3.816420114778885098e-01,1.382437847969586985e-02,-8.151166269964277289e-02,-2.995214245510376301e-03,1.959303468465805054e-01
3.380857118077782442e-01,4.396895603184529100e-01,4.676223836395336231e-01,1.796791153349202794e-02,-6.578789948498426320e-03,1.823256643590326354e-02,1.266385614871978760e-01
5.585642251867614094e-01,5.875172050407944102e-01,4.044867053130771772e-01,4.387767107792717343e-03,-2.990757139414870064e-02,1.622037458483775469e-03,1.782924532890319824e-01
3.748562867974265522e-01,4.623910289399359441e-01,4.145270751567824985e-01,-2.730549095165662760e-03,8.327233622605177341e-03,8.464126346362772432e-03,7.879626005887985229e-02
4.221198077277829031e-01,3.851358956852223847e-01,4.798292696920774536e-01,5.863323238942720790e-03,5.224049787785575195e-03,-1.324000145772949574e-03,8.380202949047088623e-02
7.471704679223521994e-01,3.351817056735429956e-01,6.721834963905668481e-01,-6.015608811080828955e-02,4.222839520727205559e-02,7.068220951808407149e-02,4.191156029701232910e-01
4.577239350807744134e-01,4.438001653106071753e-01,3.116369949765537828e-01,2.734322511497901467e-02,-1.209370367805346139e-02,2.552096841761588783e-02,1.553604602813720703e-01
4.655800838487774707e-01,5.543827314841908160e-01,6.894027724876181651e-01,-1.217456031044019255e-01,1.128019682061804502e-02,-2.323957765860542798e-02,2.908167839050292969e-01
4.340095561200818519e-01,4.072732355840403828e-01,5.023914830798745790e-01,-4.832345674468700551e-03,6.568856664625923394e-03,3.147629203501822043e-03,8.630426973104476929e-02
9.069864150410491543e-01,7.059465354670457771e-01,7.601026017719533234e-01,-4.921602248256937151e-02,4.733456940929717943e-02,1.857142410396577514e-01,3.871951103210449219e-01
4.723132649442138842e-01,3.524571038266972045e-01,1.896961990134092557e-01,2.096010085211956128e-02,-7.356613487274617225e-02,1.117893518833368710e-01,3.397189974784851074e-01
5.628608676361835927e-01,5.427564892016526477e-01,3.800095906940027524e-01,1.536213819709120925e-03,-8.035423102953048735e-03,2.815808652202093573e-02,1.809477359056472778e-01
5.416728942642251576e-01,4.583767181914644717e-01,4.590718547789366943e-01,-2.560176066556885469e-02,3.079660935536501082e-02,5.676282435732486059e-02,1.461455821990966797e-01
5.217910921185151540e-01,4.910600409365686314e-01,3.118342303532734561e-01,4.789106685035736909e-03,5.592821690240009670e-03,1.339292019774697765e-02,1.981788128614425659e-01
4.093739400628296776e-01,4.403005589810471965e-01,5.075403037668695383e-01,-8.264090790339788384e-03,-1.527375004595759190e-03,1.624936005137123367e-03,8.818697184324264526e-02
4.137457186000480513e-01,4.632817009871098568e-01,4.636567656841374396e-01,-3.967379354112723563e-03,5.736146466080027130e-03,1.236295227790617200e-02,5.547063797712326050e-02
4.076079754631808383e-01,4.365529970100403556e-01,4.801806691701790974e-01,-5.536802693918816895e-03,3.715566457176500657e-03,7.072940073232424248e-03,6.547866761684417725e-02
4.872214745929742685e-01,4.758463132572917087e-01,3.009956651329650512e-01,9.498142885356625903e-03,-9.915159817429788566e-03,1.046055501146560610e-02,1.832619458436965942e-01
4.902762279357706365e-01,5.065666403665783912e-01,2.934272689901866182e-01,9.821855684344892382e-03,-1.768030052272019301e-02,7.311778284937494286e-03,2.088281959295272827e-01
4.555003934431866575e-01,4.312440161038881281e-01,4.731656603637887648e-01,1.575591233066513108e-02,1.439223196091438638e-02,-1.408816971764730551e-02,5.736299976706504822e-02
4.529330409738074881e-01,3.095210006162019134e-01,1.388587526742768863e-01,3.266605609164749402e-02,-1.163499183304940801e-02,1.156581230755567291e-01,3.433735072612762451e-01
4.000649207132421781e-01,4.253430909822079053e-01,4.579025918915140547e-01,-3.673958948632306994e-03,5.311063712766691570e-03,1.118972466409162356e-02,5.498088151216506958e-02
4.042438211472612064e-01,4.658349465437468528e-01,4.996849156644082579e-01,-1.030532587779873187e-02,2.163551177618907532e-03,1.004718498863886589e-02,8.751928061246871948e-02
2.682893114995836270e-01,4.853871869433920017e-01,4.657334375047094688e-01,-3.588470991840665442e-03,1.203174119422113775e-02,-8.064430337946003140e-05,2.091026306152343750e-01
6.219420070438796966e-01,6.044422790566361670e-01,3.677752047131014335e-01,4.065112379358597899e-02,-7.260855012131434139e-02,6.248347268775864688e-02,3.048692345619201660e-01
4.416729977518705219e-01,4.822286902645355200e-01,4.128203021703106268e-01,1.372037638433709628e-02,2.424343062728027878e-03,-4.271939963986194459e-03,6.545616686344146729e-02
3.379441127525693589e-01,4.336931584665795203e-01,4.328163896960646184e-01,1.362094147295038991e-02,-1.807018943757946958e-02,2.003982631594552338e-02,1.087458878755569458e-01
4.428658657296061785e-01,4.449916503606273221e-01,3.880446014484229544e-01,-1.452492324398853285e-02,7.000873515076008226e-03,6.170133803284023888e-03,6.340817362070083618e-02
5.462816103536394241e-01,1.533675059506012239e-01,5.467525026305173341e-01,-3.152488616680799299e-02,5.595309214160720107e-03,9.166917231714276360e-02,4.276117682456970215e-01
4.089284127683220360e-01,4.797759311706700780e-01,3.856254876877251436e-01,1.418815404487852204e-03,5.392783082250563083e-03,-3.606677059396005015e-03,8.570683747529983521e-02
5.180624466839922615e-01,2.132937640800930401e-01,4.963621125136898349e-01,-5.542886803226133863e-02,1.903084851926916884e-02,5.908042792233595200e-03,3.116882741451263428e-01
2.528454953229722912e-01,4.882472350472080169e-01,5.697801581748621613e-01,7.005741613528644607e-02,1.991177618073304567e-02,-2.948048450878629559e-02,3.158725202083587646e-01
2.504538871092243379e-01,5.083098691088766552e-01,1.780996376833851591e-01,-5.552126038328826507e-02,2.153574059228920146e-01,2.305020917775121511e-02,4.902652502059936523e-01
5.014519459706110460e-01,2.825220317588740260e-01,5.236003245756779556e-01,-3.394870876051354902e-02,2.406326030856204608e-03,2.172568322139505764e-03,2.382412105798721313e-01
3.103108532632494754e-01,5.057274769972627260e-01,5.088166453207577655e-01,5.620406802467257891e-04,2.534576165417302875e-03,1.951525675277926419e-03,1.970596909523010254e-01
5.250742675668689241e-01,3.175618991630140275e-01,5.452870189005967205e-01,-9.777920546328377344e-03,-9.727887308659261944e-04,4.442174089310307536e-03,2.191191315650939941e-01
2.510440768462018912e-01,4.661716233011081179e-01,4.461243935172559127e-01,-2.527896145217092654e-03,1.107171529116665089e-02,5.274237251366283019e-03,2.069768458604812622e-01
2.805627032942062948e-01,3.960068434454671049e-01,3.313962202451958272e-01,2.342063432196582473e-02,5.434236032652143417e-02,-2.968242242694393157e-02,1.522857695817947388e-01
4.362353852322266023e-01,4.140606006481688528e-01,4.844868693620111300e-01,6.551268833003825488e-03,7.442137963839593785e-03,-2.581475737241120758e-03,6.484442204236984253e-02
5.302555875122723084e-01,2.895506147272203235e-01,5.355580435114866145e-01,-7.811325998083498701e-03,6.921010136294472245e-03,8.292058259405840279e-03,2.444920390844345093e-01
3.925000596332690606e-01,4.257756038010198640e-01,4.818560276055754432e-01,7.351099430089330297e-03,1.845988848068349283e-03,-7.886176463007686828e-04,7.932583242654800415e-02
3.945453855281231270e-01,5.197118140405077025e-01,5.551111499347044509e-01,1.155029173394073530e-02,9.403183900554060864e-03,-1.043125303041258535e-02,1.494739949703216553e-01
4.288995253538368524e-01,4.571955080638857583e-01,4.202758783662995934e-01,4.913946402964368236e-03,1.054941513872613076e-03,-1.109026984028666212e-03,3.461955487728118896e-02
3.631158947860718689e-01,3.688559717066463572e-01,4.523610827948467694e-01,2.954971710743295107e-02,7.645045882569129377e-03,-6.557470524522952121e-03,1.020258590579032898e-01
4.903343264668318380e-01,5.791361939047185992e-01,4.816866177208934952e-01,3.334400847378101579e-02,7.021406520332747203e-02,-4.610535571493347418e-02,1.822940260171890259e-01
1.561746265611629325e-01,4.560320719337042639e-01,4.475857077933639294e-01,5.675815358846964150e-03,2.992712874419068206e-02,-2.945537041994717841e-03,3.004375100135803223e-01
4.240322109767183378e-02,4.324946003478669643e-01,3.954256555479992996e-01,1.452745271032069574e-01,1.065399714902710987e-01,-3.833932972392799926e-02,4.907761216163635254e-01
3.448122376775757392e-01,9.267541425242295516e-02,2.261151902973879690e-01,-1.167374280625982780e-01,8.525499245541180715e-02,2.016246450683881197e-01,4.820577502250671387e-01
5.619958536403810712e-01,4.039206021121183321e-01,4.910828256054486363e-01,8.022984166042911036e-02,1.828455562696252104e-02,-9.345491461167117209e-02,2.555812299251556396e-01
6.128371934253691311e-01,3.108510071074219727e-01,5.300472118496001306e-01,-5.242609959237131204e-03,-6.550756090052555283e-03,-4.230936871876193189e-02,2.804101407527923584e-01
4.114100325374733247e-01,4.184586462533438356e-01,4.806370494021161566e-01,2.492492724751583632e-03,8.905149281775842900e-04,-3.395651329214552719e-03,6.640569120645523071e-02
4.232203925550128698e-01,-1.907332290398388031e-01,3.774668109669465643e-01,3.620944138778343230e-02,-7.236768599249422847e-03,3.562030916138068937e-02,5.990315079689025879e-01
4.356812202293883218e-01,2.196890674868884896e-01,4.390334426037509896e-01,1.105246053389602329e-01,7.699757732526206488e-02,-1.487983241330017026e-01,4.101751744747161865e-01
4.093760004891638937e-01,4.182498179998755394e-01,4.603568904815175666e-01,2.248641268099740333e-03,1.208508726001678761e-03,-5.014183512037776076e-03,4.817029461264610291e-02
6.709569039912623989e-01,3.346592847108197377e-01,5.499980113345231958e-01,1.172607048491322579e-01,5.004994207936017819e-02,-1.308273816451843430e-01,4.326217472553253174e-01
4.633011332956064043e-01,3.869450171486354950e-01,5.242695743810581455e-01,-1.002573316413358367e-02,4.990958587744499103e-03,5.365672680387970940e-03,1.211006492376327515e-01
7.100116431378434845e-01,4.980970544788878018e-01,6.111235663369348758e-01,2.792780999399051972e-02,-3.529407258886103557e-03,-1.133770211492467206e-01,2.732601761817932129e-01
4.785760178344732885e-01,2.686029558867748523e-01,4.363399282962124315e-01,-2.177280429770674791e-02,-1.465827584758031508e-02,-5.660294752309159849e-02,2.206412851810455322e-01
4.257101555706396256e-01,-8.771532604239518083e-04,3.216004399003012382e-01,-3.038879832283738862e-03,9.386227398479630177e-04,-1.440821969864878038e-01,4.590349197387695312e-01
5.875288325744008056e-01,4.144855446814602051e-01,5.220680775864176004e-01,-1.151772026427343339e-02,-5.210943536805673695e-03,-4.904667778284237112e-02,1.749220192432403564e-01
7.931692313232261426e-01,7.093137466592235318e-01,6.128650951219219989e-01,-6.100180242268719161e-02,8.356261458909858275e-02,2.317911467665273173e-01,4.665994346141815186e-01
4.246895373475655933e-01,4.294327094246876420e-01,4.591105604437665244e-01,3.921563718136052666e-03,3.427728642811073579e-03,-1.677210790392032799e-03,3.367287665605545044e-02
4.095516634983078497e-01,4.059011842953341720e-01,4.612623658757216139e-01,9.360221981719141909e-03,7.180476070072060873e-03,-6.995293031655131291e-03,5.865503475069999695e-02
5.491507150294582251e-01,3.782003702124440148e-01,4.834746644745980815e-01,-4.819945929866420800e-03,-1.468343058268715279e-02,-4.541241356756513942e-02,1.709192395210266113e-01
9.913605752661447390e-02,1.297019363825886173e-01,-1.056501270885421007e-01,1.465223673442395402e-01,2.334122632868992908e-01,-2.115552443020577711e-01,6.412864327430725098e-01
4.932603078289874987e-01,5.165895151129020757e-01,5.483413611287563105e-01,1.564353071875185242e-01,1.856046053443742017e-01,-8.000722611430843845e-02,4.452638328075408936e-01
2.189080159878640242e-01,3.398461607770533188e-01,3.724727298255769425e-01,1.395128737080258419e-01,1.605400081560214576e-01,-1.179135422849394571e-01,4.439120888710021973e-01
4.424967176625880239e-01,3.429878283315888066e-01,3.971125566577192734e-01,-3.509865091225945061e-02,4.457762548643178641e-02,3.907418031931095964e-02,1.472522616386413574e-01
4.386962194267113313e-01,4.698321343467790623e-01,2.339937382384862929e-01,-8.678840722146781775e-03,1.225626846642192090e-02,-2.056826017172611390e-02,2.262563258409500122e-01
4.231029322132878190e-01,4.580292716732160541e-01,1.279471228038228381e-01,-1.552560171625319563e-02,6.574847948261640374e-02,2.197046383663678326e-03,3.351890742778778076e-01
4.110874275809923151e-01,4.785674601921328097e-01,4.424443270219549085e-01,-4.616924025606953738e-03,2.973839156345927347e-03,9.314962469161297900e-03,6.141359731554985046e-02
6.863669680443791332e-01,7.290171579748182529e-01,4.800270301903265535e-01,-1.148198461605539344e-01,2.195578773517841420e-01,1.673402961922176857e-01,5.668966174125671387e-01
2.958054399367179843e-01,5.164293969367019788e-01,5.068450053751482054e-01,8.019681491728195347e-03,-4.447616272396005647e-03,2.762760336098740374e-03,2.166274040937423706e-01
3.928616341288359015e-01,4.004243875837599220e-01,4.545099346389638306e-01,-7.223924472244370835e-03,3.423867909596250026e-03,9.747616430426622042e-03,6.219525262713432312e-02
4.973726662715874380e-01,2.157081078865856483e-01,4.840245712874177153e-01,1.346429327161311439e-02,7.963375616930159703e-03,3.754302069993409319e-02,2.841055393218994141e-01
-2.182935278225062170e-02,4.255598097782516409e-01,7.599493565877520063e-02,-3.284515126546191238e-02,2.681298886323162378e-01,2.325240732608928676e-02,6.216916441917419434e-01
3.633745020093936962e-01,5.301494680546016136e-01,1.670796211258576691e-01,-2.743242817470644551e-02,1.919881077629052302e-01,-1.019695441601049281e-02,4.606848061084747314e-01
4.871042919964608253e-01,7.373731355900953188e-01,3.552353647741450238e-01,9.429747612086702979e-02,1.553259863186247647e-01,-1.209667566072168410e-01,5.059446692466735840e-01
4.123419309146639233e-01,4.456716544907870503e-01,2.826539041282855047e-01,2.019607849684114734e-02,3.659885691390477730e-02,-1.542457841192780219e-02,1.679528057575225830e-01
3.893267008217636826e-01,4.597053280386136920e-01,3.820505881099859891e-01,7.344431183678723496e-03,9.258971250226784994e-03,-1.845292807433231283e-03,7.711938023567199707e-02
5.625144818257807877e-01,6.029582232045666013e-01,3.792631335802228443e-01,-7.048667066296797346e-02,-1.086246733184305091e-01,-8.432953299968169725e-02,3.380319476127624512e-01
4.805092806455295018e-01,5.032580869167297966e-01,3.858576157624409309e-01,-1.766964570475623372e-02,-1.817689054635676649e-02,-1.544481593623666174e-02,1.194702163338661194e-01
4.443706809715151085e-01,4.382435904759818257e-01,2.459858054140838801e-01,-1.929171242470319181e-02,-1.188409708021619625e-02,-2.653522793541805008e-02,2.045266181230545044e-01
6.746865648709189367e-01,4.985152568270001527e-01,5.646746802977107293e-01,1.502264893797811314e-02,3.027371479184407660e-02,2.432066449692533161e-01,4.523637294769287109e-01
4.345086592009492210e-01,3.924644462276457579e-01,4.945766986363122064e-01,6.535629513627761247e-03,2.748446799770556080e-03,-1.605403706384736333e-03,8.977714180946350098e-02
4.659706002379885303e-01,4.409248486845914750e-01,3.367472621484450812e-01,-2.445805681153669781e-02,-8.236775559033871277e-03,-2.176967002119148745e-02,1.323228776454925537e-01
3.465051742817910063e-01,4.140790475214007338e-01,3.893577824039205493e-01,7.025211462830695600e-03,1.953670123996024965e-02,-1.883844483809328507e-02,7.658085972070693970e-02
3.620108243734460607e-01,4.853252680291760823e-01,4.891503308081430190e-01,1.072237680669445997e-02,8.800026831502966163e-03,-1.194476446000275124e-02,1.292208582162857056e-01
4.951801435557103837e-01,4.788553305978384689e-01,3.356150456367698043e-01,-1.553015183474218235e-02,-1.069876962576302333e-02,-9.195627139666966848e-03,1.563434600830078125e-01
4.795833929491554182e-01,4.069226840645144283e-01,3.496756236112549820e-01,-7.648282025151807891e-03,6.465409445092452022e-05,-3.464680190063565424e-02,1.284255385398864746e-01
6.509208937012347373e-01,3.785269729829098262e-01,7.257210016796440399e-01,-9.597355076478157609e-02,1.353943365109600352e-02,2.853924257130882255e-02,3.616556227207183838e-01
5.734615412559757042e-01,3.168604796030902726e-01,7.340765863525335888e-01,-1.223614738283088366e-01,-7.591228577516678788e-03,-2.663589054929400152e-02,4.243507683277130127e-01
5.422907437595660962e-01,2.129951223102338753e-01,6.841900261215134726e-01,-1.593286055222503939e-01,-3.549680429616022814e-02,-2.638123227104471197e-02,5.072697401046752930e-01
4.024714668149531605e-01,4.647899378040554197e-01,4.812303737092263889e-01,5.289646519369845153e-03,6.057658626851994410e-03,-8.113011863240614241e-03,7.463184744119644165e-02
4.162859957653927134e-01,4.744097665305996858e-01,5.058281294047621834e-01,5.210029531155443983e-03,5.941100737516406827e-03,-1.201483381125916135e-02,8.253503590822219849e-02
3.482982389037113657e-01,4.294805749154489427e-01,4.312778830589455437e-01,8.135008042367171399e-03,1.136436371237375606e-02,-1.654719378067937355e-02,9.026140719652175903e-02
6.232747151200386249e-01,3.185373975783012401e-01,6.396774768053624660e-01,-8.415885200702698243e-02,2.012870813878170351e-02,6.242176557647023671e-02,3.637107014656066895e-01
4.360402530418686640e-01,4.462515468437322497e-01,4.343960101922310080e-01,-1.472322202487353357e-03,2.528119183175390767e-03,1.986107506542686245e-03,1.269941497594118118e-02
5.538605789491273246e-01,2.902759809645936162e-01,5.805834221819047292e-01,-7.381073109174803026e-02,1.534873521297756838e-02,1.335367369188369090e-02,3.079293072223663330e-01
3.997873272816373502e-01,3.929990900538229415e-01,4.377400781926953366e-01,-1.207738576763458908e-02,1.066251751086949064e-02,4.128227899790708026e-03,5.073369666934013367e-02
6.988668207417019218e-01,1.489336358775623093e-01,5.757076618657102074e-01,-1.338523683380724028e-01,8.728226642633270249e-02,7.656885994198697754e-02,5.865643024444580078e-01
4.859847619861930035e-01,6.783254814955357315e-01,6.499062633657030075e-01,-2.891913373073771304e-02,7.523141876273747863e-02,2.123414395998926563e-02,2.306021451950073242e-01
3.293082059576282750e-01,7.503447874257747063e-01,5.381101127021276076e-01,-7.545057175953324979e-02,1.542201638529827890e-01,4.251099086099103391e-02,4.762439429759979248e-01
5.137076299071826613e-01,2.787676225482628167e-01,4.371984304170122293e-01,2.157271628070306368e-02,2.126741274644596696e-02,1.332054468217321042e-01,3.147372305393218994e-01
5.173112118051158559e-01,6.947760567321844549e-01,6.248754217242983300e-01,-4.801302667086387865e-02,1.174611485961381124e-01,2.069035604322091645e-02,2.712311744689941406e-01
3.052492917534120331e-01,4.131075507408277225e-01,4.017186150102561304e-01,-3.428359937657998041e-02,5.356889328503846442e-02,3.651006399613765385e-02,1.633053869009017944e-01
4.122309677370631364e-01,4.273511449242458626e-01,4.307527544304153855e-01,-3.592877255969728883e-03,2.242380494646718098e-03,8.384489630160196771e-03,2.358672767877578735e-02
5.120926491286279525e-01,4.551660251783838929e-01,3.730686890830262614e-01,7.328042233769308487e-03,-3.656914022553502293e-03,1.248135826469200411e-02,1.237849369645118713e-01
3.992719407965956702e-01,4.777644498351306668e-01,5.184148842476385965e-01,-8.283508295233656116e-02,9.819661572764946944e-02,3.970663253087232392e-02,2.554345726966857910e-01
1.676645526603529335e-01,4.616131471949255771e-01,3.823311590541713101e-01,-1.797110553281867223e-02,1.080267535830707892e-01,9.951420863381599605e-03,3.250567615032196045e-01
3.909787497608743778e-01,4.869830719567115884e-01,4.525697219238096203e-01,-4.390433541276541826e-03,8.760034721006995304e-03,1.459220939952351505e-02,8.957744389772415161e-02
4.177275314069048839e-01,4.697851017926767403e-01,2.714559446108641971e-01,2.364376787193717827e-03,-4.049738310508019939e-02,2.087679880212231151e-02,1.948443502187728882e-01
4.028906523703050246e-01,4.606141555625880568e-01,3.943535860010314309e-01,-6.956644458966063614e-03,8.069878248717075528e-03,3.575977201649769947e-03,6.539564579725265503e-02
4.324536010682369369e-01,4.123045433455849729e-01,4.168316949963933316e-01,8.555878176444891084e-03,-1.023042605697150123e-02,1.095503040892209165e-02,3.505558148026466370e-02
3.419813706179645196e-01,5.892155816964306236e-01,4.211763068737295890e-01,-9.941933430679839034e-03,1.364096553646571286e-01,2.389031927396958327e-02,3.250360786914825439e-01
4.423719268619339395e-01,3.844696761610046365e-01,3.900212873378987033e-01,2.799339092303591934e-03,-9.652711540062461348e-03,1.126154631531506821e-02,6.120082363486289978e-02
4.530581993740921964e-01,4.113674438448306492e-01,4.255629610187804390e-01,3.202898377689776185e-03,-7.103937905078432612e-03,4.691103874167603174e-03,3.995000571012496948e-02
4.653048531974612323e-01,4.202458815476149412e-01,4.146179367212067812e-01,3.712963142920036597e-03,-1.726684892610749885e-03,1.848751640024129655e-03,4.874556884169578552e-02
3.915785053085026335e-01,4.617240106138822964e-01,4.145266092855681705e-01,3.355606431036527344e-03,4.933217087825128404e-03,-6.992168715545535145e-03,6.395906955003738403e-02
3.994889733801156861e-01,4.426927065366478287e-01,3.885942166133564690e-01,7.465186222884280867e-03,8.116226301575189123e-03,-2.012407264126494892e-03,5.322507023811340332e-02
5.272878595188240647e-01,4.957315882560608955e-01,3.019619081044214726e-01,-4.563431668797985046e-04,9.044376708559333190e-04,2.434492436486147132e-02,2.154953330755233765e-01
3.830691387504753243e-01,4.807270703968200554e-01,4.283735309506883637e-01,6.207740275180329004e-02,-5.428024457091350924e-02,1.849741615649493423e-02,1.690903156995773315e-01
6.319565836751286358e-01,5.845914139731470671e-01,4.056805172301369833e-01,3.584762996169050045e-03,-1.134908213597173032e-02,1.121772967357411444e-01,2.844343781471252441e-01
3.498748205108162534e-01,4.802383178780382234e-01,4.331790321551910461e-01,2.309295418559476412e-03,1.276334194809300611e-02,-4.223586925304959050e-03,1.167588457465171814e-01
4.157647764564647574e-01,4.993777521357364857e-01,4.092741241110613437e-01,2.949658683191495531e-03,7.145910085781841808e-03,3.201157575999483400e-03,8.823829889297485352e-02
6.133113258290825431e-01,5.611568632824723846e-01,3.444162089717670572e-01,2.688951210906666625e-02,1.204984800728194257e-02,5.572239658457665834e-02,2.700375616550445557e-01
4.058339537262283803e-01,4.512806295184546013e-01,3.661613892935559611e-01,1.488074651428540618e-02,1.123208317145504842e-02,-4.994116891181574550e-03,8.099327981472015381e-02
4.205406926388510214e-01,4.425508939740783187e-01,4.188544710842546093e-01,-3.570683501651055174e-03,3.334377026230110012e-04,-1.041882021380001553e-03,2.379591949284076691e-02
4.929966743603559354e-01,5.189632410983298083e-01,3.288329975598701660e-01,-2.515408113054793077e-04,1.492847301950870308e-02,3.318898658692025650e-03,1.805230081081390381e-01
4.210066977019321088e-01,4.173768494910838900e-01,4.133842181000421667e-01,-4.137099890142705190e-03,1.207464952373541898e-03,4.120780600565217451e-03,1.225857902318239212e-02
4.261637586572864511e-01,4.382578161016565388e-01,4.595257554661678623e-01,5.667671615328254489e-03,4.297946285785347181e-03,-1.297459396009036786e-02,3.889231383800506592e-02
4.269831542194386653e-01,4.232110313283781178e-01,4.230945134315938772e-01,-1.616163520635525248e-03,1.675319518664234808e-03,1.183547749353857303e-04,5.565974395722150803e-03
4.266722314867969490e-01,4.242393148516563905e-01,4.294414853335962734e-01,-1.445342124406441596e-03,2.754692562647666730e-03,3.143209430996015460e-04,7.046534214168787003e-03
4.237590191846271614e-01,3.996194582662496719e-01,4.276905030130193075e-01,3.005200329936192054e-03,9.060858921993755408e-03,-3.113758159740238722e-03,3.155244514346122742e-02
3.648667143893360443e-01,4.413210929805810312e-01,4.545377801942852014e-01,4.752151503870542804e-02,3.603383687435190302e-02,-2.748430376084760526e-02,1.413038671016693115e-01
4.230073917015218510e-01,4.491359338691204295e-01,3.920513505399289000e-01,1.249869956425892978e-02,4.992273918069631798e-03,-6.288381230219301093e-03,5.578409880399703979e-02
4.347771824734708024e-01,4.355190569139259504e-01,4.317370679811226575e-01,7.509848321727519908e-06,1.784842570885641520e-03,2.051339167891999462e-03,5.850572139024734497e-03
4.263318811709022049e-01,4.311718723487167337e-01,4.290582148315286171e-01,-4.011590775106108411e-03,3.976118390941560214e-03,2.722377545964852538e-03,1.164491847157478333e-02
4.271331333580276057e-01,4.267856932620424648e-01,4.280764780166821382e-01,-3.844275705338662556e-04,1.267392582134698083e-03,-4.748273291596118249e-04,2.697583753615617752e-03
5.278227505999387725e-01,2.660102601129618050e-01,5.028617665074082144e-01,2.934594533300499686e-02,9.354820989712474971e-03,-3.104114622299442711e-02,2.614775002002716064e-01
4.977477869722730652e-01,2.052971636063927463e-01,5.182156711986106723e-01,8.767716318924403951e-02,-2.619640289969206101e-02,-2.275514043037757395e-02,3.443924188613891602e-01
5.214183525556740362e-01,2.409192367799602441e-01,4.977124698717237394e-01,3.965030254316034841e-02,-2.038283571822870760e-02,3.845871842536756346e-02,2.880838215351104736e-01
5.197449190654241935e-01,2.201179841676956517e-01,5.162609322476476859e-01,5.864686650255011846e-02,-1.411857469009356048e-02,-7.997666478021750458e-02,3.447458744049072266e-01
4.303097199180761501e-01,5.169270823530929260e-01,5.940260315182677164e-01,7.229746482088583726e-02,5.451762139266051570e-03,8.573177802452367977e-03,1.900404095649719238e-01
4.182107800553752086e-01,4.311850426568095140e-01,4.163202380435439554e-01,-2.099680273287951333e-03,1.590932252194438273e-03,4.779060767681400125e-03,1.690477691590785980e-02
4.126973437127163802e-01,4.132539055526961436e-01,4.256807009004902609e-01,-1.372123543131301701e-03,2.166107934223500224e-03,4.326727011783235675e-03,1.541224308311939240e-02
4.123552955193888203e-01,4.304452792228526947e-01,4.113690388486311855e-01,-1.048800969741262371e-02,9.707934256516908070e-03,9.163624401860429036e-03,3.479517996311187744e-02
3.947647556675832337e-01,4.482981004281589854e-01,4.315736442119553207e-01,-5.190381286160215303e-03,7.782751830563160861e-03,9.016404402044434635e-03,5.250362679362297058e-02
4.213226379505190522e-01,4.413481431067431959e-01,4.397444852672446891e-01,-3.561710574271855379e-03,2.222926771534734173e-03,5.755735157920128901e-03,2.288548834621906281e-02
4.133052013248174061e-01,4.142626084846019463e-01,4.432755851054064333e-01,-7.297027006378020708e-03,9.815907489664842112e-03,5.739918476250921615e-03,3.765743598341941833e-02
4.605451189680583313e-01,4.146853543413989707e-01,4.172110226880006989e-01,-1.131317952913179310e-03,4.212298109543093950e-03,2.487497301999896417e-03,4.548959806561470032e-02
4.216807795058011288e-01,4.291544843636411199e-01,4.367102068447453744e-01,-8.190669379927026719e-03,9.939802065480110235e-03,9.040416515312895557e-03,3.020367585122585297e-02
4.218291546941522197e-01,4.250137720237730510e-01,4.277530353302890220e-01,-1.612770177489409804e-03,2.350979039715264934e-03,4.751081991612455223e-03,1.088446564972400665e-02
4.357238987601983471e-01,4.146843887701812115e-01,4.086177631549104405e-01,-9.823832442120880928e-03,5.327671639015606024e-03,5.046367946926186288e-03,3.252962604165077209e-02
4.065802813212078259e-01,4.479457588118946898e-01,4.179619753604387200e-01,-4.431837356841201656e-03,4.045953272103176498e-03,9.635583761734581310e-03,4.190945625305175781e-02
4.103727811287486427e-01,4.467486834714299304e-01,4.107262151196235389e-01,-5.110333257384486877e-03,1.229789459688414950e-03,6.614690178887727440e-04,3.734529390931129456e-02
4.264879729596552926e-01,5.190753372278635869e-01,4.580549210495750700e-01,-1.591226826786069914e-02,2.302243857188414344e-02,1.481845806191194569e-02,9.825808554887771606e-02
4.234797352999577491e-01,4.477292633298946001e-01,4.095746103617033951e-01,-1.220005091676424139e-02,6.420667840251714255e-03,3.510805670247715057e-03,4.154227674007415771e-02
4.121621024630648944e-01,4.600311371418165374e-01,4.142267608864479422e-01,-6.158117083740490515e-03,1.364945372632198929e-02,1.133721749256845490e-02,5.705402418971061707e-02
4.185218414716651014e-01,4.906420145218221007e-01,4.190686650989084994e-01,-4.202200946529978214e-03,1.423744597797322285e-02,2.185795662106640273e-03,7.640422135591506958e-02
4.041023305014536660e-01,4.775087448527060574e-01,4.269970464820974088e-01,-3.348622518033006132e-03,5.127174208679853747e-03,1.125867182752065231e-02,6.873738020658493042e-02
3.950473309109328590e-01,4.493823263642930388e-01,4.051252545406139327e-01,-4.240083762687581886e-03,6.033816333605426276e-03,9.140781287696252838e-03,5.403785407543182373e-02
4.069601509971533249e-01,4.637679225720945375e-01,4.065988256619471608e-01,-1.779294093821483843e-03,9.663275462477185053e-04,3.478196402230180825e-03,5.741403996944427490e-02
3.937274412580816785e-01,4.774298898812854297e-01,3.338496553596326244e-01,-8.405245862231614656e-03,1.669148655256129377e-02,6.220821035642142526e-03,1.294883191585540771e-01
3.992326136337924214e-01,4.624321398456408549e-01,4.106376412768633632e-01,-4.858555449041663740e-03,4.743475501320344213e-03,8.974601290726040917e-03,6.150944158434867859e-02
4.578867646154136661e-01,4.245958405520330325e-01,4.354302715278141611e-01,4.551018965473481968e-03,1.078306660260199001e-02,-3.141664751025706210e-03,3.613241389393806458e-02
4.099182484146537964e-01,4.868246608051340907e-01,4.119587398401547418e-01,-3.961054590927045563e-04,1.577849589794310921e-03,3.656735599582411865e-04,7.596165686845779419e-02
5.182328828671144416e-01,4.380084932763058658e-01,4.612839823398515726e-01,9.416257211955254489e-03,1.142080098003419794e-02,-2.790843401764736553e-02,9.002434462308883667e-02
4.012974216620720513e-01,5.021002165605258361e-01,4.305714667425016295e-01,1.563161926224644702e-03,5.521153601575403205e-03,2.888556298154526265e-03,9.050457924604415894e-02
4.576332774984536722e-01,3.475753881770280440e-01,3.897844603600733038e-01,3.407293142490971320e-03,7.543212900285822982e-03,-2.004720254150829661e-02,1.032477766275405884e-01
4.115447255352388534e-01,4.903275700824314409e-01,4.173030344392956725e-01,7.099428992889859165e-04,2.679946442374524056e-03,-3.486812460498216540e-03,7.645764201879501343e-02
3.979092566346992266e-01,4.982366936102857191e-01,4.301456027695847451e-01,3.607402139710588589e-03,5.464480108370556311e-03,-5.454574461883320013e-03,8.993589878082275391e-02
3.841988515809821592e-01,4.792199071277147837e-01,4.150943862908810789e-01,2.165301243613500584e-03,5.962622252761343861e-03,-1.504964960729959474e-03,8.470730483531951904e-02
5.778852384806721920e-01,5.523774066137295824e-01,4.646189199277800386e-01,3.016145164252310648e-02,4.783451204696462927e-02,-6.356732504113637994e-02,1.797406673431396484e-01
3.699248766147514855e-01,4.545178324888788923e-01,3.668495209504568644e-01,9.382354282622813041e-03,2.278049352033185634e-02,-7.319126817416348602e-03,9.699086099863052368e-02
4.244047018859907205e-01,4.793591284180221956e-01,4.285625063734082585e-01,2.584340450570738346e-03,1.620684301842662900e-03,-5.656129925641071796e-03,5.415420979261398315e-02
4.523627951840052952e-01,3.618955625392178965e-01,3.991518188063872818e-01,5.794246880920396817e-03,1.310696201823383263e-02,-1.927005664682632582e-02,8.906167000532150269e-02
4.064301648303913495e-01,3.400500409495244569e-01,3.685856513881460850e-01,1.550183259836673821e-02,2.343520508173966080e-02,-2.040205754278522077e-02,8.332876861095428467e-02
4.010135056691417343e-01,4.515970330835574198e-01,4.078034189978371193e-01,3.996301044924335799e-03,-6.427826446059673772e-03,8.611549738030787118e-03,5.153325945138931274e-02
4.041125337837191966e-01,4.775079675520221834e-01,4.300687280437438531e-01,4.253079055145323091e-03,4.079102526429020416e-03,-1.057299375545984500e-02,6.778713315725326538e-02
4.200935504754310656e-01,4.623289294488520107e-01,4.170493920189208281e-01,5.815581450446166700e-03,-1.512476830409141418e-03,1.963811861310515300e-03,4.518363252282142639e-02
4.217899754548974367e-01,4.545782918272765483e-01,4.294363522385971632e-01,1.837176698043741559e-03,1.361591960145046255e-03,-4.337181811296730166e-03,3.090226277709007263e-02
4.284797640505510485e-01,4.384458567699622833e-01,4.760362898799590514e-01,1.581340343872092088e-02,1.605983521692171470e-02,-6.073505335651771010e-03,5.934308469295501709e-02
4.137795913630615274e-01,4.493864418247602854e-01,4.238363876961319110e-01,3.068490281764306871e-03,5.487521918762064237e-03,-9.367956894827198649e-03,3.731966763734817505e-02
4.297826718462213758e-01,4.470782140273432681e-01,4.211047923621470401e-01,7.911853102918720362e-03,-2.159772356184021420e-03,2.852241596284974239e-03,2.739930525422096252e-02
4.112442341087443332e-01,4.295519566990541049e-01,4.198008024625632384e-01,1.979669668403399342e-03,-4.867083508716229211e-03,6.035950679640572983e-03,2.106791734695434570e-02
4.248620471881766059e-01,4.563828169430956816e-01,4.282389694035289573e-01,2.658589121323214326e-03,-1.835753661221260552e-03,1.502433562009588891e-03,3.060401231050491333e-02
4.183430828129072743e-01,4.384519239478238961e-01,4.187921959348085421e-01,1.533275384267492134e-03,-9.393748217553667514e-04,2.777879321422794222e-03,2.069748751819133759e-02
5.080498208499143464e-01,2.990073942407661667e-01,4.783705526651979567e-01,3.095430507485764926e-02,7.179486847125011529e-04,-9.846772999255555200e-03,2.038192749023437500e-01
4.443995882735068959e-01,4.551145184458584292e-01,4.879629252503644987e-01,1.928380749443613790e-02,1.251703132878738238e-02,-9.007602618562366228e-03,5.809329077601432800e-02
4.587539433198296601e-01,3.561354635809030333e-01,4.716861640438342884e-01,1.515189195146545570e-02,1.690183234058385831e-02,-7.344013622951764755e-03,1.171854883432388306e-01
4.305986727810047210e-01,4.390848009438896304e-01,4.270479265888884046e-01,2.940173493043843084e-03,6.417282267874001040e-04,-1.192229012681109580e-03,1.209081429988145828e-02
4.090172354766515306e-01,4.236206768283552471e-01,4.336218936040450167e-01,3.476057711230655812e-03,5.232687614191320821e-03,-8.453183172297505654e-03,2.814423479139804840e-02
4.067380496184773153e-01,4.051903301352091091e-01,4.561457699840413271e-01,-1.156972303143337377e-02,-8.075010808012709346e-03,-8.885104582068592549e-03,5.791386589407920837e-02
4.409073056467224250e-01,4.087337565486625635e-01,4.525753567208881112e-01,-7.816768337949750413e-04,1.399832910503184986e-02,5.892310980822628406e-03,4.733427986502647400e-02
1.398962127271906053e-01,3.637966022649071762e-01,-3.244739659637313478e-02,8.982237075551331718e-02,-2.481041089113728837e-01,8.831681694477777622e-02,5.921927094459533691e-01
3.365327820682594839e-01,4.870775086295293099e-01,5.203241904808006968e-01,1.252556875397043377e-02,1.628358277720433995e-03,-9.285990970641703991e-04,1.710420399904251099e-01
3.683018047162974207e-01,4.461085831275246605e-01,4.214198575739786512e-01,2.684448071525284696e-02,-2.628157964273256791e-02,2.697385902251716108e-02,1.056375280022621155e-01
4.070229391580879597e-01,1.775579323750172411e-01,6.753540981850565394e-01,1.445658846823677512e-01,2.074683800570048184e-02,-1.216001569198960630e-01,5.427498221397399902e-01
4.610840160328639747e-01,3.848483069782794863e-01,5.226558034263215635e-01,7.540393434024648088e-03,1.028177676467049659e-04,-9.434402245503843969e-04,1.202921941876411438e-01
2.620454734384551898e-01,4.981534275168403303e-01,4.968032826808539415e-01,-7.116581367349019555e-03,-2.944379885908915678e-03,-4.314195793175426216e-03,2.359317541122436523e-01
4.411263843119074268e-01,4.178577110449836485e-01,4.425217726052099732e-01,2.613367343666406217e-03,-5.600026182552108982e-03,5.440391047418882339e-03,2.791434340178966522e-02
2.676975372917084761e-01,1.374424082755097143e-01,3.374775859591093718e-01,1.005511671154334791e-01,6.266594675619129029e-02,-6.452092359479655315e-02,2.924489378929138184e-01
6.687406408592881935e-01,1.165810567929762565e-01,5.055941355197001164e-01,4.269950907394869793e-02,9.602715250399938840e-02,1.205331564697014191e-01,5.640320777893066406e-01
6.321289455240267641e-01,2.055418415505025909e-01,7.309847385222473237e-01,1.215503991804284603e-02,-5.651597294861117338e-02,1.112271280468850598e-01,5.301504135131835938e-01
5.135833433964386296e-01,4.981055617342393105e-01,2.860594923459605088e-01,6.363950595469164103e-05,-5.206721068545790664e-03,-3.377426323939070052e-02,2.280099689960479736e-01
3.910285429369371180e-01,3.780286069910008262e-01,-7.183097049185027672e-02,1.307985159930561553e-02,-6.854491979903272469e-02,1.127901864822947603e-01,5.110421776771545410e-01
4.311527019022270979e-01,3.570989073493305299e-01,4.656552167322309255e-01,-1.245134764966264809e-02,1.165755104242045467e-02,1.288745404430223247e-03,1.005346551537513733e-01
4.511499496899271100e-01,4.234248930783644504e-01,4.331202310538468936e-01,-3.208114636770504572e-03,9.989178877070360382e-03,5.599663070322582342e-03,3.190878033638000488e-02
5.180730728921810746e-01,4.802488561165021430e-01,3.415685050964979430e-01,-3.819082117885566879e-03,5.747208932334693134e-04,-1.251732018468663943e-02,1.625520884990692139e-01
3.953268669228786059e-01,4.913865113998077128e-01,4.596423457670748003e-01,4.361881353703975575e-03,-8.146195365355792667e-03,1.253484378144967097e-02,8.895695954561233521e-02
5.549430054070932927e-01,7.857646647495039050e-01,8.614073541428081127e-01,-1.930532286354613158e-01,-4.633083560923581534e-02,-4.419271117460685239e-02,4.478478431701660156e-01
-9.296518156618249762e-02,4.016680134729061491e-01,3.714210896937697459e-01,-8.547775546941199787e-02,8.834473477558668630e-02,1.217956174308786402e-02,5.257323384284973145e-01
6.812986670651606236e-01,4.965871270985652286e-01,8.686222077829431898e-01,2.232255653005636442e-01,-4.913045701635940753e-03,8.995783060195376712e-03,5.036004781723022461e-01
4.767569482256700519e-01,3.508079771372338840e-01,4.485507312243942057e-01,-1.923700736025699132e-02,2.055081885547742349e-02,3.023125300369593899e-02,1.350006312131881714e-01
4.114320986397509428e-01,4.275546067175823861e-01,5.502331296823639306e-01,7.993282384924567385e-02,-2.325383374173292488e-03,-8.384399900952735005e-03,1.915273517370223999e-01
4.463104035571715533e-01,1.924289939495733293e-01,4.813902340937462609e-01,9.760645830640878040e-02,-7.158621144167423567e-02,1.777954653814445285e-01,4.619317948818206787e-01
4.097445860399197004e-01,7.002511723561438695e-01,6.711907706389785844e-01,4.253391395652164619e-02,3.505769362414792867e-02,-2.526343258936059565e-03,2.931382358074188232e-01
7.262260755753998653e-01,4.183728041293441891e-01,9.946017459608051947e-01,6.317133674253400111e-02,1.342043725783910804e-02,-4.910524985622590627e-02,5.188117623329162598e-01
2.830650099108252271e-01,5.037569136357658017e-01,4.958299211836347808e-01,-6.080386485947074371e-03,2.580508609050008364e-03,9.209319921124952887e-04,2.171445786952972412e-01
7.127791815141917287e-01,7.105322789141109707e-01,7.313201840503498197e-01,-1.457237412806719201e-01,1.217927294115505182e-01,1.485661192825515897e-01,4.181061983108520508e-01
4.646859241841819199e-01,3.870279967879255989e-01,4.894001818449250085e-01,-1.567042014386542045e-02,1.608769148405275393e-02,7.067504922204760100e-03,1.011127233505249023e-01
4.649878436290740269e-01,3.851735643427893208e-01,5.176712264176569489e-01,-8.728101870937220175e-03,-2.755786081327628312e-03,3.118579099416276005e-04,1.166291460394859314e-01
4.160667092192646965e-01,4.101542286758437239e-01,4.269696601844111816e-01,-5.108382244174976966e-03,5.442572779797090303e-03,2.406072144733340315e-03,2.007023431360721588e-02
3.953068807197587242e-01,1.341542911133525029e-01,4.636345766040914640e-01,1.291442853591894258e-01,6.135832035959681158e-02,-1.213179467635795705e-01,4.429409801959991455e-01
6.234267253052639957e-01,4.453456223707565886e-01,8.796886539811135108e-01,1.342722376935027717e-01,-1.730080483978726352e-02,2.932516067168601873e-02,4.478653967380523682e-01
5.164967123843253738e-01,4.816993701289705165e-01,3.274613487446515481e-01,9.022111287517118813e-03,3.056222676515049641e-03,-1.198787788582501845e-02,1.762686520814895630e-01
4.711982822201548071e-01,3.967683534540622503e-01,3.583672509926444372e-01,1.434872802825765299e-02,2.050067414597438534e-02,-4.389856010661460223e-02,1.324099451303482056e-01
4.805457769380370170e-01,4.165764283438688764e-01,4.061457333351896626e-01,-5.830684017072361794e-03,-4.111694562279042710e-03,-1.157752424308426849e-02,7.364066690206527710e-02
5.630549346996654991e-01,7.554612538564392521e-01,7.178390523319835292e-01,-2.101085264348803439e-01,1.590785668752107973e-01,9.094169134424839873e-02,5.141622424125671387e-01
5.002604505292167492e-01,2.947428085326815328e-01,5.080247772668307071e-01,-1.402242261760212189e-02,-1.106560226123571179e-03,-2.052345871566310567e-03,2.109494954347610474e-01
4.239038298585446340e-01,4.025147578936830173e-01,3.542952931906561687e-01,2.023708258684148165e-02,1.547759900210440159e-02,-1.346582519778273188e-02,7.940561324357986450e-02
4.859921697469005708e-01,4.048674599321574474e-01,4.147974527626232533e-01,5.020282092090777538e-04,1.854991413112567870e-03,-2.693629709359377563e-03,7.685767114162445068e-02
2.549624133748243926e-01,4.840593149993102640e-01,4.948365289454265126e-01,-2.197464924295396832e-03,-4.892430082362015341e-03,-1.970619784896783262e-03,2.348797768354415894e-01
4.788624231224984373e-01,4.080205622600845961e-01,4.064626569333940620e-01,1.281884319789352395e-03,7.215923222407804585e-04,-3.062834132667575666e-03,7.187486439943313599e-02
4.063384731102591685e-01,4.052376916891353154e-01,4.700921323416676900e-01,-2.427695502965366518e-03,4.633273066415123653e-03,1.922861241933213148e-03,6.503149121999740601e-02
5.127302815553311799e-01,3.190880569626594054e-01,5.167120803747558000e-01,4.606779085068907209e-02,-4.425939335358100926e-03,-1.071740743052999531e-02,2.122599631547927856e-01
5.448752578291605753e-01,5.419271631473620010e-01,2.719246811399425590e-01,-9.360716764464618173e-03,1.566195706813605247e-04,-7.253732210856035645e-02,2.995896339416503906e-01
1.065780775789032520e-02,4.213286464814447463e-01,4.517232094340261073e-01,-1.428654665815212166e-01,4.441381102590118840e-02,3.801984916118292257e-02,5.035299658775329590e-01
4.901030764581446597e-01,4.223005021064585862e-01,4.167417224474948001e-01,4.197630287773954777e-03,6.911584146203459626e-04,-3.094027903653652403e-03,7.133022695779800415e-02
4.811591032914446786e-01,4.024396354521744268e-01,4.041143415357040247e-01,1.237431905626486988e-03,2.655367307622197737e-03,-4.034720195011827319e-03,7.837289571762084961e-02
4.934175748417476970e-01,3.993941743610989747e-01,4.227836879576074014e-01,-7.266754156471580536e-04,3.565049270603007272e-03,-6.792819201001081518e-03,8.582801371812820435e-02
4.843409490855099531e-01,4.172617057043368494e-01,4.094080296514068240e-01,-6.150030793573782332e-04,-3.724857142020641162e-04,-6.184403686955018686e-03,7.214163243770599365e-02
4.603767289802764839e-01,3.817313079438977574e-01,7.030246303513071338e-01,1.909938954270290479e-01,-4.791174210740957451e-02,-1.001029155804620679e-01,4.801360666751861572e-01
5.130098959277449300e-01,3.915391350213576205e-01,5.335370020058466389e-01,-1.342206158016415185e-01,1.635326227767862350e-01,1.447124684193455135e-01,4.634321033954620361e-01
4.352863687062046849e-01,4.658365601957415447e-01,5.151795964699678043e-01,2.561540291564913183e-02,-1.492414552745256751e-02,1.599108956004100315e-02,9.099049866199493408e-02
5.303703340048959713e-02,2.940478279382334748e-01,4.003142239565460891e-01,-1.545979164378679382e-01,-1.106010607109253058e-01,-4.844384840438741707e-02,4.587263464927673340e-01
5.427043720557321871e-01,5.195486336741848010e-01,6.751392969925690268e-01,1.248451860086240289e-01,2.269629548084649631e-02,-3.226596547912150004e-02,2.693871259689331055e-01
1.501481052182091769e-01,3.373435716524684214e-01,4.530371418621981228e-01,1.156882609625101144e-01,1.346349421884979886e-02,-1.321564130593726703e-02,3.336218297481536865e-01
4.688583106398362954e-01,4.253455582048854544e-01,3.927400928225260324e-01,-8.496314509040177668e-03,-7.934032398828034334e-04,-5.559539108660553272e-03,6.845732778310775757e-02
2.380166628109334770e-01,4.104613243193668271e-01,4.242277007114908516e-01,-1.488027322883666570e-01,-1.688786774740885788e-01,-1.017264664403945418e-01,4.640390276908874512e-01
4.485081706620035469e-01,3.954172073093774054e-01,4.231146162221908202e-01,-6.203787845044704020e-03,-1.054296337734932434e-02,-5.094410756812284453e-03,5.140133202075958252e-02
4.731969247797792599e-01,3.754823138383956982e-01,3.760264102338673475e-01,-1.513854802149043827e-03,3.033599366841490015e-03,-2.225797213544834785e-02,1.049571856856346130e-01
6.851234242830990251e-01,5.567787316122709829e-01,5.359817471062638949e-01,-3.671969147918774379e-02,-3.301804811682645252e-02,-1.126555661758967680e-01,2.548793256282806396e-01
4.612149177305731040e-01,1.323621563407582358e-01,3.261015768460053255e-01,5.783329452267970544e-02,4.075332818855935402e-02,-1.992640556115730099e-01,4.648681879043579102e-01
5.787511499151827277e-01,6.143609043049053087e-01,2.300604676929466352e-01,1.279846652117717920e-01,-1.858145523418822942e-01,7.569214018344842809e-02,5.524303317070007324e-01
5.032098236886920484e-01,5.931438605323995361e-01,7.391403491224043387e-01,1.074970928882808263e-01,-8.413315063330017649e-03,9.292250218521074662e-03,2.786959409713745117e-01
1.870863189204837185e-01,2.362657940423922853e-01,5.690906038849012638e-02,1.837426313080322837e-01,-2.015836044355441004e-01,2.426549695483349034e-01,6.523825526237487793e-01
4.188645169241513311e-01,4.680949349284245775e-01,3.886409829776207303e-01,-1.679531595124870297e-02,-1.920650855337806273e-02,-9.229216882332580418e-03,8.386576175689697266e-02
4.429058439137208425e-01,3.604677955506522258e-01,4.897646606735338581e-01,9.016004566295879319e-03,-1.206813255219608451e-02,2.921119854624719425e-04,1.163433268666267395e-01
4.395084641449506502e-01,4.124079072375778088e-01,4.213271677483758082e-01,5.114873810442518466e-03,-7.486600951443504216e-03,6.207637516216795229e-03,3.056982345879077911e-02
4.207573720688280172e-01,4.481507454265630241e-01,4.248264892896905232e-01,6.965801657421350629e-03,-6.743541085725989273e-03,8.389449568102658877e-03,3.389143943786621094e-02
5.792262871336244512e-01,2.692369440105811251e-01,6.065807434347154636e-01,9.395544235872183014e-02,1.236424044798834290e-02,-1.744873726931395197e-02,3.649330437183380127e-01
2.588149384685874965e-01,5.357526715909299853e-01,5.241652102977859551e-01,-1.152383389487554241e-02,6.339900308073993795e-02,1.855277364920242256e-02,2.951424717903137207e-01
3.314313961619598792e-01,1.650276760571901813e-01,5.017763976491965705e-01,2.012966266584316766e-01,1.837636572273390265e-02,-1.960673655203269000e-02,4.569256007671356201e-01
5.189131739692642853e-01,3.073234552260155628e-01,4.274592073575277373e-01,8.242109952267770434e-02,-2.623030219594251269e-02,1.163419020660735048e-01,3.111807107925415039e-01
7.967520580029007204e-01,2.773616757522273102e-01,7.578263387368824322e-01,-1.844102335751158714e-02,-2.111806849318379441e-03,9.727844509819966179e-02,5.296100378036499023e-01
4.828209686063597017e-01,4.377128984307578907e-01,4.537459553516395294e-01,-1.487154485621706469e-02,1.513073933233805186e-02,1.694840596273754565e-02,6.148681417107582092e-02
3.421351216185281041e-01,3.526103902718938921e-01,4.515359868887701689e-01,3.178799064401495456e-02,-4.298651162100491029e-04,4.093191032211147308e-03,1.183829531073570251e-01
5.125918152679882489e-01,1.528433453926560937e-01,4.995320196030035853e-01,-1.194197188283423888e-02,4.516933095059535996e-02,4.723672183201311353e-02,3.716636002063751221e-01
8.008350835089614872e-01,3.589564971342407707e-01,7.981126525170177954e-01,-7.103636532093504652e-02,-1.107722210779982057e-02,8.957655563431937695e-02,4.833627939224243164e-01
4.677054044174225877e-01,4.116439069049616095e-01,4.008820009298313947e-01,-8.996812356214262812e-03,3.311413385844587647e-03,5.901237084546937309e-03,6.513245403766632080e-02
9.418534812402504786e-01,5.088794194247681091e-01,9.632141256201778301e-01,7.954810275851384449e-02,1.627263351763151697e-03,4.625675230843371427e-02,4.717861115932464600e-01
2.808703311363777155e-01,5.154482125183909025e-01,5.208271741385466225e-01,-6.468936319766411917e-03,-8.276513306426320831e-04,1.367909671564313326e-03,2.375935763120651245e-01
4.503025107209379096e-01,4.752009201837866792e-01,3.824984201384107330e-01,9.478318638780012725e-03,-8.306635544526338663e-03,4.317435927873252734e-03,8.624370396137237549e-02
7.439870563495295519e-01,2.638617401099604964e-01,6.777508425871784370e-01,8.506668942703224379e-02,-7.519275762704211163e-02,7.798240934599072298e-03,4.918934702873229980e-01
4.800144020738122408e-01,3.751581888993985592e-01,2.502899598945917403e-01,-1.518137276838451948e-02,-6.657464528816168896e-03,8.038374385147879775e-02,2.447225749492645264e-01
4.540650493763258022e-01,3.889136245925232660e-01,4.857948758787319909e-01,1.015864871208119538e-02,-1.303062617864002987e-02,2.944155861541715088e-03,9.035332500934600830e-02
8.639023857241122650e-01,4.375913138678415581e-01,9.077345293060103959e-01,7.974344498237502521e-02,-3.684796459220510828e-02,4.189169841112390380e-02,4.803786277770996094e-01
5.181579036850353370e-01,4.369588664497703334e-01,4.613740334811700095e-01,-1.660463092002434013e-02,1.131187804674664392e-02,2.588078652373773658e-02,9.180064499378204346e-02
4.468706716944791935e-01,3.357244367740199742e-01,3.777184307625994775e-01,-2.675430667105392624e-02,2.134697702745715769e-02,4.579182338607198227e-02,1.387610882520675659e-01
4.365807251697703117e-01,-4.795151572251471483e-02,4.353872966492593477e-01,3.857120823686172040e-02,9.535305598279371353e-03,6.240480918295260304e-02,5.006133317947387695e-01
4.994716380759236518e-01,5.424860589939772826e-01,4.185753402437604187e-01,-7.050184498294979202e-03,-4.534038297469510786e-02,-3.056784175353562463e-02,1.448920369148254395e-01
5.423521422348379639e-01,6.430347055690267544e-01,4.517610215107553118e-01,2.019707822784198858e-01,-1.984498530950708217e-01,1.036766119451796864e-01,5.479368567466735840e-01
3.467358865903794052e-01,3.778318724790070138e-01,4.088177129848805658e-01,-1.830798769882606772e-02,-9.697867489701927218e-03,-2.669903595789872505e-02,7.947846502065658569e-02
5.026272024926942139e-01,2.963563262329083070e-01,5.048828041571210568e-01,1.913706299445442488e-02,-8.319563334106027871e-03,5.284259049164824473e-03,2.107323557138442993e-01
4.457807587078577161e-01,4.880463043375408150e-01,3.507032709627531664e-01,-5.093902249895924245e-03,-1.301877982709659376e-02,-1.046005076469141157e-03,1.242344528436660767e-01
4.110304285408706848e-01,4.814247283601031380e-01,4.095328146469173758e-01,6.209939556308293742e-04,-1.519426531537675356e-03,-1.259755423820461571e-03,7.124512642621994019e-02
2.134683317329704455e-01,4.871436038587377282e-01,4.129403660811534205e-01,1.473997981400818613e-01,-1.704217117856919317e-01,5.116534891847556582e-02,4.693198800086975098e-01
3.924217107867064569e-01,4.636237909284133818e-01,3.823961204000767000e-01,5.318259718048006998e-03,-8.550214281853088169e-03,1.304164422744903337e-03,7.869792729616165161e-02
8.383225224271393383e-01,7.354716090784613192e-01,3.739202743382289973e-01,3.921473869586259570e-02,1.077771095190666745e-02,1.858801264871506598e-01,5.358168482780456543e-01
3.789188265911147546e-01,4.213950322197105858e-01,4.450205800079415908e-01,1.098038940918229060e-02,-5.297104691210338494e-03,1.723500376478116769e-02,6.857797503471374512e-02
7.147090467850248929e-01,4.330580599792737129e-01,7.292003639841936335e-01,5.874650376979752980e-02,7.078629544675312142e-03,9.477808986883154083e-03,3.072328567504882812e-01
3.170980239484005869e-01,-1.401191517370882211e-01,3.829140137852042880e-01,1.519453119000137575e-01,-5.478637857249155953e-03,4.193156843793686278e-02,5.640021562576293945e-01
6.900921237174779677e-01,3.688600392837783071e-01,6.917192251437316308e-01,1.295180738350401248e-02,-3.395504777101149198e-03,4.341138188100882034e-02,3.315220177173614502e-01
5.870641413456363367e-01,5.579416474878453602e-01,7.342094378382845177e-01,1.181448163044022531e-01,7.972361124814891786e-03,-8.950348620400800509e-03,2.628510892391204834e-01
8.230982414836640615e-01,8.257289556087565874e-01,3.580367499797326714e-01,3.392456962071106058e-02,-6.103450631719245512e-02,9.073567091046523536e-02,5.067935585975646973e-01
3.841808475177312943e-01,3.915340904369999375e-01,4.428888918077807935e-01,9.942591940179818302e-03,-3.170099469733100514e-03,1.074500586242011120e-02,6.117261946201324463e-02
4.530104335944878935e-01,4.809206135956975436e-01,3.847023870110584109e-01,-1.229400614322567233e-02,-8.184787798509654891e-03,-4.142291913045586388e-03,8.976265043020248413e-02
5.027415477669435750e-01,2.035896806691415151e-01,5.807510900479160298e-01,4.067300011070378030e-02,2.955414491537052771e-03,4.621763287817009375e-02,3.609865903854370117e-01
4.518928231248277028e-01,6.219360947792492711e-01,6.657515287590486386e-01,-7.310337738323767487e-02,-5.172035905306211073e-02,-2.177728977933063303e-02,2.525174617767333984e-01
4.770856919204804480e-01,4.772299442874965436e-01,4.071308592472550614e-01,2.227848020855500641e-02,-2.153314044814329600e-02,2.104352258423481184e-02,9.545837342739105225e-02
5.407702454036965589e-01,4.512324823245180694e-01,4.509424176385444238e-01,4.222911838810110979e-03,1.344673597353109214e-02,-6.510727995581988559e-02,1.461365222930908203e-01
1.775661066780443165e-01,3.929882445840333638e-01,3.765760764925362158e-01,-6.417083593571988598e-02,-7.321602320259058827e-02,-3.382615687406592686e-02,2.738769650459289551e-01
6.303982256640003889e-01,2.412604031446405617e-01,5.229556070222135533e-01,-1.555593059173561166e-01,-8.924979184356152118e-02,-8.575407594701101033e-02,4.896081387996673584e-01
3.938092839858700067e-01,3.873007260450525013e-01,4.675667510347780165e-01,9.783235001963330041e-03,-3.593285214379762955e-03,1.180900555329127220e-03,7.932612299919128418e-02
3.964002171897875737e-01,3.985311054331173164e-01,4.713524425228761139e-01,-1.200052712803060216e-02,-4.850885400404053756e-03,-1.838101189197998168e-03,7.730089873075485229e-02
3.127024826595197204e-01,4.622995419013790630e-01,4.991946120421077437e-01,-1.386133403240679546e-02,-2.140685224792661726e-03,-8.217261299166805921e-03,1.733569949865341187e-01
3.318633469223865595e-01,4.818140916866369694e-01,5.235881945137489391e-01,-1.303920033987403075e-02,-4.802562664946079880e-04,-2.560792911280005552e-03,1.761385500431060791e-01
4.758456213433084336e-01,2.937736797483399553e-01,4.708809980064587175e-01,-1.439437547649089280e-02,2.150214769231155454e-02,1.477510022912009377e-02,1.869076043367385864e-01
3.406925084769704126e-01,4.219656824412683638e-01,4.346796318847342411e-01,-1.614926140887726694e-02,-1.735604931180919838e-02,-2.027274793469388200e-02,1.035341620445251465e-01
6.355257147471279344e-01,8.560149991761093480e-01,7.767553945680789607e-01,-1.521056078178031068e-01,-1.359806948846039032e-01,-8.240051159121426771e-02,4.274012744426727295e-01
3.255991016732024401e-01,4.498022454255125036e-01,4.595328136799793350e-01,-7.059060415958255674e-02,-5.579285569131645778e-02,-2.729565135758677333e-02,2.079722583293914795e-01
4.408512964962059133e-01,3.895816851690157012e-01,3.970649828053981478e-01,5.931143118251516917e-03,1.234749280192767341e-02,-6.526723820112563697e-03,5.469569191336631775e-02
6.389914825329133796e-01,6.419456847847728742e-01,5.953061542356974378e-01,-5.805590153720691093e-02,-8.826109748233346153e-02,-6.790998562494093838e-02,2.221778929233551025e-01
5.135812955952692160e-01,4.954480650038510792e-01,2.169412673352456022e-01,2.681851254391919709e-02,9.922937596013300943e-02,-2.401028685097283261e-02,3.411329090595245361e-01
2.085817460777314725e-01,3.678024576393870704e-01,4.374870461829150070e-01,-9.001546358996660724e-02,-1.489102428479365144e-02,-1.219863044780699311e-02,2.583068013191223145e-01
5.186589294565761010e-01,3.198481806132695282e-01,4.867927320523047774e-01,-6.456431607514233686e-03,-1.487400655294841487e-02,-9.319508403212746830e-03,1.877635419368743896e-01
9.064620091959807446e-01,6.251915123686379028e-01,6.291243247590120324e-01,3.124774747465064104e-02,4.361891974117734078e-02,-2.403641507971413793e-01,5.098865032196044922e-01
4.473378782086847028e-01,4.837869392947508618e-01,3.576166046640729679e-01,-1.272702772330260718e-02,-1.111838736157472717e-02,-1.112884906560984190e-02,1.178008392453193665e-01
4.940842050621072623e-01,4.821342710492831918e-01,5.221663257760208454e-01,-2.939563441357002094e-01,-1.278739267755406306e-01,-6.657906611527769636e-02,5.682002305984497070e-01
4.919866496761999830e-01,5.160861375969539866e-01,3.283009075076462890e-01,-2.698849039221817760e-03,1.531912859390674453e-02,1.083091305754781955e-03,1.790194064378738403e-01
6.689753690979560741e-01,9.359095059456539190e-01,7.845326466808747456e-01,9.168728648848982477e-02,-1.860077528662977542e-01,7.205577907905054424e-02,4.453690350055694580e-01
3.877406240323955089e-01,4.819446716791205287e-01,5.041929353781533507e-01,-4.260259002488393787e-02,-3.381827671030433052e-02,-1.147060400917458874e-02,1.439998596906661987e-01
5.869061056171415158e-01,8.705986403023635578e-01,9.768968116606229213e-01,-1.653527623017443382e-01,4.790908217735525415e-02,2.379449000252555416e-02,4.610268175601959229e-01
3.111658239294288752e-01,2.681540386361715989e-01,4.132764118569993150e-01,-6.425432568194339167e-02,-1.407745174682951267e-02,-8.628957857558315625e-03,1.728360503911972046e-01
4.813717518437811149e-01,4.502460737929139811e-01,3.757401662243183282e-01,1.403399728891004290e-02,7.494481520596091295e-03,-8.526898930612028180e-03,9.907810389995574951e-02
4.789778379768746541e-01,2.582657128571471672e-01,4.826978097783616861e-01,1.128994242984046603e-01,2.757889785321079174e-02,-5.124983438447786033e-02,3.129680156707763672e-01
4.175579335319806185e-01,3.958360674973903093e-01,4.584864366885185172e-01,-8.731031657831641798e-03,-1.287252040048700655e-02,-7.078492453034508809e-03,6.254708766937255859e-02
3.977173377798479681e-01,4.610639283264760802e-01,4.884843069236184387e-01,-1.007144262405078490e-02,3.272345753091843081e-03,1.194105578951319517e-02,8.523994684219360352e-02
3.024817835469710836e-01,5.219112712110569596e-01,5.093867499767162910e-01,3.615185944925944925e-04,2.751348397435565609e-03,1.625485553931563460e-03,2.135156691074371338e-01
2.749268637400497650e-01,4.735671728413056725e-01,4.474162753481530919e-01,4.223688412888343922e-03,1.299314918634464355e-02,-1.274765538778156390e-03,1.884464919567108154e-01
5.250623522726378667e-01,5.439949237710933749e-01,3.185426456367714265e-01,-6.270000499052384019e-03,2.817884128268300162e-02,-1.426086021916318390e-03,2.223172485828399658e-01
6.378715317257493966e-01,8.179520446777920339e-01,8.831438731188953062e-01,-2.106538285777121433e-01,1.326001494172253659e-01,6.043920701657162775e-02,4.952281713485717773e-01
3.835130595897260908e-01,6.587072647435080475e-01,6.689369730354238763e-01,-4.727989289977252430e-02,1.395750847177665982e-02,-1.247991462750061955e-03,2.931670546531677246e-01
4.229099173763190556e-01,4.935414518259838013e-01,5.256689447640348067e-01,-2.881828527030805970e-02,2.482620005423561219e-02,1.801042476797464278e-02,1.166354641318321228e-01
5.468413580906950067e-01,5.544013942646381921e-01,3.182808150809394165e-01,3.966000943248376882e-03,-7.586253669933710336e-03,-1.338051056825440184e-02,2.340554594993591309e-01
7.915951845135653642e-01,5.311629676487917839e-01,7.234821097818101565e-01,-1.143510768282577778e-01,-6.277619418985683208e-02,-1.842122503372760900e-01,4.556083977222442627e-01
4.621449827701828439e-01,4.699149397880448831e-01,2.725911895534686158e-01,-2.266625291180981994e-02,-2.096228543960897486e-02,-1.401808374626409108e-02,2.022693455219268799e-01
5.684075578914243865e-01,5.594644147791334454e-01,3.494651901016290196e-01,-8.949175315335306880e-04,3.064440510669084322e-02,-6.328247007060566927e-03,2.213537693023681641e-01
6.181336662837269014e-01,5.661758756140310433e-01,3.016535208383298583e-01,1.560267169562555784e-03,-2.562148448778378898e-02,2.511662867137077690e-02,3.004744648933410645e-01
5.659157453671207483e-01,5.604771065742825131e-01,1.896564055879479405e-01,-7.781292148891325033e-03,-3.105425717503760077e-02,-2.391750871424331085e-02,3.799279034137725830e-01
4.051654867827442774e-01,3.657451252893698102e-01,4.862840737341959652e-01,-1.754317266563073380e-02,-3.411269423512845213e-03,-3.310397908833599603e-03,1.110089570283889771e-01
4.571688591340740127e-01,8.601268357904452433e-01,8.718298345443651343e-01,-5.994881787248419747e-02,-3.902939789313990965e-02,1.446376000695939398e-02,4.280268251895904541e-01
3.147346806545050502e-01,4.931732294669918248e-01,4.746745777806644084e-01,4.661231381454182640e-04,-9.642257004004005025e-03,7.251406436799627021e-03,1.712278127670288086e-01
4.567209498898845421e-01,4.790158275628719764e-01,1.711927977030190395e-01,9.612536825880854674e-03,5.358880154596900453e-02,1.113322188519133278e-04,3.119001686573028564e-01
6.074750969018684055e-01,2.172648230544726167e-01,5.296273944380399668e-01,-2.881433728288311166e-02,6.003069062387055357e-03,-7.668428227409379225e-03,3.615559041500091553e-01
3.115666616998081784e-01,4.698360715593468129e-01,4.916354611132706109e-01,9.523648048511515127e-03,-3.104223146166260223e-03,6.850498659950948928e-03,1.715120822191238403e-01
5.612653426260886258e-01,3.619912655997524764e-01,5.644514558544868610e-01,1.866876529442810032e-02,6.319906444587527518e-03,-1.606677324432466761e-02,2.056575715541839600e-01
3.278073691884820784e-01,5.264250732795938692e-01,5.273973455098339702e-01,1.155855349591752585e-03,2.093101936930932567e-03,-3.220442596096708895e-03,1.992267817258834839e-01
2.997310081875041998e-01,4.158015457287914662e-01,4.478814688994335880e-01,-2.795442412357962425e-02,1.318645578423687827e-02,2.263823263341178949e-02,1.504276990890502930e-01
3.622241926793446365e-01,4.496041871624008035e-01,5.048118165674976288e-01,-5.064608342259610541e-02,1.253550179241057216e-02,2.914102944952339305e-02,1.619298607110977173e-01
4.609713438041623257e-01,5.018410028364957975e-01,3.949244587164210119e-01,1.576720022090272871e-02,-5.965896872335285650e-03,5.502820809083565183e-03,9.836293011903762817e-02
3.464728922966939240e-01,5.042708819759486039e-01,5.373911135367959169e-01,-1.226424059743347686e-02,1.236153180175578528e-02,-6.630193110042798162e-03,1.796246021986007690e-01
3.376776712698543736e-01,5.601714985393994040e-01,5.554806031142625056e-01,7.626349858391926265e-03,5.719737639433284011e-03,2.999346152221713489e-03,2.208651900291442871e-01
4.806302746815638294e-01,4.382154744954578907e-01,9.888954990453260874e-02,-3.429424651075983852e-03,-4.080830832806870909e-03,-1.826230217596163941e-01,4.811156690120697021e-01
3.297318621168439101e-01,4.544442137964317396e-01,3.791912293006306500e-01,2.349098380105746776e-03,1.803202163953190884e-02,-4.326992808758974712e-03,1.134874001145362854e-01
3.734447407958131349e-01,5.100988837432673950e-01,4.598532984283674740e-01,4.137932079136846797e-03,1.141170803440006570e-02,-1.100811817209055785e-02,1.230377629399299622e-01
4.015204953282455747e-01,3.958118815249691558e-01,4.717888355485769236e-01,-6.215566684423693561e-03,-2.340481607238112816e-03,-3.103081989801616258e-03,7.438133656978607178e-02
4.898582998426346813e-01,2.533105741926404697e-01,5.001421811930888417e-01,-3.448043501834857660e-04,-6.959558021568403550e-03,-1.353466426241072820e-03,2.421659976243972778e-01
6.682189804016911427e-01,8.791443212792583450e-01,7.712207603659113619e-01,-1.294107833137628505e-01,1.832468496305787176e-01,6.714936774039363676e-02,4.448370039463043213e-01
4.360587227592499504e-01,4.856796183058317284e-01,3.302590366738363259e-01,7.187936392522346896e-03,1.343546574234263588e-02,-3.509889489833389106e-03,1.401398330926895142e-01
5.775277935658602591e-01,3.632956671703175822e-01,5.716016146871767400e-01,-1.855288429461356831e-02,-2.142103780842520653e-03,-7.741689341478907166e-03,2.142128348350524902e-01
2.615798055624925511e-01,4.282856468968107566e-01,3.812139156071574497e-01,-9.263309008236715950e-03,3.090679097804808692e-02,1.918221479423757453e-02,1.624390333890914917e-01
6.857977721229561174e-01,4.309034550377416339e-01,6.218334081392868917e-01,-1.696697508335109081e-03,-1.248898180526245884e-02,-9.054639215037948996e-02,2.789819240570068359e-01
4.358479367636630131e-01,1.358924467936782343e-01,4.157300776059488223e-01,-2.751430059876086923e-02,-5.658024771251918446e-03,-3.549638934341444590e-02,3.008167147636413574e-01
4.230527501046671968e-01,4.240494931620639729e-01,4.918484851975007954e-01,-1.591562547587913956e-03,-1.524251603098942870e-03,-2.211018809208127080e-03,6.851649284362792969e-02
9.486273091041571570e-01,8.879796503019025122e-01,5.962203566057775461e-01,-7.538613048848154252e-02,1.356336201991761303e-01,9.727425221942269384e-02,4.551061689853668213e-01
1.981698513445298571e-01,6.939546753414415070e-01,4.879132418840867458e-01,-5.176151421175528150e-02,2.077677358433518973e-01,-6.548088128987987477e-02,5.800920128822326660e-01
5.439093816404879655e-01,5.228764374535130877e-01,3.131437665289612537e-01,-3.717260885507883174e-03,1.320023551285764811e-02,3.526779293534503413e-03,2.223577797412872314e-01
4.513831501234005783e-01,5.431831516999259257e-01,1.519478824150789775e-01,5.913406163918181503e-03,6.588175265726431418e-02,-2.415474456048821369e-02,3.747710585594177246e-01
4.346591160571183776e-01,4.062822324138083974e-01,4.791904451039556423e-01,4.719352858629018155e-03,1.119304982992778280e-02,-2.583744242332753922e-03,6.719110161066055298e-02
4.847410462900074157e-01,8.826472413528213545e-02,5.321153319761808831e-01,-1.055239520354725596e-01,2.529918971036601918e-02,7.394375205777277416e-02,4.795306921005249023e-01
4.761260645535339009e-01,4.201202217532112315e-01,4.257908403335474712e-01,-1.224471466258158147e-03,1.799252593390531473e-03,4.600391072270871261e-03,5.411952733993530273e-02
4.298728109962250965e-01,4.022155951224644643e-01,4.052050111239910435e-01,-8.633691997568760865e-03,8.456259649131298017e-03,1.114932058941576695e-02,3.875884786248207092e-02
4.588666489306125196e-01,3.880344005085484271e-01,3.457488220516128918e-01,4.873933142837551247e-03,-5.332579065795888321e-04,1.881405163589061277e-02,1.045680865645408630e-01
4.145379445424055564e-01,4.139901213724745954e-01,4.804268935395521467e-01,-1.637283833270046941e-03,-1.468393652143289369e-03,2.223888132887444683e-04,6.627524644136428833e-02
7.278179233385742020e-01,3.661244226641684474e-01,5.198912548218539431e-01,7.587487435401236990e-02,-6.397108037060769692e-02,2.626915710670377213e-01,5.791531801223754883e-01
3.960373418538738477e-01,3.204423681293089854e-01,3.510835297173077740e-01,2.770878279410270845e-02,-3.633178656158025238e-02,4.774403915396435022e-02,1.320566833019256592e-01
5.031043381791417968e-01,2.778078091727687049e-01,4.733042931218630067e-01,-4.015383611780398015e-03,-1.306575786950219540e-03,1.342329646346374777e-02,2.133700251579284668e-01
5.107313252366887379e-01,4.893071513740160361e-01,2.724711680172664519e-01,-7.294565966248043633e-03,-1.636690478019416084e-02,7.753339013490016113e-03,2.307942211627960205e-01
5.047248301933112691e-01,2.460646420540729962e-01,4.523624904799510849e-01,7.730636065962875891e-02,-5.445916049281871590e-02,1.239214495739423549e-01,3.591638207435607910e-01
4.663667656670019146e-01,4.752223243359254279e-01,3.124767087268522370e-01,1.165032925897630661e-02,-8.628626354178402236e-03,1.251678577260912500e-02,1.619379967451095581e-01
7.345985404467382240e-01,6.150356538966010866e-01,7.634117365622815621e-01,1.598172514438859770e-01,-6.716062923011152652e-02,1.487842094030632500e-01,4.184937477111816406e-01
2.606106149139078010e-01,4.585019215824588379e-01,4.554474903532882979e-01,-2.346539701407302989e-02,4.277125187343900486e-03,1.044480123237966421e-02,2.014941424131393433e-01
5.094759026133072188e-01,3.858436380196412774e-01,4.518304844980449153e-01,-3.417559929982903755e-03,1.258956032419475922e-02,8.919104596726238482e-03,1.105905920267105103e-01
4.701957784775263605e-01,3.261383233051606823e-01,4.860200907864444808e-01,9.846374070342677615e-03,-1.426078015701241590e-02,9.735580930779490563e-03,1.564221084117889404e-01
4.909955189566385658e-01,2.429144876178221946e-01,4.860451585551007758e-01,-4.278081237361616024e-03,4.108992571571161607e-03,4.793705966937190574e-03,2.459981888532638550e-01
4.094945783325478761e-01,1.466990091808094143e-01,3.765775190066825151e-01,3.573215531034606290e-02,-2.369230798032590651e-02,5.909831073258378642e-02,2.783644199371337891e-01
4.310167475956444005e-01,2.919746254583556744e-01,4.792530897995501693e-01,7.313187290195674595e-02,-3.942236307896355985e-02,9.869781614610177722e-02,2.798165380954742432e-01
5.918153504188997660e-01,6.740983720737442342e-01,4.331667144461389674e-01,1.252442692535923330e-01,-1.983853285937396960e-01,1.257253310575472648e-02,4.589082300662994385e-01
3.335245141025942051e-01,4.722106083146991873e-01,4.265503299166877316e-01,7.355683383234669706e-03,-1.355149613567493451e-02,4.556675793211594112e-03,1.255459487438201904e-01
4.376832626430880446e-01,4.103438213610294816e-01,4.333422288176407289e-01,-1.229466081745282310e-02,-1.574310791663548550e-02,-1.596803468442670876e-02,5.108380317687988281e-02
4.627020417906518857e-01,4.643723257694212792e-01,3.261918870545441607e-01,1.067051361308470926e-02,8.732145735125236910e-03,-9.700718117173887448e-03,1.404224485158920288e-01
2.866830019952163466e-01,4.770325297193650504e-01,4.810228513437079800e-01,-2.119827850524877433e-02,-1.896706493369039806e-02,-1.388452478829485005e-02,2.000352740287780762e-01
5.042285172928409054e-01,3.043031494152880212e-01,5.001068899948057922e-01,-1.324181288573512451e-02,8.044803283678021721e-03,1.895526471317723893e-02,2.023887932300567627e-01
4.469009648009437674e-01,3.972623250884246282e-01,4.348537722965395425e-01,4.494204385695108571e-03,1.094258053937596960e-02,-7.774810460268215088e-03,5.111046880483627319e-02
4.478842864060067486e-01,2.762552342698411656e-01,4.733460812639619930e-01,1.003750058626150937e-02,6.825958243586469597e-03,-2.169317268907696925e-03,1.868982911109924316e-01
7.695721916751123715e-01,5.276075076419942667e-01,8.573747633994061035e-01,2.033549563570324070e-01,5.737677506889184847e-02,-7.822924687255670972e-02,4.896904826164245605e-01
5.222887581115444044e-01,3.046738510374825681e-01,5.234664935509617534e-01,-1.848048770759843848e-02,-3.240495079551929634e-03,3.230276941061763912e-02,2.275970578193664551e-01
5.123878085836037766e-01,3.290765036473310978e-01,4.900006653984994021e-01,-1.456330584834448008e-02,1.184702932254354246e-02,9.439070444573280025e-03,1.769887506961822510e-01
7.891625680539261500e-01,4.325071879714735279e-01,6.776229289834203584e-01,1.122111887699738381e-01,-5.848792553392482413e-02,1.884534215608969776e-01,5.044240355491638184e-01
3.921017920680370250e-01,3.337563462842703110e-01,4.652877327840895805e-01,-2.065973394330418086e-02,-9.557869839608648319e-03,-4.460043107978112903e-03,1.210150718688964844e-01
5.890100544437333330e-01,4.371856205303602527e-01,4.290137374002755966e-01,-6.053266168033283323e-02,2.577967411377087709e-02,9.274618653606496455e-02,2.512967884540557861e-01
2.033628512262662669e-01,4.448069546549445197e-01,3.810495955306815730e-01,3.383282588298128224e-02,8.520287486071997929e-02,-4.623224747771592473e-03,2.687807977199554443e-01
4.735642795763550517e-01,3.098275755802595288e-01,4.307126146259084298e-01,5.457419266263638553e-03,-1.466009878627229542e-02,2.568895328867718333e-02,1.560238897800445557e-01
3.196215665784138404e-01,4.266432893750959909e-01,4.734815779687395754e-01,1.442601552869427969e-02,4.740415971058373895e-03,-7.295320603350759214e-03,1.396839171648025513e-01
4.434265295055219158e-01,4.179229997910288708e-01,4.607876055245015978e-01,1.795678613320316397e-03,1.213145156744556072e-02,-3.199879937554919642e-03,4.331873729825019836e-02
3.006018951319304744e-01,4.257234886433676202e-01,4.763421754756970716e-01,3.217809118156873815e-02,4.531035076883607217e-03,-1.763404642490504258e-03,1.665183603763580322e-01
3.450842929743596077e-01,4.778361483282929645e-01,4.825880875574901085e-01,9.018307655939018092e-03,-8.439660850250411614e-03,1.332531314340298402e-02,1.388050019741058350e-01
3.703579123277013219e-01,4.472987553665815352e-01,4.760826295696234944e-01,8.029011094723570094e-03,-4.491760121096048143e-03,1.390260178710592959e-02,9.897893667221069336e-02
4.566522154581662551e-01,3.751289435070835343e-01,4.855817092687259029e-01,1.130833134391329674e-02,-1.739820101754976922e-02,4.429266094539870136e-03,1.057921051979064941e-01
3.092030819391974328e-01,1.159307732155479553e-01,3.864925983122295405e-01,1.136962226898064338e-01,-5.539573616442894886e-03,-7.849993654059140603e-04,3.116731941699981689e-01
4.968586131970004760e-01,5.085889352989634293e-01,2.584560643147279513e-01,-4.751693217337515582e-03,6.526820131894373912e-03,6.429895243496485703e-03,2.451315522193908691e-01
5.256108987683165701e-01,5.347843431957306493e-01,2.805007871102474515e-01,-8.313124870516191978e-03,-1.216768905801169851e-02,2.843567473280133456e-02,2.559079229831695557e-01
5.651467677251530430e-01,5.828056623264331604e-01,3.803399089480690165e-01,9.214528882538809001e-03,4.696429327232964912e-02,5.845395977543692452e-03,2.114309817552566528e-01
6.426267542219322726e-01,7.016203564137417636e-01,3.827094091157244860e-01,7.132170045214969098e-03,8.298582898783667117e-02,-2.980040058222087080e-03,3.274292647838592529e-01
4.880192577836849899e-01,4.467639341176863343e-01,1.322903517598730816e-01,4.529174936245948524e-02,8.497208306495046548e-02,-1.577385522493086056e-01,4.647886455059051514e-01
3.179597596360179690e-01,4.871578342739456002e-01,4.744508260994671489e-01,3.680655679483162135e-03,1.278950103783143590e-02,-9.630793947569689720e-03,1.656776070594787598e-01
2.464889763304389247e-01,4.914133069258471154e-01,4.824203778283603361e-01,-1.319319097441774705e-03,7.286028735842025282e-03,5.847991688762693013e-03,2.411084622144699097e-01
5.014219499236232114e-01,2.681441885186271468e-01,4.843371409990333554e-01,-2.520135730550186488e-03,-3.995466440512931289e-03,1.698319617995739869e-02,2.272820472717285156e-01
6.120545468873483941e-01,6.294768701275673672e-01,3.464799123101055534e-01,2.256567953272521285e-02,-2.965460417556739850e-02,-4.283987967450207895e-04,2.821820676326751709e-01
3.692193646030530463e-01,3.841496309133720644e-01,1.873089658531557067e-02,-1.203610475534448374e-02,3.839287623819318679e-02,3.460200127701309331e-02,3.697925209999084473e-01
4.761299215748225899e-01,5.149878173066841924e-01,1.862744492511764216e-01,1.862326206519509392e-02,1.590744795719072624e-01,-5.190099421181643830e-02,4.264094233512878418e-01
4.225277409868966050e-01,4.246272138783342975e-01,4.372254109493773910e-01,6.340455959041399079e-04,-1.683840837558381841e-03,-1.128274121975387330e-03,1.425141841173171997e-02
5.003338447645724330e-01,2.703011674421900712e-01,5.025381335605751953e-01,-2.485807255547396212e-03,-4.687285465372940940e-03,-5.459099576190007408e-03,2.315184772014617920e-01
3.940753350131958044e-01,4.028720574451055692e-01,4.501900033327815853e-01,-9.917669006145884633e-03,-2.191696039730608048e-03,-6.728638246387064724e-03,5.637311190366744995e-02
5.072562076291611266e-01,3.718676293394745924e-01,4.563429184607317723e-01,1.174753967199430957e-03,-7.619978195853244554e-03,1.157325218389711370e-02,1.208689585328102112e-01
4.559679882085455049e-01,3.716707390087912177e-01,4.161829738340618312e-01,4.537333801082401967e-03,-1.360193976293213626e-02,1.691468517045984984e-02,8.252409845590591431e-02
5.158085221603868620e-01,2.880691289380850062e-01,5.131221142238477917e-01,6.162764877210776503e-03,-1.967674192526690322e-03,9.353086459705105618e-03,2.272633761167526245e-01
4.587588833282740253e-01,4.727501963626762893e-01,3.580914906991300994e-01,-1.965387908309977963e-02,1.418586388746736690e-02,1.195296136782738987e-02,1.180225014686584473e-01
4.782706629141634247e-01,2.925949356024599157e-01,4.455000139388172187e-01,-1.898909416234868461e-02,1.628518338708059496e-02,6.513005834075388800e-02,2.099233865737915039e-01
4.437655128384422887e-01,2.301067427342639027e-01,4.620616090467074000e-01,-2.943476045241205999e-02,3.752272282529850716e-03,4.516054190391351371e-03,2.293394356966018677e-01
8.208899604439587883e-01,3.648100363622575060e-01,8.332926010361587643e-01,6.438726218245353905e-02,-2.048495928521307935e-02,7.391243572189161448e-02,4.938669204711914062e-01
4.273770669366632746e-01,3.321763877024667688e-01,4.638131562674767672e-01,-7.309677452386463548e-02,-4.581843865451245418e-02,-4.684903052712100641e-02,2.068124711513519287e-01
4.592816011615586946e-01,-6.848742395278401007e-02,3.400087125218368422e-01,-1.493192626043975471e-02,7.393563625358290370e-02,1.969373564697195766e-01,6.026930809020996094e-01
8.082751284734132069e-01,6.054413309589059544e-01,6.957476349114185554e-01,-1.090163147338444188e-01,6.991414746170183936e-02,2.027262239315907044e-01,4.523173868656158447e-01
4.329555552111594152e-01,1.899013411869473478e-01,4.845135131873338219e-01,1.281208323264442783e-01,4.403430487586578596e-02,-9.796332166593736679e-02,3.976396620273590088e-01
3.948736875936003088e-01,4.168676540567788358e-01,4.671078832170832418e-01,-7.512160429652614199e-03,1.576098882320893600e-03,8.677299402368799167e-03,6.719697266817092896e-02
3.318777621047493409e-01,5.764666219841605432e-01,5.346735394891147797e-01,-4.732635227995825138e-03,3.750312315002563707e-02,1.247734405161643641e-02,2.368585020303726196e-01
4.727718114146355344e-01,3.545531639132375457e-01,5.302790130239587452e-01,-5.378446508399681303e-02,1.265824092107299161e-02,-2.151751730333898750e-03,1.823569089174270630e-01
3.714879800096442253e-01,4.480620264606132164e-01,4.717121460000128774e-01,-7.842859737468222542e-03,2.944227178463893618e-03,1.296268395947842121e-02,9.459666162729263306e-02
5.003703871788296453e-01,2.714492954252190060e-01,4.840475861585434858e-01,5.150075915426703677e-03,-1.144687003814311849e-02,1.652348604469870696e-02,2.241124808788299561e-01
5.054567248684691538e-01,3.019742362424542304e-01,5.168305003630522254e-01,3.297617209822326263e-03,4.069595223630858151e-04,8.106458074193457347e-03,2.099502682685852051e-01
4.647159113612205905e-01,3.543539274129698935e-01,4.351700233621779712e-01,-2.727877964428835483e-03,-1.186350005941033507e-02,-9.181823261905572298e-03,1.024180352687835693e-01
4.744314387679653966e-01,3.457131238907508175e-01,4.336963498073785339e-01,-2.579531845219738199e-04,-1.665629738398403253e-02,-1.488900811968383621e-02,1.203409507870674133e-01
4.755878985139102566e-01,3.574407166040448613e-01,5.346527716244102724e-01,-5.385772460668313000e-02,1.160413982435558669e-02,-2.113860017067821073e-03,1.831532120704650879e-01
5.296738669129489319e-01,4.018172666827515838e-01,4.833132932889163680e-01,-2.383740846549673234e-02,-5.486714363253680782e-03,-4.212223223023827540e-02,1.403101384639739990e-01
4.518655097733108028e-01,3.595326708712156538e-01,4.640611329655029427e-01,-1.238840369206742759e-01,-5.098502983798219174e-02,-5.959927940140203467e-02,2.725739181041717529e-01
3.504382339286426506e-01,4.824050614356661937e-01,4.427937790026253428e-01,-8.161535687563704683e-04,1.058382434042458471e-02,2.590579589392222500e-03,1.188070103526115417e-01
3.305327426085022946e-01,5.644631381200825304e-01,3.822814456948208095e-01,-4.689196007710927372e-02,1.053027611190337082e-01,2.794730404126785986e-02,2.958065271377563477e-01
6.185516882815942363e-01,7.009783885321507757e-01,6.429077513400465183e-01,6.906544485402008049e-02,9.694264889830569998e-02,-9.302794426752626633e-02,2.717464268207550049e-01
2.858409277697616102e-01,4.533211193098521385e-01,6.077968725560197738e-01,-1.718178227379197343e-01,1.267482304762647116e-01,1.616113743007415587e-02,4.640333950519561768e-01
3.993558042902067839e-01,2.451803764408153063e-01,4.433364029578914511e-01,-7.814891883803069816e-02,-2.938673952089077349e-02,-3.035127623307200262e-02,2.369835078716278076e-01
8.255779846229880370e-01,6.736287648666142713e-01,6.079600087007491771e-01,-6.799161022128123733e-02,6.908958648357831078e-02,2.294722391985875021e-01,4.728006720542907715e-01
4.264926970541502160e-01,2.148979269426362915e-01,4.092593132964849056e-01,-4.276717016458257692e-02,-2.124516204869361310e-02,-5.349915243371597406e-02,2.384333908557891846e-01
4.964701067943672608e-01,4.244497163930849304e-01,4.633037292643734095e-01,-6.722733564885215694e-03,-2.681142839149042861e-02,-2.199193712637969797e-02,8.741492778062820435e-02
5.583197651074867096e-01,3.057528939001857848e-01,5.860576082789333840e-01,4.965976962967319497e-02,-2.987770377111913234e-02,3.995372960311294186e-02,2.939902842044830322e-01
4.176843140101209606e-01,4.151197953190020051e-01,4.903086358274089673e-01,-1.347447952858101851e-02,2.409879206280424841e-04,-3.227906763462451249e-03,7.773823291063308716e-02
3.035877954076838803e-01,3.715250457228032044e-01,2.142408889058250998e-01,-1.336920107507167388e-01,1.743822927244901566e-01,1.437518226172989633e-01,4.748792350292205811e-01
4.682921564659278113e-01,5.203121732801754273e-01,3.862177744202092700e-01,-4.217617404127001722e-03,1.375071877398409241e-02,-1.658663875414115221e-03,1.197525039315223694e-01
6.093852676664116563e-01,1.413383673419189579e-01,6.151141928568348849e-01,9.600315224377614642e-02,-1.197618008173288728e-01,4.906904522054476164e-02,5.474339723587036133e-01
5.101150233476747786e-01,2.849122131392469726e-01,5.212363231682768383e-01,4.433745462924773388e-03,3.274520243442037310e-03,5.359602676187270008e-03,2.313479036092758179e-01
4.368271539055605945e-01,4.122098938056147355e-01,5.056111903793508722e-01,-3.433064168350279804e-02,3.884608269193897106e-04,3.189110764743892552e-03,1.029430478811264038e-01
4.815493749969444459e-01,4.480000414146022014e-01,3.625230796998097915e-01,-1.193084083931987387e-02,5.211831068776778646e-03,1.200333925000497508e-02,1.106360182166099548e-01
5.390357578746264311e-01,4.246202149567132045e-01,4.514871602253606175e-01,1.500874604500527544e-02,2.047064431353295272e-02,1.553365722643399172e-01,2.916505336761474609e-01
4.653187170178030851e-01,3.920311492162562028e-01,4.790891835893940631e-01,-3.045949091713344783e-02,2.415668980229244284e-02,3.036037029851107807e-02,1.177672818303108215e-01
4.419925489594723755e-01,4.704427768547323474e-01,3.664396608992818716e-01,-1.206004937723914074e-02,9.754724948016536140e-03,7.896960735881936727e-03,9.785722196102142334e-02
4.509219376764719289e-01,4.352147977110793486e-01,4.657957133543941253e-01,-2.929799425544281095e-03,8.600807705925937741e-03,3.227017491667785037e-03,3.131264448165893555e-02
4.147659236912490943e-01,4.174738857780432855e-01,4.695844976772221013e-01,-5.889483857120740963e-04,4.340433130399615896e-03,2.153900699881817690e-03,5.417969077825546265e-02
4.336621999565423158e-01,1.997509192921180787e-01,4.810102772202375920e-01,5.918566069816384723e-02,6.776532904767691365e-03,-8.541011252073424029e-03,2.808861136436462402e-01
4.255042341743981993e-01,-6.361200490803303742e-02,3.965856818492629055e-01,9.002595048833796076e-02,-1.150560849495659184e-02,8.324658242683266596e-02,5.209870934486389160e-01
6.457291778812348504e-01,3.492719521214603384e-01,4.521439373819881591e-01,-7.104819623158717401e-02,-5.563786436348794329e-02,2.353293786241392460e-01,5.084706544876098633e-01
6.397706436599125412e-01,2.550364622407047532e-01,6.396505087690422808e-01,-2.138228897443379684e-02,9.689863886348648939e-03,-1.033613404260933996e-02,3.872311711311340332e-01
8.194933135216985187e-01,3.070622141131632010e-01,7.632790689885554647e-01,-1.387025757451050556e-01,1.168663827694776947e-02,1.190356613364904198e-01,5.810104608535766602e-01
8.790542911864690501e-01,6.969815570299237040e-01,6.323439106410532196e-01,-3.459986223662659538e-02,4.171233006458003462e-02,2.298738253030686851e-01,4.652251005172729492e-01
5.673517098733024122e-01,1.013479530351961144e-01,7.791455332304630943e-01,-2.771405194762857627e-02,-5.079579543324191232e-02,-8.766460400500920847e-02,6.275451779365539551e-01
4.092645124076906837e-01,-1.698272910087317289e-02,5.116598264560574538e-01,1.274401612289664254e-01,2.040027218054019792e-02,-1.427487663912261132e-02,5.351635813713073730e-01
4.283403910968186512e-01,4.278641885544665069e-01,4.629350254099635631e-01,-4.219183267686081595e-02,-5.474392655320606954e-02,-4.101479042168294092e-02,1.434966027736663818e-01
7.000353478680716446e-01,2.046888196145036365e-01,6.022660510082104013e-01,4.375119651289220007e-02,3.299061744647841660e-02,-5.993905332335294767e-02,4.756921827793121338e-01
6.286056533875429286e-01,8.044874409915161451e-01,7.484338509975757558e-01,1.790130357505552994e-01,-1.507815735585634198e-01,7.621508927870807026e-02,4.538568854331970215e-01
2.844822563087653355e-01,4.927071135422358972e-01,5.426144048494184746e-01,5.462256953694236833e-02,2.976589267875148423e-02,-9.981488899282872293e-03,2.610518336296081543e-01
4.508871108643561776e-01,3.873721061177772818e-01,4.538599467856868075e-01,8.172405161866631851e-03,-1.346343468928483736e-02,6.527930652387005026e-03,7.144096493721008301e-02
4.690270394345510407e-01,4.251100523463093306e-01,3.775991030733023002e-01,1.441295766950441253e-02,-3.622791118613725384e-03,1.464773237346853919e-02,8.705614507198333740e-02
4.008650032157930476e-01,4.263611802759193492e-01,4.293241094585151796e-01,2.959217427144881628e-03,-2.938397288495632909e-03,1.106576488225113376e-02,3.396916761994361877e-02
4.082514065531415159e-01,4.369436013961169873e-01,4.797708897349510782e-01,4.169223402901545139e-03,-3.210367356254151174e-03,8.127990289777868235e-03,6.455607712268829346e-02
4.582948020658840771e-01,4.525335475355858894e-01,4.068266234063081521e-01,1.574433844753792694e-02,-6.764711597114119075e-03,3.813571132318143830e-03,5.753443017601966858e-02
4.534694414236720705e-01,4.098244483033483543e-01,4.276379538578633510e-01,1.872533320329026769e-03,-8.635783402458145977e-03,3.538444870967817363e-03,4.143123701214790344e-02
4.823582979437259777e-01,2.440554827474565869e-01,5.076847932373010908e-01,4.488096814501813664e-02,-1.244386319665327471e-02,-6.419909341256475020e-03,2.647567391395568848e-01
5.576244079672159071e-01,3.254750050580941245e-01,5.532176003086665128e-01,-2.256321022891452123e-03,7.983617599706154672e-03,3.258868190128080648e-03,2.304952889680862427e-01
-2.703072348291951643e-03,1.737630463028096151e-01,6.404477852096136792e-02,1.746155280729126680e-01,-2.307106978498286165e-01,1.448935172217275524e-01,5.813374519348144531e-01
4.083885722851393618e-01,4.592979313486858506e-01,3.833035316980035190e-01,7.730790180839252831e-03,-4.340884497638951463e-03,4.113866387066185404e-03,6.917139887809753418e-02
6.965295296675250158e-01,6.884532248601480386e-01,6.652242775598471436e-01,1.539567797276985006e-01,-1.121690829802816092e-01,1.543468160652304300e-01,4.255760908126831055e-01
4.058469541543136549e-01,4.105382010419950101e-01,4.700058962002450769e-01,-2.503355245339695251e-03,1.406921641901163079e-03,4.124416403297619799e-03,6.255528330802917480e-02
8.550516457105651336e-01,5.153374182977973339e-01,6.314421609077135455e-01,-3.273484053762713841e-02,-2.288260136481928136e-02,-2.259401563420103398e-01,4.973691403865814209e-01
4.017205223190277730e-01,2.367323714291129089e-01,3.236650142228217342e-01,4.666512530536119641e-02,-5.133539596795988480e-02,8.752952837682387299e-02,2.405382394790649414e-01
2.987185380890584052e-01,3.157591821321923953e-01,4.568438266917299040e-01,9.416112478163497779e-02,-5.141974691435922951e-02,5.451037519639304746e-02,2.569912374019622803e-01
3.692330647749869632e-01,5.316121529486541597e-01,5.335391923761727551e-01,4.906406305418402336e-02,8.337979789576384013e-03,-4.705356391641522112e-03,1.848794966936111450e-01
4.200359281085288554e-01,4.431920555851416310e-01,4.423740010352726904e-01,9.236857661543342469e-04,-1.886619275712657319e-03,5.429476851452206404e-03,2.489192038774490356e-02
4.659777997481855949e-01,3.538626135213558399e-01,4.106762626552861173e-01,8.029170288167932629e-03,-1.841896805467470657e-02,2.129116147278553584e-02,1.095401793718338013e-01
5.616904172506305137e-01,2.652441861292778036e-01,5.313926971028966051e-01,8.361063658576631252e-02,-4.215196044942637332e-03,5.510494872070355278e-04,3.175580203533172607e-01
5.393356693074878860e-01,3.093735740785310551e-01,5.164845892522395010e-01,-4.300611525961367532e-03,3.252741203716547503e-03,-1.684475440593617007e-02,2.215588390827178955e-01
1.763533060137898456e-01,2.033378244693212489e-01,4.325402691841750968e-01,2.227377281584487223e-01,-9.161670805737445744e-02,1.186716065058568137e-01,5.250836610794067383e-01
4.279307427592595747e-01,1.335821502978262743e-02,3.230511209958858432e-01,-5.210745596872962820e-02,-4.517483504979923070e-02,-1.468952525496478312e-01,4.673247337341308594e-01
1.174748816733989232e-01,2.744191782970879512e-01,4.401616945655148494e-01,2.593607337793569778e-01,-7.820347863499579888e-02,3.533258494344521800e-02,5.495552420616149902e-01
3.160881712786214881e-01,4.714847463833488073e-01,4.469951758097355232e-01,-8.961458184477682641e-05,-2.650717590551412636e-02,9.920800139791012551e-03,1.527920812368392944e-01
8.437141788843480761e-01,5.219393385121176010e-01,5.899885601794752077e-01,3.153452000713483777e-02,4.923962251198565204e-02,2.468160872306048581e-01,5.284739136695861816e-01
4.333970591144574724e-01,4.474969409495701544e-01,3.738261955028158168e-01,1.520798430227644424e-02,-6.439135262726718330e-03,1.035422994161241776e-02,7.567894458770751953e-02
3.239234816376177495e-01,6.009354805867905824e-01,7.539452528071395321e-01,1.311259176154173645e-01,-6.524706436654768849e-02,6.486558046944204681e-02,4.685182571411132812e-01
5.419931049630790643e-01,3.717549105088699957e-01,5.084195368040917984e-01,1.183667665211187575e-02,9.227698993131520921e-03,-9.891129707888425202e-03,1.592545062303543091e-01
4.070723004944409862e-02,2.436351972425720436e-01,5.650117062774430154e-01,3.297716755239010200e-01,-1.685043968111076332e-02,1.542635621358634523e-01,7.798528671264648438e-01
4.990890675126317122e-01,7.256269260824691480e-01,7.955551686210502460e-01,2.061092196418365385e-01,-1.831406209764878390e-01,4.579032707868703478e-02,5.535390973091125488e-01
7.242240524903922894e-02,1.368492474182365082e-01,1.816160437188609755e-01,2.016134089266621299e-01,-1.695546400091212935e-01,1.416050567770548163e-01,5.266737937927246094e-01
8.240076330542004390e-01,7.424199596154422709e-01,5.643548356981569203e-01,6.691201351621427207e-02,1.254320143821241462e-01,-1.997662101172238969e-01,4.829518496990203857e-01
8.604910722710313875e-01,4.577845212455698420e-01,6.277810475049991901e-01,4.615605457014133883e-02,5.665940644888884520e-02,-2.159210895774934802e-01,5.277314186096191406e-01
4.008426439996279900e-01,5.025945412174911420e-01,4.303623607992509426e-01,-1.208130332113829244e-03,-9.073758032130598006e-03,1.310556685607004159e-03,9.207446128129959106e-02
4.459651820703827707e-01,4.348124697636669977e-01,4.909527282911353430e-01,2.692245089917068984e-02,-1.110635895786611649e-02,1.286357448694096586e-02,7.543817907571792603e-02
5.854936507762065201e-01,4.817747019774887285e-03,4.760973644419271844e-01,1.230963833603874458e-01,4.312932551498527972e-02,1.135534659375990116e-02,5.805632472038269043e-01
3.953846517790481907e-01,4.264346895465758180e-01,4.831101224949333472e-01,4.125276248263951701e-03,-3.944327139340748217e-03,6.542525181147738726e-03,7.849919795989990234e-02
3.557169850216068130e-01,4.456793832479984396e-01,5.085333292812442840e-01,1.234551104322061284e-02,-5.777864216321310434e-03,-1.503328975516233287e-03,1.351388543844223022e-01
5.126653473588269616e-01,9.265544783345132096e-01,9.244332700399093827e-01,4.272149045441457627e-02,-5.765445912196259098e-02,2.880673432565634181e-03,4.311648607254028320e-01
3.266636646545786338e-01,2.874591542151901935e-01,4.344902769258439656e-01,1.876274383279881164e-01,8.399538246846720291e-02,-8.531557034623801772e-02,4.074370265007019043e-01
3.919211467367373913e-01,4.727074324464479171e-01,7.395293813284972151e-01,2.296059932760649569e-01,-1.734786121330656183e-01,-8.344254204746352419e-03,5.898525714874267578e-01
3.191979836160194761e-01,5.935594977616859280e-01,5.274725935194208848e-01,-1.744538552722016411e-02,-3.548530692481129123e-02,1.709276354778333298e-02,2.589925527572631836e-01
4.992871959520317482e-01,2.700259477672483088e-01,5.441550708846045747e-01,5.461300486012809347e-02,4.029049512998868904e-02,-3.893963015827469482e-02,2.884907424449920654e-01
8.621973112870250366e-01,8.025119556930994102e-01,4.191709606379857012e-01,-1.999644070100203147e-02,4.417602876279493052e-02,1.208912753644181409e-01,4.735934436321258545e-01
8.472083677567996407e-01,8.242430182788366144e-01,5.202173718353700904e-01,-3.911254514748040145e-02,1.122670575589699571e-01,1.301914645672130055e-01,4.395356178283691406e-01
8.312725567422551975e-01,8.790421081940489323e-01,4.829491588590532070e-01,2.527823719329187063e-02,-1.483262121045032522e-01,1.664558629794291589e-01,5.397147536277770996e-01
5.034695749552445809e-01,4.552079883531793825e-01,3.701163718706291794e-01,-3.200554191682303154e-04,2.792683726267960499e-03,1.055324252013994414e-02,1.184661909937858582e-01
6.823580502671827697e-01,6.086788926490384055e-01,3.866692273993108664e-01,2.973102418470952024e-02,2.069246499429095235e-02,-9.335382648531652394e-02,3.180495798587799072e-01
4.431797792826798199e-01,7.081350609107855965e-01,8.903547706179029131e-01,2.398575200752870451e-01,6.733939159713103403e-03,2.225302709580934124e-02,5.708782076835632324e-01
4.498315818187152426e-01,4.464779189187068065e-01,-1.422983452203652743e-01,3.033295279274170198e-02,-1.995603580866540244e-02,-4.994644211580291648e-02,6.000685095787048340e-01
7.354671743454095356e-01,8.692224091421932863e-01,6.399648520931299212e-01,1.278748055058427646e-02,2.370555413710879467e-01,-1.528393539722860441e-02,4.577798843383789062e-01
3.316438666606544849e-01,4.511216848714492689e-01,3.769491724313771552e-01,2.176261813334678247e-02,5.052738706991063283e-02,-2.856742132999452038e-02,1.498089432716369629e-01
5.714172688888367047e-01,5.611060619846078845e-01,3.663327257329196396e-01,1.273514903099334100e-02,2.549986772395606768e-02,-4.534849862537922854e-02,2.205857187509536743e-01
4.927853039901676779e-01,5.269582750587047393e-01,3.390460075087239900e-01,1.085328095378169065e-02,1.183155733740053062e-02,-1.724240281819165157e-03,1.756119281053543091e-01
5.454139720290828164e-01,4.940682127237620014e-01,2.797325915409224484e-01,-8.465486521113679483e-03,4.933985903626292996e-02,-9.154254181721824257e-02,3.037099540233612061e-01
5.851327765421691085e-01,6.060642314712636480e-01,4.593864249988378057e-01,1.654249745452229456e-02,1.449092051124205305e-02,-5.212910185086546550e-02,1.687767058610916138e-01
7.650476028395123418e-01,7.217231224596291073e-01,5.896740852570018232e-01,-1.223135227754439669e-01,1.973728066239253398e-01,1.413275842302380292e-01,4.966943264007568359e-01
7.282720830393000222e-01,8.510274999742262203e-01,5.424821294760234780e-01,-8.755097502710997015e-02,2.258124795439666044e-01,1.422470462746723285e-01,5.559366345405578613e-01
3.838085244037846011e-01,4.176109281911897786e-01,4.746508420875183432e-01,-6.976632887876852741e-03,-1.876941177627532500e-03,-1.669778081047121505e-03,8.055553585290908813e-02
5.422989658348743580e-01,5.440762736644142450e-01,2.999834554278606458e-01,6.207940975610387081e-03,1.542879516325873848e-02,-1.562690878328441835e-02,2.464000731706619263e-01
4.836816085451181024e-01,4.584787611144753861e-01,2.300741277194998102e-01,1.940196659189811698e-02,1.978189861404908850e-02,-2.678355237104646652e-02,2.510291934013366699e-01
2.334065209790407158e-01,4.462431586205006240e-01,4.870567698427494263e-01,-6.256013583672768996e-02,-3.441933945300711811e-02,-4.188190104145537995e-02,2.760606408119201660e-01
8.503271597123626124e-01,7.714490458680424156e-01,6.277257221692085221e-01,-7.323483209519125736e-02,1.241912616719309387e-01,1.578494142699435887e-01,4.187177121639251709e-01
4.052106521413044171e-01,8.437894865858814875e-01,8.508034956845877961e-01,-9.821444208109031404e-02,7.597967900576539646e-02,2.272290877877623794e-02,4.932370185852050781e-01
4.867548207531273707e-01,4.838950190499848869e-01,3.540858390874257466e-01,1.269460624321233112e-02,1.028321792399468013e-02,-7.483629919102867921e-03,1.349019557237625122e-01
4.988478249120184560e-01,4.907832217460854629e-01,2.549648711466491191e-01,4.108996187660742157e-03,1.349941881018826371e-03,-1.968102555336663593e-03,2.400934249162673950e-01
7.321838248846069819e-01,5.376294609350092957e-01,2.093006514094118420e-01,4.010615042826250198e-02,-1.221210397029429268e-01,4.906367759376746573e-02,5.160589814186096191e-01
4.569476128444737162e-01,4.518635462291026861e-01,2.523571796472640072e-01,1.845911012346566210e-02,1.500436872214310803e-02,-2.257941049722265656e-02,2.099286615848541260e-01
5.343169595016349360e-01,6.026991125157179496e-01,3.020517627127660143e-01,-4.373465135951969812e-02,8.482557252786337987e-02,9.218738943500677518e-03,3.195078670978546143e-01
4.878763844809694827e-01,5.182469912649309007e-01,3.363661385339365983e-01,4.534513085249680035e-04,6.727279573690146675e-03,1.619636360916412027e-03,1.691846400499343872e-01
6.287348046746652486e-01,6.437262756011503662e-01,3.645545279898975144e-01,2.611631636441909265e-02,-1.565676375868620823e-02,2.277067073940319472e-02,2.798455059528350830e-01
7.412998813891144567e-02,3.618161414669075482e-01,4.777241781335148096e-01,1.996935352047931600e-01,-2.396335700724019219e-02,1.636624267954825363e-03,5.009055733680725098e-01
4.813838643411720297e-01,4.811569753116661796e-01,3.503733634579717648e-01,-1.360602874010720387e-02,-8.845249137315871688e-03,-8.210273404193429297e-03,1.346342861652374268e-01
6.354991332195751852e-01,3.252230395197840407e-01,6.305757538904094295e-01,-1.935258613723171706e-02,-2.993771208757495337e-03,-4.132967762075009932e-02,3.178722560405731201e-01
7.705560243169516932e-01,8.288425836563241278e-01,4.202560922996602111e-01,-3.432596815663611911e-02,1.687936745829345941e-01,4.708909112285058693e-03,4.853868484497070312e-01
4.738844468855274994e-01,2.411507588994357132e-01,4.863919361371519257e-01,-4.018179405284486722e-02,-1.215669987534776560e-03,-6.457435536192914806e-03,2.494104653596878052e-01
5.047331580107337068e-01,2.211379187170627869e-01,5.139761131226182611e-01,-1.088796752315179805e-02,1.331846777064297008e-02,-1.528489824562186301e-02,2.910697758197784424e-01
5.012593612752824779e-01,2.632277917239769227e-01,5.043058606494452700e-01,-5.064328303835675255e-03,-5.834400632472967231e-03,-5.331406081403974179e-03,2.401203960180282593e-01
4.860044826591536915e-01,5.028191348003261396e-01,2.867214622671288016e-01,1.660305301228599470e-02,3.205074849936676712e-02,-1.777264799974424825e-02,2.195533365011215210e-01
4.993224279952515610e-01,5.090302109707194322e-01,2.124679238649039570e-01,-5.390615495421079671e-04,1.517970834168210978e-02,2.040124531434719946e-03,2.930342853069305420e-01
5.776895976251705811e-01,5.578510732126108485e-01,3.511071112578836306e-01,1.620071678090658765e-03,6.329444370883133275e-03,-1.648416000571874263e-02,2.195025533437728882e-01
5.210325554053497621e-01,5.844854369446620401e-01,2.438565822724715337e-01,-2.373702373815211528e-02,5.538721459636484351e-02,1.326307581216489180e-02,3.314539194107055664e-01
1.675772015225031608e-01,4.710559519472142798e-01,4.723038059063532357e-01,1.520357858489448655e-01,-7.570254220978561710e-02,5.977994305377513917e-02,4.355890154838562012e-01
3.970595578326994168e-01,4.933550881482527961e-01,5.552216755019332428e-01,-4.608103672417404595e-02,-7.845665814990718939e-03,-1.323016577505673266e-02,1.616723239421844482e-01
6.386131534631291906e-01,6.708963932155378451e-01,3.665289732833201253e-01,-3.991598622254293079e-03,7.334016226571928032e-02,2.273404597304118369e-02,3.187325000762939453e-01
5.153713068203581438e-01,5.292165688214398589e-01,3.046190252583262925e-01,1.362986798046452244e-02,5.443813050066934750e-02,-2.202401496052242696e-02,2.417212426662445068e-01
4.336235157158953024e-01,4.240629357660503640e-01,1.214968923215875574e-01,2.872403632940165276e-04,1.461382942516926617e-02,-3.729320672248047364e-02,3.151882290840148926e-01
4.509519191806913296e-01,4.403058616421401950e-01,1.415379841559602225e-01,3.602021000304644720e-03,1.907433770957061431e-02,-3.245376383682208737e-02,3.112016022205352783e-01
4.040416639940032639e-01,4.263843135626402270e-01,4.029107361075578986e-01,4.395083707910321658e-03,3.490477691833560134e-03,-2.686306796463386413e-03,2.533555217087268829e-02
5.509957827543772169e-01,5.035726340019922587e-01,2.803128513833728075e-01,-1.262737265423697144e-02,-1.023811925463635579e-02,-5.865619689108399204e-02,2.716542482376098633e-01
8.061184212007840300e-01,8.779851927598432138e-01,4.716919807571091638e-01,-7.629061959038238583e-02,1.495746170578422241e-01,9.806013650463242526e-02,5.044460892677307129e-01
4.087240675550971036e-01,4.354147054650988058e-01,2.810515397262062232e-01,2.482929925089391934e-02,-2.638197043132061922e-02,2.294594279031443237e-02,1.610508710145950317e-01
5.125836498819348330e-01,5.176902765163436948e-01,2.711644878517024404e-01,1.563772802624405255e-03,7.917487427020910131e-04,-3.719179356790292598e-03,2.441164553165435791e-01
4.331148065448872098e-01,2.979576107020980857e-01,4.374272200193994320e-01,1.453761886464193243e-01,9.644701979561427774e-02,-1.343859213848514755e-01,4.054089784622192383e-01
5.210060023717073552e-01,5.952250092697399797e-01,2.849472958078775320e-01,-2.445433013792002938e-02,-1.788957370414042194e-02,2.486768424267178992e-02,2.887240350246429443e-01
5.736026676672278946e-01,5.714593978916604478e-01,3.558273282656376213e-01,2.909719489567296272e-03,1.138625078747203083e-02,-1.138046304010136879e-02,2.185562252998352051e-01
5.176510757186308931e-01,5.324386565836071172e-01,3.005443307068246250e-01,4.372924920425580626e-03,8.460621374096681351e-04,-1.101967146644518628e-02,2.258059084415435791e-01
5.343248450667044125e-01,5.123110250919794550e-01,4.123824712768658918e-01,2.110085778111401092e-02,-2.851103506361907930e-02,3.312385108357396302e-02,1.404851526021957397e-01
5.375897105531053377e-01,5.386775093890296962e-01,3.151694398409191633e-01,1.448677693141493198e-03,-5.281916972470738700e-03,-1.958277915133594532e-02,2.257307171821594238e-01
4.366896552928568598e-01,4.684769887851307213e-01,1.815581468396481324e-01,-5.032965935887212701e-03,-4.118369905961507399e-02,-2.584419315774600604e-03,2.817743718624114990e-01
5.986088095789627861e-01,5.608383122520723685e-01,2.921927924051229142e-01,2.482071932816701243e-02,-1.686255943042192992e-02,2.439693449737928913e-03,2.940459251403808594e-01
3.519853946334245420e-01,5.865926198292024107e-01,4.778295954008199287e-01,2.390633414313580313e-02,-8.047643340270156653e-02,-1.522090519992541115e-02,2.513807713985443115e-01
4.329502161300894936e-01,4.269545728932382378e-01,4.385797703374427758e-01,2.810540716915847261e-05,3.341654154404064946e-03,-1.241257347528635377e-03,1.181172765791416168e-02
2.440815417304434132e-01,4.466313616292567623e-01,3.520528549567673582e-01,1.841903180299950607e-02,-8.702436765598367541e-02,2.306453391885106632e-02,2.369558662176132202e-01
4.540192717255308041e-01,5.299858544987516851e-01,4.280156291878837171e-01,-2.059844080483417151e-03,-3.117596979063047211e-02,-1.732840150784865528e-03,1.065836697816848755e-01
4.281330542024565644e-01,4.730246299711624580e-01,2.979490995799715103e-01,-4.251170713129875760e-03,-3.605191363522906173e-02,-7.281380068612399240e-03,1.700581461191177368e-01
4.002997465094170204e-01,4.770352310371900328e-01,3.287624968279932447e-01,7.696863600525081020e-03,-5.459752921123387642e-02,-1.015513434935817185e-03,1.600588858127593994e-01
3.376352765987561400e-01,2.176318167595984454e-01,2.629001732929765467e-01,-1.674872773126337977e-01,1.333287690300265227e-01,1.541255294851019142e-01,4.687935411930084229e-01
4.483244620612446552e-01,3.096050193094036507e-01,4.072989227891804509e-01,-2.631136181381569725e-02,-2.060063617483821885e-02,-1.471710828583757194e-02,1.386900842189788818e-01
4.194386852408457655e-01,5.003973531460735868e-01,3.903256084411268478e-01,-1.366089206067644521e-03,-6.977116024197706212e-02,-3.779941779282498977e-03,1.562412828207015991e-01
3.777662423956220095e-01,4.510770910260579747e-01,2.677842201295448366e-01,1.359936676099261776e-02,-4.201244700649448688e-02,3.453864921099883065e-03,1.772544831037521362e-01
4.031564082693556705e-01,4.877705320755076901e-01,3.548940048810304004e-01,-3.624585101383206564e-03,-1.841193305310631981e-02,-5.404024377651562260e-03,1.213116273283958435e-01
8.620694905622241500e-01,8.150425556700507945e-01,6.442048023494733044e-01,-9.178137654386425703e-02,-1.313466051450318250e-01,-1.866791971731519562e-01,4.701124131679534912e-01
5.624852777932982661e-01,4.588676561373142837e-01,5.181523578725967250e-01,4.022084765097336950e-02,2.397545870087559525e-02,-6.708706563141822454e-02,1.678927838802337646e-01
4.888196481711361008e-01,9.113702397692441393e-02,4.646991815011489169e-01,1.413377101197563299e-03,1.492766475677059085e-02,-1.339368043502602579e-01,4.512567818164825439e-01
7.806146734192832559e-01,6.331148288431889259e-01,1.802818130013906783e-01,2.839676740072154607e-02,3.886700529872533921e-02,-3.788673663321568547e-02,5.521449446678161621e-01
4.765492495038941567e-01,4.897254226892926443e-01,3.159355113177110264e-01,-1.771346230880772518e-02,-5.923203366670618669e-02,-2.750862669507151900e-02,2.045077830553054810e-01
4.027465633691370006e-01,3.057705653703406412e-01,4.375037069901724918e-01,-8.531606538726753397e-02,-3.294805787306419320e-02,-6.579639059591922690e-02,2.281747609376907349e-01
4.669666988399917562e-01,6.053899107593851969e-01,-9.705248622761269983e-02,4.103320380645126414e-02,-6.055237859364343000e-02,3.599491425515104204e-02,6.597649455070495605e-01
6.306051455909447157e-01,2.126593302742613989e-01,2.862200157392802424e-01,-1.958860085144741026e-01,-1.282893440435220189e-01,-1.982947221005291472e-01,6.571121215820312500e-01
9.779997733038049423e-01,9.617478043306930680e-01,5.336796676834044684e-01,4.708451789443800044e-03,3.578223491808876083e-02,-1.040946760382105707e-01,4.763172566890716553e-01
1.227601010205865428e-01,9.151647124111768339e-02,6.308851037807697293e-02,-1.632804311579028056e-01,-1.808911940147719943e-01,-2.153071804959243996e-01,5.655885338783264160e-01
7.520457046802166978e-01,7.622350231013630406e-01,6.084819145616553460e-01,-1.337442962272176183e-01,-1.252368168497977052e-01,-1.691573915635932734e-01,4.568755328655242920e-01
5.372592130178518444e-01,2.002798159570898240e-01,6.531484345384386270e-01,1.137677842514772247e-01,1.245188452239673978e-04,-1.394062091042179430e-01,5.130003690719604492e-01
2.095234035750345725e-01,-2.090453789422468678e-01,-7.360149513256533660e-02,-1.181422544547784531e-01,-7.245142196987852667e-02,-3.336342287960886166e-01,7.269168496131896973e-01
4.834524932255248042e-01,4.490298613137965189e-01,3.860254857921944782e-01,-1.371882685160477622e-02,-4.656309194686976578e-03,-8.920691950957661265e-03,9.050770103931427002e-02
5.491199237288413304e-01,2.523828525165660031e-01,4.661412451322440309e-01,-3.556605642347298452e-02,6.053640624542190422e-03,-5.553033431592697966e-02,2.889136970043182373e-01
5.237620017975812559e-01,3.580071654577140494e-01,4.374006518489638173e-01,1.867216636226633197e-02,-9.052722403706119775e-03,-6.513023824786977334e-02,1.861069202423095703e-01
7.413374810418597027e-01,8.405405385157377340e-01,4.407240887903919879e-01,-3.832748508388395675e-02,-1.900038557822437135e-01,-1.094877221951666146e-01,5.279256701469421387e-01
4.513188301343865616e-01,6.776418981573628653e-02,3.330392416080832918e-01,1.533262669858134405e-02,-9.113206891775253466e-05,-1.747728110871809570e-01,4.561572372913360596e-01
3.968688333708827454e-01,4.182925832096177077e-01,4.655428875276380607e-01,-5.106840686846376293e-03,-6.037178398671729125e-03,-6.826183567914713944e-03,6.349188089370727539e-02
3.389825972581192448e-01,4.978522853842228812e-01,4.722385992130000987e-01,1.712426742344660413e-01,-2.297967427707061916e-01,2.723605883975861383e-02,5.200419425964355469e-01
1.700364238170415654e-01,4.793744264910200781e-01,3.932105727523025340e-01,-7.799715530214522408e-02,-2.221450160759011749e-01,-1.803897043886722867e-02,4.936927855014801025e-01
1.044929211666968533e-01,1.950651371623133845e-01,1.108100428565376716e-01,-1.930052094854792233e-01,-2.496974974383310564e-01,-1.705974877019645342e-01,6.275198459625244141e-01
4.993702415551088403e-01,3.343907243941997565e-01,4.605492736603536974e-01,-2.300360371803648538e-02,-2.847515265576461979e-02,-8.257271471344269920e-02,2.163224518299102783e-01
7.573146437633312411e-01,4.434648309264755950e-01,8.414843082136695962e-01,1.294861538924692856e-01,2.448502347367366785e-02,-9.522014109588762543e-02,4.596760272979736328e-01
7.102831164672214204e-01,8.400810278254422503e-01,5.973418565449275519e-01,8.296954437614724454e-02,2.219757291595842730e-01,-1.185072590923261088e-01,5.048427581787109375e-01
4.515533220534485581e-01,4.147556157219204342e-01,4.956950103236745231e-01,-9.286487699949436472e-03,1.290439304510080515e-02,5.310085783373519677e-03,7.595887035131454468e-02
5.939586621586949722e-01,5.072138062845923390e-01,6.678994209328400489e-01,-1.120142037952273628e-01,-2.013203016236338183e-02,-6.480669367671175463e-02,2.662011384963989258e-01
8.327349525509522010e-01,6.201878711365962360e-01,7.737825705696587120e-01,9.358812125346456512e-02,4.632402062354729066e-02,-1.567806838700107064e-01,3.775923550128936768e-01
4.721504948224983234e-01,5.294100226911444551e-01,4.329864356868208808e-01,-1.139547688247218200e-02,-2.784057860100666928e-02,-8.266738593092627999e-03,9.987428784370422363e-02
3.802548909378731246e-01,4.158472761371194149e-01,4.405318383384355663e-01,-6.588312158646054961e-02,-6.706436920695062198e-02,-6.209063259574119920e-02,2.020770013332366943e-01
4.111828451434853537e-01,4.181694481404612529e-01,4.910984315474278272e-01,-2.917273698702157071e-03,-5.905946080060418390e-04,1.411334381537813478e-03,7.687345892190933228e-02
4.438795701374784186e-01,4.171335307124330316e-01,5.012420841085980516e-01,3.043944802555468773e-02,-5.323050147319118020e-03,9.144394068459094430e-03,9.303533285856246948e-02
5.145145626464103783e-01,5.207605113692872489e-01,3.306544436630460826e-01,-3.058480536653970534e-03,-3.896935324695225376e-03,-1.015390052742666874e-02,1.880820691585540771e-01
6.604363279969557299e-01,5.435100272545525524e-01,3.680269625167833514e-01,-7.620135360699916436e-04,-2.392149868737997523e-02,-1.151688642988124289e-01,3.263352811336517334e-01
5.504590633291603918e-01,5.402433638117040138e-01,1.699425695707115214e-01,3.884522050691952434e-03,-3.334862569205020166e-02,-1.499939504435423600e-02,3.808760046958923340e-01
4.055213153803635673e-01,3.999741230923362090e-01,4.798500348563665141e-01,-2.301741165297027745e-03,-2.825625834213809045e-04,-1.269500778914702714e-03,7.738742977380752563e-02
4.811735352212071493e-01,4.060854129615222852e-01,3.501047606963088588e-01,-5.431998159354356481e-03,-9.166781090933447985e-04,-1.873478319666514041e-02,1.188257485628128052e-01
4.109178199809572773e-01,3.526575245172525186e-01,5.122909000196536056e-01,-5.625820047137337215e-02,1.951048598280445343e-02,3.590370632812264241e-03,1.739321500062942505e-01
8.630806133492446852e-01,5.946695671651238690e-01,7.706640975513678882e-01,1.223695418348512698e-01,-9.932055021523961136e-02,2.107643104739027606e-01,5.133820176124572754e-01
9.964783859179013881e-01,7.050332125307984255e-01,9.006752568115210522e-01,5.992481347834290040e-02,-2.787916352167525355e-02,2.110450795143945235e-01,4.614346623420715332e-01
4.812900776339794628e-01,3.639862036638542020e-01,4.384752404736241282e-01,-9.151176500059782226e-03,1.152924639030662377e-02,9.296117446722151900e-03,1.071457862854003906e-01
3.954061271702254410e-01,4.038913678065459978e-01,4.290627023282945762e-01,1.590043818784263319e-02,-1.676300757019405160e-02,1.612996260503679613e-02,5.745584890246391296e-02
4.225372734656839269e-01,4.701017892778606155e-01,4.035374480664638552e-01,6.942544870269283866e-03,-3.623285345719884105e-03,1.820861451895281185e-03,6.100017949938774109e-02
5.453207971890217109e-01,5.469292350767871458e-01,4.769748163560348364e-01,5.201938418834335665e-02,-5.796824255471139803e-02,4.642625584800866984e-02,1.716067641973495483e-01
4.522896614797324299e-01,3.956785952339319512e-01,3.905989201892317020e-01,8.967810145901851035e-03,-9.091786708513301118e-03,1.939737670073370113e-02,7.166730612516403198e-02
4.722142277076207817e-01,2.748622058172148774e-01,6.429867812004658179e-01,1.350443752008565479e-01,-9.849040272086252712e-02,1.155764984883793506e-01,4.750781059265136719e-01
4.782930737650610831e-01,4.637737077566072008e-01,2.690869998314843192e-01,9.630292309252632549e-03,-5.252239979167027534e-03,2.567131458212490794e-02,2.080348283052444458e-01
1.512597374806101680e-01,2.264403709587828883e-01,3.643788164440278088e-01,1.343790682110303225e-01,5.293656631568158244e-02,-3.176681407139603924e-02,3.172646760940551758e-01
6.349278194884361293e-01,4.012527009188660010e-01,2.401386244101712530e-01,1.072002898255462744e-01,1.919229256597796140e-01,-1.600615974353693516e-01,5.831365585327148438e-01
4.014710928382158595e-01,3.681446126036312383e-01,4.347653111291400752e-01,1.425498058312392978e-02,1.731358808350951309e-02,-1.155971299183169987e-02,7.237757742404937744e-02
4.040371249961800526e-01,3.955266879411269976e-01,4.610172087443567546e-01,-7.281056831752491694e-03,-6.608265715835737360e-03,-2.894890493759290622e-03,6.418155878782272339e-02
3.943512839103710532e-01,4.076609071500927328e-01,4.809441800441762727e-01,-9.328960941937771562e-03,-4.182339925141367735e-05,2.656624690811287305e-03,8.249378204345703125e-02
2.810822737489198087e-01,1.284205831149358989e-01,1.055382332154888581e-01,-1.519092419113343417e-01,-1.745423713138139210e-01,-2.176667970129136931e-01,5.745288133621215820e-01
4.219063130011121987e-01,4.119214056984673022e-01,4.930234798978042066e-01,-2.790341944101063822e-03,-3.680419623550013584e-03,-1.029092512721732806e-03,7.703648507595062256e-02
4.370496490819374968e-01,3.635747025920940678e-01,4.279568011084922685e-01,1.443277234559727992e-02,2.127844027836988533e-02,-1.096478044638992712e-02,8.459941297769546509e-02
3.931173942796534204e-01,5.531533325454336403e-01,2.912279783350397722e-01,3.530808230505928097e-02,2.009423706624970940e-01,-5.498130665358679642e-02,4.315567612648010254e-01
9.055275681743336635e-01,4.473494704683799728e-01,7.701220820561516245e-01,-6.141487776120999748e-02,-1.430000078706535407e-02,-1.584303539503217617e-01,5.034395456314086914e-01
3.933276094284764435e-01,3.387164119435551735e-01,4.659915831355538884e-01,-1.794382487692865874e-02,-2.066845999109262217e-03,-1.405370965668216584e-03,1.149581894278526306e-01
4.363548893352945934e-01,4.102390807438526799e-01,4.967419802150089270e-01,-5.504196524513278559e-03,-6.866473392827074362e-03,-4.700607971717356628e-03,7.876747101545333862e-02
3.150660019289747704e-01,5.283574684715506287e-01,5.214537597376790456e-01,-1.286500819760914155e-02,-2.487079619325680696e-03,-4.461492597253477639e-03,2.112893909215927124e-01
5.009805734939047905e-01,5.824966493408019197e-01,1.929701492449085176e-01,-6.944942153120488466e-03,1.547399260101387508e-01,-1.914259540143965072e-02,4.468785524368286133e-01
4.714104511750860094e-01,2.821254288156766488e-01,4.086909718880162301e-01,-1.628732795462454292e-04,7.505739266213082815e-03,-3.129177301202654138e-02,1.760605275630950928e-01
4.478554654296897919e-01,4.299875078239291937e-01,4.023941352759152212e-01,1.240035803488841876e-02,-2.836608438024671667e-03,2.685938188645802666e-03,4.561560973525047302e-02
4.811776805896602616e-01,4.174842647603789758e-01,3.934059865131017686e-01,2.129705930359739681e-04,1.993880591078277427e-03,-5.914540893991434949e-03,7.929218560457229614e-02
8.927220090942155073e-01,3.956279842703267491e-01,8.930533331901508998e-01,-1.350033137288198792e-01,-2.574126601363521671e-02,-4.693407035030637553e-02,5.572622418403625488e-01
5.796599214914337495e-01,4.458706321755199764e-01,4.012966171221930001e-01,-3.831571586684422853e-02,-1.941111608620930962e-01,-2.171687411744719909e-01,5.336463451385498047e-01
1.360255025213027991e-01,4.313475090152628089e-01,4.457147083995056658e-01,-2.303195487686614598e-02,3.485085192458535833e-03,-1.159086309841247768e-02,3.060969710350036621e-01
4.098838446972208338e-01,6.338745793971538589e-01,6.427765131401140808e-01,-1.072760861624963008e-01,2.687623036816553720e-02,4.181301596105306724e-03,2.983101904392242432e-01
3.164523107237635635e-01,5.254648819547075300e-01,5.372390313980134335e-01,-4.226035638414539497e-03,9.859311095010070067e-03,3.198409950378460105e-03,2.160132378339767456e-01
1.579162146539032363e-01,4.528503933993796582e-01,4.617503515035086270e-01,1.241657503080469127e-02,1.470078024196070157e-03,1.517369041950991041e-03,3.002768456935882568e-01
4.766904956225704870e-01,5.118943666615634047e-01,3.631345295947071006e-01,6.178355268355370869e-03,6.591319958902272687e-03,-2.777394033829944792e-03,1.356461346149444580e-01
6.226231867517593166e-01,7.337150241297153430e-01,6.614588844609811114e-01,1.795430804019344517e-01,1.593321184729065976e-01,-1.016444106869485581e-01,4.619495272636413574e-01
3.315810786577758629e-01,4.162811853605807855e-01,4.518787338517675778e-01,2.180671693671019928e-02,7.727094937802531267e-03,-1.500288777316420574e-02,1.172066256403923035e-01
2.730208407473350141e-01,4.640954528891545472e-01,4.832026753541270869e-01,-2.030906170760575155e-02,4.006614787033815211e-03,1.073757496525010527e-02,2.053215056657791138e-01
2.660265934030742185e-01,5.863387086892217770e-01,5.313402985489596997e-01,-3.054282804989290681e-02,2.227897892927103649e-02,3.114549351966021049e-02,3.085543513298034668e-01
3.153393305259150070e-01,5.334914928839031845e-01,5.494731791886642291e-01,1.160624096104390622e-02,-5.195961877102367975e-03,9.803370739663435154e-03,2.282666116952896118e-01
4.185749885363004297e-01,4.237818136051136886e-01,4.153886760913781950e-01,-3.902968349940870701e-03,2.173369323850441771e-03,4.742366074187155146e-03,1.346084661781787872e-02
4.317356789258848249e-01,4.016391062755658159e-01,4.474274699908085129e-01,7.344389312221805480e-03,-1.438614051303122032e-02,7.618636695942712124e-03,5.080491304397583008e-02
2.681829781774186516e-01,5.320748142018175697e-01,4.971032855800354144e-01,-4.238795363506688008e-02,8.788618903292551299e-02,-6.494490757217018587e-03,3.005360364913940430e-01
5.087753501883884866e-01,5.110884975164838862e-01,4.042033303562871938e-01,-7.098296913312145129e-02,5.891278695010108979e-02,8.154046652412912100e-02,2.380272746086120605e-01
6.191913001913736947e-01,9.203794813169428046e-01,6.034755575740561317e-01,2.010514789516732945e-02,2.487814961709433892e-01,-2.986935292502194972e-02,5.340979099273681641e-01
2.858418836160439014e-01,5.632839661492154981e-01,5.136629960078024082e-01,-7.138524660936201860e-02,2.196055661734331310e-01,1.023369195616369853e-01,5.070062279701232910e-01
2.271680509825331762e-01,4.983077349688387336e-01,5.078712603565823658e-01,-5.707219458245338384e-02,3.113838640644581851e-02,-1.856369212070538288e-02,2.998592555522918701e-01
1.899278754044335382e-01,4.498818312373500383e-01,4.607530968141704819e-01,-3.226384374694672014e-02,1.557300747947040938e-02,2.076602019008026798e-03,2.727336287498474121e-01
3.946223702106469444e-01,4.698294871278492213e-01,4.041882877877098212e-01,3.539729145710782555e-03,7.834241249121909334e-03,-7.819858029785971276e-03,7.371131330728530884e-02
3.900370137119475444e-01,1.833107951257857693e-01,5.488542641641632747e-01,1.766701202066723875e-01,3.303287850144146637e-02,3.326400268533175920e-03,4.446729719638824463e-01
7.146582059094930273e-01,7.892415530495511256e-01,2.992562977968640237e-01,-2.141698479532275212e-02,2.132758920711910200e-01,3.032050213688367718e-02,5.913521647453308105e-01
6.316914099556121265e-01,7.248662687067278787e-01,9.054983588088677537e-02,1.805046705067025851e-03,1.999334361151091644e-01,-2.845361681708265256e-02,6.886910200119018555e-01
4.526253032891178751e-01,4.332015859748238884e-01,4.699109306676353959e-01,2.101517502132966512e-03,-8.913570720627976562e-03,3.031638007390044433e-03,3.593051061034202576e-02
7.061330463766075649e-01,9.112387008709488256e-01,6.173671679364404197e-01,-5.986639474660641934e-04,2.298182235009052499e-01,9.574445482962211026e-03,4.763186275959014893e-01
4.813899121630582645e-01,1.672760541323301542e-01,3.770371126041759946e-01,6.946872713859247872e-02,2.120886537861624375e-03,-1.908931489016607863e-01,4.478729069232940674e-01
8.729038670449777992e-01,7.250520151726813634e-01,6.831627464122325133e-01,8.018708925529761944e-02,1.367885693753464471e-01,-1.888761635169559361e-01,4.607104957103729248e-01
1.593856702855928897e-01,2.377709396083139692e-01,5.374311339242677787e-01,2.163753287566508310e-01,1.066046218498166165e-01,-1.801433648711154301e-01,6.255660057067871094e-01
5.138370646883556603e-01,4.618180227616312528e-01,3.767420083207042580e-01,6.203347203107889563e-03,5.923095466762997793e-03,-7.514828812381271067e-03,1.214890703558921814e-01
3.787402199485713217e-01,1.707497501225735681e-01,4.725320411497448969e-01,1.440590326754696560e-01,3.024028493382041605e-02,-8.223777797950017343e-02,3.960509300231933594e-01
4.006539070795446800e-01,2.915934006942579315e-01,5.263396215004283452e-01,7.333426793544348121e-02,3.344628766788627222e-02,-3.057201991780284303e-02,2.523729205131530762e-01
6.145476872166818483e-01,5.154732678274036584e-01,6.337939924975568573e-01,1.222948834646025440e-01,-5.804326750427303908e-03,-5.556630623339382617e-03,2.390706837177276611e-01
4.627119842771147962e-01,5.027878274607433529e-01,2.444787036041890238e-01,2.214755697323045683e-02,7.602439276661658585e-02,-1.874331672294686502e-02,2.790023684501647949e-01
4.200164405997276473e-01,4.401385114774075680e-01,5.252468543191902706e-01,3.652206072031032730e-02,-2.026556251470946167e-03,2.477963170039476117e-03,1.157290264964103699e-01
9.553278104856505193e-02,5.490518057564284238e-01,3.851277155805882813e-01,3.395039866290128217e-02,-1.537068649814910259e-01,-5.141901758153877289e-03,4.823095798492431641e-01
3.558882934466868764e-01,3.557032207382744282e-01,4.385372173009353669e-01,2.856650913904228151e-02,8.544224029842185583e-03,-1.172994774696011107e-02,9.962980449199676514e-02
4.159146946620009277e-01,4.131572094888179003e-01,4.897624611780088122e-01,2.294500575217681311e-03,7.223885624139888845e-04,-2.212513735839641515e-05,7.537964731454849243e-02
4.046327085439216376e-01,4.111039140428474070e-01,4.776750552680744111e-01,2.546800867304613650e-03,1.602237160167032911e-03,-4.328480467704975227e-04,7.022898644208908081e-02
4.134360302410484134e-01,4.222116086354694708e-01,4.885657440463266332e-01,2.795520011501251897e-03,1.299795784099068950e-03,-2.950399334446876694e-03,7.153185456991195679e-02
9.250505482276507596e-01,8.398107773924661235e-01,5.834687625148964329e-01,-8.535097638982323820e-03,2.187005509249954210e-02,-2.026320133978119498e-01,4.686792194843292236e-01
3.467564242383224804e-01,4.044935183761622643e-01,4.528612104811972072e-01,-1.594020708002016548e-02,8.026181396237964602e-03,1.725574243126053522e-02,1.015599668025970459e-01
4.384741336188608396e-01,3.896278688860194128e-01,4.496998375475246279e-01,-5.279758733572090940e-03,-1.427908372688312805e-02,-5.459744548609711361e-03,6.200837343931198120e-02
5.036488806401496765e-01,6.097755494377761210e-01,7.241125754945240134e-01,-9.933984919487408305e-02,-3.424147857230312036e-02,-3.006606958311943897e-02,2.688951194286346436e-01
4.580883628166272370e-01,4.128480167473063678e-01,4.022754355251211278e-01,9.528176256152456197e-03,-4.258774755704975920e-03,6.735183702025872819e-03,5.567435175180435181e-02
4.647951991286431439e-01,4.115915531099236246e-01,4.042923709574321456e-01,7.691896251728402162e-03,-4.718001812118831698e-03,6.480758126289511492e-03,6.035332754254341125e-02
4.591025332376057477e-01,3.925024700051267246e-01,3.998751736973424342e-01,3.587786249645327340e-03,-8.008820090184659915e-03,1.091078137822418942e-02,6.772797554731369019e-02
4.771982277669655770e-01,4.146875677406025029e-01,4.004480643567092657e-01,9.094177030758735999e-03,-2.178523457000294296e-03,7.246199890395828291e-03,7.362294942140579224e-02
5.319562168834685023e-01,4.082306290743080157e-01,3.504060650591380166e-01,-1.272673894898027763e-02,-6.879936068779482668e-03,-5.301957671901895430e-02,1.867276579141616821e-01
3.810088247228661795e-01,4.567958333022424933e-01,3.897983897539163967e-01,3.492972117782584471e-03,8.910052521393293026e-03,-6.745756628049524167e-03,7.460615038871765137e-02
5.877563252431240448e-01,6.990215178296040888e-01,6.687919971346671932e-01,-1.608623693329195581e-01,-1.258699497355758312e-01,-1.376546580692283583e-01,4.381056129932403564e-01
4.079984907921679893e-01,6.053702206424944610e-01,4.103044337995464530e-01,2.861965212799088762e-02,-1.430306451496465847e-01,-2.656666948418310442e-02,3.231929838657379150e-01
6.824739952534988330e-01,9.327966516764838456e-01,7.383088010851359684e-01,-7.038451503908008111e-02,-2.136518357305248195e-01,-2.557184746384626173e-02,4.533952474594116211e-01
6.419251050057870334e-01,8.705656518028452862e-01,9.706392215828533176e-01,-1.820088310624422834e-01,-1.306923205945612065e-01,-2.288511517266389808e-02,4.872025847434997559e-01
3.329160667847771427e-01,5.281985465863774376e-01,5.629862614813638810e-01,9.296037951818389433e-02,-2.955258554706531246e-02,4.916179716239238440e-02,2.862419784069061279e-01
4.008019458552589676e-01,3.995388479649862323e-01,4.207691801301095547e-01,-1.252561072370466343e-02,-9.211374414655719087e-03,-1.119517755538575361e-02,3.907330706715583801e-02
4.571274315485546191e-01,5.062689719463833171e-01,4.169344190079358192e-01,-1.180647511248103694e-02,-2.816775984656223059e-02,-6.208021541032273001e-03,9.444353729486465454e-02
5.757061290294810396e-01,5.718776591654691765e-01,6.906252687956558889e-01,1.258708825418280997e-01,-2.724840404667303387e-02,3.916561208016015871e-02,2.608078420162200928e-01
6.218453907406753522e-01,5.687319419987966196e-01,3.750601604803945888e-01,-2.849434081819790868e-02,-5.524834250214584463e-02,-9.427044561097139286e-02,2.981107831001281738e-01
3.391790290602438862e-01,4.178980023656814202e-01,3.581193930055214247e-01,-5.740143847512084452e-02,-8.380023481740193902e-02,-6.463821301402142283e-02,2.203428149223327637e-01
3.633746810281086592e-01,4.311866773576698009e-01,7.421577909743821699e-01,1.691548432416914161e-01,-6.506541424600671697e-02,4.066177514755099642e-02,4.752786755561828613e-01
4.888431131758848580e-01,3.851952050440022313e-01,5.567755252872811367e-01,8.970911697769903825e-02,-8.206528902578588691e-02,6.369649660488872767e-02,2.809231281280517578e-01
2.964723041744444787e-01,5.988462406079348987e-01,5.597914130679576550e-01,-5.692507459470289716e-02,4.329066690484398988e-02,3.262065191758857507e-02,3.157246708869934082e-01
3.063671190036772463e-01,2.132982023531705407e-01,3.794834816963458812e-01,2.130515628929872396e-01,-1.154728351968844491e-01,1.293947644165521493e-01,4.972087442874908447e-01
2.747802182888061107e-01,4.742132335667049725e-01,4.883004176578403799e-01,-2.525317482455391796e-02,6.293817395867965306e-03,1.223624163732988344e-02,2.127501070499420166e-01
4.257065492581649790e-01,4.829771531452716760e-01,4.000174233860586126e-01,9.853599342281299869e-03,-6.180609871892738666e-03,8.231164001383829698e-04,7.628235220909118652e-02
1.779490461484742048e-01,9.828718682298023812e-02,3.399544340116910091e-01,2.252496788309593101e-01,-6.415928655699872085e-02,1.017165448576182879e-01,4.910169839859008789e-01
4.199579777983488138e-01,4.693329645391922655e-01,3.920073919684854968e-01,-2.233796044315536009e-02,-2.970107605303707807e-02,-8.474129797942693207e-03,9.464687854051589966e-02
3.610007925145594654e-01,5.399569984479755114e-01,4.756888998586656370e-01,1.051183579781891052e-02,-3.120915562834021550e-02,8.603097213718215522e-03,1.677203178405761719e-01
4.004375513048522017e-01,5.002642571523165937e-01,5.548081913164525369e-01,3.971536526590634109e-02,8.926639756411545372e-05,-2.346094708796813300e-03,1.520980596542358398e-01
3.292950216368967231e-01,4.801754863635384063e-01,4.608556984212551777e-01,6.408080552313135357e-03,1.353493493971795296e-02,-2.190438439790697023e-02,1.494502276182174683e-01
4.586127933015952118e-01,4.205459709534229429e-01,4.276615380101359554e-01,2.801111678715585696e-03,-1.230054502865201909e-03,3.394298339257563468e-03,3.593729063868522644e-02
3.819774064790312784e-01,4.256443513247373245e-01,4.764694113210945492e-01,5.109237670499672257e-02,-5.215155861038171803e-02,3.487729359178538824e-02,1.623246371746063232e-01
4.111687958701788492e-01,9.268761556431420745e-02,4.303016737033984462e-01,-4.240803517639615133e-02,6.745308106462452775e-03,5.044581744484445684e-02,3.479309678077697754e-01
4.810881132895048484e-01,2.848435093601566770e-01,4.762581080663252919e-01,-7.648999101817190172e-02,2.202818107394891034e-02,7.598935818624269478e-02,2.718794643878936768e-01
4.223332867950295166e-01,4.956890024098402625e-01,4.909481682684293524e-01,-2.305058137888687381e-02,2.834659693012034007e-02,2.292927703309511483e-02,1.031387448310852051e-01
4.272958717318131594e-02,2.060970677638742088e-01,9.256292802815968557e-02,-1.523425971263153988e-01,-2.229674974214023719e-01,-1.093439289934626524e-01,5.250406861305236816e-01
2.804169837638588736e-01,7.674938171284270139e-01,9.210254129451587168e-01,-1.036993934318209548e-01,-5.378654671811226168e-02,2.539835039222895774e-02,6.152010560035705566e-01
4.924669795470782985e-01,2.686088616318090816e-01,4.979467140965622152e-01,-4.533045091213446648e-02,8.184771012356572770e-03,2.309517569205972107e-02,2.435874640941619873e-01
2.925343565508913279e-01,1.746074858442221156e-01,2.862528271152379178e-01,-1.049591782625440839e-01,7.657982193807211235e-02,1.202582620762042143e-01,3.274664580821990967e-01
3.186522717572658481e-01,4.769592851888415641e-01,4.393202979787024232e-01,3.809927233306058779e-03,1.923751950250940368e-02,-9.075325913757972471e-03,1.480545997619628906e-01
2.999173013546963529e-01,4.561684507800161104e-01,4.094236728570636585e-01,-2.078113442380588594e-02,-3.474924665864794621e-02,-1.519260492449186865e-02,1.578167080879211426e-01
5.496777968076810295e-01,3.535260179134999126e-01,5.573189068117819778e-01,-7.173862076394725215e-03,2.192222019381585493e-02,2.581188811867070679e-02,2.088722735643386841e-01
-8.214692625538083659e-02,3.464306014570678327e-01,3.856427173486040028e-01,-7.331503881032228054e-02,-1.012325748235047423e-01,-2.491947248411314000e-02,5.007534623146057129e-01
5.015024672192383015e-01,3.084760203327423511e-01,5.175577720165294160e-01,-2.177183207545530658e-02,1.376578981608824089e-02,1.882817457432620425e-02,2.089739441871643066e-01
4.117011883318119070e-01,4.206700458440192358e-01,4.741582292682414157e-01,-3.430500948159911651e-03,1.118807231235456438e-03,2.475631223237922344e-03,5.897966027259826660e-02
4.184630209423838010e-01,4.271425123427330384e-01,4.332403249100290621e-01,-1.702361597397892765e-03,2.656736300167935032e-03,5.362510136564063029e-03,1.678038202226161957e-02
4.217234986934365049e-01,3.935057838603939206e-01,4.823660097985864037e-01,6.707758263531157263e-03,1.042010931802096231e-02,-5.438366166026104356e-03,8.206333965063095093e-02
3.308567747503152745e-01,7.412484962762845297e-01,6.097311997755147095e-01,-7.849513099194033172e-02,2.105786056035602871e-01,4.195803982293778989e-02,5.371596217155456543e-01
3.510441575441567985e-01,4.717121896237961853e-01,4.053591027979742689e-01,4.619674971833705353e-03,-2.102034494304040602e-02,1.439728164352654461e-03,1.111423298716545105e-01
1.276305287873100713e-01,4.704511360346412818e-01,5.665136639881234171e-01,-4.579292535004715614e-02,-1.304650815696577204e-02,1.118015800090244385e-02,4.084884226322174072e-01
3.932802287770236771e-01,4.510908182894491358e-01,4.251575477649288670e-01,-2.185494542896839962e-03,3.536145785005915393e-03,8.376841396171025994e-03,5.270424857735633850e-02
6.788362840252590846e-01,9.379614624208076901e-01,6.190491448132314778e-01,8.039563451915363035e-02,2.284631566004639847e-01,-1.062351545427929478e-01,5.441020727157592773e-01
9.276250710263818366e-02,3.439662474840110007e-01,-8.481275314106420660e-02,-2.915710318408909485e-02,3.165342881503698247e-01,1.008125910252966467e-01,6.876522898674011230e-01
4.249632167820485695e-01,4.979084905807002470e-01,4.650371213736077536e-01,2.069728195767707099e-02,2.476950353455804887e-02,-2.253527377619042593e-02,9.302129596471786499e-02
4.278301023370464362e-01,4.225330386380300451e-01,4.034699799803001530e-01,-1.346201671736872545e-02,7.013687612876592578e-03,3.902372411387027180e-03,3.506245836615562439e-02
4.068790810605379948e-01,4.406593544907814741e-01,4.405717412655588139e-01,-3.365641854225610158e-02,5.407534105521123041e-02,3.817134257380611073e-02,1.329661607742309570e-01
4.982982509774451230e-01,5.673962062095806447e-01,2.944124176724708941e-01,-9.841688623628525034e-03,-5.280055402618883537e-02,-4.195647137426858353e-02,2.727037966251373291e-01
7.640726207144833415e-01,7.340373324651783271e-01,7.550536451870814014e-01,-1.585825847411295453e-01,1.852233096939452373e-01,1.326039402993530736e-01,4.814896881580352783e-01
5.882390368025700589e-01,6.146042661263768636e-01,2.512477577786861316e-01,3.057086523584316620e-03,-7.014722752746402681e-03,2.451353244040666360e-02,3.537251651287078857e-01
4.191911548829378997e-01,4.349340863706849802e-01,4.362537445982410111e-01,2.938863298912554756e-03,-1.225644440291767581e-03,7.888795143859766643e-03,2.207879722118377686e-02
3.128482735222367639e-01,-4.160601412320061310e-02,2.564652140736135011e-01,1.602356702375535291e-01,-8.868063812090817843e-02,1.898368158282305873e-01,5.635289549827575684e-01
7.215946581736557008e-02,3.707386868153618176e-01,2.369123146713444372e-01,-1.035038993945163327e-01,1.917764802472060326e-01,6.445385403407101477e-02,4.712090790271759033e-01
6.676693144245591238e-01,5.592081327441910110e-01,2.350769237369216280e-01,2.326903507334688800e-02,-1.248370733918526959e-01,-9.189402480801471540e-02,4.750697612762451172e-01
4.258569664085506967e-01,4.252205471425575256e-01,4.492653323416130884e-01,1.103479597055808965e-03,-7.250423917384886136e-04,4.634361921554764827e-03,2.515782415866851807e-02
4.968579270542390347e-01,8.938200207755161442e-01,6.538002839329370985e-01,1.217506728979708130e-01,1.853820823140198693e-01,-8.123210945567510555e-02,5.359802842140197754e-01
1.874686701489935992e-01,3.233488748137483548e-01,5.211983815131722153e-01,2.081843784319815649e-01,-1.556688884777943788e-02,7.171168829936011742e-03,4.641068279743194580e-01
5.383185500634987131e-01,5.076865414913348529e-01,3.090451090378462107e-01,-1.877296134205140229e-02,-6.489914180616647432e-02,-4.908139864774214295e-02,2.596178948879241943e-01
4.060114093289551862e-01,4.220866661856294555e-01,1.584297519777463636e-01,-1.117511776999337292e-02,-6.018508768058943720e-02,-1.231378935339127491e-02,2.779051959514617920e-01
3.801663784420458714e-01,4.421409453865963179e-01,8.778463284506005104e-02,-5.504196742883991217e-02,-1.408652454562842049e-01,-6.023425168389245909e-02,4.323778152465820312e-01
5.114500369944472435e-01,4.514263906619784827e-01,5.081811754307176132e-01,2.577840172560419765e-02,2.117019546446679418e-02,-1.927891586325953047e-02,8.871557563543319702e-02
2.880449088978348504e-02,5.284797030370576021e-01,7.659195400475595772e-01,-1.757633459358860506e-01,-8.818919146646166107e-02,-1.824388841875744169e-03,7.353339791297912598e-01
4.499160448721821748e-01,3.250441341681624685e-01,3.119311824357074991e-01,3.876038965725232040e-03,1.885189365473490322e-02,-8.140555116587168405e-02,1.959444433450698853e-01
7.075756912356412354e-01,4.631498331006307922e-01,2.860053706256733830e-01,3.832294904343302305e-02,-2.298907985902793119e-02,-1.924511354828269682e-01,5.015242695808410645e-01
3.560421710850706911e-01,4.491674621600883488e-01,3.072999399520975339e-01,-4.057532288548200937e-03,-5.347665691477305333e-02,-4.238161146705462205e-05,1.556146293878555298e-01
4.773762902447744039e-01,3.247472253531946129e-01,4.878903870243154195e-01,-6.588652335127671671e-03,-1.640159450990618176e-02,-1.501625657120540108e-02,1.631706655025482178e-01
4.572569606409953025e-01,4.194472276143188516e-01,4.035920100730626681e-01,1.108891893564368028e-02,1.640932015678018760e-02,-1.128162358237395392e-02,6.195934489369392395e-02
3.785440529866382908e-01,4.216531279023128520e-01,4.457157645096181398e-01,1.014848444405543233e-02,8.013881333710550989e-03,-1.851970434129934784e-02,7.074815034866333008e-02
3.464140873435638257e-01,4.748811339740401927e-01,4.272275714211238307e-01,1.899255031320004963e-02,-4.590411332781945547e-02,1.456794818411878863e-02,1.438510417938232422e-01
4.037953636770822974e-01,3.989886467204251663e-01,4.573019813403965128e-01,6.484865570345340648e-03,7.416006835466694251e-03,-4.585408179319021456e-03,5.913952738046646118e-02
3.905071481061521133e-01,3.986655520513845974e-01,4.622029587246415661e-01,7.326424345612315460e-03,2.673601015412129314e-03,-5.283983059747583526e-03,6.991538405418395996e-02
5.300884466853077459e-01,3.399450476936425325e-01,5.467483221362680057e-01,4.505825072088182753e-02,-3.558675440584858820e-03,-8.256335889180470636e-03,2.143199890851974487e-01
8.061908339859968908e-01,4.836620313379769720e-01,8.443060493523580901e-01,1.457245297604744250e-01,5.056114438214018292e-02,-8.910141500586969687e-02,4.614804983139038086e-01
4.396258584495448263e-01,4.608575603867419157e-01,3.349457114543292757e-01,1.347347733210278557e-02,1.923745656190033876e-02,-7.394069105746044375e-03,1.242984980344772339e-01
4.292804098427764337e-01,4.653747268039426510e-01,3.012091333804643445e-01,1.102832445375577682e-02,4.372413123522152917e-02,-3.347856236847878558e-02,1.782986521720886230e-01
7.187297187448584701e-01,7.126712524065219601e-01,6.624087524496847790e-01,1.282839448319291753e-01,1.829347597653555035e-01,-1.791368724987690286e-01,4.989020824432373047e-01
4.381745252091711618e-01,4.197935898970140967e-01,4.126631638706613758e-01,7.387837861496172540e-03,4.119371103991011258e-03,-2.718038562901394211e-03,2.750594355165958405e-02
9.302184768886332389e-01,9.694737069869212576e-01,6.564937789520104428e-01,7.661047757691473448e-02,1.137025175857092063e-01,-1.644370377874645184e-01,4.740487337112426758e-01
5.551596657150782432e-01,4.471406525515916330e-01,4.421050282231199779e-01,1.247200935201211135e-03,-3.266872816821705418e-03,-4.861650548520546344e-02,1.391574144363403320e-01
4.389154037886515702e-01,3.534926355912818563e-01,4.427124623122451474e-01,1.223313666725864800e-02,2.491285053692405757e-02,-1.531732627969989435e-02,1.032016649842262268e-01
4.752354875792058064e-01,4.240936931786774000e-01,5.065368646570752587e-01,7.007917914376249335e-02,-4.379304519596396300e-02,5.218233820822724967e-02,1.839886456727981567e-01
5.089707302408040812e-01,4.590630461405390550e-01,3.642012430423705593e-01,3.084154675562973701e-04,1.812479301550468493e-03,1.288304075338616954e-02,1.293519586324691772e-01
7.372912103142508222e-01,1.485722037908326354e-01,8.639402918465142189e-01,-1.024803651476218630e-01,-1.739006294097355729e-02,-1.221318103891289725e-02,6.856034994125366211e-01
4.314910643705680005e-01,3.279472860454882843e-01,4.283897118054800779e-01,3.280062248399561592e-02,-2.433543165793388557e-02,3.932504614472771831e-02,1.416102647781372070e-01
4.903103990829035808e-01,4.029817000254583004e-01,4.119445461014000776e-01,1.639844029242358862e-03,2.690988054130239848e-03,1.013609797613890771e-02,8.521697670221328735e-02
8.287321716514113312e-01,8.017364834402720408e-01,2.662010911150182735e-01,2.387844314063171727e-02,-4.676495782994101978e-03,2.685265345236726928e-02,5.531034469604492188e-01
4.446891007178307431e-01,4.542518873134166468e-01,2.543272244860555475e-01,-2.105270477598055606e-02,2.183419018287363969e-02,2.594891845037478745e-02,2.071940302848815918e-01
4.814635626267059765e-01,4.681549259444601208e-01,3.525533054827387769e-01,1.628091491837452276e-02,-4.518829625436007053e-03,1.727214027946737812e-02,1.297335624694824219e-01
7.388499514134544421e-01,5.771299529224993563e-01,2.689132660553697485e-01,2.875752836381922223e-02,5.746280098555031635e-02,1.288790502512383584e-01,4.829203188419342041e-01
5.534943199544342107e-01,5.393097646153039992e-01,3.340395683384731473e-01,-1.583793086015081522e-02,1.598124083262408499e-02,4.326411003412995032e-02,2.288728654384613037e-01
6.306042430365592644e-01,5.426570860379222871e-01,3.887923465116762678e-01,2.816073024267907662e-02,-2.734469482026280224e-03,7.599608768896951028e-02,2.543005347251892090e-01
5.946120200488611562e-01,8.414058476210278803e-01,4.108392908287644696e-01,-4.194713672214499256e-02,-1.392993828168277159e-01,-9.148460563858525074e-02,4.781563878059387207e-01
7.131883046506946044e-01,4.028865297715095162e-01,1.327103017440473542e-01,7.712620257474392393e-02,3.340230875072626449e-02,1.766786462262855406e-01,6.065946817398071289e-01
4.886180128182919802e-01,4.447562309425638905e-01,3.662797139084248421e-01,1.672766195567165076e-02,-3.970085461592786497e-03,1.386979815116106719e-02,1.139665842056274414e-01
5.273986190352089043e-01,4.788932983894691464e-01,3.568504705217356854e-01,-5.920296558706207406e-03,1.222060811009910344e-03,1.772839158636644111e-02,1.556260287761688232e-01
6.994803832545690714e-01,8.294712888187908417e-01,5.206227786414532321e-01,2.430442462997282546e-02,-1.995289848799243759e-01,-1.254188585920155453e-02,4.402465224266052246e-01
4.795726526934006029e-01,4.896805278542600837e-01,1.917809245859481704e-01,5.567696202096918123e-02,-1.843327731081381426e-01,8.248831904497036516e-02,4.663514494895935059e-01
3.680386855218852893e-01,4.480826993506225597e-01,4.060220084297619381e-01,9.140489964896537575e-03,-1.427601203697655662e-02,1.688372350449512602e-02,8.078786730766296387e-02
3.968573309766993962e-01,2.615801967942416595e-01,-9.015729931112548279e-02,3.318911797005727471e-02,-1.303845128635666706e-02,2.010888411914891760e-01,5.610044002532958984e-01
5.145660493324872853e-01,5.955528708413144745e-01,4.184009362463081971e-01,-1.196666348351486109e-01,-2.112978261041194294e-01,-6.445016521643491536e-02,4.614724218845367432e-01
4.799261815763163352e-01,4.833353274301848135e-01,3.506799272791070177e-01,-1.351077649370177776e-02,-9.188125333735332884e-03,-7.826316483262327553e-03,1.346902996301651001e-01
4.243740121234709783e-01,3.891718423083552203e-01,4.429975187735529785e-01,-5.037442522623096323e-03,-1.254383095410208093e-02,-4.363501310089222193e-03,5.335641279816627502e-02
3.830135774737543075e-01,3.634734903359457259e-01,4.087587869672151819e-01,-2.844956362782424461e-02,-2.544944592302933115e-02,-2.480171444620688642e-02,8.811484277248382568e-02
4.817129314544938978e-01,5.074126851280105210e-01,3.602206877421623155e-01,3.093896513834199294e-02,-7.417200209664830124e-02,3.029299949912434356e-02,2.016736865043640137e-01
4.281824582588556471e-01,3.544003062656154723e-01,4.357690594521537730e-01,-1.248293261752352230e-02,-2.432345094245149525e-02,-1.301623288870280143e-02,9.387090802192687988e-02
5.139307201290516103e-01,5.206385455492442693e-01,3.192928448414487086e-01,-2.773063909165853803e-03,-1.473167674644981426e-02,-5.602264682100603892e-04,1.997738033533096313e-01
4.309023879417820946e-01,4.231099529618603805e-01,4.581620626376277094e-01,3.338078333824175733e-03,-8.222615580205357242e-04,2.219358944794817302e-03,3.265676647424697876e-02
4.487107901845441282e-01,4.643755099200458369e-01,4.508346928619696437e-01,-2.387835691285492001e-02,-1.957448607791768824e-02,-2.506646305203067207e-02,7.043874263763427734e-02
4.780044946906249481e-01,5.063608623487468874e-01,3.469287129033455930e-01,1.798697901707586345e-03,-1.744162246652440976e-02,2.755190219548010223e-03,1.504888236522674561e-01
6.005135645623637108e-01,5.105530233226419634e-01,5.020794117203484230e-01,1.945502696212590005e-02,1.853139469141641682e-02,-5.780919975834045155e-02,1.453218311071395874e-01
7.649248825431518295e-01,6.515322237323784016e-01,7.373211342899653742e-01,-1.556721444700892576e-01,-9.536201581356562595e-02,-1.805268549587284166e-01,4.563363194465637207e-01
5.796802096177793295e-01,7.400529383922066495e-01,5.310175790544736651e-01,-8.819718313772605817e-03,-1.302371228533174830e-01,-2.135682615044292437e-02,2.972851395606994629e-01
4.723851981966207259e-01,3.958679268301399934e-01,3.842049229859177406e-01,4.765621360108111132e-03,1.276107920108345538e-04,-7.336072595341440114e-03,8.433846384286880493e-02
4.080349070959533586e-01,5.184990423208103438e-01,5.989444720806251787e-01,1.076515048150563647e-01,-7.121187779175700006e-02,5.991110746661043596e-02,2.971667647361755371e-01
4.345276413755272404e-01,4.673339939636010909e-01,3.156515117063857234e-01,8.984536838633259623e-03,-3.000228658050027933e-02,1.279233627486620409e-02,1.501372456550598145e-01
5.432569172977718130e-01,5.561744932331553759e-01,3.465632102527298475e-01,1.629169788684119938e-03,-2.889203042999367865e-02,4.047158546278753488e-03,2.096602767705917358e-01
4.921209534554738529e-01,5.184134081583482434e-01,3.361515907195438135e-01,1.255253689252560853e-02,-1.967522703092260822e-02,-2.971407991994737784e-03,1.754396855831146240e-01
4.695872607343506977e-01,2.994736949800327896e-01,4.609969105084994467e-01,2.642191822893080050e-02,1.876976169394520624e-02,-1.028315348170442262e-02,1.761237680912017822e-01
4.864046942640531390e-01,3.794572030142574492e-01,4.512680652308347917e-01,-1.719811707680968943e-02,-1.811694757472688197e-02,-2.678872885276075214e-02,1.137518286705017090e-01
3.795543988256578904e-01,6.080019207533149395e-01,5.723421264054385782e-01,-3.248317320733357539e-03,-6.773847440117290730e-02,1.890625052604298639e-02,2.453222274780273438e-01
5.953754804437124681e-01,5.637995961375739107e-01,3.151296932974849696e-01,3.590696085754876282e-02,-1.228423944414513622e-02,2.644827929272495701e-02,2.776776850223541260e-01
6.774808286684781411e-01,8.535826538918167561e-01,7.637324020730532625e-01,-1.764721295478337282e-01,-1.865902069230800098e-01,-8.238530095927296126e-02,4.914255738258361816e-01
8.677017594986756732e-01,8.952271240468852032e-01,5.625677408158208381e-01,-5.077990315350291994e-02,-1.448379946474234459e-01,-1.354391490326256886e-01,4.774563312530517578e-01
1.502315043679902096e-01,3.390751537248155589e-01,4.248640933543867959e-01,-1.195236054213286714e-01,-1.790851649361991926e-01,-1.122983964545299501e-01,4.859293401241302490e-01
4.023446748734237910e-01,4.213357894940404358e-01,1.326159086404377907e-01,6.017054424218477165e-03,-5.179132508486140873e-02,1.674942608647328468e-02,2.953540086746215820e-01
3.593420223153399040e-01,5.046094013543925838e-01,4.573107381564966434e-01,-8.636265306357684621e-03,-5.333754033504400915e-02,-6.510438879247013207e-03,1.592306941747665405e-01
4.509709437303714985e-01,5.020888392875233475e-01,4.620284621075124165e-01,-2.002414038872749047e-02,-2.635521755389953757e-02,-2.838972816145668085e-02,8.873946219682693481e-02
4.783294661426048533e-01,4.900439323445139328e-01,2.893086086749746544e-01,1.932899650509629225e-02,-3.620200172332811023e-02,1.069652689405237687e-02,2.085095345973968506e-01
4.820484373018593116e-01,7.703714519472901756e-01,8.302005102684988369e-01,-1.328515335851829238e-01,-7.423477863270687427e-02,-2.295036702566114264e-02,4.183550179004669189e-01
4.383942601661551253e-01,4.772774598996805118e-01,2.711255473206484745e-01,-1.443250444850883475e-02,-7.760875778665196623e-02,-8.295075463378636521e-03,2.342975586652755737e-01
4.754956985972372818e-01,3.372143980779058747e-01,5.638648568488211499e-01,1.229197853478195962e-01,-3.238179344681831745e-02,3.685736293034109351e-03,2.960826754570007324e-01
4.291257644940672522e-01,2.482850487454770494e-01,4.590156429451835995e-01,1.525540501611543087e-01,7.926161961585276305e-02,-1.222627556493705303e-01,4.153456985950469971e-01
4.448418351931387460e-01,4.144794657719280129e-01,5.267787884490514605e-01,1.354710289783809529e-01,2.895794656430046576e-02,-1.479305332183339199e-02,2.614435553550720215e-01
8.092631519466630952e-01,8.603194245369150117e-01,5.028291153585031648e-01,-7.936870910335043841e-03,-1.735954221516969598e-01,-3.064840826447120040e-02,4.533949792385101318e-01
6.435136229702957955e-01,4.707346478118229482e-01,6.640189523762300983e-01,7.277364211802936356e-02,4.492900024433203049e-02,-7.869073232772383353e-02,2.726471722126007080e-01
4.116627742412014568e-01,6.795331426600974556e-01,2.550902486645362233e-01,8.241654209540441589e-02,1.622797237662153835e-01,-2.274514354321781617e-01,6.267333626747131348e-01
4.745129679694091163e-01,4.914497318709851181e-01,5.171454812909382914e-01,4.387860199744771095e-02,3.220764257382610629e-02,-2.836324536954286032e-02,1.126221194863319397e-01
4.758016632511490318e-01,3.789179150258170092e-01,4.976860511008565080e-01,8.378203629536057351e-02,4.290399316163072407e-02,-5.603586358750488328e-02,2.190575897693634033e-01
4.841929174318533313e-01,5.196564139398892612e-01,3.262012845358256419e-01,9.656765991687733114e-03,1.578746015366204458e-02,-2.354706603603771054e-04,1.812446117401123047e-01
5.173831968370986578e-01,5.323120635221211261e-01,3.178869105775572468e-01,-1.058992845233281896e-02,-2.459385661208388085e-02,3.656144965801755471e-03,2.125817686319351196e-01
5.331489429506609534e-01,3.744948343365664956e-01,7.748133174245686039e-01,1.796335663709964225e-01,-5.343082709555536242e-02,-3.841793936895538525e-02,4.813635647296905518e-01
3.938635052142100412e-01,2.202885858062672009e-01,5.574825071514375452e-01,2.673666574557094777e-01,8.474506378852342259e-02,3.246941583441102092e-02,5.696159601211547852e-01
9.863065543651933220e-01,1.001153994726813767e+00,5.980904181809105769e-01,1.566805926768157289e-02,1.117933860443443700e-01,-2.288418664797096588e-02,4.432798624038696289e-01
3.382408670219034796e-01,2.893549640483809582e-01,5.811200783617244126e-01,-1.959075810142811847e-01,5.121833466318622546e-02,2.174264607030227531e-02,4.446133673191070557e-01
1.723333678220850818e-01,1.330003617782098413e-01,3.890021638599155396e-01,2.219234456019867630e-01,5.160157357890279156e-02,-7.451947931308533501e-02,4.789701104164123535e-01
1.520379488865097606e-01,4.260646007747051489e-01,4.314907581605637032e-01,-8.027613860316558381e-02,-2.440126650265268121e-02,-6.172046352177145562e-03,3.127943277359008789e-01
3.117146671036320482e-01,6.072455848313493831e-01,6.492983291510363575e-01,-9.929358788217816645e-02,-1.118322052865484625e-02,-1.412842498472303976e-02,3.634370863437652588e-01
4.940223456172934680e-01,4.070391814576234113e-01,4.169261946917921513e-01,-4.308552622593222309e-04,4.008061454590234642e-03,-1.298502536551756660e-02,8.578113466501235962e-02
3.975100480962872607e-01,3.515782931337066985e-01,4.640617483928476950e-01,-1.494477790851246254e-02,5.389842012308383203e-03,3.235495023847472298e-03,1.019033193588256836e-01
6.342724489849655978e-01,6.570554399470137641e-01,8.703963268962037203e-01,-2.603714997412862608e-01,-3.013453210799332121e-02,1.027662043002128961e-01,5.372902750968933105e-01
4.368292653343242571e-01,4.222046535713126492e-01,3.976175974822592774e-01,-1.439800369736649564e-02,-9.288042147536680615e-03,-9.412725171534786633e-03,4.821294173598289490e-02
4.128511417360890001e-01,4.586657554267417058e-01,4.299305982040488860e-01,-1.186344054397839645e-02,2.185086672220044879e-02,1.140296532521843480e-02,6.207161769270896912e-02
4.046880390686234952e-01,4.413830098829253923e-01,4.021390498097634492e-01,-7.951917081562875564e-03,3.067094217533944660e-03,2.965382621025966243e-03,4.111999273300170898e-02
4.729085074837952041e-01,5.594731158945425165e-01,6.078230774769783906e-01,-8.911843960303247880e-02,7.540139590037106543e-02,4.934365617988973468e-02,2.494059652090072632e-01
7.501779567566215778e-01,6.545632291395109270e-01,8.749831382666503066e-01,-1.612528302149208725e-01,-6.457280465096794375e-02,-9.954554889807873397e-02,3.961010575294494629e-01
4.388894963331624322e-01,3.986198321745461626e-01,4.029447175385171831e-01,-3.183810558514726680e-03,6.240032993355825071e-03,7.206558671035148515e-03,4.206205159425735474e-02
6.163158431665690662e-01,7.028213734613298902e-01,9.941517155898950131e-01,-2.609700607572064679e-01,-9.697002613162952755e-02,6.095271629373454070e-02,6.010238528251647949e-01
5.002726853845016475e-01,3.119473358196533930e-01,4.384915293105849932e-01,-1.080297586086503836e-02,-1.793515893411973955e-02,-2.586827013538419567e-02,1.759858429431915283e-01
4.275973695279444708e-01,4.254953966243750219e-01,4.238354621174582615e-01,-2.371104255302408734e-03,6.004323997653056300e-04,7.350223640222865954e-04,5.498322192579507828e-03
4.205383367268408779e-01,3.866497465381612542e-01,3.446295873590287107e-01,-1.311088480829694126e-02,6.867022834164425438e-03,1.340444073422737518e-02,7.439304888248443604e-02
4.600630778478757565e-01,3.987475625266023171e-01,3.510337072553986748e-01,-7.305382008203841274e-03,-8.883288108132462654e-03,-1.981693885698918717e-02,1.026488244533538818e-01
4.767751086102423597e-01,3.245139562420952251e-01,4.938591124630130058e-01,-1.080579291063947164e-02,6.180920589299076021e-03,3.381567485289397462e-03,1.630207449197769165e-01
4.133675609674714591e-01,4.150514771724327368e-01,4.152773628153698660e-01,-3.538044259879477918e-03,7.281076780672431255e-03,1.785039710130250593e-03,1.447140518575906754e-02
5.847295974703726751e-01,2.359812598106109383e-01,5.567057679147700000e-01,-2.075102298996705369e-02,1.216510621541079008e-02,-8.022278039325425603e-02,3.656232357025146484e-01
5.353818955601746810e-01,8.026179132754315271e-01,5.322361147209834220e-01,7.463977180127506772e-02,-2.473130773829686768e-01,1.179940829905452848e-01,5.605693459510803223e-01
3.535491684620331587e-01,5.707835490723689453e-01,5.062199864829119988e-01,-7.996964185196915598e-03,-9.211095522450581108e-02,-4.703030337129739807e-02,2.638455927371978760e-01
4.555683423153513711e-01,4.227453180225025364e-01,4.011249910723125311e-01,-1.100206184200288977e-02,5.197849786879022924e-03,3.259284614047913090e-03,5.225410684943199158e-02
5.055713871401795734e-01,2.611095811877388040e-01,4.952891545249064054e-01,-5.728940218393888985e-03,7.144839279006305090e-03,-3.460016557147281568e-02,2.473798841238021851e-01
4.166337045008768891e-01,4.728938443802120362e-01,3.874217832778143467e-01,-1.134009106161508462e-02,-5.437035422391942388e-03,-2.880673529554473884e-03,7.849444448947906494e-02
4.268607571178963389e-01,3.077455439088187528e-01,4.771144408129931458e-01,-2.555079229616644132e-02,-4.339502412142409900e-03,-1.454958595698971607e-03,1.572298258543014526e-01
5.683929783583117068e-01,4.863520969161875818e-01,3.375400913786130719e-01,6.415564318778728577e-03,1.256679768932024606e-02,-1.181019315958809907e-01,2.890083789825439453e-01
4.966942266823984875e-01,4.226473208359146083e-01,2.612412984893531798e-01,1.854937198299296680e-02,2.745186390499178633e-02,-1.687156016402855951e-01,3.635579347610473633e-01
4.900440202586162086e-01,3.952350859527601901e-01,3.834859262961762272e-01,-2.524686585322851243e-02,-3.464402698161655331e-02,-4.845874455512511753e-02,1.509910225868225098e-01
5.191638214404236118e-01,5.124004171337918079e-01,2.911244823559027139e-01,-2.318470645473805561e-02,-4.409054126832859244e-02,-6.155280052768401927e-02,2.632795572280883789e-01
3.920150038499773948e-01,4.789555566644750906e-01,4.181217339000400379e-01,-2.295375667289285566e-03,-5.823570713502482926e-03,-3.166735764240342400e-03,7.821841537952423096e-02
4.932434168288484244e-01,4.094964338794432335e-01,4.837216955364102566e-01,1.826482520767840068e-02,2.252283542391332258e-02,-2.331804517092348969e-02,1.022772938013076782e-01
4.891149826394579070e-01,5.128469725893900488e-01,3.947024608676140689e-01,-5.711754266503613758e-03,-5.060413257510205237e-02,-2.203348349510610843e-02,1.447555124759674072e-01
7.103315437708636049e-01,9.003263486542624205e-01,6.511036366961684418e-01,-1.178123488266307334e-01,-1.642191892593787284e-01,-1.021157607114145105e-01,4.524211883544921875e-01
4.058272596168158164e-01,4.471809839054140534e-01,4.133921628136317805e-01,-3.576164370248444482e-03,-6.051847236499648813e-03,-5.880484025161988870e-03,4.130984097719192505e-02
6.747191392109732622e-01,6.471991132451164752e-01,4.706636625724834877e-01,-4.087005413522682568e-02,5.605553581445516659e-02,1.066730619352613402e-01,2.921567261219024658e-01
7.840184763023664294e-01,7.677396289501566828e-01,4.590743988424798028e-01,8.766057137532480559e-02,1.599399732711958566e-01,-1.902855910591710609e-01,5.558644533157348633e-01
7.723233027781183369e-01,7.201289101021857153e-01,2.386834764787745811e-01,2.944954219225735456e-02,6.939417183953833224e-02,-1.939347478283377502e-01,6.241179704666137695e-01
7.541674909954537709e-01,7.434661624870438912e-01,4.930130171931073613e-01,-5.986501718176769071e-02,7.224079782848862041e-02,-2.242918674750472019e-01,4.927977919578552246e-01
5.145159290039456046e-01,4.321582489989366227e-01,3.866520709612428219e-01,2.637401302428160621e-02,3.583937518972128006e-02,-8.103967276387159802e-02,1.955602616071701050e-01
5.271813256127187985e-01,7.170123156962172617e-01,5.870785656983038558e-01,2.216147182442413863e-02,1.094911560242014803e-01,-2.395397400695702811e-02,2.596398293972015381e-01
6.698112589668642203e-01,5.976299905835390502e-01,4.262850765447610546e-01,5.976222546872925201e-02,4.453408862014586467e-02,-1.330355994957061749e-01,3.416093587875366211e-01
3.408183490218811840e-01,4.327903014930717385e-01,4.198305440336366767e-01,-1.336962832450901313e-02,1.303963715517497159e-02,1.577419017142131161e-02,9.606078267097473145e-02
5.800879503753387789e-01,6.929464436260319715e-01,5.214124897475195253e-01,6.803913950982472258e-02,2.593260369989893732e-01,-2.494474266001902099e-02,4.902107119560241699e-01
1.200840015700868624e-01,7.825572586259061936e-01,5.691343591413944303e-01,9.306362601415708868e-02,-9.845552112995510641e-02,9.113310027062811527e-03,6.311460733413696289e-01
4.127090863899608442e-01,1.494213291637592200e-01,3.965424198727984795e-01,2.745031105549951625e-02,1.298028716275585401e-02,-6.170363650334211025e-02,2.819811403751373291e-01
5.347414803633580016e-01,7.430586794646126814e-01,7.706286108998365858e-01,-1.395842939990510345e-01,1.431861953824653810e-01,8.352972634609902303e-02,4.367943108081817627e-01
5.895877127650708260e-01,7.341384306118861058e-01,8.662263381846911914e-01,-2.030334617014903087e-01,3.568282174539419427e-02,7.163115211575826757e-02,4.475669264793395996e-01
5.095082662816047270e-01,3.396148076770081348e-01,4.466300958382068975e-01,1.143619161471790338e-02,7.896680816537819669e-03,-2.566864263136705779e-02,1.571334898471832275e-01
2.469245690991692110e-01,8.118686303667785875e-01,7.212907875658716161e-01,8.154966925145890055e-03,1.613705331278495747e-01,2.471469192653752076e-02,5.969489216804504395e-01
5.104624251828849824e-01,6.569482811220584972e-01,4.757234454767566012e-01,4.236344514647430448e-02,1.350123761912284670e-01,-3.224127734793872518e-02,3.015645444393157959e-01
4.482190956669706572e-01,3.206664994163959670e-01,4.234532072241878886e-01,6.755767198128909308e-03,1.913291232573953796e-02,-3.284779534602977336e-02,1.348930001258850098e-01
4.251532957168351334e-01,4.411135933797569186e-01,4.659164695240312071e-01,-1.960292617988096051e-02,1.845154717624319929e-02,9.763948555619276007e-03,6.104082241654396057e-02
3.482013924287875595e-01,6.473615914599147869e-01,7.989166316921807454e-01,-1.187873421980622929e-01,7.490076495327260830e-02,2.699671775573282348e-02,4.681379497051239014e-01
4.435289291239365439e-01,3.201349328192549248e-01,4.819290926395642938e-01,-2.133559364818465864e-02,5.310225413656045196e-03,3.634339757127350284e-03,1.514227390289306641e-01
4.983374918601886083e-01,3.784377579381465462e-01,4.525117321647414426e-01,7.282938978645828523e-03,1.235818252812197551e-02,-1.105199858328820631e-02,1.093854978680610657e-01
4.692829757182941375e-01,4.440364332959606530e-01,5.433915816271468469e-01,-2.704794232354110900e-02,6.440198288750724996e-03,1.500531551172672694e-02,1.048577129840850830e-01
4.004407526852680199e-01,4.039875170231180812e-01,4.418270188542658961e-01,-1.692476553323328178e-03,3.896485189424816857e-03,6.358409243635084959e-03,4.188131541013717651e-02
5.261105302829365282e-01,6.548117737281214934e-01,9.479420565528875464e-01,-2.310315454868721308e-01,-6.826152769931242981e-02,2.880189381449599698e-02,5.628587007522583008e-01
4.240575289489917910e-01,4.339445730174287807e-01,4.193437596315937044e-01,-5.562211720630165848e-03,2.286928862120714799e-03,2.433372406311197847e-03,1.711277663707733154e-02
1.466755275469168729e-01,7.340879297516902380e-01,8.964583607800485909e-01,-5.517737792142606706e-02,-7.490206961175270572e-02,-2.373722767530062408e-02,7.031719684600830078e-01
4.883291802323372899e-01,4.142030971666169070e-01,4.464296999238214769e-01,1.741832997960726312e-02,-2.263510224269369223e-02,2.381811504833849374e-02,9.106890112161636353e-02
4.173155996179627181e-01,4.281067817252622310e-01,4.600720551191987973e-01,-2.680106470741343717e-03,4.106652194140348461e-03,1.494031464687149919e-03,3.952227905392646790e-02
5.078409438982018909e-01,6.391191328307834763e-01,6.999823746192322949e-01,8.356366796904421412e-02,-4.644403619501896036e-02,3.699276619346512918e-02,2.458729594945907593e-01
4.228862766590923417e-01,4.260412897928009812e-01,4.285489381321090918e-01,-1.328287136983466281e-03,9.708773643724646907e-04,1.984488981512467620e-03,6.639993283897638321e-03
2.931627724501044696e-01,4.050146380897993725e-01,4.362154050216981438e-01,2.742754958669921944e-02,1.038413651210854521e-02,-2.049070308826416581e-02,1.442709267139434814e-01
9.442732043609450288e-02,3.584143905828691690e-01,5.004435037373340389e-01,2.138258872809062905e-01,-3.000607000634271382e-02,2.731160445675315934e-02,5.190941095352172852e-01
1.037894363824854727e-01,1.884680365656620782e-01,4.100544915560042636e-01,2.433701492931072685e-01,1.200434621980285728e-02,-3.361431948226177580e-02,5.065015554428100586e-01
3.019768868069775958e-01,5.166520503210962900e-01,5.353620780422542191e-01,4.818460232590195819e-02,1.405498258492779602e-02,-4.504203913929775635e-03,2.409788966178894043e-01
7.242396326411439933e-01,5.549180201272987389e-01,7.799595820711853200e-01,2.084009546404439195e-01,-8.172637203886476409e-02,1.109480693375773930e-01,4.779832661151885986e-01
3.932268592184248734e-01,4.551293592726623483e-01,3.061795511680458493e-01,-1.706414511031023942e-02,3.147744097577881428e-02,2.206564582467406346e-02,1.486752182245254517e-01
3.544716309914717201e-01,9.401089193627528706e-01,8.749244252548593614e-01,7.139371916011795494e-02,-8.476496453438402134e-02,7.411268805267297310e-02,6.019718647003173828e-01
6.048855327518479763e-01,1.083107856854580442e+00,1.163850698415277662e+00,2.671897327543134790e-02,-4.501922001523450678e-02,1.158063786050770455e-02,5.314633250236511230e-01
4.866353631616192610e-01,3.165663970942937944e-01,4.309863215816557847e-01,5.208460346274104702e-03,6.720228244501371372e-03,-3.621449688839941533e-02,1.634240895509719849e-01
4.196563022110263996e-01,4.231326550890514571e-01,4.215943935274275578e-01,-6.732978998340348464e-03,5.798869849972463839e-03,6.570707856848366848e-03,1.937797851860523224e-02
2.446263374478226948e-01,7.318269655375636562e-01,8.299913709973283371e-01,1.401060008180473049e-01,1.086384763581319385e-01,-6.268168360740427724e-04,6.237977743148803711e-01
2.886393278999119794e-01,4.994338643483057227e-01,4.803196279561200432e-01,4.182485600512609800e-03,2.186271013949477385e-02,-8.193339591424011331e-03,2.060541659593582153e-01
4.144430504974874752e-01,4.139687820109952399e-01,4.163041716734572351e-01,-7.414104310308395653e-03,6.391850930592231014e-03,7.427690058211276758e-03,2.139058709144592285e-02
4.075367746012593106e-01,4.195180375713158938e-01,4.296482067594167287e-01,-4.219011145624027535e-03,5.341092714270815646e-03,7.057987299464602363e-03,2.561192587018013000e-02
3.185910999006604793e-01,5.417060980181119811e-01,8.016070863300540639e-01,2.741860235802093815e-01,-1.129657075681514931e-02,-1.088361241398626972e-02,6.337103247642517090e-01
4.257986898058592207e-01,4.318070475648392303e-01,4.405626742731583168e-01,-2.715966748112890860e-03,2.617903801407573099e-03,5.502547231689668963e-04,1.445566769689321518e-02
4.781537113361217228e-01,5.277071395210450877e-01,5.392743121532859174e-01,1.168538970018592332e-01,-1.191942777734556758e-01,6.231795801202594243e-02,3.136868476867675781e-01
6.643408602099326599e-01,5.252156487037931143e-01,8.226724829490573709e-01,2.260043897793753975e-01,-4.548330013221831697e-02,6.655039985853342110e-02,4.890599846839904785e-01
3.921617687790925899e-01,6.436249909354464505e-01,6.764311617606479921e-01,2.021478809870071447e-01,-1.489027216463488790e-01,9.664086667705400202e-02,5.382241606712341309e-01
4.318644990043208343e-01,4.944447343849550092e-01,4.024830058438860769e-01,-2.848568674283459470e-03,-2.941834425354598187e-02,-8.153186957686731767e-03,9.715113043785095215e-02
4.468173448339857190e-01,2.586926861439016179e-01,5.115697018124316653e-01,7.302158864383856418e-02,2.972089054403089653e-02,-7.742678892204252206e-02,2.973153889179229736e-01
1.549319306062711954e-01,4.199228367443256227e-01,3.398939108187103986e-01,9.169705067594065284e-02,-1.816004053485989200e-01,5.249032692959761104e-02,4.334105849266052246e-01
2.114279828911082570e-01,4.413837545407620078e-01,4.362519009651064095e-01,3.644973976401897492e-02,-4.150681463789187425e-02,7.352632334018828660e-03,2.470673471689224243e-01
3.882237978164139180e-01,3.472081444834175246e-01,1.012211323976046906e-01,4.972283277917807776e-03,-1.579159492686934424e-02,6.749191934260438674e-02,2.945657670497894287e-01
4.535330888912231240e-01,3.852814226227273542e-01,4.773175136544189900e-01,9.577986862249128139e-03,-1.411146285880696995e-02,4.031023712027968602e-03,8.814009279012680054e-02
3.911071550812455500e-01,4.476746083215779048e-01,4.899668912007214550e-01,1.074262123926562028e-02,3.140837105260876894e-03,-1.074065775052766153e-02,9.001539647579193115e-02
7.095472901899362306e-01,6.030026195931466049e-01,4.877192652143665375e-01,3.624821456705426548e-02,-3.345117545884212368e-02,1.349404990549083194e-01,3.144048452377319336e-01
3.406609730219151699e-01,4.387306671472339104e-01,4.882158342384116945e-01,1.161423852376057553e-02,9.627632148315885786e-05,2.643535495346185753e-03,1.317008137702941895e-01
4.079877599826979839e-01,4.548583298783538398e-01,3.681082000759259287e-01,1.223439124250326297e-02,-1.201602317436078343e-02,3.099516693747021712e-03,8.103964477777481079e-02
8.888012359022646747e-01,5.387425377008024929e-01,8.823646623236146569e-01,4.282669368321901510e-02,2.736826363562823786e-02,-1.139000342878584426e-01,4.086544215679168701e-01
4.750203924772568587e-01,7.103747783627566426e-01,6.538682655469285621e-01,3.510793905557972258e-03,-6.098893534146128392e-02,-5.807354389608666324e-03,2.378712296485900879e-01
4.838927562206769561e-01,2.939956868332089801e-01,4.821591787736391188e-01,-5.984487771785038795e-03,3.687123826258643152e-03,1.767078983756410412e-02,1.918845921754837036e-01
9.417013170912119646e-01,5.493550490857102009e-01,1.031617634153717766e+00,3.726537660452552969e-02,-2.077225452915594170e-02,-5.715996592125352493e-02,4.610436558723449707e-01
5.161030829883270776e-01,2.760079173706648792e-01,5.063187142810557928e-01,-1.095408795304305717e-02,2.099886180003873379e-03,4.296467848162918365e-03,2.362643182277679443e-01
5.275619698929499002e-01,2.894441335867770637e-01,5.457634520948693169e-01,1.817756361443537876e-03,-6.253189045220044866e-03,6.280496125099553108e-03,2.482157349586486816e-01
7.558722478511714638e-01,5.782128742768083418e-01,7.574712686481266388e-01,1.606714858966161730e-01,8.909618792787772634e-02,-1.637457377079508947e-01,4.621123969554901123e-01
4.226545269011314776e-01,3.814645363713097814e-01,2.732515837871312137e-01,-1.901071977241859667e-02,2.192088107547778345e-02,3.395679714699319923e-02,1.544310152530670166e-01
3.659429600630280666e-01,5.211419785761922663e-01,4.856517309782424907e-01,-7.122959289220422673e-03,2.135954928007500336e-02,1.543208760757012847e-02,1.485718339681625366e-01
4.585917950670297394e-01,3.329474143493371674e-01,5.153350598076933409e-01,3.216257054013579864e-02,1.681674875150743556e-02,7.384335231071719819e-04,1.734621524810791016e-01
5.486145693432002979e-01,6.092642971182723466e-01,3.094331442541194965e-01,-3.212664611907883189e-02,4.669979476582861166e-03,2.692787212624687954e-02,2.841294705867767334e-01
4.777452661548239332e-01,2.759603153702859246e-01,4.567315519378851163e-01,4.796712798319958601e-03,7.555256298408778368e-03,-1.346453950451743931e-02,1.941716820001602173e-01
6.368031316970889089e-01,6.456948668620769993e-01,3.853976129494747216e-01,-1.962524838674803082e-02,4.115625547149184132e-02,8.520351143655263693e-02,3.058350980281829834e-01
3.493951184852267522e-01,1.389411204468191108e-01,3.250464188851381886e-01,-1.590660772108546950e-01,-1.059917885330035059e-01,-1.673217485097587554e-01,4.830714166164398193e-01
9.235233089140606477e-01,5.236443391099294686e-01,1.005449204959935727e+00,-7.848244627004036245e-02,-1.484035474312187138e-02,-8.119855601790408606e-02,4.881539642810821533e-01
4.014351620853028879e-01,4.564346850384402576e-01,3.716041811816979124e-01,-2.891680240348429298e-02,-4.859249957477644599e-02,-3.276483646281256462e-02,1.355299502611160278e-01
5.225412401296964937e-01,3.125199477107923340e-01,5.320114019956135865e-01,2.399924016755899947e-03,5.560515399057640480e-03,-1.867394283906977787e-02,2.175861895084381104e-01
2.776758547284037260e-01,5.207731035077224346e-01,5.071226853130282874e-01,-1.047604888550768276e-02,-2.533011238615362481e-02,-8.685656108220630306e-03,2.417532503604888916e-01
2.725840829115420694e-01,7.083001624981634103e-01,5.674112083244080562e-01,3.458882002589019899e-02,-1.733967253309738887e-01,-4.363548708255510916e-02,4.978064000606536865e-01
3.629364825301818476e-01,4.616082203374929360e-01,5.078325509319657760e-01,4.327770014127046289e-02,-2.972009261614116937e-03,9.789284869974133191e-03,1.495550125837326050e-01
2.081310770487487249e-01,6.737861766911992234e-01,5.816209115605410762e-01,-3.251143615365941625e-02,-2.531717313666629818e-02,-2.260276184785364392e-02,4.347854554653167725e-01
8.290838225570038578e-01,4.504620021886255321e-01,7.372730594236622803e-01,1.109407910678096403e-02,1.272254658211977724e-02,-1.590372667671929863e-01,4.401766955852508545e-01
4.896411939661525770e-01,3.292903907959092713e-01,4.293456458237382423e-01,6.382585818884727903e-03,-1.101188555418210896e-02,-1.549417063562308870e-02,1.445188522338867188e-01
4.944762529666367201e-01,3.644552461305158308e-01,4.708755584370937219e-01,1.822571125390145055e-02,7.560153572828328186e-03,-5.680160407174355414e-02,1.588745862245559692e-01
5.110091476719594850e-01,6.697582429853435881e-01,8.389243916847024529e-01,2.392612163994042307e-01,5.604251497519120023e-02,-4.248195886972256502e-02,5.169600248336791992e-01
4.124632382166898426e-01,4.136912188351255515e-01,4.884598834718304472e-01,1.161617416688321899e-02,-3.151288958573334777e-03,-1.963451548821715242e-03,7.829329371452331543e-02
2.489088343933487102e-01,5.269412297372645382e-01,5.237386478117979083e-01,1.522001880709445733e-02,-1.003735852047191353e-02,1.701557160454346754e-02,2.797992527484893799e-01
3.700479396206450833e-01,3.674059989822678896e-01,4.411988398071512441e-01,2.021056362006401833e-02,6.170338277985942463e-03,-4.842003523542685872e-03,8.165391534566879272e-02
4.780157600230158788e-01,3.913835084136749187e-01,5.280449395300563786e-01,7.381550143976369632e-03,-3.110956771091804348e-03,-1.929564583809004327e-03,1.206062659621238708e-01
3.849421936703996128e-01,4.160299168288987270e-01,4.443486902812152639e-01,7.102136864063948209e-03,-6.686925500424019744e-03,1.495564959340409464e-02,6.004370003938674927e-02
6.546974595575796307e-01,5.689887433394684724e-01,8.714543841189344997e-01,2.172452288637959916e-01,5.485171879750447982e-02,-4.187327178587516019e-02,4.783097505569458008e-01
5.276849435967354562e-01,3.508091045576767764e-01,4.619445323581796159e-01,1.705334084123970306e-02,-4.561727641327012125e-03,2.940984764304775331e-02,1.658573746681213379e-01
6.742468957145093533e-01,4.304636017209446663e-01,7.161059851082764993e-01,1.816526670770390317e-01,1.034507204579469958e-01,-1.525205312592650131e-01,5.217986106872558594e-01
4.508972040950839921e-01,3.771018934116189825e-01,3.772297025359206413e-01,1.757406613570407922e-02,1.577170172219326955e-02,-2.417709207410189895e-02,9.414197504520416260e-02
3.968976752271922148e-01,4.096892049281759540e-01,4.794523698904724074e-01,6.803921379965860092e-03,-2.872747206524661236e-03,5.970677355939649038e-03,7.869869470596313477e-02
8.942308113344488163e-01,6.348951460338686514e-01,1.011082781889325100e+00,1.509389400479251853e-01,2.811334622929000104e-02,-1.606760659604896530e-02,4.274418354034423828e-01
4.113985359681888720e-01,6.684402611085804580e-01,6.646090450508651548e-01,-4.522313587961512837e-02,-3.485368103717131905e-02,-9.996491347321032755e-03,2.741894721984863281e-01
4.832879084891233967e-01,7.259621412025580867e-01,7.005148179505673589e-01,1.757718638656722288e-01,-1.406940001965521769e-01,9.308065551758019918e-02,4.810681939125061035e-01
5.677658858878625869e-02,5.837509303683710016e-01,4.368602713599389897e-01,2.964602902265449629e-03,1.567599165013137674e-01,1.680914201714814272e-03,5.437160134315490723e-01
3.385814622307358190e-01,5.393736733123429827e-01,5.287618768696569216e-01,1.630128329340261584e-01,1.154907689314826902e-01,-8.018145421890707225e-02,4.210943579673767090e-01
2.357346678272438101e-01,4.062016506635656721e-01,4.497881473177747780e-01,9.930490548015982744e-02,4.066802985407305671e-02,-5.239799900129352844e-02,2.849062085151672363e-01
2.026370101129962853e-01,6.813325830916189263e-01,6.286376790971288653e-01,-3.476812300665604177e-02,-1.534128748730743119e-01,1.051928032971243404e-01,5.604738593101501465e-01
2.908629979665487419e-01,5.167224278409641158e-01,5.043052190176012806e-01,1.416315334092582527e-02,7.627956789041111241e-02,-7.855535252155975215e-03,2.580789625644683838e-01
1.747998117391790784e-01,6.832060042746992412e-01,5.761072801883847516e-01,-7.895028059241918084e-02,3.569360079901202996e-03,4.251670230223657254e-02,4.895487725734710693e-01
2.952872678165773257e-01,5.321676015661784831e-01,5.233308274088650514e-01,1.709625908990254350e-01,-1.348366363098952858e-01,1.578389717983606222e-01,5.206379890441894531e-01
4.777705026837432145e-01,6.726798314226402065e-01,4.836997969488166516e-01,1.108392331822769319e-02,-1.586168375644569917e-01,1.395970103862461450e-03,3.357401490211486816e-01
2.150567736221310200e-01,4.459613491294771581e-01,4.156650989670146457e-01,3.886452778653700507e-02,5.277902488309640233e-02,-5.373765328612066343e-03,2.453856319189071655e-01
4.200983563419475320e-01,4.138988834865046096e-01,4.139115624338978727e-01,-5.031355333371460153e-03,-3.431184490584864282e-03,-4.205791330951681381e-03,1.423670444637537003e-02
4.455137442480339161e-01,4.607217668888445861e-01,3.834111822870710506e-01,-1.747253042155903421e-02,-6.061154452471693814e-03,-9.781223570773898979e-03,7.965906709432601929e-02
-1.274118891918334939e-01,4.102917334917982606e-01,3.219717341935781629e-01,5.811417308811150928e-02,1.750393515163776170e-01,2.381203584753317434e-02,5.942934751510620117e-01
3.524189838646096251e-01,5.165441894095414987e-01,4.940037863106320204e-01,1.737605948495681701e-02,6.574097184533569081e-03,-8.881337613688656749e-03,1.581700891256332397e-01
3.519025793312904882e-01,4.485413455210909284e-01,4.929522604454655843e-01,-4.881829081801935394e-02,-5.290101447266596334e-03,-6.107863613222415389e-04,1.511222869157791138e-01
7.914558827913202865e-01,7.644293869683296272e-01,6.280328331765222538e-01,-7.414918108148471632e-02,-1.546703114226548881e-01,-1.865620443010625185e-01,4.644351303577423096e-01
3.070231608237119492e-01,4.865562419188471655e-01,5.279789154133101015e-01,5.891100576722266280e-02,4.460403222499706444e-02,-2.416356116772078871e-02,2.439598739147186279e-01
4.718279153058003161e-01,3.719946304895704325e-01,4.108071913228885652e-01,1.303950944675217076e-03,-1.740376703250819850e-03,-6.663458956323100278e-03,8.800970017910003662e-02
4.860617944838128146e-01,4.827302936731203697e-01,5.900145150586978415e-01,6.454927824084848165e-02,-2.132757831008095378e-02,1.505335611999018483e-02,1.603365838527679443e-01
5.016436054902564390e-01,4.696917298106212391e-01,4.100738650767185023e-01,-1.147877081675916303e-02,-1.844012832116127213e-03,-7.546500468130654289e-03,8.400268852710723877e-02
5.469031087123609192e-01,5.688735398505423424e-01,5.015269391802665844e-01,4.222532311773869590e-02,5.631640248561032430e-02,-5.766924086217197626e-02,1.684618592262268066e-01
4.302323962249187117e-01,4.159425640031273463e-01,4.175842133286343794e-01,-4.644651171020619182e-03,1.971850732721879950e-03,8.503768029041073673e-04,1.618603616952896118e-02
8.257289635351079404e-01,8.057313997901804914e-01,5.383555675669464691e-01,-3.235883309103810418e-02,-1.024894820260512235e-01,-1.717650447078524767e-01,4.476604163646697998e-01
4.835882161952118063e-01,6.327824451772784409e-01,2.052863904526698868e-01,-6.154007720684320781e-02,-1.886051901742246684e-01,5.683568460307833470e-02,5.186521410942077637e-01
3.345317224148764979e-01,4.366920878790763738e-01,4.796019802484203232e-01,2.934043779700023710e-02,1.644809389275523476e-02,-1.679270427991789300e-02,1.445748209953308105e-01
3.792515640873767579e-01,5.059428620520702857e-01,4.240179488090286553e-01,1.000393288492936947e-02,1.554964602534131442e-02,-2.280942410316874006e-03,1.158638074994087219e-01
3.871717917289861921e-01,4.722407490849969691e-01,3.815714454742981654e-01,-4.278689715403559760e-03,1.432113241451881021e-02,2.204546211930310910e-03,9.181118011474609375e-02
7.563775016115451555e-01,8.316743191820087366e-01,8.252590897906529888e-01,1.830932504904939917e-01,-1.541378640908373232e-01,9.732259353402544777e-02,4.533074498176574707e-01
4.606669323000177618e-01,7.052049952092872553e-01,3.879122376722686227e-01,1.310818188813515361e-01,-3.392702982099704556e-01,1.188333452010377905e-01,7.225703001022338867e-01
4.221451853221312445e-01,4.860640691589848683e-01,4.141662231700338204e-01,5.339294077556976971e-03,1.719876242727326043e-03,-6.612332829783912650e-05,6.894712150096893311e-02
3.961395776503783828e-01,4.238820185019827602e-01,4.961742735799349324e-01,4.117213910222071969e-03,-6.742066141705912313e-04,1.108816162271617249e-03,8.976236730813980103e-02
4.542388018051026211e-01,5.649530908573929811e-01,4.561882396978418353e-01,1.836555808634529052e-01,-3.071612898614030085e-01,2.193437943825992664e-01,7.352638840675354004e-01
4.101161953932332405e-01,4.293756358159513398e-01,4.527575409991734245e-01,1.998450646123927938e-03,-2.947118557010762040e-03,9.305426831950331865e-03,4.081387817859649658e-02
4.197702949047673604e-01,4.390782874360882326e-01,3.711868846766661068e-01,1.769845427055195472e-02,-1.215017689281871170e-02,9.963406320185644663e-03,7.315455377101898193e-02
7.190455821378789469e-01,8.510288156681988792e-01,4.396179882873313405e-01,4.319748303764705394e-02,-2.086535620584990536e-01,7.389722787383255428e-03,5.184109807014465332e-01
4.258517232113038231e-01,5.356964554288815572e-01,4.623118688473185633e-01,-3.322917670286281875e-04,3.368783310100958300e-02,-9.371762128148523538e-03,1.142745986580848694e-01
4.078603639895728161e-01,4.840352744406204444e-01,4.166900444650342150e-01,1.080723860690815480e-04,3.401863440896212096e-03,-1.148448289543127585e-03,7.243403792381286621e-02
7.730225083779689310e-01,9.675833003921338049e-01,7.019978656114874704e-01,1.461771727766550399e-02,-2.204385154984195294e-01,3.380585959454741191e-02,4.544952809810638428e-01
1.937616625744862653e-01,4.551486338224390860e-01,2.629299371457982093e-01,4.777836959236399228e-02,-2.403004953928827014e-01,6.709828143221727159e-02,4.986136257648468018e-01
4.262153354921061066e-01,5.006938835347374273e-01,4.331417152216702204e-01,2.746944613812968197e-03,1.545782994324281477e-02,6.891783197402692350e-04,7.628930360078811646e-02
8.817329570710039643e-01,9.468873126968844200e-01,5.689824018173077480e-01,4.196634317045215556e-02,-1.362510696666698884e-01,4.802430697522803299e-02,4.362690150737762451e-01
4.310404142838208941e-01,5.227018864999950498e-01,3.973377663933528314e-01,3.419599323003091190e-02,-6.127883810458562008e-02,3.674701302031715966e-02,1.773452609777450562e-01
7.140260425439578507e-01,9.064770518890604700e-01,7.269693734260253004e-01,5.213613107579478240e-02,-2.346473585441965493e-01,9.488597922595162770e-02,4.848264455795288086e-01
4.729312145583626226e-01,5.076124804596104934e-01,4.053464714435838223e-01,-1.313826608300546275e-02,-9.491961376866924968e-03,-1.562713916391465091e-02,9.815889596939086914e-02
7.749992373908176635e-01,8.039077316469626089e-01,4.481357554063079007e-01,-2.394070727590545331e-02,-1.885400067172004201e-01,-7.416559435387928834e-02,4.919224083423614502e-01
3.946303198113840227e-01,4.635258202717052467e-01,3.434945354346022883e-01,-6.373955254685623878e-03,-2.147958315466690082e-02,-3.725350513893812155e-03,1.114994063973426819e-01
4.099040931515200437e-01,4.194606682119387253e-01,4.489715510719444747e-01,3.862875498453819875e-03,-2.915771823637293512e-03,9.318229623352066934e-03,3.968629613518714905e-02
3.777486522033831062e-01,3.894137026522953016e-01,3.435049746243171720e-01,3.947563111598142993e-02,-5.144361496794976063e-02,5.331396472411392695e-02,1.511608660221099854e-01
4.403389591512246737e-02,4.511002966661872282e-01,4.484723582527856967e-01,8.810325402831843677e-02,-8.653844968430493556e-02,9.126398760947002434e-03,4.589589834213256836e-01
4.058182107560335816e-01,4.067413441268829533e-01,4.421072089582558928e-01,2.429180775385862256e-03,-5.523815592399641122e-03,2.229271138347590012e-03,3.752856701612472534e-02
5.457092872493536362e-01,4.825112603676213752e-01,3.619313522100452429e-01,-1.025808519062566121e-01,-7.668038912071363511e-02,-8.837517818910754774e-02,3.143128454685211182e-01
4.378233926367748885e-01,4.882764468791500057e-01,4.624998951598540686e-01,2.605260455635708891e-02,-5.455874482024337946e-02,3.220723824973894395e-02,1.264418363571166992e-01
2.985068584880743447e-01,4.173882139586331808e-01,4.675986391514146967e-01,2.899059434562003754e-02,-3.593046054149090073e-03,9.989546621540355831e-03,1.596321165561676025e-01
4.046372451583240548e-01,8.984272981519815238e-01,7.179670846548278362e-01,3.207509374257267593e-02,-1.568622811024315833e-01,2.504467270445108820e-02,5.158202052116394043e-01
2.983864861226506182e-01,6.892462491252512313e-01,5.611945336168396858e-01,1.330523095542691381e-01,-2.048387655579468336e-01,9.878355488871082279e-02,5.721698999404907227e-01
2.507271583010902138e-01,5.320195259516966590e-01,4.273079957006393759e-01,8.527296088588464870e-03,-1.142162741241878748e-01,-2.215426614735311814e-02,3.185310065746307373e-01
4.071492623760534779e-01,4.331465674384369358e-01,2.942982336603879867e-01,-2.749431652516022562e-02,-4.024927001417715616e-02,-2.735975921742387490e-02,1.603699773550033569e-01
9.291687545352414479e-02,3.749604073247538860e-01,2.348717763141622283e-01,9.113537618795599510e-03,-1.308984073338220200e-01,2.781956555346330739e-02,3.371000289916992188e-01
4.429995191219590067e-01,4.923088727226349048e-01,3.977894661128247300e-01,-7.432382646248296594e-03,-1.927865843178653421e-02,-9.211833693173413634e-03,9.077408164739608765e-02
5.981824802489764670e-01,6.957455222273576378e-01,4.376263893481998624e-01,-7.815376498601029134e-03,-9.773011210571866392e-02,-1.263488759297213063e-02,2.833316624164581299e-01
5.103288122298679230e-01,2.851820250809478097e-01,5.216651446262664527e-01,4.437698301418675079e-03,1.550460163333777308e-03,6.541261848903918118e-03,2.314445525407791138e-01
8.345972640314487379e-01,4.298269576573082174e-01,1.000763824514687261e+00,1.009698529144092138e-01,7.521092695475157554e-04,-4.367442202583866895e-02,5.431559681892395020e-01
4.981794585303037093e-01,2.603779634482316085e-01,4.829215206088163237e-01,-3.314678019283400119e-03,-1.706583408698448797e-03,-7.152290471173994302e-03,2.309743762016296387e-01
4.527171019409987340e-01,3.396565556433845945e-01,4.241984211434278174e-01,1.653464755825087952e-03,1.213058571707696827e-02,-7.092922652125467978e-03,1.047485023736953735e-01
4.413577786932342817e-01,4.542938475465618797e-01,2.034625719220429507e-01,1.913841276841037747e-02,4.327660208004940195e-02,-6.554266235169957378e-02,2.818578481674194336e-01
4.360737519704271925e-01,4.071318753109428590e-01,4.145974091714751952e-01,-3.199767403507483999e-03,-6.524684040902128251e-03,-6.077338149400237678e-03,3.076576068997383118e-02
4.163446367775187062e-01,4.246459561896250290e-01,4.344648485503816993e-01,-1.388202315013061915e-03,3.784086993804368967e-03,6.530348801452765320e-03,2.057930827140808105e-02
4.434746407493262987e-01,4.326595282871085746e-01,4.293257040824384752e-01,-1.271217291674485396e-03,2.377501752650897516e-03,2.147775205149867351e-03,1.413439307361841202e-02
4.425589599889414583e-01,3.993205956884083307e-01,4.173822222082239630e-01,-2.965956386618039727e-03,1.303536399487450516e-02,4.807156522636746310e-03,4.494777321815490723e-02
3.003068823053636205e-01,5.906965970415685163e-01,5.828461275292508015e-01,-2.755044081080432194e-02,-5.421967188176365221e-02,-1.861646179564951454e-03,3.053111732006072998e-01
4.771007421934699844e-01,4.737874240745659771e-01,3.654823508354011485e-01,-4.428929853566868774e-02,4.963555163456792596e-02,3.767000309030173189e-02,1.721412092447280884e-01
4.348934692879519726e-01,4.131841494579783225e-01,3.639585446533421531e-01,1.622819615366517809e-02,-1.188033379726482000e-02,9.013774750759239937e-03,7.362297922372817993e-02
4.247939687022537769e-01,4.191832947293038236e-01,4.160939304040920939e-01,5.000102298961616940e-03,1.954255230540640625e-03,-3.877505270324873004e-03,1.378124859184026718e-02
3.541484180672478943e-01,5.258844667616375812e-01,5.219517792551470192e-01,-3.828851782085895827e-02,1.621691615357192043e-02,3.358782078766278482e-03,1.845377832651138306e-01
4.914172949055907180e-01,4.109434079629945558e-01,4.146192983758113515e-01,-3.933758405438872452e-03,-4.193537662419894222e-04,-1.063134020251602259e-02,8.111579716205596924e-02
4.270605558062038343e-01,4.071336201661232557e-01,4.285905005010297031e-01,1.343041535520423041e-03,7.063341857032458780e-03,-1.767397941530575705e-03,2.437960915267467499e-02
3.197488306387873402e-01,4.784717113501347208e-01,4.876735646413504766e-01,-1.402080504509377844e-02,-7.265224887940623620e-04,4.113609498433438462e-03,1.654698401689529419e-01
2.989885317880355831e-01,4.153626648743254934e-01,4.637310762394106223e-01,-3.380201691747223430e-02,-4.055336504381753908e-03,1.069298855958705600e-03,1.580878496170043945e-01
4.360108473094588266e-01,4.595598712878040115e-01,4.569085788429284034e-01,-4.543814577936798604e-02,2.892838912039029028e-02,3.232763930197080776e-02,1.110801920294761658e-01
1.155255775053504463e-01,4.168594550516174224e-01,3.184518522801278451e-01,-1.176822491706505658e-01,1.904090509476112636e-01,4.452182658651522573e-02,4.765431284904479980e-01
2.093355493763137121e-01,4.335873148213941208e-01,4.606873338454627875e-01,-1.738855461356790810e-01,1.085053394733343085e-01,8.691925579305186111e-02,4.536453783512115479e-01
4.478706758332975379e-01,4.953617517816685245e-01,4.732394360153714952e-01,2.020425968743234241e-02,-1.309090658729975855e-02,1.937574498747885246e-02,6.752182543277740479e-02
5.005710252545991779e-01,4.425573385421713302e-01,1.042860710572271199e-01,-2.676042233141779497e-02,8.679454632802201253e-02,1.378082312145719468e-01,4.681228101253509521e-01
6.369901069581482833e-01,6.511643384568843729e-01,4.135662601743380629e-01,6.631571979540704792e-03,1.032207903669119242e-01,-5.583595737369826534e-02,3.077896535396575928e-01
4.439570185739677433e-01,4.429239177052612941e-01,1.351646172319131700e-01,7.054332803820312359e-03,2.779707060392776902e-02,-3.004073232675845764e-02,3.165587782859802246e-01
2.589423267703224174e-01,3.352855880302917368e-01,5.149632769906961616e-02,-5.761653076351199582e-02,1.233808678391413727e-01,6.800236585786666177e-02,3.663327991962432861e-01
4.313001568042038048e-01,4.667857168880452656e-01,2.991459189827672116e-01,-1.065164865668073030e-02,2.335932976769278593e-02,2.593204139770360558e-02,1.655545085668563843e-01
4.132659970888195033e-01,4.713289504016708875e-01,2.839776784644163499e-01,-9.979886213948531079e-04,2.547904357123277619e-02,1.442877136197894070e-03,1.719023436307907104e-01
5.454691348751095070e-01,5.058493438284736854e-01,3.192059881156757983e-01,-1.733238796929500655e-02,7.883188164991998537e-03,2.976211176789596638e-02,2.180487513542175293e-01
4.058883303602506265e-01,3.551256655386856864e-01,4.598879730173107694e-01,-1.737035460404458970e-02,-1.573891367436964367e-02,-7.470242984652663426e-03,1.002482771873474121e-01
4.333527958134832381e-01,4.524257562957844092e-01,4.167621568011021793e-01,9.884733800155309780e-03,-3.531086646798265241e-03,7.807366196320365175e-04,3.588617965579032898e-02
2.472527632038020728e-01,5.443594699410573279e-01,6.118938445570274443e-01,5.674621325827008261e-02,1.201546844783913173e-02,-2.677804135010944039e-02,3.537554442882537842e-01
2.209813690604975345e-01,5.376211877181391596e-01,5.009851081818882390e-01,3.767032316063802233e-02,7.523315561274181162e-02,1.724430184170900639e-03,3.335396647453308105e-01
4.523490636271826348e-02,4.548459930897469361e-01,6.920097791694982403e-01,1.441078944633275849e-01,1.011477468956328563e-01,-9.074550804756452427e-02,6.624733209609985352e-01
4.292873079460515218e-01,4.260617102432647796e-01,4.299993286665351744e-01,2.923437786587968130e-04,6.821501770125625594e-04,-1.823024402241844887e-04,3.867845749482512474e-03
4.081618597682960536e-01,4.346781701595966996e-01,4.152372618798759740e-01,-9.653455575895681859e-03,8.437297648922826784e-03,9.368589924297234320e-03,3.635939210653305054e-02
4.659514133296837057e-01,4.202402411911591584e-01,4.414157809779367114e-01,1.853992518651504176e-03,-1.158451546475122891e-02,3.503404385420061211e-03,4.494098946452140808e-02
-2.612800338607743633e-01,3.879567495552675993e-01,4.361964252044565060e-01,1.623600446798089542e-02,4.554719511766078949e-02,-2.327374964407807889e-02,6.810241341590881348e-01
4.394444330890652228e-01,6.146994982922818762e-01,6.146735048836315940e-01,-7.801135104923247188e-02,-1.761011951385418883e-01,-1.305962836673338345e-01,4.395090043544769287e-01
5.585514523280531440e-01,6.106550074466134959e-01,4.650702662397519505e-01,-1.573615766595744129e-03,-5.016677314479957295e-02,-1.470760768279579314e-02,1.566227972507476807e-01
3.874044125656961879e-01,4.679879809282894709e-01,3.329364894825534438e-01,2.527363930199908338e-03,2.130773802534070491e-02,-1.130524904794760321e-03,1.234290972352027893e-01
4.250160068568441529e-01,5.169215112116848365e-01,4.557745204886787804e-01,1.319205767893175292e-02,-2.514313738246218982e-02,1.532075447629841804e-02,9.843084216117858887e-02
4.235377381630808236e-01,4.949900085942120498e-01,4.054206391629530115e-01,5.192899343626863895e-03,-3.245656340971970338e-02,5.741198894568655571e-03,1.003405824303627014e-01
5.691382656528373163e-01,6.048036349715709692e-01,2.667771258974921955e-01,1.545653381383858826e-02,1.618817245471978472e-01,1.428976692103872403e-01,4.940355420112609863e-01
2.320214165403315931e-01,4.276031208548213280e-01,4.407122780824231922e-01,-4.444218584478619449e-02,-3.663116512277930781e-02,-1.122950576837698083e-02,2.265328168869018555e-01
3.964753325689931440e-01,4.822966460961171098e-01,4.250811636975246888e-01,3.849218837088681094e-03,-5.336335095104939759e-03,1.062432873356905505e-02,7.872172445058822632e-02
4.267369875590625861e-01,4.289482306783338195e-01,4.295531495863892935e-01,-3.648517863194578634e-04,-5.376789169750464427e-04,-5.623546800891318642e-04,2.967915264889597893e-03
4.201197461828015123e-01,5.207511106382113342e-01,3.654609568626967508e-01,1.206109423622607132e-02,-6.004072334477638523e-02,-1.448569046596210295e-02,1.746288239955902100e-01
3.966771559963211402e-01,4.492895317006281308e-01,5.195876685876620327e-01,2.267560937233083218e-02,4.171639825145145343e-03,8.670888651696502178e-03,1.150163114070892334e-01
3.449802616304919467e-01,3.839836488842647277e-01,4.626321999183206080e-01,1.778038738339081382e-02,4.425737785404062867e-03,-8.899631541328474962e-03,1.096321865916252136e-01
4.298014244771773962e-01,4.319054755723437111e-01,4.310147069853534907e-01,2.159437353202800774e-04,-1.130018450528160780e-03,-2.549636422819509095e-04,2.740805735811591148e-03
3.326183444603596495e-01,3.306272717533632055e-01,4.841340647593523339e-01,1.019398392237053363e-01,1.109916986534913294e-03,-1.432329446670843782e-02,2.346423119306564331e-01
2.684228789997217812e-01,4.819562429689167593e-01,5.456592236130379803e-01,-4.588246105080585197e-02,-3.790539995716422222e-02,-3.727126455815086420e-02,2.793757021427154541e-01
4.009098873722437562e-01,3.993028769142537016e-01,4.575850394295896684e-01,-6.181777582397799536e-02,7.488245619314437551e-02,6.806908373929677902e-02,2.132894545793533325e-01
4.280306192749852578e-01,4.246661485539257597e-01,4.475607053924749446e-01,-2.890416179207468995e-03,6.031371797341271782e-03,2.028102842260403292e-03,2.459649927914142609e-02
4.240813195868075591e-01,3.817890019490288722e-01,4.519124390716063311e-01,1.094621211558140586e-02,1.604979923644390613e-02,-7.405376119546519358e-03,7.097196578979492188e-02
3.958118491404888362e-01,4.346678262015216121e-01,5.043596706174489075e-01,2.923217898270328782e-02,-6.208825094432274131e-04,-5.629408059799931308e-03,1.083257719874382019e-01
4.463070919824607130e-01,4.181835646327983214e-01,3.984758257896821587e-01,9.928167594852450178e-03,-3.319605471114676562e-03,1.570519465701517752e-03,4.549443349242210388e-02
4.287864101379222914e-01,4.317676129721173539e-01,4.330442660220005235e-01,6.835901923306841269e-04,5.183420746600621819e-04,-8.060369788234687761e-04,4.298881627619266510e-03
4.299518673472377261e-01,3.939878878291446229e-01,4.463606499042394038e-01,1.107282980604415608e-02,1.569658712094844019e-02,-4.646567743793106851e-03,5.765868723392486572e-02
4.315760639596386006e-01,4.090912601326235909e-01,4.030649978438974879e-01,7.083050048834779559e-03,-3.585766166047004919e-03,3.642585516108887665e-03,3.010429814457893372e-02
4.623558904152065274e-01,4.447415640121117897e-01,4.779339801528724729e-01,-1.431929943146334309e-02,2.200408913364867297e-02,1.476893012440210450e-02,5.957658588886260986e-02
2.655898598958554846e-01,3.917933926234811182e-01,4.594211951364305935e-01,5.776315179913962122e-02,1.504847241817705746e-02,-1.816422637338003035e-02,2.017787247896194458e-01
2.959834187679818429e-01,5.706601899988525961e-01,5.556050813560454715e-01,7.459968655373185042e-02,3.608101257414654539e-02,1.247546706205136455e-03,3.035526573657989502e-01
3.511074697805435796e-01,4.970316040863433926e-01,4.425334795845508595e-01,-9.684431497686883748e-04,-1.287039703512607609e-02,-1.155370589807077839e-02,1.311927139759063721e-01
3.236980243163758986e-02,4.495046251320830577e-02,2.097638402486174947e-01,-2.622941201348128470e-01,1.776879023279591685e-01,1.330423653985349786e-01,6.193622350692749023e-01
8.414629718299665440e-02,5.644227212041078579e-01,4.617672976672778096e-01,-3.800205999139958518e-02,1.375003756333524618e-01,1.537815560624977750e-03,5.029504895210266113e-01
3.631703776576511444e-01,5.801034477550665036e-01,5.139220798648385102e-01,3.896713563678910058e-02,7.148383887735508535e-02,-6.516423049448563654e-02,2.640213370323181152e-01
3.934771465015893810e-01,4.648326500732332667e-01,4.183371307842796982e-01,-1.864145933336146428e-03,-4.857095294687579536e-03,-6.929760833593561452e-03,6.450577080249786377e-02
3.776999519587071474e-01,3.884024684282321727e-01,4.648386481717043939e-01,-1.211882970394945712e-02,-3.077328478861802476e-03,-2.956393653177587406e-03,8.526618033647537231e-02
3.808282423050421972e-01,5.689112324346192739e-01,4.293623007183859364e-01,6.512172885789051235e-02,9.737810946858646566e-02,-2.645507141676747137e-02,2.680894434452056885e-01
5.278217714134253447e-03,3.808518927831088807e-01,8.194379512603570948e-02,4.732053822331675624e-02,2.426657358899816930e-01,-3.901980340973440486e-02,5.532494187355041504e-01
4.354447290257711933e-01,5.744826107273217630e-01,4.690802647082581989e-01,7.057705416184892333e-02,1.795135234319611417e-01,-4.882210686445243725e-02,3.668183982372283936e-01
8.238275888799601043e-02,5.266746892264507762e-01,4.402817015620637542e-01,1.230045960287475329e-02,5.510417351190485119e-02,6.660626122031974156e-03,4.197282195091247559e-01
-1.585405976355994118e-02,3.597230879037961460e-01,1.429827469334606915e-01,-3.154108681287699778e-02,-2.520526602479850053e-01,1.899557285340180372e-03,5.479222536087036133e-01
4.777563559871471077e-01,6.825550785097943551e-01,5.885621803626819304e-01,-3.121363340097441097e-02,-1.265442006933036878e-01,-7.794469400692329193e-03,2.875291109085083008e-01
4.409293917850923283e-01,4.327323967426516260e-01,4.314945486318366719e-01,2.001011963733903033e-03,-4.063193229726272393e-03,-8.735318713762575899e-04,1.194569282233715057e-02
4.207550464952420355e-01,4.276974874222629897e-01,4.293247050749732230e-01,2.044632590393439652e-03,-5.517995600791639026e-03,2.951742155943774207e-03,1.386242825537919998e-02
2.700634453537850144e-01,5.057831622035230401e-01,4.894403219012399275e-01,3.614062896360958465e-03,-3.219612835353879293e-02,6.049018868654397300e-04,2.347947955131530762e-01
3.069238329172878643e-01,4.818087556049542308e-01,4.159478861901519386e-01,5.467634497526130399e-03,-3.792628934432636795e-02,-4.883791850694809041e-03,1.669753491878509521e-01
4.354103321076906452e-01,4.268292174793017479e-01,3.630242718048531381e-01,1.945280232447303345e-02,1.274241992018082005e-02,-8.360884110976100556e-03,8.077301084995269775e-02
4.666411094879583943e-01,4.288348251106342546e-01,3.432059312091196857e-01,1.554677158343596537e-02,8.100306218907650513e-03,-8.588066518285392137e-03,1.146392077207565308e-01
3.406350334267224111e-01,4.727035497347942816e-01,4.315661227948400791e-01,-7.791316583048925500e-03,-1.783352535477393877e-02,-1.920215282076083094e-02,1.262687891721725464e-01
2.157939250894310990e-01,4.424357641598825608e-01,3.912393250626043928e-01,9.870061590214798328e-03,-1.103785157279495860e-01,-1.564322189093007300e-04,2.814727723598480225e-01
4.429255286958202475e-01,4.439713536354636392e-01,4.384650833678211401e-01,-6.002660769334460661e-03,-5.751177863955409496e-03,-5.265724489623356021e-03,1.778093539178371429e-02
4.515745495679385213e-01,4.145648552713927515e-01,4.113181507578649865e-01,-8.975169979436916625e-04,-2.058335920362613057e-03,-5.647877379771794863e-05,3.893012180924415588e-02
8.251584115036579847e-01,3.644813314026750795e-01,7.805987277624558685e-01,-9.545994119813897005e-02,-3.218806371184095017e-02,-7.787937102789052601e-02,4.922630488872528076e-01
4.479583407911035264e-01,4.476722307697911796e-01,4.034468041543847749e-01,1.294005189972383986e-02,5.776868166397297957e-03,-3.280884370042728201e-03,5.102320760488510132e-02
5.648112509996312536e-01,4.965058517272729066e-01,6.078860980028939487e-01,5.022376953922611659e-02,2.420600618630301681e-02,-4.659568325339162945e-03,1.373081356287002563e-01
5.075348800483576728e-01,3.711297839956420597e-01,5.131196925720777902e-01,-4.993028627843827671e-02,-1.799127455077958321e-02,-2.733909408968084390e-02,1.734698116779327393e-01
3.950338285738970168e-01,5.980344821373431707e-02,3.420443340627444262e-01,-8.420746891359368047e-02,-5.222933208997239396e-02,-1.730182693688067652e-01,4.654954075813293457e-01
4.866330873662546574e-01,2.581786556199709981e-01,4.994645560470049039e-01,-3.641939127401265519e-02,-3.967620882659332604e-03,-1.714838631875782379e-02,2.453487813472747803e-01
5.659659610703507981e-01,3.503821829011338762e-01,5.508099055441003644e-01,-1.645878856592589840e-02,-1.653274164844208529e-03,-2.334302410044465995e-02,2.142294049263000488e-01
3.400268107986332833e-01,-2.266046354450660938e-01,3.340842886637166442e-01,-2.877489071245850627e-02,-1.568401344625460631e-02,-4.789480874697017027e-02,5.725757479667663574e-01
2.494970651424794350e-01,4.287418284581674399e-01,4.409929891891293807e-01,2.847082918836148571e-02,2.359067355077771461e-02,-9.778946183822415789e-03,1.971368491649627686e-01
4.740492258712040163e-01,3.885127997509671971e-01,3.996372143802937038e-01,6.063327743299725455e-04,-8.115505576356949651e-04,-1.098219171505302426e-02,8.278644084930419922e-02
3.389822048489096740e-01,3.881959458520243267e-01,5.010806954126094670e-01,-4.803655873958857792e-02,3.452290662419876810e-02,3.047506523657140740e-02,1.844035089015960693e-01
5.860324693578600197e-01,3.691554721483562562e-01,5.945556197054189251e-01,1.938612162561130503e-02,-6.607595231672334056e-03,1.025989005170405144e-02,2.247910052537918091e-01
3.826670810276394108e-01,1.922408077851279484e-01,5.139965470087486388e-01,-2.451434664556917664e-01,7.785888910586237499e-02,4.922667100946803709e-02,5.331603288650512695e-01
6.760374121126760949e-01,3.861687420389410819e-01,6.919024718362720705e-01,-8.691073741015649390e-02,-2.225176050254731863e-02,-1.910185714423857928e-02,3.378088474273681641e-01
7.449922088372719076e-01,6.367876895600559362e-01,1.002549767822371596e+00,-2.435495891222724529e-01,5.396662134588765813e-02,6.604991057906912932e-02,5.528898239135742188e-01
4.119356280558997274e-01,4.360800169520316905e-01,4.285865981224414867e-01,3.695551165447349875e-03,5.406467764160445728e-03,-9.286265682086463844e-03,2.907823957502841949e-02
4.097537701116541475e-01,4.022049646855634930e-01,4.636363174843393664e-01,5.943489711944418934e-03,7.724786966163022829e-03,-3.585130546202192590e-03,6.075042486190795898e-02
3.664405487094633540e-01,5.210147883507108002e-01,4.699515856775732803e-01,2.736945576205621370e-04,-6.814540023276599578e-02,1.606750521075506850e-03,1.804077178239822388e-01
5.250014066286815551e-01,5.339767994720495681e-02,4.595416997210493015e-01,1.258740852351521340e-02,9.643723300089449696e-03,7.865925784642224805e-02,4.638320505619049072e-01
4.798780990300155480e-01,1.803144022088208343e-01,4.854881389711996897e-01,2.268515400442403657e-02,3.287601095706941742e-03,1.745791304324095100e-02,3.064980506896972656e-01
3.863980757577432090e-01,5.592623497542739130e-01,5.932967343825760187e-01,-7.773403588623879756e-02,-7.673212707243153019e-02,-8.367689935593791706e-02,3.061378598213195801e-01
5.696800521589950872e-01,2.734999443933303631e-01,5.723070546151545201e-01,-8.779285245980461214e-03,3.460895154552712932e-02,6.706995973902636632e-02,3.253111243247985840e-01
6.461950522565096389e-01,4.388517169036302845e-01,6.336325805173148584e-01,6.082874677657004736e-02,-4.571391529356573502e-02,8.407641970270270104e-02,2.812837660312652588e-01
3.657549416620834437e-01,5.005292418239941643e-01,5.066164612761133723e-01,-8.927975032417288792e-03,5.061923063961938467e-03,6.388625084581741123e-03,1.394991278648376465e-01
4.643150041754847690e-01,2.859154404230099256e-01,4.969450690616067368e-01,8.824108346759021448e-03,-1.117862223582713650e-02,2.285764370102959936e-02,2.022083401679992676e-01
4.743011537542780598e-01,3.230476148174997730e-01,2.046424271351009738e-01,1.342828993302750545e-02,-7.134277962459317779e-02,-3.321047239464381406e-01,6.336383819580078125e-01
7.676097376609241074e-01,8.159732057316170240e-01,6.916997094809471669e-01,-8.412928885404812041e-02,-1.794400030468977503e-01,-1.532830600220183304e-01,4.473131597042083740e-01
5.958469616326407259e-01,6.427708707276789113e-01,2.694544534707085104e-01,5.613022343282781518e-02,-2.351031923009377356e-01,-3.186110117642883266e-02,5.498793125152587891e-01
4.216233969103930224e-01,3.991528716411344990e-01,4.688279945726169795e-01,-4.771490715883321132e-03,-5.000603228558510825e-03,-3.665849833735763258e-03,6.306778639554977417e-02
7.726498892824585907e-01,8.403445827373495769e-01,6.848220930855795086e-01,-8.875998279557428816e-02,-1.864818603243590112e-01,-1.090595165173183223e-01,4.264799654483795166e-01
4.249355318911868240e-01,4.180241986575500279e-01,4.443779130202309413e-01,-3.371669711434720045e-03,-6.943516104080265511e-03,-2.553708785370042457e-03,2.753999829292297363e-02
4.208789177474798748e-01,4.917637067384986738e-01,4.248107985132692499e-01,-4.106207667529939917e-04,-1.212511530751950303e-03,-4.150146225423297607e-03,6.941173970699310303e-02
4.211574022671146222e-01,4.721355553668471483e-01,4.168277475502319418e-01,-1.415468372248133164e-03,-2.981258479199062460e-03,-2.422159318429533727e-03,5.374486744403839111e-02
4.596656137593096436e-01,3.729232456157792197e-01,5.178261633904771566e-01,1.236138408784868449e-02,5.670932843683689807e-03,-2.551642680671808647e-03,1.285546422004699707e-01
4.123138257248272209e-01,2.893697445456192008e-01,4.635758920225104274e-01,1.435282214525239464e-02,4.559450922067060340e-03,-1.917838615815672595e-02,1.607147157192230225e-01
5.089467314948540322e-01,4.186259309219846347e-01,5.543674426162344959e-01,4.915573691927534877e-02,-1.362624405115815500e-02,1.085404315457028090e-02,1.499421149492263794e-01
4.128149631224538041e-01,4.073320839225798573e-01,4.824012496518340631e-01,2.967569922981210320e-03,3.783477071753935193e-03,-4.086914213407717147e-04,7.296376675367355347e-02
5.071947735136790314e-01,2.956175282209206889e-01,4.892735703669436331e-01,-2.252832129827805896e-02,-1.761774852468811492e-02,-3.204563253473963896e-02,2.163998186588287354e-01
3.090691316598707106e-01,4.648624663097263854e-01,4.639451745978595554e-01,9.858868451885056949e-03,1.141146148946751461e-02,-1.912560011297733883e-02,1.609631031751632690e-01
3.800069005830928881e-01,4.285464677793093258e-01,5.044273325980695999e-01,1.929320600119097465e-02,-4.145922551563576731e-03,4.287886776318294672e-03,1.141079589724540710e-01
4.229645593632396228e-01,4.575796011314138823e-01,3.843504966380024146e-01,4.463524074971017552e-02,-4.775558488448617550e-02,2.118608409086277650e-02,1.348744779825210571e-01
4.227075637699646005e-01,3.601289976722963360e-01,4.773754323628204288e-01,1.574389729805554874e-02,2.173461565269708268e-02,-1.107478693192524150e-02,1.133773922920227051e-01
3.760612562467335884e-01,5.608040418478565936e-01,5.875058076935113505e-01,1.442713924459684549e-01,-7.227835098298646122e-02,5.445215476145085637e-02,3.560703992843627930e-01
3.246818543508573351e-01,4.219603557143135619e-01,4.495678123381325886e-01,1.084528175681674644e-02,-9.654957132616569021e-04,1.215312544799778370e-02,1.170881837606430054e-01
3.692081727668484747e-01,4.243958378320059621e-01,4.678329988472220702e-01,2.479910290513129625e-02,-1.557729792476534366e-03,1.077491278778897402e-02,9.762286394834518433e-02
2.786207438409264991e-01,4.854627873097412394e-01,5.190406757979871832e-01,2.333015067285490116e-02,1.152683995805684619e-02,-5.339106343272873381e-03,2.301595807075500488e-01
4.072120949458819528e-01,3.873025923021249373e-01,4.749022994939776643e-01,7.496260592147635862e-03,1.098817052717400780e-02,-5.981301705294103134e-03,8.345153927803039551e-02
3.917977401629045842e-01,4.541284267389535390e-01,4.846581314242995320e-01,9.410783780351143768e-03,4.443469487905633668e-03,-1.055690495771760377e-02,8.590332418680191040e-02
3.707675624138271342e-01,4.099258527941559982e-01,4.610349471933115062e-01,1.225283445793654349e-02,4.249726726941637639e-03,-1.134528647625797533e-02,8.389028161764144897e-02
2.065463137923447823e-01,6.440911041930165171e-01,7.631232518648360941e-01,7.038577210201776846e-02,-1.002808632192832422e-01,1.482103614810788977e-02,5.508050322532653809e-01
5.592738576135438677e-01,9.000683338645124598e-01,9.722995554541092877e-01,1.407071293392359312e-01,-4.053702133787878692e-02,3.768198608284677176e-02,4.632054269313812256e-01
4.182436826591713896e-01,3.804953295003800084e-01,4.629877789295084867e-01,1.706964755245793733e-02,-1.240978385275209525e-02,4.748611876081823210e-03,8.074504882097244263e-02
3.050157697895412023e-01,5.043470024290577225e-01,5.059646015648169293e-01,6.430187394421542704e-03,-2.052989595745153065e-02,1.129845987363556001e-02,2.045224457979202271e-01
3.074153943965488578e-01,4.317782218957857410e-01,4.719800882999128921e-01,2.565708850679006281e-02,2.497093759308555410e-03,-2.906756430477110045e-03,1.552444249391555786e-01
1.555494140397487568e-01,6.503994520328134632e-01,9.194284166868773589e-01,-2.770302700416455918e-02,-9.250898431928789023e-02,-3.713834775913912173e-02,6.946193575859069824e-01
8.324735073946858410e-01,5.091566077434629412e-01,6.822610960735173702e-01,-1.581108588463057407e-01,-8.940457632062089044e-02,-1.806215297730010827e-01,5.247670412063598633e-01
4.173520935849606706e-01,4.198268214176402724e-01,4.653765154810916016e-01,-1.545993841625531917e-03,-1.470548077438820237e-03,-5.016494063801571479e-03,4.777839779853820801e-02
4.495585460519598842e-01,3.851584733818980699e-01,4.870545282470785109e-01,-8.652491917686350523e-03,-1.007033683437846133e-02,-6.394294173369095141e-03,9.284155815839767456e-02
7.006030326939933772e-01,6.340479813022013023e-01,7.537298684945464844e-01,-1.618072096560729811e-01,-7.012539154635948069e-02,-1.383292317125445203e-01,4.018585085868835449e-01
4.318363698153795394e-01,4.270865365221040433e-01,4.293684563805281740e-01,-4.389116575968569911e-03,-6.693722034209586592e-03,-6.814789505235888632e-03,1.866719499230384827e-02
4.304559646489281577e-01,4.353086544814133152e-01,4.219719597482153861e-01,-5.635558240555425986e-03,-1.877465046660718728e-03,-3.352904863741422437e-03,1.662155985832214355e-02
4.274155040427979335e-01,4.147315428096990386e-01,4.337339289161621370e-01,-2.335510638995215958e-03,-8.344566625540250984e-03,-1.339151712784531932e-03,2.261829376220703125e-02
3.494617102848405765e-01,4.901678308077555002e-01,5.256707568285419185e-01,-1.194992495847467529e-02,3.592858751414759830e-03,7.455568230932419112e-03,1.633647233247756958e-01
4.121078998247220126e-01,4.593378823358835183e-01,4.277841757071753070e-01,-4.291468763612342301e-03,-3.532698718640236643e-03,-8.195028667140715969e-03,4.505765438079833984e-02
-1.833773604363180820e-01,4.551994720199526445e-01,5.078797770916189114e-01,-5.128164372300044599e-02,-3.556316704236932302e-02,9.849081149656298620e-03,6.754040718078613281e-01
5.135790809625225828e-01,8.775096038255285613e-01,6.898285169634078562e-01,-6.638376507402840576e-02,-1.823348145218918470e-01,-4.659462892242264426e-02,4.678015410900115967e-01
3.720203935968237063e-01,6.513044089257694624e-01,6.322543471698943707e-01,-4.918601095963383296e-02,-4.524170708436769939e-02,-1.323465785315987991e-02,2.948996126651763916e-01
3.451785873900680701e-01,4.790160161580533371e-01,5.073103622585258821e-01,-1.081499270751654779e-02,-1.794505706031468764e-02,-1.538583149770217200e-02,1.566110104322433472e-01
4.404600145284238710e-01,4.222843005016957973e-01,4.187554739443069551e-01,5.306084410667530338e-03,-1.054136236734037110e-03,2.275647031819681438e-03,2.258940041065216064e-02
4.385193625115769711e-01,4.412947173548206758e-01,4.308917978802912496e-01,8.300501112572352541e-03,7.234890700785560338e-04,1.880693526502545459e-03,1.749079301953315735e-02
3.784499715511699947e-01,4.175413321945756207e-01,4.534204985025466761e-01,-9.281299818559038059e-03,-7.273149277378166896e-03,-1.417252550110906749e-02,7.237209379673004150e-02
4.287758605631628028e-02,1.723981167380808643e-01,4.391760700067017797e-01,-2.455511694939102874e-01,-1.045116133197682290e-01,-2.710872674672875834e-02,5.816855430603027344e-01
4.285246864048423698e-01,4.003735518826487816e-01,5.013258782968764704e-01,-3.639989043409955216e-02,-3.115428173539737736e-02,-3.682326169069666255e-02,1.381897926330566406e-01
2.665875022073228573e-01,3.277186506834368629e-01,4.591620287001345613e-01,-1.249620360289537407e-01,-1.364502433562902323e-02,-1.495625269249237568e-02,2.777153551578521729e-01
4.239963420603878319e-01,4.312509996427220105e-01,4.281177659685043158e-01,-3.607805950543211543e-02,-4.875339515513892746e-02,-2.489110641873537588e-02,1.137276515364646912e-01
3.808331643549560663e-01,3.456793848641165900e-01,4.270682077020222511e-01,-1.628514059250224522e-02,-1.346858812214522805e-02,-6.737530772043074691e-03,8.046622574329376221e-02
4.410408532781017188e-01,3.858922638718697007e-01,4.041635651609220559e-01,2.182788575023575026e-02,1.944133188711737528e-02,-2.620801240604327814e-02,8.361469209194183350e-02
4.341290592308543195e-01,4.677114006887392872e-01,4.115810792721675826e-01,1.261052223756148685e-02,1.760794360016947752e-02,-2.000244304117223398e-02,7.071694731712341309e-02
4.908129658758934588e-01,4.337852188181514079e-01,3.340573220556204981e-01,2.161585739917177597e-03,7.458283970510087672e-03,-5.285461691172170517e-02,1.656707674264907837e-01
7.497872507864087321e-01,4.704712303308018484e-01,3.436073205608400905e-01,1.322312643244747364e-02,7.462600720090876993e-02,-2.760424049253181189e-01,6.126801371574401855e-01
6.711418142203597892e-01,4.393014748094371535e-01,5.741840832275267870e-01,1.299950213904730451e-02,-6.069428537311655214e-03,-1.148510149153158105e-01,2.843620479106903076e-01
4.818713912253825282e-01,3.487552795908785974e-01,4.803177939248936545e-01,7.652639071858047433e-03,8.400702878887460548e-03,-1.012610901152450303e-02,1.349463611841201782e-01
4.752894977475005112e-01,2.772353412360115121e-01,4.548546948917245869e-01,-2.710147899957287415e-02,-8.222576237424096546e-03,-6.961428190297920190e-03,1.953139007091522217e-01
3.968942435051325268e-01,4.049062283704813470e-01,4.671653146515667432e-01,3.183196436006073549e-02,1.329788001686677164e-02,-1.517134249907181945e-02,9.327398240566253662e-02
4.803848888392185934e-01,4.095621635078043887e-01,4.403638910014739394e-01,4.605921800154500617e-03,7.618172205484952282e-03,-7.884609109272638569e-03,6.486444920301437378e-02
3.885136643645045740e-01,3.675812098487901691e-01,3.393622792159103341e-01,-5.596556456973752341e-02,6.880358584971248137e-02,9.197533030699796275e-02,2.253925055265426636e-01
4.246657885082328332e-01,4.257169601155658678e-01,4.133054893410231245e-01,-1.019161652563322848e-02,3.572809871859282827e-03,3.507087244899730581e-03,2.299791388213634491e-02
3.557377081949514852e-01,3.253969246481719368e-01,3.970495821413783655e-01,-2.702454558238433571e-02,3.006181035213957228e-02,1.723748730286059350e-02,9.835739433765411377e-02
4.558788365080351235e-01,4.276045504823162702e-01,4.379795610319772159e-01,-1.852264154680352895e-02,2.226271914479288627e-02,1.581319921139965820e-02,6.229006871581077576e-02
4.493451531689212630e-01,4.251479843652034019e-01,4.124205618759179126e-01,-1.259680548259562057e-02,4.575841870778758758e-03,4.968754119032721753e-03,4.084577038884162903e-02
5.339230749757178929e-01,6.029118213407963500e-01,5.649328624365461682e-01,-6.087495764537796672e-02,1.082089447654294018e-01,6.415666951289068776e-02,2.493487000465393066e-01
5.091131097936169025e-01,5.869280362369716508e-01,3.316694830514841930e-01,1.725964610944505373e-02,-1.297279454445694480e-01,-7.064439661272146898e-03,3.207500576972961426e-01
3.853757442164734148e-01,4.730184830133342677e-01,3.938679582530967282e-01,1.381816690968460141e-04,9.956167013869771792e-03,-1.954618077297539010e-03,8.554519712924957275e-02
5.967570046678936091e-01,3.076684493600117531e-01,6.103107681113428828e-01,-5.650107971641064181e-02,-2.915763028679408276e-03,1.831536916335730139e-02,3.135013878345489502e-01
4.017907279488495131e-01,3.954993945392050181e-01,4.719967282013036169e-01,-7.487069197839191920e-03,1.438937323223519506e-03,2.907864384206276191e-03,7.489926367998123169e-02
3.905473171989433112e-01,4.032104457063803160e-01,4.417885959434361687e-01,-2.946336720249453922e-02,-2.548606962233298731e-02,-2.556050756879358135e-02,9.300567954778671265e-02
2.700910034529098169e-01,5.424332334925796584e-01,5.877945701083365782e-01,-1.565124438328603651e-01,-8.199330909591982797e-02,-7.817736705170022504e-02,4.478548765182495117e-01
4.046374666887428972e-01,2.379274650414782144e-01,2.199820517206893256e-01,-1.487736874919171406e-02,2.688493409948005883e-02,1.130516156279854495e-01,2.688500583171844482e-01
3.942364964920865855e-01,4.265890285281492833e-01,4.919825965490183250e-01,-7.173479436874840090e-03,-3.588104598498730122e-03,-4.676443026567800657e-03,8.773402869701385498e-02
4.153796800606460726e-01,3.703894856872159691e-01,4.904041051117343231e-01,-1.864071182146249950e-02,-2.287036557113000367e-03,4.048012725920603280e-03,1.101609021425247192e-01
5.311816565815695723e-01,4.326531289615193621e-01,3.687061849553076032e-01,8.448579513435648669e-02,5.037569772040274840e-02,-1.275688616238837558e-01,3.129629492759704590e-01
4.835338178093851469e-01,4.234744502674648858e-01,4.076181938313645503e-01,-1.185567144916104855e-02,-3.408708001401287817e-03,-7.727276435275328738e-03,7.380058616399765015e-02
4.801912633991117785e-01,3.393871186500299619e-01,5.204792110979898911e-01,-1.027057717962435134e-02,-8.025138391183546946e-04,3.561172440446330051e-04,1.656514555215835571e-01
4.351963482433366392e-01,4.161211867087264427e-01,3.821154275262451661e-01,-1.291262467559542784e-02,-4.467114482630082928e-03,-7.648732734082879653e-03,5.389342457056045532e-02
4.244678722327424603e-01,4.407771150621069278e-01,3.893210982330436165e-01,-1.554272224674724430e-02,-5.694275033403094904e-03,-4.560811851463560801e-03,5.439586564898490906e-02
2.889097648306367394e-01,4.476624820729164234e-01,4.643107871771221529e-01,-6.205953454360105953e-02,-2.307492836327243793e-02,-1.273172528180078165e-02,2.043535113334655762e-01
4.176121014257059838e-01,4.627993329566578162e-01,3.697373525093115010e-01,-1.123464802463011551e-02,-1.067856138149734201e-02,-4.679928934938242142e-03,8.534434437751770020e-02
4.637960666719591063e-01,4.683160170973449388e-01,2.761997146716534401e-01,-1.602546543331642009e-02,-1.802542755210366845e-02,-1.935960437245876423e-02,1.973076909780502319e-01
9.120461316318643208e-01,7.724307278624066297e-01,6.740909838537607612e-01,-1.160951182471655213e-01,-9.075626487876152504e-02,-2.144259969312634906e-01,4.959564208984375000e-01
4.057228580472375112e-01,4.384744226151622848e-01,4.514704442309019350e-01,-2.372047241990307524e-03,6.311510309303698316e-03,1.183301053097401273e-02,4.715556651353836060e-02
1.481938935049654793e-01,3.666027795156485136e-01,4.146180657346590914e-01,-6.643562603540567602e-02,-1.912759217363548328e-02,-8.678275731693177453e-03,2.739698588848114014e-01
3.758011935891643063e-01,1.329386157824797021e-01,3.694413373700841663e-01,-7.624645179034277021e-02,5.802211852217063759e-02,7.054204648569918634e-02,3.161438107490539551e-01
5.874494053428267470e-01,4.328804588842536938e-01,6.403943673584885365e-01,-2.032106864758831677e-01,8.659413508771919912e-03,5.918284358958313118e-02,4.116975963115692139e-01
4.788274575654126730e-01,4.342508092926862240e-01,4.084425026605192355e-01,-8.972068986087969669e-03,3.299850758327094267e-03,4.151836367903992756e-03,6.426093727350234985e-02
4.832195406278628758e-01,4.301566331823311051e-01,4.083667322283943690e-01,-8.951377047012556987e-03,2.247899493665540989e-03,5.143699900614512495e-03,6.914926320314407349e-02
4.006738676848427549e-01,4.378565675504075272e-01,4.981541015109729464e-01,-2.881060738793592840e-02,2.225060073017777213e-03,1.724492482089274963e-03,9.886505454778671265e-02
4.304338131839122727e-01,4.571292467858543707e-01,3.498934357183431931e-01,-1.661037535866083728e-02,8.240853674356002703e-03,6.125991056592725199e-03,1.024377420544624329e-01
3.961453871190892539e-01,4.127396526087930284e-01,4.517656020251265558e-01,-4.755968180479716416e-03,6.219112924977308887e-03,9.418029766364473254e-03,5.381439253687858582e-02
4.152381508293774282e-01,4.126036080373869375e-01,4.764135448071218359e-01,-2.167265910855967290e-03,2.655917085314248114e-03,2.333394000657220725e-03,6.294541805982589722e-02
4.718419031054575941e-01,4.406192684826997774e-01,4.269788071633194848e-01,-1.190209060548210775e-02,1.260320059093640414e-02,2.053091464032347560e-02,6.126061454415321350e-02
4.670683193336597205e-01,3.878889422110312069e-01,3.788743238544206582e-01,-1.133540715313050050e-03,8.493673113826954134e-04,1.235428779517722467e-02,8.676585555076599121e-02
2.875548022604502152e-01,5.319667474521504458e-01,5.015132054157080965e-01,-1.474018004394425374e-01,1.133651055595834151e-01,1.798280587762234040e-01,5.039569735527038574e-01
4.482222455011281581e-01,3.671483541467570610e-01,3.616822160596945279e-01,-9.412927957799608475e-03,8.932720352506697339e-03,2.562674758228190852e-02,9.757763892412185669e-02
4.970863953975105942e-01,4.586338450554112156e-01,3.857462086068704221e-01,-9.314698563844179408e-03,3.606587702175558224e-03,8.763247018312160866e-03,1.006161943078041077e-01
3.900449206944667235e-01,4.777826615109298514e-01,4.179527802060246655e-01,-1.107497888005817659e-02,2.835705630481104647e-02,6.762705147242693664e-03,9.458183497190475464e-02
-1.643300554732177177e-01,2.336271646673148406e-01,3.562973549886813140e-01,1.961195867166865558e-01,6.707701292011741812e-02,-2.935153184630376767e-03,5.925773382186889648e-01
5.995056022866693812e-01,9.884117050747656119e-01,7.798881452244552648e-01,2.230726535899441379e-02,1.873862160328174653e-01,-1.747281060172570233e-02,4.705140590667724609e-01
3.881811116710587317e-01,5.298828878782062546e-01,4.661496887829891245e-01,3.986906066151186222e-03,1.063716623722502433e-02,1.007918279455166048e-03,1.245005577802658081e-01
2.117317952112006130e-01,4.313252763808906876e-01,3.237913333876031863e-01,-1.011205062530681417e-02,1.087766909262448539e-01,2.460996306702451300e-02,2.716466784477233887e-01
3.695813299525999573e-01,8.337384726052640138e-01,8.733021830085606618e-01,6.708884664070269288e-02,3.339538717973724452e-02,2.651153673323017844e-03,5.022355318069458008e-01
4.342476608793061632e-01,8.416968596910711087e-01,9.213476822319741633e-01,-7.555982360935946385e-02,3.915879966722565775e-02,1.734068150529088567e-02,4.769098162651062012e-01
3.082442848533178958e-01,5.268038019695160390e-01,5.422943089851098852e-01,-4.919659033784933022e-03,4.506019536176675104e-03,-2.302560065072601324e-03,2.270313650369644165e-01
5.888269707110979079e-01,6.132962177671273940e-01,4.699159797890888335e-01,-5.858922312565294915e-02,7.806544984125882158e-02,1.093536250877667482e-01,2.865372896194458008e-01
4.643396815102101005e-01,5.081553877386387752e-01,3.892092403230781872e-01,8.145162732356324084e-03,-1.288099594734845588e-02,9.038433817599014763e-03,1.086193546652793884e-01
4.506602554452702192e-01,3.874563259140649807e-01,4.567099660927304017e-01,6.125590208445727894e-03,1.618591169501630914e-02,-5.366928078356510493e-03,7.347539067268371582e-02
5.202244489256032667e-01,4.491500225685980396e-01,4.007575481115460136e-01,2.522268698629999591e-03,8.148687326881370874e-03,-1.691190126041590067e-02,1.091292798519134521e-01
4.604100510290113357e-01,4.312585172596293259e-01,4.285914025917424985e-01,5.569763423376372299e-03,2.195003337680906733e-03,-2.007208073022953045e-03,3.246973082423210144e-02
4.229115580995665979e-01,3.632006115180080874e-01,-7.472671568212763127e-02,6.468132757301119085e-02,1.329038026971775255e-01,-1.343464064833361227e-01,5.841087102890014648e-01
4.320105026018253858e-01,4.250544798542897906e-01,4.302121090527267211e-01,4.542154610608595440e-03,3.862033939710619174e-03,-3.755375400054600157e-03,1.371345203369855881e-02
4.342181204959398855e-01,4.092296815076711392e-01,4.268419932400418504e-01,3.330494634171569240e-03,7.646750710245690287e-03,-3.264123690296506872e-03,2.711401693522930145e-02
4.373245654793960768e-01,4.141155408528635062e-01,4.177926644405953738e-01,8.440669517986706949e-03,8.809003649024441107e-03,-7.999772656287588990e-03,3.324691206216812134e-02
4.498284067041092293e-01,4.106766300540745651e-01,4.133205129483887852e-01,2.865656290138564061e-03,2.177893715925059877e-03,1.025438649156523935e-03,3.844943642616271973e-02
4.311324619140218251e-01,4.491850830521076365e-01,4.468786160912895933e-01,3.052449322247890312e-03,2.545733546802065976e-03,-5.741093833503700151e-03,2.087712287902832031e-02
4.987340241025431942e-01,4.755352508023077962e-01,2.431082208435741965e-01,6.510039381839992367e-03,1.663868509193441175e-02,-5.270433953716406605e-02,2.631415128707885742e-01
4.894329263568188426e-01,4.681241227142949324e-01,3.146336056633103340e-01,1.784048705165443283e-02,1.774093700189164832e-02,-1.103738363006245490e-02,1.718972027301788330e-01
8.679616251739735722e-01,5.814205296645176269e-01,6.357459558287514856e-01,4.178822505049241583e-04,-1.018441609995699576e-02,2.327554143597356795e-01,4.820036590099334717e-01
4.845480688904674760e-01,4.490504546852905343e-01,3.591165322764958145e-01,2.823332468179513832e-03,-1.602476907059209891e-03,1.263199773642557228e-02,1.142407581210136414e-01
5.045092415413792164e-01,4.679793971936779262e-01,3.134536739139471839e-01,2.053331102650266665e-02,9.880938415240103287e-03,-2.870860961581742782e-02,1.867825835943222046e-01
5.618285220169836336e-01,3.630617643140124917e-01,5.367048357704384820e-01,8.976154620794787181e-03,-9.312255193635456813e-03,2.536948467795485662e-02,1.938514113426208496e-01
4.830172909174170748e-01,3.805581818185478915e-01,4.534163504841322578e-01,4.928316912441046624e-03,-1.570287120183161758e-02,7.284237613284671141e-03,9.650380909442901611e-02
4.662499503460479366e-01,3.977281167803983775e-01,4.130355995114796119e-01,4.420251021447099346e-03,-8.016887922684191523e-03,4.136160491223175688e-03,6.467932462692260742e-02
4.500497084236163015e-01,3.974797896946445364e-01,3.982718539766130772e-01,2.498603467738755562e-03,-9.313140007010356838e-03,7.353851367766416937e-03,5.624726787209510803e-02
4.855739131006401310e-01,4.280898474516117713e-01,3.749392196880396155e-01,1.728662078062094890e-02,-4.055951200199667088e-03,1.779253113435657827e-02,1.052628979086875916e-01
4.173195451617082163e-01,3.852473904507683899e-01,4.244679759788752005e-01,-7.376854937953362945e-03,-9.924282645223405502e-03,-6.054861355192592276e-03,4.333244636654853821e-02
4.275668528395978329e-01,3.955264665081708042e-01,4.478813258872190728e-01,-1.103654503677790367e-02,-1.976519579561707499e-02,-2.454744006556455922e-03,6.037905067205429077e-02
4.166490848055856566e-01,3.813057161560107211e-01,4.534594730721789313e-01,-1.629764541501176056e-02,-1.026128676002621871e-02,-1.397207604076012265e-02,7.485679537057876587e-02
5.341032669588808846e-01,5.069680664421437610e-01,5.628540489492702692e-01,-1.243728532520712166e-01,-9.057137047180621736e-02,-8.675507557273598458e-02,3.097381889820098877e-01
9.693601014709509744e-01,5.196815746333531827e-01,9.262627088184262059e-01,-6.324812178883697233e-02,-2.572625596564054491e-03,3.259196245934473796e-02,4.470970034599304199e-01
8.152774315177335751e-01,4.429143412589950368e-01,8.229070883853959462e-01,1.223568187549543829e-01,2.926001372067597514e-02,-7.398221386947889666e-02,4.532721042633056641e-01
5.443914617101611730e-01,3.750133728252372789e-01,5.525303497199813840e-01,-4.927899392277212270e-02,6.106843108615293174e-05,9.250448835154710669e-03,1.941023170948028564e-01
4.184359689651540593e-01,3.110323278771769950e-01,4.673916487517300600e-01,-2.628898669288431619e-02,-1.138400885178749398e-02,-6.964149409919136169e-03,1.476408988237380981e-01
4.537318728057684325e-01,2.383680861794441608e-01,4.714511952364840441e-01,-2.998906960483520984e-02,7.599257956461860121e-03,4.420131411731333809e-03,2.311742305755615234e-01
4.549907144498610001e-01,4.238983271236335115e-01,5.146281987262791846e-01,3.078201811902780971e-02,-9.101634832547519580e-03,6.952740795069599355e-03,9.804987162351608276e-02
5.182352771100706690e-01,3.156525891209907564e-01,5.358304370627827717e-01,2.010629171321927020e-02,-3.748052463136307064e-03,6.534732690197702504e-03,2.151670306921005249e-01
4.786359476752385933e-01,3.579821112841531927e-01,4.410483740569659528e-01,6.562685559535976106e-03,-1.552546934804110990e-02,1.003717174235690436e-02,1.122036129236221313e-01
4.971720545967844296e-01,3.637882343439070021e-01,4.389373302084691453e-01,-1.790714152457672896e-03,1.031381644963625527e-03,9.814962999209697614e-03,1.171186044812202454e-01
4.028694015082717739e-01,3.096064431144025519e-01,3.538094439609978381e-01,2.630821407073913321e-02,-3.028808961309179329e-02,5.045740034811169866e-02,1.378248929977416992e-01
4.577915031868047269e-01,3.783869935849293875e-01,3.732470167319072996e-01,1.082235565243452012e-02,-1.433067435547839656e-02,2.259589709610807309e-02,9.611883759498596191e-02
3.737779650791340780e-01,3.776886425246499535e-01,4.304073947019544932e-01,2.014735636817097802e-02,-1.255942954976682624e-02,1.189676314147147286e-02,7.152825593948364258e-02
4.841901590502306618e-01,4.168318160476093270e-01,4.086533712066551804e-01,2.903404663269299347e-03,-1.618860147665973376e-03,2.028491929392590119e-03,7.211390882730484009e-02
4.747572136344053173e-01,3.917725348362790516e-01,3.967519372284307178e-01,1.489305263649901945e-04,-1.758637988428760675e-03,7.677550997516153879e-03,8.175706118345260620e-02
4.807482604312405261e-01,4.087244793628744266e-01,4.112688012298024165e-01,1.538705392804693740e-03,-1.308813485578525773e-03,2.449176446519690537e-03,7.099918276071548462e-02
3.341118118700284190e-01,3.994357245990606819e-01,5.172760970927020585e-01,-5.061109456297509246e-02,-4.566781834571244370e-03,7.168481366539247940e-04,1.833028048276901245e-01
4.704200916720075454e-01,3.669909461712316245e-01,4.780983550599547938e-01,-1.616339989236665817e-02,-1.988334444600355425e-02,-5.798900739511001975e-03,1.167107149958610535e-01
3.792870572915359451e-01,2.605811329711191782e-01,7.458844807011095757e-01,-1.928263492199418505e-01,1.255989584851311680e-01,5.163872556353837906e-02,5.990601181983947754e-01
5.111327537532213139e-01,3.036502964226726609e-01,5.222441548353096152e-01,-1.544793005006865443e-02,-6.035674271635897356e-03,-1.847255500024469650e-03,2.152052372694015503e-01
4.890627709330807038e-01,3.496143581457539229e-01,4.815295225200936224e-01,-1.708603527985572135e-02,1.470687759370131742e-02,1.260001408775489329e-02,1.430142223834991455e-01
3.325842716924127251e-01,-2.967370982452295913e-01,3.489115581912318742e-01,-5.705279358231860748e-02,3.821371443773344083e-03,-3.582465209608681755e-02,6.482639908790588379e-01
3.965110266818129281e-01,3.852981055370974794e-01,4.373052696494814651e-01,-3.208430553071411201e-02,2.605747350687547675e-02,2.391739348734993331e-02,9.533431380987167358e-02
4.160486804736976407e-01,3.711136979882175835e-01,4.323480332364155188e-01,-1.351765582505032141e-02,2.406051186564745620e-02,9.286697223211570762e-03,7.457122206687927246e-02
4.437910168917337805e-01,3.793839609209557762e-01,4.964408986133340140e-01,-1.181612989738282590e-02,1.495253382151450622e-02,8.105579954403611606e-03,1.076940149068832397e-01
3.483567861332017568e-01,5.241843286971820115e-01,5.055907639440687662e-01,-2.135735447855151639e-02,8.961453425999223177e-03,7.394121904872021089e-03,1.725257486104965210e-01
4.150151087349779333e-01,3.856341838099417996e-01,4.338636966037325848e-01,-1.362109582349611478e-02,1.922574950224350751e-02,6.042187830687407828e-03,5.955931544303894043e-02
4.468854957113886917e-01,4.150565150999114272e-01,4.347779143439044480e-01,-5.842607229004600534e-04,1.171641533195634521e-02,3.976424853443573729e-03,3.513671457767486572e-02
3.019010991701898128e-01,4.556190809929069885e-01,4.550279958009803005e-01,-1.044600229375600674e-02,-6.940041366978291597e-03,-1.033179385194133229e-02,1.559833139181137085e-01
3.441057309207511405e-01,2.750756441274324060e-01,5.277037898505285707e-01,-1.804180467876465577e-01,5.174853318741309827e-02,5.207240357781810908e-02,4.061619639396667480e-01
3.186603517203408509e-01,4.726787564449324019e-01,4.347397970541818646e-01,-8.571635777048678198e-03,-2.331172689356053596e-02,-1.911086425988156243e-02,1.492117345333099365e-01
4.094548679536872404e-01,5.614140366295878870e-01,5.303116443818005621e-01,-1.137739313667483904e-01,-9.247258550712661451e-02,-7.104124256342897459e-02,3.145795464515686035e-01
4.237619681054859977e-01,4.647620431604859714e-01,4.215415519378377662e-01,-8.836568199746631935e-03,-7.151084404749931747e-03,-2.863004642741098348e-03,4.678924009203910828e-02
8.672724646412682814e-01,6.960196309101893686e-01,5.239407265855340334e-01,-4.724734054021762636e-02,-5.693327855641785312e-02,-2.407230867377233297e-01,5.278935432434082031e-01
4.629799969755742373e-01,4.306284196828688571e-01,4.533387149925914295e-01,-1.870641459530722819e-02,-1.693823881254034186e-02,-1.338227536386696684e-02,5.723133683204650879e-02
5.127496355212494139e-01,3.839225152387897855e-01,4.100863339458096224e-01,-2.107892710656176019e-02,-2.539560803808795300e-03,-7.504928366708905896e-02,1.793317049741744995e-01
4.438007869331094257e-01,3.850432072225294933e-01,3.357471138873481253e-01,-1.884839819460973689e-02,-1.119003354139836218e-02,-1.618548581183890112e-02,1.049115061759948730e-01
2.785733744910692811e-01,3.369505971785556886e-01,4.082771867102665819e-01,-1.186824265266480938e-01,-1.117399629957900320e-01,-7.429357980284140295e-02,3.300482630729675293e-01
5.134330676999534493e-01,4.275395319284751583e-01,4.183358342311096489e-01,8.053493757375873932e-03,-4.254224977404756983e-03,-5.055090028747176445e-02,1.271534413099288940e-01
4.143715086675779924e-01,3.538418730537498114e-01,4.044918550394712153e-01,-1.399146021219196262e-02,-1.823668134214372072e-02,-1.182189704099559716e-02,7.188683003187179565e-02
5.102039374261103655e-01,4.743109967177963071e-01,3.333260523949084231e-01,-5.092009710192284093e-03,-1.108884121150596584e-03,-1.364298322126592834e-02,1.639063507318496704e-01
4.155933786401135865e-01,4.477612605198745266e-01,3.881213757308050183e-01,-1.439896935771659350e-02,-6.307621881099964925e-03,-7.255708684899789263e-03,5.977026745676994324e-02
4.259218992642588852e-01,4.683540653399405063e-01,3.892023578886822932e-01,-1.414430160385607080e-02,-2.263914562400924993e-02,-1.146747235119716275e-02,8.508341759443283081e-02
4.291865922221105301e-01,4.274338718504077095e-01,3.389978750735850865e-01,-2.241757983010508881e-02,-1.623599488384479261e-02,-1.506327924980701595e-02,1.046812981367111206e-01
4.025759085833776618e-01,4.052592835272416649e-01,4.004413112553756315e-01,8.038148383137789024e-03,9.482217635540792985e-03,-8.070265335893160585e-03,2.600856311619281769e-02
6.693155110581181511e-01,5.801748698015577466e-01,1.137625394313147575e-01,-4.761302401561211262e-02,-1.205897987756567730e-02,-2.367667032123300375e-01,6.651883125305175781e-01
4.416101674393335674e-01,4.305562014294380124e-01,4.133499630454936513e-01,1.159253932726616969e-02,2.259768765389473261e-03,-4.656395628934440790e-03,3.304494917392730713e-02
4.410976204121282995e-01,4.114804081195048702e-01,4.208190114949226790e-01,5.807860626166547191e-03,6.138547853314216436e-03,-3.200158060472570783e-03,3.054124116897583008e-02
4.977944732743747047e-01,4.361846713295166600e-01,4.407497751646730633e-01,9.031324520607404704e-03,6.803616329003595378e-03,-1.164464668112279166e-02,6.577011942863464355e-02
4.226473327101161193e-01,4.413249939821376477e-01,4.233460914299320699e-01,1.174479586811166446e-04,-1.317100182346949908e-03,-3.852847340275539038e-03,1.964869163930416107e-02
4.351277156049508377e-01,4.592093055976111393e-01,4.291716862491625206e-01,-1.921480815686771749e-03,-1.652599248489126666e-03,-2.421337002220906587e-03,2.820790745317935944e-02
4.101386708341414056e-01,4.587220139930682783e-01,4.105631676659362017e-01,-7.332652122586679790e-03,-1.236811683543045763e-02,-1.140005008475969590e-02,5.787914618849754333e-02
4.316513074073425882e-01,4.657397450569605302e-01,4.051067349327213130e-01,-1.231619119429941227e-02,-3.813946114108684657e-03,-6.192572544208416532e-03,5.818287655711174011e-02
4.035170834716092503e-01,4.524768179637244647e-01,4.095752501202258311e-01,-1.943205196106576223e-03,-5.011987270596949227e-03,-8.714637880302220779e-03,4.951437935233116150e-02
4.132124563057472666e-01,4.291770405016031575e-01,4.369127437904455347e-01,-2.582955468872476495e-03,-3.130843965502426614e-03,-1.051098922211704881e-02,2.861940860748291016e-02
3.809916431071072029e-01,4.320417577803337683e-01,4.128959236300589475e-01,-6.606178359500393740e-03,-1.299845780723798624e-02,-1.443695452037379277e-02,5.708206072449684143e-02
5.752809071810118802e-01,5.283310383478473371e-01,3.591632852022820788e-01,-2.274217157174230827e-02,-2.072462004799240781e-02,-3.982173592500237724e-02,2.153180986642837524e-01
4.597929416793301027e-01,4.073910947499925217e-01,3.566134075774485268e-01,-4.619172338278450252e-02,-2.940200131522792068e-02,-4.879946848790368136e-02,1.553183645009994507e-01
8.362244737698477648e-01,8.791677948559410982e-01,4.312087751274737424e-01,2.746819226261133437e-02,-1.141096391808273103e-01,2.795803427848680273e-02,4.763885438442230225e-01
9.931231205647056415e-01,9.089102163864479778e-01,6.188027078372326795e-01,-1.381173828389709035e-02,-2.971873635762455751e-02,-1.732509636377258522e-01,4.571154713630676270e-01
5.374360707644241231e-01,4.326829818047487342e-01,2.409515410576537064e-01,1.214384851045034394e-02,-3.678333424915039562e-02,-1.313108595630188002e-01,3.522040545940399170e-01
4.559192073593517081e-01,3.935435660090413901e-01,2.866883262477715744e-01,1.863063480834115885e-03,1.917361413754525672e-03,-2.842880299563280838e-02,1.562688648700714111e-01
8.302048829439874211e-01,6.655911260468155843e-01,5.138925018942531731e-01,7.410228658770571554e-03,8.127809412224094865e-03,-2.371586458884232251e-01,4.941431283950805664e-01
4.803937952058336958e-01,5.039959633656637683e-01,3.413483748151989738e-01,-1.021082413592000644e-02,6.351911907492928909e-03,1.671214649317880399e-02,1.563463360071182251e-01
4.766547366207014580e-01,4.656884076564939967e-01,2.255518562445636144e-01,1.844753199703695178e-03,9.177456693846776543e-04,6.060197199959677095e-03,2.460531592369079590e-01
6.851431741910553042e-01,6.060604214942476586e-01,4.421416499796202992e-01,-2.405236214578734474e-02,1.017181958821617750e-02,-1.287197093847921581e-01,3.127920031547546387e-01
4.244124657042737114e-01,4.297572756485840140e-01,3.960232777020270545e-01,-1.599969198646022245e-02,-8.829649163680718463e-03,-7.866200206071894199e-03,4.662336036562919617e-02
4.367548387832960732e-01,3.375084206022646027e-01,4.636689641178644017e-01,-1.948573532011992765e-02,-1.854980224709638567e-02,-1.170162047750897445e-02,1.258074045181274414e-01
4.001014526169474617e-01,3.944554093642084758e-01,4.274367650226220117e-01,-1.008824177961448534e-02,-1.088782577714287811e-02,-1.043232506724590426e-02,4.382790997624397278e-02
4.151839783640298154e-01,3.173961336475346062e-01,4.109763585757956750e-01,-3.456046495504162819e-02,-2.922960543536586714e-02,-9.735569704377108197e-03,1.248977333307266235e-01
4.567025471387788915e-01,1.502569947482476909e-01,4.935356290281328606e-01,-6.136286814724383615e-02,-2.914472710599599198e-02,-6.303478041204575721e-02,3.637547194957733154e-01
4.052040637213675245e-01,4.132788954443958884e-01,4.493988964750333936e-01,-9.784929162182647022e-03,-3.812048076928462037e-03,-9.287498428165874217e-03,4.744599759578704834e-02
4.301561105124205864e-01,4.306805202564657487e-01,4.229760580418587823e-01,-6.063296447068847357e-03,-3.952960984871933293e-03,-2.268695381694794521e-03,1.510638184845447540e-02
3.811391346946076952e-01,4.576920621747327944e-01,4.426284989975192152e-01,-6.111546998729617056e-03,-7.407919143101908584e-03,-1.838229674298970731e-02,7.889558374881744385e-02
3.525379507736138840e-01,4.426130735881613210e-01,4.328084688432427551e-01,-1.034437407164204119e-02,-1.318786359898433368e-02,-2.429076063196608862e-02,9.969657659530639648e-02
4.079805493597548072e-01,4.449161930971765044e-01,4.029294161717323353e-01,-9.379104969318848364e-03,-3.811037755431507471e-03,-4.477057867804548272e-03,4.409001767635345459e-02
4.249068451026216109e-01,4.642188978053085613e-01,4.152706842563532175e-01,-2.003606511485764990e-02,-3.095892666862811241e-02,-1.894464777605904537e-02,8.469655364751815796e-02
4.166158328578645209e-01,5.558060746698719745e-01,5.026976223453339943e-01,-1.817511340552238272e-02,-1.100719238662640487e-01,-2.703045902294231098e-02,2.330937087535858154e-01
4.873367977564107556e-01,4.163055735528375378e-01,5.198267383036521139e-01,1.212795537906637550e-01,-2.610948848629418562e-02,6.493964478119587658e-02,2.592905759811401367e-01
4.299665510820221970e-01,4.954228185343179658e-01,4.907833872462163960e-01,4.282819343602593115e-02,-2.496989963920906094e-02,3.929460970840276124e-02,1.265220046043395996e-01
4.702707864923185155e-01,4.895379890482182139e-01,3.867899143346413826e-01,2.267032447423683941e-02,-3.347499996921369375e-02,1.568838655042715732e-02,1.207917928695678711e-01
9.596762270997289956e-01,8.122167177650804204e-01,7.095734800884506699e-01,6.201293156558741748e-02,-1.113681019951832246e-01,1.914066023927483706e-01,4.539498984813690186e-01
4.829624287821149276e-01,4.800544330195384291e-01,3.531957980431670308e-01,1.153940625072726565e-02,-8.868122609211690627e-03,8.676573284967625810e-03,1.316500157117843628e-01
4.695382012613102951e-01,4.487386675825184579e-01,4.202707077559534321e-01,1.558015679013847327e-02,-1.383232633963690957e-02,2.116802752469061633e-02,6.694509088993072510e-02
5.241263331095655786e-01,4.158018328372184436e-01,4.536107872069893299e-01,1.240664372094347568e-03,-2.434095861062001050e-03,2.695386434923566221e-02,1.061602681875228882e-01
4.365344946013422489e-01,4.485830358960851139e-01,3.996399250077691256e-01,1.354729747460481012e-02,-7.900312169392548212e-03,3.770784884252520713e-03,5.226271599531173706e-02
3.632218473951228099e-01,2.265189259725934878e-01,5.021101795963541781e-01,1.850916145719486705e-01,-1.838729584000604877e-01,1.849446761364283709e-01,6.031436324119567871e-01
4.052591230935341793e-01,4.639464017230180981e-01,3.954720148203189622e-01,-7.139328425360799875e-03,-8.923778319779923293e-03,-5.154233780204475063e-03,6.771907210350036621e-02
4.310594667400395874e-01,4.684269021409099842e-01,4.333782783853614706e-01,-6.718948188318467352e-03,-5.272749613894110211e-03,-7.649784881861278196e-03,4.134549573063850403e-02
4.056499745285516156e-01,4.526700686363837045e-01,4.162055646048329338e-01,-3.904541239281330949e-03,-2.946209024176911322e-03,-8.855390427485081498e-03,4.618458077311515808e-02
4.032183803886454920e-01,4.675277523512346711e-01,3.895601456568021370e-01,-4.359981318162540337e-03,-7.164000495155543533e-03,-9.321002180692405589e-03,7.531424611806869507e-02
4.224264770369584032e-01,4.644395960942910295e-01,4.331075997698838886e-01,-1.191408422490096257e-02,-2.109541551682035665e-02,-9.775086101604407718e-03,5.897443741559982300e-02
4.065438804778195303e-01,4.550438410382134369e-01,4.059773935782923227e-01,-7.808010063644200797e-03,-7.852178586258156193e-03,-5.572920674977330409e-03,5.330177396535873413e-02
3.938616557782975702e-01,4.739205111541671678e-01,4.063173084060436313e-01,-5.573374066454205716e-03,-8.826590413354718986e-03,-1.133935757492957573e-02,7.924667000770568848e-02
1.739509376688339048e-01,9.144386435001763958e-02,-2.266840250421356950e-01,7.014928016776710018e-02,-2.282753476666878334e-01,2.577084967569483465e-01,7.103472948074340820e-01
7.285243941686128100e-01,2.054169646226243207e-01,5.615230124480030671e-01,5.604226945432998208e-02,-5.876681832062460864e-02,8.103178972990335294e-02,5.036392211914062500e-01
3.251011357188715589e-01,4.015520302470450553e-01,-5.961814903721218695e-02,3.279331005962127926e-02,-1.511044089624898612e-01,5.341491148119199145e-02,5.133703351020812988e-01
4.619774795458154726e-01,3.833161963463942445e-01,3.782409583232373418e-01,1.036071720413833316e-02,-8.081982248325351309e-03,1.697651837328423979e-02,8.941574394702911377e-02
3.289658238968305448e-01,-3.111324957954945125e-01,5.638137385290171305e-02,5.809132264137522456e-02,-7.147380981177807457e-02,2.535481459943433324e-01,7.265374064445495605e-01
4.724681234255843076e-01,3.832279068604710903e-01,3.835364398368561467e-01,4.200162626275613306e-03,7.329563094944482925e-04,2.071524027808957155e-02,9.632381796836853027e-02
6.140146630970104713e-01,1.652237490107198448e-01,6.649789962280863165e-01,-9.025012121090542766e-03,4.159998869395949150e-02,1.560431122063635212e-01,5.526005625724792480e-01
3.825001862212953907e-01,4.818456138743426598e-01,4.179026509414990875e-01,1.427741625585799258e-03,-9.047069166548528038e-03,2.209643630207347963e-03,8.872478455305099487e-02
4.744013501614202655e-01,5.083844460978991231e-01,3.151287577530471617e-01,4.142013803294272191e-03,-9.524122082940827266e-03,2.854584255520883820e-03,1.796753406524658203e-01
4.253808627043600410e-01,4.866837202142288987e-01,3.908586175833280163e-01,3.433030911744059700e-03,-9.708299328780697207e-03,1.612775260062931145e-03,8.597704023122787476e-02
3.193295123417879688e-01,5.082433955200307274e-01,3.779923117700179636e-01,2.611560537813376482e-03,-6.565087243390718696e-02,9.688461766527092442e-03,2.031741440296173096e-01
4.368765469091658304e-01,4.447019453408425083e-01,3.701774071005302646e-01,1.781113928221036632e-02,-7.330601116189956919e-03,9.552976577455530791e-03,8.011654764413833618e-02
4.438451514885776716e-01,4.321066682833861750e-01,4.403838439881038180e-01,1.149677242228806968e-02,-1.147849556261912665e-02,9.691117409064460217e-03,3.439026325941085815e-02
4.231805599194628509e-01,5.175695473408763458e-01,4.926393170237752805e-01,5.097847525119031387e-02,-5.657611826255048992e-02,3.839754296820362817e-02,1.702931523323059082e-01
3.925294574958849703e-01,4.413623133642888829e-01,3.842136041395417534e-01,1.815061306445023975e-02,-2.194464706494093573e-02,1.530901709316024803e-02,7.743398845195770264e-02
4.994151862913932538e-01,4.044884479078096340e-01,5.608180042317303382e-01,-4.844618782665310180e-02,5.022819910609142326e-03,-8.693578147462212996e-03,1.611014604568481445e-01
3.200760582984689684e-01,4.559826648955320194e-01,4.323572720678617309e-01,-6.522852451614762938e-03,-2.662481236466873388e-02,-2.014698614627064011e-02,1.388881057500839233e-01
2.153748768061917729e-01,4.532826892558158849e-01,4.456361573927969388e-01,2.960200055470672484e-02,-4.550591684919603336e-02,1.227049548945648681e-02,2.532435953617095947e-01
2.841740623727340154e-01,4.882799730116516024e-01,5.254103037939323873e-01,1.669696063019835558e-02,-4.473943021264231018e-03,1.225648513680348967e-02,2.279549986124038696e-01
5.277618456377377587e-01,4.649807940133742767e-01,3.528360631568527306e-01,1.679812784369645248e-02,1.010524949360440405e-02,-5.446917679634186854e-02,1.833358108997344971e-01
3.043550744404265318e-01,5.659478046475373558e-01,6.100648986031955712e-01,2.526843169848738344e-02,2.698476434647757716e-02,3.220627177893529286e-02,2.985456883907318115e-01
2.755322235625967120e-01,8.318818462217051346e-01,7.360585549407520078e-01,3.555819392588831229e-02,-1.113807610844305407e-01,1.364625805063544514e-02,5.540438294410705566e-01
2.279715459917604214e-01,4.610694409555785023e-01,4.411612959768487219e-01,8.584282137041694336e-03,-4.776378186748475585e-02,2.057953287978719816e-03,2.390989959239959717e-01
3.081561750744081229e-01,4.889364638914585059e-01,4.655020734176669173e-01,-4.590213574900197865e-04,-7.277311117715704221e-03,-1.920368624571375726e-03,1.707769930362701416e-01
3.414040470797758964e-01,7.234089937496313016e-01,6.229845370869917520e-01,5.612278376357785620e-02,-1.954010743145059015e-01,-5.576810645015176787e-02,5.009735226631164551e-01
5.345216535584532691e-01,4.932117691960208328e-01,4.346059759149972224e-01,-3.939802233846517732e-02,-5.581120950449469653e-02,-6.444486780959561567e-02,1.844528466463088989e-01
3.678757755786012384e-01,4.361688183819732445e-01,3.115339707922337720e-01,-6.895725361029605982e-02,-2.096219986375370270e-01,-1.848179874777322318e-01,5.101456642150878906e-01
4.422340781551524214e-01,4.172035349630850987e-01,4.845853547243095805e-01,-2.310695176029444603e-02,-1.603111935229126206e-02,-6.120915921924868254e-03,7.723610103130340576e-02
6.329540787471820140e-01,2.939731141655642088e-01,4.845749465188919358e-01,-1.733395319135405677e-01,-4.048896094227069642e-02,-1.452630241062437266e-01,4.949632883071899414e-01
3.890779299532978741e-01,4.376513999312120484e-01,3.876810057929849784e-01,-1.230587745921450128e-02,-1.147918996058746796e-02,-8.162978107663178273e-03,5.898058041930198669e-02
4.908508963665856872e-01,3.861092908817429503e-01,4.112234335908793170e-01,1.248167835545880427e-02,7.250110251503114056e-03,-3.570636222733011150e-02,1.158487424254417419e-01
4.833881923964978844e-01,5.052688789221283505e-01,3.385154233257343104e-01,-1.545643834672700070e-02,-9.748144797208535550e-03,-8.754782240866352053e-03,1.608369350433349609e-01
3.771911188527433123e-01,2.881922906460748224e-01,3.794284572651609455e-01,-2.207563899468829860e-01,-1.004209237134165156e-01,-1.410425829835488531e-01,4.942238330841064453e-01
4.648943224169824195e-01,3.537878934514663842e-01,4.788965103407635815e-01,-1.383738087307287423e-02,-1.710185637222187000e-02,-8.230385719553114793e-03,1.255049407482147217e-01
4.469442725804922967e-01,2.965666518255212214e-01,4.100473498404196282e-01,1.656936208874446731e-02,1.849904268987986183e-02,-2.751326901896148508e-02,1.501584351062774658e-01
4.201848448151354054e-01,4.024081535706633406e-01,4.392783703148767094e-01,5.147575373255482666e-03,1.206428521515350016e-02,-6.095595853229687083e-03,4.059058427810668945e-02
4.546431441466241563e-01,3.938639040407219682e-01,4.245345272558018190e-01,3.479070089772650157e-03,1.509549396145676813e-02,-5.095618450424489916e-03,5.973688513040542603e-02
4.805812283291230891e-01,3.912635121089174661e-01,5.346042961792849546e-01,5.333209766337344143e-02,2.480731912160038383e-02,-2.555047501625634654e-02,1.675081849098205566e-01
4.608444407378354812e-01,4.130260521977407451e-01,4.107657221755701693e-01,1.133532133930449312e-02,1.253150659708318106e-02,-9.689807478274404390e-03,5.948154628276824951e-02
7.339870589554579050e-01,6.133258597402431178e-01,6.293690262926150414e-01,1.395519389055888959e-01,9.701757606170449688e-02,-1.781868150404971873e-01,4.413545131683349609e-01
7.008124734932921207e-01,5.552929564653691363e-01,5.766839819060467498e-01,-5.014307194241716947e-02,6.852754304542492403e-02,1.247822182062437446e-01,2.947262525558471680e-01
4.666385802564962937e-01,4.208108074395999765e-01,4.237875219346139422e-01,-9.244231603378163728e-03,6.134727452892679497e-03,3.229296508498421311e-04,4.839642718434333801e-02
4.620943838687827654e-01,4.143569304982328561e-01,2.270765168929728961e-01,9.098925095530140117e-03,7.787196812090675440e-04,8.594506151103820102e-02,2.621124982833862305e-01
5.150605917665791456e-01,3.932977604226477464e-01,5.409405100571706981e-01,-5.663956146848788537e-02,2.771439084061499969e-02,5.024542072172687862e-02,1.953186094760894775e-01
4.929251097020355132e-01,3.309850104695197248e-01,4.357632196889025811e-01,-1.583627832358486254e-02,1.317189706027491539e-02,5.651456310011497564e-02,1.763230562210083008e-01
4.814587388538221768e-01,4.578054300827050227e-01,4.281158843813372417e-01,-1.550915223903585362e-02,8.603992044914106699e-03,2.060266615789664579e-02,6.603257358074188232e-02
3.733524151277507475e-01,4.508213809589722842e-01,4.336939105530704941e-01,-2.397907515109668625e-02,2.082541718282028900e-02,1.615246724299806980e-02,9.368421882390975952e-02
2.726297065293263877e-01,2.855555019664157701e-01,3.814145242667835722e-01,-6.848508207069897713e-02,3.406314023141400471e-02,3.136152049204990466e-02,1.763440668582916260e-01
4.035442659357775241e-01,5.301232930687700406e-01,5.024874762708910758e-01,-2.138807979709572427e-01,2.111906613904616092e-01,2.291303127898543235e-02,5.346983671188354492e-01
3.171614325569854786e-01,6.870119157051211012e-01,5.860102394923033531e-01,9.861374656736296429e-03,1.672261121411202645e-01,7.868707101787734970e-02,4.608640074729919434e-01
4.395044280685191374e-01,4.992793041178409386e-01,3.523549797747342338e-01,-6.299824484553285392e-03,1.507808790657299593e-02,4.444973842186209292e-03,1.312927752733230591e-01
4.031418722115093778e-01,3.998247388982128503e-01,4.647704469978676256e-01,1.073826586137200355e-03,1.438035087031601812e-03,-2.614482616302613548e-03,6.358997523784637451e-02
1.302493317076661716e-01,1.939063291059069660e-01,3.779665434639003507e-01,2.376384428604436105e-01,8.169859963905450051e-02,-5.399953915258541570e-02,4.978303015232086182e-01
4.383134194323629607e-01,4.493969323894894674e-01,4.214826866458855625e-01,1.076118648166562129e-02,2.543603407786990123e-03,-1.129320647804770610e-03,3.103718347847461700e-02
3.655231111101708841e-01,4.886575632865157726e-01,4.401766175951232207e-01,6.487412101295191545e-03,9.100723285013840452e-03,-1.404076223580285818e-02,1.118435487151145935e-01
3.645248479899377836e-01,4.034418896641812635e-01,3.941738905753468525e-01,-2.467200196584022273e-02,-2.481066929782782191e-02,-2.218555011933606019e-02,7.993231713771820068e-02
4.394122502692066057e-01,4.433037097558256145e-01,4.589227164435374928e-01,-3.855501544407562327e-03,-6.377784281551948480e-03,-7.711166183097331768e-03,2.578540146350860596e-02
4.593843998827828456e-01,4.345795590109327033e-01,5.307989852687524657e-01,-3.007100886765086065e-02,-6.095831294069811376e-03,-4.764549121688264909e-04,1.015465706586837769e-01
3.754797169071428242e-01,4.417439315289478086e-01,4.837103476814983982e-01,-8.123506050792962674e-02,-7.087129984044975017e-02,-6.313966090332867598e-02,2.361323237419128418e-01
4.477410333325945735e-01,4.602845212994964852e-01,4.735903207889506916e-01,-1.457725020565826639e-02,-1.325021602133530027e-02,-1.606723768054503509e-02,4.939581081271171570e-02
3.994703863393248011e-01,4.320493633166485048e-01,4.965342177011350389e-01,-6.448071724963446577e-03,7.490846881457575122e-04,-6.288990259860785612e-04,8.630260825157165527e-02
5.069723961602529139e-01,3.140725821359091618e-01,5.333499633263599771e-01,-2.040590046495063814e-02,1.061835595145473043e-02,-8.306679581540951651e-03,2.116336375474929810e-01
4.363586674272592614e-01,4.126336321980477728e-01,4.818411619553250036e-01,-6.595470519636137917e-03,-8.445142598843526083e-03,-2.947856407769638802e-03,6.388380378484725952e-02
4.485424412538658312e-01,4.338247332434850834e-01,4.555354428504793662e-01,-9.581699199745403323e-03,-9.229608459964488629e-03,-1.176747720275978480e-02,3.626070171594619751e-02
4.022578823490550182e-01,3.970631768187335986e-01,4.627534985384104682e-01,-3.535074123728829728e-03,-1.975188518025854101e-03,-2.190882387519062311e-03,6.375386565923690796e-02
4.180728733299560740e-01,4.067380724746632592e-01,4.822256298005873076e-01,-6.820943658993570968e-03,-5.361242418049567190e-04,-3.475317058776690449e-03,7.174875587224960327e-02
4.104604864087244009e-01,4.048449237597554484e-01,4.585678119718020196e-01,7.029285983926819061e-03,-8.330143487887553197e-03,3.480739878425789195e-03,5.485209450125694275e-02
4.123101170474575694e-01,4.075095715250698913e-01,3.804826213711165472e-01,1.551621246642032395e-02,-6.395279943915517171e-03,8.327655924629449175e-03,4.400286823511123657e-02
4.344215282321685079e-01,4.138188229535255114e-01,4.155366431193643351e-01,1.164604734986878810e-02,-1.485793103913843338e-02,1.009251390114027092e-02,4.203299432992935181e-02
5.246472292837507378e-01,4.460303934437699902e-01,4.729705457304378413e-01,1.514349845911282071e-02,-1.591682112539747826e-02,2.769859423414318053e-02,9.240172058343887329e-02
7.743208425639789283e-01,7.128754404570663006e-01,4.066959443556971143e-01,1.091393175104949514e-01,-8.624807539589661454e-02,1.070926442515843652e-01,4.569371938705444336e-01
4.698478891961798132e-01,4.395495294925357288e-01,1.767615424011954595e-01,1.630329831038679692e-02,-4.925303948250046859e-02,5.310595833168967744e-02,3.073650300502777100e-01
5.612156201933667932e-01,1.838616392492842255e-01,5.311941344131242415e-01,5.033984116296864181e-02,-8.007257131497311567e-03,6.741188238124572185e-02,3.916584253311157227e-01
5.277832326593306922e-01,4.463861879569350766e-01,3.332751180702780980e-01,2.214350939735041518e-02,-2.384006655157753021e-02,7.919139865937808997e-02,2.249808460474014282e-01
1.001731944083254361e-01,3.028349623229594778e-01,1.275706847521795861e-01,-1.022200699753273156e-01,-2.417965765480118712e-01,-8.910631854719654188e-02,5.165591835975646973e-01
-3.064932834403372164e-03,3.568406853393844003e-01,1.482545050747114124e-01,1.976879085072308535e-03,-2.254910550362872468e-01,1.343107833106028590e-02,5.010593533515930176e-01
4.426520298188595381e-01,4.892990055626457724e-01,4.094802877839103794e-01,2.122978023896285663e-02,-2.627260272856313250e-02,1.979202672778403518e-02,9.706543385982513428e-02
5.452509084666812278e-01,5.262058839070313798e-01,5.485441946815371450e-01,8.428724538511399300e-02,-3.655789214589027364e-02,8.054013842085692987e-02,2.126473039388656616e-01
3.623878591842449315e-01,4.926994357354598231e-01,4.458833138887750569e-01,-2.347706787778209279e-04,-1.273453003331764810e-02,8.035449070049324044e-03,1.172712594270706177e-01
3.647844966366098896e-01,4.877310779473417179e-01,4.405394482010330237e-01,-9.221243995585605771e-03,-5.668518486375432111e-03,-7.738473863755464775e-03,1.098726764321327209e-01
3.752596055447124934e-01,4.908960622219611381e-01,4.233042012791821684e-01,-2.704776415282739068e-03,-1.091875575885951563e-02,-9.710493618727347731e-03,1.038597747683525085e-01
3.488837926137161038e-01,4.697453329458569637e-01,3.924507555329248554e-01,-8.066156901124062195e-03,-6.450500472090606174e-02,-1.808602773040829392e-02,1.577948331832885742e-01
4.258647743521553064e-01,4.674981708037825312e-01,4.764053435780728485e-01,-2.867943439028121377e-02,-2.195479856037061903e-02,-2.409458851681988215e-02,8.853660523891448975e-02
5.436024189131836160e-01,5.140303274973458958e-01,4.485535683505647020e-01,-1.894803234551734397e-02,-2.156326194325617479e-02,-2.956397498635047333e-02,1.104178056120872498e-01
3.511209185407270783e-01,5.209229823738944498e-01,4.618114695571142181e-01,-5.824882449026203349e-03,-2.123186547298794996e-02,-1.082433819825630653e-02,1.552266627550125122e-01
4.218334991749942420e-01,6.492760163163558973e-01,4.021813484716773579e-01,-2.226336568950229022e-01,-1.986729566180524542e-01,-9.008711234533743617e-02,5.899518132209777832e-01
4.269210367387594740e-01,4.353448764258780468e-01,5.639252790976984064e-01,-1.915562084481289007e-01,-1.166282815643945453e-01,-2.083496189126650411e-01,5.466292500495910645e-01
3.009869554273920111e-01,4.558497396871474816e-01,4.132995684462025254e-01,-1.979652294551085406e-02,-4.981550741234418850e-02,-2.113583863994824771e-02,1.707752645015716553e-01
2.385970644524229300e-01,4.280820094253321995e-01,9.054450694893106943e-02,-1.903705374334486305e-02,-2.032592430215211798e-01,-4.236355849139102764e-02,4.650720655918121338e-01
4.253872011251008667e-01,3.982614267481324744e-01,4.023033874140794497e-01,-3.203960578673933478e-03,-5.070014248628474003e-03,-4.063694352377671820e-03,2.828348986804485321e-02
4.299659298694037401e-01,4.162175243373459899e-01,4.124992301233865177e-01,-2.751675906283148221e-03,-6.706822809827033861e-04,3.380331094639609825e-03,1.767227984964847565e-02
4.604375480166268408e-01,4.332996691361675756e-01,4.310319775085274530e-01,-2.904975965767637915e-03,-3.675283351146092781e-03,1.624416488210568909e-05,2.947859838604927063e-02
4.595773857292287934e-01,4.430928331150186250e-01,4.288097098858320022e-01,-1.011881498026108266e-02,-4.673192230513613030e-03,-2.805423419308283872e-03,3.327908739447593689e-02
4.365109029412629349e-01,4.370052516493892480e-01,4.116199428723115172e-01,-1.670354033742982650e-02,-1.711222633775507165e-02,-1.240970934029329148e-02,5.300586298108100891e-02
4.219200604045347802e-01,4.310261893442731695e-01,4.296648006045395984e-01,-1.981701782128795705e-02,-1.629411523406219461e-02,-1.506716493805943143e-02,5.223096162080764771e-02
4.557323777194755010e-01,4.207389897979670335e-01,2.001788424914811848e-01,1.194757354263665215e-02,1.570394265632545083e-02,-3.580054621270969961e-02,2.502050697803497314e-01
4.432464710007778530e-01,4.290412402623245969e-01,4.319636625828592313e-01,-2.590015647064464275e-03,-4.311448198476972547e-03,1.974847761884396778e-03,1.601267606019973755e-02
4.158233555130061987e-01,4.018275165673867999e-01,4.722739405519383871e-01,-7.230689590516032987e-03,7.186278150195151392e-03,2.997626604485844823e-03,6.716664880514144897e-02
4.302109311311821949e-01,4.131018740832511082e-01,4.709024432374914748e-01,-3.631479723400426757e-03,-9.613491044634806318e-03,-3.423231378280841217e-03,5.474201589822769165e-02
4.670072324083434645e-01,3.252753473064897149e-01,4.967482462798657461e-01,-1.178073008746518581e-02,-3.162944824905214013e-03,-1.719557898968364189e-03,1.601341515779495239e-01
1.567893591066947812e-01,1.173953790030473343e-01,4.156345391358743369e-01,-3.044109368373927871e-01,-4.737688147035144098e-02,2.568596743224477522e-02,6.045334935188293457e-01
4.677540324808739935e-01,3.460377554384352905e-01,4.928339804884137032e-01,-2.827297595411741235e-02,4.630808684199549594e-03,5.473324254755711216e-03,1.450819820165634155e-01
5.198286544751093974e-01,3.594633624131178262e-01,4.733689186809397764e-01,-1.093411879915546711e-02,1.050031482893721635e-03,-2.999003810494704769e-02,1.532487720251083374e-01
4.259208691129485747e-01,3.936564497016862840e-01,4.849722233774089175e-01,-6.518139354064352541e-03,4.077397625487833369e-03,1.785761652676802220e-03,8.136469870805740356e-02
5.042851150883602696e-01,3.569227635595997317e-01,6.026359862083564556e-01,-6.657804310306031370e-02,-6.450672011798634295e-03,-2.062458955835850746e-02,2.461313307285308838e-01
6.900157564611461014e-01,6.837957929385392042e-01,5.527741288749370430e-01,-1.232033489042932417e-01,9.120733406681791333e-02,1.531813563938425882e-01,3.986319303512573242e-01
5.111826801140972876e-01,4.918129001392500532e-01,2.912943543640795774e-01,6.624950767351490619e-03,8.706414593483124617e-03,-1.878542135892466783e-02,2.142069786787033081e-01
4.230195679552458676e-01,4.824959531244954469e-01,3.772813289582127028e-01,-9.171362548487493882e-03,6.016709511938249030e-03,5.848849376661685064e-03,9.387940913438796997e-02
4.879498219852741459e-01,4.472127458918318532e-01,3.044400699040019087e-01,-3.152418838681213947e-02,5.544511534255109481e-02,7.982728242947979835e-02,2.432707995176315308e-01
4.790075895537851958e-01,5.191452433613348294e-01,3.755569888893118824e-01,-4.382024598406024374e-03,4.888962688474365187e-02,1.417147949394557439e-02,1.558717638254165649e-01
3.005940835759552954e-01,6.152156284095147143e-01,5.085254429139839383e-01,-2.300633686429548463e-01,-1.270373309797717953e-01,-7.217053495061653834e-02,5.473857522010803223e-01
3.961509886138003811e-01,4.342491201201511553e-01,2.772490934702047660e-01,-1.355763451607815834e-02,-3.017129659984750176e-02,-8.122537878532922612e-03,1.536207795143127441e-01
4.117070808306049212e-01,4.656196557857813501e-01,2.911788248758115372e-01,-5.743988000754734168e-03,-3.146821595719492132e-02,-2.176227551660377731e-03,1.643640697002410889e-01
2.801526515389807792e-01,4.474056041669067230e-01,3.412910602060073573e-01,4.560597593727826237e-04,-6.791707832149684876e-02,7.737044434858902572e-03,1.884257793426513672e-01
3.088308702643203785e-01,4.896713307692462935e-01,5.131927422280562201e-01,-5.120619848265840768e-02,-7.821287214189218129e-03,6.257529057684211096e-03,2.137226313352584839e-01
4.224438929573140489e-01,4.940043847760662854e-01,3.923104046086534069e-01,-2.650948567309729768e-03,-6.912022028574655967e-03,1.195484523696190059e-03,9.140019863843917847e-02
4.864870863792575828e-01,4.411359877619266401e-01,4.639538993596198369e-01,-1.094050660637919253e-02,-1.645366204384561201e-02,-1.573989007677879456e-02,5.879665911197662354e-02
4.070468111311627002e-01,6.355324286071448725e-01,5.322398794139960865e-01,-4.374494231623232005e-02,-1.050156063882847352e-01,8.387176978401906027e-03,2.798408269882202148e-01
5.134500903453649290e-01,4.651837727958149094e-01,2.744172881814658238e-01,-4.315136926110396502e-03,-4.208229034422496240e-02,-1.218271618037432419e-01,3.127671182155609131e-01
3.683351958914283242e-01,4.846778704279122163e-01,4.851315868697061440e-01,-5.548822655718850007e-03,8.454736365812129742e-03,1.216891181490154308e-02,1.197483763098716736e-01
3.374821657891120541e-01,4.810917605105117234e-01,4.887420452003509164e-01,-1.600468910710210746e-01,1.382384562074316647e-01,1.900450196695736282e-01,5.141078233718872070e-01
4.566665040577622126e-03,4.284708151633623840e-01,4.554011283208636018e-01,-1.665816361915457844e-01,-8.980496743750057340e-03,9.016015169031383128e-03,5.249475836753845215e-01
3.162737716978449853e-01,4.762597307578719241e-01,4.223647566025207079e-01,-4.727007873368313517e-03,3.002102394881674824e-02,4.284128828604454910e-03,1.506771892309188843e-01
3.514350875574392408e-01,4.369830832012047694e-01,4.656590377059516839e-01,-1.034355580092762711e-02,6.082862314022590561e-03,1.550354349096426214e-02,1.083835363388061523e-01
5.649436300845998016e-01,1.028918350145365368e+00,1.037855913402921271e+00,4.874533824116633607e-02,9.095401908277310488e-02,-3.794772008889884390e-02,5.057326555252075195e-01
3.547488163272944361e-01,5.263604754910747863e-01,4.849001529153239010e-01,8.505409393826422748e-02,-7.126998110149769527e-02,3.911939852277066670e-02,2.560981214046478271e-01
2.340898558627150516e-01,2.429412358186322785e-01,4.265647150921466624e-01,-1.257683172740171051e-01,8.704927498022612189e-03,1.467976243370836507e-02,2.893925905227661133e-01
4.898745558527383692e-01,3.062190783989988119e-01,4.378554265355064090e-01,3.457564464814954098e-03,-1.193969125035458483e-02,2.941592842596994425e-02,1.730351150035858154e-01
4.305623432231380776e-01,4.416904174789035853e-01,5.036814564860265797e-01,-2.810698954227556015e-02,-2.143961476296261243e-02,-2.558760244865546443e-02,1.018318235874176025e-01
4.266854841599656556e-01,3.812564188270295418e-01,4.435321497648352929e-01,-1.750205105260245475e-02,-1.641132132030037952e-02,-1.121570243221848076e-02,7.223070412874221802e-02
6.809400279258718269e-01,4.359075577903944732e-01,6.890177194934008487e-01,-6.374034874258988070e-02,-5.299953018079753449e-03,-3.932971547212413960e-02,2.810670733451843262e-01
6.098268398208033236e-01,5.039106212583638333e-01,7.275153294951695049e-01,-1.126797765578565341e-01,-9.366491385573487427e-03,-1.465470328695365164e-02,2.766434848308563232e-01
4.397226633704119925e-01,3.719935155768202550e-01,4.445065323204858143e-01,-7.877607911667770801e-03,-1.892665017599494404e-02,-1.003911676146217874e-02,8.060587197542190552e-02
6.591829887760765061e-01,2.453678199717079789e-01,5.726436253993205661e-01,-2.453058204507264223e-02,6.038869821588036674e-02,-1.533861186348585148e-01,4.756556451320648193e-01
7.034115383315117098e-01,6.666584601119841524e-01,6.271668075461601655e-01,-8.125072330516437680e-02,-6.810779389526340488e-02,-1.126331000555299555e-01,2.759375274181365967e-01
4.353276568779769762e-01,3.419837112889703157e-01,4.286464791615387515e-01,-3.888782958373732807e-02,-1.959747165829874363e-02,-3.689959998906367639e-02,1.338200122117996216e-01
5.234240959057541165e-01,1.874019162198202471e-01,5.645562701550386198e-01,-5.014269010728174270e-02,-2.537914815009065933e-03,-7.081080654529313401e-02,3.886242210865020752e-01
4.196197828416169395e-01,4.325445047468663984e-01,4.955021233341199705e-01,-1.013670112961409867e-02,-5.537730972974633410e-03,-6.750981655704541527e-03,7.403650879859924316e-02
3.011730661574935075e-01,4.038309524178649856e-01,4.525460625277876181e-01,1.300053154336986219e-02,6.178307003513169859e-03,-1.755694324463871704e-03,1.361748725175857544e-01
4.320692060150881364e-01,3.725379053848941746e-01,4.847679412055051484e-01,3.622214063618250934e-02,1.260930570133773259e-03,-2.113518240435798001e-03,1.158130317926406860e-01
5.729702266459412163e-01,8.017309429959142975e-01,8.968244044471176402e-01,2.073849796334005791e-01,9.361797849095784829e-02,-3.072302627975084105e-02,4.912007451057434082e-01
3.865230930018385136e-01,3.392392707302545052e-01,4.520134804061418654e-01,1.734270468090525277e-02,-6.380395638968033509e-03,6.125004781822407027e-03,1.037225648760795593e-01
4.245115602788002152e-01,4.869399973067235488e-01,4.028360822939224262e-01,-5.907266881605938852e-03,2.119069113012938751e-03,1.452887216095282872e-03,7.645124942064285278e-02
3.366783344805182043e-01,4.348657466947609129e-01,3.833708574654797752e-01,5.490513959845362731e-03,1.638817067235502287e-02,-1.237422766350024586e-02,9.269228577613830566e-02
4.518068243333682177e-01,4.940123053124393371e-01,4.074245607928828061e-01,1.260767935565399595e-02,2.783857715878875275e-02,-7.387427763225689475e-03,9.268119931221008301e-02
4.777968180783826457e-01,1.874643025896065573e-01,4.641700216286724912e-01,3.308571308059254923e-02,1.884912474271334751e-03,4.845061671897631615e-03,2.896332740783691406e-01
-2.022162217036257981e-01,1.999841480325592613e-01,-1.699877291515141525e-02,1.474461760226555285e-01,3.113412713273047139e-01,-1.118956673407626445e-01,7.177460193634033203e-01
5.394832623873166977e-01,3.742489960816556827e-01,4.756219967920116143e-01,-7.569821179928132304e-03,-1.313500655368386076e-03,6.204762993210150013e-02,1.804310381412506104e-01
6.144463900232688403e-01,6.314936071217797098e-01,5.117548201223259818e-01,4.478333401931874902e-02,1.074750129769786594e-01,-8.217708487720315480e-02,2.711369991302490234e-01
4.736879228506457595e-01,3.828495092900707220e-01,5.112859321205462937e-01,-5.396563547244975084e-02,9.359155203367025555e-03,7.413036318995906530e-03,1.491478532552719116e-01
4.211119188552173709e-01,3.979389278712732181e-01,4.884618397222699748e-01,-3.972938246771606265e-03,-2.268143779870754155e-03,-7.223965548380491351e-04,8.184161782264709473e-02
4.313470231225466356e-01,3.635306541914673506e-01,4.723021819900712903e-01,-9.541068039155021011e-03,-1.392444788846860897e-02,-5.915890646213054459e-03,1.000678539276123047e-01
3.654947676535347800e-01,4.109432145094077948e-01,4.895166047677558252e-01,-1.705664733406897851e-02,-3.383075133885872585e-03,9.554170985058172902e-04,1.127840355038642883e-01
2.868606763642343460e-01,4.302014691854688655e-01,4.677868974164124394e-01,-4.328357867103968526e-02,2.656143661110890730e-02,8.013248716779521746e-03,1.878199726343154907e-01
3.796216792972970655e-01,4.253886966407322001e-01,4.900906556647005030e-01,-1.823174185215488755e-02,-3.842616646851685584e-03,-1.462155267868462359e-02,1.045228913426399231e-01
2.446579492515430498e-01,1.577900095541437953e-01,3.275182904209653634e-01,-1.122889312437955339e-01,-5.822648163634454310e-02,-6.753733724695802632e-02,2.886018753051757812e-01
4.660278160287161242e-01,2.517628374477065556e-01,4.591943441672794446e-01,2.963961402362413899e-02,-9.423290647222620081e-03,4.645898536594191691e-02,2.320974618196487427e-01
4.246814056519305769e-01,4.613028338721008592e-01,5.293986706878832660e-01,-2.691493807341734448e-02,-1.429377801444559493e-03,-2.172478757865586516e-03,1.032737568020820618e-01
4.522103680143101379e-01,3.648582940999613999e-01,4.027350494278866821e-01,-4.859426554223931528e-03,1.446501372166724211e-02,1.234056822946136452e-02,8.313748240470886230e-02
6.438620414411011517e-01,3.409765988922751623e-01,6.041841971030014191e-01,-3.277792043053184834e-02,1.018794434056294676e-02,4.849298760128074870e-02,3.031259775161743164e-01
5.008901912849029747e-01,4.451150120194098947e-01,4.231287802283972277e-01,-6.037751418615436294e-02,-5.631085811315618417e-02,-1.203685031619529111e-01,2.621742784976959229e-01
4.651829023114278372e-01,2.907759768043337578e-01,4.672876455782421501e-01,-1.175678984827832618e-02,1.258820343268663919e-02,1.614568029301422999e-02,1.801704466342926025e-01
4.361388654006151944e-01,2.856546342005684691e-01,3.959986875107088800e-01,1.915147380255344256e-02,-2.371753576522822940e-02,2.983286422630823317e-02,1.538641452789306641e-01
4.611375851372831458e-01,3.865165378999230739e-01,4.515926222536124079e-01,-1.093094915761624354e-02,1.424661983011870324e-02,1.086844781756167444e-02,7.917623966932296753e-02
4.764124060901528956e-01,4.742933341561771932e-01,4.225440948526728580e-01,-2.086830166405821349e-02,-2.713088595178783646e-02,-3.422394101582687531e-02,9.909935295581817627e-02
4.438833406500394818e-01,4.749751190951287394e-01,3.669962251284371035e-01,1.556707600647386225e-02,-1.318049929309312272e-02,6.504719818861491587e-03,1.031697466969490051e-01
3.699457981311561894e-01,4.911950380346407075e-01,4.263364985422070097e-01,1.160655000526858308e-03,-2.330477512700102408e-02,6.974461605723070168e-03,1.132398694753646851e-01
4.242779614048498571e-01,4.561008529375308318e-01,3.282398383775400053e-01,-1.192924991224105294e-02,-2.156449329658493078e-02,-6.103506008214163586e-03,1.233936399221420288e-01
4.075623773404589700e-01,4.601224214814243485e-01,2.834784017810427770e-01,-6.740141748116764558e-03,-3.167042175070454435e-02,-4.298351303887526856e-03,1.669790744781494141e-01
4.451919456160981503e-01,4.290857797985415112e-01,4.354196751958087641e-01,1.876758905881137970e-03,2.930797547713177072e-03,-1.628447549915244461e-04,1.529467198997735977e-02
7.509585030578525000e-01,2.034741564749163456e-01,6.521359165502990107e-01,-1.483160571620938117e-01,2.933504386270886777e-02,-7.025943223124780923e-02,5.820523500442504883e-01
2.580170611386800039e-01,5.123388347672984677e-01,5.064929862100016056e-01,-1.208743411009692917e-02,-6.773552045698613038e-04,-2.338516149069000752e-03,2.523551285266876221e-01
4.131887126574688152e-01,4.021196205352131625e-01,4.783887117508136000e-01,-6.806277412626736065e-03,-7.454768376439286498e-03,-2.778936962461340306e-03,7.364872097969055176e-02
3.478137066773487884e-01,3.945562044186064488e-01,4.665514511475093995e-01,-1.889536857433005146e-02,-1.111804925538448577e-02,-1.251939873754150286e-02,1.124524697661399841e-01
4.028469698488902906e-01,3.745486415541904868e-01,4.937735816674697631e-01,-8.178401796288577164e-02,4.474941163638368989e-03,-5.756441923791515668e-03,1.785129606723785400e-01
4.208157859987778915e-01,4.132478371720757493e-01,4.750516338964562157e-01,-3.156919663961221291e-03,2.379358045749454392e-03,1.628866245163067663e-03,5.885658040642738342e-02
3.126345601636320026e-01,4.908056834422507286e-01,4.384378472705845464e-01,-8.956956004438876642e-03,4.399553074997014646e-02,5.032947971073085947e-03,1.768626421689987183e-01
2.248703632664342533e-01,5.267592488830746822e-01,5.520014651528082350e-01,-2.879912874472454962e-02,-1.147141878730832155e-02,2.281990053769079874e-02,3.222415447235107422e-01
4.151148395817272352e-01,4.454161544061702727e-01,5.096506093586695707e-01,-3.069636739369053721e-02,-4.876376262742349553e-03,5.344145608066706160e-03,9.987212717533111572e-02
4.362924126398465829e-01,4.277261509948295792e-01,4.215596768963091878e-01,-4.882182090518204579e-03,2.060930510761692369e-03,1.818246230940390867e-03,1.607474312186241150e-02
5.033175393004009068e-01,6.740767683084960549e-01,6.386414519626206765e-01,-8.458872226256147764e-02,8.908163918679251614e-02,3.277013155694989688e-02,2.699212431907653809e-01
5.065746129031281075e-01,3.648057081694934256e-01,4.398384700443913053e-01,-3.248740419695817340e-04,-2.665698227849036712e-03,-9.901387252517275528e-03,1.241240203380584717e-01
4.110010862555406042e-01,4.928215584851335929e-01,3.561037006290763696e-01,2.504356514496765621e-04,-2.030451657829640891e-02,2.583012044718852301e-04,1.242467314004898071e-01
5.403225380191575278e-01,4.325902836801134854e-01,4.398965632485225541e-01,6.856546966655984246e-03,-1.320548160153274878e-02,-6.040988994393721445e-02,1.499491631984710693e-01
4.915480647623683974e-01,3.034717173882368058e-01,4.993407539919386684e-01,-1.684160773533485700e-02,-1.837459499513740754e-02,-1.472491528484332936e-02,1.985278874635696411e-01
4.393680888225538483e-01,2.027267043211396225e-01,4.389825382127585107e-01,-5.335512061612237428e-02,-1.554799534536669033e-02,-3.625894309173177676e-02,2.629024982452392578e-01
5.065465096108008325e-01,4.138523572296882724e-01,4.149988571515500491e-01,-5.317012046173001487e-03,-1.346757946547376406e-02,-3.631780187775178470e-02,1.143378019332885742e-01
4.035033344398367694e-01,4.258694361958169639e-01,4.286972555943254215e-01,3.362895357222495801e-03,-3.812846012471107857e-03,8.414764160988937383e-03,2.935049682855606079e-02
4.259421020052849838e-01,4.149465159943135362e-01,4.433847372967750222e-01,3.261475865868177296e-03,-9.355731552812733900e-03,5.126203903860781542e-03,3.146863728761672974e-02
4.292431111240833097e-01,4.148865699051496048e-01,4.142322349737081466e-01,9.969105972784299968e-04,-4.038772434651393371e-03,4.037198647687658478e-04,1.638102345168590546e-02
4.438145577157486255e-01,4.196815975793234399e-01,4.217181259637037272e-01,3.201008801621940247e-03,-4.993385539495145964e-03,7.359276774423162632e-04,2.538829669356346130e-02
4.439153047629391113e-01,4.086081127440288063e-01,3.997870205374249863e-01,1.031776382534326832e-02,-3.611019894320037765e-03,8.983736693357540631e-03,4.729130119085311890e-02
4.402835956091512570e-01,4.332981534974048587e-01,4.176217939907123644e-01,1.055449850573819508e-02,-4.955878053337542215e-03,4.171029938435706456e-03,2.939588204026222229e-02
4.864927309858039228e-01,3.907295542565654145e-01,5.242358154423473193e-01,4.981612445631138780e-02,-7.547643769701358786e-03,2.914798741160418843e-02,1.561223268508911133e-01
4.590104557720579570e-01,3.713348045763015248e-01,4.654774896578380283e-01,1.524018574752419863e-02,-2.068412956752976872e-02,1.970222043388423355e-02,1.069610491394996643e-01
4.062369216600001387e-01,4.515259310379142743e-01,4.027135080633890141e-01,1.187975916266888372e-02,-1.501093749727278916e-02,1.320188510253967641e-02,6.201064959168434143e-02
4.601801747473499016e-01,3.704139039595596983e-01,5.034541639612912789e-01,-1.594065393678043355e-02,-2.680375033439506621e-04,3.708901740795099433e-04,1.207398325204849243e-01
4.279486485062122259e-01,4.541043815932267469e-01,3.791597323632922567e-01,-1.733361056371649986e-02,1.010892375031706772e-02,8.482832547263716161e-03,7.592363655567169189e-02
4.533695349579217604e-01,4.222021872835675094e-01,4.187871449774068777e-01,-4.239173738530259417e-02,3.477011574523753562e-02,5.428150164027351066e-02,1.376481354236602783e-01
3.571803210706283038e-01,4.897873705551739620e-01,4.519591036882277257e-01,-3.405062317812991568e-02,4.647518451138327178e-02,1.451195965979776292e-02,1.568096578121185303e-01
4.555579667581911574e-01,2.313514634939330683e-01,4.852978940137557817e-01,-6.518790774076273220e-02,5.422763187028249374e-04,4.409205858295735074e-03,2.657602429389953613e-01
4.850388841087912017e-01,4.245015900262416597e-01,5.431814104470901183e-01,-1.796255278811256517e-01,7.483586838068381764e-02,2.102712911299849385e-01,5.067586898803710938e-01
4.677817517714680795e-01,2.821468881051686917e-01,4.175588717707354736e-01,-3.163404860861829260e-02,1.902318865693752858e-02,4.825565298979583168e-02,1.968073397874832153e-01
4.232353733553869124e-01,4.358145633935142094e-01,4.197428951807071762e-01,1.266077869618512401e-03,-2.004829220092376255e-03,3.835849710583205240e-03,1.659439876675605774e-02
4.324587718210048948e-01,4.455548818249568943e-01,4.335134586937322565e-01,1.254874455523557466e-03,-1.987091319803088382e-03,1.202499443565367698e-03,1.340581569820642471e-02
4.336870047013096641e-01,4.424767613432507019e-01,4.272321462718360330e-01,3.529129705072490183e-03,5.047465473680017630e-04,8.294215978672288140e-04,1.469197217375040054e-02
4.134715991182555950e-01,4.254140538232067392e-01,4.330826495240659435e-01,1.798138640538744564e-03,-2.134226422533816014e-03,4.991782516382163755e-03,1.977700181305408478e-02
4.951027596066696068e-01,4.580084433127136756e-01,4.690770551357102414e-01,6.902194580873844201e-03,-1.745394212322040617e-02,2.035068575960910509e-02,5.819976329803466797e-02
4.179296463151717655e-01,4.173452224671513888e-01,4.317259757300822565e-01,2.181922800641571472e-03,-2.167852913348327151e-03,4.978069090675261467e-03,1.736282743513584137e-02
4.634469982436251745e-01,4.448799127619543214e-01,4.960473957101758091e-01,2.389481352067698156e-02,-1.694685375419809764e-02,1.639576042136261028e-02,7.344217598438262939e-02
4.191796325428026604e-01,4.501017635057718569e-01,4.217523429926267053e-01,8.117884080168235456e-03,-5.767960197221709377e-03,6.274947381237834174e-03,3.603992983698844910e-02
5.181134943802857551e-01,4.218458485847138562e-01,4.632179578508074380e-01,1.038474242536485508e-02,1.670096794010425198e-02,-2.784498331298058613e-02,1.023847684264183044e-01
2.682022344204680331e-01,3.668206719907021185e-01,1.648306050667197598e-02,1.023761950717316516e-01,1.948066524516953446e-01,-1.779251401083281614e-01,5.815289616584777832e-01
5.598033351351362485e-01,6.391258698550044137e-01,6.123216822101521517e-01,9.305202698924157356e-02,1.005109278941558187e-01,-6.157078629928594560e-02,2.693336606025695801e-01
4.816072054811216807e-01,6.769923012357452752e-01,2.216885541643218716e-01,-1.386294772789107010e-01,1.992979843807060891e-01,1.308561292607930693e-01,6.202424764633178711e-01
5.184637923655089908e-01,5.120637168717699916e-01,4.439158365537111406e-01,2.368742287447267100e-02,2.675759793356410898e-02,-3.150686901072427548e-02,1.092267557978630066e-01
8.741440889513500956e-01,6.454804686245895207e-01,7.381977544207050101e-01,9.453305533593459042e-02,4.999706825150856265e-02,-1.903938419954031569e-01,4.274816215038299561e-01
4.569681015507618960e-01,4.758955120442589504e-01,3.648123449475556557e-01,2.830417980221610827e-02,9.217931793157477585e-03,-2.501707857742824573e-02,1.230083480477333069e-01
4.156323118786847126e-01,4.147193128205093893e-01,4.837784595065067750e-01,1.658146654331018937e-03,-3.330195384763724991e-03,9.652618523819984529e-04,6.892940402030944824e-02
3.991228667384221218e-01,4.251462765833678992e-01,4.576875205285204085e-01,3.206345963415679033e-03,-3.925239774300742085e-03,1.033979399427371014e-02,5.459654703736305237e-02
4.146460514473472303e-01,4.225516794070924842e-01,4.748138920682822284e-01,2.733390217153628017e-03,-1.728719485579731895e-03,2.030598870072169472e-03,5.701537430286407471e-02
4.201523007235783980e-01,4.183958244079497568e-01,4.673617278500775685e-01,2.149013229706992108e-03,-4.401099419679512827e-03,1.714912398946153750e-03,4.894408956170082092e-02
4.134479105153527345e-01,4.576034091488105915e-01,4.324618417854704244e-01,1.879156009793331653e-02,1.758468850300513864e-02,-1.874747559527635207e-02,6.717963516712188721e-02
4.017646703908051564e-01,4.136005578386374726e-01,4.687876254652719177e-01,6.635534668243134662e-03,-3.531519014366917703e-03,7.513904470661995558e-03,6.463567912578582764e-02
3.909109367439931870e-01,3.436741580585420119e-01,4.509273611838516271e-01,1.802530968779235410e-02,-1.052113725698122781e-02,5.067189446987775507e-03,1.002602353692054749e-01
5.027612557846681263e-01,4.522212528885600213e-01,3.617219998066320552e-01,-2.540663528531415544e-03,-9.100021175724310992e-04,-8.958750010960513446e-03,1.248233392834663391e-01
4.845942189659533383e-01,3.311565185559406377e-01,5.333506570607350339e-01,-1.061493849693687791e-01,-1.240249756135623771e-01,-2.203273093483003042e-01,5.089041590690612793e-01
2.295459617333207025e-01,4.053165737396410145e-02,1.942042542562950891e-02,-1.546482399755580162e-01,-1.653429221205644783e-01,-2.287430049341753202e-01,5.923644304275512695e-01
4.465166285196628393e-01,4.418847941876100083e-01,2.477798912162530731e-01,7.705292013500019332e-04,-6.621309565503910761e-03,1.218699893954420556e-02,1.979295462369918823e-01
4.474204102871861544e-01,3.946689585478813100e-01,2.827080442807287652e-01,1.469134681938526546e-02,-5.008010072502441790e-03,3.401850367288663385e-02,1.594320684671401978e-01
4.485216201978154960e-01,4.449525871993578741e-01,5.992642725545016535e-01,-1.421856099620253666e-01,-1.421839776840816980e-03,-4.363398546686363122e-02,2.994030416011810303e-01
3.257585235104771826e-01,2.932183295621549335e-01,1.231497434690378978e-02,-8.434363117552658162e-02,1.527154875948943114e-01,1.512177357811804457e-01,4.990132451057434082e-01
5.394134873711327050e-01,6.145982262907359051e-01,1.606242196903335806e-01,-9.348691959996099921e-02,3.583788602952058672e-02,1.500307340795720423e-01,5.246078372001647949e-01
5.107200099299432638e-01,4.898317894331081224e-01,3.066888630930920678e-01,-7.039812083960252272e-03,-8.748624598229778199e-03,-4.500170884128525811e-02,2.103733122348785400e-01
4.198102198740340518e-01,4.650354841819043794e-01,-8.380691082654478929e-02,-9.358000591537834340e-03,4.947945759479391303e-02,-4.935262068481442721e-02,5.416328907012939453e-01
3.842464417237546059e-01,-5.913555780359414094e-02,4.264001551284669622e-01,1.292709352817051349e-01,1.392655398604812633e-02,2.849527577463552373e-04,5.174647569656372070e-01
4.178684266754774668e-01,5.299728511304951928e-01,4.623544156919035530e-01,-1.065120071542674692e-02,-3.383472907006911112e-02,-1.079770983000074604e-02,1.169778257608413696e-01
5.248865230323673803e-01,5.283182365976568651e-01,3.718351769698373110e-01,4.695751773912704716e-04,-6.572139705216965833e-03,2.970720880002248807e-02,1.635222136974334717e-01
4.837917984567180474e-01,5.032314370736721276e-01,3.323549070774515224e-01,-2.366193523525057015e-03,-5.396352266057295212e-03,9.609124223856043215e-03,1.632056236267089844e-01
2.354400359523780573e-01,3.067032987714267689e-01,-2.223000930004975784e-02,-1.098621575194353023e-01,-2.115224521733972962e-01,-1.622281839791365754e-01,5.824285149574279785e-01
7.633405853513691719e-01,9.546307017423757424e-01,6.853099086304808019e-01,-7.056395008404128810e-02,-1.699425977482384165e-01,-6.093595770877371226e-02,4.127057492733001709e-01
5.836077664326035086e-02,3.177600803998276158e-01,1.167404546518078512e-01,-6.353049858486964352e-02,-2.371066017579603336e-01,-1.040546835425205235e-01,5.184608697891235352e-01
5.236116660515890420e-01,4.972671403854799221e-01,4.324769628936624422e-01,-3.932659564998675777e-02,-5.581407522897435108e-02,-6.636174841696637627e-02,1.838360428810119629e-01
4.564501930288070719e-01,5.072048499959658230e-01,3.654912463786059718e-01,2.948545517030622424e-04,-1.559230734767386335e-02,5.190906703792344838e-04,1.272657960653305054e-01
4.789227440835783223e-01,4.575522086942365174e-01,2.666609561485250302e-01,-1.219449383417860015e-02,-5.030140755112408150e-03,-2.648966616911231642e-02,2.088127136230468750e-01
5.898353449393397563e-01,5.925025048054946009e-01,1.612194487319800751e-01,-2.701726273448871660e-02,-1.432353419759480745e-02,4.052835733727806061e-02,4.388562738895416260e-01
6.096820441372685639e-01,4.675277529340469695e-01,2.162082176099323627e-01,-1.172087360942749845e-01,1.251650359212015673e-01,1.267292827174878456e-01,5.054591298103332520e-01
5.273900108310030088e-01,3.980119823734656337e-01,2.234385318697178768e-01,5.162456707963250513e-02,-4.733729927617445071e-02,2.039617440433161288e-01,4.575144350528717041e-01
3.918100250470118451e-01,3.612545640613079589e-01,1.629411507586136232e-01,-2.754577247849437222e-02,5.571718664391937803e-02,6.979031333832880213e-02,2.693009376525878906e-01
5.831993593813078469e-01,3.065089867051075667e-01,5.950415586823305514e-01,1.457668941926713001e-02,-2.623420384672417796e-02,2.378227372117752356e-02,2.904709279537200928e-01
3.947456696123389230e-01,3.822762990427059915e-01,8.444955278034060875e-02,5.650517524727166098e-03,2.737565253882101937e-02,4.264666267644971753e-02,3.168126344680786133e-01
6.028290355511078946e-01,4.560883074875283216e-01,4.307871867771413399e-01,-3.681320826369793419e-03,1.299433920780641294e-01,2.252889766884942635e-01,4.783801436424255371e-01
6.128028137834842237e-01,3.642380712196733317e-01,9.907086172571683003e-01,-1.472887209322835678e-01,2.083320827463568461e-02,-9.595934358273789733e-04,6.040844321250915527e-01
3.606803665888366761e-01,4.869131635680938874e-01,9.977359243887928830e-02,8.127433266199776685e-02,-1.380646619438045675e-01,1.233608531669840025e-01,4.894873499870300293e-01
4.758662452899408701e-01,4.257670709152652222e-01,4.338155685536564943e-01,3.292707438604852710e-02,-4.677839506245359130e-02,3.830708397375489488e-02,1.280273944139480591e-01
5.470954351136041449e-01,4.245902274727978432e-01,5.135172758079212807e-01,2.428332951930140329e-02,-2.317332395691420327e-02,4.740515273203151775e-02,1.488063037395477295e-01
3.812019516871104075e-01,4.729946094231094467e-01,4.513922880592341480e-01,1.049897709991653647e-02,5.157445434113750241e-03,-2.343017314656781203e-02,9.469435364007949829e-02
3.532537056278469700e-01,4.518181242267622633e-01,4.020474835326501295e-01,5.319923015232757603e-03,2.033261548215169884e-02,-1.604457220690751890e-02,9.687044471502304077e-02
2.761815122923673149e-01,4.766654421002213260e-01,4.909472938529683694e-01,2.193399690767527943e-02,7.465592631943638105e-03,-9.173679213218814688e-03,2.124241888523101807e-01
4.176082835643215030e-01,4.417748404252019867e-01,4.274398052711116391e-01,5.159222924389377310e-03,5.580995365493073360e-03,-5.061057785719911759e-03,2.632917463779449463e-02
4.075551463388803475e-01,4.845298171153661348e-01,4.475271865755825473e-01,1.684540191403182188e-02,8.701933589091614268e-03,-2.478316449516718145e-02,8.583191782236099243e-02
4.641519312467876079e-01,4.985211555204504541e-01,3.457171965749430975e-01,8.901860129843112979e-03,2.387565071186528720e-02,-1.182271347719797763e-02,1.471249163150787354e-01
1.405561432834166458e-01,5.059818497761131573e-01,5.486495876118964166e-01,-8.088324514747861904e-02,8.058056340651940930e-02,3.558077098591337639e-02,4.402866363525390625e-01
4.072713598197341689e-01,4.983724479822815301e-01,4.059220098613885996e-01,-3.444217966203791306e-03,1.335187565346249682e-02,-3.583268186911154219e-03,9.504252672195434570e-02
4.641670517496527260e-01,5.010505499285311526e-01,3.466973520092669903e-01,6.729396461660658822e-03,2.412044092559557582e-02,-1.156257543188034080e-02,1.475619822740554810e-01
2.562572274002601347e-01,4.296469502657364048e-01,3.742149021497369610e-01,-6.107460430215960051e-02,7.094173557629526727e-02,4.160999547211281790e-02,2.345379441976547241e-01
4.108510832107270527e-01,3.787602197489192135e-01,4.116782064002987296e-01,1.239931926852321301e-02,1.222002920852987597e-02,-7.245089453095551225e-03,4.608406871557235718e-02
4.814635125007294403e-01,3.404365669290582708e-01,4.014523750715475181e-01,1.761546740905605701e-01,-1.494012357639448729e-01,1.165133958624934574e-01,4.645281136035919189e-01
4.380860953012655212e-01,3.600697526155113293e-01,4.856473798502134454e-01,8.012525241221030506e-03,-8.504559545507792010e-04,1.352608420820792861e-03,1.107223704457283020e-01
3.105263292474155223e-01,4.107849603791398074e-01,1.892131858599202798e-01,4.005646386432013678e-02,-2.006969685779241841e-01,7.826816232928901496e-02,4.253944754600524902e-01
4.460421747521436386e-01,4.171219796428614623e-01,5.524688027896634823e-01,7.060447841629535759e-02,-2.563765962930177750e-02,1.987443743221276385e-02,1.826272457838058472e-01
3.254949828099700793e-01,2.312589068602550479e-01,3.020774528579445173e-01,1.341370900627850138e-01,-1.262088266636346157e-01,1.495382623187119231e-01,4.196086227893829346e-01
4.297181496708664117e-01,3.453696567240862603e-01,4.482687061689218377e-01,6.782587830019003172e-02,-5.159586701570870182e-02,5.323751691683269172e-02,1.982767134904861450e-01
3.342237246103390569e-01,1.735756656875334925e-01,3.886420096433048643e-01,9.399565952441678307e-02,-6.871172112921029862e-02,8.669993276210266608e-02,3.173821568489074707e-01
4.676476328167499252e-01,4.938148527398608656e-01,6.157266134345091846e-01,1.506243581350258098e-01,-3.616352682895321996e-02,5.622258340705854618e-02,3.165544569492340088e-01
3.977223907404828784e-01,3.987009180041030665e-01,4.391401683059570904e-01,1.463320275902408631e-02,1.492146344224688607e-02,-1.492035569418495057e-02,6.044877693057060242e-02
4.512597454203695069e-01,4.404939042283621542e-01,3.804617904479793422e-01,-1.585747233731486794e-02,-1.102733969570984622e-02,-6.957852756417556676e-03,7.503648847341537476e-02
4.400825735940053773e-01,4.275182657892823701e-01,3.781925325395091297e-01,-2.395810115763727377e-02,-4.877088957642233130e-02,-4.502844069308688940e-02,1.347259581089019775e-01
5.172337965529744119e-01,3.370151726340542830e-01,5.759910324461067210e-01,5.659865255282355012e-02,1.250168605458009535e-02,-1.940319646508070761e-02,2.402683198451995850e-01
5.232381939160481998e-01,3.626014721634511218e-01,3.462272745974585009e-01,-1.796151218033781860e-01,-1.596135353216814046e-01,-1.663524521702268721e-01,5.337941646575927734e-01
5.175456394233790558e-01,4.324021091810825168e-01,4.418194389491973961e-01,1.821385429336312397e-03,-7.333433883755153572e-04,-4.160258024039830554e-02,1.083520725369453430e-01
5.101223170659511252e-01,4.430518503937839192e-01,3.950255396478844494e-01,-3.631522476472107304e-03,-6.744779742802130794e-03,-2.183581914484054171e-02,1.078543961048126221e-01
4.733949556008563708e-01,4.576217250175478313e-01,2.740231280267537706e-01,-5.713377732301141987e-02,-1.252111671964403483e-01,-6.759833412852389589e-02,3.277012407779693604e-01
4.855841438573744728e-01,5.714105686311520271e-01,4.368061180080195505e-01,-7.985616010850395130e-02,-9.095834451709325363e-02,-7.315512949562663625e-02,2.719158232212066650e-01
4.942179953894023092e-01,5.824304350411454445e-01,3.195361907962624981e-01,-1.537607850410547816e-01,-8.093576384286370329e-02,-2.184498107439062642e-01,5.361381769180297852e-01
4.518554485307302859e-01,5.234207063292855011e-01,3.734862748382933861e-01,-1.790396034241115847e-02,5.646114316923826759e-02,1.718802306543484523e-02,1.681765317916870117e-01
3.152580351973514050e-01,4.086854740496796423e-01,2.200866964296233907e-01,1.377050854093532228e-01,1.752105197338755804e-01,-1.512445347105710880e-01,4.942538440227508545e-01
4.674515707523124175e-01,5.170828205201609684e-01,3.892451534242639122e-01,-1.537759463223723963e-02,1.127621423775980979e-02,5.229773242532273839e-03,1.167643293738365173e-01
3.692631548662986263e-01,4.692613251326292478e-01,4.045086738948537874e-01,-9.363561828081408628e-04,3.240456888268164384e-03,4.337226595400218293e-03,8.836266398429870605e-02
6.032456461271806791e-01,6.816202398411376207e-01,2.295986138063075277e-01,-8.406532714693738806e-02,1.555808323791151582e-01,-2.431446219536944134e-02,5.202209353446960449e-01
3.747558064635232999e-01,4.558729707936891584e-01,1.635270044600156680e-02,-7.822942242506130892e-03,1.803409849443658175e-01,-2.610654978019968583e-02,5.137141942977905273e-01
5.529713777411857656e-01,3.288851058738813671e-01,5.344242905230175422e-01,1.881252572553138852e-02,-8.087899138982224123e-03,4.471572410099059793e-03,2.184501439332962036e-01
4.154814616755956314e-01,5.797458114454472344e-01,3.532091648402210238e-01,1.599020306514422340e-01,9.644301801934844487e-02,-2.033432154333909281e-01,5.193696618080139160e-01
1.188045210378733119e-01,5.706578028753648280e-01,2.019894179224452357e-01,4.118155032212646866e-02,2.731336256650024330e-01,-5.479567051000253791e-02,6.414087414741516113e-01
4.549934735643605954e-01,4.012931567144951139e-01,4.213145631813882130e-01,-1.563487580644939642e-04,-1.257966661214958946e-02,-3.996196908570390401e-03,5.226998031139373779e-02
4.772547222695484037e-01,4.061946103138550090e-01,4.084716908061949425e-01,-6.123322780139828225e-03,-6.381125544660655631e-03,-1.018853431996395546e-02,7.374940812587738037e-02
4.458995955713131454e-01,3.842052374007558502e-01,2.576134942007871631e-01,4.519923991496407022e-03,5.303045900894111202e-03,-4.043685358379323774e-02,1.808113157749176025e-01
4.823604596663412791e-01,4.107723290350019929e-01,4.064795868038199034e-01,-5.659477044035860632e-02,-6.492005173915234295e-02,-5.656420361503813887e-02,1.931369155645370483e-01
4.739750109177485182e-01,3.873514271765154948e-01,4.003769445382949210e-01,1.608634472879851224e-03,-1.698009600133971271e-03,1.052281974167914962e-02,8.302767574787139893e-02
4.812622635057856035e-01,4.053761284820137645e-01,3.912072447859435975e-01,-4.683106049175185873e-03,1.594034894749199894e-03,1.132876009690862891e-02,8.656283468008041382e-02
4.855083104767806135e-01,4.136170946587191533e-01,4.121813408567825965e-01,-1.502864333562409704e-03,2.404311708153137326e-04,2.374498728761065009e-03,7.278385758399963379e-02
4.772654960669365787e-01,3.914269378037797398e-01,4.031500535635260118e-01,-6.523496210436739370e-04,1.816188971167731567e-03,9.968831056817057182e-03,8.251484483480453491e-02
4.817016692065470007e-01,4.146101096521654372e-01,4.172660092925838393e-01,-1.611650963370653061e-03,1.885416026190617819e-03,1.764161411116302227e-03,6.601466983556747437e-02
4.857326827654049328e-01,4.443601613656873450e-01,3.141534469545173569e-01,2.518815970455400921e-04,-6.150938385489333922e-03,3.940357364860146150e-02,1.697765290737152100e-01
4.964038541203033561e-01,4.307624506641504203e-01,3.925699890551618276e-01,6.258808901247389471e-03,-1.640249514245476587e-03,7.952983041451418961e-03,9.268119186162948608e-02
4.817058722076110744e-01,4.168224966541803633e-01,4.121633665990797057e-01,-1.553999994342844960e-03,-1.690067021466501495e-04,2.746732997812804163e-03,6.755608320236206055e-02
4.826391565113350990e-01,3.256468235157420343e-01,5.011780738176726535e-01,6.859368955634521405e-03,-7.510523407789667337e-03,1.176543510345440420e-02,1.691934019327163696e-01
4.687585174876957028e-01,3.454807250367566973e-01,3.947581390909024601e-01,4.154869210710856260e-04,5.959725608993177853e-03,1.599872842217381699e-02,1.114711537957191467e-01
5.943918174076232575e-01,6.132121527987208776e-01,5.502504111371154805e-01,7.483999230887493359e-02,-8.293590334934336505e-02,8.761425612498259519e-02,2.521911263465881348e-01
5.416672855938232667e-01,5.232063579346759585e-01,5.708777608562221051e-01,9.091860405168483705e-02,-8.195813761576477285e-02,8.239636744036200888e-02,2.589416503906250000e-01
5.824957131717283243e-01,4.132707146889648131e-01,5.032574820620300260e-01,3.002907779164845029e-03,2.476716251145584698e-03,4.914410611974191073e-02,1.696985363960266113e-01
4.770862540301705201e-01,3.853319946990682032e-01,4.533405370557974656e-01,1.227235144064432390e-02,-1.471802040178028098e-02,7.491036073641758886e-03,8.985528349876403809e-02
4.303515105295572241e-01,3.987663744998245496e-01,4.894294777480630021e-01,-2.977940355698728905e-02,-3.029311473222306202e-03,-1.068656491430051460e-02,9.687305986881256104e-02
3.574776062587244896e-01,4.423665407568011521e-01,4.929453302082512089e-01,-1.155630817896477827e-02,4.218737581225385710e-03,3.530637996116304991e-03,1.206207200884819031e-01
8.003423252479149874e-02,2.588971104514702359e-01,3.428180255101281881e-01,-1.923423222517680886e-01,1.309893563037781150e-01,8.373034783064151054e-02,4.873793721199035645e-01
3.913550305736889223e-01,4.383319279033705551e-01,3.933124733589873356e-01,-1.168188055941520032e-02,-1.389796476963280417e-02,-1.248775880338785609e-02,5.979462713003158569e-02
3.941377329989268485e-01,5.190928964933035905e-01,3.329032039264688825e-01,-1.839955005446980429e-01,-1.494366166250119532e-01,-1.442129886578519538e-01,5.079016685485839844e-01
4.682014808365595471e-01,4.151962303067591176e-01,4.091855287090731541e-01,-3.636711861295614800e-02,-2.499167180703455726e-02,-4.389093967486539655e-02,1.215935051441192627e-01
3.650591930613313330e-01,3.893287472035708019e-01,3.904614970939855878e-01,-1.122593147690911786e-02,-1.245414153930604617e-02,-1.784753339351894535e-02,4.916065931320190430e-02
5.623961611561394403e-01,5.176236480120234296e-01,4.699644297784900115e-01,-2.848600326963095231e-02,-2.987593567702881772e-02,-5.878176108600458027e-02,1.479451209306716919e-01
4.572428121522988942e-01,4.144703982470528958e-01,4.035023714493055635e-01,-9.338174233769145835e-03,-1.124257608734085742e-02,-1.227563218822750116e-02,5.926019325852394104e-02
5.244800182367079788e-01,2.995812071761368989e-01,4.542511519749743987e-01,-2.537785926951667548e-02,-5.997893221720680679e-02,-1.011711551735132303e-01,2.883548438549041748e-01
3.859796670680321062e-01,4.680086665551894121e-01,6.708584058671280825e-01,1.628632550874226648e-01,1.011736088118247584e-01,-7.988781511753076381e-02,4.403908848762512207e-01
4.197624083451914068e-01,4.877730119595036218e-01,3.162443098855613477e-01,8.579457176054272605e-02,9.301446562568924104e-02,-8.694832397607502039e-02,3.051212728023529053e-01
3.984619376837550409e-01,6.955691858755206347e-01,5.807476590747060463e-01,4.586552315719741313e-02,1.939292506784578429e-01,-9.555144595512120309e-02,4.624599814414978027e-01
4.806926694904800623e-01,3.991630081442589240e-01,2.879331431005522912e-01,1.895462490898283670e-02,1.825901950164634038e-02,-6.981151056001455579e-02,2.116285711526870728e-01
5.275081515959860745e-01,2.925178708536563255e-01,5.140299271194862518e-01,8.019993241891454350e-03,-6.709548012572147391e-03,1.473041926629224500e-02,2.306811958551406860e-01
4.260271923444349795e-01,5.946254146737904867e-01,5.320270280075773961e-01,-1.018561855644942562e-03,4.394950688611996142e-02,2.487468073404825245e-03,1.661514192819595337e-01
4.684636270525692203e-01,4.292805931189906943e-01,4.338743422514266812e-01,8.429516284088205830e-03,5.722724404303376582e-03,-5.748644088530907234e-03,4.227263107895851135e-02
4.598070229412334897e-01,4.834637728511816945e-01,4.963237788289312502e-01,1.119313686727747698e-01,1.024958065462152623e-01,-1.014720150800131199e-01,3.178380429744720459e-01
3.733905006309402586e-01,4.317343090280539863e-01,4.205930444687393521e-01,1.036263670709615566e-02,1.029063056199226896e-02,-1.667401456411936669e-02,6.596980988979339600e-02
4.209159062653903272e-01,4.846422058013921674e-01,5.356179280725157366e-01,1.255553642682990523e-01,2.325641935225013571e-02,-3.605539567776128856e-02,2.504457235336303711e-01
3.844973894720299379e-01,6.998750533661683981e-01,7.378162802792500585e-01,6.022479238524317685e-02,1.825441138317282844e-02,1.366018871296392420e-02,3.539900779724121094e-01
3.574147259337648874e-01,4.332802876457068630e-01,4.408044582301572367e-01,9.300532944403621521e-03,1.143769544759484259e-02,-2.350224234985304195e-02,9.323116391897201538e-02
4.188699553631857198e-01,4.398309304694451027e-01,4.513395860758825373e-01,1.799365192706709957e-02,1.300815517865868201e-02,-1.761460786625275790e-02,5.676987022161483765e-02
5.047147626019795608e-01,2.774301833696657393e-01,4.970568772736942420e-01,5.159675718567996623e-03,-1.111555717976861826e-02,4.547463867298305942e-03,2.246975153684616089e-01
4.211204662740639093e-01,4.778530319854858988e-01,4.199311906167569330e-01,-2.293643694337171249e-03,2.562915696796866979e-03,2.349368397005785133e-03,5.778854340314865112e-02
3.844181290892301206e-01,4.885109036596617105e-01,4.154511826831938648e-01,-4.887316954166953838e-03,4.115980441566664122e-02,3.843680890291150624e-03,1.173303350806236267e-01
4.110072772884979520e-01,4.486445584132163211e-01,4.123181114108747658e-01,-5.000101273966213065e-04,-8.669269495641660807e-04,2.812411407283573524e-03,3.735880926251411438e-02
3.983075655601676091e-01,4.674272664486825435e-01,4.063623614526710726e-01,-6.134217686596826237e-03,2.216704999614653535e-03,2.471619793262488669e-03,6.657042354345321655e-02
4.328812113274901896e-01,4.000018374739782723e-01,4.209294324887489225e-01,-7.926387015500928335e-02,7.013907180929553065e-02,1.353196092377710325e-01,2.989512979984283447e-01
4.702650651319773556e-01,4.116713927683861574e-01,3.648843303974402819e-01,1.285917962872523169e-02,3.836770795940577100e-03,-1.348986607575104225e-02,9.721029549837112427e-02
4.433829267397567664e-01,4.261191231345946573e-01,3.915123706233221701e-01,1.285874096312651649e-02,3.996849014018824531e-03,-8.828655933422144622e-03,5.358089134097099304e-02
4.410479850905774657e-01,4.769472656917858600e-01,3.942700435853965235e-01,1.555130543302802454e-02,2.221736333496008090e-02,-3.105814637695505486e-03,8.597400784492492676e-02
4.538152430362593082e-01,4.007619660822600016e-01,3.526596047769860465e-01,1.306382557113105677e-02,6.105749954210358890e-03,-1.368106375098477982e-02,9.415848553180694580e-02
4.716759962157485719e-01,3.905787882896052388e-01,4.365036911021629717e-01,2.390128529428219364e-02,1.022233945926542473e-02,-3.018423890896896472e-02,9.860040992498397827e-02
4.522610055924336514e-01,4.012769461867297105e-01,4.179681310432866170e-01,1.409916750008861864e-03,1.077866242662193358e-02,-2.626905133442564849e-03,4.901213943958282471e-02
4.137824942463918521e-01,6.136957707678584173e-01,5.849037269777361825e-01,8.566836099535532142e-03,-2.386958645472000151e-01,9.674601504847628319e-02,4.840093851089477539e-01
5.498580044891536733e-01,5.426843243760894886e-01,5.127241019554229506e-01,6.875104690603044133e-02,-8.704517501874364793e-02,9.439671551175489450e-02,2.545720636844635010e-01
4.594292429798529920e-01,4.850399113005752216e-01,4.395745390749499215e-01,1.229087687825323495e-02,-1.661835378845928982e-02,1.485433278047583634e-02,5.917995795607566833e-02
4.714609752225377148e-01,6.451251757622613603e-01,4.305363841810681547e-01,1.248978033154355717e-02,-1.394494049624752097e-01,1.367081855575933910e-02,3.135415017604827881e-01
5.164909751096931068e-01,5.321846641087413232e-01,4.230499752835860106e-01,3.111323951739516924e-02,-4.224435608148831289e-02,2.318123546344371191e-02,1.425268799066543579e-01
4.589594702984799990e-01,4.673362079672544467e-01,3.692279880566749495e-01,2.061270325607576781e-02,-2.153251000447174018e-02,1.595767130007772969e-02,1.109193637967109680e-01
4.727245852416562810e-01,4.471849715593197994e-01,3.824992678691701564e-01,2.068219849770317267e-02,-2.138957751837230678e-02,5.573839751416284800e-03,9.611225128173828125e-02
4.019810617251897145e-01,4.677885184099964677e-01,3.587655539280374395e-01,-3.433073737057026117e-03,-1.474748093800290136e-02,-3.637047643118246180e-03,9.884133934974670410e-02
4.315351947342115912e-01,5.216775158651222322e-01,4.656437558166654500e-01,-1.519268048618226813e-02,-2.711081794522121613e-02,-8.816747022756206420e-03,9.666982293128967285e-02
3.710516969335780346e-01,4.558508394115261542e-01,4.091348555729678038e-01,-6.421136006710367883e-02,-6.791465589209853826e-02,-2.313281638592239869e-02,1.822736412286758423e-01
3.235677931644214689e-01,4.923429960777173653e-01,4.675817095567283976e-01,-1.846668103289178520e-02,9.311731934230014704e-03,1.483147696643120732e-02,1.638969033956527710e-01
4.105381328615974046e-01,4.667633837220686588e-01,4.026409305039465591e-01,-5.287867993804664345e-03,-1.142813813358956911e-02,-4.682919100739936155e-03,6.487794220447540283e-02
4.293893121153439241e-01,4.357291338672535375e-01,3.600594818667920971e-01,-2.017764054957603762e-02,-8.582718216241449691e-03,-1.727580380936947699e-02,8.731620013713836670e-02
4.547339923111393678e-01,4.731771505882422790e-01,3.452811419127670423e-01,-1.863045414043279849e-02,-1.394348959112204876e-02,-5.746319299738835047e-03,1.267372816801071167e-01
2.992613837067696902e-01,5.150342170467167024e-01,4.876023384930035509e-01,5.281549105654760948e-03,1.014609934789858191e-02,-5.400225678466597824e-03,2.046249508857727051e-01
2.288561706431901377e-01,4.262814001190660673e-01,3.887593187484371104e-01,2.191071181983209916e-03,6.147921542125716482e-02,-2.032593922001763476e-04,2.105479240417480469e-01
3.866936486424680242e-01,5.137828622280953272e-01,4.668821565656935402e-01,6.329924368932152851e-03,1.023440846115818148e-02,-1.235746115934924574e-02,1.152533069252967834e-01
2.901224059019817947e-01,5.107013772354204173e-01,4.700108075488307890e-01,-1.339680733145873388e-02,5.359674825770500972e-02,2.114506297562976367e-02,2.276684492826461792e-01
2.274622793951474875e-01,6.231603390179882851e-01,4.566931435474577694e-01,-1.098611211562880788e-02,1.750439349503843667e-01,-2.986921863108275409e-03,4.590506851673126221e-01
3.824259185306541076e-01,4.564232350196589239e-01,4.804555780117910624e-01,1.167715687727113177e-02,9.131066689197449293e-03,-1.616328775396109682e-02,9.630388021469116211e-02
3.791696590962728708e-01,5.067543599200435844e-01,4.495411709333924644e-01,7.336095233430966990e-04,5.490542450486600445e-02,-1.310202951387243620e-03,1.459529399871826172e-01
-4.386613600903527255e-02,4.344016589361349157e-01,4.513369848985989696e-01,-4.404188743814763107e-02,1.618595461795700741e-02,8.931597526741868326e-03,4.939340651035308838e-01
4.315452838275089520e-01,4.692306049994046102e-01,4.489132078267424331e-01,3.652214659811887833e-03,3.564714832286219187e-03,-1.436647580698239071e-02,4.200758039951324463e-02
3.687253355640842667e-01,5.000795650339564524e-01,-1.511495324200937684e-01,1.374643308216076387e-01,2.073945042557828466e-01,1.563163099867591332e-02,7.363907694816589355e-01
3.494331351704616506e-01,5.197697483546483976e-01,5.273608194066395916e-01,2.133913871502104639e-02,4.812759225905036131e-02,-2.308684794392919584e-02,2.006965428590774536e-01
2.359973810407237638e-01,-4.193741627235272884e-02,-8.228411280926092863e-02,-9.096493632675954621e-02,-9.986087434064001844e-02,-2.805379777915700257e-01,6.171988844871520996e-01
6.430073029758605063e-01,5.533958218418567609e-01,5.550306818099717265e-01,-7.361759719729006612e-02,-8.706011629663830409e-02,-9.839964625664596176e-02,2.755556106567382812e-01
4.335635127155411661e-01,3.496950589376277563e-01,2.792556667779552138e-01,-8.235814291119724836e-03,-9.127916403240744422e-03,-4.899392848637631331e-02,1.598684638738632202e-01
6.028154500493028145e-01,4.350524958724755198e-01,1.971029249477315726e-01,-1.145212028618402267e-01,-1.838899525084138897e-01,-1.385559124963065547e-01,5.683912634849548340e-01
1.789576582626568324e-01,4.490256386497975538e-01,4.712451025288300066e-01,-4.016986620219637621e-02,5.712166856839367285e-02,1.602392420635004311e-02,3.079464137554168701e-01
3.795835448944032131e-01,4.166839284646733366e-01,4.364020749053303949e-01,9.416143049441973167e-03,-6.281356920575173475e-03,1.543516373207464570e-02,5.996569991111755371e-02
3.819552740224093634e-01,4.202086864015672218e-01,4.470195845074384500e-01,5.868716009218907792e-02,-6.240164583617071464e-02,5.455910827024588322e-02,1.848033815622329712e-01
3.121991107215863481e-01,4.424325263595268454e-01,3.638188600143007490e-01,9.590958480538988931e-04,-2.243468788281834103e-02,-2.441589214025159335e-04,1.200650185346603394e-01
4.550587244028140854e-01,4.915531555613445458e-01,5.378054490854780045e-01,5.356560721563855682e-02,-4.261681930521261236e-02,2.675467501181734778e-02,1.461605578660964966e-01
3.903003336002924262e-01,4.843201851247408429e-01,4.189063167516213770e-01,2.855905729107036453e-02,7.287117083141826657e-02,-2.699729746417529191e-02,1.659293472766876221e-01
6.702875787965704157e-01,6.837261281992439432e-01,4.113905647151564482e-01,1.747537422487700082e-02,8.070825584351895565e-02,-7.031886359374515949e-02,3.255446553230285645e-01
2.783998458279949850e-01,4.029908044207290985e-01,3.051574483483053823e-01,5.644401837294918400e-02,1.141066664048491358e-01,-4.847912064319275655e-02,2.618674635887145996e-01
4.287926710143087350e-01,4.213897001642669116e-01,4.243035287898160313e-01,-4.424371677066696838e-03,-5.709474995776219267e-03,-4.712636915433660381e-03,1.627481915056705475e-02
3.365615782134149248e-01,4.615786142958668292e-01,4.437563482310734608e-01,6.297980429948049630e-02,-1.117243855792693086e-01,3.469199846502113438e-02,2.582165598869323730e-01
3.267299487105401190e-01,4.773912885275294338e-01,4.949140388525914425e-01,7.978612944034542756e-03,-1.231376323636059270e-02,1.139996030355011451e-02,1.633451133966445923e-01
4.495742020246961124e-01,3.916191858449549201e-01,5.126164998512247051e-01,3.626626342525102187e-02,2.830061257222894061e-03,6.429615950727272586e-04,1.223017796874046326e-01
5.147175364158629307e-01,4.977556273140213983e-01,5.396134918414693393e-01,2.380698686269379361e-01,1.031236106248317602e-01,-5.520500797198140547e-02,4.608772099018096924e-01
2.344134320859675713e-01,4.576077388832034409e-01,4.452367175330872451e-01,-5.184272133151223566e-02,5.306502869653537124e-02,1.661736166042900378e-02,2.540604472160339355e-01
2.964772634737835588e-01,4.895127380668264361e-01,5.051728616059655286e-01,1.362057766602109248e-02,-5.275093678727456846e-03,9.366851591367304775e-03,2.035537958145141602e-01
5.138107928062586316e-01,4.957589467000974581e-01,7.196373958910211588e-01,2.415732167004557285e-01,1.283375334617782304e-01,-1.205260775870554829e-01,5.607762932777404785e-01
1.927480711997211771e-01,5.081233058894324417e-01,4.341831940834336434e-01,8.556449062515994464e-02,1.872187032362057912e-01,-4.080347850451822300e-02,4.622996151447296143e-01
3.453450347187525526e-01,6.080645707625469409e-01,5.166589731761760396e-01,1.167248799841448526e-02,1.244999789293088632e-01,1.172712303479968125e-02,3.173083066940307617e-01
2.595385374241698795e-01,3.520626497056873749e-02,1.364644529389104355e-01,-1.165174186966055070e-01,1.208113907184081709e-01,2.122941913019070481e-01,5.075275897979736328e-01
4.394337090263834011e-01,4.299048575181915188e-01,4.116493575346104605e-01,-1.917933455726502853e-02,1.329106879116766053e-02,1.406814824016132739e-02,5.315310508012771606e-02
5.175204109601282410e-01,5.391891612404157152e-01,4.609883695509455204e-01,-1.793738316795566168e-01,9.032496456997128609e-02,1.685604636409015755e-01,4.594877362251281738e-01
6.612975255410307174e-01,4.532835912679663015e-01,4.425135728015018866e-01,-3.256888302590630474e-02,1.244356792243826171e-01,1.880633544451822126e-01,4.487365484237670898e-01
5.023105485741143905e-01,3.939535696042081314e-01,4.727854474477224955e-01,-2.387063426305155098e-02,1.858315085957803689e-02,3.716700183399265778e-02,1.276843547821044922e-01
3.755354569782232699e-01,2.713741877188754481e-01,4.268829476036611892e-01,-3.718996824660109751e-02,2.644947117700319553e-02,1.816453619566740785e-02,1.614695340394973755e-01
4.831406291964350785e-01,6.840386874586631416e-01,5.973079183666980541e-01,-4.229949749094139011e-02,1.059285199013173528e-01,2.044703692536681619e-02,2.659750878810882568e-01
4.243984054320040222e-01,4.138023370507914467e-01,4.817711529686437011e-01,-2.898301962814874705e-02,2.148720018352267072e-02,1.934945660040516408e-02,9.507988393306732178e-02
5.933062475745998210e-01,7.578886350833140551e-01,6.711300032093578949e-01,-4.648103715541979791e-02,1.031952520717504679e-01,4.027082241167608684e-02,2.522497475147247314e-01
-5.921357570785046320e-03,3.432121582096789858e-01,9.360551123601386359e-02,-9.933514826514071305e-02,2.522251721723958728e-01,8.285681994851892829e-02,5.814657807350158691e-01
5.044977815684168476e-01,4.989549607464369152e-01,2.790566373468555961e-01,8.650458503646811514e-03,-1.310546581001244618e-03,3.316328143173411826e-03,2.233103066682815552e-01
4.131808727525900227e-01,4.629949790646121222e-01,4.070592944914332989e-01,1.123678004590294120e-02,1.367715018965582480e-02,-1.128954151768984428e-02,6.439106911420822144e-02
4.375591981439283518e-01,4.303574145694011310e-01,3.637075192819527181e-01,1.875559595914220307e-02,1.549700465386750353e-02,-1.057188809132811845e-02,8.417336642742156982e-02
3.872337992088912828e-01,5.192831124334226223e-01,4.753878909496151994e-01,-2.313411374295037265e-02,4.813366425202374871e-02,1.572713373734107439e-02,1.512138098478317261e-01
5.117096825010597483e-01,3.440625813471437366e-01,3.857036841088399837e-01,9.994185642490596364e-03,-4.779688486096039975e-03,-6.999557483207148600e-02,1.947430372238159180e-01
3.666969589847277056e-01,5.237244863506637094e-01,4.778133567967206563e-01,-1.201657441785003444e-02,5.073527985706132587e-02,2.320911677792743526e-03,1.665164381265640259e-01
4.856032362769638344e-01,4.781621099009608633e-01,2.614368600444003654e-01,5.842970984415669922e-03,8.465288963512650590e-04,-2.948923514137218732e-02,2.266082465648651123e-01
4.142952963804674704e-01,1.390835250608765672e-02,2.772986546836084809e-01,6.793298219025546703e-02,3.022655138310893774e-02,-1.788551296561108894e-01,4.865996241569519043e-01
4.607218623552044034e-01,4.580843091295252467e-01,2.593367053480787332e-01,2.002376212427775526e-02,3.958754914050131857e-02,-3.753112875866284476e-02,2.239685356616973877e-01
5.544740350908369253e-01,5.173353067462825861e-01,4.363934913257134229e-01,1.922869607876007830e-02,9.733354342359499742e-03,-3.819284018472249298e-02,1.292534768581390381e-01
4.088495560870665790e-01,3.605101429678208569e-01,4.955921804755366034e-01,-5.267558101181144675e-02,1.081056879051021068e-02,2.376542525019546478e-02,1.562792807817459106e-01
3.820192402106640794e-01,4.813188068941733899e-01,5.372118299719184087e-01,-5.115350359855751899e-02,2.430576799236895333e-02,2.376824340928748377e-02,1.727765351533889771e-01
4.566534879413530756e-01,3.430726469139419588e-01,5.018691539012902769e-01,-2.012484387986182913e-02,1.615742476626966240e-02,7.470683145077717732e-03,1.491520851850509644e-01
3.135282547395120689e-01,4.298184468583604034e-01,4.642101217078680175e-01,-1.945135609494057921e-02,-9.230382634648898188e-03,-1.934759723607771750e-02,1.456683427095413208e-01
3.898713138728387428e-01,3.301927494620351400e-01,4.692072965181152688e-01,-1.868975332665452280e-02,1.012302824922089658e-02,5.336897867240394250e-03,1.266143023967742920e-01
3.438211128475296419e-01,3.114736571056490599e-01,4.324950660958826743e-01,-5.582664663709085984e-02,-1.955638546742606218e-02,-2.327430266507771878e-02,1.545965224504470825e-01
2.093300065601801929e-01,4.646153740838702695e-01,5.322211084388395186e-01,8.066229507946369448e-02,-7.104249843602869485e-02,-2.868805667124497451e-03,3.488336801528930664e-01
3.691191379820790708e-01,5.328957178836405406e-01,4.611512090773934869e-01,6.559887960143723565e-03,-6.301824977537728856e-02,4.763990795934123362e-04,1.796208471059799194e-01
3.885792124760194532e-01,4.650975730336794345e-01,3.805567393441054436e-01,-1.639735279566370205e-02,-2.438765592789443951e-02,-1.664511147859461596e-02,9.977654367685317993e-02
4.432640332202553157e-01,5.900290422459617545e-01,5.292406992619290707e-01,-1.763836082484899689e-02,-5.363091902221393120e-02,-2.174891698200116796e-02,1.652113646268844604e-01
4.243455568256518373e-01,5.380896336175363670e-01,3.757142738620792843e-01,-2.492637801608919151e-02,-4.955097595126819326e-02,-2.402127619892689692e-02,1.783120036125183105e-01
3.929319700996478648e-01,4.847455714436693652e-01,3.978211797661209137e-01,1.069991941531813449e-02,-1.963443333902023871e-02,1.245630452742781981e-02,9.985099732875823975e-02
3.980623855346760998e-01,4.823148785381600190e-01,4.249180452737534308e-01,-5.785729193902419167e-03,-6.519119464883297958e-03,-1.025465099276577467e-02,7.810536026954650879e-02
5.035284495053157228e-01,3.313726961340519583e-01,4.376318011050587264e-01,-7.757781929597874424e-03,-1.083569197553944236e-02,-1.087592333724004962e-01,2.421858459711074829e-01
4.065055854415107195e-01,4.850428411484569713e-01,4.129192998888233657e-01,2.336513506738822042e-03,-5.464012788620355512e-03,2.461103037791402570e-04,7.623415440320968628e-02
3.681987016334038465e-01,4.618288998021250480e-01,4.145445474088091942e-01,5.013110183928970454e-03,-1.287626861954658218e-02,1.220020098014812371e-02,8.714645355939865112e-02
4.127152746073740053e-01,4.655679849732618503e-01,4.011001189743043649e-01,5.631618806546182833e-03,-4.805189942203952520e-03,2.468786280959026167e-03,6.103206425905227661e-02
3.593018189669216489e-01,6.408094170756116759e-01,6.440707820414548479e-01,5.173172818822967256e-02,-7.029362676011859101e-02,1.432394646516365992e-02,3.219361603260040283e-01
4.626069451022586376e-01,3.915800587043267167e-01,3.412106523649857670e-01,-5.993295790076130433e-03,3.079964758184207396e-03,1.650874329240815952e-02,1.100604906678199768e-01
5.206994023343768374e-01,5.085572911868314616e-01,4.031555840108169697e-01,-1.129976963239062195e-02,2.030510781061202127e-02,8.345010973047824535e-03,1.198566406965255737e-01
4.174191562466558203e-01,4.750366166928191580e-01,3.140627675978458488e-01,-9.287715676355954089e-03,2.716214064783365953e-02,8.162047213775367599e-03,1.504308283329010010e-01
4.713524727137867187e-01,3.112144886516357567e-01,4.661567489887682991e-01,1.707624019495412523e-02,-1.379679220396326858e-02,1.310947005590887282e-02,1.637087613344192505e-01
4.402000984648101745e-01,3.114322919174920545e-01,4.328959886465305607e-01,-7.738544432228221075e-03,2.059221666586052296e-02,3.353458780132105577e-02,1.432460993528366089e-01
5.833699308712289033e-01,3.003647289319475444e-01,4.313280100724515842e-01,3.734360344542802385e-02,3.027161841765262096e-02,-8.877341757565217206e-02,3.012556135654449463e-01
5.388498148504560215e-01,4.608936505337228873e-01,4.323432260789474846e-01,-1.867636204136291413e-03,1.991964834652493969e-03,2.974132530377365802e-02,1.086000874638557434e-01
6.139962349951334497e-01,6.222505417662665961e-01,3.477761249643613883e-01,2.860008603048202341e-02,-5.809807452036493819e-02,2.320451166809800458e-01,4.972460269927978516e-01
4.634787879207334371e-01,4.180735504208075159e-01,1.293560186908265797e-02,5.998935857087629546e-04,2.816149919980708363e-03,1.352133955698427148e-01,4.893532693386077881e-01
6.080497002838558540e-01,6.458435333874270601e-01,3.838816957108481809e-01,-1.725503937311193003e-02,1.031411398662070017e-01,7.726515006955617104e-02,3.329700231552124023e-01
4.537551280551905264e-01,4.400662660649480862e-01,2.623460816617030900e-01,-1.834543614369417083e-02,3.592505416536715540e-02,1.256542448239682079e-02,1.988964527845382690e-01
4.354460010634088052e-01,4.644051115250633632e-01,-6.288547407025985025e-02,3.448914245042790372e-02,-3.126212712530506560e-02,6.563559446985615942e-02,5.320044159889221191e-01
4.673858622081666914e-01,5.171312061457065123e-01,2.052550930069527435e-01,-1.443155449788996458e-01,-2.148985040135787949e-01,-6.041813212864748789e-02,5.442453622817993164e-01
5.383247866170168816e-01,5.321973269266064843e-01,3.377841389038086506e-01,8.329812526187127530e-03,-2.140202510732966065e-02,-1.467448465764331069e-03,2.015292793512344360e-01
3.612634732042420138e-01,4.540681268655827885e-01,3.479214684716238071e-01,-6.393967665620847902e-03,-3.033731484661372421e-02,-6.919152713433128141e-03,1.142639219760894775e-01
3.730219552938551786e-01,4.768449171676291121e-01,3.535371951153560288e-01,-1.080498316070942558e-02,-3.354352867144099609e-02,-1.303954689638504253e-03,1.300487518310546875e-01
4.752150905612364529e-01,4.894405517393859983e-01,3.271695102190727011e-01,-9.510624115726307518e-03,-1.347974063669840974e-02,-1.125061326901910866e-02,1.594429910182952881e-01
4.471305676527151385e-01,4.462404643617998157e-01,1.414954965882601612e-01,-4.767139239663866108e-03,-2.088213112090993306e-02,-4.589287083307503484e-02,3.175474405288696289e-01
4.036535970651033423e-01,3.875953195966416187e-01,1.639732926761158227e-01,-2.134207589119872100e-02,3.021709912098589912e-02,7.881192347626614358e-02,2.767585515975952148e-01
4.255981396163251995e-01,1.916374506341375350e-01,5.884778021973335882e-02,-6.781003923089803931e-02,7.975238444383353498e-02,1.934291555766452231e-01,4.985566139221191406e-01
7.436429464673925682e-02,-9.740533092003103577e-02,-4.490295231660695191e-02,2.290535003266126746e-01,-1.934352696853804399e-01,2.872296654824702533e-01,7.351148128509521484e-01
6.492379410570008336e-01,6.305930021804716512e-01,3.734190429804742362e-01,1.088632250952472069e-01,-1.695323381674818664e-01,2.603800025427364107e-01,6.296439766883850098e-01
4.376904979409564356e-01,4.106271500775626193e-01,3.608026469981554518e-01,-1.813677795272987392e-02,1.231470181671891727e-02,8.030668577961927804e-03,7.873107492923736572e-02
4.844641463294941386e-01,4.268862513298131156e-01,3.998437608901138085e-01,-7.429492346022617023e-03,3.111509369611601458e-03,3.648420094986161606e-03,7.640765607357025146e-02
4.421522833882798320e-01,3.804854578218362371e-01,3.322068276117233210e-01,-8.653234519985385578e-03,3.999333538222244432e-03,1.584727168945054832e-02,1.006818786263465881e-01
4.269920415786334633e-01,5.168614636083320724e-01,3.631587886274247889e-01,-6.684996803993183134e-02,1.856236063898566990e-01,1.088378445250026971e-01,4.125530421733856201e-01
4.273753157816420067e-01,4.191306512752575042e-01,4.453147828016972842e-01,-5.691268022055375950e-03,8.056386190871912475e-03,2.870136029427521746e-03,2.922848984599113464e-02
4.823866974539486874e-01,4.172639654512451668e-01,4.167158189727017681e-01,-4.460426718706694826e-03,5.035440977793952111e-03,1.382988897202837644e-02,7.061528414487838745e-02
4.039824646118957419e-01,-5.510143303104786394e-03,3.402295787111956904e-01,1.172114283290308090e-01,4.825589668933302073e-02,-1.322054056751426343e-01,4.962646067142486572e-01
4.298175381040523768e-01,4.027571864498770138e-01,4.018497091227123952e-01,-3.418215729049706077e-03,6.086536290261293329e-03,5.633393203459096353e-03,3.160757198929786682e-02
4.551804508355704604e-01,4.046324429227353137e-01,4.105372098994074515e-01,-2.143336237236464006e-03,6.857926751213090297e-03,5.892361260274505547e-03,5.050275474786758423e-02
5.009221363874987176e-01,4.370798311291829719e-01,4.337021750643301199e-01,-8.236096521461611780e-03,7.806445667279199307e-03,1.038505930358724072e-02,7.080081850290298462e-02
4.370068606183363236e-01,5.076424871115648996e-01,3.976446882538720029e-01,1.913757574850367049e-03,6.420184577411854228e-03,-5.956544558308142154e-03,9.777642041444778442e-02
3.462922730737944543e-01,4.401509121636863475e-01,3.620605850117567526e-01,-1.436617273111432704e-02,3.672997679082634637e-02,1.449248208746580120e-02,1.134663894772529602e-01
4.545043510366807982e-01,5.134373680764816594e-01,3.892559925692925527e-01,-1.298489136095333854e-02,1.438213795977693645e-02,7.044749562399207389e-03,1.133621484041213989e-01
3.584466324398356551e-01,4.093501543168432955e-01,4.633179301540277795e-01,1.055241611706439833e-02,-6.221272723551186760e-03,9.951994067086218990e-03,9.485851973295211792e-02
4.020479173370221648e-01,4.471065613366662639e-01,4.008122900540369571e-01,-1.298163855656323147e-02,1.862674855270451957e-02,1.409027649968579848e-02,6.503482162952423096e-02
3.908762434008817288e-01,4.543905422715183162e-01,3.683675508934706189e-01,-1.264057435807827874e-02,1.259402145853175808e-02,9.341237501537976579e-03,8.477787673473358154e-02
4.171349734962500055e-01,4.838410350481283650e-01,4.166953765766376327e-01,-1.940003197299135619e-03,5.668013458477009787e-04,1.474077370817263250e-03,6.706704944372177124e-02
3.973452013037363506e-01,4.842920963210672891e-01,4.264373364611699913e-01,-3.408067415891621356e-03,3.204760431574108122e-03,9.322657282973278309e-03,7.875935733318328857e-02
4.168125777236147411e-01,4.559711740401439228e-01,3.823280110124113729e-01,-1.289842329720542954e-02,1.041006598690111598e-02,8.309881729353029226e-03,7.144457101821899414e-02
4.106925518167833244e-01,4.762563037677841615e-01,4.010920361585161298e-01,-5.845083147242619188e-03,6.827150059927624207e-03,2.974787402065813807e-03,7.272616028785705566e-02
4.136380872987139856e-01,4.684656530821076359e-01,4.182768890950091523e-01,-1.533891862890563807e-03,1.720617248617498140e-03,1.588998376264186144e-03,5.288441106677055359e-02
4.167562391108966535e-01,4.593325656626525699e-01,4.147675007354559851e-01,-4.487484872939971961e-03,7.269429162135931195e-04,-3.911922188444073899e-04,4.431510716676712036e-02
4.351323491406198785e-01,4.423751414809298788e-01,2.423804792833733623e-01,-1.685727570807150216e-02,1.064711143514168734e-02,3.200004964888920195e-02,2.070420235395431519e-01
1.952692082290379549e-01,4.152047845635571943e-01,2.685737338875378577e-01,-1.558892069411578832e-02,1.263455210677913720e-01,8.359667153103796447e-03,2.940258681774139404e-01
3.587199857008515624e-01,5.490795649102557796e-01,2.847347569192971162e-01,-3.925375873966565482e-02,1.896650292796602522e-01,9.783497370669136384e-02,4.439036846160888672e-01
4.300120344727533794e-01,4.535509880542830663e-01,3.305899848966148413e-01,1.903674878806943180e-02,-2.461797075976295338e-02,7.099330935590068142e-03,1.258397549390792847e-01
5.124658492556376510e-01,4.812162755861808527e-01,3.354004785718430748e-01,5.985202758587413602e-03,-3.469509910631600903e-03,1.076896043081038146e-02,1.651876419782638550e-01
4.172434974880202541e-01,4.393233958526572280e-01,3.054636019247157774e-01,2.430145956235095148e-02,-2.701941237354908015e-02,1.322137214350564693e-02,1.411970257759094238e-01
4.431334739862600181e-01,4.356718663684143733e-01,3.630528738888602613e-01,1.954764285189524928e-02,-1.324180935711259839e-02,7.023530927375510637e-03,8.770065754652023315e-02
5.058465704765020554e-01,5.089939161827660152e-01,3.106738541045284130e-01,-7.827053231590937882e-03,-2.227070085104984609e-02,-5.880920081590586268e-03,2.012264132499694824e-01
5.154833163728517187e-01,4.625368420024681959e-01,3.779318121783231121e-01,-2.192092879367843277e-04,9.707560266377118123e-04,1.036123919176784418e-02,1.215150803327560425e-01
5.086262391752007783e-01,5.423387639881133149e-01,4.235116259209150136e-01,1.201797713730592965e-02,-3.742693852055310050e-02,2.143181029076050154e-02,1.313927322626113892e-01
4.657785299221212094e-01,4.160682827546013374e-01,3.692754252777184498e-01,1.070075890479851854e-02,-5.500158332932349008e-03,9.892545509337317966e-03,8.783294260501861572e-02
4.545015479784240142e-01,3.673137647971473352e-01,3.291299479104384251e-01,1.766919261945485917e-02,-2.084124011604314430e-02,4.888983360470856160e-02,1.476455032825469971e-01
7.790799908044454547e-01,2.296039898061764672e-01,4.954953290979389746e-01,-4.224912698286768797e-02,-5.956690455041075555e-02,-1.182479747584185975e-01,5.333558917045593262e-01
4.198916883913640374e-01,4.129185410984471116e-01,4.848123096974266688e-01,-1.179088254458317275e-02,-7.417338190155914335e-03,-6.777821831313549095e-03,7.372892647981643677e-02
4.368315764301762272e-01,4.213362362667675831e-01,4.516554808565272361e-01,-3.565033991113819491e-03,-1.095910644304565196e-02,-2.199372644950546313e-03,3.320393338799476624e-02
2.624416121472853969e-01,4.530185166798501584e-01,2.070869401759148909e-01,5.822210862394257974e-03,3.412898636196793345e-01,-1.349773035500154983e-01,6.738899350166320801e-01
4.286390742023477030e-01,5.342616857070211500e-01,4.546613424707902640e-01,-6.303972866684916243e-03,2.686400299282723850e-02,4.805590892784209617e-03,1.069498956203460693e-01
2.452390972793927482e-01,3.662103252837353162e-01,3.985565414409494300e-01,9.170834838665098410e-02,5.678071728262062967e-02,-4.396085304577034697e-02,2.455490976572036743e-01
3.530078013135137804e-01,5.256790103263944136e-01,2.492963858157285495e-01,-1.857159009201423631e-03,2.151516974728793774e-01,-3.663401748372642486e-02,4.487612247467041016e-01
3.845687184585321328e-01,4.634143990048121831e-01,3.928047286193461218e-01,-1.032306203392693291e-03,1.003598663388312502e-02,4.697543583811000616e-03,7.750264555215835571e-02
5.483301950866092955e-01,5.062666369693228363e-01,3.421376050272315061e-01,6.043296180991357403e-03,-5.827231827903974534e-04,-1.270867136064192902e-02,1.902804374694824219e-01
4.024372813863666964e-01,4.535096710341751103e-01,4.218833006107404193e-01,5.409624947823754408e-03,-2.675992622876266925e-03,9.315899770284843603e-03,4.861085116863250732e-02
3.610911327795746084e-01,4.087476954569436716e-01,4.592301123339641578e-01,1.310567389829690732e-02,-5.508293898900699578e-03,1.183260532203128830e-02,9.083926677703857422e-02
3.678937020271152436e-01,4.415041792101432883e-01,4.110477605667886558e-01,-1.008946519988438741e-02,-1.140543683875948518e-02,-1.628955040905672585e-02,7.480559498071670532e-02
4.581793534508424304e-01,4.937790286784057292e-01,4.437603061578063168e-01,-1.416501435082945584e-02,-1.694474214286251224e-02,-1.414377014236413606e-02,6.365542858839035034e-02
3.841006788794392723e-01,4.618595522893536032e-01,4.519412559911883953e-01,-1.136065898454729529e-02,-7.778598919742746656e-03,-1.439544929979774852e-02,8.101839572191238403e-02
4.258484579281425209e-01,5.191177023648105848e-01,4.577204954241950730e-01,1.224461128886707682e-02,-2.413805231519398214e-02,7.828620376370375514e-03,9.551904350519180298e-02
2.818580172799494687e-01,4.685426376121268888e-01,4.035325290463515069e-01,-2.561437542027026303e-03,-3.875860858548829668e-02,-9.522959714704525708e-03,1.781558543443679810e-01
3.706344938639199449e-01,5.129781326056368496e-01,4.535720042820776676e-01,-1.421716405876276984e-03,-1.152725501574546237e-02,3.181032706027950383e-03,1.255777329206466675e-01
3.940242212520854714e-01,4.968644381113804798e-01,4.281487010502120216e-01,-8.306369473328065406e-04,-8.719132841371039777e-03,1.688139966818319807e-03,9.203211963176727295e-02
4.176873513792310755e-01,4.806956453554750985e-01,4.089483755546257093e-01,-5.867378539461019608e-03,-1.674042244863410342e-02,-6.668249762945590610e-03,7.532890141010284424e-02
5.462872437791218561e-01,4.944969950271235204e-01,4.651648024131794790e-01,-4.386903839459711796e-02,-2.459686085469774686e-01,-1.219806572750107426e-01,4.868004918098449707e-01
4.817772962912343360e-01,5.084572875145346726e-01,3.476506117099760762e-01,-4.328679136806956596e-03,-2.126958109145840256e-02,2.194386355000780067e-03,1.539744585752487183e-01
3.005748407698298763e-01,5.013637915202024953e-01,4.008509283797144218e-01,-2.132549986069579712e-02,-8.803683861483779793e-02,-3.485201915344521284e-02,2.418614029884338379e-01
5.315614102647879813e-01,5.948653862733722653e-01,4.537289330186676795e-01,1.079652638998400832e-01,-1.369055610511061005e-01,1.264652956675201279e-01,3.926470279693603516e-01
-1.922209918501703863e-01,3.447189881713312309e-01,2.224872936559573189e-01,-6.076982761351563955e-02,-1.778195526883336042e-01,-1.929810483876830476e-02,5.870856642723083496e-01
3.826401191317784778e-01,4.585370003041870923e-01,4.456535803621784475e-01,8.298605378990967646e-03,-6.477120787709849878e-03,1.719639181805308545e-02,7.853735238313674927e-02
4.351546930753759646e-01,3.800989022646120707e-01,4.216002865346661910e-01,5.808032983468497043e-03,1.703367202255139795e-02,-1.288056227932161610e-02,6.275331228971481323e-02
6.315212320161558424e-01,5.732245191392284500e-01,6.303417017953910628e-01,9.313471706181773724e-02,5.888104906248762399e-02,-9.734119813949358713e-02,2.611134350299835205e-01
4.105711800161898628e-01,4.284197084040079484e-01,5.047170515736940644e-01,6.758060023314682585e-02,6.556949344643681066e-03,-8.521950081779536843e-05,1.460550129413604736e-01
4.298712587238511240e-01,3.820658686814594196e-01,4.036442836801413803e-01,2.384178293762578837e-02,2.486060750889776752e-02,-3.280850159610908950e-02,9.223911166191101074e-02
6.518724693124592351e-01,5.911239022045909897e-01,6.604846244520536924e-01,8.369787706057633947e-02,6.648610399205862054e-02,-1.005008202248283133e-01,2.624236941337585449e-01
3.776061233598216882e-01,5.003403839001693276e-01,6.093266969732094029e-01,-2.569439233015535229e-01,1.724000415787571572e-01,-1.599110234644910214e-02,5.729843378067016602e-01
3.760934209468355660e-01,4.147713895810322682e-01,4.638374084986743306e-01,-1.134813494124125091e-02,4.642347978439109908e-03,9.198652175584182480e-03,8.066023886203765869e-02
3.509660521803956712e-01,4.336952405261601529e-01,4.721960105270757158e-01,-1.393568187517558142e-02,1.208795684704725565e-02,1.496061912434904807e-02,1.149086207151412964e-01
2.268123182937413218e-01,3.383684828784245813e-01,4.191705045442186695e-01,-9.292535321637299117e-02,-3.423475797155976774e-02,-3.430783878450193586e-02,2.468607127666473389e-01
3.037529719678175866e-01,4.979673365080952152e-01,5.230335769048554129e-01,-2.178937859994984835e-02,6.124594562795485260e-03,1.678242218585256811e-03,2.115681320428848267e-01
1.763480187275279221e-01,4.332594124919300627e-01,3.436725365038672542e-01,2.423694561381444651e-02,7.975325532645045901e-02,-1.486602420871847678e-02,2.692961394786834717e-01
4.378666022255695567e-01,3.300262345499607175e-01,4.005454945709999159e-01,-2.269045661587730522e-02,-2.748848584072866377e-02,-4.379759352462599120e-02,1.362490206956863403e-01
4.394742326183478931e-01,3.286966675679162675e-01,4.744126430751474111e-01,-2.128616925854441913e-02,1.067887648358541337e-02,8.944162734867481396e-03,1.389394253492355347e-01
3.841251763250430051e-01,3.789195475419738779e-01,4.172286125429877646e-01,1.495054389490760999e-02,-1.798549176355747695e-02,1.880206433749406769e-02,6.322027742862701416e-02
4.178772324180058950e-01,2.946613305516780912e-01,4.685221330829162922e-01,-4.841723311594452184e-02,6.177779464930924051e-03,5.762200198915495494e-03,1.767317503690719604e-01
6.557207578933224035e-01,6.615879628482935759e-01,3.967802784166226671e-01,-1.236497281497404496e-02,3.319720287991820892e-03,7.743136600269918957e-02,2.950973510742187500e-01
6.246157291173919379e-01,3.694341575679482292e-01,3.270551852030540996e-01,-1.334090603125605290e-01,4.648080182080512740e-02,2.098323954232953203e-01,5.193189382553100586e-01
4.622993270660369358e-01,4.093710497556653505e-01,3.818220447674546825e-01,-1.580118425130213472e-02,1.226832382165154653e-02,1.645388869259016909e-02,8.385243266820907593e-02
5.668995334447323176e-01,3.867733507587187147e-01,5.362036986770587488e-01,-1.894368461876112242e-01,2.442023664205220379e-01,1.046770288531512910e-01,5.893163084983825684e-01
3.973948315637662598e-01,4.416940330782190283e-01,3.952671882881303445e-01,1.338213706949258237e-02,-1.168984314939674682e-02,1.337481416850219880e-02,5.954039096832275391e-02
4.636949406863670742e-01,4.279528345610981721e-01,4.099675208946965688e-01,-1.200244766505628551e-02,7.532406947294535086e-04,5.339656401486351026e-03,5.256630852818489075e-02
3.839869317941362326e-01,4.404948547252167668e-01,2.611563995858630083e-01,-5.450178183541368702e-03,3.251625300818305336e-02,4.700946133294278510e-03,1.689636409282684326e-01
5.427529412373093276e-01,7.352540615533899038e-01,1.818038389593575888e-01,-3.292284523635024412e-02,-6.044584131114032893e-02,9.181108277617226754e-02,5.256659388542175293e-01
4.722890342251448992e-01,4.205472753176407452e-01,4.017141934820652738e-01,9.267896538803884615e-03,-1.274217084327338573e-02,2.947168268663499791e-02,8.577214926481246948e-02
4.046267386539669220e-01,4.173974931728601234e-01,4.143350054375129488e-01,3.142698882210425565e-02,-4.421568066558385912e-02,1.793156769756732230e-02,9.962946176528930664e-02
4.269700735059007712e-01,4.200614837423284342e-01,4.703726086647319615e-01,1.227055785857718642e-02,-1.021700056494570345e-02,8.604342264373003590e-03,5.673027411103248596e-02
4.482403362680645320e-01,3.911428161632918843e-01,4.234457950911728608e-01,4.272334165901090636e-03,-1.395113451164860414e-02,4.782264108172821007e-03,5.627131089568138123e-02
3.942530841048895729e-01,4.937108108502250570e-01,5.090153549111220421e-01,9.493852210635873867e-03,-1.090349652674173914e-02,1.896671686423121242e-02,1.155616343021392822e-01
3.970116390485698976e-01,4.729346047740212167e-01,5.027069068159500942e-01,8.242722402404596693e-03,-1.025128903245042279e-02,1.589370620940853268e-02,1.009356826543807983e-01
4.236356342994199720e-01,2.499315514843197805e-02,3.608716359464286261e-01,9.662523520267840560e-02,-5.418555779624362190e-02,1.453931053446347321e-01,4.879239201545715332e-01
4.158411442069925301e-01,4.065850926711427893e-01,4.605159871755328815e-01,4.932155119113955377e-03,-1.122380491758793314e-02,4.263084084350630097e-03,5.477636680006980896e-02
4.271442936783244604e-01,3.766900845697426226e-01,4.649359380425424071e-01,1.058689051225421111e-02,1.388167051805253190e-02,-4.454098201801701302e-03,8.279160410165786743e-02
4.432804189515627824e-01,3.728146194828451110e-01,4.554992448403366589e-01,5.616791736084162691e-03,1.352367696268273745e-02,-7.783906214897596404e-03,8.246708661317825317e-02
3.717503401222641557e-01,4.554053181583683774e-01,5.137967671054949337e-01,-1.137736222816137371e-02,8.527914591804001791e-04,1.481096088604854028e-03,1.252579241991043091e-01
4.223939520360684430e-01,5.007592003500791478e-01,5.579031155512743645e-01,-6.492571787854575782e-02,3.039390267709214666e-02,2.361528178355059432e-02,1.759974360466003418e-01
4.075546886423966897e-01,4.316284979171072234e-01,4.933719925872353529e-01,-5.251522208192801328e-03,1.478492686065146838e-03,3.984649431894068082e-03,7.755729556083679199e-02
3.972260193324054223e-01,6.936850117605302124e-01,7.227935554718722955e-01,-4.476075251704046687e-02,-6.627629174845375490e-03,1.652502950761453645e-03,3.217378854751586914e-01
3.133052675563657852e-01,3.617854040663242565e-01,4.406517804587329334e-01,-5.194851864964118021e-02,-2.198474786743734657e-02,-2.069972453946120408e-02,1.523976773023605347e-01
1.176345188355012727e-01,1.249607661990420338e-01,2.797426515406463698e-01,-2.217247532000083954e-01,1.791268056695993760e-01,1.493818064024430570e-01,5.795124769210815430e-01
4.213401161279696217e-01,4.496056466478361435e-01,4.289950750070241625e-01,-1.796307038602750145e-03,1.490457345947366393e-03,6.854022641390450712e-03,2.825676091015338898e-02
4.051135344854632780e-01,4.139685259942280648e-01,4.096114887275391081e-01,-8.684337261673405473e-03,8.947837405070848543e-03,8.519819102037688718e-03,2.725838497281074524e-02
4.139297298040980899e-01,4.576747486978205992e-01,4.143807540995087524e-01,-1.012960538906058049e-03,4.804846010535400447e-04,3.069658898146307609e-03,4.388780519366264343e-02
4.253720221611806407e-01,4.495666925033612316e-01,4.262178394547900817e-01,4.887121550233921056e-04,8.204278163692666588e-04,3.970160320295155337e-03,2.481240779161453247e-02
3.858661830112199431e-01,4.706271917117261228e-01,4.380508120836386632e-01,-1.986130425641254374e-02,3.217595643788428994e-02,2.488419496450062010e-02,1.078489795327186584e-01
4.524735165739253162e-01,4.011067910155259320e-01,3.992947692736205090e-01,-1.360037792965425839e-02,1.036838680392238206e-02,1.285800196323194818e-02,6.409607827663421631e-02
4.548157852796704814e-01,3.873600566962872582e-01,4.236060899868442919e-01,-2.133409432814406537e-02,2.534210626991627649e-02,2.830047061561323865e-02,9.546672552824020386e-02
5.798053150937698685e-01,5.099188597373215392e-01,5.440998142454936959e-01,-3.419907293991984731e-02,5.376372160855686505e-02,1.050288656790061420e-01,2.212175428867340088e-01
4.845217000054714562e-01,4.285364414430822277e-01,4.004097267630064572e-01,-7.499544807904610748e-03,9.347032708668092868e-03,2.891169779428267791e-02,9.186203032732009888e-02
4.152286569310257303e-01,4.461888842845128655e-01,4.152463938546415712e-01,8.107404573823156005e-03,-2.741790118081697657e-03,4.140145623246965778e-03,3.505925834178924561e-02
4.812739684680979457e-01,4.163585419523626596e-01,4.014607249675841150e-01,-8.319530416933697964e-03,2.633681640493263591e-03,7.078973561346835024e-03,7.603843510150909424e-02
3.353148075372835435e-01,4.315752132872708868e-01,4.294979843895769811e-01,1.450438465377884567e-02,-1.792271519771837518e-02,1.797387754197080079e-02,1.078629195690155029e-01
4.468884237204910903e-01,4.113740681495191565e-01,4.920651571776146205e-01,2.903593004817871248e-02,6.930844883231697222e-03,-1.073734982204788656e-02,8.902733772993087769e-02
3.970177755238680772e-01,3.896236697647237901e-01,4.582679681995566190e-01,1.147126604587062927e-02,-6.202485377944728234e-03,2.160818510078237574e-03,6.916169077157974243e-02
3.964691591214391519e-01,4.061109195105280234e-01,4.540931052058770345e-01,7.204732322743015623e-03,-3.531648694718871918e-03,8.011753909099864762e-03,5.695255100727081299e-02
4.308700578869634756e-01,4.364585435256675416e-01,4.455568061974276017e-01,2.154899935332877173e-03,-2.141005513670357630e-03,1.272227195799108387e-03,1.404967065900564194e-02
4.164469934519063332e-01,4.206155419006767371e-01,4.750017902404951586e-01,1.316365184824164376e-02,-6.537244946975880738e-03,9.567674736533712462e-03,6.422324478626251221e-02
4.185196411016822160e-01,4.278353707306591924e-01,4.588018601070091296e-01,3.204327815589811702e-03,-2.893196057451288307e-03,1.782186022431223819e-03,3.741156309843063354e-02
4.190228899353934389e-01,4.172507766170869825e-01,4.409601525608124462e-01,1.957209604263073725e-03,-5.243967671674639938e-03,9.019439202070299267e-04,2.489355951547622681e-02
4.091073114188476523e-01,4.084869861390353352e-01,4.678097631384686705e-01,9.405280590917820122e-03,-6.512776031474978508e-03,6.136957095949070046e-03,6.315370649099349976e-02
4.089179751419217967e-01,4.129334128105334734e-01,4.402022733832633428e-01,5.422572769222148287e-03,-1.019828300120113364e-02,5.844035174941084217e-03,3.703912720084190369e-02
4.124646496275431451e-01,4.322580619887774200e-01,4.213091692631175667e-01,1.559109586186507900e-03,-3.034529102867653851e-03,4.178865369373277114e-03,1.955115795135498047e-02
4.212220461618243483e-01,4.217796370347063895e-01,4.691108554622399063e-01,1.018262760669614263e-02,-8.243773773162389393e-03,7.983448487662284446e-03,5.452604964375495911e-02
3.709879524320918720e-01,4.086532580285269223e-01,4.481327732078335679e-01,1.230765922872809580e-02,-1.462887389326102475e-02,1.481531027759917275e-02,7.886217534542083740e-02
2.967537138706868860e-01,4.167025384152161505e-01,4.679869116383056360e-01,2.887453675985603846e-02,-3.720301272545397785e-03,1.008009434193308206e-02,1.612974554300308228e-01
3.237917854707716980e-02,5.836297704840506251e-01,5.956210504435506259e-01,-4.610342097715103282e-02,-3.151813771673445813e-02,-3.817024810619431413e-02,5.695251226425170898e-01
3.360462138893394179e-01,4.520494859247559116e-01,4.361250500715533329e-01,1.745351213687318104e-01,1.214876931426719653e-01,-1.310544116456920094e-01,4.461548328399658203e-01
-1.756609700375277860e-02,5.453251171890489690e-01,5.269516588552454195e-01,1.959213286321321024e-01,9.508829218877346001e-02,7.926494528285521479e-02,6.840844154357910156e-01
3.540430402232672136e-01,5.206081507726777469e-01,5.023046347052801952e-01,7.147509878577323547e-03,-1.292565247046499263e-02,4.001821511699220346e-03,1.604143083095550537e-01
2.636607538200704259e-01,1.802664372054159081e-01,4.353642250291915872e-01,2.194307485906585864e-01,-3.318968148996945949e-02,1.111064374610315070e-01,4.853286743164062500e-01
4.098342159545450558e-01,5.452497805663804042e-01,6.232800887945761925e-01,5.056372191603512867e-02,1.276283662206290602e-02,-1.450838644044066122e-02,2.092435061931610107e-01
4.775767134399226954e-01,4.376872889092478514e-01,5.280618776669274705e-01,2.753382420427843286e-02,1.829924353544800861e-02,-1.714714545053831404e-02,1.015614941716194153e-01
3.627527149495863301e-01,4.105948570458428648e-01,5.209622787261403154e-01,5.913263607615223960e-02,-1.779680499202997146e-02,1.296761437705953304e-03,1.766218543052673340e-01
4.304588103457973602e-01,4.525348637013703601e-01,5.056104713084904612e-01,1.715677751791033420e-02,1.549637620036183744e-02,-1.419935406721507115e-02,8.175827562808990479e-02
5.810058062975965720e-01,5.406872332709175000e-01,6.892102656970717778e-01,1.179899209850674147e-01,-2.336145446491049230e-02,4.887355809979933990e-02,2.612746655941009521e-01
4.426066814114311687e-01,4.287586798720587344e-01,4.206075335442693297e-01,6.030206924088134766e-03,-6.517674886349473194e-03,5.936831504744856207e-03,2.670868299901485443e-02
4.534937168577870548e-01,5.376957359931601177e-01,6.461841328585453681e-01,1.115818261396942096e-01,-2.919885668459304764e-02,2.659957343449513914e-02,2.646251916885375977e-01
1.479627677504186944e-01,2.546927006191835319e-01,1.018612316300290255e-01,1.220583904563029148e-01,2.429375753136844285e-01,-2.097790747896575159e-01,6.100897789001464844e-01
4.736586393101395176e-01,4.270269819743489625e-01,3.066102697342278360e-01,1.957178074986411914e-02,1.766144101860893378e-02,-2.235656572401241785e-02,1.608549654483795166e-01
4.596405817376509884e-01,4.127814570506325165e-01,2.962552739268142776e-01,1.409203908888617685e-01,2.695472816111896819e-01,-1.578864532590386338e-01,6.111969351768493652e-01
4.521100581571906862e-01,5.695967191804934826e-01,3.936366107956489890e-01,-3.143564904222676676e-02,3.386169081472888975e-01,6.213763661481268297e-02,6.185662150382995605e-01
4.309351872050450893e-01,4.309487917536297674e-01,4.279486401707081056e-01,-3.240233997299259150e-03,-3.087042123196508028e-03,-2.339828770089695965e-03,9.245079942047595978e-03
4.034799002648568056e-01,4.894776417858299200e-01,4.241756333282077907e-01,4.703151790982379454e-02,1.515118746152551432e-01,-6.395739875996005186e-02,3.062992393970489502e-01
3.959754460180792690e-01,4.312809530461995111e-01,3.670947990488796497e-01,2.899846726154458806e-02,3.321229142467923418e-02,-2.341993181392465137e-02,1.028474494814872742e-01
4.796950783768969551e-01,4.539713927255533688e-01,3.854444676002631853e-01,9.479878543310053807e-03,8.797399139663895917e-03,-1.232017236167671191e-02,8.987524360418319702e-02
6.443549353602935348e-01,3.280318558760915160e-01,3.000338045561031786e-01,1.368274767894446520e-01,3.870841963114168144e-02,-1.834261863831179729e-01,5.208612084388732910e-01
5.178487744390452008e-01,4.599235772390679045e-01,3.823735993185701232e-01,7.106344653513993470e-03,8.054163168337409584e-03,-4.933341246666076395e-03,1.195012480020523071e-01
4.543965052929641590e-01,3.279008303110712008e-01,4.329958211281079716e-01,5.470352182715237412e-03,1.863997869959221204e-02,-7.945055777647702655e-03,1.227743625640869141e-01
4.922602861178554390e-01,4.580886810123372399e-01,3.448575491800741633e-01,-1.629679605043878390e-02,-1.240316046475230423e-02,-2.573121790555180782e-02,1.452681571245193481e-01
4.742759838775524872e-01,4.115188025552541373e-01,3.025160965747847319e-01,8.198468831062233342e-03,1.707819860674845806e-03,-2.854283904357317672e-02,1.591076105833053589e-01
5.097631322489996064e-01,4.313449094442348142e-01,4.886683818153966241e-01,1.994045731371233560e-02,1.964299205957197730e-02,-3.900668811874951486e-02,1.088814288377761841e-01
3.641918805813184057e-01,4.275296076158111025e-01,4.085478099310413946e-01,2.587986224275745650e-02,-3.071503157811707532e-02,2.654146481730717405e-02,1.006111428141593933e-01
5.783504695099078718e-01,5.831391033693885673e-01,4.122271787591971770e-01,-6.695143778766442233e-02,-9.982594036998877762e-02,-8.663103235623313692e-02,3.070396184921264648e-01
4.304446339785774622e-01,4.224462636546023053e-01,3.356825533223140035e-01,-2.262145829245029022e-02,2.899280621906270838e-02,1.017872098655266989e-02,1.124884113669395447e-01
3.570994416608748168e-01,3.643831781660344937e-01,4.255899061206047662e-01,-2.362144407058061613e-02,1.238771282644445665e-02,1.194384086130156723e-02,8.250685036182403564e-02
4.884955795829625247e-01,4.500233813116158998e-01,3.621211130326994487e-01,1.399070696211894733e-02,-1.035392712937360836e-03,1.047971447946919633e-02,1.162265911698341370e-01
4.852854983409381484e-01,3.988008443829624827e-01,4.303335405970680205e-01,-4.326093054823738904e-03,7.920563268029982146e-03,5.156830016805893750e-03,7.791624963283538818e-02
4.053014690893416150e-01,3.904712080731149726e-01,4.088048538232203488e-01,-2.317931035741778792e-02,2.132346366764386117e-02,1.895190389607998363e-02,6.586047261953353882e-02
3.515337484878838792e-01,1.745726263857808047e-01,1.257370413911951257e-02,-4.479996289008158356e-02,7.785378788976871078e-02,2.245136157845998848e-01,5.115175843238830566e-01
4.742806403972132934e-01,4.346255029058289643e-01,3.002313564344750718e-01,-1.489522926235515492e-04,2.115325300196090573e-03,3.139607420831534712e-02,1.671357750892639160e-01
4.962300657119216307e-01,5.385293853502102213e-01,4.136646342363434203e-01,2.583992645572657718e-02,9.059509850932044583e-02,-1.043140111296074202e-01,2.671488523483276367e-01
4.388913100122361355e-01,3.532743318214145445e-01,1.382689385471855548e-01,8.817019228283924648e-02,1.135859149323343725e-01,-1.706617047108428542e-01,4.704988598823547363e-01
4.426367038804975285e-01,4.659796706498413044e-01,3.455414039029684470e-01,1.510745082834911816e-02,2.119725260980795736e-02,-7.344743135106519653e-03,1.201390698552131653e-01
3.917210390221421701e-01,4.843062430511249628e-01,4.240209445831493174e-01,-5.031846032392997114e-04,4.898837180098911115e-03,5.692647059274982824e-03,8.243048191070556641e-02
4.230414241092216310e-01,5.028327279937118144e-01,4.484884192647847212e-01,7.087677529253798465e-03,2.470969037879172658e-02,-1.611966553082044840e-02,8.800963312387466431e-02
4.120176204756132998e-01,4.771660502101968127e-01,4.065184093578673719e-01,5.703924800143537338e-03,2.001779814575146890e-03,-1.157018446157422314e-03,6.889460235834121704e-02
4.140786623839520231e-01,4.900032273939271543e-01,4.112743174805069124e-01,3.313206126015766362e-04,1.385702145034131780e-03,5.875235340933129304e-04,7.741090655326843262e-02
4.037865498801548880e-01,4.810819801164611942e-01,4.072068500849437278e-01,1.185291157892531073e-03,2.118646867505379235e-03,-1.270914653167876497e-03,7.579205185174942017e-02
3.766755778995626858e-01,4.554832723704564934e-01,3.150776217350877428e-01,8.467981870134694625e-03,2.256364732467215292e-02,-2.092314748076584685e-03,1.288990378379821777e-01
3.989285492993925319e-01,4.775389643165217080e-01,3.893871352833304655e-01,5.869663043895140785e-03,9.809476435659115687e-03,-1.400876607561479326e-03,8.613137900829315186e-02
4.185251647868700187e-01,4.498602754039069396e-01,3.811010654357149252e-01,-1.393606592713038210e-02,7.725812684131216392e-03,5.947775447160411760e-03,6.650545448064804077e-02
4.444379136368638017e-01,4.849188322418712116e-01,3.429122810670607313e-01,1.907693447835085224e-02,2.582390491343354577e-02,-6.831824744799346559e-03,1.388828307390213013e-01
4.417305861196691996e-01,4.476240912561553764e-01,4.671087934660699270e-01,7.173929883705734353e-03,1.050217002310929390e-02,-1.003311121905160579e-02,3.628350421786308289e-02
4.753022647159650393e-01,4.670313808871410233e-01,4.634926030926477813e-01,1.567884367403666809e-02,-7.898416108356514850e-03,1.589868198214480083e-02,4.234544560313224792e-02
3.908380301227796227e-01,4.246722274983126266e-01,3.873203914215445631e-01,1.077396711493178519e-02,-1.458975524417943474e-02,1.192349826573552152e-02,5.186010524630546570e-02
4.027142478908822265e-01,2.907752304272248622e-01,4.000290963902433661e-01,3.532545585132631366e-02,-2.737921123206074267e-02,3.831211710443081092e-02,1.504425555467605591e-01
4.269547322063341754e-01,4.293675231364135203e-01,4.348714071435797468e-01,3.207913039318211618e-03,-3.162344249987207676e-03,6.697284386965858191e-03,1.564698852598667145e-02
4.674085078287379957e-01,4.244942182795052865e-01,4.162244483476181256e-01,8.859290366265053576e-03,-9.153958047405394080e-03,1.410921077432615231e-02,5.787030234932899475e-02
4.555203641085684430e-01,3.549773577495187737e-01,4.819044311564767424e-01,4.138530498775894184e-02,-1.612890377911092507e-02,1.846188356792098292e-02,1.428248137235641479e-01
4.375860927125827526e-01,4.217228887741721888e-01,4.290891067850273188e-01,1.602486534705334018e-03,-6.460196867488247549e-03,2.644291256362671545e-03,1.851847022771835327e-02
4.852749376156549332e-01,4.107781870762081122e-01,4.093443736513122655e-01,1.514626524211808113e-03,4.240940580622876502e-03,-3.398391642544865577e-03,7.585593312978744507e-02
5.041651219847658183e-01,4.422860375337738792e-01,4.530486894751470373e-01,1.739559165541038066e-02,-3.058200401482346134e-02,3.829790397918981376e-02,1.067363917827606201e-01
5.133163950675917464e-01,5.819526482494049580e-01,4.098182558771812367e-01,-9.197263107262416970e-02,1.533676892286321980e-01,1.828454217288261463e-01,4.677239656448364258e-01
5.940257667310926415e-01,4.724486339907698063e-01,3.860936859266380639e-01,-2.797131933530057693e-02,4.784949750849313427e-02,1.433807336483479133e-01,3.219114542007446289e-01
2.637576260331699340e-01,1.579517882747662749e-01,1.910178312089733654e-01,-1.661123714374048432e-01,1.849804284235249396e-01,2.038185846047412542e-01,5.646671056747436523e-01
4.626782315440733373e-01,4.532040263195944996e-01,4.338389924553590071e-01,-1.917822038591432063e-02,1.233051683688891897e-02,1.828095622375036297e-02,5.665995925664901733e-02
4.375437422293861345e-01,4.271115406861059061e-01,2.806008162261737215e-01,-7.435168100591028895e-02,1.781053999758089867e-01,1.444515814899069439e-01,4.443540871143341064e-01
7.743643249961036368e-01,6.259613151331858694e-01,5.130999358871422000e-01,-1.246792814655496712e-01,2.007571315715268034e-01,9.921388406015925476e-02,4.985833466053009033e-01
4.968299995117455570e-01,2.915822563810163137e-01,5.112394220354949947e-01,-4.850210873024694141e-02,1.479846464833637493e-02,3.701243396606785502e-02,2.389892786741256714e-01
4.077516771154840458e-01,3.748916997932298378e-01,4.330925284864495795e-01,-2.999066401776822807e-02,2.391583069858907451e-02,2.613387152461814703e-02,9.496206790208816528e-02
4.172989463078234373e-01,3.657492197063411110e-01,4.422439879734929025e-01,-7.414668370801917943e-03,1.984734562179976333e-02,1.265678638053949374e-02,7.995501905679702759e-02
4.228385367538154416e-01,3.923148737937210417e-01,4.779182696349540405e-01,-4.298407437111517737e-03,8.973000139352003968e-03,2.852838828848948578e-03,7.725344598293304443e-02
4.006210207830010472e-01,4.069043919835272360e-01,4.513983392961922192e-01,-1.064950244356532155e-02,1.363080938060561194e-02,1.500343718234091982e-02,6.222303584218025208e-02
4.031756823660989086e-01,5.229609755018594930e-01,5.044911331329678950e-01,-3.338748127395630566e-02,3.224408698490063147e-02,2.388389349889957769e-02,1.437072455883026123e-01
4.276429401432837452e-01,4.313167383116389142e-01,4.977280335505187003e-01,-3.524750740626101525e-02,9.934125143092695925e-03,8.817781061016792543e-03,9.446914494037628174e-02
2.959650049720878862e-01,3.581188955019992126e-01,4.464310251243144845e-01,-5.175814791516983315e-02,-2.775404300512584847e-03,-5.747858481365933879e-03,1.590912342071533203e-01
3.168145386833378097e-01,2.720984754785761295e-01,4.200400391871720318e-01,-6.372380268289661032e-02,-1.583418689340027052e-02,-8.914211885869521845e-03,1.744809150695800781e-01
3.763866095518589860e-01,4.971935386618380193e-01,4.495903552440867479e-01,-6.230881090086414636e-03,8.560721726770140899e-03,1.486238868714097848e-02,1.100390106439590454e-01
3.389581823285853779e-01,3.900034250821212689e-01,4.629238401271305592e-01,-2.179754591710543130e-02,2.386236739664964607e-03,6.256264245476189818e-03,1.149136573076248169e-01
3.267437678134574863e-01,4.581429900967974311e-01,4.882756998563484996e-01,-2.655098036733423775e-02,-5.141948288757671121e-04,3.749217691103774903e-03,1.558556258678436279e-01
5.130718051211358155e-01,3.571121912228961692e-01,5.457948195518480539e-01,-6.488292956222116437e-02,4.759195088671238499e-02,1.131695645489526336e-01,2.972273230552673340e-01
4.343724819620385924e-01,2.889510008839031863e-01,5.056025810573803181e-01,-7.780506799503590643e-02,-1.092552439195512340e-04,-4.140625645380988660e-04,2.339678555727005005e-01
5.127214610011047169e-01,3.181600233017888302e-01,4.986963809352920607e-01,-1.258936799003851359e-02,2.320824168361197790e-03,1.643737400013228420e-02,1.913747936487197876e-01
7.748793116350387589e-01,3.216849640290091461e-01,6.957722080850873292e-01,-2.907547769251674769e-02,-5.672520367171857841e-02,8.707472787517886448e-02,4.590507447719573975e-01
4.289026174017961934e-01,2.135976821118900082e-01,6.880211599394757682e-01,-1.578274717801972371e-01,-2.545062992931752463e-02,-7.835223804199589748e-02,5.141761302947998047e-01
4.528373195080517277e-01,3.542815501649798082e-01,4.657978642720649320e-01,1.224776546394391874e-02,2.048301035014421165e-02,-8.250975665625687183e-03,1.143305376172065735e-01
4.155053043358967746e-01,1.342084372225729461e-01,4.012858603600282237e-01,1.831284233876429857e-01,7.233469746360272901e-02,-1.031216664583430032e-01,4.727974832057952881e-01
4.956159830798481103e-01,2.926322572530967170e-01,4.806707958603248509e-01,1.677015067403117565e-02,-1.426526682476187378e-02,1.411865663081644968e-02,2.011077851057052612e-01
4.433940266737325109e-01,3.600774462575569990e-01,4.849155300374373700e-01,8.691356064191498379e-03,1.927065368834606288e-02,-9.070644313676894457e-03,1.171009838581085205e-01
4.356300517782444870e-01,4.299693271189423682e-01,5.020367837174533054e-01,8.900767731434106392e-03,1.032897149888173730e-02,-8.879801530965143047e-03,7.491391152143478394e-02
5.091806074719614772e-01,3.374865517582584240e-01,4.519291345397791759e-01,-2.987872953998703743e-02,-4.472356055402721504e-04,-4.967962310966553274e-02,1.816861331462860107e-01
3.833837902119743291e-01,5.834380862494464859e-02,3.699995149463589650e-01,7.476860563500686320e-03,6.112908540654742777e-04,-6.384887728124034878e-02,3.374589979648590088e-01
6.855007490629012601e-01,3.723685280551422006e-01,6.758877616660443621e-01,1.618837474214598199e-02,1.222254599209254659e-02,1.464964697096476226e-02,3.114679157733917236e-01
4.477011602164253645e-01,1.914014556293558433e-01,5.342090865873817540e-01,9.059083441249619895e-02,4.375341225805263329e-02,-8.705343316836391260e-03,3.548741340637207031e-01
3.668012819801589885e-01,4.798011053724773323e-01,4.858229796220416286e-01,-2.227464551761715317e-02,-6.194701178199300308e-03,-1.543427691886548742e-02,1.257137507200241089e-01
4.940388629265837217e-01,3.089289227310961783e-01,4.835154545599777975e-01,-2.824850387053100612e-02,1.792713928836916701e-02,2.381029288851353037e-02,1.936164200305938721e-01
5.831745035369123586e-01,2.243203060448917263e-01,7.017623555539651559e-01,-1.231836158213403948e-01,-1.966536611127486442e-02,1.308777210115776857e-01,5.324141979217529297e-01
3.545202364313460031e-01,-5.314461695123967599e-02,3.023907917594755301e-01,-1.382680729686486254e-01,7.228373586322157929e-02,2.364904478488391859e-01,6.232727766036987305e-01
5.185849497045242895e-01,2.858284180397278051e-01,5.260253478900216439e-01,-2.544638352184575014e-02,1.508000712610322452e-02,4.033793323888026222e-02,2.519305050373077393e-01
5.509979416680460540e-01,3.380376343937976369e-01,4.906250340380458042e-01,-2.250076212009300552e-02,3.440731918421761210e-03,6.596220609640715549e-02,2.252717316150665283e-01
5.611480732365977664e-01,1.226487165205706886e-01,4.774218658739342591e-01,-2.487289644117006426e-03,3.339054720549125554e-02,1.769981034046200219e-02,4.085108041763305664e-01
5.103719367450821887e-01,2.837970793845530082e-01,4.779921752954857661e-01,-2.584509431553834360e-03,-1.360680857639553001e-02,1.106046512315155689e-02,2.144543081521987915e-01
8.004146108778816826e-01,5.130389922313249862e-01,9.009653052384150040e-01,-1.373746512592001756e-01,3.132449618606249903e-02,7.259700885701668438e-02,4.438029229640960693e-01
5.241806526199025429e-01,2.391157846344585114e-01,4.161517499599983183e-01,-2.899639702365677807e-02,-1.050543460417421859e-02,1.235321154613891054e-01,3.328227698802947998e-01
5.226242818106083821e-01,3.242721926143206090e-01,5.182705713034992945e-01,-1.697017319760741119e-02,-1.525159920735431364e-03,-7.226101932792360245e-03,1.988127976655960083e-01
4.769486930623625387e-01,7.292889275246385861e-01,7.734357561683881110e-01,-1.525034614070744365e-01,1.011271130518524713e-01,5.686045925405804752e-02,4.323377013206481934e-01
4.170109213590484920e-01,4.536459745711850511e-01,4.162229952651776976e-01,2.243593622217634510e-03,9.225552625110466451e-06,1.951914354217272824e-03,3.739177808165550232e-02
4.311483190084687278e-01,4.622321700993640703e-01,4.252636843352693985e-01,4.804959835555165128e-03,9.142346807531387577e-06,1.935155133266523719e-03,3.555628657341003418e-02
3.853612035051240392e-01,4.383802677723110941e-01,4.180196360543538825e-01,5.795732211728490263e-03,-9.472393454311646421e-03,1.311452566736538532e-02,5.506357550621032715e-02
4.353275279268334907e-01,4.389438718888065694e-01,4.280059930852660455e-01,4.161519009920670864e-03,4.772463435966706104e-04,1.739115053491326448e-03,1.244474109262228012e-02
4.197720848378720948e-01,4.367738299041329375e-01,4.210177211849250312e-01,2.200080819397127931e-03,1.783046425738394345e-03,1.039289580913972406e-03,1.722591556608676910e-02
4.383373275921745305e-01,4.816151731817144288e-01,4.559874795625545874e-01,1.488701253148844682e-02,-1.773206941324831018e-02,1.487469778674604427e-02,6.076641753315925598e-02
4.287918033762787573e-01,3.707622328030479308e-01,4.363363513402498395e-01,4.817982879304145982e-02,-3.228985524255802153e-02,5.066590724607262369e-02,1.471565514802932739e-01
2.936535454717541516e-01,5.164993428674586884e-01,3.148410701564899328e-01,-3.706523565731158296e-03,-1.125881195819424668e-01,-3.937398025854861594e-03,2.889698743820190430e-01
3.417237691937374255e-01,5.367866281182147592e-01,4.708605418517545771e-01,-2.468178878817762698e-02,1.318253226752016394e-01,-2.895981451328346820e-02,2.932803630828857422e-01
2.304284788900600733e-01,5.727867327394187136e-01,7.439200309336782002e-01,-8.299462517903909153e-02,8.299968067942194161e-02,1.771153694757314143e-02,4.973499178886413574e-01
4.309505896470406938e-01,4.345817816410962320e-01,4.354508835939035483e-01,-1.861512921894542755e-03,4.011013261956608220e-03,3.779458718817075603e-03,1.089082472026348114e-02
3.528225121030867384e-01,4.686701702313090800e-01,4.556148623577136458e-01,-4.827154207696291756e-03,1.292351703485055889e-02,1.571846185145489225e-02,1.157188862562179565e-01
4.010431107968034925e-01,4.732245244752352198e-01,4.543295386836708194e-01,-5.100927087519128121e-03,7.152246586620557810e-03,1.415703555806723836e-02,7.096546888351440430e-02
3.894966809385797535e-01,4.628445758620302053e-01,4.002953638061268471e-01,-3.312876511990196522e-03,1.078686569481199058e-02,7.676652697593714519e-03,7.254827767610549927e-02
4.205338150600660407e-01,4.655473801093341635e-01,4.267480468536759552e-01,-8.494300287790997397e-03,1.404166748604012901e-02,9.352007791757193517e-03,5.343648418784141541e-02
5.095849765556980104e-01,6.661942226503871911e-01,5.107323244895167758e-01,-3.175723450912042861e-02,1.162633059572601435e-01,2.709190400993569461e-02,2.648150920867919922e-01
2.596774821266851774e-01,5.772590409468768557e-01,5.549935823968047410e-01,2.425675361049351234e-02,8.790851605862386176e-02,-1.447908888367443331e-02,3.462087810039520264e-01
4.088700978329070646e-01,4.543097921087188018e-01,3.522550351231303334e-01,-1.326938871791146640e-02,1.128901112215204526e-02,7.822706634201476508e-03,9.453434497117996216e-02
4.447173972991342872e-01,4.530760860687733094e-01,3.736866623460062264e-01,-1.439446047981460773e-02,7.743691881934994248e-03,1.264138062986510172e-02,8.360541611909866333e-02
4.237451765633633571e-01,4.393072426773853012e-01,3.851250140488143847e-01,-1.358151825215907563e-02,9.909558922713380263e-03,6.494356833399266005e-03,5.752569437026977539e-02
3.695094995737896459e-01,4.283328622272430941e-01,3.668574527027426702e-01,-5.194158150364541759e-02,5.424138833170826651e-02,4.226270756547106239e-02,1.609403640031814575e-01
8.974138360565316885e-01,9.289667132172384489e-01,4.569656043539079282e-01,2.658316488504212927e-02,-3.927466524137928489e-02,-1.341884411728140429e-02,4.649465978145599365e-01
4.808465796258227787e-01,4.933445907255782359e-01,2.772010738183425804e-01,-1.071513913556518477e-03,-1.855327598926128892e-03,-1.224053222875920964e-03,2.102168500423431396e-01
4.965083413359391296e-01,4.782473755329911813e-01,3.382525076139099030e-01,2.025775538632515124e-02,-1.108054359457045883e-02,1.447864621791202823e-02,1.572158634662628174e-01
5.274807652555151272e-01,5.474445557374503224e-01,3.287428933531714170e-01,-4.473520109085197399e-03,-5.157448740765751931e-03,7.012679482308624423e-03,2.101195454597473145e-01
5.000146335815460752e-01,6.119711834360336278e-01,6.329122939453489805e-01,-7.491662742711606426e-02,7.953524045714646662e-02,4.792992790136088588e-02,2.408821135759353638e-01
3.692396616126716324e-01,4.513733173770352880e-01,5.032810453089842095e-01,-1.135441932369555575e-02,-3.315678081315523180e-03,-1.092664382070068644e-03,1.188572794198989868e-01
2.390468046838197524e-01,5.842896159728017125e-01,-7.619853680624200098e-02,3.194509506774912549e-02,2.367383212323356523e-01,5.157669977756532825e-02,7.117481827735900879e-01
4.276804724455333107e-01,4.608126661785238443e-01,3.306643738906200336e-01,1.253347700378868064e-02,7.357102615231988531e-03,-2.623066330919048006e-02,1.281483918428421021e-01
4.463997081514604059e-01,4.400915071139121504e-01,4.340763352150973642e-01,-1.181543688666655822e-02,8.289928431525921126e-03,8.912317521572218904e-03,3.126005828380584717e-02
2.914525414891134814e-01,2.832147399902972262e-01,2.789218163063788003e-01,-1.320767680703796854e-01,1.555825895491666500e-01,1.429475615549546663e-01,4.317109286785125732e-01
2.061209403286874686e-01,3.971772576503825314e-01,3.716924486361206093e-01,-1.730365989710546948e-01,1.538721262445716109e-01,7.035424655761954305e-02,4.560559093952178955e-01
6.135759627879722178e-01,3.676867901704807262e-01,5.800139032498471403e-01,-4.076621382143063611e-03,9.187189287650604844e-03,3.291170230004442782e-02,2.385119646787643433e-01
4.843846264358754872e-01,4.230583285035533492e-01,4.897791959237481896e-01,-2.767920402128176346e-02,2.422738773055874845e-02,2.534727725493888043e-02,1.005366221070289612e-01
5.398981786948662265e-01,4.599746635351572577e-01,4.346410110422044837e-01,2.672897653045224267e-03,-1.856949549080124133e-03,2.946941741772541798e-02,1.081269383430480957e-01
4.774755705571114284e-01,3.308436059397941720e-01,4.870408154769901299e-01,-8.511131964850550055e-03,1.149415182219318265e-02,8.039445578815394150e-03,1.542807817459106445e-01
4.699138005528950557e-01,3.583312697028044336e-01,3.973512766983611222e-01,-9.550690544703808668e-03,2.236124777244431067e-02,2.893105613263581913e-02,1.179152727127075195e-01
4.970589241703047279e-01,4.138036727885173738e-01,4.492166980243458840e-01,-9.635521372556037425e-03,6.921432100073650687e-03,2.709184522396883982e-02,8.866426348686218262e-02
5.182907079825205265e-01,3.612804548306861041e-01,4.665918227873617763e-01,-1.197365407868414625e-02,9.286442371274149232e-03,2.915612577885349360e-02,1.498225480318069458e-01
3.541399817108292769e-01,3.922021317459059575e-01,4.216751435859215635e-01,-1.011772198442530482e-02,1.203147576587829809e-02,1.130049979233181678e-02,6.755494326353073120e-02
4.301428377694730409e-01,4.280282133370026387e-01,3.977016468447118203e-01,-1.217369327494481276e-02,3.975162153792845612e-03,4.290790296531730649e-03,3.918591886758804321e-02
6.780387768206614929e-01,6.631122320538959114e-01,5.434854433955746966e-01,5.804052324523926998e-02,9.121136684404126949e-02,-8.684939419045457909e-02,2.720516324043273926e-01
4.762455910295996797e-01,3.610577414966886778e-01,4.063293832560591068e-01,5.755993544104122915e-03,1.217402641761351940e-02,-1.689861887139738547e-02,1.072554141283035278e-01
4.369306911955015971e-01,3.890936493594242540e-01,3.708524379318400288e-01,-3.753899319718638494e-02,-4.275655098198204163e-02,-6.093147438274196248e-02,1.560242325067520142e-01
2.836446164322082852e-01,4.048727924486957286e-01,3.526226158799107835e-01,6.906279101353154926e-02,9.579283786631574704e-02,-5.055377292384554549e-02,2.461646199226379395e-01
4.618959394736784629e-01,4.092045010403804195e-01,3.873930340700008079e-01,7.729253471903955314e-03,3.466177142676862485e-03,-6.293522443289402760e-03,6.881495565176010132e-02
4.240676211698087839e-01,4.228165759041833116e-01,4.169063090981492969e-01,5.296705884151945744e-03,2.608881643321274250e-03,-2.315776511079969870e-03,1.282820757478475571e-02
2.920099643484068697e-01,4.105036281755111705e-01,4.578169968821873548e-01,-3.368162843197771567e-02,1.697448392926463557e-03,-1.108467483787958395e-03,1.590639054775238037e-01
4.238644009797484791e-01,3.600077087361434613e-01,4.248032387901379270e-01,-1.303608606644993291e-02,-1.950122716041270340e-02,-8.714564153039476221e-03,7.756966352462768555e-02
4.770434566875554894e-01,3.703829724029042425e-01,4.665161418971650598e-01,-6.083817227797198683e-03,-1.029897762266989390e-02,-2.235113323595290871e-02,1.108710914850234985e-01
4.788663133479507117e-01,3.988407501015285295e-01,4.074639733189469037e-01,-1.952876269396179500e-03,-9.162393459747236388e-03,-1.337884830858741304e-02,8.117045462131500244e-02
4.345620612150462025e-01,1.813224150829636505e-01,4.398067865909303653e-01,4.767909344348073009e-02,1.658868761371936479e-02,-3.546616889785450533e-02,2.773174941539764404e-01
4.067120851055233688e-01,3.602608603523123620e-01,4.768104065452219431e-01,-1.393408883420494890e-02,-5.834664143593214398e-03,7.030390159748955894e-04,1.049463376402854919e-01
5.677898807013035398e-01,3.260911563182227191e-01,4.901480647847957228e-01,-1.196113365802218241e-02,-4.751329295346046200e-02,-1.091632453171330897e-01,2.977115809917449951e-01
4.086728162370197315e-01,3.890883001409980446e-01,4.476729966734349087e-01,-2.812531783748895009e-02,-2.151180609167297961e-02,-2.670426071652921146e-02,9.256939589977264404e-02
4.692559205313932003e-01,3.776915621418428515e-01,4.695225678606252950e-01,-1.624385571628988653e-02,-1.246994448474218406e-02,-1.821271416228152987e-02,1.032555773854255676e-01
4.292799626738266205e-01,4.942899954660290862e-01,4.864824429151767826e-01,-1.848395095441378311e-02,-2.458435320125263931e-02,-2.074817649356213226e-02,8.893421292304992676e-02
4.397357294742886280e-01,3.541030734830999394e-01,2.758073391270610131e-01,-3.553010530064647232e-02,-5.783027921303659363e-02,-1.048098028007964366e-01,2.587340772151947021e-01
4.253406236426423015e-01,4.739435086033391697e-01,2.875827260995003076e-01,2.746105073199841401e-02,-3.482210077969850187e-02,1.290731103559639333e-02,1.855660825967788696e-01
5.317022798748294310e-01,4.923301229384857147e-01,3.520502743520779743e-01,9.712199635968234808e-05,1.706909163804886482e-03,1.023930716275156527e-02,1.645448952913284302e-01
4.783383927177572437e-01,4.948277906303174545e-01,3.326143635050823888e-01,1.455222275307417948e-02,-1.027036853960250871e-02,1.460001240950058003e-02,1.596919447183609009e-01
6.485318765889001025e-01,6.737086286483390252e-01,4.433497676969199719e-01,-2.230423102885463818e-02,-7.563614326482763495e-02,-2.842199446635191099e-02,2.626361250877380371e-01
5.658743028924806406e-01,1.309939849563737657e-01,4.680933050565949660e-01,5.035908234486807973e-03,-4.068611506252429316e-02,-7.788668360340143468e-03,4.017252027988433838e-01
5.348502893250524082e-01,3.006667374037998997e-01,5.589007322633641195e-01,-3.099423822435212836e-03,-1.677250383486189557e-03,-4.642735864703144422e-03,2.472943663597106934e-01
2.925133849447013601e-01,5.008445518379915917e-01,4.911795138702827468e-01,5.827739969865669729e-03,-1.719552001072001055e-02,-1.000467100941945450e-02,2.068114727735519409e-01
3.960837539332655588e-01,4.356183562288729050e-01,3.738101778791701468e-01,-2.140843794423071336e-02,-3.441228977892277913e-02,-2.565549153669641549e-02,9.920618683099746704e-02
3.440977492710375341e-01,5.150450653559814906e-01,4.536711588981235943e-01,-1.634865191036241269e-02,-4.638071777525186457e-02,-9.781817055900818639e-03,1.733217686414718628e-01
3.324765936016597090e-01,5.350755721905767759e-01,5.152825294518281751e-01,-1.050210836234069696e-02,-1.302533089395551194e-02,-5.631969457285717663e-03,1.958649456501007080e-01
3.473385828814442577e-01,5.300039506760692021e-01,4.966984502652092570e-01,-6.536360282661892764e-03,-5.817910445613803591e-03,-8.352738039708944642e-03,1.697973906993865967e-01
4.541612704637839615e-01,6.254578138348909633e-01,4.150409234212268372e-01,1.934538629241985743e-03,-2.033576981103625558e-01,-9.541211173203088813e-02,4.346939027309417725e-01
3.783612043786252488e-01,4.198510746334150334e-01,4.388334503455980640e-01,-1.090550912664871482e-02,-4.644326765204388405e-03,-2.012988715921545588e-02,6.713011860847473145e-02
3.598407546727582229e-01,4.070186066606898967e-01,4.301289359453149830e-01,-1.056438719027480710e-01,8.126449289623648153e-02,9.839675788421156644e-02,2.935805320739746094e-01
5.154903052016318599e-01,4.234960241316358398e-01,5.716383877265270863e-01,-5.065960380425142684e-02,1.809014083226122976e-02,8.727539049027368406e-03,1.602819859981536865e-01
3.996679386832387437e-01,4.032307566833118195e-01,4.355302343146501554e-01,-1.381269061259891850e-02,1.410390963669518223e-02,1.581121086009068880e-02,5.558905005455017090e-02
5.629701528882232742e-01,7.307608408074833806e-01,1.489599444927670047e-01,1.080580888029320230e-01,8.611341218673665421e-02,-1.412102100133806604e-01,6.213874816894531250e-01
7.150363160716182165e-01,5.662145026590129637e-01,1.867357362083318928e-01,4.826865976092480082e-02,1.546825478676013832e-01,-8.838063798955723971e-02,5.699384808540344238e-01
5.915112147399708142e-01,7.428135017117437622e-01,6.359585156199556444e-01,5.132516169251030019e-02,1.346253261095135545e-01,-1.050620246524999399e-02,2.841634452342987061e-01
5.595179743471782041e-01,5.763779125542833892e-01,3.281771716409052075e-01,2.788901248982390575e-04,1.504583533464300300e-02,9.138622054731811856e-03,2.421427816152572632e-01
4.083266931676433065e-01,4.925174601361166915e-01,3.637124398099279010e-01,8.412313319691357844e-03,1.556940470456295682e-02,-9.178003180525076340e-03,1.184350103139877319e-01
5.034676785099667651e-01,5.602338050560764504e-01,3.323945448637723454e-01,1.118826588218906626e-01,8.230145032333695265e-02,-2.358138946904551336e-01,5.166216492652893066e-01
3.434700200582032625e-01,4.972968277019096384e-01,5.225275748597530967e-01,4.955542364930309168e-02,-3.397275952644127767e-02,1.186036863750669981e-02,1.985752135515213013e-01
3.748072444939475889e-01,5.143553607384379056e-01,3.121276789434467291e-01,2.920225790559212789e-02,1.328278053638783374e-01,-8.020391891307500354e-02,3.270094990730285645e-01
3.809934511761690068e-01,4.385491828659252023e-01,4.526372626480772432e-01,5.811727596378451870e-03,7.473509576859713351e-03,-1.900348546294025262e-02,7.532776147127151489e-02
4.318739865740386374e-01,5.484222890317586030e-01,5.915214982462493332e-01,9.489621013739096833e-02,6.800568051551296456e-02,-6.444998042733711408e-02,2.716906070709228516e-01
4.093953002845637235e-01,4.419618249735153825e-01,5.079676285640811750e-01,7.277640877451307944e-03,4.217086917857978089e-03,-5.626161801607735234e-03,8.873628824949264526e-02
2.052578776296458407e-01,4.343433950877768623e-01,4.675972076491156093e-01,1.502009906902359582e-01,-1.004977177889868623e-01,9.000328555242297079e-02,4.283528029918670654e-01
3.376327382284765033e-01,4.903854068011425094e-01,5.362837382522721574e-01,1.156454669666349792e-02,2.681348436244820280e-03,4.893817891528443910e-03,1.815096735954284668e-01
3.160966843105638135e-01,4.294295652930952834e-01,4.810977964833358933e-01,2.804313244728584217e-02,-3.715664934450511794e-03,4.804096457448024660e-03,1.544006615877151489e-01
3.371353603288274048e-01,3.739308854617312550e-01,4.437756352879045907e-01,4.614822404699006619e-02,-2.346659737601988066e-02,2.501732594269270860e-02,1.368239521980285645e-01
4.558312057717636701e-01,4.054369282500263072e-01,3.600536720648941924e-01,-1.282446980332293748e-02,5.565274983141905822e-03,1.292980988532388062e-02,8.929802477359771729e-02
4.412472582842903446e-01,4.549738681155196529e-01,3.530079823249136495e-01,-2.509272550970076399e-02,1.989977831502057204e-02,1.409756979167692617e-02,1.133974343538284302e-01
4.796017889351603114e-01,4.561020551682652413e-01,3.453885265384524783e-01,-1.408103438737633682e-02,6.922439176720026482e-03,1.587972318915042286e-02,1.300251781940460205e-01
4.418765853560585599e-01,3.953194715186508224e-01,3.919127351610214305e-01,-1.423633974624062548e-02,1.227334557002230514e-02,1.354250947962261538e-02,6.283233314752578735e-02
4.291292599895609738e-01,4.024334000732838201e-01,4.204117298937856684e-01,-1.122587794461447734e-02,1.900206732344854668e-02,1.731175280942022152e-02,5.400304868817329407e-02
4.843631342470987033e-01,4.445433086946521395e-01,3.631931644797103398e-01,-9.431742056082792827e-03,7.912847630426966469e-03,8.729081847149105719e-03,1.101186498999595642e-01
4.468142942856576649e-01,3.025399791692214291e-01,4.174708323639021446e-01,-1.748918876992508475e-02,2.088919855833719363e-02,2.238394662000962876e-02,1.455074697732925415e-01
5.301011784670561777e-01,3.663903284648037384e-01,2.556622199919467708e-01,-7.255264466440965176e-02,2.774474277454711535e-01,1.997453232867164030e-01,6.508508324623107910e-01
4.742719036409462907e-01,4.327488878471059675e-01,3.397325173516141938e-01,-7.924600616408707110e-02,8.460911283856409337e-02,1.069039427531479208e-01,2.980600297451019287e-01
5.931842247617314934e-01,6.552646813119649138e-01,3.109011171649537775e-01,-1.585137198387748247e-02,-1.404102277563316469e-03,1.969294467043407049e-01,4.670817255973815918e-01
4.335731121365754004e-01,3.556010395363551901e-01,3.093529809794759999e-01,-2.234131925312474870e-02,1.766282879974860609e-02,5.128400209278056315e-02,1.488222479820251465e-01
5.012378402289023871e-01,4.764746177192901722e-01,3.780568456122108123e-01,-1.276240600923543925e-02,1.884489246993298339e-02,3.746476781284557162e-02,1.360193789005279541e-01
3.482210592566570284e-01,-2.540705413125846079e-01,3.443510508537581671e-01,1.485145466555454902e-02,-7.533621311874052519e-03,7.035886891799965348e-02,6.132881641387939453e-01
5.300077291434059923e-01,5.382923042543285019e-01,3.352624680053825079e-01,2.602532029379138120e-02,5.326676957923421468e-02,-4.008981307964307184e-02,2.344638854265213013e-01
4.367424935435495481e-01,4.454863142685157595e-01,3.646301319603804103e-01,1.841182014682035337e-02,7.994584672154071009e-03,-1.756298385081872179e-02,8.967321366071701050e-02
3.570194394425619810e-01,4.900788324501548776e-01,4.795908765406014518e-01,5.760436098811555494e-02,1.040483830714075963e-01,-3.628519167971490378e-02,2.506034970283508301e-01
4.586231939541698388e-01,4.636156921994519786e-01,2.568082270812449552e-01,2.422822547315143377e-02,3.160261466553465626e-02,-1.420011549374047832e-02,2.170803844928741455e-01
5.393219789962356847e-01,4.272673630646794396e-01,4.679617490691223014e-01,7.936051071374183863e-03,1.500320187341379341e-02,-3.031987957103506742e-02,1.152145490050315857e-01
4.057874527856907276e-01,4.764187616117505630e-01,4.741689479656024941e-01,-1.093563328923971845e-01,6.333304563992227243e-02,2.742419543132786769e-02,2.345225811004638672e-01
3.519273781703523007e-01,4.993121882103874754e-01,5.235942090759679868e-01,-9.965977194112501242e-03,1.178248403214939531e-02,8.917768758572275703e-03,1.638405472040176392e-01
4.459005749214948744e-01,6.612413905256171454e-01,6.850193321483256659e-01,-1.037604280179057203e-01,3.339725622127280580e-02,5.955852284117162283e-03,2.963252365589141846e-01
2.853786390465514744e-01,4.286424616247426767e-01,4.637352360549598096e-01,-4.432208977656809656e-02,1.781026079301785414e-02,7.770697357340240752e-03,1.838740408420562744e-01
3.220835643677270044e-01,4.231750476341436529e-01,4.518322957075439072e-01,-2.678316684593662345e-02,6.131935263720443736e-03,1.613696055882844760e-02,1.303217113018035889e-01
3.485200314792558651e-01,4.686687174645317033e-01,4.497829562758881572e-01,-7.390047133287537540e-03,1.612208820934762227e-02,1.916072327812578732e-02,1.206991448998451233e-01
2.689822500781565706e-01,4.226155211196273020e-01,4.064068853310285334e-01,-4.915837118242318698e-02,7.664852109584240070e-02,5.082325978764296731e-02,2.323776036500930786e-01
5.122126420875584563e-01,6.122744491347306139e-01,6.228081488529956244e-01,-7.875453846641215783e-02,7.191874578766248305e-02,5.727723542530453738e-02,2.348257601261138916e-01
3.724240159487086088e-01,4.505598435701840820e-01,4.576191759391037839e-01,-3.066362361366660114e-02,3.474773763270132959e-02,1.843908050900770063e-02,1.190361976623535156e-01
4.613166590404474965e-01,3.410916894874602145e-01,4.725763157305253315e-01,2.116884165353889041e-02,-1.796639612127361521e-02,4.214894366814937211e-03,1.352795064449310303e-01
4.844692387769324315e-01,2.952128308168592286e-01,4.761145852772283860e-01,1.402438107457056569e-02,-1.055019004270612258e-02,6.291956750570548013e-03,1.880142390727996826e-01
5.666706349724954794e-01,4.338713324630291135e-01,6.830746856025302627e-01,1.106420434366544581e-01,-1.304854848079196016e-02,4.405226144698799057e-02,2.995021045207977295e-01
4.010060681495278834e-01,3.517304912346277401e-01,4.400276123972441944e-01,1.569502232070027481e-02,-1.968249580974585494e-02,1.357331362118745395e-02,9.125503152608871460e-02
4.634621890496996577e-01,5.207147501147662005e-01,4.292976019307629398e-01,1.790289086888480555e-02,-2.541165743484483444e-02,1.791175388985265585e-02,1.013033837080001831e-01
3.777569259597464146e-01,4.165903258981530910e-01,4.463142286387927760e-01,6.397709554101006953e-03,-7.039294123273204772e-03,1.376333857293535537e-02,6.622355431318283081e-02
4.738693521856544577e-01,3.512263696018667058e-01,5.005960566930302003e-01,6.086664980712142015e-02,-5.882429467520740654e-03,5.851274518624227823e-03,1.742246448993682861e-01
4.486513957594748803e-01,3.728560840834513890e-01,4.648642512147009853e-01,1.083704189531899988e-02,-1.897931140329725541e-02,1.349257081107010925e-02,9.599874913692474365e-02
5.596963117233733076e-01,6.477455848911928271e-01,6.348996522046053137e-01,8.104537881173652647e-02,-8.663917063445948641e-02,6.283456957727555359e-02,2.466886043548583984e-01
3.000445288873916927e-01,4.375771862063567164e-01,4.443137275757940152e-01,-2.574329495629545592e-02,-1.901869120660906742e-02,-1.917678410421280732e-02,1.551245898008346558e-01
4.686786734461776960e-01,4.346689264535062991e-01,3.416799162677880419e-01,-1.545730902398076770e-02,7.395771184211596266e-03,1.690496956780742493e-02,1.212615519762039185e-01
3.140977453222407179e-01,1.784117274997414626e-01,-9.648014371123606048e-02,-5.765675340756295369e-02,1.017438551524970231e-01,2.075230451468567383e-01,5.490910410881042480e-01
4.826985675490039762e-01,3.003085714146097041e-01,4.278315057513819575e-01,-2.249595029800220518e-03,8.076842860721225939e-03,3.251059508237014867e-02,1.721946746110916138e-01
4.789675682599078832e-01,3.536956562641987434e-01,3.939121986757291305e-01,-4.796515882841726267e-03,-4.073788297030041792e-04,1.931252981969142427e-02,1.160209402441978455e-01
5.053692573083485851e-01,3.112490700935995891e-01,5.065390847537547536e-01,1.144047282914452054e-02,-7.115759998664173205e-03,5.937381668895782769e-03,1.963706016540527344e-01
4.372529426034730826e-01,3.632307845397733659e-01,4.864374855643218698e-01,1.123810724329310853e-02,-1.228574625069497883e-02,3.189209552739370474e-03,1.113614067435264587e-01
4.006959079060744555e-01,3.454952221383454369e-01,5.135360354081209833e-01,5.613940240699171608e-02,-2.940368941780618570e-02,2.127270941652627950e-02,1.881889402866363525e-01
5.127560194005064131e-01,3.194399053350444051e-01,5.082583180879248763e-01,9.507218527365160488e-02,1.820097043778707083e-02,-1.711044928121537023e-02,2.559495270252227783e-01
4.733356726369464806e-01,2.080657917456213424e-01,4.483128404481946938e-01,3.713500152940777538e-02,-4.681244566557512393e-02,4.894524051908682311e-02,2.868006229400634766e-01
5.008243619072605401e-01,1.784646619168901438e-01,5.754578656082997012e-01,-6.458347377419951761e-03,-2.822824670425212387e-02,2.932810746887291875e-02,3.723450303077697754e-01
4.881885152109947112e-01,3.807880813258433528e-01,5.881219625571314502e-01,1.259085763861648999e-01,-3.899670791164588923e-02,5.854006761961092625e-02,3.076628148555755615e-01
3.140958582735976501e-01,1.976831902114007389e-01,2.051702248884051949e-02,-9.598566562656404844e-02,-1.333776054728494642e-01,-2.166236088990836917e-01,5.360503792762756348e-01
4.495805046560060747e-01,4.213163348892935423e-01,3.212091801862630991e-01,-1.932419076878681696e-02,-9.214935495313943126e-03,-1.920693320498159662e-02,1.270097941160202026e-01
4.796107503650774984e-01,4.120930524437083631e-01,4.180350023172600959e-01,-1.872089589685540720e-02,-6.400292880195321277e-03,-2.296202919704818518e-02,8.335965126752853394e-02
4.203386792217648216e-01,4.486758102004850812e-01,3.757971192761636603e-01,-1.883923690270474308e-02,-8.874223594597760445e-03,-9.982856145457928709e-03,7.516051083803176880e-02
4.957914431319868642e-01,4.698178105041954100e-01,3.470968135980640468e-01,4.600776285248253834e-03,1.239286421108794917e-02,-1.975449612418476303e-02,1.435881406068801880e-01
3.366876745226543566e-01,4.289941248338222657e-01,-1.760084231364735796e-01,1.468786601356865396e-01,9.131203176963702262e-02,-2.633916962485865487e-01,7.852147221565246582e-01
8.153668282281513191e-01,5.901227814803807759e-01,3.597975410508043592e-01,-3.884395273381355956e-02,1.204538211369244050e-01,-1.394187457848556355e-01,5.118893384933471680e-01
4.372616184166067677e-01,4.127618016427748171e-01,4.932157287639216126e-01,-3.972391844305590315e-03,-5.383966863376773299e-03,-2.335633731630683708e-03,7.247506827116012573e-02
4.281500875880682733e-01,3.730237024565097315e-01,2.453274744595687618e-01,-3.136430463778982613e-03,5.613280683505499817e-04,-4.106908831320187775e-02,1.774123609066009521e-01
4.560694580036202539e-01,4.200611165733441621e-01,2.872913038560236387e-01,-1.961626711944497101e-02,-2.958989029901182288e-02,-4.930126768665567955e-02,1.864890605211257935e-01
4.933594215043940467e-01,5.072879716203614331e-01,3.511055452786195907e-01,6.325117661831446136e-02,5.937977790064727368e-02,-2.590679808273376739e-01,4.963267445564270020e-01
3.712509742388735434e-01,1.626807181601817864e-01,1.590595019042618796e-01,9.498079307993254061e-02,9.645727511849515323e-02,-2.181824966409546263e-01,4.919927120208740234e-01
6.684047838720061918e-01,3.187078492103694316e-01,5.997889763626684800e-01,1.355028587190069411e-01,6.016182563513837282e-03,-9.513688017379379191e-02,4.305183887481689453e-01
6.228644098985876010e-01,3.524085056700427820e-01,4.788591732123990696e-01,6.527061332994062159e-02,-5.647952186806241837e-02,1.272471223252291950e-01,3.547716140747070312e-01
3.874084163353240795e-01,-7.049013999902406513e-02,2.139702547295909696e-01,1.037209214282284672e-02,1.222640564656596145e-02,2.273147472534321201e-01,5.622472763061523438e-01
7.698408662940283698e-01,3.184127500655432041e-01,5.232470021640318603e-01,1.358423900152074815e-01,1.341330370287841488e-02,1.670189895245199063e-01,5.411670207977294922e-01
5.592578449362212156e-01,4.381618503616346860e-01,5.805368714613798886e-01,2.701888925952486975e-01,-2.978456106678961657e-02,8.126698249739713886e-02,5.090916156768798828e-01
4.260059298242097059e-01,3.039661718834463233e-01,4.555730641727082642e-01,2.355751946785944809e-02,2.040559506078966703e-02,-1.172956676929203142e-02,1.506753712892532349e-01
3.881353415066818302e-01,3.907939825600599271e-01,4.657404376881286168e-01,1.734593097680516005e-02,8.666680620624204329e-03,-9.766380804531314686e-03,8.507302403450012207e-02
3.146785865640364666e-01,3.469173317628925224e-01,5.353965929320423367e-01,1.099430661599194448e-01,5.051985236980535698e-02,-2.757141318854406872e-02,2.980601489543914795e-01
4.716873563389198942e-01,2.768377099195441504e-01,4.673528552449179307e-01,2.350604833860775456e-02,3.055776227567671630e-02,-2.134994120943358928e-02,2.072848081588745117e-01
4.474154167121829340e-01,2.988653071287779572e-01,3.486423604196461912e-01,-4.850528729958185695e-03,-8.049689369696504809e-03,-7.055555456029062589e-02,1.798603236675262451e-01
6.591447549567934772e-01,5.064345718414097197e-01,3.770643491952082593e-01,3.456328435370949886e-02,1.449232256519423501e-01,-2.372368209025268182e-01,5.433683991432189941e-01
4.638922665576862281e-01,4.430705581925749592e-01,3.390123190084618487e-01,1.638847824473913320e-02,8.892384342367548947e-03,-1.466715049327082729e-02,1.229498982429504395e-01
4.795273263987139822e-01,4.205392112515862202e-01,3.610418671007823987e-01,4.212646795058672122e-03,-2.065734910585358044e-03,-1.461409088060697248e-02,1.059996411204338074e-01
6.188651972736536333e-01,5.403832767346521404e-01,2.635814181353638430e-01,-3.991437900427710281e-03,-2.923994767513808310e-02,-1.020959766703560118e-01,3.720028400421142578e-01
4.114807650840678899e-01,4.903736936637397292e-01,4.153840272983760906e-01,3.757297500600559424e-04,-3.556164594939455019e-03,2.788556795924361444e-04,7.726567983627319336e-02
4.058048961560473678e-01,4.522478017249006998e-01,4.058903265360540025e-01,8.832175630409796682e-03,-7.441721807738349397e-03,5.495459938503173894e-03,5.141734331846237183e-02
3.423920816739609574e-01,5.058854349990159482e-01,4.912284770093863218e-01,8.425437625109709686e-03,-1.469741723299063281e-02,2.028436624988292497e-02,1.632297784090042114e-01
3.903705898519959638e-01,4.751466890273603472e-01,3.979758049760535044e-01,-1.009170183209905948e-04,-7.946460315717678372e-03,-4.581311401492707373e-03,8.277995139360427856e-02
4.107064977670165096e-01,4.876071445767445889e-01,4.140305540328991230e-01,5.396656075537381581e-04,-1.867444574950053067e-03,-2.051903304367660736e-03,7.545265555381774902e-02
4.053913259510771860e-01,4.774485744718980906e-01,4.080238766818771179e-01,-1.099099472214616667e-03,-2.347477041231373128e-04,-1.981392885422032140e-04,7.080529630184173584e-02
3.179130170697012092e-01,4.464060318535050254e-01,3.746143002632019159e-01,1.722151252321574635e-02,-4.822363458062427222e-02,2.085813060099484667e-02,1.470076739788055420e-01
4.081323340602895922e-01,4.841332403256071171e-01,4.129420290832515050e-01,3.934454582181676175e-05,-3.670558654254350763e-03,1.268200341832581698e-03,7.402012497186660767e-02
4.242993868372130772e-01,5.002319201593110609e-01,4.176780591821726007e-01,3.099984215452991024e-03,-1.502822080286187259e-02,4.634576147380098203e-03,8.416160196065902710e-02
4.112166363208374920e-01,6.781681985745318109e-01,6.675646765633733715e-01,4.431676116100153467e-02,-3.683582772880759915e-02,9.552487117051849247e-03,2.806800007820129395e-01
4.168452383906631198e-01,4.590085098756357396e-01,4.114721798675377573e-01,6.902733227028601953e-03,-3.748451019301726316e-03,2.429465743343436294e-03,4.728593677282333374e-02
5.422252560450979697e-01,6.458714727986836213e-01,5.265724004717322604e-01,-3.922353298133966076e-02,-1.235823706898291213e-01,-6.762351530672254529e-02,2.770595550537109375e-01
2.899163262440147548e-01,5.068445855606488193e-01,5.744247013840648730e-01,3.879499894124077697e-02,-3.850215966182998079e-02,1.547635379224822014e-02,2.756191790103912354e-01
5.403932743465816868e-01,5.742762562412671024e-01,5.956830113952311656e-01,9.726686761231441436e-02,-8.234566011345360870e-02,6.944505997201595726e-02,2.559774219989776611e-01
3.813044975265771352e-01,4.485758023555110885e-01,4.665664992476035722e-01,6.562276272547257032e-03,-1.433069761306254332e-02,1.732555386770232367e-02,8.777911216020584106e-02
3.413419960665731723e-01,4.635696781834104940e-01,4.425328087855623926e-01,7.445063783988687366e-03,-1.798197290689330929e-02,1.719505750618944423e-02,1.217958107590675354e-01
3.851728350809189294e-01,5.210538095136678649e-01,4.592860757920665948e-01,8.406541538502591490e-03,7.916428208528947241e-03,-8.118731208140593861e-03,1.203477978706359863e-01
3.298365153351418555e-01,5.228995263672728822e-01,4.458186184634791438e-01,3.109592478031976415e-03,2.947151561938074135e-02,-7.254873057055970416e-03,1.764254570007324219e-01
3.514325798392455846e-01,4.655408805416555995e-01,4.371993472095562216e-01,-9.858716020465866856e-03,1.077800627872890597e-02,2.306685967247160476e-02,1.132530868053436279e-01
3.882342307434688555e-01,5.186516405992397383e-01,4.650696783936110190e-01,-6.262747417490936719e-03,1.237956998545394413e-02,8.844163929112077577e-03,1.170631945133209229e-01
3.854663495645485605e-01,4.838357977006594313e-01,4.264940456220482901e-01,6.587971860749974255e-05,6.343172380468965581e-03,6.100850829367652356e-03,8.692715317010879517e-02
3.945524017218524082e-01,4.954197946159267230e-01,4.307576780116682547e-01,3.809546404745567817e-03,3.595321049240252087e-02,-1.539968564192907563e-02,1.116512864828109741e-01
4.096862377673360367e-01,4.979284627879216329e-01,4.357791169577129309e-01,8.500915454736530930e-03,5.752747419870096919e-03,-3.105859860305806505e-03,8.068490028381347656e-02
3.109326907806743145e-01,3.622034945413569185e-01,4.348959903074418043e-01,-5.020146706235966566e-02,-2.216819965143939503e-02,-2.236605196798886405e-02,1.489142924547195435e-01
3.693595186820530230e-01,4.518258771160806320e-01,5.045302703453549142e-01,-1.151210298246727742e-02,-2.051999257617254015e-03,4.229997787239016125e-05,1.197289228439331055e-01
5.277819745524647832e-01,3.936957073503513649e-01,5.031318071141079873e-01,3.682899181571954589e-02,-2.119939919842286566e-02,7.854116755539326811e-02,1.980025768280029297e-01
4.321217882009091849e-01,4.682075073079017269e-01,3.999120849789362664e-01,2.992702694994962137e-02,4.832737599654417932e-02,-4.206400664544653056e-02,1.360278725624084473e-01
4.617401772722273257e-01,4.296430321556629073e-01,4.064258811073209743e-01,1.234962415036345608e-02,8.818122701588149625e-04,-6.333019330818615185e-03,5.380205437541007996e-02
4.392907414181856374e-01,4.052611559251311779e-01,3.880595057010770010e-01,2.650815864794137805e-02,1.174931857565107013e-02,-8.335976626013928345e-03,6.906465440988540649e-02
4.518763389560698229e-01,3.893341260425521866e-01,4.108669758792594662e-01,2.657840744643465494e-02,2.566845227045175953e-02,-2.659652264588808698e-02,9.615845233201980591e-02
4.245654400109755700e-01,4.310212151400072966e-01,3.316678477942794911e-01,2.067984434950283223e-02,2.034966343354584206e-02,-1.252734716497649718e-02,1.107585802674293518e-01
4.427047718829105749e-01,4.601373916697718558e-01,3.918467308952305328e-01,1.537573383250469272e-02,6.944551352454373175e-03,-1.394526549177784944e-02,7.221050560474395752e-02
4.101163030483309657e-01,5.162407024062662941e-01,4.583187753660215580e-01,9.556181135208799415e-02,6.023683839437923848e-02,-6.109587607226160677e-02,2.407283484935760498e-01
4.193876202931217101e-01,3.946502611844955322e-01,4.457053146542112043e-01,4.655229398795229789e-03,1.184668325661977772e-02,-3.703657590671080579e-03,4.982754960656166077e-02
4.367979688262176308e-01,4.364442636295392530e-01,4.347568002080329230e-01,3.515871825381716508e-06,1.564753117631301075e-03,1.096690196632124636e-03,3.810916794463992119e-03
4.243498902908273696e-01,4.235202496056100774e-01,4.248776480014416768e-01,-2.821476571823430899e-03,1.585723562398757159e-03,1.114244559261150756e-03,6.046077236533164978e-03
4.358533412674452379e-01,4.329138524068086302e-01,4.358577339249597449e-01,-1.838906803523880423e-03,-4.525660477039943768e-06,1.200109297134708966e-03,4.808233585208654404e-03
4.284188193546804024e-01,4.325611194856623376e-01,4.362139365114395262e-01,-1.213949455983272165e-03,4.764445149947459796e-04,1.445789767890624626e-03,7.550213951617479324e-03
4.317256326308725467e-01,4.270675876609032473e-01,4.207276306233929120e-01,-4.616086959958975305e-03,1.547859023841935107e-03,2.868305291873735063e-03,1.368276868015527725e-02
4.148524144257710322e-01,4.178311684598528530e-01,4.108239417772885371e-01,-1.933965638811619000e-03,3.830366205637565549e-03,6.659529047583085662e-04,9.678205475211143494e-03
5.714577605678766714e-01,6.505929882587233593e-01,4.921045667209212882e-01,-4.801534427484782652e-02,-1.086129032245874981e-01,-6.273733328641788176e-02,2.700991928577423096e-01
8.806694323388333800e-02,4.152296967103944469e-01,7.026211596680431715e-03,-1.779781280335375471e-02,-2.643705034493868955e-01,-2.463939514055274449e-02,5.937705636024475098e-01
3.433399057697680834e-01,5.267046141871478682e-01,3.926935489649581168e-01,-2.445245094514796047e-02,-2.558575045966941519e-01,-1.314450802626763726e-01,5.263317227363586426e-01
5.956132479680463498e-02,2.765668977313456289e-01,-2.857684112594294223e-02,-6.898772256411236925e-02,-2.652937280368404815e-01,-7.529933524956625157e-02,5.625090003013610840e-01
4.629447746420812249e-01,5.156523884013144432e-01,3.714384044089266146e-01,-1.803343595624662876e-03,-1.388401197564018662e-02,1.872630759086752351e-03,1.287368088960647583e-01
8.107436438154179692e-01,8.515924968518868710e-01,4.482345645229886544e-01,-2.141251430301706685e-02,-1.142630959980668465e-01,-6.785151010883305744e-02,4.497162103652954102e-01
4.911708757966318228e-01,4.260370417449110270e-01,2.899493936394342830e-01,-2.132761821407987493e-02,-4.258742889275855467e-03,-3.134740004710345751e-02,1.897186487913131714e-01
7.352027490892261152e-01,5.692619539964182129e-01,3.158469208482908575e-01,-6.831876866837095774e-02,-8.176356031957554560e-02,-1.181820937412718653e-01,4.580028951168060303e-01
5.059664546292804710e-01,3.857804603185219783e-01,2.758018663829865380e-01,-1.198102449828039595e-02,2.959697409617105882e-02,-1.625302596848419712e-01,3.493775725364685059e-01
7.368762996183404468e-01,5.835495696145333033e-01,5.230540570517169252e-01,2.683573535908613875e-02,4.521378159768241201e-02,-1.315079780714235314e-01,3.108387887477874756e-01
5.003148197984197409e-01,4.570794942222810020e-01,2.985608425106138220e-01,1.776520687708541338e-02,2.021851089604888643e-02,-4.312264769582935947e-02,2.039679437875747681e-01
5.252145285409323128e-01,3.428087448911027457e-01,4.605822080293950904e-01,-1.414878665833629824e-03,-1.507376867080998523e-03,2.879459895341577105e-02,1.678097397089004517e-01
3.790250780766351024e-01,1.273241906932081058e-01,-9.160529079869667024e-03,-2.208190190919735035e-02,-3.697962509647090279e-02,-2.699637438205781392e-01,5.835591554641723633e-01
6.693786857451403671e-01,5.688995388796908026e-01,4.490355861576577623e-01,-1.097136089440499916e-02,5.548839035447912515e-02,-2.439425121303952781e-01,4.739505350589752197e-01
3.226026406160010795e-01,1.473414863805274921e-01,1.278594211514696988e-01,6.023135189086746555e-02,9.265470362928933390e-02,-2.844996887588377432e-01,5.603291988372802734e-01
4.984836582637090507e-01,5.219273192504144676e-01,2.439394008415632087e-01,-1.273706184423236965e-01,-1.008644338368141491e-01,-1.994999729097472752e-01,5.195202231407165527e-01
5.959374386412943370e-01,4.282669886108370072e-01,3.014453396781029970e-01,4.059601071011191553e-02,1.925781767531163299e-02,-1.291466193066332369e-01,3.486468195915222168e-01
4.218693832095424812e-01,1.779373374097802385e-01,3.337958494174830260e-01,-8.766081253053765554e-05,6.925455693433791790e-03,1.099135066288687290e-01,2.866403162479400635e-01
4.060666705217262362e-01,4.642969148625575304e-01,4.050381158174936602e-01,1.478480147601661477e-03,-6.782190177766810393e-04,2.882236497772876996e-03,5.903026089072227478e-02
4.045160051095830767e-01,4.657496062880133736e-01,4.046654659117105979e-01,2.528492511384153579e-03,-2.358212284481920815e-03,5.135535962249690618e-03,6.209193915128707886e-02
4.283915423063603400e-01,4.807419651938465988e-01,4.205818516525941519e-01,5.880150990120607685e-03,-1.447652129526756952e-03,2.647815120970226001e-03,5.780525133013725281e-02
4.369557844728646501e-01,5.021917058364384623e-01,4.379077907033744332e-01,9.557109230552800205e-03,-1.107091930991620579e-02,9.667666389867195925e-03,7.153061777353286743e-02
4.303477672532539655e-01,4.971547272478847868e-01,4.031842011150336136e-01,6.642490747282903119e-03,-3.758989176108139697e-03,3.028825968188443227e-03,8.495895564556121826e-02
4.227543541616374800e-01,4.645209124491112007e-01,3.765290657389024909e-01,1.374345533941763800e-02,-6.011510669813962399e-03,5.451561199843022940e-03,8.109325170516967773e-02
3.732102424140493757e-01,4.016501933194024931e-01,4.015515186248257984e-01,8.231651921876949329e-03,-8.869052003745154025e-03,1.545075196591616518e-02,4.428850859403610229e-02
4.053734016481650992e-01,2.895525907383725284e-01,4.290972329363014759e-01,-4.505284838530929786e-02,2.922167619474094064e-02,1.266720352512028767e-02,1.608022600412368774e-01
6.995567187439294399e-01,2.995741925195246069e-01,5.879944633163051160e-01,3.265282331563959528e-02,-1.037412900753341971e-01,1.471905213316845318e-01,4.777967631816864014e-01
3.645092438467670837e-01,-8.212523681779604345e-03,4.001938074071864637e-01,-1.304078993385082430e-01,1.107442333143450648e-02,6.292988537855255526e-02,4.655775129795074463e-01
5.587977544727975587e-01,5.101733387486923066e-01,6.602521678298531871e-01,-1.186686523221360534e-01,2.626945402263365995e-02,1.842382855106866960e-02,2.508501708507537842e-01
5.712450255958675394e-01,4.958729972289852017e-01,6.288010513297139781e-01,-9.267918755368119432e-02,4.833692200167320763e-02,8.554428299793426227e-02,2.608886659145355225e-01
6.520243738434838843e-01,4.554024853355810309e-01,5.829639960269782373e-01,-1.702100715013785959e-01,5.043509850426080438e-02,1.106530632265733671e-01,4.014081656932830811e-01
6.076884515900844441e-01,5.845279147606999848e-01,5.768875763905336740e-01,-9.008816313041910495e-02,8.332086010330318204e-02,8.727610241687881742e-02,2.622933983802795410e-01
4.125574212959674525e-01,4.243436265412516284e-01,4.797117699977566652e-01,1.156298796738573602e-03,-2.351886735887756194e-03,5.779521497580593185e-03,6.307091563940048218e-02
5.050081083150905759e-01,2.977320045168413420e-01,5.132890414882125274e-01,2.012558022841955813e-02,-9.301492543927075002e-03,4.660969996464698131e-03,2.151470184326171875e-01
4.221861525003615112e-01,4.157059167639547415e-01,4.760275440754782594e-01,5.009584311202497885e-03,-9.144324505972383030e-04,2.659410538356262853e-03,5.821346491575241089e-02
3.936406027135083696e-01,3.893947589598000247e-01,4.667479761349720424e-01,1.110446304696260413e-02,-1.750848553727809209e-03,1.716183695316133911e-03,7.785291969776153564e-02
4.286954482837927460e-01,4.234864322394977787e-01,4.310439373075327096e-01,3.951742375382446431e-04,-2.728985137868251282e-03,1.652406120348867300e-03,8.711169473826885223e-03
4.219872361164243579e-01,4.187242330990324501e-01,4.881273875912153226e-01,3.012036776291692440e-03,-1.262326777981457931e-03,1.526734306690214317e-03,6.811734288930892944e-02
3.876979564566707115e-01,4.166640595814928849e-01,4.786466543981730548e-01,4.815865605984950490e-03,-3.589350841093475949e-03,7.076159247196056427e-03,8.206531405448913574e-02
4.946015042929242655e-01,3.966482670723366910e-01,2.300501212209374868e-01,-1.100046241546762393e-01,-9.665306739525729440e-02,-1.467409872541844407e-01,4.273123741149902344e-01
6.805366962202454850e-01,6.426837942687873007e-01,3.912592105424359534e-01,8.217152149175389192e-03,-8.837422840351484565e-02,-2.138798770164080099e-01,4.847996532917022705e-01
5.252549981032178517e-01,7.282008292356026979e-01,2.498420235048557370e-01,-4.646408185294604622e-03,-1.213895792864872064e-01,-7.322332673440731798e-02,4.830002784729003906e-01
5.466036611608380280e-01,4.701606705843877076e-01,1.942806232978697423e-01,-3.711644672006002982e-02,-4.370070478501438677e-02,-1.711367227426774940e-01,4.480713307857513428e-01
5.026956877679096269e-01,4.502746224853529378e-01,3.625360606460940605e-01,5.024993655011044270e-04,-1.945187303919759109e-02,-5.616132697098974447e-02,1.601359993219375610e-01
5.017982659161280834e-01,3.615130907670678351e-01,4.090890790328975402e-01,-2.414260479999922465e-02,-3.666625891226989870e-02,-4.408935407562785541e-02,1.639592945575714111e-01
4.992514482803966924e-01,4.150754996330393576e-01,3.947290650073407292e-01,2.262229652494673879e-05,1.661302163133847667e-02,6.659198763497271856e-02,1.527864634990692139e-01
4.532846441444121077e-01,5.043240311664275444e-01,3.643132326107724195e-01,-2.427131511959777863e-03,1.239182801822831699e-02,2.702772350670261045e-03,1.247486993670463562e-01
5.602206081484342182e-01,7.464433710542316414e-01,5.402866823034119248e-01,-1.670763944013310340e-02,1.052178968498932859e-01,1.601444040060234775e-02,2.713073194026947021e-01
2.759783984493108799e-01,4.067411315051870369e-01,1.131963906963221467e-01,-2.364770734124706925e-02,1.283410641322297596e-01,3.000635433703351118e-02,3.444934785366058350e-01
4.727387150487170064e-01,5.012251806266809773e-01,3.114713457110190320e-01,-1.356465642948604874e-02,1.768688521521896012e-02,6.154025611876182134e-03,1.817049086093902588e-01
4.193932305255668180e-01,4.838033847010401178e-01,3.003061859003808842e-01,-7.178970303485017468e-02,7.252197801370031949e-02,9.692496119198466820e-02,2.922734022140502930e-01
4.859664643252553096e-01,5.330236365143823374e-01,3.899126477526413392e-01,-8.806117765024504274e-02,8.372737741965068092e-02,6.624982659011735553e-02,2.709667682647705078e-01
3.411028768929790234e-01,4.789154786820777332e-01,4.161760906519575975e-01,-1.043496491010688018e-02,6.820649277179559322e-02,1.302570075041575327e-02,1.705119162797927856e-01
4.835037635431650438e-01,5.168882886314123404e-01,3.402294721873623251e-01,4.120352635915486283e-02,-7.217115089448040977e-02,3.740935237479633968e-02,2.265894711017608643e-01
7.339623886728491309e-01,3.370121589071257695e-01,3.535821436549058672e-01,2.259489654855893412e-03,2.052791708904495513e-02,2.105974269747344363e-01,5.344154834747314453e-01
5.815127163836616431e-01,5.391618975552421311e-01,3.579193563372006781e-01,5.846535916267579097e-02,-5.525804399923640170e-02,2.616236997776821838e-01,5.167920589447021484e-01
4.557889401336842061e-01,4.576441852681983891e-01,2.623163844408141765e-01,1.856844057750755769e-02,-2.499434096636742389e-02,1.548208533790886195e-02,2.035229951143264771e-01
5.281557047732939880e-01,4.350837301185226380e-01,4.514752808430564368e-01,-4.197457957782144318e-03,7.372993388834575210e-03,3.380916400335974570e-02,1.051218286156654358e-01
6.463764942746899056e-01,5.339672865820068726e-01,4.012366124023014624e-02,6.294815565356566556e-02,-6.522435440316776134e-02,4.623859676385384115e-02,5.857422947883605957e-01
6.245427282144190295e-01,6.082745230168257189e-01,3.276698462797732470e-01,4.397138872914394827e-04,2.138843414250260911e-03,9.371312071769505314e-02,3.315559029579162598e-01
3.069053437057801537e-01,-3.100248084286491568e-02,1.138876233614435907e-02,1.031517816113703689e-01,-8.732832568644111060e-02,3.001136126608651700e-01,6.531910300254821777e-01
4.475244921334192161e-01,3.736309636710341553e-01,3.302182325954997610e-01,1.182220232843131554e-02,-6.237616439444567187e-03,2.053298501891079667e-02,1.111470460891723633e-01
3.540322067435160980e-01,4.149778094607645684e-01,6.681141041261188240e-01,-2.390461588299153117e-01,-2.007953068254368992e-02,-6.753153017013181769e-02,5.191726088523864746e-01
3.583916021978559296e-01,1.486493181680404729e-01,3.827010809854004547e-01,-1.650975369556668126e-01,-8.253241216483230003e-02,-1.205786362501270331e-01,4.421600401401519775e-01
3.364555325073413372e-01,3.251013581849076517e-01,4.496128138394331897e-01,-1.495039759384816092e-01,-1.687127428380640337e-01,-1.359664333622256915e-01,4.713015854358673096e-01
3.116805501529928968e-02,1.779468118247062025e-01,3.050480051792320291e-01,-2.264414524550348307e-01,-1.533337840664750484e-01,-9.893454519581035278e-02,5.568478703498840332e-01
3.930374401622597214e-01,4.540056277947229768e-01,4.714974182306966854e-01,-6.338657430838618399e-03,-8.789359899945378696e-03,-1.172093567029635144e-02,7.651118189096450806e-02
3.485639395332963408e-01,5.067975352292689584e-01,6.229115171772565684e-01,-9.032344908066904099e-02,-3.813615657148933594e-03,-3.801229851674874094e-02,2.928256690502166748e-01
3.828016838348551332e-01,4.520250545858502389e-01,4.345222941131333672e-01,-7.943019191783404209e-03,1.104622910530612782e-02,1.942385831903912716e-02,7.465796917676925659e-02
3.791576985932899602e-01,4.085888602453443541e-01,4.446648082610733521e-01,-3.158706880358452124e-02,2.527907971605735868e-02,2.127864768916780738e-02,9.745815396308898926e-02
4.254381397335010861e-01,5.004166424287415094e-01,4.740774690493211874e-01,-1.212433524850528056e-02,6.027055714585952823e-03,1.677753014263810502e-02,7.573036104440689087e-02
3.638176129862440988e-01,4.343100193720686453e-01,4.409831967596851698e-01,-7.192814084039269966e-03,1.361718369681241998e-02,1.534383985218976121e-02,8.307774364948272705e-02
4.277591193264980163e-01,4.414139598779400764e-01,4.811082425526007067e-01,-3.659886177823747262e-03,5.054039215517909696e-03,1.379815056211312375e-02,5.470000952482223511e-02
3.763124752158192865e-01,4.430816402408144228e-01,4.179076499331820793e-01,-7.679155485065888506e-03,8.966170541735018693e-03,1.709034836043673428e-02,6.859540939331054688e-02
4.052543930135977801e-01,4.551217684597393398e-01,4.219120887261630370e-01,-3.318874844774974235e-03,3.605171789438272028e-03,8.423100300835741072e-03,4.710032790899276733e-02
4.051284310295654167e-01,3.972357732978462064e-01,4.488092694047250419e-01,-8.115135058454297709e-03,8.750207482488015984e-03,4.591020657159870268e-03,5.296758189797401428e-02
3.680709878240971955e-01,5.049460529398629438e-01,4.491186449423141824e-01,-6.175261426630206888e-04,1.067935499616308459e-02,7.720377226840284459e-04,1.206448525190353394e-01
4.489711957245783869e-01,5.080422297573126134e-01,4.119289979882991837e-01,1.133483898465945106e-02,3.390308379164705399e-02,-1.453016728302349882e-02,1.073158979415893555e-01
4.556732060249109595e-01,6.795343579296727610e-01,6.100085626938184236e-01,5.457861631382769640e-02,9.883182092672286589e-02,-4.749042931647964871e-02,2.904982268810272217e-01
3.507871817651762036e-01,3.543161570228676727e-01,3.308567738578861994e-01,4.383020331423684995e-02,5.098471484358705480e-02,-5.329666580561609468e-02,1.502104997634887695e-01
3.787767272695697351e-01,3.364702332747401825e-01,4.461712248062741359e-01,-4.380054238301923225e-02,1.883074266817530429e-02,1.146104323168238223e-02,1.280484348535537720e-01
4.048996203052599996e-01,3.562464716125781083e-01,4.634088675605277374e-01,-1.515961379582260980e-02,1.571883311396093247e-02,2.966613482336249823e-03,1.004699394106864929e-01
4.477755575785744568e-01,3.748203276215097968e-01,4.857223629519579200e-01,-9.085135238003439265e-03,1.313858978062026200e-02,2.271436869234534986e-03,1.015470772981643677e-01
4.324538942938582209e-01,3.295762862480660083e-01,4.609673034638034350e-01,-1.627444873660055871e-02,1.502371337998074062e-02,4.342454956482702869e-03,1.259304881095886230e-01
4.775980791763332345e-01,4.313634445072876411e-01,3.168433740153553391e-01,-6.221024669685832308e-03,-2.827721232569157996e-03,-2.182210149313636161e-02,1.487144380807876587e-01
5.006000095237272962e-01,4.366878588946077611e-01,3.264349952023765655e-01,1.440305238997274632e-02,-3.015457526289160289e-03,-3.280376664583412732e-02,1.648175865411758423e-01
4.767930222047697675e-01,4.099941936303297951e-01,3.011008639757450367e-01,-8.785448045595528610e-03,-2.862987176192042290e-03,-2.812175556970209975e-02,1.619334071874618530e-01
4.639902335339471939e-01,4.428076824478400786e-01,3.434636532529015129e-01,-1.811178707888867062e-02,-7.451438987426894922e-03,-1.692523120411506404e-02,1.201347932219505310e-01
4.802444171622483604e-01,4.213586853519160069e-01,2.843397769742357362e-01,-2.052766361777942986e-02,-4.939961728643650629e-02,-9.693210548254596604e-02,2.590034604072570801e-01
6.899778836050013409e-01,4.047304575647056035e-01,1.951954201515154752e-01,-9.952447376155824921e-02,-2.597370877478417245e-02,-2.015361327293503091e-01,5.819193124771118164e-01
6.143981991362070794e-01,5.440944859404699407e-01,3.028329861088069341e-01,-2.592147422978541282e-02,4.302031735605444177e-03,-6.605547849678340688e-02,3.086625635623931885e-01
4.700718550385766248e-01,3.418162229710016708e-01,4.511661198196410538e-01,5.296235196094514590e-03,-1.818143479638855906e-02,1.249715474134682064e-02,1.262004226446151733e-01
5.080624910490351143e-01,3.671792207928759044e-01,5.505577737571429875e-01,1.430342207933844000e-02,7.597421861525328543e-03,1.084571146634947733e-02,1.696485579013824463e-01
4.085737671484057087e-01,2.483909468667461484e-01,4.633858487525279735e-01,4.991525482332608704e-02,1.750027513060378043e-02,-9.059582849713474981e-03,2.146682590246200562e-01
4.611027101115724447e-01,1.049647749871795155e-01,4.574328858608875392e-01,-1.299775445605973537e-02,-1.317276580370601961e-02,-1.959356075183168490e-03,3.557803332805633545e-01
8.491668626404549336e-01,4.459184985830880743e-01,7.119032623344309085e-01,8.490559496389303573e-02,-4.901862578149072253e-02,1.710970724551803268e-01,4.927039742469787598e-01
3.253911117122572083e-01,4.329107685913685666e-01,4.902129318426899363e-01,-1.502013147739621884e-02,-1.357126421558321576e-02,-2.276301129228584103e-02,1.542366296052932739e-01
3.673567101509461752e-01,7.165482610961364518e-01,9.093498359520972851e-01,-1.068137427868433575e-01,-4.886260549249322148e-03,-4.158723190013835502e-02,5.156738162040710449e-01
1.838496157214801752e-01,4.374141385034485130e-01,7.911353848241144959e-01,-2.034021223346199614e-01,2.023672058441262911e-02,-8.295545410551102838e-02,6.519935131072998047e-01
4.810187293731548186e-01,7.886216394946993224e-01,8.715219214445354412e-01,-1.434526699669116390e-01,8.756911417652651908e-02,3.846912509546964159e-03,4.601932466030120850e-01
3.180698056672214835e-01,5.015039170962767301e-01,5.054816768977795638e-01,-1.259237116976596738e-01,-1.437213044657565941e-01,-1.708230860954841335e-01,4.811163246631622314e-01
6.316555199091966610e-01,6.883085070885951451e-01,3.893961467470800630e-01,1.777687364661793834e-02,9.072245195390822581e-02,-5.532783364697918885e-03,3.183637261390686035e-01
3.996915189388280387e-01,4.273679799305458715e-01,3.985095839471500256e-01,-7.565807281454285139e-03,4.977707576785526944e-03,2.339745369111348103e-03,3.259716928005218506e-02
4.169107406434787721e-01,4.290377164316917513e-01,4.030161284547907896e-01,-1.466593915023691949e-02,5.743243240563719425e-03,6.767493870318037549e-03,3.728597983717918396e-02
3.565802627540331504e-01,4.440412082336823163e-01,3.546990491346602159e-01,-8.907863720238499289e-03,2.785152442022327188e-02,6.810601207999993426e-03,1.025758907198905945e-01
3.410703238304543250e-01,4.381799764470145631e-01,2.850573685983786021e-01,-1.059527337593349494e-02,6.061657315873095891e-02,1.749315579534354084e-02,1.740260124206542969e-01
1.186760167457452386e-01,4.150311891760582461e-01,4.358098921241873591e-01,-4.491198552916961934e-02,2.455638226638246976e-02,1.320363150948247223e-02,3.206233382225036621e-01
4.479727760849785967e-01,4.633541042229624152e-01,3.508994396801823901e-01,-2.079024097038695285e-02,1.227925882831944378e-02,7.690510054980462251e-03,1.143652424216270447e-01
2.699329738223525954e-01,6.079509860720728742e-01,6.186689396546839470e-01,4.102639303206179200e-02,-7.170213361819303965e-02,-3.374630991906592877e-03,3.721574246883392334e-01
3.993283942116933605e-01,6.554123671105341886e-01,3.630811593148698391e-01,-1.793610293554553370e-01,2.015582214975041586e-01,4.922085871649985872e-02,5.493919849395751953e-01
2.796712606175468796e-01,4.473688857593403068e-01,4.124259026196778755e-01,-1.908136120322086182e-02,2.232540621875967607e-02,2.726040351700605852e-02,1.682278364896774292e-01
2.972335953415030652e-01,4.778682755405064819e-01,4.190720038779071066e-01,-1.855043273887660611e-03,2.733170098052228533e-02,8.617231024689408006e-03,1.671508401632308960e-01
2.369060052790207538e-01,4.417998693898615437e-01,4.647106609959569812e-01,-3.184509011135125411e-02,1.958179888586472628e-03,-1.811204661544910284e-03,2.241971343755722046e-01
4.512738845637424556e-01,5.274424458347177769e-01,4.145168827639549303e-01,-6.460693834436282215e-03,3.431712575784166830e-02,1.156302619570490423e-02,1.183713749051094055e-01
4.619167548216441266e-01,3.844257135278604243e-01,2.979832702702693847e-01,5.765722293419412933e-03,4.591269117537035913e-03,-3.531285405419640200e-02,1.551761478185653687e-01
4.963531972668953629e-01,4.132922515669583685e-01,4.055550264666461513e-01,-1.911526121994412816e-03,5.989617016745958818e-04,-8.822647446071835153e-03,8.858443051576614380e-02
4.359733505204796411e-01,2.216868359469270910e-01,3.803808666496683588e-01,2.008415510673125862e-02,2.099186443080497053e-02,-9.685329404669522357e-02,2.603272795677185059e-01
5.187878733349163829e-01,2.871159375236890798e-01,3.120887957300926274e-01,3.186588590131341631e-02,3.824930881166430791e-02,-1.323657006390102642e-01,3.294045925140380859e-01
4.936210073981972535e-01,4.409855697980610278e-01,3.520001939792994916e-01,-3.787996965272436272e-03,-3.418472661536828012e-04,-1.127204400888522778e-02,1.256870925426483154e-01
3.845315227749103171e-01,3.829591855870393413e-01,3.872100860709896120e-01,1.714749814447441220e-02,1.720851029846262939e-02,-1.604117933136018498e-02,5.056011676788330078e-02
4.836131448280031608e-01,4.235659773803890915e-01,3.701769780444087443e-01,6.136428566511351046e-03,5.413766834355907692e-03,-1.025405855439571502e-02,1.008872464299201965e-01
5.293836435867631529e-01,4.469662193913694903e-01,4.381435443488247428e-01,3.653163154954262165e-03,1.096352442044902644e-04,-4.657701476053070083e-02,1.189367100596427917e-01
4.229105702153300728e-01,4.235040066880487175e-01,4.370316783120970494e-01,-1.032046112405634637e-04,-1.593424717448292151e-03,-1.413575054853956044e-03,1.431856956332921982e-02
4.420770927278375728e-01,4.314957127434396189e-01,4.249207910156592716e-01,-6.445696322258014435e-04,-4.011898255416905361e-03,-3.517952890735748586e-03,1.764730364084243774e-02
4.410977038052832366e-01,4.138260782058122422e-01,4.181073680191725317e-01,-5.667023853480100161e-03,-9.775343585723950818e-03,-6.463067296471594093e-03,3.396534174680709839e-02
4.304394816036553051e-01,4.198340266828851086e-01,4.157915464733764610e-01,-3.275445083898758259e-03,-3.471657430101321266e-03,-2.982912854026232435e-03,1.633174158632755280e-02
4.342637968205835253e-01,4.165961493548013816e-01,4.449176907727496744e-01,-4.136865168756875648e-03,-7.679763964605423356e-03,-1.780623840153286192e-03,2.918337844312191010e-02
4.388402368049299507e-01,4.116162459176229138e-01,4.309466989727162578e-01,-4.165146775681074706e-03,-8.292415455258517545e-03,-3.476418519526302837e-03,2.971791103482246399e-02
4.210409499487237084e-01,4.280369192392020627e-01,4.289736528012889072e-01,-3.183142057079891511e-03,-2.582210512481986249e-03,-4.007114945113080667e-03,1.244772784411907196e-02
4.190184409329431037e-01,4.195867958250967256e-01,4.316447126499071141e-01,-1.323074041000194814e-03,-3.480336452072875335e-03,-1.956403812263230423e-03,1.434022001922130585e-02
4.071758524407523838e-01,4.316766857176099759e-01,4.197852456851385305e-01,-7.696773189833215623e-03,-5.890408022002309452e-03,-1.012977111696823987e-02,3.224895894527435303e-02
4.436562240495465215e-01,3.173625428515217117e-01,4.896187189798730244e-01,2.597725455979928849e-02,6.683177445017457995e-03,-2.818590245719954090e-03,1.613991856575012207e-01
3.538873563641806164e-01,5.470189333915365104e-01,5.027464600583493315e-01,4.579230818427360711e-03,-1.115520226574375807e-02,3.892873505966542788e-03,1.766101121902465820e-01
4.966547971520093863e-01,2.985929535858047323e-01,5.215851501412400726e-01,2.251104173919939166e-02,-2.470631966711272706e-03,1.197811450141097805e-03,2.152455002069473267e-01
4.993184600905484216e-01,3.573872816871070945e-01,5.353168504739856948e-01,1.455682373692541477e-02,-4.176009693113304222e-03,-8.270351192517563094e-03,1.656588464975357056e-01
4.265331144899820459e-01,3.048246868488443395e-01,4.815786998926238072e-01,3.386074031046608368e-02,-1.880277805564951193e-02,-1.395531392170945659e-03,1.704364866018295288e-01
3.419224840409569310e-01,2.221591808539919721e-01,4.534234042265210540e-01,1.165993367014827170e-01,1.953168011541677688e-03,1.983368567551252459e-02,2.865435481071472168e-01
4.115772975106033460e-01,2.887438604654104513e-01,4.649948090995756345e-01,2.689473990253045052e-02,-8.333104207043851713e-03,1.837794749966412122e-03,1.639859080314636230e-01
4.502377554624280021e-01,3.937308680230881541e-01,5.136573178729274547e-01,2.523554272474294244e-02,-6.103935566649999062e-03,1.525252944271605730e-03,1.132605969905853271e-01
2.781310556315225169e-01,4.575013654947933661e-01,4.127887045487679263e-01,1.665908504491719067e-01,-1.363342453610443539e-01,1.912047484954836341e-01,5.242605805397033691e-01
9.625738097737532306e-02,3.871500709824665654e-01,1.022898812771053934e-01,4.846208454038248431e-02,-2.363122998532427299e-01,3.187022228700912146e-02,5.104150176048278809e-01
1.873348762932477984e-01,3.957046942895631747e-01,3.644832771736313259e-01,1.236137701078024870e-01,-1.625379433739432833e-01,7.552940612672057186e-02,4.243796467781066895e-01
2.460926929741631408e-01,5.052430881484821779e-01,4.659713242871424410e-01,1.947667941491427676e-02,-4.691032681025774503e-02,-1.193399406095992099e-02,2.582458555698394775e-01
2.575429414160449459e-01,4.632428759046869349e-01,4.081035230891996712e-01,3.366109314907663255e-03,-8.006686083453977421e-02,2.861360287041177144e-03,2.308707684278488159e-01
2.684240249945680779e-01,4.245314480896354437e-01,3.200271205136771546e-01,-1.171679551910278887e-02,-6.655806837127044295e-02,-1.160211635839331241e-02,1.818856447935104370e-01
3.239530497235929007e-01,4.841171441823344246e-01,4.427243599072512303e-01,1.092571802200831233e-03,-2.262614057037041007e-02,9.245080187415807838e-03,1.501069068908691406e-01
4.688892433247066616e-01,5.409279999156375585e-01,2.839166609197075197e-01,2.440680068992488738e-02,-1.224998110652547045e-01,8.152024743298587339e-02,3.456471860408782959e-01
2.457249528962175966e-01,5.060940155745516922e-01,5.022667339925235286e-01,-1.110671056672767228e-02,-4.345038216911155556e-03,-3.293957228908684243e-03,2.593635618686676025e-01
2.773926806535876310e-01,5.791687078461911220e-01,5.006975864647740249e-01,-5.487830893712313668e-02,-5.219820216647341748e-02,-4.458575343520272363e-05,3.012551069259643555e-01
2.541104280352982636e-01,6.098193219242691310e-01,5.146355080259527037e-01,8.003732643611783173e-03,-5.246904762846499315e-02,2.359635641635498757e-03,3.319622576236724854e-01
1.693654597829208075e-01,4.047719818709225592e-01,4.023548333517465436e-01,-4.730566237875067498e-02,-5.688837738824927687e-02,-2.580593435368958716e-02,2.706902921199798584e-01
4.164239310209302269e-01,7.315663688305306112e-01,6.871641897800833121e-01,-1.258506544578751225e-02,8.782638676572003533e-02,-1.280109980915275329e-02,3.337670862674713135e-01
3.354048757008600834e-01,4.634460666240189930e-01,5.256557947311601975e-01,6.937513167693391825e-02,-1.974002442564524312e-02,6.300624982609906964e-03,2.096588462591171265e-01
3.128910271321776460e-01,5.704816491154325320e-01,5.665090625747545294e-01,3.814448260018611040e-03,4.014389550279309250e-03,1.362740648722736252e-02,2.568939924240112305e-01
3.700947561193882462e-01,3.909175756130801038e-01,2.929517170235813595e-01,6.536884368007546409e-02,8.859538036469642719e-02,-9.395945575674728711e-02,2.661630809307098389e-01
1.886403160985188621e-01,3.816018848425362098e-01,2.323021277550116614e-01,-1.044228750410168272e-01,1.979420736521208257e-01,1.156832111715466044e-01,4.702328145503997803e-01
6.534032581997589739e-01,6.407746354474378458e-01,3.978239880342580026e-01,2.142337517423584595e-02,3.987041483802709896e-02,-9.167308757644890282e-02,3.059580624103546143e-01
4.641105848884531371e-01,4.237065453588491626e-01,3.043041261275789555e-01,-2.300933037796750250e-02,-1.418838714401621931e-02,-2.865736018758035381e-02,1.592787355184555054e-01
4.811077318944277925e-01,4.567490370081291884e-01,3.278819662672304847e-01,4.764540285359291152e-03,2.478320402794832386e-02,-2.868355136150141371e-02,1.572197973728179932e-01
1.227943901348026029e-01,3.175382048299146831e-01,2.668309689257831741e-01,-7.944027981820632467e-02,-9.859341223394164910e-02,-5.264371642000677948e-02,2.950081229209899902e-01
4.586219196419494271e-01,4.313028606987439617e-01,3.222771377631625800e-01,1.737135841694593258e-02,8.567781888111605099e-03,-1.869729201716706021e-02,1.333630383014678955e-01
4.770907004782413696e-01,4.613434652066806252e-01,3.033182086732165161e-01,9.724867055378349362e-03,1.948540196742556962e-02,-5.906399930940708747e-03,1.709848940372467041e-01
4.255426341335739604e-01,2.934600575901863406e-01,4.838639950424858394e-01,-4.126978981673625618e-02,5.651237446946624603e-03,8.770784215626454411e-03,1.843545436859130859e-01
4.995710999211060432e-01,2.844563584949497681e-01,5.672125713407064618e-01,-6.036302521066158611e-02,2.897124097989897500e-03,1.068587225907854758e-02,2.769462466239929199e-01
4.646317062459691671e-01,2.773666973293530957e-01,5.044320046985246719e-01,-7.571835640544816171e-02,-4.502631432879275822e-03,3.455254901883835026e-03,2.477940618991851807e-01
4.547281645629289160e-01,4.578632523546404265e-01,6.364584120485348162e-01,-1.664818912288903441e-01,-1.184094340132405346e-02,-6.781840156753793890e-03,3.408419489860534668e-01
3.615324746230026420e-01,3.604726462076232041e-01,4.669216793614514582e-01,-7.633180688118881840e-02,6.883265014256298442e-02,5.519467446159577462e-02,2.281501591205596924e-01
6.232138931753686828e-01,4.129088563878576257e-01,7.272364424030657304e-01,-1.388842972448495472e-01,-9.628767954746582022e-03,4.355780975434951630e-02,3.751824796199798584e-01
4.493166561431425343e-01,3.459984136917996222e-01,4.841158004558101524e-01,-4.954642702931284087e-02,-1.212535868068679787e-02,-1.874032698203700886e-02,1.560136079788208008e-01
4.711167395614447861e-01,2.328886954191631553e-01,5.754336143233864664e-01,-2.016948605760129909e-01,-9.795008843537700294e-02,-4.317068501094280947e-02,4.989008307456970215e-01
3.991210854526933138e-01,7.285513962671538724e-02,4.458828631156075417e-01,-1.540202634067758813e-01,-2.706068168315980960e-02,-6.841448305634754978e-02,4.596717357635498047e-01
4.581548650652741972e-01,1.511628469401416208e-01,5.851393089283086768e-01,-1.541849769008198923e-01,-1.528571114031727907e-02,5.610356378026203766e-02,4.804322719573974609e-01
5.415290919491974053e-01,4.313443404838654405e-01,4.598648188780269930e-01,6.971004701043899356e-05,-5.789236755584362994e-03,-3.104977002346458528e-02,1.131565272808074951e-01
4.647843137421170390e-01,3.444978551772429065e-01,3.930543988939245725e-01,1.887604357471188475e-03,4.553737082920083536e-03,-1.859297157381723659e-02,1.099812239408493042e-01
4.751931180143137978e-01,4.163785412322782431e-01,4.302447023651342350e-01,1.463261589854655126e-02,2.230718657673336561e-02,-2.768313571687766247e-02,8.526507019996643066e-02
5.426502838224263048e-01,4.221022797664868431e-01,6.853726795902762570e-01,1.216600904972130331e-01,1.525872056538476670e-02,-2.600390491473664016e-03,3.118151724338531494e-01
3.764557494726994968e-01,5.406390718812434937e-01,6.359025257363311034e-01,-1.409807043758976308e-01,-5.087396340656100135e-02,-2.273439594471905398e-02,3.472948074340820312e-01
4.592054746600783277e-01,3.604570990873987579e-01,3.581647035703127147e-01,-1.034608148379852904e-03,-3.211166476632547123e-04,-3.151061220571012289e-02,1.138645857572555542e-01
4.904192807106406704e-01,3.984835953721528323e-01,4.272472878025014853e-01,3.865780654458571622e-03,7.130225039026178574e-03,-6.241160425572218028e-03,8.336257934570312500e-02
4.925616496535521471e-01,4.121724637949202297e-01,4.162159305152992039e-01,-6.286646029870217312e-03,-1.154815609223917063e-04,-1.352016913666132837e-02,8.258759230375289917e-02
4.803276286840255649e-01,3.578502061775077348e-01,4.038962756500433793e-01,-5.211287100965783688e-03,-5.846395495802659235e-03,-1.785371641140167873e-02,1.123460456728935242e-01
5.009563517585612358e-01,4.112053805762088676e-01,4.350149123573548993e-01,-2.876206445055440059e-03,-5.946319981311662395e-03,-5.684307128709209511e-03,8.193308115005493164e-02
4.683442769726470778e-01,4.130270138182258743e-01,3.610688636320620315e-01,8.826792803555841629e-03,5.474218727930591985e-03,-1.068054695153105096e-02,9.643491357564926147e-02
4.214765040958059483e-01,4.259079329077203879e-01,4.557713602976583012e-01,6.089611534160259626e-04,-3.472574742069500873e-04,5.216032853031451685e-03,3.356925398111343384e-02
4.064495484947843185e-01,4.214286339135965287e-01,4.581267827698020101e-01,1.491453098032905454e-02,-1.431262681152452657e-02,1.150959077704702231e-02,6.164517253637313843e-02
4.127086943927018581e-01,4.123621877016417359e-01,4.471990292805670952e-01,3.061625429201988297e-04,-3.559499557181501172e-04,2.720685118894970722e-03,3.499317169189453125e-02
4.316012138995700131e-01,4.288794198701585958e-01,4.353886411625271791e-01,7.170653531505844251e-04,-1.739107949586350243e-03,3.307550822804731280e-03,8.688905276358127594e-03
4.157690498169200333e-01,4.134388412963966308e-01,4.613159137652950159e-01,1.687062673716821721e-03,-4.574222238208690804e-03,9.352004218871608036e-04,4.753959551453590393e-02
4.163779753941500017e-01,4.361172508668781367e-01,4.375182300077127273e-01,1.743576472259115995e-02,-1.892853395285688453e-02,2.060587937793170732e-02,6.066258251667022705e-02
3.657697441782059578e-01,4.127253207440114147e-01,4.367308041996516010e-01,2.205919092885187324e-02,-1.407597450711411263e-02,1.707697250022787924e-02,8.268840610980987549e-02
4.269499134957139286e-01,3.919913066209232966e-01,4.414605975332605015e-01,4.966454587346608336e-03,-1.420481071374563725e-02,4.869706169853647328e-03,5.186912789940834045e-02
2.812199007176423571e-01,5.277199490294437467e-01,5.005981745629772828e-01,1.316233143360984702e-02,-2.869497778395850920e-02,3.201839795611150039e-03,2.404850274324417114e-01
2.515025074897575541e-01,5.166507579288177610e-01,5.072956787785509736e-01,1.463729047541029171e-02,-4.349789215596803170e-03,5.778684210791412180e-03,2.621265351772308350e-01
3.435918577737643864e-01,4.625534611907111127e-01,4.762250110669680736e-01,1.083568043396495803e-02,-3.719240322390974986e-03,1.762082460090943700e-02,1.314928829669952393e-01
2.935036022795239341e-01,4.918960329818807820e-01,4.991633832021553641e-01,2.040816665498427704e-02,-3.532335361525353219e-03,6.817139261205638553e-03,2.056221961975097656e-01
3.524559156684123340e-02,3.594287215025874782e-01,4.006553706195225550e-01,9.090615815056692084e-02,-1.112973154665413723e-02,1.337531406231818893e-03,3.812192082405090332e-01
2.821299119908526887e-01,4.378991032579571119e-01,3.930866971349791794e-01,1.241110170305118228e-02,-3.128468690809932395e-02,1.734015600356977188e-02,1.535973399877548218e-01
2.556686971142502762e-01,4.988937467823423844e-01,5.118658801998134944e-01,6.770311477138531153e-03,-9.400947116442237572e-03,1.661061845130565274e-03,2.507843077182769775e-01
3.431631361676628078e-01,4.928692459193964592e-01,5.301345119588360966e-01,1.209147630356688895e-02,1.154339554230304331e-03,2.929006343944910587e-04,1.726914048194885254e-01
3.366965292095878137e-01,4.575089273027790338e-01,5.165397571919547737e-01,2.544765956290347825e-02,6.764907437448953922e-04,-2.823396858218631296e-03,1.648634821176528931e-01
-2.300877091343919711e-01,3.679055588962573120e-01,3.727847250016996794e-01,4.609757256058820418e-02,-1.244015332469319834e-01,3.085550034109475065e-02,6.451324224472045898e-01
4.767337815806929613e-01,4.065370092716144024e-01,3.957404923283545650e-01,-3.873657838633509827e-03,1.265679494274414606e-03,9.768893550764597838e-03,7.834633439779281616e-02
5.065735391528909393e-01,3.758243946837810379e-01,4.431089057773260342e-01,3.336121536320638993e-03,3.466228488248121638e-03,9.506837147281562567e-03,1.147419959306716919e-01
4.746915624749034057e-01,3.211015576912151781e-01,4.362755432842925774e-01,-7.160422395929797248e-03,1.650982833736991048e-02,1.988124176665466078e-02,1.460229158401489258e-01
4.616557853524033694e-01,3.772237426655891679e-01,3.752150573118305799e-01,-8.656330841527476450e-03,5.506133357320138616e-03,2.505029243267085579e-02,9.747154265642166138e-02
5.121748201337997797e-01,2.985085384795977959e-01,4.728009498892167262e-01,-1.086927842771450055e-02,5.482890058120475259e-03,8.771737498623975379e-03,1.986608952283859253e-01
5.338834868150592605e-01,3.543059174488595864e-01,4.146948162603437127e-01,7.660707125334333947e-04,-1.504224981736360621e-02,5.592275876794153971e-02,1.873847991228103638e-01
3.515633730855780570e-01,4.709535708200248139e-01,4.071613506512311575e-01,1.990770999797559625e-03,1.805786344233829138e-02,7.994432020432854294e-03,1.090375259518623352e-01
4.140878894413096978e-01,4.728383728116084539e-01,4.053115662337545833e-01,-8.730409482914234381e-03,8.453237575544246540e-03,3.447055488120402255e-03,6.725277006626129150e-02
4.085309599335389952e-01,4.441411805491697340e-01,4.062361616631913752e-01,-1.046886472366404669e-02,5.515734517856100451e-03,3.017125845013325213e-03,4.245518520474433899e-02
4.361654531976175142e-01,4.342974708202463896e-01,4.177723541214770631e-01,-1.470319628556148242e-02,1.314194270027086060e-02,1.757566892073376963e-02,4.899830371141433716e-02
4.882886840388941940e-01,4.162184336253049177e-01,4.231124256850717913e-01,-3.163366216596586074e-03,-2.180939436247880496e-03,-3.370138019896223511e-03,6.944897770881652832e-02
4.641097236187188280e-01,3.784428568980335861e-01,4.207187812107818781e-01,-8.261243101279593798e-03,-1.139488761399002660e-02,-1.179041889982079122e-02,8.072011172771453857e-02
4.933564156620753316e-01,4.084458996270736164e-01,4.371908485402618005e-01,-1.684455023934928975e-03,-8.215334395078007987e-03,-9.370805402493737404e-03,7.790855318307876587e-02
4.379527244309968648e-01,2.979515053082051890e-01,2.763692672618056623e-01,-1.023295595973766018e-03,8.765647405887255772e-04,-1.214374998161312086e-01,2.594885826110839844e-01
4.626857536543920180e-01,4.184292275629228341e-01,4.095895915927257880e-01,-8.533859754382635762e-03,-3.543267554487001571e-03,-3.558295979016125495e-03,5.217393860220909119e-02
4.713434330455897325e-01,4.205129792540909239e-01,4.104535572769354435e-01,-1.523655869912044370e-03,-1.686626402882610834e-03,-3.889347625928420236e-03,5.707128718495368958e-02
4.480613613688177455e-01,3.962176119710454358e-01,4.326647782573089795e-01,-4.977233644855440925e-03,-1.163495055120629049e-02,-6.509259258084219672e-03,5.228918418288230896e-02
4.489711536707886030e-01,4.109592820471658081e-01,4.194513758240063783e-01,-3.854305210644259124e-03,-6.900071306179237154e-03,-4.413752108471385473e-03,3.794813901185989380e-02
4.785656695774421210e-01,4.562693436029915950e-01,4.360581733304544905e-01,-1.318631646778715624e-02,-1.572754950185932185e-02,-1.735315422411963168e-02,5.935783311724662781e-02
3.058282529859555621e-01,7.426208588429200619e-01,4.132751774066793504e-01,-8.278030905361856429e-02,-1.780174371575159453e-01,-3.682543320098935480e-02,5.244972109794616699e-01
4.955460384563727394e-01,4.189066883642156292e-01,4.300405043212716105e-01,1.243362036915108236e-02,-7.587625545846234283e-03,3.019530528409463885e-02,9.228236228227615356e-02
6.954866010171325552e-01,5.480202802153666397e-01,5.843768776359924422e-01,3.651373629660539799e-02,-1.775329033375656895e-02,1.244564466610126457e-01,2.629073262214660645e-01
4.580107693397549307e-01,3.307104758054376092e-01,3.776143514920812239e-01,5.151388805470492839e-04,-3.813681801741818089e-03,2.219647323102434330e-02,1.181394904851913452e-01
4.383409751364342744e-01,3.241826960184179263e-01,3.654231040437055933e-01,6.813490519900076287e-03,-9.801756318777759408e-03,2.249184051740984319e-02,1.094079166650772095e-01
7.406130229651584074e-01,5.436927516831663310e-01,5.821535035292119131e-01,-6.867986547828600595e-03,2.980568725758443033e-02,1.286632428914381843e-01,2.918089330196380615e-01
5.261147634742386892e-01,2.772728701545613683e-01,5.186815824256005847e-01,1.731645613383693549e-02,5.460852576486297481e-03,3.481833889338172700e-02,2.544677555561065674e-01
4.365605349778419741e-01,4.352015866958407475e-01,4.473976678146021624e-01,-2.217149249712903423e-03,1.257830022742401858e-03,1.375527081339633032e-03,1.261693984270095825e-02
4.209955042858345431e-01,4.257211439872490288e-01,4.418211857174566548e-01,-7.518463838527884467e-04,1.138593773269894324e-03,2.484660909777177719e-03,1.953795365989208221e-02
4.288055834844842762e-01,4.283437024449390784e-01,4.343318349983253390e-01,-1.065464545238693078e-03,2.453000632588345307e-03,-8.338925890704783003e-04,7.539805956184864044e-03
4.245596390185371050e-01,4.260251191886536004e-01,4.229278398836252006e-01,-1.668741188822299220e-03,4.559272415884412150e-04,1.113894598448885755e-03,4.461138043552637100e-03
4.401341840567816188e-01,3.742845336121338184e-01,4.538118988690742484e-01,-5.755071691940411710e-03,1.826406554150364347e-02,1.270783080136142149e-02,8.371670544147491455e-02
4.277264692988291261e-01,4.370557714346716138e-01,4.551433142795612286e-01,-2.029833846664447303e-03,2.816635805411642386e-03,7.847784328121861289e-03,2.835248410701751709e-02
4.259776201882181090e-01,4.351392320870650088e-01,4.303995731150394577e-01,-2.952830162195791558e-03,2.644341186460859479e-03,5.309587358451334747e-03,1.395302731543779373e-02
4.622755078358039005e-01,4.054121310520389931e-01,4.110245467266677166e-01,-7.385239376667913046e-03,7.246002646106893333e-03,5.661702840877704500e-03,5.799228698015213013e-02
4.612662330242006670e-01,5.773627827581550020e-01,7.243537571450109347e-01,-8.106336474243795720e-02,1.041573497285238313e-02,2.672885405215385049e-02,2.726398110389709473e-01
3.249299136005319166e-01,4.851231091518613536e-01,4.292122422220512878e-01,1.357929743088701069e-02,2.555342791712713474e-02,-1.188550253835069133e-02,1.508882492780685425e-01
3.963693207995651613e-01,5.698441781488580160e-01,5.143558110163480857e-01,8.716958464020022404e-03,4.523027432038240897e-02,-2.721982116213237778e-03,1.730149239301681519e-01
3.666136661536415486e-01,5.227484413720824286e-01,4.992899114175665121e-01,1.106528925924701520e-02,1.776366077428841520e-02,-1.171561562107714324e-02,1.516291797161102295e-01
2.139776736413342983e-01,5.530339623532172233e-01,5.071358460520923872e-01,-5.849100005150767445e-02,1.374859292644827966e-02,2.988971876763441005e-02,3.391380310058593750e-01
4.778571725696007522e-01,4.536282485758906802e-01,4.300061478964126160e-01,1.752094291911964266e-02,2.486665440374853653e-02,-1.674373957275263058e-02,7.303726673126220703e-02
4.601025610846475322e-01,4.028121563870372124e-01,4.063775289842665450e-01,1.151690395572543824e-02,1.401995565655044136e-02,-1.453481857796434622e-02,6.864414364099502563e-02
4.136390473157265935e-01,4.059276319866125804e-01,4.881999057473851433e-01,-8.972637200183312955e-03,6.259224604324892076e-03,2.319093514351020045e-03,8.104906231164932251e-02
4.285207767661448064e-01,4.025145816352289074e-01,4.925367754215680960e-01,-6.495998261700360391e-03,4.828155011886634679e-03,1.532821681835836456e-03,8.150312304496765137e-02
4.135617030201442779e-01,3.645150953846938435e-01,4.621870898452553056e-01,-2.546859673595601795e-02,7.684647925167483601e-03,2.663168143390614532e-03,9.643285721540451050e-02
4.031623240940074293e-01,2.775055171130096365e-01,4.604312313059193418e-01,-3.391712881345185227e-02,6.544186116998331609e-03,5.954758231488957443e-03,1.730651855468750000e-01
3.819335563549209889e-01,3.791781243722338601e-01,4.508593966049366797e-01,-1.864750153098008317e-02,1.690338272915819368e-02,2.480648489677975480e-02,9.324553608894348145e-02
4.360443142033555985e-01,3.157317498769645625e-01,5.044084932455147330e-01,-3.038984139928280898e-02,1.188542177891717530e-03,-1.069180406956364744e-03,1.736437082290649414e-01
3.126968948781772006e-01,4.432365503371860083e-01,4.611592721750139567e-01,-1.136781489325269512e-01,-7.021011456828391006e-02,-3.426378266898214009e-02,2.770920693874359131e-01
4.540233416862449189e-01,3.438328358090420589e-01,5.314170145003127566e-01,-3.550997639675558537e-02,4.597679626395003924e-03,2.062230656569452938e-02,1.782748103141784668e-01
4.342346066142439009e-01,3.566568134480408436e-01,4.371365012431812636e-01,-1.519336404571043284e-02,2.250922298382623116e-02,1.906148439695133298e-02,9.774655103683471680e-02
4.581477518496049339e-01,4.291678417013524705e-01,4.187423408429726268e-01,5.387994845936932599e-03,-1.345836816621028822e-03,-6.771163511135322780e-05,3.664962947368621826e-02
4.491311290374416232e-01,4.124359960469130559e-01,4.084647631092476194e-01,2.472780101894757332e-03,-1.245140473974126489e-03,-9.528497819599115060e-04,3.916308656334877014e-02
4.633214753752920578e-01,4.178154095950313840e-01,4.166109318496755143e-01,-5.114103664702039664e-05,-4.238530951306728606e-03,1.688808750309429580e-03,4.679234325885772705e-02
2.617957476608721024e-01,4.666037969377666017e-01,4.964324012615421999e-01,2.342403735250859695e-02,1.842776659017631444e-03,5.470109673430841382e-03,2.251471281051635742e-01
4.691532682585111691e-01,3.890922286405075203e-01,4.291970095068621815e-01,1.054078463438353278e-02,-1.143402874190380808e-02,1.871161448432950847e-02,8.113718032836914062e-02
4.355666626972406474e-01,4.140641774908194184e-01,3.846152410601679783e-01,1.687956075084283067e-02,-6.615429668558347499e-03,4.379774764412048757e-03,5.483082681894302368e-02
4.927551819018621826e-01,4.251020046226207105e-01,4.035378277360405774e-01,3.528258181302256890e-03,-6.341155227858739267e-04,4.576245244966995959e-03,8.125410228967666626e-02
3.783925830808949065e-01,4.482794297420938379e-01,4.221044742719363141e-01,9.128327749807390104e-03,-9.850790987979689273e-03,1.888594686544071630e-02,7.315152138471603394e-02
4.081652893693836770e-01,4.882916355059328528e-01,4.332187177332381678e-01,-9.227622358711261644e-03,-3.150964378077557304e-02,-9.894421730294243947e-03,9.256448596715927124e-02
4.057655041931473305e-01,4.659898783568521830e-01,3.482070835837897671e-01,-1.062768815335010837e-02,-1.718658332525460283e-02,-1.125025680343998656e-02,1.095949411392211914e-01
4.372217929302807393e-01,4.574621907124488684e-01,4.474674061821356519e-01,-1.596055579723349924e-02,-1.757508427390175668e-02,-1.831515451842860923e-02,5.481308698654174805e-02
3.402932352727064402e-01,3.092913537569955129e-01,2.807432875156211649e-01,-1.057690136514680690e-01,-1.199120312443026359e-01,-1.662930565576504760e-01,4.028886258602142334e-01
4.690261783140814433e-01,4.507673720504251080e-01,3.962574026746942257e-01,-1.638842203534407113e-02,-6.193931686023005506e-03,-7.314331678649246479e-03,7.335762679576873779e-02
4.035201430784745580e-01,4.498742513085697281e-01,2.874736694562034511e-01,-1.646132682606556499e-02,-2.606642470684887233e-02,-1.192795715940864025e-02,1.557974517345428467e-01
4.901434362248098531e-02,3.155242889484312085e-01,1.174001263426229513e-01,-1.149101287949531175e-01,-2.303871081042097035e-01,-9.365846545398251455e-02,5.316409468650817871e-01
3.474487036063870771e-01,5.095698233364535090e-01,3.799975107888571291e-01,-1.598539676302170032e-02,-5.771737018460695867e-02,-2.208613088793734067e-02,1.851748079061508179e-01
4.264160349328737776e-01,5.102792785984631152e-01,3.950442291337866729e-01,-5.837289570057565234e-03,-4.051220455792772790e-02,-3.133079540401687360e-03,1.253138482570648193e-01
3.725798629319319044e-01,4.483340522417567087e-01,3.220199712182785223e-01,-1.616679534168630195e-02,-5.077301410954181138e-02,-1.954132324635606335e-02,1.476093083620071411e-01
2.902320084274412904e-01,4.214509016997823321e-01,3.250876727216238660e-01,-2.066937176308871957e-02,-6.060348998660715358e-02,-2.238640676681501879e-02,1.663221716880798340e-01
4.867718313106021988e-01,5.231888837229352607e-01,4.279961342226956678e-01,-2.284437968568062832e-02,-3.750805115883601437e-02,-3.458569923267685448e-02,1.276553720235824585e-01
2.842239442364427049e-01,2.932301364539897093e-01,1.127357144419964818e-01,-8.950703950813206078e-02,-1.743588040442124176e-01,-1.186728699018304994e-01,4.341900944709777832e-01
4.309510855553442266e-01,4.096658333179519218e-01,4.350875245803590974e-01,-4.307112851551692101e-03,1.222914139691255730e-02,4.315847032816877947e-03,3.344257920980453491e-02
4.009870237512494495e-01,4.469127469976804101e-01,3.966439810529062693e-01,-8.778069030105055057e-03,9.164656910245518040e-03,5.734347293887234742e-03,5.393770337104797363e-02
4.533648625203534066e-01,4.514195925357719075e-01,4.344980270549231860e-01,-1.182206937705157675e-02,7.585578694192345039e-03,1.196850693645813701e-02,3.666991740465164185e-02
4.098176351090209724e-01,4.494186033643456923e-01,4.216623430398244721e-01,-2.526579009472720502e-03,3.725679969421834010e-03,8.741207966379584832e-03,3.910870477557182312e-02
3.805306297209613553e-01,4.321021900847847319e-01,3.833942885065113604e-01,-8.883311623411022095e-03,8.946887949687353653e-03,1.545358978658958882e-02,6.093819439411163330e-02
4.179175319968663760e-01,4.483281502706023547e-01,3.826439816950309991e-01,-1.240724477360263464e-02,6.760471074575342965e-03,8.502202441019976117e-03,6.369861215353012085e-02
4.257071740370597102e-01,4.470891472372758302e-01,3.749490033742031714e-01,-1.823925918587137804e-02,1.190541333894600158e-02,1.050931871526249346e-02,7.663847506046295166e-02
4.354823200076383127e-01,4.141924250002336216e-01,3.780157896355224034e-01,-1.668063395950929867e-02,6.001752201787024545e-03,1.015873864231922608e-02,6.151909381151199341e-02
4.313756210889741483e-01,4.247440446869132358e-01,4.603350108924122996e-01,-7.681817788787719675e-04,-5.100970829762210140e-03,-2.117226199219075962e-03,3.417526185512542725e-02
4.883538136451698874e-01,6.153137921323348358e-01,6.027558375135442237e-01,7.448814952961657632e-02,-7.887453937371508017e-02,6.090382270345284788e-02,2.472226470708847046e-01
4.562971654571533753e-01,3.992717216419379711e-01,4.066025062497636844e-01,-1.524575251270139653e-02,-1.280217801680505647e-02,-2.425355281190685539e-02,7.642833888530731201e-02
4.090824188933765426e-01,4.423404733868546157e-01,4.691924870764866973e-01,-1.892390106864772978e-02,-1.444464643714394973e-02,-1.324989279905909069e-02,7.033590227365493774e-02
4.396782588598050490e-01,4.230803461756528772e-01,4.286263756253566592e-01,-3.753213928053391983e-03,-6.333626794536503617e-03,8.780029823909914048e-05,1.941195689141750336e-02
4.085366157472500315e-01,4.118908726494366346e-01,4.361322155938631151e-01,-4.391137241492532386e-03,-3.007499104324312927e-03,-8.068662776121960853e-03,3.099188208580017090e-02
4.130479273276807528e-01,4.130934017157536497e-01,4.493518691965565637e-01,-1.238981154314189876e-06,-1.804342174655856413e-03,-2.110921010620964156e-03,3.659866377711296082e-02
3.542217529505194418e-01,4.377812924145886297e-01,3.486393028762346247e-01,-9.835843044460484269e-03,-3.118739593174825464e-02,-1.067386145914175563e-02,1.050229221582412720e-01
5.702271491216525101e-01,5.223531776550740524e-01,5.350011586225167370e-01,-4.270913108773223554e-02,-7.539298352005474602e-02,-9.325227516884834755e-02,2.246304899454116821e-01
4.064419611111226849e-01,4.661401656698891394e-01,4.143677550214261984e-01,-3.033284975214237296e-03,-3.172483172012760186e-03,-8.737234997638291395e-03,5.865451693534851074e-02
4.228962805758876842e-01,5.029604444514147454e-01,4.464785479263206902e-01,8.432967921418576401e-03,2.551141404722485212e-02,-1.010532058555320932e-02,8.689357340335845947e-02
1.478378249841790781e-01,3.776333300448591057e-01,2.787766696125436039e-01,-2.693010837781043346e-02,9.868404091848177739e-02,1.369725076646107105e-02,2.679849863052368164e-01
5.476781770436813801e-01,6.451771188200894347e-01,5.164357248741769935e-01,-2.953187280147438407e-02,1.392331716839897704e-01,6.553807323780015681e-02,2.952761054039001465e-01
4.840440681732888217e-01,7.237268330647965708e-01,4.252863117061156939e-01,6.311278476632374568e-02,2.466514349235802983e-01,4.182121835709676216e-02,5.241097211837768555e-01
4.292670120577589676e-01,4.349363049788217972e-01,4.178173911084919756e-01,-6.686714408909939615e-03,-2.220966330947892788e-03,-4.374271541327580740e-03,2.084426209330558777e-02
4.075951251865353453e-01,4.295729959118980146e-01,4.090048691927679059e-01,-3.358751694682064141e-03,-4.472294475559034782e-03,-7.903216023792276543e-03,2.711570262908935547e-02
4.152807366568021519e-01,4.583726383423712414e-01,4.150371264804333937e-01,-4.066171188839519043e-03,-5.893267609633208275e-04,-9.409778119794405668e-04,4.382657259702682495e-02
4.146826881216788552e-01,4.458569161726581020e-01,4.170301154944424105e-01,-4.417196915014548475e-03,-3.329057803400069845e-03,-7.368793164780397878e-03,3.404179587960243225e-02
4.070942204871619841e-01,4.387020267403904938e-01,3.997898650414541954e-01,-7.728167426956986455e-03,-4.911285928268108690e-03,-3.391699524063783878e-03,3.961475193500518799e-02
4.044976397275244495e-01,3.767009597137560561e-01,3.755332841082061335e-01,-1.445857712475428179e-02,-1.598368573709714469e-02,-1.459568365846160981e-02,5.328381061553955078e-02
4.193598188369123680e-01,4.586998418750196649e-01,2.647483188917226782e-01,8.959624747955079183e-03,-4.609420462868176610e-02,5.540670907386136858e-03,1.955549120903015137e-01
4.448547646757143315e-01,4.489603508800161236e-01,2.389074645244464168e-01,1.409652305350377229e-02,-4.543126413534116087e-02,4.281165877846570406e-02,2.357187569141387939e-01
4.830744205437761396e-01,4.674999647683495407e-01,2.311225770142131819e-01,1.444734754612891740e-03,-1.353176848743266325e-02,3.390001183810978369e-02,2.525895833969116211e-01
5.076785685525386782e-01,5.216372451536835930e-01,3.328669014129962411e-01,1.618758206859952434e-02,-4.297716964057827355e-02,1.996825917486216850e-02,2.017858326435089111e-01
2.169552874366061090e-01,4.511602672443899564e-01,4.481030851916494306e-01,2.373099340350662972e-02,-4.472052197702403031e-02,2.213267531943404788e-03,2.486951202154159546e-01
5.016215371301807613e-01,3.661139698950202082e-01,5.243709315767767221e-01,-2.656866738213563631e-02,-2.064018592915166719e-02,-4.867418866139639616e-02,1.801827251911163330e-01
4.105809494990998454e-01,2.874302688140334405e-01,4.554023389665259325e-01,-3.861847653215370185e-02,6.635714719794450628e-03,8.461742369747487363e-03,1.658791452646255493e-01
4.857959085643976382e-01,3.162413832128562197e-01,5.193197154591926434e-01,-1.187136669890986006e-02,1.173809025509917579e-03,-9.241195246888759445e-05,1.896935552358627319e-01
4.104045406287019082e-01,2.286134065089048539e-01,4.312051717522307204e-01,-1.667860366968118568e-02,-2.934501952695698843e-02,-3.319810668584813329e-02,2.097291499376296997e-01
4.695297800360778151e-01,1.428447723952807613e-01,4.709752369963707275e-01,-8.624125132823672046e-02,-3.075442795226514606e-02,-9.966310698079858255e-02,4.026732742786407471e-01
4.810847575873681836e-01,3.492938653668051785e-01,4.785177650621563750e-01,-5.798492629511738453e-03,-2.054408826799732773e-02,-1.540076975768033853e-02,1.382596045732498169e-01
4.263653853520806836e-01,3.132031077164844080e-01,4.732511039039778988e-01,-2.950849371135689722e-02,-7.392247863658120074e-03,-4.796945248673224749e-03,1.521673053503036499e-01
4.223938009267773075e-01,4.339595630001509274e-01,4.966871586991800092e-01,2.034717053606016970e-02,-4.140538677525940764e-03,7.574483446569504376e-03,7.911752909421920776e-02
4.125254477249919449e-01,3.011863616072722460e-01,4.589170116406910971e-01,2.593234471794219134e-02,-1.735556299019653387e-02,1.594878599808180822e-02,1.529639214277267456e-01
3.795820712672368091e-01,3.637007364367692563e-01,4.447198301832394618e-01,1.640597170518912074e-02,-1.423439097287912750e-02,1.110653412739374089e-02,8.552780747413635254e-02
5.223458732962611428e-01,6.598006965843293825e-01,8.098934324615061353e-01,2.340649172537153933e-01,-5.879257290157485077e-02,6.683595475256774721e-02,5.001825690269470215e-01
4.485101898162511258e-01,3.769752881223575325e-01,5.045028147594927681e-01,4.752720748238090792e-02,-3.312165370711246584e-03,-6.251051707985425855e-05,1.380842924118041992e-01
3.469974735186959203e-01,3.837492259067738498e-01,4.693444801190295723e-01,4.734530921100598561e-02,-4.211954989339685980e-04,6.789180803538174928e-04,1.361971497535705566e-01
3.821612054809955805e-01,3.735385810698257925e-01,4.618534613311069403e-01,2.055386563365608696e-02,1.338947572062713399e-02,-1.229804317962912910e-02,9.680550545454025269e-02
3.840541633259625387e-01,3.312482941064818220e-01,4.577926924919924478e-01,2.236250486642256050e-02,7.884318160943416115e-03,-7.734872435005391792e-04,1.175082325935363770e-01
4.882761246132859556e-01,4.446840168779699898e-01,3.239467217553724243e-01,1.842148420037519746e-02,-3.939575179879909600e-02,1.015888129015569130e-01,2.416111528873443604e-01
5.799395505524883587e-01,5.348306948230149294e-01,4.126702689577765315e-01,-1.708692651243619645e-02,1.423169742471176204e-02,5.182925618658530686e-02,1.789156943559646606e-01
3.325928481622094646e-01,5.306132394538086716e-01,5.215928506043139290e-01,5.451618108524163703e-03,-1.996585429234310968e-02,-1.368194925466611372e-04,1.969577223062515259e-01
-5.009254670245533170e-02,1.387357987871600251e-01,-3.871588392724840955e-02,1.725400332034282835e-01,-2.466503135511048106e-01,1.610426549832884580e-01,6.190806627273559570e-01
5.935234825474028364e-01,6.622205000755053694e-01,5.709128882328686760e-01,4.358329296179831724e-02,-1.069219481504448538e-01,5.721380665797497211e-02,2.379064410924911499e-01
4.935879005283411725e-01,5.175774692954314693e-01,4.529464941380081378e-01,4.416934720109046142e-02,-5.498328536743626177e-02,3.021683960275697509e-02,1.444425284862518311e-01
6.699575691069618033e-01,4.003126017850742180e-01,4.750893345210954744e-01,-3.485071418249011555e-03,-1.317200536482307782e-01,2.133059386717315320e-01,4.967111945152282715e-01
5.581954509825669541e-01,4.582351762482738677e-01,2.444745964102244817e-01,2.895506791624551102e-02,-7.447868733514401152e-02,1.746182448496127748e-01,4.332253634929656982e-01
4.349447605404691553e-01,6.398740882499264204e-01,1.454589431179618142e-01,1.006313449326159681e-01,-1.644968490159217089e-01,2.046824554322592971e-01,6.498957872390747070e-01
3.040048993502980634e-01,4.622384822189578024e-01,3.700634781844820975e-01,3.788498700761468857e-02,1.027524907392306786e-01,-1.625443459676119765e-02,2.360541820526123047e-01
2.902615463292817499e-01,2.206890473298405153e-01,2.327162381236990985e-01,1.192104466431743726e-01,-1.183366482402729569e-01,1.875586660505884629e-01,4.408254325389862061e-01
4.462509329904765787e-01,3.349842719520566559e-01,3.774767445381478348e-01,2.072626584164108041e-02,-2.182031095150367347e-02,5.073144121250372507e-02,1.410533040761947632e-01
6.948898334104256502e-01,3.587206127602694528e-01,1.494810519643763325e-01,8.587862624913868148e-02,-8.719623399624119864e-02,2.166272786363350467e-01,6.425324678421020508e-01
4.675306796620882221e-01,4.311814510109434617e-01,3.976825948122961751e-01,1.808383183442457617e-02,-1.933004352191483935e-02,2.688332758991428609e-02,8.905764669179916382e-02
6.828612296803022730e-01,5.272107284701363916e-01,5.983033954357319661e-01,2.323645324032114906e-02,-2.747551311644125596e-02,1.125195400494815451e-01,2.451164722442626953e-01
3.104177428124784699e-01,5.071227204194164173e-01,2.273225069216849303e-01,3.677461768449288154e-02,2.149342669981084419e-01,-8.874207553823147687e-02,4.777192771434783936e-01
1.292391411938753620e-01,4.188773347613939380e-01,3.672533621811293059e-01,-1.540903816162967899e-01,1.492679967392375462e-01,4.611457613632236052e-02,4.648193717002868652e-01
3.927712276173612183e-01,4.633202493572545211e-01,4.510600552063883661e-01,-2.610450701683298888e-02,2.613971561541098346e-02,1.535086615670670090e-02,9.520330280065536499e-02
4.138415184073064301e-01,4.745416119297108382e-01,4.285450375214519547e-01,-3.207258811330174209e-02,3.827863914842715570e-02,2.996285504961206797e-02,1.148182153701782227e-01
4.729786097930731015e-01,4.478007257465820290e-01,3.796191218040192994e-01,-7.174657925272635850e-02,1.082098842873172179e-01,6.706873435647615900e-02,2.665798664093017578e-01
4.047147035834615658e-01,4.846242995112552410e-01,4.068395534364473431e-01,2.101077103787856153e-03,-5.477738911534264961e-03,-6.922119845370131985e-04,7.952962070703506470e-02
3.095481421078539741e-01,6.090779504282960444e-01,5.284175232128723865e-01,-1.674830782117208150e-01,1.003204538107427962e-01,8.598278686284899219e-02,4.567137658596038818e-01
3.260105316820597343e-01,5.071915268745688099e-01,2.724576645173437672e-01,-2.459032745041120696e-02,2.037526802444599716e-01,8.915361704235995333e-02,4.422689676284790039e-01
4.132905253991742134e-01,7.499356088177637769e-01,3.875892367679024675e-01,-2.806870583641477707e-02,1.856327225144995541e-01,8.168992292636936825e-02,4.984019398689270020e-01
3.674560467148956233e-01,5.144087046933438767e-01,4.855928564260111324e-01,-1.369642215973511552e-02,4.750824143013313711e-02,-1.413043533534696135e-03,1.597834080457687378e-01
4.884188685807607788e-01,4.159293646104983977e-01,4.111370615544047147e-01,1.435806184679289414e-03,4.985441180554818020e-04,1.952333933079264351e-03,7.512290775775909424e-02
4.877034876960067988e-01,4.143153734094890961e-01,4.010737358919176931e-01,4.634958794829181425e-03,-5.457520892966376182e-04,5.653785648068957587e-03,8.181792497634887695e-02
4.629268834941212551e-01,3.906689334356194254e-01,3.394049248629575910e-01,-2.618609566074141595e-03,1.421549872457570415e-03,1.794260098383106822e-02,1.120084226131439209e-01
4.276835095803594999e-01,4.096778251200398069e-01,4.095406819450329028e-01,-8.912865489627564905e-03,8.331034914401385522e-03,1.386894694656210479e-02,3.674604371190071106e-02
5.054453720064612243e-01,4.373676655614016084e-01,4.207211140148688355e-01,-3.969342694982642451e-03,4.142611221680084915e-03,5.996202292516301068e-03,7.906677573919296265e-02
4.934138578688674892e-01,3.990260552101831948e-01,4.245376006575756200e-01,1.208252242765527670e-03,1.836135397996129784e-03,5.007518615327429500e-03,8.509781211614608765e-02
4.798352274542840856e-01,4.153346393926515834e-01,4.078941052451570126e-01,4.593201298815458369e-03,-4.835766193869349416e-03,8.341031879760143694e-03,7.097725570201873779e-02
4.410120327268000628e-01,2.769819793274960751e-01,2.485869132117849989e-01,2.691919682813135803e-02,-3.267529170768707775e-02,1.119132625800768749e-01,2.744457423686981201e-01
4.812452637165455238e-01,4.136717693583190636e-01,4.164324463542384280e-01,-7.508097174891252557e-04,6.974568217932576282e-04,2.270367810913363499e-03,6.637668609619140625e-02
4.808934405515244426e-01,4.081957492241094498e-01,4.139554961664493882e-01,-1.203830192382250784e-06,7.854671104123917266e-06,2.890079813220742307e-03,7.017454504966735840e-02
1.265705654862295804e-01,4.189340765664144595e-01,3.102109406626564203e-01,9.902231879227225975e-02,1.577799195221888107e-01,-8.011605055990984880e-02,4.345871210098266602e-01
3.112005619524191857e-01,4.598415105049953877e-01,4.209568880507095212e-01,7.261869910070204749e-03,2.806283103449330046e-02,-1.652699169964724768e-02,1.454870998859405518e-01
4.399024576147672061e-01,4.604550327436486845e-01,4.837816654638357194e-01,1.761921526172581867e-02,1.311987176109506714e-02,-1.776330956720652277e-02,6.196992471814155579e-02
2.905370084673103426e-01,4.844772594826522449e-01,4.770088620345667718e-01,1.346696651234402520e-02,2.528487859069940974e-02,-9.884067170360050572e-03,1.974216550588607788e-01
2.810165917763722265e-01,4.946433438896638557e-01,4.250170335726085047e-01,7.292589394901340290e-03,4.754275955632632222e-02,-1.523372340239041375e-02,2.079587876796722412e-01
3.489176219967921599e-01,5.195205124723357715e-01,4.886948756906427382e-01,-2.153044462661819671e-03,2.589749892731741179e-02,5.611799462618899566e-03,1.640641540288925171e-01
2.696038393043184156e-01,4.720734927905612111e-01,4.879024073665882422e-01,-2.525627084080021498e-02,8.051433268139349467e-03,1.322723995714541328e-02,2.169847488403320312e-01
3.131937566926260019e-01,4.288112562302824893e-01,4.755824274784866135e-01,-3.113135454789213441e-02,2.227308820235418974e-03,6.782226466451535089e-03,1.549931466579437256e-01
3.149876501321834388e-01,4.390255593493179176e-01,4.931681824169347195e-01,-2.277998147326169148e-02,-1.205448232125764163e-03,-1.029946617561842102e-02,1.640485972166061401e-01
2.495148216823885046e-01,4.772831888212322737e-01,4.766235343949617453e-01,-6.546494588247185609e-02,7.412807501308456108e-03,1.187851329896190064e-02,2.552914917469024658e-01
2.478361739144127607e-02,2.967462748521542681e-01,4.542818911801199677e-01,-1.947154619067886228e-01,9.380153474507701983e-02,3.164601091485022555e-02,5.336364507675170898e-01
4.751456072439612099e-01,4.041145776007759038e-01,4.006670310453884776e-01,-6.321743488606101219e-03,1.982554315838028561e-03,4.904114247503864842e-03,7.420250028371810913e-02
4.735336608599614583e-01,3.973517153689399839e-01,3.908941655643734525e-01,-9.061751956651914637e-04,4.050077019593578079e-04,8.849615761206717363e-03,8.108785748481750488e-02
4.546021279096517098e-01,3.364517165690547040e-01,3.818072814536502824e-01,1.282630958345489869e-03,1.894649638960747146e-03,1.614363717314102123e-02,1.070300117135047913e-01
4.626326722315091677e-01,3.802892945606623498e-01,3.937310029128343047e-01,-7.377452915701077302e-04,3.620241880211531871e-03,1.069770249922282444e-02,7.898449152708053589e-02
4.856586219541185190e-01,4.094047385912988890e-01,4.088668843962742216e-01,4.508489967125529365e-04,-1.608707183185176465e-03,9.953413247892756166e-03,7.849549502134323120e-02
5.017093259468419220e-01,4.217812160857578041e-01,4.242800740762429079e-01,2.131322136774655134e-03,2.665107999381417358e-03,1.231357624484481425e-02,8.176078647375106812e-02
4.722147361599740023e-01,3.955424232925434103e-01,3.880930603697091974e-01,6.724817252714856107e-04,1.475687503360258905e-03,8.084598945346254534e-03,8.191012591123580933e-02
4.451747381066509801e-01,3.552323139617621917e-01,2.988279224571379622e-01,-1.928047783219112229e-02,-1.699731694895418102e-02,-5.841699089025711306e-02,1.690083295106887817e-01
4.969821515727536609e-01,4.385169433531090899e-01,4.298181315274570147e-01,-1.174362893089959600e-02,-5.417082343898749035e-03,-1.153288523239192828e-02,7.002301514148712158e-02
5.891558283073042857e-01,5.007674124338578059e-01,5.118149552183108852e-01,-3.345403454782811675e-02,-2.871520613738045430e-02,-5.858484138917348372e-02,1.519402563571929932e-01
4.935991919924929139e-01,4.179730860695365924e-01,4.229711530198824732e-01,-9.167904409109352672e-04,-4.104126431705644798e-03,-1.149079538072589205e-03,7.364318519830703735e-02
4.778324019818190327e-01,4.049423204999949011e-01,4.061786242419354598e-01,-1.004636357017762516e-03,-3.898627831439466533e-04,-1.078045560696258651e-03,7.232806086540222168e-02
5.048247129095212449e-01,4.328186246663821013e-01,4.094181857005306790e-01,2.797657808322777579e-04,-5.014640828793234893e-04,-5.848237811733087918e-03,8.672384917736053467e-02
4.734533910190833472e-01,4.041311912865396261e-01,3.514075832376404307e-01,-5.274717337949354212e-03,-1.720998569593487669e-03,-1.859812248847794031e-02,1.112217903137207031e-01
5.994967346023034604e-01,5.745488870606078047e-01,6.213070219115510717e-01,9.129883054970315548e-02,7.102166610689214510e-02,-8.119839684338280017e-02,2.481136918067932129e-01
5.871078988373705787e-01,3.692850539783985031e-01,5.302568322738895334e-01,6.540972725371579921e-02,-1.378277624185970127e-04,-2.215322057524591326e-01,4.453765749931335449e-01
3.804574315312378441e-01,4.048495366875016210e-01,3.762512934762379246e-01,-1.301594543947807645e-02,-1.288391594637517713e-02,-1.494230842320860148e-02,4.890103265643119812e-02
4.488016759690246493e-01,4.501306547315139239e-01,4.261178244890700961e-01,-1.845739065809805582e-02,-1.495377741414987381e-02,-1.525629185144436635e-02,5.419967696070671082e-02
4.947172982992263379e-01,4.675623400666382712e-01,4.483332653328585549e-01,-1.581824755800111115e-02,-1.335792710561153375e-02,-1.893710536461294669e-02,6.317522376775741577e-02
4.153560604902020170e-01,3.842048900318427718e-01,4.392337262952131227e-01,-7.669798560631688016e-03,-1.554342148886724527e-02,-4.864224294645735219e-03,5.706670507788658142e-02
4.261077938936204124e-01,4.325621558330965954e-01,4.334950223620713250e-01,-5.059378620965513176e-03,-4.158419855703717090e-03,-4.640110240811063172e-03,1.555028185248374939e-02
4.279700278677583958e-01,4.280836120032378567e-01,4.229843182539318458e-01,-3.050311196398366315e-03,-1.548241271586788979e-03,-1.847407290865582833e-03,8.413060568273067474e-03
4.087635749105716365e-01,4.042811295298205931e-01,4.440027254260825451e-01,-5.981315463618242824e-03,-7.814759284141251441e-03,-3.307976956416165248e-03,4.175183176994323730e-02
4.366637773874282868e-01,4.489800877112535282e-01,4.199725731650084670e-01,-1.175194594928666465e-02,-2.900017333793289843e-03,-2.391945001728447602e-03,3.305421397089958191e-02
4.652343671653048074e-01,3.198592334218094968e-01,3.823622501793186856e-01,4.466778038159402095e-03,-1.433948968021984093e-02,5.449410137180196040e-02,1.598114967346191406e-01
4.450547796968943315e-01,2.971437144060534719e-01,4.158363098547517844e-01,1.772399340265574247e-02,-1.950392690261033846e-02,3.933045086477945929e-02,1.585368961095809937e-01
6.705141476515209531e-01,5.998532233824662718e-01,6.256673579658370565e-01,9.445923251545608468e-02,-7.745462774297554032e-02,1.152581575030482974e-01,2.974120378494262695e-01
5.086651604388934267e-01,2.941737932624566842e-01,5.309216388151924981e-01,-3.539678170610205312e-03,-8.009559929588827652e-04,5.800405447474259700e-03,2.267513275146484375e-01
4.391971047050642341e-01,3.886840320934997761e-01,4.207176075377714319e-01,5.849341390278083377e-03,-1.531857760465768145e-02,5.670834936897977199e-03,5.350422486662864685e-02
4.080776041631442586e-01,4.489675195814947783e-01,5.214295877581065497e-01,3.473599552594291984e-02,1.715138172255309900e-04,4.593636287817880540e-03,1.164854690432548523e-01
3.219520383122441154e-01,5.080034744584459583e-01,4.771356190283584375e-01,1.459450890027877076e-03,-7.672573063376454498e-03,-3.162594812738307552e-03,1.733146160840988159e-01
5.135946694919180100e-01,3.098938667047511641e-01,5.149914208285204520e-01,-1.245339098661300478e-02,3.829403282280086345e-03,4.345110531608986117e-03,2.057823687791824341e-01
5.193124572223888347e-01,2.988237305422053458e-01,5.169283120108678631e-01,5.740944100651717424e-03,-8.596263744065666540e-03,1.111708482866827739e-02,2.208769321441650391e-01
5.166051041745123307e-01,2.968474263436839955e-01,5.059048639567553796e-01,2.733619342695198240e-02,2.126156511290232948e-03,-1.764887219202098670e-03,2.198207974433898926e-01
5.181451368282662395e-01,3.269067139127898036e-01,5.423622964463685747e-01,3.613881801121286708e-02,-5.257680763570995314e-03,2.100288409782083768e-02,2.170580327510833740e-01
4.788952938643900037e-01,2.768497763927145749e-01,4.906774080873782529e-01,2.291517823215088664e-02,-2.488029461396110663e-03,2.088964233203960495e-03,2.120111137628555298e-01
6.159638930056112738e-01,1.963778834409245777e-01,4.825974240316811548e-01,1.501934975014940776e-01,8.415334051270513885e-03,1.742968614325365595e-01,5.448901057243347168e-01
3.886052892208117227e-01,-7.366767292100506737e-02,4.314289005935929566e-01,1.035673301625351650e-01,2.231634523909809681e-02,-7.695862975130485228e-02,5.355061888694763184e-01
5.624739593828841366e-01,4.044686806648014610e-01,5.393532576096105036e-01,1.738028665887858260e-01,4.446532338243253113e-02,-2.088959815017135957e-01,4.993129670619964600e-01
4.946859390917376920e-01,4.483131633161661633e-01,4.253068179740284727e-01,2.087858632348485455e-02,1.369496237625401729e-02,-2.906045513532288030e-02,9.028026461601257324e-02
2.281907773088026337e-01,-4.351548874798860655e-02,3.809396969472733652e-01,2.208565849460137342e-01,-3.385930904074287151e-02,5.593021296681246340e-02,5.457253456115722656e-01
5.130515371256442192e-01,4.539035131782116483e-01,5.094010525671612832e-01,2.946947959359664734e-02,1.842781330030336326e-02,-2.630023651545737237e-02,9.484253823757171631e-02
1.653808338085189233e-01,3.889426147778766302e-02,3.738275932124668355e-02,1.585477065856955303e-01,1.499341452089512639e-01,-2.473434110117557205e-01,5.853046178817749023e-01
5.138533671351929177e-01,4.485788993581337758e-01,3.150462253091783627e-01,-1.621769128907018034e-02,-2.994295784867402263e-02,-6.025233698890789663e-02,2.125507444143295288e-01
5.146257846297107585e-01,4.558864913285156084e-01,3.162237451723058368e-01,6.945160742780333296e-02,9.519758462982153002e-02,-1.541038956943347749e-01,3.795550465583801270e-01
4.635019500654996571e-01,3.047877179831720018e-01,4.739949446572436775e-01,9.423082187073867841e-03,1.827395840739252930e-02,-1.935577012178829950e-02,1.713412702083587646e-01
4.826647568848494441e-01,4.434838163319732574e-01,3.134885802281511258e-01,1.949554117542951978e-03,-3.264422055843938745e-03,3.984581898848703341e-02,1.683261245489120483e-01
5.009190244871778441e-01,4.725030910330810796e-01,3.847279645484383837e-01,-7.569341590508428877e-03,1.702670879595410275e-02,1.552895371135048705e-02,1.130097657442092896e-01
4.572739165777542913e-01,4.825907948580058227e-01,1.761873718728911853e-01,-3.123123256252315419e-02,1.946641216677284097e-02,1.148238374038983850e-01,3.610863685607910156e-01
2.765695299501018112e-01,4.692437498013070640e-01,4.703905348058773916e-01,1.586277573063675853e-02,-1.440688495238323479e-02,1.453980196223647950e-02,1.983869969844818115e-01
4.645946823461563624e-01,5.849013677774773656e-01,4.042890434654351495e-01,9.115040537398627629e-02,-2.771457416306887245e-01,2.192569336890564866e-02,5.311895608901977539e-01
4.693657307258946587e-01,4.484068539407564669e-01,2.113772748089325637e-01,2.418382844790978661e-03,-1.069574522853377133e-02,4.906435955595864207e-02,2.630073130130767822e-01
5.751270959610124134e-01,4.868986784885787067e-01,4.852854855017955105e-01,-6.861041282447367939e-02,5.106811920954649336e-02,1.004158485067558754e-01,2.452044785022735596e-01
4.476626931325501380e-01,3.114435116198339126e-01,9.440058643680024342e-02,3.014057376265418236e-03,1.740698378748282982e-02,1.921441112008576424e-01,4.548879563808441162e-01
5.483658654085233897e-01,5.644917401502680399e-01,1.954127168891318933e-01,3.307284823285786077e-03,1.114772206452137315e-01,1.770902367533173094e-01,5.117859244346618652e-01
5.288537091887871577e-01,3.998558089865117404e-01,1.700172103745224428e-01,-1.153889527180522734e-01,4.785485841899526915e-02,2.183344789892751603e-01,5.375303626060485840e-01
4.909935497462283860e-01,3.804386484701138271e-01,3.765754503414582288e-01,3.259216415256380173e-02,-4.592885782972536135e-02,1.149419550625567082e-01,2.486252039670944214e-01
3.678212326906277752e-01,2.221587644605124978e-01,2.157674487407121311e-01,8.639875008690375835e-02,-6.883556550219939452e-02,1.441615830525253272e-01,3.480607867240905762e-01
2.653408471231961108e-01,5.519822923942776516e-01,6.915825763061407283e-01,1.854855892709428578e-01,-2.263423775412990238e-02,1.322697509639950697e-01,5.467213988304138184e-01
4.495190893483894667e-01,4.448127891075548956e-01,4.220568584771607901e-01,1.391023160187586025e-02,-1.264583933726535700e-02,1.323792506021789599e-02,4.725506529211997986e-02
1.838838717592379823e-01,2.616211069769576736e-01,3.316213874387365923e-01,1.156196292309979307e-01,-8.687293916928079396e-02,6.659892935124586688e-02,3.040319383144378662e-01
3.942905653703440150e-01,3.551866029843039896e-01,4.507487768449072729e-01,-1.488045270036383871e-02,-9.887392336245973828e-03,-5.907234236326387201e-03,8.936800807714462280e-02
4.071238031177311645e-01,3.248765414753076453e-01,7.056379597400269654e-01,1.953684716101206642e-01,-4.541814379701605148e-02,7.730061984506469974e-02,5.089679360389709473e-01
3.920242469353188430e-01,4.363154017696225795e-01,4.640601871683273649e-01,3.559063224613315951e-02,-2.912255532944185016e-02,3.605093570314921170e-02,1.191796436905860901e-01
4.165022246746244994e-01,4.090412976677157419e-01,4.609951723497526799e-01,-4.768018866639538514e-03,-7.622130464470210087e-03,-3.678063979319618967e-03,5.148129165172576904e-02
3.166798202481744262e-01,4.396599722473681360e-01,4.929138352157471092e-01,-2.430515782435663935e-02,-8.547417528071445374e-04,-1.229896765321282504e-02,1.635159552097320557e-01
2.543979682619196825e-01,3.441439361041485623e-01,4.868317255978008573e-01,1.776970601827244645e-01,-6.210211339990301393e-02,4.256395416758129019e-02,3.910928666591644287e-01
6.405972962215038535e-01,6.501961996244763897e-01,4.386313833352567526e-01,3.546000896100126587e-02,-1.041746797432455823e-01,3.816248122974562340e-02,2.889973521232604980e-01
5.341104270160654810e-01,5.064226127198471206e-01,4.061949846370827566e-01,2.073075075897602357e-02,-2.870137292213627289e-02,3.695849703323781515e-02,1.464433968067169189e-01
6.450808360032183053e-01,6.205843352735571639e-01,4.520284784796415600e-01,4.378650521153085867e-02,-1.904216200136492620e-01,2.094072483276455954e-01,5.284196734428405762e-01
2.788735811833873979e-01,3.913212118527384376e-02,3.131272380114625276e-01,1.589024436350141845e-01,-8.365408416356392984e-02,1.623603407027048029e-01,4.926336705684661865e-01
5.908908639172121280e-01,3.810209344974348489e-01,4.998079910350974875e-01,2.583142625158600936e-01,-6.466704699491909736e-02,1.189914591210930322e-01,5.370540618896484375e-01
4.113545638806267446e-01,4.907874126788482894e-01,4.170820256161565931e-01,1.131523219333894961e-03,-3.712863471525414908e-03,-1.614275861426008735e-03,7.707429677248001099e-02
4.349310882358838337e-01,4.989788305760809450e-01,4.327685421983389902e-01,-9.832982951184341888e-03,-1.242986887012873312e-02,-1.108496769611271721e-02,7.326317578554153442e-02
3.248990924163244198e-01,4.355623070357491078e-01,3.721665618168761847e-01,-6.859450595065390635e-03,-2.010152805697878325e-02,-1.140288392149556296e-02,1.048486456274986267e-01
3.389439338748636010e-01,4.662650696887049029e-01,3.916345241802651200e-01,-2.290302013721254304e-03,-2.093540124498520505e-02,-3.090069808313174182e-03,1.167801320552825928e-01
3.772563055975047819e-01,4.585172368329940018e-01,3.805788337478092087e-01,-3.416092219663289641e-03,-1.105531536056430369e-02,-6.802398648542363341e-03,8.297513425350189209e-02
3.576144994080097672e-01,4.949990599971570426e-01,4.076855480287500111e-01,2.699103527760255642e-03,-1.687823174468681617e-02,1.005543241169431666e-03,1.240248009562492371e-01
3.945511079244702901e-01,3.478607997308464927e-01,4.580522265704725093e-01,-1.658884398942570004e-02,-4.060636972623434329e-03,-1.925543601069624024e-03,1.003166139125823975e-01
3.056908650553760154e-01,5.017335865778390636e-01,5.158475361637686607e-01,1.701939553934259108e-02,-8.074594101450093811e-04,2.718283111656015754e-03,2.056501656770706177e-01
1.871025015036822947e-01,3.701944387332734010e-01,4.434775141079658756e-01,1.026554709357917622e-01,-1.049369141022249706e-04,1.158442901254137054e-03,2.897051870822906494e-01
2.391636482319802748e-01,5.433347533458752210e-01,4.788899293609196750e-01,5.901795196274868538e-02,-6.715331182369499441e-02,-9.127802096722681044e-03,3.182749748229980469e-01
4.073648390986464030e-01,5.447029840088675190e-01,4.958809477937375920e-01,1.213952039304691706e-02,-4.107181772108480650e-02,2.654854509705031548e-03,1.416480094194412231e-01
2.755711267269421172e-01,4.805627036514361627e-01,5.153310091446126062e-01,3.110782705580125707e-02,-9.691667760902635334e-03,-2.861367383968553210e-03,2.314455211162567139e-01
2.717326903010235384e-01,4.726914055891638933e-01,4.602816309280698959e-01,1.885874404035259300e-02,-6.632559604203755281e-03,1.425862195323892266e-02,1.996331810951232910e-01
2.169012001626362818e-01,2.813350498610370232e-01,2.245564305632443969e-01,1.110809012650201266e-01,-1.288832489698390205e-01,1.067410598550214834e-01,3.531962633132934570e-01
4.174464629051544695e-01,4.847936465000802775e-01,4.828674327209798167e-01,2.353747703969855110e-02,-2.329387907141090494e-02,1.851871283468093862e-02,9.342542290687561035e-02
4.205149877528079894e-01,4.166362433240349827e-01,4.653644094716754553e-01,-1.592197437289349753e-03,-4.252429292766670560e-03,-2.189243629803183568e-03,4.771485924720764160e-02
2.735258757745313574e-01,4.969599019221886960e-01,4.771437636425000517e-01,-8.890543016393648692e-04,2.359495442135260690e-02,9.253377461372544466e-04,2.180893123149871826e-01
2.725984144079085514e-01,5.086022186504053355e-01,5.203865898916661958e-01,6.410170098665612763e-03,1.596529954637895821e-02,-2.826268116078736736e-03,2.439871579408645630e-01
2.523953181106247112e-01,5.119780865905925182e-01,5.094876326641676334e-01,1.180183189781678146e-02,1.185050092433407275e-02,6.245513115620595626e-04,2.599678039550781250e-01
1.641400466500939903e-01,4.710984468295275063e-01,4.600999636249503699e-01,3.140875479850017255e-05,1.532480042333778276e-02,-1.910418629368657332e-03,3.027934134006500244e-01
3.495349810865246987e-01,5.708264583003560544e-01,5.849369474677368341e-01,-1.865032787687913654e-02,5.660298516510518622e-03,3.711998902519754884e-03,2.312412410974502563e-01
1.067875450110046254e-01,5.036172130570483185e-01,5.631272869397141445e-01,1.213275510033349353e-01,7.940797392649218134e-02,-1.669588029402762491e-02,4.985427260398864746e-01
2.921024248855023098e-01,5.282788938671932888e-01,4.889856182851927136e-01,3.380749606476341537e-03,1.877793933328627402e-02,-4.543888767791667317e-03,2.218044251203536987e-01
1.632318679537557993e-01,4.852525067336290188e-01,4.836245118467925042e-01,-2.099216490527995582e-02,1.883586493323330131e-03,-7.061358941383082816e-03,3.235087990760803223e-01
4.416578449847071708e-01,4.272559757151186410e-01,4.362893958590748911e-01,1.531881758917492432e-02,-1.836802950776312768e-02,2.065152146966966681e-02,5.616516992449760437e-02
4.321088066353064305e-01,4.303125922794381886e-01,4.263572633303646664e-01,3.658190257044004537e-03,-2.935403202310198599e-03,3.415608847252440099e-05,9.590410627424716949e-03
4.084436260825456966e-01,4.072698548572796229e-01,4.250830735809931760e-01,1.014277873269188619e-02,-1.157142078878759667e-02,1.130506387796130496e-02,3.730300813913345337e-02
4.326945761172170113e-01,4.293345027442884709e-01,4.409338724981725632e-01,-8.642621413511628438e-04,-4.606492286952370077e-03,1.106423158699029003e-03,1.328282430768013000e-02
4.209942027941819820e-01,4.322710419744698052e-01,4.133065887340375277e-01,6.853789848816725996e-03,-2.405816036264949234e-03,4.091053835937477103e-03,2.194210141897201538e-02
4.069093945585441907e-01,4.387251590653273303e-01,4.050615092255724359e-01,6.222269609484579016e-03,-4.789857475036783142e-03,2.328844026636296086e-03,3.571691736578941345e-02
4.877915779782650008e-01,4.145772692575921958e-01,4.873853073286071313e-01,-2.191109711600235446e-02,2.515488141912704950e-02,2.874110807742787793e-02,1.055817306041717529e-01
5.014625994933057385e-01,3.424209866140489611e-01,4.677860248487132333e-01,-2.113306350314794746e-02,2.699934503764411450e-02,6.706485585542823480e-02,1.951721459627151489e-01
4.048771384907854376e-01,4.449540065965741364e-01,4.231369759381398699e-01,-1.424407892048186290e-02,2.057617990112799861e-02,2.297070919079222465e-02,6.833417713642120361e-02
7.599499573768685456e-01,6.271720856375729847e-01,5.265166270297123585e-01,-4.639835183195864000e-03,3.019648094580495989e-02,8.833715371047878850e-02,2.594932019710540771e-01
4.662103154849429609e-01,8.066733509099358046e-02,3.559659583222989365e-01,3.162560718668851190e-02,-1.815531632136375972e-02,1.848515264794172719e-01,4.741232991218566895e-01
4.432609859870212388e-01,3.012343646418530474e-01,3.442323575272495106e-01,-2.861748274841026136e-03,6.272496558955270758e-03,6.040358500647003553e-02,1.643225848674774170e-01
5.713510855094753316e-01,4.706146387975347345e-01,4.506408070932972354e-01,-1.454035694066711792e-02,2.449673839763147343e-02,5.909230310774814254e-02,1.595904678106307983e-01
5.356232824903788270e-01,4.517070422017306353e-01,3.319347994304755467e-01,-6.276387105990348034e-03,-4.179078457628509873e-03,4.607588481243501261e-02,1.948786675930023193e-01
5.093316834893693024e-01,3.593441077625745272e-01,4.662920791136334064e-01,-9.066805528038586644e-05,1.237539529853793653e-02,1.579564219163442224e-02,1.382073014974594116e-01
4.895055999568132532e-01,3.646737626668301591e-01,4.076932146410612301e-01,3.802989824906045490e-03,3.502612345371429209e-05,1.650514777567893554e-02,1.136842817068099976e-01
6.301525590382017761e-01,2.478682179391295259e-01,3.890947526034952419e-01,-1.234057943318452727e-01,2.493923673497936561e-02,1.640581284983936572e-01,4.903015792369842529e-01
5.150888836531445358e-01,3.753681690289709660e-01,4.708428750766988635e-01,-3.397286099883492765e-03,1.227968917974435817e-02,5.046775102936864460e-02,1.530538499355316162e-01
3.942866681869661161e-01,4.315185166099662073e-01,2.521962776359924496e-01,-8.251044394401408147e-03,-3.373572022519099461e-02,1.968905505230812009e-03,1.746320277452468872e-01
4.799155081985384541e-01,4.703683677435735455e-01,2.912617881924739471e-01,-1.424647005101102246e-02,-3.172691939547005874e-02,-3.821592332366988837e-02,2.046712487936019897e-01
4.825865038518253325e-01,4.858848464933843703e-01,2.832666385414913668e-01,-3.075060131090976302e-03,-8.865916132900495458e-04,1.188628210531765886e-02,2.021170258522033691e-01
6.896992526885530328e-01,7.011476891235266518e-01,3.265177632351810022e-01,-6.937521232529611503e-02,2.641227976969631394e-02,-1.973995257540558934e-01,5.192504525184631348e-01
5.241204070231867407e-01,4.740118609655874504e-01,3.710678105309764829e-01,-2.404995856794491307e-03,-6.053315304445182690e-03,-4.520566826852568526e-02,1.566035002470016479e-01
4.468345162556711103e-01,4.397919815770319762e-01,3.497585039725906175e-01,-1.819307234211848742e-02,-1.660926298795799283e-02,-1.624304710674601138e-02,1.067790463566780090e-01
6.978848251030435046e-01,6.483638559424375059e-01,3.951174544801549504e-01,-1.837950910641387471e-03,-2.400417341104238780e-03,-1.146455345807485121e-01,3.443621397018432617e-01
5.372175857600186566e-01,6.017693456145039033e-01,4.198348798701964646e-01,-5.506215266112116091e-02,-6.917435303536279001e-02,-7.441869157534176937e-02,2.561017572879791260e-01
4.345115113559586129e-01,4.349095706705848885e-01,-8.619276520188789981e-03,5.454299833658305535e-02,-8.315608017294816301e-02,6.398887229729501025e-02,4.883592724800109863e-01
3.591402224869916782e-01,3.919029178544584102e-01,5.267179957977926597e-01,-6.860219921512045183e-02,-1.510412475651786227e-02,1.675530290420566490e-02,1.982695460319519043e-01
2.979184634166279211e-01,4.882814472004491924e-01,4.633294445516963900e-01,-1.794177937008956461e-02,5.737560029796086314e-02,4.669441488997188097e-03,2.074071913957595825e-01
2.166075898668289312e-01,3.170590177289993594e-01,2.719927574200061704e-01,-1.769985516018443006e-01,1.729219752638449792e-01,1.465481079789286989e-01,5.056827068328857422e-01
3.710028502945999507e-01,4.926457195234947850e-01,3.752887546000717722e-01,-8.063084145187297824e-03,4.085823447753435256e-02,2.398027280908012968e-02,1.456790715456008911e-01
3.267489318122628883e-01,4.349689976499560018e-01,4.715282245038597275e-01,-2.713898002132566004e-02,1.730591705173168890e-02,1.873239547154935056e-02,1.454832106828689575e-01
2.985803855167736831e-01,4.765104354894897920e-01,4.140587188498464077e-01,-2.660724421802401329e-03,2.734536207147113610e-02,2.861343564944474581e-03,1.635126620531082153e-01
4.189743756494856974e-01,4.123842859781370329e-01,4.843634685043263222e-01,-2.660281186941444113e-03,-3.879202042111572039e-03,-1.212195453802764576e-03,6.943245977163314819e-02
4.919171394142293208e-01,3.778898520853169463e-01,3.912606394204147797e-01,-2.243706507094002725e-02,1.617254493745191174e-02,6.883318370255532559e-02,1.678252220153808594e-01
5.013751485398411090e-01,6.442046546185516975e-01,6.572191610774459347e-01,-9.725010379037980768e-02,7.819737780703085728e-02,3.880061894858089638e-02,2.714078128337860107e-01
3.676776828946233255e-01,4.661194538550578192e-01,4.220330560253545693e-01,-1.935437812248083818e-03,2.192482442960577010e-02,1.434435353768864253e-02,9.677325189113616943e-02
3.771933842047203167e-01,4.997925172757807233e-01,4.216712472365107267e-01,-5.743695780202781771e-03,1.640450702168942676e-02,9.906533570081730439e-03,1.129450872540473938e-01
3.669832992931222893e-01,4.632764646488278237e-01,4.562460159026138773e-01,-1.159730124650639599e-02,1.422173928740749597e-02,2.364755609867199432e-02,1.064551696181297302e-01
4.948071987668450911e-01,5.858057392038321654e-01,4.116628452129520443e-01,-6.473547074053200706e-03,5.035510866973030852e-02,-4.832377042739932800e-03,1.748211085796356201e-01
4.566748147442654115e-01,4.343134159153829721e-01,4.388509089309426958e-01,-1.038237370274464229e-02,9.324902297426270609e-03,1.528151290149421795e-03,3.178685903549194336e-02
4.320422913143586174e-01,4.263394411622564717e-01,4.323265774753503599e-01,-1.598350445833075653e-03,2.600168882227939064e-03,2.189827344453369566e-04,7.893999107182025909e-03
4.445042764140548774e-01,4.356760475705260816e-01,4.331396012054287703e-01,-1.403153389121779152e-03,2.375451930175812455e-03,1.399591603456073899e-03,1.163936965167522430e-02
4.321105438600312820e-01,4.272520887264546485e-01,4.100784653752845843e-01,-9.457329981854502646e-03,3.108940433552446689e-03,2.710255856445720288e-03,2.685761451721191406e-02
4.434165332638373980e-01,4.319898802214792166e-01,4.346241397906601689e-01,-6.680908173773382995e-03,5.579932692375018551e-03,7.228663481146584135e-03,2.216930873692035675e-02
4.276912077555307667e-01,4.355788562731405800e-01,4.248934548535710509e-01,-7.060547818707471959e-03,4.076380412312802064e-03,2.875543639261174313e-03,1.778541505336761475e-02
4.304071592593425311e-01,4.441051717652348407e-01,4.344691276427423143e-01,-1.956925271178542713e-03,7.617355726399450489e-04,1.289938866154621572e-03,1.291183382272720337e-02
4.274517099480643068e-01,4.323767503680263080e-01,4.328245866510570528e-01,-4.398925872268495858e-03,3.932780576193588805e-03,4.001943849951055711e-03,1.338509563356637955e-02
4.488964497347624483e-01,3.758729437934344997e-01,4.856208787267110027e-01,7.893403701027916497e-03,8.533764596488708359e-03,-4.404004687772253637e-03,9.912841022014617920e-02
4.757982458795267378e-01,4.165655845881169328e-01,3.475194082898001025e-01,1.252459945232279465e-02,1.190354692417069232e-02,-3.721264822285848262e-02,1.319685429334640503e-01
4.208856421649818103e-01,3.814023953213503959e-01,5.314610941049516812e-01,8.987623983474755940e-02,2.058073650610391450e-02,-6.167297396350674907e-03,2.092122286558151245e-01
3.951877633938448153e-01,2.672248215132519977e-01,3.848138693807060529e-01,3.589881550091322121e-02,2.545768667188545373e-02,-3.777079081692952950e-02,1.588867902755737305e-01
4.175736316335860732e-01,8.319973980405179215e-02,4.822173250900085861e-01,3.245789690202207645e-01,-4.234838294376257195e-02,-3.130025736327317343e-02,6.796864271163940430e-01
3.454583199372776581e-02,2.054912911987385182e-01,2.866799364773955361e-01,1.937244999527292233e-01,1.369486739090548244e-01,-1.063154818034960924e-01,5.024480819702148438e-01
4.758650108236906484e-01,4.236665166416371253e-01,4.135092802271120860e-01,4.865488492838136898e-03,-1.387109585808771368e-03,9.832436213423631586e-04,5.863220989704132080e-02
4.634558487735897514e-01,4.072986814089669116e-01,4.019646244713573902e-01,1.579605668795727984e-03,-1.570476208051701421e-03,4.294516247054959023e-04,5.913596972823143005e-02
4.811381793195256829e-01,4.118668514965242999e-01,4.137463367881616394e-01,2.564547858643597550e-03,-2.527452758902578277e-03,2.109162119160888117e-03,6.873205304145812988e-02
4.450044198182811495e-01,3.833236009260653221e-01,4.216491344262681684e-01,7.529774197817683604e-03,-1.770800268496258364e-02,5.979279738197050033e-03,6.424552947282791138e-02
4.633255493219222143e-01,3.750845259496994322e-01,4.157291004100524545e-01,5.000675212757535112e-03,-1.296950567368381976e-02,1.286010192053461780e-02,8.323299884796142578e-02
4.088146848180052584e-01,4.051963275239222062e-01,4.650337668090820942e-01,-1.030376062891338569e-03,-1.287306858943335292e-03,-2.024439417665275902e-03,5.828850716352462769e-02
4.770884302318368353e-01,3.978695250178272413e-01,4.085494787920659343e-01,2.161160154006264416e-03,-6.732212085857715474e-03,1.160126833291136132e-02,7.808578759431838989e-02
4.948238677846791278e-01,4.002066027792560154e-01,4.324226435636266408e-01,-5.158130232642082168e-04,2.966685455282885441e-04,5.653726339026985716e-03,8.389911800622940063e-02
4.044783959023899866e-01,3.662929071037238637e-01,4.289791240678391682e-01,1.217746443736979038e-02,-1.460713256469849640e-02,6.262818710451127473e-03,6.478144228458404541e-02
4.513212058212993094e-01,4.086251222618605405e-01,5.103756556674698963e-01,5.533177714716851908e-02,-1.142182046771662331e-02,3.192019064429013619e-02,1.430547535419464111e-01
4.022247283112955207e-01,3.985809499467347083e-01,4.414141190433449324e-01,8.323751449523308227e-03,-8.941111665656028412e-03,3.761090006508798194e-03,4.671194031834602356e-02
3.998950201757169864e-01,4.171637703809795705e-01,4.254889442893304841e-01,4.639523309091336291e-03,-4.475459615849911206e-03,7.950151332778532948e-03,2.873261272907257080e-02
4.324110189473054366e-01,4.313266644213326617e-01,4.563206047619730588e-01,4.749436138323246195e-03,-7.415175164045134659e-03,8.159597549444614142e-03,3.211126849055290222e-02
4.224269474135776692e-01,4.900221416069582836e-01,3.741372400233188289e-01,3.927953977058099705e-02,-1.324225637905342978e-01,1.280518867895454396e-02,2.605627179145812988e-01
4.210430944373200757e-01,4.191361660561908065e-01,4.174226575180925436e-01,5.710389657660670457e-03,-8.038245261146718251e-03,5.065567122619014755e-03,1.945471018552780151e-02
4.654412954420349413e-01,4.067869920155189889e-01,3.972659028778873780e-01,7.979672839143074625e-03,-3.834449774509257700e-03,6.015927725920662897e-03,6.658183038234710693e-02
4.091050370235086442e-01,4.241177191052636908e-01,4.181899031889088625e-01,7.697129956517814861e-04,-4.178763159007996275e-03,3.428623810163392103e-03,1.615416817367076874e-02
4.291657534737465252e-01,4.352290132661367772e-01,4.437820034527056312e-01,4.814620946152472700e-03,-7.411380841038926401e-03,7.204282833348488527e-03,2.349059842526912689e-02
6.020979376016766249e-01,4.069692340708822575e-01,5.342604470340055478e-01,1.172114007078479785e-02,-3.544785644273277386e-02,-1.094002826030427006e-01,2.636800408363342285e-01
4.633301413971985250e-01,3.101718429187185766e-01,4.147730541493508949e-01,-9.095849437677827609e-03,-1.284675422881556908e-02,-2.619237717631455256e-02,1.455327272415161133e-01
5.261860862894518487e-01,3.789172210955251696e-01,4.160908109933317278e-01,2.322070185723944941e-02,7.397917716982063512e-03,-6.515161732208180068e-02,1.791967451572418213e-01
4.996189846398838563e-01,3.666251480835375220e-01,4.172895575060218687e-01,-4.641197299304108525e-04,-1.723103124307134165e-03,-1.827857398165542296e-02,1.205324083566665649e-01
5.141164262726162226e-01,3.875430202451160544e-01,4.657925907663165166e-01,-5.918075565224997087e-03,-1.117899183538184453e-02,-8.887271137228217044e-03,1.138263568282127380e-01
4.996869130161301631e-01,2.737412441329358237e-01,4.911618766876105768e-01,2.772610087178178744e-03,5.974179091299360901e-03,-1.867925597502873361e-02,2.244433164596557617e-01
4.925699224179910796e-01,5.183517128964849618e-01,3.538842567962830477e-01,4.509072492740467605e-03,4.792266048628553848e-02,-2.738353803808289341e-02,1.807603240013122559e-01
3.973216994244060940e-01,4.524879817015732275e-01,4.447969078225761930e-01,1.541172550009459880e-02,2.658684701665875796e-02,-1.162001166142538448e-02,7.691815495491027832e-02
4.184188634281786334e-01,5.229343609974116402e-01,4.462758661657090231e-01,-3.953355724317573344e-03,2.732375923323708544e-02,4.624863370276821248e-03,1.055406630039215088e-01
4.395809882914755162e-01,4.872646450656938355e-01,3.374157608740732672e-01,1.411585688913575068e-02,7.364387758020958519e-03,-4.466711387551551560e-03,1.356591582298278809e-01
4.907045579922258427e-01,5.284645978877848815e-01,4.185723874031652691e-01,1.684536093829075432e-02,2.008172601268451429e-02,-8.718635167220640733e-03,1.078969612717628479e-01
3.412447657859613570e-01,5.033260399970368448e-01,4.576411425402350241e-01,8.765103634054744255e-03,1.987251124245517642e-02,-6.197655693103896156e-03,1.499441415071487427e-01
5.509900090984595211e-01,6.424781233063979746e-01,3.786673846035450430e-01,-2.672096094013987413e-02,1.265146441617269191e-01,2.899992157949428037e-02,3.263640701770782471e-01
3.727850253445335049e-01,4.498217159863429626e-01,4.410407538903796110e-01,1.313515042078504391e-02,-7.842147535579529344e-03,1.557043828567502598e-02,8.224786072969436646e-02
3.403812818156839448e-01,4.910690398157934178e-01,4.547072811246978263e-01,-3.332579792571299399e-03,-2.606968347723864418e-02,1.045920172923982608e-02,1.447414755821228027e-01
3.554279525937794615e-01,4.906512424324894761e-01,4.396616726170640699e-01,2.103544768052183537e-04,-1.174164748109236649e-02,4.686443284595364842e-03,1.202909648418426514e-01
4.146781734615182513e-01,4.793160824072646431e-01,4.352969586392849699e-01,3.597878548279738117e-03,-4.590710286397043684e-03,1.223456427446871671e-02,6.181868910789489746e-02
3.641119250407652275e-01,4.644992119514104179e-01,5.405187830076151334e-01,1.206027133128351331e-01,-4.609266205888120672e-03,3.001078989069061453e-02,2.643647193908691406e-01
4.564121871514625339e-01,4.624388187458892130e-01,3.779657700047732716e-01,2.276994051877150385e-02,-2.974714868591771949e-02,3.142327501082384927e-02,1.176234856247901917e-01
4.039413301704373183e-01,4.750046439915254215e-01,7.384858371198886884e-01,-3.173659489732369443e-01,-1.229905397202173678e-01,1.331234295806777435e-01,7.027838826179504395e-01
4.505339158953778900e-01,5.115406796902387532e-01,6.527328402618144398e-01,-1.612209285547747950e-01,-6.685618994491620941e-04,-1.950060060535579662e-02,3.337505757808685303e-01
7.173910149929826341e-01,6.073162227174195849e-01,7.780612524699361821e-01,-1.984072623576929872e-01,1.438819204697742993e-01,1.405209355265980842e-01,5.117776393890380859e-01
4.751738572537091421e-01,2.832643919618141881e-01,8.069412911053388537e-01,-2.314375079432047511e-01,1.052454442780145494e-01,1.455308430198288400e-02,6.364929676055908203e-01
1.703970188999060220e-01,1.594857487198567403e-01,4.489053881471103402e-01,-2.770168244759010356e-01,-3.600029810495261606e-02,-6.699152853122599142e-04,5.610964298248291016e-01
-1.358572365422850980e-01,1.411230713539230741e-01,3.761541914003075915e-01,-2.719874533551618345e-01,1.953208280426628474e-02,1.642283576989038082e-02,6.488003134727478027e-01
3.906583337412564694e-01,3.194975790490883760e-01,6.105647540415062302e-01,-1.372778060498323904e-01,8.387364376779711181e-03,5.625903998303014714e-02,3.678494989871978760e-01
3.468954679067868807e-01,5.045004333854323786e-01,4.651727203839471358e-01,1.136801836112424566e-02,4.790632095593987116e-02,-1.745412215222618552e-02,1.684471219778060913e-01
2.356985743545338963e-01,4.036904321776779159e-01,3.890469735186128930e-01,5.384721937691387683e-02,7.206462334048321927e-02,-2.928097475003988218e-02,2.298398166894912720e-01
4.228299247527899096e-01,4.682594200278270558e-01,3.703185899294911820e-01,-1.307165775577311118e-02,-1.464692512446512038e-02,-3.529762256373125077e-03,9.165381640195846558e-02
4.180557973017547946e-01,4.858265068037013745e-01,3.894272491813275394e-01,-2.380844893820157227e-03,-5.400705684503518539e-03,-1.191599045912787895e-03,8.637943863868713379e-02
4.376171348607642009e-01,4.834191247413519577e-01,4.099980191021600495e-01,-1.150317539635813645e-02,-6.635690104925835026e-03,-5.982903725994111535e-03,6.900797039270401001e-02
5.102642968325498130e-01,3.676863805468234547e-01,6.020132874238324217e-01,-1.346767314260684800e-01,6.702271020704782603e-03,1.580102414565544983e-02,3.116487860679626465e-01
4.285403551137295652e-01,1.006972889657950510e-01,4.238231152285325543e-01,-1.470846697974966498e-02,9.380288785797529991e-03,1.780109441455395361e-02,3.283602297306060791e-01
5.835838143335666528e-01,3.266517377980344694e-01,6.680311287583429181e-01,3.095419574550470863e-04,-1.467995653480698784e-02,-2.494368531868986633e-02,3.120192587375640869e-01
4.007316201577533765e-01,1.627525974312537260e-01,4.832825016938310236e-01,-1.763272936848999106e-01,3.012999536834682496e-02,3.040388661144608276e-02,4.264558851718902588e-01
5.109700158743802900e-01,3.158351727222562522e-01,5.007601914455042103e-01,-1.129859290070915623e-02,3.447489088821161125e-03,4.157917748911987149e-02,2.044374495744705200e-01
5.712049559346301653e-01,3.718861704513414246e-01,6.006154195910405891e-01,-2.970971254575896850e-02,8.898687978347205835e-05,5.466992867261147998e-02,2.409760206937789917e-01
3.547106906885548749e-01,4.315409060012504461e-01,2.836101739078205064e-01,2.346319674152895843e-02,6.245494623265660655e-02,-2.109095474172546086e-02,1.763767153024673462e-01
6.292522218504393861e-01,2.151211805855229864e-02,5.004643769693174482e-01,-1.150811917160238645e-01,-1.029409155644958954e-02,-1.485165192666842819e-02,5.902333855628967285e-01
3.759386291273180691e-01,4.111325399537360537e-02,3.786391000055716050e-01,-8.788795124532203240e-02,7.503235951134376580e-02,1.206569076782769145e-01,4.435721039772033691e-01
1.328556455779557055e-01,1.544430250620242306e-01,6.826403798493989317e-02,1.825705303609286845e-01,1.863932617962861527e-01,-1.951902645593139307e-01,5.696960091590881348e-01
1.247796873508632276e-01,4.885205609532373705e-01,4.154236785167647605e-01,1.256501189760781401e-01,2.558937910355680301e-01,2.662057911133570293e-03,5.957283377647399902e-01
3.969739694898288818e-01,4.328689004938187646e-01,4.410836592226484720e-01,5.724605550729536252e-02,2.473819827291961343e-02,-3.722826906047338458e-02,1.321964263916015625e-01
3.397517176536286598e-01,3.784361306925114743e-01,4.414345186063734494e-01,3.664770751952749900e-02,1.785933518705581577e-02,-2.491988627873161985e-02,1.214552149176597595e-01
4.722863968363697484e-01,5.584117236627316183e-01,6.210876064635784122e-01,1.119169298284892339e-01,6.029935193866035187e-02,-5.825895184932727150e-02,2.746094763278961182e-01
4.558035600424095168e-01,4.957055220358438374e-01,5.100489727456437583e-01,2.194438847780409013e-02,1.366122723041706018e-02,-1.438207185350555938e-02,7.067758589982986450e-02
4.661068234678940048e-01,7.146209048045067957e-01,7.004823797136310315e-01,7.298794571413880217e-02,5.044294439930183116e-02,-2.274308249657994857e-03,2.864894866943359375e-01
4.426160813837247687e-01,4.379714662548814252e-01,4.363403289839570265e-01,-4.113415647730164250e-03,4.718148228631294586e-03,6.051762373386593806e-03,1.610043086111545563e-02
4.499465591552698762e-01,4.143670943530135542e-01,4.140697865656867149e-01,-4.833691494445475217e-03,1.584300043365142715e-03,3.002819156819105766e-03,3.716502711176872253e-02
4.589380914582038007e-01,4.229435237861791097e-01,4.296762170610070597e-01,-1.576247274303543226e-03,1.986686415469996175e-03,3.699122382967552636e-03,3.404324501752853394e-02
4.549361371626955419e-01,4.284449027437237101e-01,4.303832101370302921e-01,-1.757003574220637873e-03,4.899479698781111954e-03,8.778658897367325577e-04,2.716214582324028015e-02
4.481908717707872025e-01,4.161090310186272845e-01,4.076648014231224471e-01,-6.777241241528466319e-03,3.422034986697978110e-03,3.593008402740801611e-03,3.978830203413963318e-02
4.345105295045073035e-01,4.282391038958227591e-01,4.085559585214406098e-01,-1.074500406094180092e-02,2.681966115485586843e-03,3.084764859547971683e-03,3.076832555234432220e-02
4.801092808931178291e-01,4.164164409677589829e-01,4.106978460941509979e-01,-2.406617692344066410e-03,-9.632238139680700598e-04,1.947123403497289223e-03,6.697198003530502319e-02
4.590806740217007187e-01,4.105112766661632717e-01,4.077310886813064750e-01,-1.064357508905895526e-02,7.422931969094533587e-03,1.096993729242789345e-02,5.803381279110908508e-02
4.397225067814658495e-01,3.682248425134077019e-01,4.086093735773712599e-01,-8.933611807744901503e-03,1.719442908729228864e-02,1.364820323556889189e-02,7.443534582853317261e-02
4.334327867745508822e-01,3.801744997277634597e-01,4.126820711686521315e-01,-5.811269591937304711e-03,1.595957471503113914e-02,1.084900191800860884e-02,5.814145505428314209e-02
4.463315466136294485e-01,4.230428113038159910e-01,4.240665046937970861e-01,-2.538864190097711061e-03,4.950931825534403419e-03,9.119225761071746757e-04,2.479798533022403717e-02
4.466177717358783550e-01,4.005524075980764764e-01,3.912698824997583591e-01,-9.306970993209024920e-03,2.084911828174912819e-03,6.989414484101547261e-03,5.527423694729804993e-02
4.355641415324664756e-01,4.269155094560445618e-01,4.050832263341003769e-01,-1.145668888399405810e-02,1.732790716892942950e-02,1.028752267006845765e-02,4.850054159760475159e-02
2.816330199803294132e-01,4.099136856604555512e-01,3.441561568703183638e-01,-7.296390460347541851e-02,9.571169548168013963e-02,5.366706129855241397e-02,2.538472115993499756e-01
4.096795337252485680e-01,3.725276729513940510e-01,3.991197030859463535e-01,-7.885111270784197351e-03,2.012894112006081634e-02,1.265236186065493706e-02,5.460538342595100403e-02
4.584866524046966041e-01,4.284939133903600261e-01,4.211127626730936657e-01,-2.031914009247876886e-03,1.740488092240265443e-03,2.719853216442362238e-03,3.491551801562309265e-02
5.487740577828952304e-01,5.365545557384164832e-01,2.990938812427871851e-01,9.680917553450502045e-04,7.220103269348231503e-03,-5.434924384104114665e-03,2.443079054355621338e-01
5.288514433178221896e-01,5.155565897756481109e-01,3.426540157082660354e-01,2.554267449503805007e-02,5.775695919022932195e-02,-2.873209620478481968e-02,2.163613885641098022e-01
4.702132124637113941e-01,4.744667815709727732e-01,2.709788817560408458e-01,2.309825102042312520e-02,2.887348833612205651e-02,-4.919916951086052842e-02,2.278665453195571899e-01
5.363332948306098746e-01,5.131081741888315895e-01,2.838335540920150502e-01,1.554016483961287573e-03,6.980663455403394481e-03,-3.459163024248620381e-03,2.421167492866516113e-01
4.647988677823486903e-01,4.706357787336416520e-01,2.306054303174217002e-01,2.074592424753288547e-02,4.464665690395263481e-02,-5.146125287590279374e-03,2.521868348121643066e-01
4.509453029059000140e-01,4.360095276107843754e-01,1.953161142484473312e-01,-1.985185604589848225e-03,3.927382310741273086e-03,-6.751317015766183927e-02,2.747426331043243408e-01
3.326912528349371678e-01,5.250673783733121880e-01,5.582465807460511575e-01,4.258172227928426479e-02,2.567714933935152585e-02,-1.744963534191346435e-02,2.298333048820495605e-01
3.972931916320712742e-01,4.854874319002438487e-01,4.013089918539892165e-01,4.448738819429569162e-03,-1.157429439203466054e-02,-3.874883855730790021e-03,8.914308995008468628e-02
4.388432656476041749e-01,4.330688706678365585e-01,4.289980077735100483e-01,3.271741220156458487e-03,-2.293753870260473431e-03,-5.829281532746358489e-04,1.106067560613155365e-02
4.357117660830249761e-01,4.256269702638375008e-01,4.185767010195871052e-01,1.634509072104121854e-03,-2.053125749413133808e-03,-2.101028900678133214e-03,1.601292379200458527e-02
4.465806632733245740e-01,4.249224803796313732e-01,4.224848638723982530e-01,9.166277633699267775e-04,-5.627978453159041168e-03,1.160351783697929256e-03,2.508775517344474792e-02
4.103680513713279243e-01,4.223468664908241466e-01,4.231832054273109711e-01,3.550218441435047754e-03,-1.402605985812714357e-03,3.790243697599181977e-03,1.552487444132566452e-02
4.306674769160341310e-01,4.946638927808870156e-01,4.214906771229147697e-01,1.124383891118947189e-02,-1.621409656755999629e-02,5.225935699184524642e-03,7.756888121366500854e-02
4.314519950902103163e-01,4.284659390363801390e-01,4.269175712427572544e-01,2.628943132214167904e-03,-3.882326487773692710e-03,-4.857744042036125172e-05,9.049639105796813965e-03
5.941527645584806505e-01,4.357758252096187723e-01,2.879700521732619367e-01,3.433708021007358252e-02,-5.133898931130378290e-02,1.085557570650690778e-01,3.422514796257019043e-01
5.105872929683706873e-01,4.626521934807540926e-01,2.376200934376390961e-01,-5.597033492781586933e-02,3.674232287166131344e-02,7.561712640767351279e-02,3.071254491806030273e-01
5.220608093961046636e-01,4.640621047664880150e-01,3.362123442956616026e-01,-5.149062352990402790e-03,-4.900454002211160343e-03,3.118813516891919685e-02,1.737648248672485352e-01
5.795513248072720058e-01,5.362831277714001921e-01,4.619514783928275747e-01,-3.259840373688157461e-02,2.291453923063244830e-02,5.303834423635110651e-02,1.543240845203399658e-01
5.245196648949826956e-01,5.171120460022834431e-01,3.582724478392352863e-01,-2.099496745827149694e-02,4.447803322254204050e-02,2.882153577737213423e-02,1.902913749217987061e-01
5.746304522657803560e-01,2.801993360810433598e-01,2.997607828506810845e-01,6.271126339183981380e-02,1.045046938622090221e-01,2.503939250061782973e-01,5.603266954421997070e-01
4.179577578103036428e-01,3.786155565157891534e-01,2.139293140127079829e-02,-2.418940412364519593e-02,6.866581789930713275e-02,1.585828758821946904e-01,4.843094944953918457e-01
4.218562079968294354e-01,4.932123830255958352e-01,4.438131730467082536e-01,1.133826732664903851e-02,2.665345039100890448e-02,-1.106022872051745133e-02,8.301157504320144653e-02
4.209680081201710444e-01,4.751676847895281997e-01,3.865573416764926384e-01,2.332443285912526743e-03,6.851714811278892224e-03,-3.710707753438280236e-03,7.864612340927124023e-02
3.623549855618886650e-01,4.487175138087442505e-01,3.658123620788747976e-01,-9.475460921602904887e-03,2.985673174800442670e-02,1.165722314227632915e-02,1.025824099779129028e-01
3.575381865533837633e-01,5.138216345903127147e-01,4.748483707246147767e-01,1.477546518403317910e-02,1.573388971353762919e-02,-1.084452509345912134e-02,1.469795107841491699e-01
3.567380420111415096e-01,3.910569284383527133e-01,4.749784179909727899e-01,1.449908684859260201e-02,1.111850812753993611e-03,-4.469253754270775467e-03,1.086047738790512085e-01
3.729931414688891222e-01,4.521262834488582461e-01,5.123268089232347888e-01,2.022573492045276478e-02,1.236830022163830888e-02,2.128792672509838627e-03,1.278662383556365967e-01
4.119355487842187857e-01,4.163258013526043300e-01,4.839284791791185203e-01,1.219391255892179546e-02,4.572839438385298098e-03,-4.708376624737925682e-03,7.390198111534118652e-02
4.028455092564173223e-01,4.091690763912101403e-01,4.828795792662283204e-01,2.926346477270224886e-03,-4.342155348846995773e-04,-1.236373523371188648e-03,7.726694643497467041e-02
4.623834693774684923e-01,4.300342928683537069e-01,5.313290280476693495e-01,3.054322135746478928e-02,-2.527983948992111596e-03,1.786933222762320190e-03,1.042003259062767029e-01
3.997955663629569334e-01,3.490844106983359563e-01,4.708774120561600718e-01,1.579828327083388981e-02,-6.982326231569132430e-03,2.478348733971624373e-03,1.101922616362571716e-01
4.678593729399863066e-01,3.449106740076579580e-01,3.957550082885746279e-01,-1.798249610787680877e-03,-5.215339589831826869e-03,-1.907576972071384561e-02,1.123976856470108032e-01
5.001929820822166306e-01,3.616035603091710127e-01,4.695627425028701674e-01,-9.736979294855686515e-03,-1.601601817606163394e-02,-4.874583531452524043e-02,1.551858484745025635e-01
4.513262258626283829e-01,2.667051271474422114e-01,3.877776540423473195e-01,-1.411929866978841284e-03,7.375999480342642885e-04,-3.163364833903596629e-02,1.714661419391632080e-01
4.665698552978317926e-01,3.108971597812963394e-01,4.161712554600615066e-01,-7.554026107016637015e-03,-1.325188068616449735e-02,-2.666900523528853775e-02,1.475128978490829468e-01
1.138134651360537264e-01,4.101877441886968567e-01,4.324686240429794215e-01,-1.007827411121742373e-01,2.032501359373235089e-02,3.745518955621940718e-03,3.559361100196838379e-01
3.267390630751610958e-01,4.441390062441011310e-01,5.054324660323772367e-01,-3.261828917863293653e-02,-6.871270658512309854e-04,1.025681994833601424e-02,1.680606007575988770e-01
4.674219287684785451e-01,4.816975181734554079e-01,5.886448837968301095e-01,-8.410099057261279099e-02,4.562109830933411964e-02,8.323047386329807118e-02,2.478164434432983398e-01
-3.962763143131969867e-02,5.949757808960354222e-02,3.608122378029494648e-01,-3.132126627353737369e-01,-7.980609984459964557e-03,1.506035878301782011e-02,6.524279713630676270e-01
6.240896127055732823e-01,5.175418719851924143e-01,7.354982213795731028e-01,-2.613892081218838759e-01,2.096232938584485436e-02,1.030968044077035656e-01,5.232711434364318848e-01
6.497857636793642477e-01,3.130040246084483391e-01,6.785376246198520089e-01,-1.873228735537207090e-01,3.769573492251874672e-05,4.441173723156330300e-02,4.848901927471160889e-01
4.158141860938051604e-01,4.051166572272132393e-01,4.649177222414920818e-01,-5.577276287956658279e-02,2.038335669196604874e-02,3.578798011610370006e-02,1.321796774864196777e-01
2.615375703928136120e-01,2.534046088455251255e-01,5.665073774643035742e-01,-2.335419276631296448e-01,6.052751569303155971e-02,9.902382981612890822e-02,5.473448634147644043e-01
4.216117501523168332e-01,4.317065410647056289e-01,5.228256628770650005e-01,7.914613269008233254e-02,3.629965091811258177e-02,-2.268902664489329951e-02,1.833415627479553223e-01
2.014374961841107203e-01,4.045671390468206230e-01,4.464492432735486238e-01,2.037598782128542674e-01,1.106461740440384395e-01,-1.036563140677457112e-01,4.950142800807952881e-01
2.915658329556753969e-01,5.894034004517616498e-01,5.599957146665981433e-01,1.844150970718208896e-02,4.015414662698799791e-02,5.974109063751563073e-03,2.945805788040161133e-01
2.810437912830544560e-01,5.268880648534559619e-01,5.068678036206025750e-01,7.038810996631739321e-03,6.370435507683663151e-03,3.201261297278950972e-03,2.371064722537994385e-01
2.540790575912705851e-01,4.788005972876555605e-01,4.234523970951310501e-01,-2.007508281074401463e-03,4.903419252620690866e-02,-7.844082474550389053e-03,2.203065901994705200e-01
1.839456400899959487e-01,3.869806715750332415e-01,4.447746833383970921e-01,7.462169180890826370e-02,-5.606646753404612160e-02,2.484782190730425513e-02,2.903194129467010498e-01
2.906326943671397878e-01,4.831573846805643502e-01,5.014334589238903517e-01,2.323161990114959788e-02,1.298544965902889876e-02,-1.087056616088158401e-02,2.083215415477752686e-01
3.599331073585051444e-01,5.092015172190156314e-01,5.395259650288127817e-01,8.084162723172052395e-03,1.026292809493049157e-02,-1.125506591278421613e-02,1.691720634698867798e-01
4.379941641143536568e-01,5.830328639689994485e-01,5.662797224843876265e-01,-4.042639960851400482e-02,3.509043915478445713e-02,1.780359660295527391e-02,1.686263382434844971e-01
3.752718904469131145e-01,5.251663124546724903e-01,5.413856510906733810e-01,-5.376607512961399660e-02,9.220885313340326794e-02,4.463736418343074858e-02,2.555775046348571777e-01
3.762227979087391927e-01,4.767297608090935168e-01,4.832074412977337419e-01,-1.217238147912039041e-02,5.338598097565209338e-03,1.869532931238213069e-02,1.112349331378936768e-01
3.415743182885961349e-01,5.559684406357807696e-01,5.290093908364561504e-01,-1.352867037608932767e-02,2.001825820559011496e-02,7.193784789346960133e-03,2.069257944822311401e-01
2.941993603592434336e-01,4.823239886302010948e-01,4.787763398991730091e-01,-2.015422403874006854e-02,2.422194007807238272e-02,2.212871990515851914e-02,1.979489475488662720e-01
4.021650106809461778e-01,6.093522054869888738e-01,5.425059937306112579e-01,1.069690064873432371e-02,5.907064891453539524e-02,7.926665681018666212e-03,2.110570073127746582e-01
2.785270388298836108e-01,4.338918329312601019e-01,4.486177971622713478e-01,-8.707135149043482292e-02,4.760353526408737240e-02,4.820532762859107423e-02,2.513101398944854736e-01
6.754505174245492016e-01,5.463690370045527489e-01,6.520221531323729947e-01,-8.781848284198399968e-02,-6.227307728724068570e-02,-9.084917973775186173e-02,2.715097367763519287e-01
5.483785854026959061e-01,2.455088412225736316e-01,4.602837988266486047e-01,2.915370134690054710e-02,8.218879528091181663e-02,-2.313716598810512948e-01,5.061846375465393066e-01
4.976531304708500247e-01,1.140723733639210646e-01,4.305393287623663356e-01,1.074425318477183200e-02,-3.899479942451712991e-03,-1.308299590386612365e-01,4.214691817760467529e-01
4.745737709671578042e-01,2.856637721445839939e-01,4.172592472974063216e-01,-1.461999249615207261e-02,-3.221200646552078387e-03,-3.824491036245927789e-02,1.822224855422973633e-01
4.048741326205276825e-01,1.606732505328224980e-01,3.060729727011249346e-01,1.673114891107918556e-02,1.344603653090573579e-02,-1.087059808340642142e-01,2.865337133407592773e-01
6.763365336356603752e-01,2.942836877476948665e-01,5.719385286846461192e-01,4.687845520191533111e-02,-4.795112939336864527e-02,-1.338622937172102012e-01,4.292153418064117432e-01
5.733519702085996261e-01,3.898298034428691605e-01,4.968606851155139559e-01,-1.582569113970544450e-02,-1.105409287874672616e-02,-5.652668739652429164e-02,1.902555972337722778e-01
3.257680590533388876e-01,5.703621971115623301e-01,7.656419526672969544e-02,3.945489402593011646e-02,2.242683213262479935e-01,1.441049707891836965e-02,5.822924971580505371e-01
3.700661135335472363e-01,4.853179336605414895e-01,3.785562899226495581e-01,-5.396297011822326307e-04,3.570082012525237908e-02,-6.862863479548109852e-03,1.278372853994369507e-01
3.439415708031115515e-01,4.783803813580895792e-01,2.457780550014990739e-01,-3.737191489597785354e-02,1.168091038558576183e-01,8.894392315712858210e-02,3.313049972057342529e-01
5.474511350734805326e-01,5.895896545076884099e-01,3.505566011832215723e-01,-6.853564019726657297e-02,1.839353035996676988e-01,7.993752253152965059e-02,4.284833371639251709e-01
7.798081573521697951e-01,7.558761866891139380e-01,5.801986972548053290e-01,-2.460814758775122131e-03,2.197755306939229436e-01,9.809673799515750137e-02,4.576358199119567871e-01
4.144686532685175617e-01,4.134847172558411277e-01,4.883243724452441259e-01,-2.735462417020957399e-03,4.937218982727497197e-04,-2.666320412500057554e-05,7.450829446315765381e-02
4.064151752222227576e-01,4.067412259176163003e-01,4.786775481198001225e-01,-1.352995774682206817e-02,6.041410876989512790e-03,3.627144089946379886e-03,7.678892463445663452e-02
4.508984763974989707e-01,4.233108084540173621e-01,5.061027091435351677e-01,-2.395837498028835152e-02,1.380371887535510045e-02,7.934148749100028777e-03,8.839702606201171875e-02
4.319190724707721585e-01,4.652406392790857659e-01,5.083506475686672132e-01,-2.687153949759049643e-02,1.389963618586233240e-02,1.423763728695169421e-02,8.808667212724685669e-02
3.378949098156206476e-01,3.858774252621941514e-01,4.606676014961784693e-01,-1.679300415930901416e-02,2.494814311290410695e-03,5.014817947011632714e-03,1.114658936858177185e-01
3.254424574050620023e-01,3.837288744706627286e-01,4.609846241176323023e-01,-2.341469450532666918e-02,5.518298435638929511e-05,-1.360414455773160643e-03,1.245753690600395203e-01
4.136879789460152224e-01,4.112473156625035542e-01,4.831408296665737345e-01,-2.909415530656937494e-03,1.166324155938357979e-03,-3.617239770088392752e-04,7.091568410396575928e-02
4.196738811193632124e-01,4.193928488738529747e-01,4.478593864656837953e-01,-2.407194230326660609e-03,8.894242274238109772e-03,3.172677098145252825e-03,3.297463804483413696e-02
3.911164476132119594e-01,4.036373238245521411e-01,4.764272367627717664e-01,-8.589067754457615014e-03,2.926320650777096866e-04,1.128219761670275862e-03,8.119069784879684448e-02
4.732789251021598531e-01,3.154899678419407771e-01,4.843522645397690396e-01,1.046073710869467946e-02,-1.050718063660149512e-02,1.606607791843300131e-02,1.679317206144332886e-01
4.061823586435718836e-01,3.742635341462915433e-01,4.032897639456496930e-01,7.130329770696470539e-03,-1.281290573371363269e-02,7.350247437289458841e-03,4.173685610294342041e-02
4.742185037115848600e-01,3.691342042666560519e-01,5.181351941053415899e-01,3.403038035430860225e-02,-2.548728372249026500e-02,2.110023723314532682e-02,1.560288667678833008e-01
4.456175023813949143e-01,3.688862364905257651e-01,4.867919445851018878e-01,9.003679043337230181e-03,-1.199927551021609529e-02,6.053999496030978457e-03,1.073661372065544128e-01
5.960556575958101400e-01,3.102027412980853383e-01,4.811847576531778636e-01,4.978739446245963179e-03,-4.184952143983393380e-02,8.587109032029438538e-02,2.992007136344909668e-01
6.177862990303998325e-01,5.545237024588639541e-01,7.162325124139513610e-01,1.090602764015968507e-01,-3.475110544599790269e-02,4.664350582098016756e-02,2.564253807067871094e-01
4.408712168898615280e-01,3.782954461491419562e-01,4.492000709563452876e-01,7.529059039186574397e-03,-1.980218565210784681e-02,9.867646765990402066e-03,7.838898152112960815e-02
5.265692213811486999e-01,1.104274396836925076e-01,6.842250620242055215e-01,1.346864636495588297e-01,8.280884778616978692e-02,4.898687898011781089e-02,5.880721807479858398e-01
6.696341914093084657e-01,4.299211003128768915e-01,5.833801520750507841e-01,4.214910501975682733e-02,-5.016065026442293601e-02,1.031322598202908530e-01,2.983497977256774902e-01
4.335335202747525596e-01,4.321233089977433717e-01,4.334286563497329325e-01,-1.399859234878562389e-03,3.081699561539082753e-06,-1.076797432541248475e-03,3.348004771396517754e-03
4.329472323994516536e-01,4.333825466960323780e-01,4.306642597108784609e-01,2.687041987027034552e-06,-1.412592830119461726e-03,-9.293039112560281308e-04,3.869414329528808594e-03
4.219589328933437966e-01,4.235760830637037011e-01,4.230317287291073813e-01,-6.549495231806001273e-04,-2.447264926309089105e-03,-6.230078372026200215e-04,4.738122224807739258e-03
4.251528885016420123e-01,4.270255386673987297e-01,4.217848698368280025e-01,-4.236361172765062792e-03,-2.161864763775792064e-03,-2.445071239025560679e-03,1.034185010939836502e-02
4.197029789310856018e-01,4.251031451940990857e-01,4.237608713108639291e-01,-2.948232890717933721e-03,-1.552175461129103907e-03,-2.737316635446228677e-03,8.916147053241729736e-03
4.280127195476514101e-01,4.341243137027711585e-01,4.339091312819878810e-01,-5.176406162315655424e-03,-4.968104440153799789e-03,-3.255940289948738766e-03,1.491033006459474564e-02
4.173955050517700327e-01,4.470767051514776824e-01,4.070451102338496496e-01,3.156022834716928904e-03,1.623794467598723866e-03,-1.655894128380698419e-03,3.662422671914100647e-02
1.442816050700743702e-01,3.968177417547333885e-01,2.880445223413320988e-01,1.700380169217520498e-02,9.911378083091604285e-02,-1.054125313451750520e-02,2.807281911373138428e-01
4.001672625519958615e-01,4.444040383057038524e-01,3.943225353221465612e-01,8.855922450422937242e-03,7.657911558277369531e-03,-9.536660090358604902e-03,5.416328832507133484e-02
4.097735234454117359e-01,4.349610571418145444e-01,3.604334591446202163e-01,2.093576410102390706e-02,1.063366386309716992e-02,-1.568961109872677590e-02,8.187944442033767700e-02
4.272058888052245318e-01,4.414384419053403175e-01,3.924116792264512599e-01,1.541267291268784076e-02,6.028855976643679622e-03,-5.071920684239735778e-03,5.298376083374023438e-02
4.276858170774054946e-01,4.185713435731768239e-01,3.882148243360031281e-01,1.466408406944732200e-02,4.472371033724166847e-03,-9.243391058462772925e-03,4.735724627971649170e-02
4.178350742821068109e-01,3.538248115198702748e-01,3.147586882415157050e-01,3.105330579055967308e-02,3.247608250579628320e-02,-5.095295538720748946e-02,1.482218950986862183e-01
4.178738811629144068e-01,4.579540040888844254e-01,4.184562424273011172e-01,7.809476419623622399e-03,1.110452220329720754e-02,-8.266299636269911280e-03,4.838702827692031860e-02
3.499328526020585306e-01,4.411177901574169224e-01,5.018301074882171031e-01,1.347965939565016862e-02,-8.427931987675869527e-03,7.411090734463088824e-03,1.358664482831954956e-01
3.220247576876444362e-01,5.183343160890643286e-01,5.723694515311049669e-01,1.258546731542279640e-01,-4.383608108631435740e-02,2.093222340907631429e-02,3.265919983386993408e-01
3.418794566140864744e-01,4.653726913874172699e-01,5.447459877382169191e-01,4.915803255048745157e-02,-5.797043092409759303e-04,-1.145331540101510230e-04,1.964773535728454590e-01
4.666364342405498467e-01,3.593832462656508797e-01,5.019079767916123647e-01,5.555088121003864954e-02,6.968735540172255223e-03,-6.733999276531114908e-03,1.614612787961959839e-01
2.837801273501447397e-01,4.363077392070885963e-01,3.990310215387155579e-01,4.533707575654096628e-02,-8.294690331792586857e-02,4.588484738793788958e-02,2.282360047101974487e-01
3.687137918714665230e-01,4.450554776153730074e-01,4.471502467599588471e-01,2.823966630749812079e-02,-2.905814745686477116e-02,1.891224457707857062e-02,1.095031574368476868e-01
3.818335556686129895e-01,4.528091085887867573e-01,3.699354552837856303e-01,2.258095965840766634e-02,-2.402354953991471184e-02,2.078459259202641157e-02,1.028623282909393311e-01
6.139370594207572696e-01,2.264062324792727732e-01,2.833338926376577915e-01,1.657241742485272007e-01,-1.297663487642780056e-01,2.084565120222053314e-01,6.281985640525817871e-01
4.169292000117639230e-01,1.102771578211855785e-02,2.211155978368335162e-01,-9.225039706621919813e-03,2.356153320690081501e-02,2.307827079370987078e-01,5.341541767120361328e-01
3.842849114798563281e-01,5.996543037938040221e-01,4.268929164522304864e-01,-2.012244339569653137e-02,-1.337215775353665648e-01,2.390665346939676791e-02,3.091870844364166260e-01
1.273778773811113652e-01,4.325607435789116662e-01,1.817906804179778291e-01,2.091573524655626973e-02,-2.663662717162841309e-01,2.595225245781805114e-03,5.419197678565979004e-01
6.700209272430349694e-01,6.623607526671017043e-01,4.192562809372654686e-01,2.060211392388490090e-02,-2.816387898024540551e-02,4.996832687265786305e-02,2.686338424682617188e-01
1.223803358168147892e-01,3.558660596761001882e-01,1.596927812610009489e-01,1.028299127007790276e-01,-2.269268995407674738e-01,9.843306424358728990e-02,5.123206973075866699e-01
4.649737373726738898e-01,7.049808281115885755e-01,6.617805639258036443e-01,-3.612361328674706246e-02,-7.668508169509156980e-02,-1.211922019139257192e-02,2.666429579257965088e-01
4.910253951842757369e-01,6.559812578086965384e-01,7.168954079832147164e-01,9.245430886758536360e-02,4.106502595179500198e-02,-1.586165183285651037e-02,2.691213488578796387e-01
3.012782536042308279e-01,5.157560426627531003e-01,4.997149799572907503e-01,2.716903633698004774e-03,1.036691812993071823e-02,-6.573822793982012080e-03,2.080668061971664429e-01
8.386685290979625784e-02,3.713866168677105728e-01,3.371831220372187854e-01,5.125869826825227293e-02,8.618561658325768482e-02,-3.053624816131162573e-02,3.270580172538757324e-01
3.039675578111900034e-01,4.139956733932209088e-01,4.896185985590200684e-01,8.515241556330924166e-02,6.146933772805356078e-02,-4.439561149026283182e-02,2.552387416362762451e-01
9.294027763117598817e-02,3.327275525793395583e-01,3.861859865198821740e-01,1.587022343845578554e-01,1.084298551994195281e-01,-6.627654199268355473e-02,4.440522789955139160e-01
6.764775553417606835e-02,5.501804601191553346e-01,6.522030881849580908e-01,4.231469166105301938e-02,7.866060217971530821e-02,8.253177167985080442e-02,5.803828239440917969e-01
2.982845920234454828e-01,6.635998896734953689e-01,5.326254786824284881e-01,1.903156720655982959e-01,8.249324333503318951e-02,-4.682624154496344004e-02,4.882788956165313721e-01
4.615547266625904532e-01,4.117399627722277966e-01,1.790346979662478799e-01,-2.052639092913782336e-03,7.059498032655643802e-03,-8.455869193202263101e-02,2.997300028800964355e-01
6.841506619611765760e-01,6.630154964042574983e-01,4.324724066405870593e-01,2.363092558179001601e-02,6.924596505275167069e-02,-8.403595269692983039e-02,3.093796670436859131e-01
5.318439612450914789e-01,4.962331575488846402e-01,3.304647428723916924e-01,-7.718690609136667595e-03,-3.789102654658949368e-03,-1.287464710759212219e-02,1.880678534507751465e-01
5.103256002576894712e-01,4.799922342550166365e-01,3.554918979797809242e-01,7.882889342188932266e-03,6.277705719558318055e-03,-2.147558532878629176e-02,1.479365080595016479e-01
4.764647897147371025e-01,4.276166136649345306e-01,3.048195438620877606e-01,-1.674090721707228654e-02,-3.331318243881749210e-03,-2.984144957310013932e-02,1.643450111150741577e-01
4.132776102810368224e-01,4.559543842915664280e-01,4.115922439669701949e-01,-6.108963119931823393e-03,-2.139613277795847802e-03,-1.980900790148921835e-03,4.509476199746131897e-02
4.272331595868860687e-01,4.561034094616966406e-01,4.196828468016352565e-01,-2.874633459588238262e-03,-3.041053129970964271e-03,-1.921711731422328946e-03,3.423582017421722412e-02
4.242024770372976317e-01,4.605567782989962722e-01,4.302545404737859180e-01,-2.825554700350369798e-03,-1.618717755769788318e-03,-4.698425278430637918e-03,3.516079857945442200e-02
3.656310001320552394e-01,4.645140486885878661e-01,4.188792669574878946e-01,-2.959100282090353778e-03,-1.451377613081106764e-02,-5.608157343291060408e-03,9.000253677368164062e-02
4.013768083734924330e-01,4.269204407079492114e-01,3.998406807566753374e-01,-9.954296973952720187e-03,-6.032316428191128628e-03,-4.271062232013623540e-03,3.398869931697845459e-02
3.912774235876367301e-01,4.433858205301934308e-01,4.002294430115055368e-01,-4.488659619156486376e-03,-7.058109121805831825e-03,-3.275141259834470856e-03,5.070525407791137695e-02
3.944502081792951587e-01,4.475448839345020358e-01,4.317096165605873725e-01,-4.768828011488237574e-03,-1.498724560521077706e-02,-1.655324074522323760e-02,6.158846616744995117e-02
3.848658340674261935e-01,3.942649019803485255e-01,4.676184816640688302e-01,8.152322198875502912e-03,2.157492255851027000e-03,-4.270046775903278691e-03,8.016601949930191040e-02
3.953591925212149860e-01,4.235687495654468226e-01,4.804172382144124009e-01,5.677925028110537668e-03,1.908956377569743764e-03,-6.407308766486929930e-03,7.656376808881759644e-02
3.447082042598689777e-01,1.368614913803680722e-01,4.478625793751037643e-01,1.752946478385768447e-01,-6.933641390385301972e-02,7.663443823344769090e-02,4.466622173786163330e-01
4.042374604756998613e-01,4.154117117372869150e-01,4.581498647946606328e-01,6.898582830662146163e-03,6.201748466960595174e-03,-1.009928939034693794e-02,5.470944941043853760e-02
4.436549642557128803e-01,4.281884767954059479e-01,4.453711044792359464e-01,1.638546111269311920e-02,1.064614207596391131e-02,-1.721568277741283154e-02,4.799281433224678040e-02
4.066175745261809693e-01,4.116224269061221075e-01,4.817108915629380039e-01,2.276618475923966253e-03,1.664490753111504172e-03,-2.740091955793186838e-03,7.303840667009353638e-02
4.395444141904176760e-01,4.176600113886645982e-01,5.002137382759362927e-01,2.833077981079729427e-02,7.988437481379444260e-03,-1.389903040540378838e-02,9.309296309947967529e-02
3.436504344227081509e-01,4.585950076970279343e-01,5.173886026130523064e-01,2.066234437026288201e-02,1.171323868126212739e-02,-6.705642831068934530e-03,1.589158326387405396e-01
4.051822777662152930e-01,3.461867363842371370e-01,4.757735318632764776e-01,4.451169556893025403e-02,3.117297220652189005e-02,-4.029154276072972191e-02,1.623500138521194458e-01
4.147226848168019675e-01,3.619901074039061362e-01,4.752519549997369364e-01,1.205918213803543367e-02,3.908566312710377161e-03,-2.705119572712452302e-03,1.006997376680374146e-01
4.053977193094920883e-01,3.573203148823415609e-01,4.575463680569779590e-01,1.252934084170358696e-02,7.286603570880311777e-03,-7.710607322226929565e-03,9.136020392179489136e-02
3.492854147775844020e-01,4.163021031632107571e-01,4.940996237860903473e-01,1.758946747941729852e-02,-4.989229225763577510e-03,1.306177025992382237e-02,1.314233541488647461e-01
4.002486451347493923e-01,3.511910361675668613e-01,4.691083179114686197e-01,1.828499025076165546e-02,-9.801189685146512523e-03,3.962219070059849746e-03,1.089252233505249023e-01
3.768790697159231651e-01,4.715087576413127812e-01,5.411347949022312642e-01,4.463623157323517304e-02,-4.543122055800753734e-02,1.304362217427591786e-02,1.818538606166839600e-01
4.616553645555864782e-01,3.411333847418102083e-01,4.847255349285117254e-01,1.689531677510413069e-02,-1.247163462135740877e-02,4.908862366522191885e-03,1.386849433183670044e-01
6.890862139873642489e-01,4.179854185792456489e-01,7.204529186529163853e-01,4.163931663243832654e-02,-3.501622570387705191e-03,-3.718647990979868749e-03,2.970905900001525879e-01
4.158298411369903413e-01,4.577165415924618896e-01,4.081988838884511028e-01,-6.938609433604697382e-03,-3.114795747403520648e-03,-1.802691028437847275e-03,4.812120646238327026e-02
5.399678291961244048e-01,1.824922611347807311e-01,6.149928762012377703e-01,9.167330739037234111e-02,-3.991252800359940123e-02,-1.198804023283501635e-01,4.830549657344818115e-01
4.660950529166600353e-01,4.893083670356591086e-01,4.449942522821956348e-01,-1.719514677967107566e-02,-1.575850096007561096e-02,-1.624454087169751454e-02,6.243065744638442993e-02
4.288709758766316438e-01,4.706431545546373996e-01,4.270445458120245563e-01,-6.346375592073363013e-03,-6.500592912718481872e-03,-8.102049921189308918e-03,4.763482883572578430e-02
-2.639970304476679797e-01,-3.531666026804138325e-01,2.128821425415265423e-01,4.013824442241971102e-01,-3.590312455716969386e-02,-4.460680987562466032e-02,8.780934214591979980e-01
4.401638384164806572e-01,3.770628476792914352e-01,4.520453816300560868e-01,8.064109094759110141e-03,1.834211629227905371e-02,-1.085576650007100998e-02,8.019086718559265137e-02
4.811142290889975914e-01,4.066558880482871174e-01,4.081149870070189811e-01,-8.874269398597544461e-04,2.657006940421693649e-05,-8.777263874743865659e-04,7.377132028341293335e-02
4.866395106687205763e-01,3.225736456429040278e-01,5.319081140595915969e-01,9.539975413896362513e-03,-1.709454773483868543e-03,1.871953415553411111e-03,1.915364116430282593e-01
5.010427067873821638e-01,2.859365494034705191e-01,5.079776628474745870e-01,2.189560978825335485e-02,7.759911072219867598e-05,-3.960822673626405652e-03,2.220266610383987427e-01
5.977559973377147839e-01,5.194260126349529161e-01,5.416727104177312402e-01,9.618226920654605883e-02,6.955505671364661802e-02,-1.068628932802439119e-01,2.853309512138366699e-01
4.641818003115738556e-01,3.894368458695419699e-01,5.178241496769693253e-01,1.043467952485549986e-02,1.948174806591544857e-03,-9.224299186234400120e-04,1.132006645202636719e-01
2.977780551402577913e-01,4.249704417919971111e-01,4.758444616578867414e-01,4.983984973177266187e-02,8.245983014684318130e-03,2.775914608347070187e-03,1.814276576042175293e-01
4.717752253420122721e-01,6.197808434749453310e-01,7.239088982899603009e-01,1.135818289741256648e-01,-2.993466779813163878e-03,3.691752770930374628e-03,2.948391437530517578e-01
4.735366073822996902e-01,6.426852340033465394e-01,6.931473187688058646e-01,9.250238359977182301e-02,3.869630925250683307e-02,-2.101620538430040708e-02,2.667969167232513428e-01
3.267777523319780331e-01,5.205102565919093038e-01,5.924794314415940955e-01,6.924495307171471548e-02,5.819461010334835149e-02,-3.516552431349586737e-03,2.850195467472076416e-01
3.584574337395454169e-01,7.271272333235608842e-01,7.803128995790018507e-01,1.808636714238655296e-01,-1.057317265071605616e-01,1.401677446355684142e-02,5.390881896018981934e-01
1.807496861482476569e-01,4.475256391271693057e-01,7.032899438607447262e-01,1.521228542697501407e-01,1.423299143630665509e-01,6.007057806434084116e-03,5.788974761962890625e-01
4.030709077068314605e-01,2.568728256517945896e-01,5.320036430475389988e-01,1.131350489977304835e-01,-1.179810803472758005e-02,-4.062765713294223813e-02,3.171991109848022461e-01
2.367113980444927879e-01,5.161174505551328062e-01,6.301753240105287812e-01,2.321243078637585944e-01,-9.002414041140822942e-02,-6.101340634064306850e-02,5.657485723495483398e-01
4.329091117186160131e-01,4.275772566854422752e-01,4.267651024777365243e-01,-2.568502676436838252e-03,9.300685216613616092e-04,8.889541564603731542e-04,7.627318147569894791e-03
4.221226461797422669e-01,4.157168022968344978e-01,4.325439080047818186e-01,-2.970529310909278756e-03,5.549107572880185302e-03,2.443551526927823393e-03,1.879247836768627167e-02
4.575367631756219744e-01,3.760825732676374433e-01,3.542015641101154966e-01,-1.687765816003682084e-02,1.095854112896091359e-02,4.192302316941471513e-02,1.240295022726058960e-01
4.169126829631532583e-01,4.177031232945699890e-01,4.436290744701595345e-01,-1.151396486324874095e-03,3.530807035339014657e-03,6.535798131186889258e-03,2.937345020473003387e-02
4.836276703367800023e-01,3.259343154545097931e-01,4.508247033734796849e-01,-1.235883755110965022e-02,2.299742327111183038e-02,2.333925254891089374e-02,1.563631892204284668e-01
4.253052528331471294e-01,4.128133048187282994e-01,4.195486351293284399e-01,-1.341978859067539942e-03,5.250335221832587093e-03,4.217603655846915295e-03,1.608544029295444489e-02
4.245671492778009815e-01,4.227988190138692870e-01,4.310096793497854573e-01,-2.736749962478572662e-03,4.206816218542819633e-03,5.124603961707198396e-03,1.450419612228870392e-02
5.097740382191594533e-01,3.998695539672499910e-01,4.904774375105622752e-01,1.561521667504407393e-02,-1.555735964149511548e-02,2.201373298722380731e-02,1.150738224387168884e-01
4.719924221564623101e-01,3.549363464946917457e-01,4.073635704365046184e-01,2.022498355270192349e-03,-5.243051639155366095e-03,1.587578192360988155e-02,1.056630238890647888e-01
4.623806941914252455e-01,3.907944632259806594e-01,5.156477311979594802e-01,-1.230565225284687737e-02,2.945000731050559633e-03,3.957369594887108835e-03,1.109163686633110046e-01
4.787787259835039055e-01,4.207713969405907362e-01,4.265407020616846512e-01,-3.029587351295383660e-02,2.669917030047618683e-02,5.929399281037214808e-02,1.360252350568771362e-01
5.122624927647272397e-01,2.833215529823370771e-01,4.880943840553940705e-01,-8.188443161115549832e-03,1.217672849780870870e-02,1.719315585882607786e-02,2.213543951511383057e-01
5.120328512932009746e-01,3.824485693669549269e-01,4.478693175542480254e-01,-2.006534516774253086e-03,3.504206703816652255e-03,9.481575417511723877e-03,1.136357262730598450e-01
5.046499707155746028e-01,3.984991194576357199e-01,4.647026120973222763e-01,1.046440457080817857e-02,-8.458154909854636791e-03,1.829891291752458113e-02,1.008515357971191406e-01
4.830834865184966964e-01,3.922178029557854551e-01,4.530392244011227643e-01,4.098333815359081478e-03,-1.488411788620245396e-02,1.084361797084220161e-02,8.658515661954879761e-02
5.250816599367658100e-01,4.101313835952501985e-01,3.745061995428566881e-01,3.186348901320791311e-03,-2.077638233727055819e-02,4.579467544914792021e-02,1.618478745222091675e-01
4.819143128854758706e-01,3.141195816263466223e-01,4.337189901210322662e-01,-9.903819601399712486e-04,-5.676280033309261293e-03,3.006633289526846817e-02,1.587529331445693970e-01
6.292732106174273587e-01,5.917630165612572934e-01,6.590187690293899392e-01,1.275970883589448157e-01,-6.990727410349266424e-02,8.217387041539947479e-02,2.952445447444915771e-01
6.491536943898130740e-01,4.571946338377924635e-01,6.327524409435166808e-01,7.299078512153589493e-02,-4.434295274064722209e-02,9.961799723771738724e-02,2.926123738288879395e-01
5.043179420382708500e-01,3.579605172017292780e-01,4.600068940830102648e-01,3.686110251677179872e-02,-2.440777897273414127e-02,3.556881734001131334e-02,1.629649549722671509e-01
4.321955511350889512e-01,3.967947187013350363e-01,4.327993698464168704e-01,2.012155864645422468e-02,-2.724503809352584599e-02,1.977897609815048446e-02,7.674692571163177490e-02
5.218032915456701781e-01,4.004398924085635914e-01,5.436405197722650184e-01,4.866375943238171464e-02,-1.722229990719559983e-02,3.234443151037596359e-02,1.702614873647689819e-01
4.615172287782630112e-01,4.809405636198306189e-01,4.343865507135157844e-01,1.600697308110542866e-02,-1.685163264837983080e-02,1.747135046799627722e-02,6.462703645229339600e-02
3.525757195278612643e-01,4.026299553498311479e-01,4.978112854696302714e-01,-4.819139534246957846e-02,-1.473887007567315291e-02,-1.524168613054873063e-02,1.569872647523880005e-01
2.532900405746393302e-01,1.150049399943834233e-01,3.438938714579810596e-01,2.133862637945756480e-01,-1.239106563891975710e-01,1.227168126596904357e-01,5.173991322517395020e-01
3.230393759540935994e-01,-6.357534854464413909e-03,6.538073883771032546e-02,1.076623082159618577e-01,-9.488656892680892574e-02,2.908582725680087244e-01,6.368656158447265625e-01
3.139590292855928277e-01,5.068582678292062882e-01,5.026961097199706963e-01,-1.362395676702033570e-02,1.320562499727335332e-02,1.212606819707526783e-02,1.947965323925018311e-01
3.070446232290239275e-01,4.441813849628276634e-01,4.696587888344355699e-01,-3.122499022005215119e-02,3.435607769100256816e-03,9.252552701495232387e-03,1.617612987756729126e-01
3.096678740905335903e-01,4.224066364407481622e-01,4.808083762828871399e-01,-2.656784676572237353e-02,-5.393209714451700429e-03,-8.261014900681993081e-03,1.584754735231399536e-01
4.038793467366026402e-01,5.509154316457490763e-01,5.821645520114322458e-01,-3.030627119830428193e-02,-2.374054901797445754e-03,-3.379032308881724797e-04,1.730997562408447266e-01
1.968143667100086813e-01,4.428392638404260451e-01,4.668927363259793295e-01,-4.331739786478851217e-02,-2.805526671565858939e-03,8.894282394358188348e-03,2.700272202491760254e-01
3.596002628247230160e-01,4.826426418358736314e-01,5.202540346328731191e-01,-2.455770840734179672e-02,9.506318919457261776e-03,4.869165623423391855e-03,1.527524739503860474e-01
3.361366720890855975e-01,4.329711031119561904e-01,4.860261437505085658e-01,-7.810526769894358956e-02,2.965553505910741017e-02,5.028598738848186200e-02,2.141377925872802734e-01
2.137988215173255435e-01,4.336673369362010755e-01,4.330083051980843090e-01,-4.526799734279171594e-02,4.363838780176720195e-02,1.321824082244515454e-02,2.461348474025726318e-01
-8.676606343425680157e-02,3.401188430342734215e-01,3.855719178798664437e-01,-1.744133173755451627e-01,2.408432597379491641e-02,-1.384760421435640362e-02,5.452296733856201172e-01
2.981829798004583809e-01,5.801362312432611912e-01,5.569632919631097856e-01,-2.199450295868982386e-01,5.377129646321282541e-02,1.325603551111350920e-01,5.291683673858642578e-01
3.226666678632428287e-01,6.008467090846144609e-01,5.506574976350029349e-01,-3.197782535719115304e-02,8.649805408002735063e-02,1.093011206250963339e-02,3.030071556568145752e-01
3.006186575386207149e-01,6.405186113815214410e-01,5.835703931181936976e-01,-1.494701941965090042e-01,-9.649934081989114398e-02,-1.132898744459240499e-02,4.413205087184906006e-01
3.078965248285254752e-01,4.574137316046545942e-01,4.774671943313830713e-01,7.417820357901247497e-02,-3.046752043799236948e-02,2.927663892623824649e-02,2.182183861732482910e-01
1.853678927111885588e-01,4.334499494934792585e-01,4.614379141863204081e-01,5.137223889323914300e-02,-1.060231265453785710e-02,-4.250521504243948839e-03,2.785320281982421875e-01
3.269879052434554456e-01,4.511924673483775350e-01,5.219784766006092536e-01,3.188982511223875660e-02,-2.886139317393056521e-03,3.362031863365957853e-03,1.798309236764907837e-01
3.316724424733251131e-01,4.393332442819715689e-01,4.852450138044153150e-01,2.506632368828099269e-02,-1.369372716219016510e-02,9.510138945396659840e-03,1.461522579193115234e-01
3.749514594087322017e-01,4.491299996741633938e-01,4.614966797786744235e-01,3.084846337974576219e-02,-2.631354230078373005e-02,2.069379209385382307e-02,1.130907684564590454e-01
3.660630235342827721e-01,4.421512391371370532e-01,4.818639541137526572e-01,6.442435641049875338e-03,-5.423099700603603579e-03,1.022511819289130541e-02,1.044729128479957581e-01
3.843129330329241311e-01,4.671054514352098730e-01,5.143626127235634282e-01,4.714362042866269975e-02,-2.139976513080248804e-02,8.754956180646871963e-03,1.458483487367630005e-01
3.420151352418726587e-01,4.794695030065929120e-01,4.043108961930909073e-01,-4.527482191089136909e-03,-2.122633813908423803e-02,-1.674399019530220870e-02,1.283194869756698608e-01
3.771530574330199670e-01,4.981981104555470719e-01,4.540738816132978695e-01,6.922058585736042165e-03,-9.844065121104157018e-03,1.514453976698614500e-02,1.112670898437500000e-01
4.082128936540753705e-01,4.713034511245962621e-01,3.978355688594915618e-01,-5.234437454513640037e-03,-6.210151865786986067e-03,-4.964921507361024465e-03,7.081430405378341675e-02
3.841420701808298532e-01,3.449978846908140495e-01,4.545359055136424242e-01,-1.950630259568498712e-02,5.963382468305806171e-03,4.802888163514100646e-03,1.027640253305435181e-01
3.735352998671052083e-01,4.527674198511295600e-01,3.217191033180755166e-01,1.117804266603504484e-03,-2.215504207699102793e-02,1.099671334452431010e-03,1.206153705716133118e-01
4.073502485574115317e-01,5.397683238210924106e-01,5.091750998495787606e-01,1.422834379560105299e-02,-4.053480505034504772e-02,3.247830597060764922e-04,1.412666290998458862e-01
3.832138417284161047e-01,4.708148429813208691e-01,3.906366822288914742e-01,1.332644007885843036e-03,-1.245469670995442285e-02,2.463287193048058644e-03,8.699238300323486328e-02
3.974745876411986401e-01,4.780980486972680743e-01,4.124524960342967894e-01,4.262765900568499071e-03,-8.989853621314965529e-03,9.768437991994734226e-03,7.810340821743011475e-02
3.560865751002608715e-01,4.358082128245501785e-01,3.099580356436054118e-01,6.755322597356670442e-03,-2.195474890888331199e-02,2.054935729321589154e-03,1.172877997159957886e-01
4.348146560741615319e-01,3.107152593690779008e-01,4.776972002965860775e-01,3.003079244280436322e-02,2.512883023222878959e-03,3.670358289381772752e-03,1.591419875621795654e-01
4.529232188159135197e-01,3.792246265989877019e-01,5.115467284544583659e-01,1.423359667609912574e-02,-4.167342180606979554e-04,3.581461353831381055e-03,1.176242157816886902e-01
4.743050739627652224e-01,4.163633001512281329e-01,6.598417859596529267e-01,1.632602044769355942e-01,-8.951310083645001164e-03,-2.024868301853759503e-02,3.605045676231384277e-01
4.937372775005429704e-01,4.048215729376006822e-01,5.529937444876662500e-01,1.168624714494421596e-01,-2.426813163343306129e-02,5.622461962778232958e-02,2.625016570091247559e-01
1.052134563288376207e-01,1.889419155536002093e-01,3.528494009683583732e-01,1.521556013297807597e-01,2.929808167407139258e-02,-1.173342155020303673e-02,3.464707434177398682e-01
4.195239054418309355e-01,3.591985625611811006e-01,4.791032256239755038e-01,1.201280620797943663e-02,-5.172808817912748257e-04,1.523685709673248002e-03,1.059418469667434692e-01
4.278089146018144162e-01,3.728854869806420558e-01,4.999248620822487332e-01,1.159311933762490962e-02,3.402321984222824586e-03,6.997188764919955173e-04,1.123278439044952393e-01
3.475778902537106640e-01,4.041686246595149745e-01,4.816185387084216396e-01,1.634140770107848223e-02,6.640861434589968686e-03,-1.385845408153796483e-03,1.205119788646697998e-01
5.204380893457853929e-01,4.410427923217317137e-01,5.074995012561418495e-01,4.001320678193168168e-02,3.722343680200933258e-02,-4.656726578305915576e-02,1.446001827716827393e-01
5.025104962345540160e-01,4.000657073886710324e-01,5.556504222554187189e-01,5.148672103084138418e-02,1.152464291429833483e-02,-1.322350542703031907e-02,1.662479341030120850e-01
4.795538109794743042e-01,2.182789885127086882e-01,4.099832549485143418e-01,-8.341896406934239117e-02,-3.705174039628370691e-02,-9.000216058671503538e-02,3.228364884853363037e-01
4.315602252346421586e-01,3.471605029071852533e-01,4.829886773760619367e-01,-5.082677495823276215e-02,-1.350333694074248164e-02,-9.727504775202464385e-03,1.506310850381851196e-01
4.916507737805906886e-01,5.144595720263449579e-01,6.167987334881959161e-01,-1.324391206808278598e-01,-7.451623646807209456e-02,-6.863344642696893316e-02,3.110270202159881592e-01
4.389710318894264884e-01,3.312653631899143414e-01,4.638912254154559656e-01,-4.765618668545289899e-02,-1.272287510550318586e-02,-1.888863478398160670e-02,1.525610238313674927e-01
4.393042364964516722e-01,2.813959658487185100e-01,4.979374973224327539e-01,-1.371716683659376101e-01,-1.071938934291847070e-02,3.462351785500673851e-02,3.130827844142913818e-01
4.493816881817192521e-01,3.361029605981113444e-01,4.839537958164188969e-01,-2.283461118310526131e-02,-1.651258698246749201e-02,-1.460424004299309790e-02,1.447953432798385620e-01
1.804296400017328661e-01,2.974045541882353594e-01,5.780851022363060476e-01,-2.120089831764510879e-01,-5.657932462768407861e-02,-1.436384186250917183e-01,5.758822560310363770e-01
4.623545632125413141e-01,3.313639807876109789e-01,4.436039709233688400e-01,-1.279950978060355807e-02,-2.323481927036171596e-02,-3.260821653818707366e-02,1.426706165075302124e-01
5.691256913765373460e-01,5.118679170099850184e-01,4.153622345862911791e-01,-1.600951924629073417e-02,-2.350491937931614359e-02,-4.691792771367560289e-02,1.647657006978988647e-01
4.352553903115760070e-01,5.252928648376364862e-01,3.789226673993419392e-01,-2.133067696390743284e-02,-1.508427927651609934e-01,-3.682213561500578825e-02,3.000757098197937012e-01
5.042624092572601802e-01,5.781577795167947009e-01,4.339035826169229115e-01,2.694082697339230878e-02,-8.341048846275359030e-02,3.542993758165199208e-02,2.059739679098129272e-01
3.634156200324923369e-01,4.701104624944655863e-01,-3.461255398603091393e-03,-1.233947958960946757e-02,-1.692874812868497281e-01,2.066974512423158661e-02,5.223404765129089355e-01
6.382685704813234606e-01,5.664582996837437268e-01,4.591165650694162270e-01,-5.156884508053042465e-02,-6.815693070553947852e-02,-9.177513360030976897e-02,2.675245106220245361e-01
4.067414740251195648e-01,4.271030355034362014e-01,1.595777870760457795e-01,-1.211283546018309711e-02,-5.770505395025580381e-02,-1.463019626120914615e-02,2.785839736461639404e-01
4.218312766675937908e-01,3.002891857625118455e-01,4.689796403008622550e-01,-2.721078464129069938e-02,-5.603139966107234179e-03,-1.391611601682476908e-03,1.582631766796112061e-01
4.751741729315971385e-01,4.456919451134088717e-01,2.289697138441718349e-01,-1.239668787389860321e-03,-1.246430568832144342e-03,-3.024750697933517585e-02,2.387073189020156860e-01
6.095975917569639302e-01,3.328411976318697008e-01,5.969042503254905485e-01,-1.000425093529495740e-01,2.778708883466501911e-02,1.060226446027912051e-01,3.732379078865051270e-01
5.142248351324234523e-01,3.070347126839694796e-01,4.999046361366675240e-01,-1.044061030602576150e-02,4.711370204787192727e-03,1.421255080438095508e-02,2.028926163911819458e-01
2.752248987506631384e-01,1.054549429714548292e-01,4.537452845125788392e-01,-2.314950644454073225e-01,5.255692849006969591e-02,8.057446256859225608e-02,5.287079215049743652e-01
5.642007254362177981e-01,3.238548284006248501e-01,5.719847452393876930e-01,4.726836345629586468e-03,2.542210358630554116e-03,6.677725188495998998e-03,2.447811067104339600e-01
4.048366793213319936e-01,3.057640371767461618e-02,3.964622220059649815e-01,2.276982979832764716e-03,-4.420932440408131651e-03,4.712367203036411760e-03,3.703342676162719727e-01
4.284081344957313964e-01,1.422118095467771182e-01,4.772379388580787474e-01,-1.462115478011595804e-01,2.353562437319044534e-02,-1.387289833012475028e-02,4.057587981224060059e-01
5.470637049932665086e-01,3.257518735465481097e-01,5.629314121629920287e-01,-2.239344550608068137e-04,1.140424728031357894e-02,2.165210885618866488e-02,2.335362583398818970e-01
5.504667456264394909e-01,3.143484983110973463e-01,5.338772157982738520e-01,1.007823572911911020e-02,1.529901339949082950e-02,1.161956183472155277e-02,2.313479632139205933e-01
4.942554578852502711e-01,3.888382811289584629e-01,5.577999792103047749e-01,5.647563754386745322e-02,6.038509289660960212e-03,-2.181309253168071342e-03,1.775993555784225464e-01
5.758319935105997711e-01,1.153527784490986363e-01,5.457788447649460917e-01,2.371138920316261459e-02,-1.151517576261738493e-02,1.213002033595078112e-02,4.490337967872619629e-01
5.267423836315970886e-01,4.406705899632512025e-01,5.982459179885959433e-01,-5.167329769662687422e-02,1.822157644750783826e-03,1.308911631936738457e-03,1.634045243263244629e-01
5.900758458353807523e-01,5.121244051993870672e-01,2.382990456416204106e-01,-7.148945081024129546e-03,4.343271160796649544e-03,-3.295762595113083115e-02,3.253772556781768799e-01
4.243886122484181178e-01,4.032138265894436024e-01,4.906067839752258353e-01,-2.457141819036679289e-02,4.088116320468277928e-03,1.050288293458045627e-02,9.180254489183425903e-02
4.895962398067117971e-01,5.121868270689023950e-01,3.387726736457586929e-01,-4.764225896537516614e-04,-5.445486826874451104e-03,8.449754198677947650e-03,1.642227470874786377e-01
5.033091965653136990e-01,5.081254961763246314e-01,2.651621704060235785e-01,5.271288666281279556e-04,3.050630845486838123e-04,-1.241445031234543256e-03,2.406032532453536987e-01
5.303889867284450332e-01,2.884865740218502950e-01,5.180276469906704984e-01,-4.925758859469042510e-03,4.404132357631415640e-03,-3.700124402871748930e-03,2.363289892673492432e-01
5.215296396816787583e-01,3.172435237975620437e-01,5.388878400998592388e-01,1.922423757875386940e-02,-1.370718869329633390e-03,3.067061091862586814e-03,2.161544263362884521e-01
4.305034664393320165e-01,2.111265390967835831e-01,4.647870417522124153e-01,4.162744907056549482e-02,-1.074658567638697888e-02,1.902954444607905110e-02,2.519007623195648193e-01
4.588212352563654783e-01,3.928066539047860850e-01,5.164108906295550305e-01,-9.477611395651168447e-03,-8.279372061603649385e-03,-4.421785101256767853e-03,1.095902621746063232e-01
5.696347483822117308e-01,3.328068030670904287e-01,5.797986218432922279e-01,3.396483537707649727e-03,8.931279583211658738e-04,-2.753283942579147579e-03,2.421933412551879883e-01
4.994748780449764780e-01,2.119117881424295580e-01,5.082627486279783779e-01,2.103419238489468920e-02,2.546338001890880234e-03,5.891912410960617984e-03,2.945296764373779297e-01
3.564681190879859796e-01,1.924227605986573442e-01,4.262861654146495871e-01,9.826174335723852904e-02,-3.528986246896904239e-02,4.052663566392021577e-02,2.843734025955200195e-01
4.526020793343447091e-01,3.360006937859236764e-01,5.283404707668517553e-01,2.298954005228721897e-02,1.022832218652378750e-03,-4.119926054412102745e-03,1.726354658603668213e-01
6.590943257276407063e-01,3.974740468091422785e-01,6.962634244315317744e-01,7.459786031856088795e-02,-8.838889963172452333e-03,1.943938812802681326e-02,3.124315440654754639e-01
5.464797871510311822e-01,8.119946970662261787e-03,5.008327568937540608e-01,-6.369195721550426070e-02,1.242987138401019376e-02,-3.491683904917353837e-02,5.325706601142883301e-01
4.246509924569760730e-01,4.403511441915410884e-01,4.209405998614480504e-01,-3.071729277299933489e-03,-9.048282779121876113e-04,-1.211894245862213003e-03,1.880649477243423462e-02
4.253145043546090465e-01,4.599240759358321773e-01,4.268764039984971892e-01,-6.568419415872051026e-03,-4.973814694115267013e-03,-9.386547414004011922e-03,4.017680883407592773e-02
4.251741804585272289e-01,4.282842758570313269e-01,4.259058503332092682e-01,-5.811681690792962077e-04,-1.189181355810348725e-03,-2.529218477326961988e-03,5.690257996320724487e-03
4.377208860728956097e-01,4.446456374202960582e-01,4.325701186561701217e-01,-1.062540616824395002e-03,-1.848808534467260341e-03,-2.203510332578847378e-03,1.176256779581308365e-02
7.087699488867421627e-01,5.167908195954852291e-01,5.941402163603207720e-01,3.783396900411917924e-02,2.436699370601749098e-02,-1.134443576382483526e-01,2.695807814598083496e-01
3.058430257264648233e-01,-5.480563034862587224e-02,1.917384158291479679e-02,9.387870652762878021e-03,4.129205655613342463e-02,-2.790796864801124433e-01,5.898268818855285645e-01
7.342078494551873558e-01,5.541408841074139113e-01,6.153096215379775247e-01,-9.116090353289349468e-03,1.035911308548371698e-02,-1.183872423722974881e-01,2.603250145912170410e-01
4.146938595467377642e-01,2.552373963742236018e-01,6.584085285092444728e-02,-1.673100530867564079e-02,-3.312219254432172827e-02,-2.178295551462018087e-01,4.878299832344055176e-01
5.048272930802508718e-01,4.583230658132913526e-01,3.180668176562145844e-01,-1.299612520183657770e-02,2.399567681050435164e-02,-1.291074165830406739e-01,2.838964760303497314e-01
1.006873187115125412e-01,6.815167367142277444e-01,5.265262076741256125e-01,6.903425294209455942e-02,1.319349199204914933e-02,-4.826133055990060317e-02,5.414505004882812500e-01
6.038395401056071421e-01,7.041511940802291925e-01,4.629265365389635400e-01,-7.503337745443262354e-03,1.629572292498459862e-01,4.571289610016795318e-02,3.607730567455291748e-01
3.126498231810949102e-01,6.413602837687474301e-01,6.425867112000298587e-01,1.424647134019938963e-02,2.552598541921947614e-02,5.445516846804094799e-03,3.333283364772796631e-01
2.696844893676239030e-01,4.855342980529893659e-01,4.032417109289873069e-01,-1.745707317781253556e-02,-8.304633489456517137e-02,-1.514227277846764280e-02,2.406087368726730347e-01
7.179046160718984826e-01,7.275525078131344081e-01,5.282507725153269273e-01,-1.619038362723211957e-02,1.443576908204327880e-01,5.717480062633231719e-02,3.331697881221771240e-01
2.461557600757964814e-01,5.605678481697178306e-01,5.251045454469486229e-01,2.729055683871724550e-02,6.073609694622881389e-02,2.780013724064160294e-02,3.233914077281951904e-01
1.663306923127982617e-01,6.081573722058781772e-01,3.882464950374979740e-01,4.483234143552451006e-02,-1.507941281116217669e-01,-1.509121925380483653e-04,4.697399437427520752e-01
3.526713126822840216e-01,5.619402757110514290e-01,5.669189450157461341e-01,-1.105946839374501341e-02,2.365799701489293329e-03,-8.072491657007003704e-03,2.131651639938354492e-01
5.245259647073214904e-01,1.634803782002167138e-01,6.704040498792575020e-01,-8.086257826051224118e-02,-7.719769089571756893e-02,-7.132389094810284713e-02,5.070098638534545898e-01
4.267182311098172143e-01,-2.465627330835939990e-02,4.680913483805119735e-01,-1.043665913224703645e-01,-4.862901102553953553e-02,-3.196601688970118760e-02,5.166840553283691406e-01
4.262674508467567680e-01,3.364591553875922458e-01,4.734206333942006517e-01,-5.014033512247785540e-02,-2.062585553046294290e-02,-2.956064786270044126e-02,1.611323505640029907e-01
3.050335970849394340e-01,8.205089796404463343e-02,4.220618520198620160e-01,-1.809278628096224473e-01,-5.663493256414394578e-02,-7.326856935154243966e-02,4.620002508163452148e-01
4.684331415876874516e-01,4.994714454995871078e-01,3.479899642360289036e-01,-1.432404906847148385e-02,1.999260428340449841e-02,9.695294113607437828e-03,1.459620893001556396e-01
4.441995484723363363e-01,3.358602221060040249e-01,4.996556008705707042e-01,-2.441562351653332394e-02,-1.900446014634791375e-02,-8.638399957585527963e-03,1.546499133110046387e-01
5.256217741998516768e-01,3.272663371923975051e-01,4.922792405499297197e-01,9.747446789615472939e-04,-6.912818283999021610e-03,-9.452305891358349366e-03,1.850869506597518921e-01
4.895233168840614213e-01,3.550929890840507919e-01,5.221355623439134508e-01,-9.127776295808879767e-03,-1.214361719916984099e-02,-9.449174523893242444e-03,1.564588099718093872e-01
5.011174939793748839e-01,3.084863044709147961e-01,5.057206925725994395e-01,-1.408331991662841419e-02,-1.280144542768571481e-02,-6.596243756783875048e-03,1.980703622102737427e-01
2.806824111020954637e-01,3.109572481363020446e-01,3.405290672874762281e-01,8.440807329297882189e-02,7.240094010900456623e-02,-6.790673730452190249e-02,2.315603047609329224e-01
4.105110824384889945e-01,4.320650417112857911e-01,4.691404787379370722e-01,1.481235523055301866e-02,1.542642547123631094e-02,-9.217513266963715118e-03,6.530936062335968018e-02
3.021583266645465060e-01,2.647792629914154094e-01,2.209548743715149532e-01,7.366645561407297871e-02,9.177399384258923265e-02,-9.188043828611811015e-02,2.680103778839111328e-01
3.922763038568002347e-01,4.046473896996179986e-01,4.080419258868046573e-01,1.709185681946583379e-01,8.361052964238421814e-02,-2.204154967938748988e-01,5.045465230941772461e-01
2.718722835934883619e-01,3.121822640949660221e-01,4.186282652044576724e-01,1.705207284098873566e-01,1.061717689973123574e-01,-9.273689107688318223e-02,4.050878584384918213e-01
3.548639550758505568e-01,5.666353015749849842e-01,4.797487121738802096e-01,1.690070837386024039e-01,1.348397760937398993e-01,-1.422593897648345984e-01,4.847112298011779785e-01
4.111485929342508228e-01,5.346016667230286679e-01,2.579045763729291840e-01,3.741191917879468920e-02,1.731752997401405925e-01,-8.820342906770510527e-02,4.185097217559814453e-01
4.728223747235676955e-01,5.221800656460769963e-01,3.340445907625089195e-01,-1.996825253261859390e-02,3.073179187371284996e-02,5.612593175781581400e-02,2.050002217292785645e-01
2.490986567459513301e-01,1.743886532544166590e-01,-1.504317286050927405e-01,-9.836755893783052929e-02,1.448663600587444811e-01,2.297542051029707599e-01,6.210519075393676758e-01
4.902481315186509869e-01,4.960719593445415132e-01,3.424233710228777872e-01,-1.297807368378984909e-02,5.237918448233056662e-02,3.175761104454057071e-02,1.857650429010391235e-01
4.064997214058357899e-01,4.601251066249042454e-01,2.940474689594630986e-01,-3.599012290562418614e-02,1.245099854155450464e-01,9.823391886693261243e-02,3.176401555538177490e-01
3.433267862081001986e-01,4.557748720056171710e-01,5.101706408917920932e-01,2.720256789548565479e-02,1.547061527049804763e-02,-1.009678047983369846e-02,1.579998880624771118e-01
3.133262726213693616e-01,4.927317526304432205e-01,5.132512626834395686e-01,5.322822996525720940e-02,1.010809883485386251e-02,-8.660793157103554088e-03,2.128848731517791748e-01
2.844143830064496115e-01,5.065574622194469745e-01,5.289347696733945892e-01,5.045334431536486336e-02,-1.515236723170565285e-02,-1.204740972859887245e-02,2.521508932113647461e-01
5.408573622164920547e-01,4.937977674107739134e-01,2.399427249358513092e-01,4.443229079236966222e-02,-7.914199047202258308e-02,4.169742998263577249e-02,3.294425308704376221e-01
6.289871769943174984e-01,6.630686929904469062e-01,3.604746710283519562e-01,1.714791966035208656e-02,-7.417044031042681340e-02,2.575560634006289137e-02,3.190419971942901611e-01
3.980328275602098564e-01,4.638122288041159891e-01,3.433937004343414756e-01,4.820587167498525017e-04,-1.744805679171934631e-02,-1.985711032586808499e-03,1.087764799594879150e-01
5.183075848237133076e-01,6.455460286417814553e-01,5.257460862165216353e-01,3.415150547825947236e-02,-1.195711952488856394e-01,5.374361316111300746e-02,2.652440369129180908e-01
4.696201296533292213e-01,4.584911371217614273e-01,3.700753778646239112e-01,2.039563607017406272e-02,-1.721604894890279777e-02,1.136649060008930977e-02,1.070041730999946594e-01
4.479706588069573003e-01,6.506252106594614393e-01,3.581025399027218947e-01,-4.980719601540129632e-02,-1.990476251198981250e-01,2.183122645549663218e-02,4.416891336441040039e-01
4.876867797904833046e-01,6.647280430400012152e-01,2.477047737965107077e-01,5.881920213385372770e-02,-1.787656552057073356e-01,-4.880016236471985958e-02,4.947894811630249023e-01
1.518013655969810971e-01,4.293358514338102561e-01,1.753378096676801445e-01,5.555412107986878317e-02,-2.186795881354638149e-01,6.055631282041616659e-02,4.845301210880279541e-01
4.152065577307538780e-01,4.095322867232187858e-01,6.896394620270479558e-02,8.821535250917261761e-02,-1.650624385349114542e-01,8.576841881462582418e-02,4.950785934925079346e-01
4.262851351307623826e-01,4.242397700769332536e-01,3.921473724725078602e-01,-2.110172278438844293e-02,-1.759872271767637386e-02,-1.700270286813606105e-02,6.505393981933593750e-02
4.167783195275353014e-01,4.110509892927467490e-01,4.449759391681263887e-01,-1.258138512764098681e-02,-1.381979704331382473e-02,-1.049541281368604473e-02,4.865902289748191833e-02
4.188421926009254226e-01,4.156073823977086690e-01,4.300485823596370549e-01,-2.826922537289248191e-03,-4.583594674632846845e-03,-2.604960006173513438e-03,1.672296784818172455e-02
4.211001641227757886e-01,4.482143054136064064e-01,4.658810142893468065e-01,-1.562497045567964177e-02,-1.154749370647252874e-02,-1.885436785910602972e-02,6.103459000587463379e-02
4.264253332497521254e-01,4.299074171743085815e-01,4.323369645377524995e-01,-1.192690612927422081e-03,-1.414254959865701884e-03,-2.296874397626464705e-03,7.251363713294267654e-03
4.152004609421597880e-01,4.143421323954064595e-01,4.214150229452446328e-01,-3.501567063112570859e-03,-4.929237648506113768e-03,-3.126402554536924106e-03,1.355322450399398804e-02
4.197572293231142115e-01,4.302977956862875653e-01,4.453821053380813133e-01,-3.326484093296414209e-03,-4.223627211855063637e-03,-8.041370261342701761e-03,2.789877355098724365e-02
3.459550741954657282e-01,4.210699862039920527e-01,4.223836601063544749e-01,-9.480026180381876874e-03,-1.403712062775910006e-02,-2.228758280875150349e-02,8.996441960334777832e-02
3.650345244498415243e-01,5.228029002859936325e-01,5.187173879858976155e-01,-2.308015357513419630e-02,-1.833850117263337298e-02,2.393692374997446939e-03,1.639730483293533325e-01
4.665392380016396556e-01,4.452947045548966143e-01,5.171881367605543067e-01,-2.404820647959331550e-02,-1.347543804454885349e-02,-1.240980692584531773e-02,8.267027139663696289e-02
-1.221217196049394493e-01,-2.109635232361636858e-01,2.514317890556709290e-01,-3.317783937459324872e-01,2.177752620026553176e-02,3.828991185616861196e-03,7.157651185989379883e-01
2.036034304644283310e-01,4.573474283497336867e-01,5.794196314444242102e-01,-2.682757533625584889e-01,-2.410282427857186188e-02,8.918199637165080684e-02,5.931116938591003418e-01
4.633643652190387319e-01,4.073192562180006360e-01,4.337650378750901869e-01,1.541421652180087996e-02,-1.858621070266014072e-02,2.297059796332191414e-02,7.543446123600006104e-02
4.738594554184272778e-01,4.383830172937404623e-01,4.416321371038276489e-01,1.108861906852914338e-02,-1.029039768245542177e-02,1.008411707763513104e-02,4.631937667727470398e-02
4.454871135490654499e-01,3.939074724067503919e-01,4.128490843420544731e-01,5.912193848735336835e-03,-1.066570828427927838e-02,8.872755397669747357e-03,5.219725891947746277e-02
4.219369746571428603e-01,4.011559900410549551e-01,4.011468152507505769e-01,9.457343238781066100e-03,-3.728271654723402245e-03,7.643190457348405034e-03,3.028727695345878601e-02
4.425967180637676024e-01,4.286896416492589346e-01,3.902124694166384522e-01,1.446406963225288847e-02,-4.396463843763514547e-03,5.000113741533456641e-03,5.449424311518669128e-02
4.316327901443174908e-01,4.273364799042603801e-01,3.949303372009941859e-01,1.457275008309675754e-02,-6.805635027860647800e-03,7.069740992078465090e-03,4.619342088699340820e-02
4.695441345962315660e-01,4.176203452359978918e-01,4.142982023432090211e-01,8.385504890344435552e-03,-8.426894520111256892e-03,1.445388214835691132e-02,6.269247829914093018e-02
4.654202364380336521e-01,3.989148249219073850e-01,3.470110460440614109e-01,2.291141910141815397e-02,-9.199899376485558972e-03,1.975341012298298740e-02,1.164824441075325012e-01
4.335614642378284311e-01,4.013934201570413807e-01,4.438645487894040120e-01,6.790205906198549905e-03,1.405191452739501870e-02,-7.190488625565569919e-03,4.856094717979431152e-02
4.136966235130310476e-01,4.505530578723652702e-01,4.133376221283880936e-01,1.521001158555284694e-03,6.537818758318672974e-04,-2.075858247155201557e-03,3.732167556881904602e-02
4.112296518224246578e-01,3.650159471321123283e-01,4.684163762544146792e-01,1.488405651539013129e-02,9.263606213801659287e-03,-4.957295168651079664e-03,9.510315954685211182e-02
5.097299120480182077e-01,3.363976368297091901e-01,4.573094887251187846e-01,1.837356012907889052e-02,6.180718193994638038e-03,-4.657275654245449092e-02,1.770318001508712769e-01
3.101682441500345222e-01,4.665850653517509272e-01,5.206303763251757255e-01,7.709424581727264414e-02,-4.131483975697480132e-02,3.419055918017513407e-02,2.495976984500885010e-01
4.120330042948124882e-01,4.051173170375629295e-01,4.472024254014448919e-01,9.095128117717569266e-03,1.014164076015442242e-02,-5.212572912219701204e-03,4.654214158654212952e-02
4.174735805723616133e-01,4.379019657544180877e-01,4.697680330230664114e-01,9.728528449704594919e-03,1.256314010865416074e-02,-1.247102321268504441e-02,5.751301720738410950e-02
3.932647238465005746e-01,4.041247616554975997e-01,4.686607734794578928e-01,8.622477707860953799e-03,2.462579176032222983e-03,-7.095698185365101850e-03,7.332108914852142334e-02
4.113365801244655007e-01,3.720357737770805806e-01,4.592534765701472010e-01,1.674675533166188057e-02,1.086789022473911431e-02,-4.722044944179971081e-03,8.358434587717056274e-02
5.232765477791514463e-01,5.005400885252445642e-01,3.029098120274272832e-01,2.342844030951124219e-03,-1.380599761437741393e-02,-5.275209991971409329e-02,2.302275449037551880e-01
4.966576140971315501e-01,5.112785050400309173e-01,2.287728191222149765e-01,4.693829866681814914e-03,1.403135837607991099e-02,-7.664414203806636794e-02,3.068753182888031006e-01
4.899274730053370108e-01,4.792916657686943083e-01,2.667509483592730990e-01,6.056170019795465223e-03,-4.389125426213156579e-03,-3.510942058997736093e-02,2.267444729804992676e-01
5.254640647244319673e-01,4.831424249030317752e-01,3.432295292738436476e-01,3.866198805995422257e-03,-4.228542152672509248e-03,-1.312849378781717237e-02,1.670438200235366821e-01
5.376838368546388303e-01,5.105279896850934973e-01,3.116606748779670588e-01,1.189629603451846859e-02,1.169347299869645182e-02,-2.400698223382060834e-02,2.196584641933441162e-01
4.757146201160016297e-01,5.003006514178665043e-01,2.871799231560672738e-01,-2.785814699084530194e-02,2.830275908548720784e-02,8.300004309570074151e-03,2.138297557830810547e-01
4.494773921986409126e-01,4.892272558914012026e-01,3.572106434885543580e-01,-1.842650297065275000e-02,6.256186544322436816e-02,2.472692476879786300e-02,1.683912873268127441e-01
6.924856903986115197e-01,6.940074908521606245e-01,4.475822696233168196e-01,-2.325216395729582178e-02,5.065604453244165056e-02,6.121962876404677539e-02,2.844579517841339111e-01
4.628612549873344362e-01,4.975236377645952945e-01,3.356645087309476638e-01,-9.656776255929434491e-03,2.152609833610178922e-02,2.488945691481587921e-03,1.532249897718429565e-01
