sxx,syy,szz,sxy,sxz,syz,smises
6.762023739823892071e-03,6.762023739823892071e-03,2.648595252035239322e-02,-2.046469983692013369e-52,-1.026380828998901491e-52,-1.026380828998800044e-52,1.972392946481704712e-02
