sxx,syy,szz,sxy,sxz,syz,smises
5.333333333332745951e-04,5.333333333332745951e-04,-1.066666666666549190e-03,1.599999999999998342e-03,-7.999999999999996003e-02,-7.999999999999996003e-02,1.959853023290634155e-01
