sxx,syy,szz,sxy,sxz,syz,smises
-3.835348129956035745e-02,-3.835348129956035745e-02,-3.432930374008796859e-01,1.206560598458600762e-52,5.610506782832812805e-53,5.610506782832812805e-53,3.049395680427551270e-01
