sxx,syy,szz,sxy,sxz,syz,smises
5.179651591919796072e-01,4.228510827711031705e-01,4.131364106132905389e-01,-2.673490347320414337e-03,-4.663343324200019502e-04,-7.286032994595215140e-02,1.612855941057205200e-01
5.342515935885062683e-01,3.987610489562137817e-01,4.504144468166356718e-01,-8.893065616612993649e-03,-1.148627922442738147e-02,-6.837530018519388797e-02,1.693688929080963135e-01
5.699130342071900834e-01,3.717146645419963646e-01,3.985326584239667347e-01,-3.877643674393757567e-02,-1.433477746227907086e-02,-1.066965576932345089e-01,2.719674110412597656e-01
5.557875320077526604e-01,3.912869907114975287e-01,4.324934204845448660e-01,5.027356606413815182e-03,2.245830468425776688e-02,-9.043002865801967605e-02,2.193208485841751099e-01
5.434783197028618673e-01,4.310766923043844456e-01,4.204237593078383184e-01,1.470151208827653877e-02,9.526630584753668571e-03,-6.842433240722425869e-02,1.700334101915359497e-01
4.371745147125080666e-01,4.448250107671675724e-01,5.127101426968403430e-01,-3.752720627155235050e-02,-1.632893729465603738e-02,-2.103844613233578353e-02,1.074192747473716736e-01
4.227816113911723739e-01,3.639116605311343289e-01,5.301929377886194228e-01,-8.041646525973469850e-02,-2.600983831423739345e-02,-3.566616921757033432e-02,2.158062756061553955e-01
4.239644866124373523e-01,4.144750878260106686e-01,5.062509666722051493e-01,-8.607139674523038575e-02,-2.845841036847264124e-02,-5.749698686257937591e-02,2.054608762264251709e-01
4.361962369849765597e-01,4.313665689279163606e-01,5.018024867697044034e-01,-3.541748303678732279e-02,-1.765739374928207081e-02,-8.663578209351274068e-03,9.781656414270401001e-02
4.412113358716496236e-01,4.124198234575789934e-01,5.043517527759635577e-01,-4.969255082776726645e-02,-2.599933359440757125e-02,-1.487625468131376950e-02,1.293577402830123901e-01
3.908769877074850241e-01,4.290579859852083344e-01,5.063521022837081942e-01,-6.600042775472228507e-02,-3.504843381579968165e-02,-2.864484028822686032e-02,1.720414608716964722e-01
4.204210124795306203e-01,4.468234173822336897e-01,5.201583883336052816e-01,-8.237821100296076338e-02,-6.660598089260175159e-02,-4.040808452715116683e-02,2.158178538084030151e-01
4.268761126747699919e-01,4.442612872005018976e-01,5.346551077502081917e-01,-8.592109757022914351e-02,-2.824068433795641833e-02,-2.676140942291562255e-02,1.916591525077819824e-01
4.256591794376060056e-01,4.380792272381090480e-01,5.178269494727119060e-01,-5.184698996634107271e-02,-6.631625857665978535e-03,-9.277575569500789987e-03,1.263286024332046509e-01
4.435206465963337785e-01,4.313567639679334875e-01,5.035867779718162796e-01,-3.496327090500877394e-02,-1.438112241635321371e-02,-8.561342778254363295e-03,9.483759105205535889e-02
4.213642377219155022e-01,4.689282819017427939e-01,4.882274115575476747e-01,3.120078846973644085e-02,-2.333016321803269011e-02,1.758409111919064655e-02,9.504576772451400757e-02
4.594367937173589045e-01,4.672518853069514977e-01,4.901902666162456512e-01,2.480055196628041039e-02,-5.105492068833772552e-03,2.076512656545911537e-02,6.311483681201934814e-02
4.657769620856722081e-01,4.409750772066555191e-01,5.053766920789910522e-01,3.289384546653895125e-02,-1.287215188447798052e-02,2.138559795002571012e-02,9.099749475717544556e-02
4.483843254285417856e-01,4.547138339397159279e-01,4.858153658091745597e-01,1.942086684429727636e-02,-1.324340159634275829e-02,1.029971015438857322e-02,5.639282613992691040e-02
4.706167835274667754e-01,4.508267800499037858e-01,5.022157365662112127e-01,2.164438634795284172e-02,-6.521784835423073690e-03,2.098068269593254473e-02,6.977885216474533081e-02
4.699059802395128549e-01,4.488706688410017409e-01,4.868255062841923553e-01,2.129596921459729272e-02,-7.052702343882333302e-03,1.392261960953603689e-02,5.635562911629676819e-02
4.610607119847307533e-01,4.420593001222826168e-01,4.877963631887418106e-01,3.327059156051798833e-02,-2.025158986070201353e-02,2.545707484370202112e-02,8.988453447818756104e-02
4.609319514961082720e-01,4.398957788768901866e-01,4.818858963940491069e-01,3.280849684205126848e-02,-2.245905300885761222e-02,2.150613240179164234e-02,8.632693439722061157e-02
5.178515942203517630e-01,4.285159341703989599e-01,4.658540530655857492e-01,8.748805933081832409e-03,1.492237534407072838e-02,2.200055467309088367e-02,9.159202873706817627e-02
5.045275560321433872e-01,4.560713961332285571e-01,4.585032155573690038e-01,9.044065754405939198e-03,-1.428604617036915254e-03,2.940223091175463155e-02,7.128154486417770386e-02
5.146699507260565909e-01,4.563655656363502788e-01,4.557982774876266907e-01,2.320862691846611869e-02,-1.805924401165575136e-02,5.171658930495340312e-02,1.185366809368133545e-01
5.397877073374237611e-01,4.483274888260955215e-01,4.690836776832593147e-01,2.297456124453233287e-02,1.800255334976519003e-02,6.828621722619679368e-02,1.531085073947906494e-01
5.134826857247484222e-01,3.972428551081675363e-01,4.672291466867214416e-01,-2.700135409292621705e-03,-2.606308693039759584e-03,-8.563022605854368405e-03,1.026489734649658203e-01
5.603843504289058863e-01,3.920362306305510414e-01,4.370056146240219319e-01,2.019318567963172134e-02,-2.676982061754706551e-04,1.263643896645064713e-01,2.681794464588165283e-01
5.091248451028657085e-01,4.369198146790291837e-01,4.421238018174096784e-01,-9.517828929372896228e-04,3.480623109607802398e-03,-1.347096385885073778e-02,7.381298393011093140e-02
5.220413875154773509e-01,4.388992345564435849e-01,4.578955095873368797e-01,3.428189424992405393e-02,-8.073599854615334109e-03,8.234221397299931744e-02,1.724995672702789307e-01
5.151930283568881830e-01,4.092686894520510266e-01,4.655524754394608777e-01,-5.356772222749398883e-03,1.313455836881087871e-02,6.322349309856886701e-02,1.449871510267257690e-01
4.620345104476238363e-01,5.145068846581342115e-01,4.461714686313519307e-01,-1.332138164678006763e-03,3.763173442675482594e-02,1.811816541151507406e-02,9.526766091585159302e-02
4.364186072143458883e-01,4.958666547560497406e-01,4.534737309258813354e-01,-1.271226299047675638e-02,2.099870774607816987e-02,1.117529719107551202e-02,7.066369056701660156e-02
4.569542735797452182e-01,5.000030034506569576e-01,4.330580339539046864e-01,-3.744898565336843722e-03,1.618636584048350688e-02,3.885625138576819047e-03,6.577453017234802246e-02
4.643773482417637988e-01,4.990251192290770521e-01,4.334532215269442101e-01,-8.961527846832380642e-03,1.541157942484504446e-02,4.178153497900531123e-03,6.506972759962081909e-02
4.829872633011433880e-01,5.197156846959093413e-01,4.247630564809440346e-01,-9.361054613863889571e-04,3.918770569111675039e-02,2.330871011034475054e-02,1.145297512412071228e-01
4.658162207774284025e-01,4.621580470251974715e-01,4.745619543532114126e-01,1.275821997618368999e-04,3.217809863658503081e-03,1.151209421301594565e-03,1.252801250666379929e-02
4.870022448804069981e-01,5.121482969717162659e-01,4.377809719445092673e-01,-1.884803915167507964e-03,3.143216016394535101e-02,1.910088834410678810e-02,9.144347906112670898e-02
4.771448304952590203e-01,4.553306253042289087e-01,4.703092040004239749e-01,1.027996609212938374e-02,1.159091476312482626e-02,-1.286015987908081804e-02,3.987108916044235229e-02
4.931294709465359194e-01,4.410573035352867710e-01,4.573794496668974197e-01,2.368251261245708436e-02,2.638283100401450643e-02,-2.584232955520193373e-02,8.889441192150115967e-02
5.039655006578394048e-01,4.382319673074217548e-01,4.311481956035180807e-01,-3.068874577474373522e-03,-6.957362881043237853e-04,-6.965542985829812662e-03,7.079534977674484253e-02
4.597723919577684226e-01,4.947887298060271166e-01,4.507059500129895202e-01,-3.892284063776789167e-03,8.032506063400283308e-03,6.845951797404680773e-03,4.478204995393753052e-02
4.910744672350481066e-01,4.691860047034023262e-01,4.398827535971155389e-01,2.431532786847888025e-02,2.076670362887849883e-02,-1.908365795999294665e-02,7.835317403078079224e-02
4.926863364852703819e-01,4.743639541432018714e-01,4.563371551765856848e-01,2.214467250971624904e-02,2.894276824548785987e-02,-3.203205283563227007e-02,8.974038809537887573e-02
5.072868098208249688e-01,3.610646086085010920e-01,5.221997499609383198e-01,-2.238483891240730661e-02,-5.741717302306567064e-04,-2.005375703063825080e-02,1.627716869115829468e-01
4.931417480046949575e-01,3.779419621107079630e-01,5.210999760906179779e-01,-1.344704079863182078e-02,-5.093301480673175473e-03,-1.728794606593412123e-02,1.370778977870941162e-01
4.675450805454695602e-01,3.802911299824019431e-01,5.237364377344478905e-01,-2.578196203316111823e-02,-5.151741015286261452e-03,-1.189997857837117416e-02,1.348043680191040039e-01
5.142811113492901098e-01,3.277508422522442677e-01,5.320735257407883667e-01,-4.759261906521127655e-02,1.725765577444180994e-03,-1.600069870128164803e-02,2.144786864519119263e-01
4.957038393640453289e-01,3.631432118104567230e-01,5.261812643786782928e-01,-9.679370036840457409e-03,4.346111238415028763e-03,-4.297768073040707584e-03,1.514412462711334229e-01
4.605326557710428537e-01,4.829050135633088381e-01,4.605156236686829829e-01,-2.333410247059026620e-03,1.891279082945315163e-03,1.222955918040181163e-03,2.307500503957271576e-02
4.771639558417259952e-01,3.420525648494682214e-01,5.307567025536767957e-01,-4.586214546389189711e-02,7.723087554086359051e-04,-7.481061499890338980e-03,1.866760849952697754e-01
4.997943288556603303e-01,3.328536109948154742e-01,5.326737552641542806e-01,-4.796521998900779571e-02,8.605192075758948816e-03,-1.122984614060100646e-02,2.047965824604034424e-01
4.974362084424557295e-01,3.703533939032089273e-01,5.288419254902635425e-01,-1.389120261075858787e-02,2.523123396680849572e-03,4.019921104100392887e-04,1.473973095417022705e-01
4.417703361183337174e-01,4.487522868570705814e-01,5.064348982394543119e-01,3.489719506230333501e-02,2.572855914299476340e-02,-1.339117182904549057e-02,9.978004544973373413e-02
4.165665936657870216e-01,4.348917915202093476e-01,5.264605485228592840e-01,6.014776539531168503e-02,2.811570236400076986e-02,-9.516199074443273953e-03,1.545803248882293701e-01
4.416473602919240848e-01,4.513463191071033775e-01,4.924026034963193688e-01,3.150840664476689534e-02,2.530554310785395819e-02,-2.906061096276445210e-02,9.803519397974014282e-02
5.007837491709465905e-01,4.346841396547190262e-01,5.280116650700572567e-01,7.764479865910461909e-02,4.925278025952757599e-02,-1.181608801219221141e-02,1.808114647865295410e-01
4.905947266519112282e-01,4.113179150396059636e-01,4.925321163039776406e-01,6.603131503851432382e-02,3.293653501519059473e-02,-3.793509995952388386e-02,1.646032184362411499e-01
4.797293887751375441e-01,4.472955459055105165e-01,5.081953726606182054e-01,4.712786642031115830e-02,3.042833323910039758e-02,-1.191234791728840690e-02,1.124810948967933655e-01
4.167932505146512701e-01,5.124236191141511298e-01,4.562090236680005351e-01,5.226910127436041296e-03,-1.208196336296470282e-02,9.354740807280211706e-03,8.781709522008895874e-02
4.676231893801308659e-01,4.346952442995671850e-01,4.895980235047830975e-01,-9.942503645461144707e-03,1.459350183261361872e-02,6.022134854245132264e-03,5.774944648146629333e-02
4.347646342379987150e-01,3.920678200482774489e-01,5.063141702322825344e-01,-5.136974062252757517e-02,5.462128576143975532e-03,3.353073627896718378e-03,1.343021839857101440e-01
4.669707320984700094e-01,4.599165789056793296e-01,4.956484258680570743e-01,-3.506169498726757761e-02,2.687931791297278744e-02,3.392098920762891962e-02,1.018912643194198608e-01
4.371702398741749152e-01,4.353180790644363141e-01,4.948126864658012325e-01,-3.108198140059134987e-02,1.151942284472648285e-02,1.118889394125626748e-02,8.428985625505447388e-02
4.084930547936516110e-01,5.074780139718154670e-01,4.422600604823200277e-01,-2.636269410068386911e-03,-1.650198920902140251e-02,-3.484166477007979035e-03,9.203272312879562378e-02
4.706820213768517225e-01,4.354056252884794254e-01,4.965745546824784640e-01,-1.510287980368492551e-02,8.641264429929938068e-03,9.494498502034319151e-03,6.330074369907379150e-02
4.548209228506484569e-01,4.608240435249526534e-01,5.053450379171718909e-01,-2.931563458727771965e-02,1.266667858223957839e-02,3.089564493067606735e-02,9.060131013393402100e-02
4.634868857224906380e-01,4.269635344048093861e-01,5.000365594404184710e-01,-2.236010925560892593e-02,1.560349263888416438e-02,1.835450359906565243e-02,8.512193709611892700e-02
4.657946618643724612e-01,4.652178942281608998e-01,4.797607636751074489e-01,-9.347682937373057586e-07,2.828685659924538246e-03,-2.456381602143503564e-03,1.566989719867706299e-02
4.693793535933825090e-01,4.573387608908291990e-01,4.852367703728928117e-01,1.789937732322779973e-02,1.360332183223991742e-02,-8.874514165763472406e-03,4.837304353713989258e-02
4.695760162135590998e-01,4.592809732872113471e-01,4.869092442282312860e-01,1.185624468341749810e-02,1.172161138517418578e-02,-6.184778565871382021e-03,3.916030749678611755e-02
4.660698962135580437e-01,4.697852338560317143e-01,4.840833630364573814e-01,1.306499912391229784e-02,1.509970416107516214e-02,-8.507958463055348766e-03,4.104393348097801208e-02
4.448096047047940260e-01,4.599805867063033737e-01,4.777692551376362395e-01,1.038863402202549677e-02,7.640566589375201098e-03,-1.471211152377862978e-02,4.432506859302520752e-02
4.581923713121528463e-01,4.359606455200722985e-01,4.831469371678885905e-01,3.351709884959450103e-02,2.037071848927672971e-02,-1.516199323040380575e-02,8.352548629045486450e-02
5.425667641720064438e-01,3.935624377661138262e-01,4.227630396236437549e-01,5.739467447454666554e-02,4.065342587342499203e-02,-9.641734293593340333e-02,2.478576451539993286e-01
4.672431147720380595e-01,4.919468213412551139e-01,4.457477034984844710e-01,6.724520896127933467e-03,1.935265315635630512e-03,-2.147782584993706244e-03,4.200088605284690857e-02
6.916678866332535147e-01,2.884670524355621435e-01,4.136594838524078055e-01,-3.091773466758374056e-02,-7.580852544759777555e-04,-1.787577385154409670e-01,4.759188890457153320e-01
5.189042580127827264e-01,4.331542121217477614e-01,4.618235026472614080e-01,3.790227182061037953e-02,4.126421766664598728e-02,-5.302251093982013330e-02,1.535210758447647095e-01
5.403783504769847923e-01,4.298223095266548999e-01,4.110101136119141407e-01,8.978138508814317159e-03,-8.887968722299115264e-04,-7.163559400655329645e-02,1.740560382604598999e-01
5.134096223076287657e-01,4.362765205162217885e-01,4.596512545199837874e-01,1.929323605900192320e-02,2.337440932451429962e-02,-5.281887576107524573e-02,1.257704496383666992e-01
5.136119547073447755e-01,4.297706893865758104e-01,4.336151982732309729e-01,2.950144364565426055e-03,1.427828400970604372e-02,-5.940256220605680954e-02,1.339608877897262573e-01
4.615265564278703270e-01,4.650985614142120750e-01,4.814468541259090961e-01,3.120359676814453941e-03,2.718546257568081083e-03,-3.160477882681517257e-04,1.975102908909320831e-02
4.973080011619979146e-01,4.615895205981822569e-01,4.493338087149545967e-01,1.119042990612329098e-02,-7.839643607257454697e-03,1.363086358054734458e-02,5.460060760378837585e-02
4.971469407272512409e-01,4.574353721508853665e-01,4.559522502141538647e-01,6.159310523472099307e-03,-9.527129818722085202e-04,1.001008797174904492e-02,4.533481225371360779e-02
5.080509502820685919e-01,4.452570951622164541e-01,4.420056570653781991e-01,1.286313297113811892e-02,-7.655617879000686452e-03,2.208144288569409766e-02,7.932708412408828735e-02
4.417934000331624200e-01,4.357340601967516491e-01,5.122756598489650592e-01,-4.064209990432619130e-02,-1.593754497195697464e-02,-2.692512848254931951e-02,1.154287010431289673e-01
4.495076633150842937e-01,4.278985227222180110e-01,4.981183507581575798e-01,-5.756561656115623260e-02,-4.228597182309542374e-02,-3.820972009200687691e-02,1.535123735666275024e-01
4.499119110054923265e-01,4.668557524839895834e-01,4.973180454491157865e-01,3.969397021422398954e-03,2.720301515837466114e-03,-1.866195789278816530e-03,4.255713522434234619e-02
4.713384590419073539e-01,4.646075048870638713e-01,4.683765529374496750e-01,-1.062310362282512704e-03,2.193233300355541381e-03,5.937366410241880444e-06,7.208232302218675613e-03
4.503862112315940580e-01,5.066071058941280514e-01,4.517715530825513470e-01,-4.865985536663205296e-02,-7.038390323661980474e-02,-5.070917315265973530e-02,1.810085922479629517e-01
4.222863128901770402e-01,4.547446988860071038e-01,4.408488669777396729e-01,-5.499778862252915207e-02,-5.682904489755725985e-02,-5.296682364134761706e-02,1.672571301460266113e-01
4.471548530377272845e-01,4.516811129064711716e-01,4.442311168007961331e-01,-3.243189681593094259e-02,-3.723861371911575679e-02,-2.700143190576543770e-02,9.769917279481887817e-02
4.443773997505554019e-01,4.691533055864964830e-01,4.454985895209040980e-01,-3.864549246422543244e-02,-3.889641347690706713e-02,-3.768682062684339251e-02,1.177600473165512085e-01
4.824390005774872869e-01,4.137154683343727268e-01,5.145642978988126393e-01,8.863340879659613314e-03,-4.149829795209759322e-05,2.764460504937830097e-03,9.067155420780181885e-02
4.321492363414043969e-01,4.398331536532493202e-01,4.974273880116237279e-01,-6.067637447872993757e-03,-2.806600746040909412e-03,-3.472742351782589620e-03,6.315810978412628174e-02
4.135257985834116523e-01,4.799225039945819726e-01,4.505751088589997622e-01,-2.873421943846853760e-02,-3.101043106470453489e-02,-2.846519152546109904e-02,1.054226234555244446e-01
4.155208580331089530e-01,4.916825266620989954e-01,4.324197954652505005e-01,-3.470865344837641836e-02,-5.919055261091474285e-02,-3.387856627519772457e-02,1.495561152696609497e-01
4.724144593927787072e-01,4.721030464565432183e-01,4.443325828897260465e-01,-3.091421904976020957e-02,-3.469953423338494047e-02,-3.533507719568481503e-02,1.049041748046875000e-01
4.327773084762253641e-01,4.651825513510882137e-01,4.464385804366966526e-01,-3.247535332284542942e-02,-4.039388947323137302e-02,-3.736941179245961697e-02,1.142033115029335022e-01
4.446947010054729810e-01,4.975573585628529916e-01,4.432990808977289587e-01,-2.211600886222725437e-02,-3.995320850429219528e-02,-2.031628940275119477e-02,1.018065288662910461e-01
4.499866479931725616e-01,4.480574778724407681e-01,4.584441648072313247e-01,-3.489242392697382289e-02,-3.125795316784026057e-02,-3.060481596242340188e-02,9.739175438880920410e-02
4.457226279964270343e-01,4.468886664112614038e-01,4.817735331748321248e-01,-3.811383843129881321e-02,-2.936815839103596240e-02,-3.265759033157072944e-02,1.067895367741584778e-01
4.359495681231050912e-01,4.137800402124298671e-01,4.715076123407960784e-01,-6.142332061027292595e-02,-5.281536646825092662e-02,-4.909076383798237353e-02,1.716413050889968872e-01
4.694434616571809271e-01,4.501370742304384720e-01,4.408070153529229374e-01,-2.487317687452869977e-02,-2.827121520760437004e-02,-2.996859961299091352e-02,8.710956573486328125e-02
5.680243036813863444e-01,4.100147876211678866e-01,4.078171124480338694e-01,9.211922833011573775e-03,1.475974474813881998e-02,-8.191451831943222239e-02,2.153071910142898560e-01
5.906724739702774452e-01,4.390384957191162951e-01,2.866739966847683396e-01,4.965279548129841736e-02,3.961577756899778424e-02,-1.822209487274849549e-01,4.254753589630126953e-01
5.548364288230400732e-01,4.731697600652619573e-01,4.051406752871044015e-01,3.598763628950864268e-02,3.339135174631754910e-02,-7.237322823539672767e-02,1.994919478893280029e-01
5.693937334583447640e-01,4.132102400567027045e-01,3.875938864150106911e-01,2.073065488169705331e-02,1.341198637525772841e-02,-1.609143459506631735e-01,3.294837474822998047e-01
5.220672543187729886e-01,4.192355212360165950e-01,4.022999560112330841e-01,2.799004966160189428e-02,2.558300825769995249e-02,-8.252909791480721180e-02,1.932605654001235962e-01
5.244248974771624772e-01,4.558664948490053215e-01,4.453971181633982201e-01,2.330238828568732823e-02,2.005818585072012550e-02,-4.611842966207335692e-02,1.214263215661048889e-01
5.233928548039598061e-01,4.732413711402376211e-01,4.044075275769364874e-01,2.213809999655285896e-02,2.263203961565584191e-02,-7.200972566009052056e-02,1.710804104804992676e-01
5.003960894685937077e-01,4.316833565738109058e-01,4.119759295561272183e-01,4.976994948219517351e-02,5.752423060078057371e-02,-7.231994266114148695e-02,1.987781375646591187e-01
4.746323860785250925e-01,4.403727567879183180e-01,4.571426968164234994e-01,2.417147919804412196e-02,2.634084603406220901e-02,-2.568610756218197080e-02,8.181717991828918457e-02
5.128482134287427607e-01,4.471664807840871059e-01,4.882984387689543460e-01,3.854421751332568619e-02,2.794574446424175421e-02,-2.976196332059466432e-02,1.129667982459068298e-01
4.770117908190474321e-01,4.597272308279406472e-01,4.829959706719768597e-01,3.463718461265104936e-02,2.046767174036145248e-02,-2.472346788927954134e-02,8.442588895559310913e-02
4.515368313445363713e-01,4.319438907903064839e-01,4.797998714307361023e-01,7.140702972157780826e-02,5.484242769976844373e-02,-4.330425378894655480e-02,1.779948920011520386e-01
5.291895807716570088e-01,4.180646442578898059e-01,3.892202954137715110e-01,-4.109475893378086372e-03,-8.184521036356078028e-03,-7.567534844976084307e-02,1.838966310024261475e-01
5.255068694969807774e-01,4.081849773535674575e-01,4.069044661116432149e-01,2.149137012018629417e-02,2.009760187309925228e-02,-8.188930494426426010e-02,1.913929283618927002e-01
6.540231319440671376e-01,4.175254230429466529e-01,3.678416473712307622e-01,1.410482366764671466e-02,1.230643049951258838e-01,-1.811534308719371100e-01,4.632825851440429688e-01
5.367164722506507779e-01,4.107068484243680540e-01,4.504800664828643719e-01,-1.108102751994981608e-02,-7.299694158820963126e-03,-6.925981380937809573e-02,1.654313057661056519e-01
5.683849294992036061e-01,4.610889027507752980e-01,4.084622917780339479e-01,3.177256364585096318e-04,-2.478642129299498190e-02,-1.081067801090434127e-01,2.383972555398941040e-01
5.557766475715050225e-01,3.866464007201753650e-01,4.034316199152153670e-01,-2.855366723562491327e-02,-1.817879060988996515e-02,-9.630211581298865620e-02,2.393899112939834595e-01
4.851743183134580306e-01,4.565262474188012121e-01,4.210928986603851287e-01,-2.244218432239675556e-02,-1.895850934393438630e-02,-2.648670406831935345e-02,8.823376893997192383e-02
4.843504600714559349e-01,4.261213999063629965e-01,4.560682892639446040e-01,-1.710425096373825032e-02,-1.615428330804383888e-02,-2.213448687025072747e-02,7.532606273889541626e-02
4.875318345027547240e-01,4.565546180531945830e-01,4.258387868224611239e-01,-2.114500461995862807e-02,-3.676947630007530721e-02,-4.542235781704175718e-02,1.201725006103515625e-01
4.689470320870111619e-01,4.640035426556614051e-01,4.618487351941619745e-01,-1.858653405246390999e-02,-1.662494405435115813e-02,-2.089667966433761404e-02,5.670353770256042480e-02
4.686577101160029901e-01,4.384436024867960913e-01,4.600569681050348247e-01,-1.499533260573911522e-02,-1.680501903620092857e-02,-1.585406398844655881e-02,5.479836836457252502e-02
4.857774834666535591e-01,4.146489434112098360e-01,4.545190939106679706e-01,-2.447004365501085493e-02,-2.428386139126466337e-02,-2.819539861807852585e-02,9.880992025136947632e-02
4.410025612358470237e-01,4.891455086434394195e-01,4.425558255143083319e-01,-6.527640421687653030e-03,-9.519489053628505185e-03,-6.306975029312728714e-03,5.257759243249893188e-02
4.599856917996903993e-01,4.560000387692608737e-01,4.326933458636918473e-01,-2.496543854730303574e-02,-2.447396387593763281e-02,-2.312915331630922486e-02,7.696490734815597534e-02
1.862646429992719510e-01,5.399402323605102527e-01,5.802477929470331031e-01,6.357738689747302607e-02,-1.135007237232791254e-02,3.532298247578678080e-02,3.965132832527160645e-01
4.497659804055521016e-01,4.317078112357907727e-01,4.543157916294071064e-01,-4.098506355022768499e-02,-3.612565389824872603e-02,-3.948589728470452281e-02,1.185785904526710510e-01
5.101768819333931670e-01,4.470235825438062527e-01,3.880082167759706935e-01,-6.520959821290682468e-02,-5.431896734527066201e-02,-1.043490060497440225e-01,2.558766007423400879e-01
5.099032361292820115e-01,4.430229628754108750e-01,4.396868728989379860e-01,-4.650015968164076391e-02,-6.079477638985124333e-02,-9.353367486302451017e-02,2.202899754047393799e-01
5.290865968340046077e-01,4.506948478781041545e-01,4.356253418860897009e-01,-2.339220878212281904e-02,-1.664476861020494289e-02,-5.429345746432825970e-02,1.373672187328338623e-01
5.119666587757322196e-01,4.090750881587404963e-01,4.427792105340496165e-01,-2.738620127706722224e-02,-1.399706079122879643e-02,-5.636891874014127862e-02,1.436137259006500244e-01
4.962402038146965788e-01,4.129486445459216726e-01,4.386533412961478029e-01,-2.601204792760103066e-02,-2.563030607191385188e-02,-3.905774289552235712e-02,1.184667497873306274e-01
3.171170098473855559e-01,5.608333998906709361e-01,5.278781411771256149e-01,8.677848628979642487e-02,1.227912558474896082e-01,-6.567244478348496090e-03,3.469956219196319580e-01
4.795701655745598924e-01,4.157109027322785089e-01,4.495867656654756184e-01,-2.600743712977010569e-02,-3.257932361679029970e-02,-3.283860230611856945e-02,1.072884425520896912e-01
4.708553471654980394e-01,4.171082561024663238e-01,4.512136905433211664e-01,-4.610328360954208532e-02,-4.828582408474813015e-02,-5.652211721522067828e-02,1.586638391017913818e-01
5.021443501710799451e-01,4.413285821978765733e-01,4.179622888041474305e-01,-3.229511800471136784e-02,-4.386831067388644728e-02,-6.269404700482140991e-02,1.623558402061462402e-01
4.581477352095257305e-01,5.110287773295884017e-01,4.556777501466578451e-01,-1.134090301559945689e-02,3.354027154076640038e-02,1.011709319756326844e-02,8.367129415273666382e-02
4.566275675575259818e-01,5.124108368486904874e-01,4.260657977178192723e-01,-1.393617490373187662e-02,4.325690602272577040e-02,2.020363033051072316e-02,1.147663742303848267e-01
4.600599759006963052e-01,5.101253397247932364e-01,4.548434267217378313e-01,-1.335614712512679138e-02,6.256026870227600345e-02,1.420207315119968380e-02,1.252059936523437500e-01
4.536331456240745297e-01,4.876535513048259607e-01,4.523963126733010487e-01,1.230450100730682422e-02,-1.831804007220989849e-02,1.505435480188359668e-02,5.780787393450737000e-02
4.666959578349475501e-01,5.083370775309002942e-01,3.940153764120881141e-01,1.812186551800312392e-02,-3.847264005609572074e-02,2.211999062751384207e-02,1.301402002573013306e-01
4.690604663255164009e-01,4.897616960214286053e-01,4.631825581398990588e-01,2.689429270262898644e-02,-2.448308826417492159e-02,2.264003038771147253e-02,7.804266363382339478e-02
4.608135250175441344e-01,4.969166492041320327e-01,4.419863414122655598e-01,2.636906779916297835e-02,-3.908119907282238403e-02,3.023832413969019389e-02,1.083913818001747131e-01
4.472354219350376803e-01,4.756746148638110183e-01,4.183465122551185411e-01,4.151538382173542568e-02,-5.940627610462098640e-02,6.294812337346709918e-02,1.735229939222335815e-01
4.625640970726590528e-01,4.835354725425146105e-01,4.472753513227637479e-01,1.829872874998792961e-02,-1.890658780173713749e-02,2.108486991865600804e-02,6.636861711740493774e-02
4.633755871353991695e-01,4.802231940474783189e-01,4.636254159006202302e-01,1.903060800173710793e-02,-1.721407987293865557e-02,2.791106762882102077e-02,6.776610016822814941e-02
4.798805102660355093e-01,5.121150172140880308e-01,4.380668584963883228e-01,2.500130489383673230e-02,-3.626056288502924746e-02,3.506681822596404569e-02,1.168075948953628540e-01
4.616508317603534861e-01,4.816465279809100664e-01,4.426445039278782967e-01,1.718799529986667768e-02,-2.143433363812941722e-02,1.818745775510672083e-02,6.631769984960556030e-02
4.492684313468907620e-01,5.144977349500937658e-01,3.928155460031569346e-01,-3.310885226878328841e-02,-4.580284139107440589e-02,-2.148722526654130160e-02,1.486323177814483643e-01
4.444109855097864714e-01,4.838173560148434360e-01,4.055560159772490514e-01,-3.061939758925050908e-02,-4.191160390745808650e-02,-2.938993155969248441e-02,1.235613152384757996e-01
4.787543569507464181e-01,5.179391438830092120e-01,3.885316379108599838e-01,-5.556619479410863059e-03,-4.333175822417548867e-02,-1.692462751923776848e-02,1.406976431608200073e-01
4.584891019805325540e-01,5.204042710114386017e-01,4.249495325515134647e-01,-2.672725899199240515e-02,-6.121119014519933732e-02,-3.541440817037168343e-02,1.555024385452270508e-01
4.568332213991779800e-01,4.797446376495944631e-01,4.191140602197751530e-01,-1.571981682400993077e-02,-2.271202409594939506e-02,-2.040470927239262933e-02,7.968544214963912964e-02
5.312573368100297344e-01,3.549834101300529676e-01,4.741835116144152429e-01,3.584652734909840686e-03,4.688951312603269021e-03,-7.127920151813892102e-02,1.990376114845275879e-01
5.275020742776410643e-01,3.404499091709503045e-01,5.104438516695467554e-01,-2.768686701883994305e-03,1.181601596551179337e-03,-3.132211357491429538e-02,1.872408241033554077e-01
5.114043277849998903e-01,3.731590290152585476e-01,4.580885603698275910e-01,-7.628514675049088978e-03,-8.041276117852522859e-03,-2.871594076070575069e-02,1.320078223943710327e-01
5.274129782087184637e-01,3.971866237811643163e-01,4.814397471368017101e-01,-2.554321869117801014e-02,-1.186131892394171744e-02,-3.887915174680688785e-02,1.414203643798828125e-01
5.150451755951912514e-01,3.934148551445196818e-01,4.766301902709731420e-01,-1.960270638420113024e-02,5.894230915724653743e-04,-4.760167146624619955e-02,1.398170888423919678e-01
4.530055366057466615e-01,4.533564210982120035e-01,4.171591971335805171e-01,-4.916585987621095721e-02,-5.523210697380633027e-02,-5.714476616315495444e-02,1.658247113227844238e-01
4.229365040936910458e-01,4.517201433631110596e-01,4.886641586297889028e-01,-4.783117192509672710e-02,-2.557209046233529029e-02,-3.575620491984618510e-02,1.261646449565887451e-01
4.061472817769097854e-01,4.362888310511322532e-01,5.009093655841339032e-01,-3.890542853446763566e-02,-1.835309774458530885e-02,-1.774985230029537536e-02,1.163127943873405457e-01
4.454379591041866537e-01,4.506613055102466903e-01,4.998590446845436741e-01,-4.365475320198137360e-02,-3.370618830936057686e-02,-2.172639699373848585e-02,1.150926575064659119e-01
4.261797914996721670e-01,4.779016503059423382e-01,4.576640124091559403e-01,-1.743978035486179468e-02,-2.233434548885149598e-02,-2.076274522948128726e-02,7.576388120651245117e-02
4.050146783051203347e-01,4.815643603228603742e-01,4.761386340220380986e-01,-3.068515341426069146e-02,-3.082810729287540491e-02,-2.205661342918797257e-02,1.122910976409912109e-01
3.918869987603267324e-01,4.777259877325480408e-01,4.799612138127720695e-01,-3.882341072394865367e-02,-4.302504206190915087e-02,-3.613787292295535247e-02,1.468273401260375977e-01
5.001930566903423081e-01,4.610968136821562147e-01,4.703897184420573474e-01,-2.908139837581770470e-02,4.573272794707072819e-02,4.979841510665610621e-02,1.322982758283615112e-01
4.870505161927789484e-01,4.681683539457971999e-01,4.919684591792213291e-01,-2.255626560234884337e-02,3.569731663359594631e-02,3.664830328791735675e-02,9.925788640975952148e-02
4.752762212849157564e-01,4.646409783629020240e-01,4.755440100019712735e-01,-1.741151182329729249e-02,2.245141688342736433e-02,4.482473889268677458e-02,9.254988282918930054e-02
4.777772192832331344e-01,4.296442372853847558e-01,4.746305730056928907e-01,-2.247502102876050914e-02,2.583788763028519939e-02,3.133920982724599374e-02,9.295071661472320557e-02
5.269895203029799635e-01,4.289214638999868656e-01,4.925288159031008250e-01,-4.411157218155942195e-02,7.781707897152347064e-02,5.732481972315825458e-02,2.031939476728439331e-01
5.082880290571848425e-01,4.216126185340695609e-01,4.945261917523981476e-01,-1.725876003538234782e-02,1.398590289326198145e-02,1.991958376037459080e-02,9.581222385168075562e-02
4.542206850717742106e-01,4.784190889544646663e-01,4.668879093470242880e-01,1.151281246695857151e-02,-1.056917226150355833e-02,1.268435566154329543e-02,4.068083316087722778e-02
4.730442264542561448e-01,4.791312892604136509e-01,4.657068159497551041e-01,1.491879313527717105e-02,-8.675619908640882019e-03,1.414196150451379162e-02,4.036147519946098328e-02
4.368609582847060580e-01,4.754987382026992782e-01,4.587451692279943538e-01,1.697723809476794216e-02,-2.479538894224105408e-02,1.713878575737163082e-02,6.867726892232894897e-02
4.791456309246903689e-01,4.796361110491300095e-01,4.604132083895643990e-01,2.716710488499885987e-02,-2.237213210404151789e-02,1.709872134028089102e-02,7.037842273712158203e-02
4.673932121501025438e-01,4.473683551807604020e-01,4.601415227615343606e-01,1.777632091919104443e-02,-1.403325717094380636e-02,2.526092153235246635e-02,6.133106723427772522e-02
4.581954660450889838e-01,4.594704284820978479e-01,4.745333573562811602e-01,1.161970628264440489e-02,-1.086047621992933254e-02,1.188290415798687327e-02,3.781844675540924072e-02
4.951530337838088158e-01,4.441376153576035435e-01,4.581004048112177762e-01,1.555361316177931823e-02,1.542872952041127003e-02,-2.275738153010860645e-02,7.126564532518386841e-02
5.141529119792870306e-01,4.344314213085905263e-01,4.044172544544062942e-01,1.117305675913727973e-02,1.415454693683508743e-02,-4.268090542027509759e-02,1.268451213836669922e-01
5.122117552103225835e-01,4.499724433118357791e-01,4.378588322005325106e-01,3.578456473062470965e-03,7.705358743548753643e-03,-2.072500776323583926e-02,7.924345880746841431e-02
4.966695466156216821e-01,4.417485739922468180e-01,4.428617788051210646e-01,1.065683355467364132e-02,6.887792842999278242e-03,-2.266397609355311205e-02,7.057202607393264771e-02
5.033036838022346693e-01,4.434690746673137229e-01,4.535972299487924797e-01,1.125731548074516454e-02,1.132673432629420496e-02,-2.509077995493502397e-02,7.569976150989532471e-02
5.145869114124577148e-01,4.367143915757660255e-01,4.444681797666252265e-01,1.050317179167763702e-02,2.030723728314322990e-02,-4.566436924450000684e-02,1.155173107981681824e-01
4.880025031592946094e-01,4.432102743334009332e-01,4.515281181538056687e-01,1.812508455746268329e-02,1.624407223106547754e-02,-1.863302983893748779e-02,6.724351644515991211e-02
3.944723144004558812e-01,4.228061312605821409e-01,5.551445081900945322e-01,-9.238782991420448065e-02,-2.047610048155877258e-02,-5.184679529742328846e-02,2.387352436780929565e-01
4.955577842194721638e-01,5.191893671235678909e-01,3.735242088071482613e-01,1.383230995685224771e-02,-1.006400349316126722e-02,1.370850405303938695e-02,1.406275629997253418e-01
4.065660257122712951e-01,4.610478538902870738e-01,5.021038575674026117e-01,-4.767474444329035388e-02,-1.788464920875889805e-02,-2.339610937336552773e-02,1.277146488428115845e-01
4.215013725279473378e-01,3.932785020694153366e-01,5.084861337060100350e-01,-8.619963781881828657e-02,-4.058950535987949915e-02,-4.697091399854425031e-02,2.113534808158874512e-01
3.800209796555544250e-01,4.202676391960449842e-01,4.863229031326442575e-01,-9.471947447898586281e-02,-6.113042438601886536e-02,-5.000838804222790257e-02,2.329597324132919312e-01
4.223566405233123988e-01,4.516022875855686958e-01,4.994731586996380979e-01,-5.848349381363382449e-02,-4.060586069024216260e-02,-3.207998059500510174e-02,1.511349827051162720e-01
4.057020879719455131e-01,4.585235479282597781e-01,5.246212791567823608e-01,-5.210639090969815257e-02,-2.235412286273281979e-02,-1.756194916407592330e-02,1.456708908081054688e-01
4.375873504220325616e-01,4.451865817521977187e-01,5.155715140391129436e-01,-5.697451745036012649e-02,-2.178746544182120701e-02,-2.418422100487023149e-02,1.358810365200042725e-01
4.452636545133061841e-01,5.168198080641850378e-01,4.142437440983338659e-01,9.321370597573593736e-03,-3.110382163234605424e-02,7.017749322780389432e-03,1.077633351087570190e-01
4.414190524727675258e-01,5.064133999594873092e-01,4.203039841576907132e-01,4.824014883984143538e-04,-1.738021147433090052e-02,-2.492941911152880829e-03,8.347471803426742554e-02
4.363771713271794583e-01,5.245115181856951914e-01,4.106212959393069628e-01,-1.198962994776055918e-02,-7.002742959640650966e-02,-2.472085327700198482e-02,1.663644909858703613e-01
4.409054310037499036e-01,5.120638323276174297e-01,4.062959944280615798e-01,-1.334147148444087341e-02,-4.473850971478551125e-02,-1.456912921612367115e-02,1.260930150747299194e-01
4.306346780610034730e-01,5.156378788577340444e-01,4.453096478874226660e-01,2.226554621362369056e-03,-1.928145156412654909e-02,5.478715756181945506e-03,8.610298484563827515e-02
4.333624741291294269e-01,5.110399589607910187e-01,4.480861602522108189e-01,-6.706231622345259526e-03,-2.513185621660852381e-02,-8.620091431182830624e-03,8.578781038522720337e-02
4.309496081007189172e-01,5.095141538674098358e-01,4.279066511086269675e-01,-7.784461441182319308e-03,-1.966796235637566573e-02,-4.040839101237639862e-03,8.838541060686111450e-02
4.588297947504746399e-01,4.410363072989494371e-01,4.586437104754449434e-01,-1.610793806702150730e-03,-8.686703758109029158e-03,-2.269020721238511253e-03,2.372630499303340912e-02
4.050820032602253096e-01,5.165051700481709807e-01,4.331683855559259611e-01,7.601054347328044247e-03,-5.183765586879714865e-02,8.651926261980703511e-03,1.361389607191085815e-01
4.252382799965846449e-01,5.157789304874016434e-01,4.607923133505235080e-01,1.138746837506899928e-03,-2.787114530838355822e-02,5.396021519541807990e-03,9.308198839426040649e-02
4.011796992808950857e-01,5.102413993807212167e-01,4.218779507540689200e-01,-8.671387621141900953e-03,-5.208503707427290796e-02,-1.140919690360985526e-02,1.371864676475524902e-01
5.364623937207625426e-01,3.731626860739032381e-01,4.784459986151058941e-01,2.594159996370714802e-02,1.491333726078488547e-02,-9.953545584548073588e-02,2.301449179649353027e-01
5.029502531143995592e-01,4.934788791516790396e-01,4.174163190853958372e-01,7.118985881915781966e-02,-4.763118622179782213e-02,6.013521712390110241e-02,1.986316889524459839e-01
4.467149847843518984e-01,4.968249596979291693e-01,4.760036847282951289e-01,5.618963043898490828e-02,-4.143934583375585845e-02,6.388180869322401811e-02,1.696093082427978516e-01
4.784921483428355438e-01,4.244688798321383794e-01,4.701999579737631829e-01,5.639285171128322754e-02,-3.167712666602020416e-02,6.167971593950561521e-02,1.627981811761856079e-01
4.614850425116104327e-01,5.057168716275849407e-01,4.806474918646857497e-01,3.994390455151206054e-02,-4.101965118002041250e-02,8.646657369832343176e-02,1.836841106414794922e-01
4.885102359795280291e-01,4.809986071938315844e-01,4.504314874341674990e-01,2.505159660557060297e-02,-1.645622024224759755e-02,4.023799208475054012e-02,9.366343915462493896e-02
4.924234320435770806e-01,4.839931732835077161e-01,4.684986837083346400e-01,3.046636989216368330e-02,-2.500934404311005999e-02,3.231329278668196997e-02,9.074810892343521118e-02
4.917389000262120113e-01,4.676359827105441291e-01,4.843405767234094661e-01,3.539475576232259391e-02,-2.030337989565042175e-02,3.702566717361572418e-02,9.780139476060867310e-02
4.676389550235515169e-01,4.719072716958682689e-01,4.635134702107717719e-01,2.151258486486114490e-03,4.341722356936496318e-04,-4.706791163097681294e-04,8.243840187788009644e-03
4.434688316243849959e-01,4.821862186055036470e-01,4.507482887489751011e-01,5.217949856048507973e-02,-4.787050990779660731e-02,4.663513407686820100e-02,1.511209756135940552e-01
4.623866575529015366e-01,4.618160136669240967e-01,4.829302171453206394e-01,2.337019184591328583e-02,-1.891313139012700331e-02,3.837815581140435056e-02,8.697328716516494751e-02
4.580615045713178901e-01,4.807723253109337236e-01,4.677771010983417521e-01,2.268432718859512628e-02,-2.596299776409696780e-02,3.188628453537990098e-02,8.370004594326019287e-02
4.656776824170306694e-01,4.748688523731052213e-01,4.708996687650017776e-01,1.156082717606255958e-02,1.663304226166646346e-02,-1.246838200734209055e-02,4.196504130959510803e-02
4.651903930906663986e-01,4.529163513923553097e-01,4.674057496965425829e-01,1.087849184633086011e-02,1.116996595725576469e-02,-1.188636601038794288e-02,3.655048087239265442e-02
4.664525558796349669e-01,4.628787861628234634e-01,4.661580455664776634e-01,7.196002786914876964e-03,6.679476797032549498e-03,-6.279007268484848581e-03,2.047626487910747528e-02
4.243388353632600585e-01,4.861912968956120795e-01,5.034276536892144938e-01,7.213038799456579671e-03,4.446999493740788796e-03,1.043707475345672167e-03,7.353644818067550659e-02
4.507363409618473371e-01,4.985588353115245619e-01,4.479882687486663739e-01,2.576947066198637809e-02,-3.452459106312385367e-02,3.433085779504688878e-02,1.073770225048065186e-01
5.310953511935927462e-01,3.884166835590965317e-01,4.825500787778784773e-01,3.730005192884526272e-03,-4.076225502091665931e-04,-4.494774377063990439e-02,1.479547470808029175e-01
5.044129825591399108e-01,3.898007302819089248e-01,4.919350510393117326e-01,-1.706105821381734000e-01,-1.332707152139872009e-01,-1.762060815512732637e-01,4.955950379371643066e-01
4.385836906611033092e-01,4.832590080264467791e-01,4.584021203111302567e-01,2.097959838632692392e-02,-2.425709516382311068e-02,1.657193724921611142e-02,7.357171922922134399e-02
4.420605527914222010e-01,4.917336660208840859e-01,4.599480100039338715e-01,1.816076268868935164e-03,-3.286344105134007040e-03,8.081996989356170918e-03,4.622882604598999023e-02
4.400490845857795152e-01,4.883712773423304898e-01,4.660380602527007809e-01,2.985705219364264123e-03,-6.325049377426067952e-03,1.248865814896588274e-02,4.867523536086082458e-02
4.481116908288948486e-01,5.141958932519506975e-01,4.344634575616459493e-01,9.809332385478403138e-03,3.210016230148003691e-02,1.679448276573036226e-03,9.404105693101882935e-02
3.501989717742504116e-01,5.816462070547221419e-01,4.021589004156594926e-01,-4.317072222811376911e-03,1.457417303078061555e-01,3.422277583957609309e-02,3.339657783508300781e-01
5.931895100256381337e-01,2.768420360589447515e-01,5.358229837651562466e-01,-1.191147677468622039e-02,2.521535210200923430e-02,-7.455574251639377273e-03,2.961734831333160400e-01
4.740152752562470373e-01,5.149995295067248957e-01,4.233325173553707521e-01,6.296896900067293877e-03,3.443474503150575211e-02,1.440057442974524479e-04,1.000095829367637634e-01
4.011918034738880534e-01,5.905778063910099851e-01,4.292065893925159359e-01,-3.509607234390758196e-02,1.877256404657988154e-01,1.866020822838126633e-02,3.765751421451568604e-01
4.945624610088066864e-01,5.845497268660284629e-01,3.417542262190587099e-01,3.512293737633517821e-02,1.216289440878973727e-01,5.098306642380090459e-02,3.179281949996948242e-01
4.905790385950050680e-01,5.140387896029391390e-01,4.201224490890270724e-01,-9.028071380316710776e-03,5.034628208536839206e-02,-6.259470380699488478e-04,1.225451901555061340e-01
3.950945984416215362e-01,4.561713421888744513e-01,5.395669805035256950e-01,-1.141952732983098767e-01,1.488511007830897563e-02,-2.881226360318226831e-03,2.357753664255142212e-01
4.518303206633743074e-01,5.101328440498773542e-01,4.303369734768556221e-01,-1.658712739339037248e-02,5.490860100739143601e-02,3.265487428492850480e-02,1.348463892936706543e-01
5.119233074111675386e-01,4.297267183879384667e-01,4.491312869594833446e-01,-1.236436450881018244e-02,-1.033140031788057182e-02,-2.572999146852305088e-02,9.111954271793365479e-02
5.237440636588995835e-01,4.910443108728281825e-01,3.947387711154007328e-01,1.420880238373408225e-02,1.110076918919501677e-03,-4.131860653007513040e-02,1.386515349149703979e-01
4.954865372790547284e-01,4.634415178012468162e-01,4.271156598879219946e-01,1.584396745465168829e-02,1.146293176991127795e-02,-8.592061248013389135e-03,6.985180824995040894e-02
5.135071845991319162e-01,4.695119354308682769e-01,4.045063492563627516e-01,9.590130506838755522e-03,9.030383945657438974e-03,-8.421898576510846585e-03,9.876530617475509644e-02
5.159354368949682357e-01,4.792642075830605974e-01,3.943415549115178442e-01,1.821087277906301843e-02,5.235989473818112271e-03,-3.796797211138840111e-02,1.306625753641128540e-01
5.265442626124151593e-01,4.692663989008165060e-01,3.776632972414131206e-01,2.580883147709629732e-02,2.549487541502457738e-02,-6.432339550661168859e-02,1.824266016483306885e-01
5.174729323656152014e-01,4.053387335483250586e-01,4.713793488954848843e-01,2.759199805846419048e-03,6.302479975202586807e-03,-9.568790452315924927e-03,9.973323345184326172e-02
5.191787023251416278e-01,4.848717801089479917e-01,3.915690454459018754e-01,8.069071436619425219e-03,9.918132209232410554e-03,-2.326961162844360179e-02,1.232808083295822144e-01
5.144645265654392841e-01,4.844344142363431471e-01,3.739248317601566729e-01,4.877459323590847481e-03,3.636375540230525095e-03,-2.283748403208294905e-02,1.345677524805068970e-01
5.150935811910086759e-01,4.837769623178154732e-01,3.824286343772038133e-01,4.070884030714298600e-03,-2.261043207932558665e-03,-2.540064036851729171e-02,1.281668096780776978e-01
4.494750360185288951e-01,4.248515943572480635e-01,5.089075519087888910e-01,-6.032551480536213831e-03,-1.442956323965137282e-03,-2.230832927736645186e-03,7.571209967136383057e-02
4.368447343260449256e-01,4.291625490112584984e-01,5.086386841606977960e-01,-8.348771162213240726e-03,-4.083880361128199195e-03,-1.043846257614269510e-03,7.763588428497314453e-02
5.017415680644976561e-01,4.397420819279432846e-01,4.321689200222453842e-01,-1.362537245771135901e-03,-1.535526111109711440e-03,-3.957772094180710132e-03,6.656166911125183105e-02
4.293797095040509659e-01,3.986054469108194498e-01,5.178644021790100860e-01,-5.111123882142356439e-02,-2.803524075106145208e-03,-3.204583243528653946e-04,1.391424089670181274e-01
4.466167986669841161e-01,4.103872613100109090e-01,5.096352386496751929e-01,-1.631218233180329463e-02,-9.533290745494002287e-04,-6.995432028309170325e-03,9.227582812309265137e-02
4.515788580667455254e-01,4.232568739774242306e-01,4.858179479696212999e-01,-2.926364775443621863e-02,-2.552509500029129588e-02,-2.011256741922399713e-02,9.317397326231002808e-02
4.387845175363998540e-01,4.392257715548312791e-01,5.072067560265280939e-01,-1.221298500232972234e-02,-3.310565200895615370e-03,-1.668871182661631853e-03,7.169596850872039795e-02
4.502930109059755104e-01,4.282637746728115147e-01,4.841739070621626784e-01,-2.422390042905852442e-02,-1.821644923659794524e-02,-1.752490463484110764e-02,7.782575488090515137e-02
4.002089997028074886e-01,4.296149956841061601e-01,5.192316114019346340e-01,-5.127157076788200346e-02,-1.125780402719515211e-02,-6.667541202144398362e-03,1.411772668361663818e-01
4.273462467606042314e-01,4.663735881739166644e-01,4.939078134599378389e-01,5.073230002363164626e-02,-3.884655616933912342e-02,2.336688501337870483e-02,1.313101351261138916e-01
4.305871621146964423e-01,4.671660951201629941e-01,5.281634182817793732e-01,5.619862155759450945e-02,-2.857953989237021000e-02,3.431537453884867667e-02,1.508236378431320190e-01
4.063474248162500246e-01,4.993058090835554297e-01,5.258229065123077861e-01,8.515300936675651577e-02,-4.152117092795552106e-02,7.019571544790781381e-02,2.313370853662490845e-01
4.444625756230831115e-01,4.512078187825913633e-01,5.049268682485333892e-01,-2.603650412303468858e-02,2.880487196578727926e-02,2.293851630833884311e-02,9.692765027284622192e-02
4.115257812882684441e-01,4.529192314712562339e-01,4.925094380577262898e-01,-4.726156082856330237e-02,3.747781001330734163e-02,4.422705475502531486e-02,1.473173350095748901e-01
4.052191946657367483e-01,5.003811888553514331e-01,4.864551547621185357e-01,-7.149092490987747628e-02,2.767055126560571607e-02,3.816382787022861572e-02,1.729849129915237427e-01
5.074404940921982687e-01,4.833454271195031793e-01,4.080217517723507270e-01,7.044926680822795675e-03,-1.424597215238197594e-03,8.379701936542242879e-03,9.184115380048751831e-02
4.370190892431792262e-01,4.518917522028765843e-01,5.117509232213720560e-01,-4.849268727209644914e-02,1.243701202958365920e-02,1.642768469098036463e-02,1.141176968812942505e-01
4.090761068747737483e-01,4.176951779668864884e-01,5.721170199269598466e-01,-7.751802226652636241e-02,3.970798729213557976e-02,4.719477365961380344e-02,2.338604480028152466e-01
3.528016052971097993e-01,4.338758314390195325e-01,5.381828467884404166e-01,-8.763756749390098910e-02,6.069775504713282796e-03,4.288096832729438278e-03,2.216220051050186157e-01
4.000632292880039742e-01,4.809274351235369171e-01,5.423232979468597392e-01,-4.432667045765507213e-02,1.519484454476976477e-02,1.449533215317549972e-02,1.499691754579544067e-01
5.158146166501881291e-01,4.319896210238732825e-01,4.284822223294566523e-01,5.512281255137348700e-03,-4.593860210337872077e-03,-3.757818291422954093e-02,1.082763373851776123e-01
5.161833773752101395e-01,3.835323144592278077e-01,4.454618053529286192e-01,2.080742915064253979e-03,6.674919176585081271e-03,-4.548033888777053974e-02,1.398877799510955811e-01
5.160248991354347003e-01,3.979874920776067526e-01,4.389539142229063051e-01,-4.579956973829734344e-03,1.948176364205449901e-03,-4.594303238464511607e-02,1.310805380344390869e-01
5.297183659619574270e-01,4.631727057302609252e-01,3.934065979585542605e-01,-1.334718293075449905e-03,-8.223178388205295425e-03,-8.408768640286599927e-02,1.880390644073486328e-01
5.250394939757279111e-01,4.236347793285136776e-01,4.222774811343907309e-01,-1.580554366133786817e-02,-2.893193603662450042e-02,-6.325537329763890326e-02,1.602708250284194946e-01
5.124120067535601342e-01,4.478199865558439852e-01,4.316776580886543258e-01,-4.210187709474363590e-03,-4.826036379406372333e-03,-3.035545625162679867e-02,9.144823253154754639e-02
4.517280419349519738e-01,4.713589289912909486e-01,4.726676356565754356e-01,3.352210085061710712e-03,5.452406427874589845e-03,-6.511820789967860852e-03,2.574655413627624512e-02
5.135746035034867152e-01,4.279244066075399422e-01,4.513193288014437088e-01,-2.045411042814462930e-03,2.876917285875807938e-03,-2.856740982129490555e-02,9.146130830049514771e-02
5.119692768891805912e-01,4.169936569569887563e-01,4.321122613685832725e-01,-1.781544486783284698e-02,-1.696147027761130827e-02,-3.910259158192429252e-02,1.192280352115631104e-01
5.331070495718003288e-01,4.305943033865713421e-01,4.361520682263025916e-01,9.312499359844296791e-05,6.416895403456427706e-03,-4.237944188041783272e-02,1.244251430034637451e-01
5.261105887940720205e-01,5.056543800414915468e-01,4.013703181551686594e-01,3.268310163638844107e-02,4.396077449066593257e-02,-7.030510639668761941e-02,1.930220425128936768e-01
5.325258789424374140e-01,4.810787323014056316e-01,3.836852511447392811e-01,3.246636182804833043e-02,3.651281604714267520e-02,-4.643883876318932041e-02,1.754262298345565796e-01
5.223229062217282781e-01,4.666913988163155502e-01,3.701871417738713532e-01,2.241190031950935843e-02,2.207556493721391649e-02,-5.809574227833357030e-02,1.757009774446487427e-01
5.657671549312920378e-01,4.866985451105944049e-01,3.092712253093342079e-01,1.602325207474732463e-02,1.835507394876817466e-02,-1.001357878878900293e-01,2.891776561737060547e-01
5.545491580970214329e-01,4.879449992123855440e-01,3.103597079107172085e-01,2.167411727124073095e-02,2.159715388861823196e-02,-1.053493642212592618e-01,2.896629869937896729e-01
5.711596113086071513e-01,4.458719068594971802e-01,3.799981307851235668e-01,3.573281777042859597e-02,5.018091889260251071e-02,-9.811105306951047045e-02,2.618238925933837891e-01
4.218973264071415041e-01,5.092939062213595047e-01,4.693881444770417466e-01,-1.445613160019684675e-03,1.503889980198731477e-02,3.909800987416275214e-03,8.045893162488937378e-02
3.915392550469850019e-01,5.292147503543311871e-01,5.033091762376026290e-01,1.416350541694606302e-03,1.923409719867718096e-02,1.046410488667374669e-02,1.323005706071853638e-01
3.952072453156689202e-01,5.379717419589823413e-01,5.054907616115615898e-01,-2.065000434064217030e-02,4.874392710043306404e-02,4.312297576775491609e-03,1.589419692754745483e-01
4.111744907366707280e-01,5.502354366651724948e-01,4.581483823503550434e-01,1.725266806403701406e-02,6.114023317028612070e-02,1.280215485279328179e-02,1.661664545536041260e-01
4.428254841918414231e-01,5.132085878608529939e-01,4.736627701119335843e-01,6.281869449453714518e-03,2.740730056124941749e-02,7.992248320425702005e-03,7.935861498117446899e-02
5.103346632291595464e-01,4.514271605168085344e-01,4.158695609811278726e-01,1.701492393511518791e-02,1.509738772270833446e-02,-3.949699732473081759e-02,1.142864823341369629e-01
5.055322181581433094e-01,3.510955920106906269e-01,5.282687706884940937e-01,-6.047650301913501392e-02,-2.057744665926694583e-02,-3.433337005308464973e-02,2.089445739984512329e-01
4.987268701585802488e-01,3.147979708837566060e-01,5.317303119071820072e-01,-8.637189169541821532e-02,-4.365967503417050866e-02,-4.782253860609570612e-02,2.755887508392333984e-01
4.982447775781663757e-01,3.387279741458611437e-01,5.266467420872639194e-01,-5.219389620790015200e-02,-1.789432192516818634e-02,-3.809293983311703297e-02,2.104027569293975830e-01
5.194174428245156294e-01,3.053002092810739865e-01,5.586709556057438686e-01,-7.757554778484050673e-02,-1.046493228528761268e-02,-5.033697173873861314e-02,2.859646081924438477e-01
4.934341726356344937e-01,4.906023992191509975e-01,4.498111573145036068e-01,8.524986632537374931e-02,-3.159057900217260989e-02,4.950907363512287163e-02,1.842211037874221802e-01
5.161917932573901746e-01,4.053545303533846456e-01,4.730167180844203623e-01,3.456488821458336691e-02,-9.945727217965187258e-03,5.582255274282060115e-02,1.503096669912338257e-01
4.771918397792329625e-01,3.899592363989010657e-01,4.726157147062686192e-01,5.354115424811638213e-02,-3.082543750879179756e-02,6.376987971570875768e-02,1.757317930459976196e-01
5.157136737183077857e-01,4.331066628968229248e-01,4.497519642632598069e-01,1.643360754926121228e-02,-1.840027605154140322e-02,3.765985520420259136e-02,1.086584553122520447e-01
4.726963416867291934e-01,5.062435758963428345e-01,3.893115039127340582e-01,1.796926896205887011e-02,-3.606918461537567816e-02,1.863817605697902849e-02,1.295745521783828735e-01
4.889384703197255377e-01,5.336620827551220581e-01,3.748607849515621648e-01,8.674818259631305109e-03,-1.019968961039422750e-01,2.820179082411894411e-02,2.322450578212738037e-01
4.588819471404365080e-01,5.024010685982434055e-01,4.169251962131228506e-01,3.742456975797407021e-02,-5.932796779851946117e-02,5.231598350054829372e-02,1.686781197786331177e-01
4.548591697129113487e-01,5.739948822919486160e-01,3.901513022100680517e-01,4.264253632239884545e-02,-7.016432181788720412e-02,6.779692698253825256e-02,2.451590597629547119e-01
4.881639868531220117e-01,5.501953990214645263e-01,3.741531400519875761e-01,3.558888553824463008e-02,-5.439022620268828961e-02,3.998027029473364552e-02,2.034416049718856812e-01
5.075702157265277181e-01,4.502322478745783285e-01,4.127294960723704165e-01,7.174543546983687750e-03,-1.642967911008004012e-03,-1.879202731386881570e-02,8.981297910213470459e-02
4.932875581955474820e-01,4.972161657409944757e-01,3.916207186172264709e-01,2.961978722244590009e-02,-3.826281093550947671e-02,5.478132056169983388e-02,1.636401265859603882e-01
5.125721680299663019e-01,4.281220625750490338e-01,4.355829556298577154e-01,4.794483864406080641e-05,-8.981346969905080373e-04,-2.420727024693389989e-02,9.120205044746398926e-02
5.090117739644874906e-01,4.370207440270394983e-01,4.389792975177201906e-01,-7.447292848410180322e-04,4.709599768887079950e-03,-1.301993221300851156e-02,7.498203963041305542e-02
5.070410699762631923e-01,4.344006422868212924e-01,4.387139812974938935e-01,2.159450301602755615e-03,9.224100836470942692e-04,-8.003967213681639076e-03,7.204613834619522095e-02
5.073398701821536516e-01,4.303445893694021196e-01,4.520278056237274078e-01,1.389397092592690791e-03,2.568435239283537851e-03,-6.248759608541379178e-03,6.979722529649734497e-02
5.003727369662551716e-01,4.214928432603710085e-01,4.421570601452565752e-01,2.416686186380052198e-02,1.673040264043735431e-02,-4.222138962614965102e-02,1.138368323445320129e-01
5.029718650067604990e-01,4.304683615156957299e-01,4.618779733971370982e-01,7.075618900545161544e-03,9.986185733223074124e-03,-1.688369281605388295e-02,7.259859889745712280e-02
5.020127914683190085e-01,4.552733014636137776e-01,4.225843075070254695e-01,9.218613337549780296e-03,1.981498768239169702e-03,-1.148274468287273711e-02,7.377875596284866333e-02
5.117105322884338836e-01,4.336215832613566357e-01,4.022583913772450614e-01,7.838340972958839428e-03,5.677433765814815167e-03,-5.117303221083670250e-02,1.329199373722076416e-01
5.445482161573154123e-01,4.104277155561255608e-01,4.543779853123171564e-01,1.235423489514804463e-02,1.558780479397222501e-02,-6.370497311913000948e-02,1.654904633760452271e-01
5.198929480663831981e-01,4.003520595509803548e-01,4.351850136192013108e-01,-1.231076650648139969e-03,-1.380301160541875811e-03,-4.393831641085203799e-02,1.309251189231872559e-01
4.603022781960918741e-01,4.607058549778780265e-01,4.748240770046797121e-01,4.868664248257781497e-04,7.302606313709276986e-04,8.066470138243865854e-04,1.447231322526931763e-02
5.129676902511081105e-01,4.166383634492437649e-01,4.559156135509945251e-01,6.894765992862710198e-03,1.719102732515958090e-02,-6.033071120324057235e-02,1.377936154603958130e-01
5.864650599321348245e-01,2.894267304852962130e-01,5.778456898240331707e-01,-3.965691578314357695e-03,2.815419972655705885e-02,-1.680804663506907728e-02,2.983596324920654297e-01
5.390549066592804639e-01,3.473222958533053184e-01,5.303027627422569612e-01,7.473391470860675338e-03,6.524048428459032316e-03,-9.473505151790021644e-03,1.890090107917785645e-01
5.436593812322302322e-01,3.516143594700825159e-01,5.363523877588707300e-01,1.145238453488432034e-02,1.485519428647979513e-02,9.383920025074784068e-04,1.912839561700820923e-01
5.934760632477283915e-01,2.942728831614875862e-01,5.818698583103816269e-01,-1.138271566661115328e-02,1.953563156157540892e-02,-1.320674430748094638e-02,2.970547378063201904e-01
5.305333039908397552e-01,3.352790265361872413e-01,5.367271207381604237e-01,-4.551351141796800351e-03,7.222093877931690629e-03,-5.395349599801741716e-04,1.989760249853134155e-01
5.321476179933928297e-01,3.164657660236511738e-01,5.405203648354978130e-01,-1.910397230548470729e-02,2.989214968600810256e-03,7.081723957191908038e-03,2.228603959083557129e-01
4.672054784070855393e-01,4.671948745077426635e-01,4.697808347439604293e-01,3.801013618694223787e-04,1.164606294091626373e-03,-1.076814902728360097e-06,3.340993775054812431e-03
4.652279740525162022e-01,3.969445275757736424e-01,4.893562247773228790e-01,-6.642246928653816607e-02,-3.049089003421164012e-02,-5.410965442505246553e-02,1.780472993850708008e-01
4.887401377370068634e-01,3.703294090511944359e-01,4.959075505436444375e-01,-7.811726270716819187e-02,-7.063443569152023926e-02,-7.825050248078731230e-02,2.580023109912872314e-01
5.259538965882764039e-01,2.926528834837248683e-01,4.818981615769062365e-01,-6.053872125733489318e-02,-3.672654297353669661e-02,-7.932188954716068441e-02,2.828590273857116699e-01
4.901233238367497247e-01,4.027930391895284679e-01,4.767055209090727552e-01,-5.446749086672866835e-02,-3.469193381948890847e-02,-5.927232052801356676e-02,1.722938567399978638e-01
4.696391984193291624e-01,4.579369974109208097e-01,4.817518803171376152e-01,2.315379029759220483e-03,-6.036504826493703166e-03,2.405793574512719336e-03,2.383627928793430328e-02
4.884891369754499890e-01,3.673853050321898572e-01,4.476932642115426519e-01,-7.153758891532004116e-02,-5.276576862492183412e-02,-8.915403848067715575e-02,2.427772432565689087e-01
4.893204188624379336e-01,3.038722246558243079e-01,5.300341249393520915e-01,-7.727409904178503264e-02,-4.010513477468344301e-02,-5.175964164714724064e-02,2.727182209491729736e-01
5.259169267595085184e-01,3.571939839949036521e-01,4.892114195002679189e-01,-3.300179639635344303e-02,-1.299897596111955489e-02,-5.006307713337272702e-02,1.868552267551422119e-01
5.357588753954836136e-01,3.613295866294136127e-01,4.981359794199010649e-01,3.217718543366750172e-02,1.872596308891468853e-03,-7.732966995980870839e-02,2.152551710605621338e-01
5.131706606701559314e-01,3.599720746803027338e-01,4.618801401416550712e-01,3.911031170710762422e-02,2.816456209885572284e-02,-7.419005464219535773e-02,2.042644321918487549e-01
5.334583321595305350e-01,2.405521673033330643e-01,5.020696142249363447e-01,7.277507334248672910e-02,4.393659270757509921e-02,-1.251007532344307338e-01,3.823817670345306396e-01
5.514220954602133684e-01,4.078581394343093192e-01,5.177407883680886780e-01,7.944394833233635322e-02,4.446138904197684261e-02,-6.119389907172952808e-02,2.302350252866744995e-01
4.825294038373640904e-01,4.890268018261399452e-01,3.960148491506886859e-01,-1.650980519203508468e-02,5.134072190004297653e-02,4.707479880122019539e-02,1.531748771667480469e-01
4.782861679363492047e-01,4.275630981954651744e-01,4.523625007660054820e-01,-4.413770157105601638e-02,5.004476406287007573e-02,6.641320735239809869e-02,1.688784360885620117e-01
4.711880963798499300e-01,4.926775587245263988e-01,4.501668564123400551e-01,-1.956735100222341955e-02,2.176880883063774669e-02,2.419452320714076538e-02,7.537795603275299072e-02
5.034271788301274420e-01,4.282881462866407474e-01,4.482668742128407269e-01,-1.480685271424168978e-03,-7.197397762643296948e-03,-3.183267731354633145e-03,6.882024556398391724e-02
5.734376657008234401e-01,3.053504958874917463e-01,5.150039423275712958e-01,-4.752865619390346519e-03,-2.842909589523881335e-03,-6.429557150945042210e-02,2.685399055480957031e-01
5.797811784494779630e-01,3.033829869622129971e-01,5.281797395380574134e-01,-1.761278011161425058e-02,-1.430243578412306558e-02,-5.611931691219643192e-02,2.752972245216369629e-01
5.566823481922708039e-01,3.521609115271134849e-01,4.856218920828957453e-01,-6.251243924360248838e-02,-3.019503923057690470e-02,-7.669899206324122531e-02,2.538740932941436768e-01
5.234492962302933483e-01,3.582536545350596957e-01,4.802674281762211450e-01,-5.523210236442308713e-02,-1.691353701159200099e-02,-8.322201575535397022e-02,2.298009693622589111e-01
5.321563292600175465e-01,2.980488336703617236e-01,4.640738187624142141e-01,-2.587292252364353784e-02,-1.006035898498048448e-02,-1.095262288890718333e-01,2.860118150711059570e-01
5.340913442528419930e-01,3.227085325019586337e-01,5.146607718860772840e-01,-2.176817649996075701e-02,-1.966371405185215852e-03,-4.365029947996364873e-02,2.193220406770706177e-01
5.820942051802808770e-01,2.931356737889528885e-01,5.258065715730884104e-01,-2.430183560377539506e-02,8.953530884322732572e-03,-1.001700321017920392e-01,3.201794624328613281e-01
5.418996070885135907e-01,5.198899944517455518e-01,3.061708380661304352e-01,4.661248374933518734e-02,8.392321858861244432e-02,-8.721537008581871364e-02,3.183256685733795166e-01
5.741350922655191757e-01,3.160694939565984463e-01,5.455091357137893393e-01,-3.445178350761672614e-02,-1.026067481183341734e-02,-7.856108848579308745e-02,2.870924472808837891e-01
4.621308152301100147e-01,4.654199118058274798e-01,4.637598447489190145e-01,6.350502014101437089e-03,-5.823924833598169946e-03,5.483736962437189312e-03,1.791839487850666046e-02
4.502181848056658331e-01,5.052592310551896615e-01,4.077028335021271599e-01,1.927432253484984148e-02,-3.999692573017291086e-02,2.010537644553832964e-02,1.195976585149765015e-01
4.551112649605335569e-01,4.905311922120345058e-01,4.504763985693369666e-01,9.858239815130466141e-03,-9.473794671908250184e-03,9.060168455063820347e-03,4.740561917424201965e-02
4.788266968180650007e-01,4.810504388138552856e-01,4.681820532174371663e-01,2.228258719052545953e-02,-2.653221577783128685e-02,2.695358763851742057e-02,7.695991545915603638e-02
4.529012855185419739e-01,4.846243493454932549e-01,4.608895388064554455e-01,1.592752788534100225e-02,-2.921167820077595276e-02,1.879361944545351534e-02,7.209284603595733643e-02
4.337980038397536986e-01,4.956702780737515246e-01,4.588122713393525953e-01,1.645365681505218947e-02,-2.013933769258428180e-02,1.280722207898227563e-02,7.366969436407089233e-02
4.669216950693825807e-01,4.785410231801471848e-01,4.534770831441415906e-01,1.046101742884112534e-02,-1.388604203524590984e-02,8.742741016213542715e-03,4.010056704282760620e-02
4.857885425790824385e-01,4.137642750508909173e-01,4.862586431207843729e-01,3.818421577741976103e-02,-2.084868502018086614e-02,4.337441849429649748e-02,1.286223232746124268e-01
4.231106447271351101e-01,4.735844856237214628e-01,4.476328938238633426e-01,-2.588772163389240627e-02,-3.773396065334642252e-02,-3.118867883770952074e-02,1.054110825061798096e-01
4.638521388280502089e-01,4.687551541319082138e-01,4.980827431450315368e-01,7.696466099625536017e-02,-2.404417097049979524e-02,6.099021714148358808e-02,1.780236065387725830e-01
5.210482758623540267e-01,4.947237304311536965e-01,3.584537067857844761e-01,4.706852043688963122e-03,-4.285436114765063878e-03,-1.106309613692256326e-02,1.527693718671798706e-01
4.780709193263241730e-01,4.965858914534800328e-01,4.418074789154733395e-01,3.111866325023129876e-02,-3.667812643098398301e-02,2.905157630345291814e-02,1.086379736661911011e-01
4.805256578195319372e-01,4.768058293124863289e-01,4.581419723304564484e-01,3.460889901812135711e-02,-2.049768392785749835e-02,4.913750293433503946e-02,1.119324713945388794e-01
5.128474201537066568e-01,4.530826122543008538e-01,4.143146439738454312e-01,1.104293264355452574e-02,5.290173253729124093e-03,-1.410091048235873230e-02,9.185887128114700317e-02
4.806632761332118031e-01,4.434776223528340000e-01,4.522600903472321354e-01,2.841070929091743871e-02,-2.233972893815270103e-02,3.750328318474822203e-02,9.628866612911224365e-02
4.821865894439115174e-01,4.433583084615966285e-01,4.797370263229497889e-01,2.864194257043982741e-02,-1.831511263851829871e-02,3.744643631939515577e-02,9.535535424947738647e-02
4.645587324717244671e-01,4.429939628698741361e-01,4.923189025185798484e-01,3.100168317441474863e-02,-2.169028369128916250e-02,2.370199495459709635e-02,8.839898556470870972e-02
5.585820668198312466e-01,2.108253505533802252e-01,5.401483304550451781e-01,6.676590945391563947e-02,2.350023986035191734e-02,-9.381122012207936123e-02,3.953423202037811279e-01
5.379458189942614155e-01,2.954779098402694482e-01,5.729535519896808982e-01,1.062762814227905493e-02,1.290735014464956289e-02,-1.456687279541742791e-02,2.645367681980133057e-01
6.009748749709098448e-01,3.199786293366245760e-01,5.532165001705301455e-01,3.872468348364553614e-02,2.898370258382556089e-02,-3.002869592423516518e-02,2.784671783447265625e-01
5.792084575645237710e-01,1.792801676886597306e-01,5.785868393461737202e-01,2.044878444357238478e-02,3.278147329488748096e-02,-1.712082708448208271e-02,4.062660634517669678e-01
5.220393527612608997e-01,1.676055433062376143e-01,7.259427683530788045e-01,-2.312009768292099671e-02,2.355125365014807196e-02,-7.565983117129226887e-02,5.098146796226501465e-01
6.048044123112157333e-01,1.473415996620205393e-01,6.880202999261332275e-01,-2.983903102959304873e-02,7.022970013134258171e-02,-9.789117140417899487e-02,5.481615066528320312e-01
5.645557287799913837e-01,1.299746032694227282e-01,5.814632661358167809e-01,-9.462874580809856051e-02,2.963116183094368153e-02,-7.721043592800125310e-03,4.755743741989135742e-01
5.742814417191832721e-01,1.152873245760426824e-01,5.869057220035424072e-01,-1.172914089567941853e-02,3.203939812244036012e-02,1.286106286517481323e-02,4.696998596191406250e-01
5.859859579110775485e-01,2.676623495996828250e-01,5.514237062571629711e-01,-2.273394019791915785e-02,-3.064535279099561888e-04,-4.331403215207911550e-02,3.141680657863616943e-01
5.331938578191415257e-01,2.697314330106750369e-01,5.401245774447683834e-01,-2.706444407314649928e-02,1.381260920523114631e-02,-7.551908943140290230e-03,2.724470198154449463e-01
5.189451534173932234e-01,2.605603002214565977e-01,5.295532951858672455e-01,-4.422509499991655879e-02,2.136067719126054452e-03,-2.332498076946384197e-02,2.777222990989685059e-01
4.919921848091277083e-01,3.898609030578784607e-01,4.069923582297122477e-01,-6.023101556124276640e-02,-5.580471086995272140e-02,-9.356151793827729990e-02,2.355031222105026245e-01
4.788320738139777433e-01,4.332800306284425584e-01,4.802969940700209106e-01,-4.893763750112736094e-02,-3.259958770055507160e-02,-4.623814415063876027e-02,1.375886648893356323e-01
4.972288352136627898e-01,4.239660021617091545e-01,4.491048543768004775e-01,-4.858006936082232691e-02,-2.143763711148467463e-02,-5.018563072425655941e-02,1.420290172100067139e-01
4.546509904371209831e-01,4.406420087770491767e-01,4.602615121543439103e-01,-1.026787275506689696e-02,-1.292592892924417265e-02,-1.394669997849846445e-02,4.132051765918731689e-02
4.540891527682337503e-01,4.538992678020724592e-01,4.545658334966014014e-01,-2.962527346618744339e-02,-2.699365969587188413e-02,-2.972968234635477852e-02,8.643413335084915161e-02
4.614324380414188687e-01,4.436993822018456823e-01,4.600951955354631862e-01,-1.500084907496490420e-02,-1.437372775251272508e-02,-1.366502478713371889e-02,4.634245857596397400e-02
3.844239719978781444e-01,4.665922094712187662e-01,4.893586358979647999e-01,-1.037545393738025234e-01,1.329079525852643606e-01,1.017410303174950681e-01,3.542356491088867188e-01
4.332871645494531521e-01,4.426112373170447700e-01,5.648512494647981441e-01,-9.275148307757638544e-02,4.219296766300014573e-02,5.054478189063608268e-02,2.344843447208404541e-01
4.621615805536866128e-01,4.982850650430428741e-01,5.193541614747552160e-01,-6.005755516146657480e-02,8.987011391372845548e-02,7.537162237848650526e-02,2.336732447147369385e-01
5.200220967695070584e-01,5.212474780491274107e-01,3.111639280894367143e-01,4.099058451618335652e-02,1.077541160266758669e-01,-7.127166758823245962e-02,3.146293759346008301e-01
4.651318406226433444e-01,4.674265244878157421e-01,5.177634367853705122e-01,-6.221570020459166878e-02,8.957680009776403107e-02,7.176251392745749969e-02,2.319235652685165405e-01
4.898876256479422486e-01,4.865930544626156928e-01,4.220525018801819517e-01,-2.874476678103552937e-02,-4.945055111499854078e-02,-5.222186916544011709e-02,1.496168375015258789e-01
3.883740931293922505e-01,5.133911031360558486e-01,4.004266638923058008e-01,-4.925977037667326336e-02,-9.751347016054150163e-02,-4.546388573669879474e-02,2.372231930494308472e-01
4.071706173291846365e-01,5.011061088142467757e-01,4.360889903879857088e-01,-4.854473697143710936e-02,-9.224155127553793077e-02,-4.680656216181368345e-02,2.147359699010848999e-01
4.946400726226977129e-01,4.682127625724425979e-01,4.392191257181797814e-01,-4.280604593755103597e-03,5.932529335361908136e-03,9.417028639432946727e-03,5.226714164018630981e-02
4.628833553021232117e-01,4.521642156047151473e-01,3.854712425799545761e-01,-5.684633411787766433e-02,-7.841907007885862146e-02,-8.423543564933300143e-02,2.338968515396118164e-01
4.045809020646974341e-01,4.960302706696886332e-01,3.734866676519049133e-01,-5.943215620940246052e-02,-1.125893674473717743e-01,-6.669333971107227477e-02,2.722921669483184814e-01
4.325315107452432084e-01,5.003105628163146967e-01,4.486861326808808670e-01,-7.122036817535833120e-02,-1.075436977427320778e-01,-7.156118193124087756e-02,2.627489268779754639e-01
5.148494871869682132e-01,4.768012857298845053e-01,3.940332161630948904e-01,8.663044961221916468e-04,5.632113610660557934e-03,-3.919076516258573895e-02,1.270927041769027710e-01
4.565041283135333194e-01,4.866016033820987352e-01,4.188255123737743557e-01,-2.310774105578846521e-02,-6.059971497168970683e-02,-4.845772019111885265e-02,1.520621478557586670e-01
4.644212041201191132e-01,4.738648900045533408e-01,4.673236804433227864e-01,1.550229396482249999e-03,1.819179080882753598e-03,-6.894032924529565993e-04,9.421315975487232208e-03
4.722393269586479536e-01,4.946555935328790787e-01,3.720322536917294309e-01,-7.965780202869934823e-02,-8.353943661093560236e-02,-8.682519749059394720e-02,2.745517492294311523e-01
3.879929101598043051e-01,5.246368543263780770e-01,5.079082539876582647e-01,1.587310062691720675e-02,-3.054634900271415918e-02,1.549704147815923055e-02,1.447105109691619873e-01
3.900220522733010009e-01,4.913770623528554982e-01,5.246533507068649183e-01,2.217984279483484894e-02,-1.269230935919340476e-02,1.139579875174534171e-02,1.307730078697204590e-01
3.997655487357367754e-01,4.966261560948450615e-01,5.110126379227080129e-01,3.179618464333876932e-02,-3.591021263836643995e-02,2.124526325131158647e-02,1.387016177177429199e-01
3.891041505592899852e-01,5.270379367536736082e-01,5.257953351270893139e-01,1.935262511048000539e-02,-1.296803929133148910e-02,1.367153398750680683e-02,1.450678855180740356e-01
5.179646545233301813e-01,3.645521125980362154e-01,5.181120225625923670e-01,-8.329579402657086296e-02,-1.318314438772794951e-02,-4.838609650107435906e-02,2.278544157743453979e-01
4.961051296301217106e-01,4.247694652779751556e-01,4.711156999868840178e-01,-4.872142936674990488e-02,-3.802567908201066882e-02,-5.570806739621955023e-02,1.571622341871261597e-01
5.216853421986294981e-01,3.288179898845419169e-01,5.179363147060809247e-01,-4.471166563934075855e-02,-1.021231759426950887e-02,-4.439041546718629910e-02,2.207047939300537109e-01
4.379869487715261078e-01,5.050980354869286648e-01,4.376184633195746576e-01,7.090496634175810775e-04,-5.421101728489031470e-03,8.302387217600640246e-03,6.946384161710739136e-02
5.049175444330705753e-01,3.516286275168365449e-01,5.197398621808753116e-01,-4.194222579604469509e-02,-3.731006015289210689e-03,-3.643934588443721589e-02,1.878615915775299072e-01
4.910720167568842220e-01,4.023192627273224908e-01,4.741284593863667185e-01,-2.757907012590037760e-02,-3.458548730167731317e-02,-5.011319399744818687e-02,1.416496634483337402e-01
5.278947068017140198e-01,3.882268246837768944e-01,4.848966848548987851e-01,-1.329366205357065782e-02,-1.560660869212122069e-02,-4.422699867422331954e-02,1.499314904212951660e-01
4.385817161742627812e-01,5.064449440355249799e-01,4.227620403217119960e-01,1.313966898594108416e-02,-2.591402982271496722e-02,7.120375263399095038e-03,9.281118959188461304e-02
4.547008079097915045e-01,4.799761622028340113e-01,4.575903009591230641e-01,4.394937160836802012e-03,-6.434269814391117316e-03,5.810848150313844239e-03,2.928486838936805725e-02
4.479794923305258081e-01,4.675171745538501122e-01,5.057663996241276161e-01,3.453050650953250894e-02,5.149417164001458998e-04,1.199372591342224778e-02,8.124922960996627808e-02
3.969097053385949314e-01,4.425599291286956838e-01,5.313937247366543604e-01,6.496501816874836188e-02,7.827465470841823893e-04,1.712795361423741572e-02,1.660541146993637085e-01
3.518527595606664171e-01,4.960078953252411438e-01,5.665303101433749600e-01,7.425326645064517228e-02,-2.256532539594516967e-03,5.309066079236143820e-02,2.468441873788833618e-01
3.946111677458246092e-01,4.690599560173815408e-01,5.308276830258857881e-01,6.519950049389570956e-02,-1.492979484366431259e-03,2.038381535651764484e-02,1.672199666500091553e-01
4.541808305781028232e-01,4.655159527923174445e-01,5.079913742622469419e-01,3.825153993877680042e-02,-1.612741274604112540e-02,1.364835582319612849e-02,9.023726731538772583e-02
4.058930614198780762e-01,3.281405558760711605e-01,5.394815306012484823e-01,1.544987344218232694e-01,2.237232648297959176e-02,-1.477399812212106846e-02,3.287006616592407227e-01
3.734469004839271467e-01,5.731238164232901333e-01,5.654535720689590761e-01,1.396235548235621460e-01,1.178855731623562782e-02,5.676879877403734342e-02,3.270586133003234863e-01
4.218820320764847254e-01,5.089455685757027226e-01,5.644655958930124839e-01,1.186890779780533645e-01,-5.166309461402777102e-03,4.014509104723353039e-02,2.503448724746704102e-01
4.140068863626400475e-01,4.487600187408746777e-01,5.066286644228082947e-01,8.252130160949613935e-02,-2.244881371712912493e-02,3.050075122719578258e-02,1.769172400236129761e-01
4.292403707065008955e-01,5.049256344720978174e-01,4.314597620512882759e-01,-4.106392348777318513e-02,-6.078815217706204366e-02,-3.412854062036378006e-02,1.587571054697036743e-01
4.837593336892379581e-01,4.820781004234681588e-01,3.943724613547251456e-01,-3.319055599041646765e-02,-3.419093489762568827e-02,-3.758717751965551940e-02,1.374512463808059692e-01
4.384907400286350287e-01,4.906359416333647139e-01,4.132868457728209322e-01,-1.664040456368530430e-02,-1.896769395779483378e-02,-1.269396757264183544e-02,8.403606712818145752e-02
4.334146847684635651e-01,5.124004895222756817e-01,4.267057889389646586e-01,-1.185358695230365536e-02,-2.151774063874256973e-02,-7.652150257992862241e-03,9.380779415369033813e-02
4.578327930594769390e-01,4.948902302121356844e-01,4.182137268736047520e-01,-1.872023731295114138e-02,-2.390869468672174314e-02,-1.701345670200485674e-02,8.969780802726745605e-02
4.863683633312709254e-01,4.741036356366511995e-01,4.071479543877985496e-01,-2.166867831577253684e-02,-2.624247608585418556e-02,-2.968857152322663256e-02,1.075802519917488098e-01
4.820399812058214217e-01,5.299327745905230147e-01,3.940796099220157389e-01,-1.144600035421882399e-02,-4.227996597794222988e-02,-2.027073824287244086e-02,1.457118541002273560e-01
4.462241719558778241e-01,4.983033623620145569e-01,3.963368408733145554e-01,-2.427115941298206223e-02,-4.257587958378179077e-02,-2.206416126275660000e-02,1.283158063888549805e-01
4.703463392057503634e-01,4.474308731819788276e-01,4.432116058355636823e-01,-2.578660792405625818e-02,-3.489040490274041700e-02,-3.594873772872387435e-02,1.008137464523315430e-01
4.614377167666119939e-01,4.890974760544062327e-01,4.153994626409477364e-01,-2.049289886093224114e-02,-2.726918596253283603e-02,-2.623430803593921126e-02,9.855663031339645386e-02
3.667815674278307458e-01,4.971219150787446472e-01,5.170649543178087448e-01,-1.067067872236843011e-02,-6.443046873369146117e-03,-1.458919921908793374e-03,1.430322676897048950e-01
4.407205129258038312e-01,4.583350743248862935e-01,4.754225322421386513e-01,-2.036626858013380111e-03,-2.763838055280033821e-03,-7.638659078095319174e-03,3.337138518691062927e-02
4.521558080629994314e-01,5.067737734568031893e-01,4.385184287709422701e-01,7.441593414654190143e-03,-9.639556576816451020e-03,4.483136403070146249e-03,6.647659093141555786e-02
4.727016394078671913e-01,4.805371833244923008e-01,4.364207208594851339e-01,-2.662176071055185125e-02,-3.729685851270017616e-02,-3.222660065072981833e-02,1.052471548318862915e-01
4.745895059826580886e-01,4.834247677947283717e-01,4.268293628861674627e-01,-1.086323887177591610e-02,-1.577023972083836656e-02,-1.225416344339438218e-02,6.581558287143707275e-02
4.719413108288167402e-01,4.806153885099099243e-01,4.134806325933021998e-01,-2.611142807714491448e-02,-3.368554895371426300e-02,-3.089736877970550646e-02,1.109661832451820374e-01
4.543681281285503193e-01,4.595198038229318938e-01,4.563683886401342926e-01,-1.931476748963392373e-02,-2.211449110262499532e-02,-1.829458944969257483e-02,6.008864194154739380e-02
4.678765236438535702e-01,4.300482185186361717e-01,4.567605026617864161e-01,-5.305061883885709567e-02,-5.050551624621733848e-02,-7.602587183033648888e-02,1.859284043312072754e-01
4.368922685077369916e-01,4.375878491857863595e-01,4.864286604116914714e-01,-4.763467500020970857e-02,-3.336321913776525705e-02,-2.753572634689823925e-02,1.218237653374671936e-01
4.597670739529738926e-01,4.292815365089103774e-01,4.669935271600842430e-01,-4.193397511386402765e-02,-4.756084614926579801e-02,-4.057305633620968827e-02,1.349143683910369873e-01
3.766025678767566109e-01,3.855910282064122785e-01,5.117759702772153307e-01,-1.417756407537875130e-01,-4.956162421415852976e-02,-7.627911387126407039e-02,3.197861909866333008e-01
4.442464173766328961e-01,4.269798819121414235e-01,4.800548453532532678e-01,-5.182251420645288265e-02,-3.092271809093587870e-02,-4.399631932783888699e-02,1.375901699066162109e-01
4.501053601560797146e-01,4.177361766224402806e-01,4.817425250330848452e-01,-4.531499445574606322e-02,-2.760730900559155501e-02,-3.816980710301300095e-02,1.260570585727691650e-01
4.765162414545898173e-01,4.283057428001203482e-01,4.812535055957541386e-01,-5.310882342242824461e-02,-3.232516772993605098e-02,-4.354086225703928531e-02,1.409215778112411499e-01
4.440438151994605676e-01,4.102198138879877831e-01,4.963329659012761796e-01,-8.547324680534006125e-02,-4.394050141172237134e-02,-4.767130736646339045e-02,2.004341185092926025e-01
3.800645920709341818e-01,4.455038426659718720e-01,4.956651996727508558e-01,-9.804438937091831952e-02,-7.611661297208964505e-02,-8.017374773113274122e-02,2.749250531196594238e-01
3.610762139035206819e-01,5.369414296624748228e-01,4.309023402217755372e-01,-2.511558998410439586e-02,-9.430326965204705036e-02,-8.255033144659676761e-03,2.286928296089172363e-01
3.793356061309104410e-01,5.707996810244855279e-01,4.334494653249966745e-01,8.770663928129945018e-04,-9.773560196874311878e-02,-1.287299937880568949e-02,2.416239529848098755e-01
4.076710557393973811e-01,5.413988116302668185e-01,4.573884614622907296e-01,-1.627667533486531386e-03,-5.435566362572404747e-02,1.126176121244966974e-03,1.502721011638641357e-01
4.042625665206600605e-01,5.116117025962669818e-01,4.533946685845756663e-01,5.525587822091489708e-03,-5.699584867071057909e-02,1.226558580443931970e-02,1.376663446426391602e-01
3.773198692174826174e-01,5.361556922993324648e-01,4.094170423459728148e-01,1.405776983653347564e-02,-1.047778199678604805e-01,1.777377423277740065e-02,2.358741760253906250e-01
4.271024050570096930e-01,5.255029523267796820e-01,4.550185805434242559e-01,2.178727565714519074e-02,-5.525686343168717540e-02,1.311621609608927715e-02,1.371682882308959961e-01
4.489217674466320918e-01,5.041857273766604530e-01,4.273728419532767941e-01,-7.578601246998824302e-04,-4.859563444409917624e-03,1.176254230544363606e-03,6.918136030435562134e-02
4.461738955770543913e-01,5.173038504361380241e-01,3.869984940340825963e-01,4.998735775832087620e-03,-4.827563997567088649e-02,1.427668401943001878e-03,1.408652961254119873e-01
4.370650693941668385e-01,5.144112568949205100e-01,4.149362209061651652e-01,-8.280775086760381199e-04,-4.002788047609694838e-02,8.987835182264172947e-04,1.139950677752494812e-01
4.559093321032652857e-01,4.730494466995157077e-01,4.722390125133379413e-01,1.383652460851803523e-03,-2.000219562322014602e-03,7.255587816713087758e-03,2.135945111513137817e-02
4.576021436018072319e-01,4.695013788787802955e-01,4.722137475387997996e-01,2.261536564338295901e-03,-3.236097978481736453e-03,4.857557566921566310e-03,1.728502474725246429e-02
4.678833878694556025e-01,4.701407963413111180e-01,4.650018715119410562e-01,1.606045498084073724e-03,-2.184859227667552278e-03,1.862328301959539087e-03,7.236543577164411545e-03
4.654690160429305612e-01,4.685146771792496612e-01,4.648920128601567447e-01,3.436034837860559715e-03,-3.272863815954206532e-03,2.893309195404307910e-03,1.019970420747995377e-02
4.625359092363636182e-01,4.745375626668090208e-01,4.647584880084487113e-01,1.260275309030734316e-03,-1.049599019991130080e-03,3.729554822579117610e-03,1.311882305890321732e-02
4.486243650520280180e-01,4.223267045599807812e-01,5.027786961618961881e-01,-5.942996731778153567e-03,-4.417943505881124014e-03,-3.779778861806219292e-04,7.220340520143508911e-02
5.285186252435819521e-01,4.534238440616457644e-01,4.359098414455762072e-01,2.078758058965970296e-02,2.419948269704805255e-02,-4.917550804168474565e-02,1.325484216213226318e-01
4.933707198491504298e-01,4.660042542029288470e-01,4.481056572833747587e-01,1.312036953191623827e-02,1.341765501081677511e-02,-1.472302886208437175e-02,5.714840441942214966e-02
4.400859782483875215e-01,5.078027342068239802e-01,4.305174924383969870e-01,-1.335251475619065589e-03,-6.855304622132514340e-03,-2.116902354948613240e-05,7.396889477968215942e-02
4.932801960274749709e-01,4.363078499457477277e-01,4.559037748041990801e-01,1.899536276281519123e-02,1.907560505500153006e-02,-2.568743559834276227e-02,8.165208995342254639e-02
4.928374536656389138e-01,4.550773440581750706e-01,4.467366044306145256e-01,1.538182766690820297e-02,1.286901539128863445e-02,-1.191819732151058568e-02,5.867800116539001465e-02
4.937845514430265759e-01,4.543263041563853077e-01,4.670983829066963633e-01,1.505214479016863012e-02,1.487189937806369586e-02,-1.238352641161142263e-02,5.494899302721023560e-02
5.469259330188169788e-01,5.901538699602888460e-01,2.930292742044686705e-01,2.015616540280298907e-02,-4.778156429610006667e-02,3.054179066493580008e-02,2.969411611557006836e-01
5.038346662126804709e-01,5.929507170869128263e-01,3.299677622689282108e-01,1.670762979629136086e-02,-4.735082363800453137e-02,-6.806945060861615236e-03,2.477265447378158569e-01
4.770720652657982619e-01,5.924614208183597297e-01,3.483258052184040610e-01,2.123808655818666333e-02,-7.583867362251008049e-02,2.924510041633230240e-03,2.517530322074890137e-01
4.756352973161402931e-01,5.818251048226119604e-01,1.692102126624315528e-01,-5.176910492254325688e-03,-1.753141834598110349e-01,-5.047502538774450986e-02,4.874839484691619873e-01
5.263156529650757642e-01,5.832455382172234692e-01,2.221040918302716050e-01,3.132317558809534497e-02,-9.307978585244262859e-02,7.497012541299921673e-02,3.986237943172454834e-01
4.746327224947118895e-01,5.318074088864157556e-01,3.731958532791645466e-01,2.083597283889096138e-02,-6.876170313125615219e-02,2.514217069851236094e-02,1.916802525520324707e-01
5.086822019691149555e-01,3.789461719356368441e-01,4.655672581484274763e-01,-9.143798352214457803e-02,-3.243239723621968440e-02,-9.410604629921991149e-02,2.605818808078765869e-01
5.155426497141518682e-01,4.407596564627823676e-01,4.469451839217357114e-01,-2.956374252198499392e-02,-2.795154774305315393e-02,-5.140991491797991531e-02,1.343987882137298584e-01
5.051229358274912373e-01,4.343955981463548666e-01,4.366265864482408721e-01,-1.891465831902524458e-02,-1.667681828167439512e-02,-5.901474460093494162e-02,1.311693638563156128e-01
5.273798584165602099e-01,4.312814325707111651e-01,4.365352416504022504e-01,-1.623537565267600333e-02,-1.644777586323262555e-02,-6.058189521251119286e-02,1.461864411830902100e-01
4.550788153536901026e-01,4.758195833690085919e-01,4.409047766551987269e-01,-3.682774173104808729e-02,-3.665066831889856463e-02,-2.806566783637370194e-02,1.067088097333908081e-01
4.974680208476467969e-01,4.446611484113691115e-01,4.069404745100691501e-01,-7.458726123124133356e-02,-5.471090502468793637e-02,-9.086564153126130972e-02,2.379971593618392944e-01
5.080640454218394719e-01,4.420572607280068289e-01,4.297801502731511403e-01,-2.531930889882865257e-03,2.459975904637271438e-04,-9.279407262502288936e-03,7.480461895465850830e-02
5.114732984359362522e-01,4.466934651817950908e-01,4.276315087215680766e-01,7.040291675563977976e-05,-8.197308452557460628e-03,-2.789425611179643591e-02,9.127149730920791626e-02
5.084266818675405863e-01,4.503453330468039084e-01,4.182310738515894744e-01,5.183267248726366842e-04,4.396967957069224109e-03,-5.692790536395245585e-03,8.016256988048553467e-02
4.788687291763578657e-01,4.892020800470155972e-01,4.489823655962726368e-01,-1.199211204521049255e-02,2.437257118586844476e-02,3.295560457094472845e-02,8.234387636184692383e-02
4.784397526624843966e-01,4.566703765088075406e-01,4.448039482271263778e-01,-1.742255678205044400e-02,2.375596081467356777e-02,3.123452629839162595e-02,8.002188801765441895e-02
4.850143523646625043e-01,4.708294525130924946e-01,4.623568573073637555e-01,-9.438569657078604153e-03,1.416200398891824010e-02,1.612590244263257047e-02,4.519137367606163025e-02
4.600767716322028966e-01,4.748399848425970959e-01,4.631641165216086597e-01,6.251483668598432431e-04,1.758162188397752439e-03,1.157254437843999477e-03,1.401315722614526749e-02
4.872651231529078752e-01,4.878477898651209510e-01,4.593282397442985387e-01,-5.934233973838752389e-03,1.457372380764544902e-02,1.385139246508309413e-02,4.599452018737792969e-02
4.245387726726049804e-01,4.786667313809616076e-01,4.573384546762960245e-01,-3.648603086825958144e-03,-5.627970263530204971e-03,-1.202364471903943563e-02,5.290499329566955566e-02
4.151489614398345962e-01,4.772997207588164370e-01,4.705566538050667269e-01,-6.687897535585879405e-03,-5.852991293602555559e-03,-1.466523497874202241e-02,6.611552834510803223e-02
4.201813433816777299e-01,4.510691152065968712e-01,4.784809587925825669e-01,-2.860127927196205733e-02,-1.891277695803027237e-02,-2.114769274839192401e-02,8.614527434110641479e-02
4.407684691555714962e-01,4.581156592802045346e-01,4.647334407870480910e-01,-1.654779422315617865e-02,-1.118739102420175137e-02,-1.411578417620883152e-02,4.747891798615455627e-02
3.200668286795816941e-01,5.145608335351762319e-01,5.897569193282685696e-01,-9.709713167437317161e-02,-5.795762809357639378e-03,2.957203480753882799e-02,2.985220253467559814e-01
4.082629197187515047e-01,4.772932193406188017e-01,4.784067254688357251e-01,-6.715825077588441668e-03,-6.380587809927856617e-03,-1.494548093529819884e-02,7.596599310636520386e-02
4.209662710281180664e-01,4.576534310584944865e-01,4.782260069963675253e-01,-8.344822422201407519e-03,-6.202365143350705920e-03,-1.352076646215236676e-02,5.828102305531501770e-02
4.976353044652812585e-01,4.813576276228006545e-01,4.195359420970295461e-01,-3.760804143152205598e-02,-4.469023367712932071e-02,-6.537554636843687095e-02,1.677791029214859009e-01
5.286626345930439674e-01,4.469910765960030674e-01,3.931435160724610078e-01,-2.337665587790797167e-02,-2.050037624785649992e-02,-4.656184204770529717e-02,1.528784930706024170e-01
5.520164224666448405e-01,4.954464834895735414e-01,3.609395634683835175e-01,-3.156378149716768805e-02,-6.758697518295329887e-02,-9.152740944158872793e-02,2.659434676170349121e-01
5.306917399607183894e-01,4.620536020864807192e-01,3.898027183941755736e-01,-1.569248124619855925e-02,-5.632614918362724432e-02,-1.121840391946049426e-01,2.508046925067901611e-01
4.877270125408894597e-01,4.643184753615574589e-01,3.887082179585518715e-01,-2.535790221737638933e-02,-3.901262224672199380e-02,-5.223386271750948134e-02,1.507147997617721558e-01
4.278366489901585523e-01,5.328270153043731527e-01,4.033900961530736407e-01,-1.615914867308366684e-02,-7.886101873948800356e-02,-3.518035570008713753e-02,1.932376027107238770e-01
4.639958753496489785e-01,5.381494192964714207e-01,3.897849314832096956e-01,-3.022979361905089174e-02,-8.652659570340073825e-02,-3.514642979973316844e-02,2.131124287843704224e-01
4.531248257792112599e-01,4.982650754992422049e-01,4.235114627422094657e-01,-4.886728373558291844e-02,-6.333957229380034193e-02,-3.313269917750123056e-02,1.635371893644332886e-01
4.005868254133786999e-01,5.269448080923000433e-01,4.382736661626994712e-01,-3.317713417147170191e-02,-1.060720034969586251e-01,-5.859616661537012106e-02,2.449104189872741699e-01
4.098652523977828754e-01,5.193805801537890732e-01,4.381291343964094920e-01,-3.182524042800272124e-02,-5.857742932583719087e-02,-2.234804149163372583e-02,1.566139012575149536e-01
4.456064389107630141e-01,4.996485373345285197e-01,4.193448259060493233e-01,-2.273625532269652610e-02,-5.982332661503225041e-02,-3.417477691284901559e-02,1.442931145429611206e-01
4.522859214104121839e-01,3.709925666642492903e-01,5.390322658824872049e-01,-7.907412476509612098e-02,9.411278785879459083e-03,-1.235139128280540038e-02,2.016605585813522339e-01
4.786479738107325965e-01,3.882178980285279635e-01,5.220355734680889315e-01,-4.668879466382554883e-02,-9.863528332802231832e-03,-1.381734059238463354e-02,1.462456136941909790e-01
4.252149169762778347e-01,3.960409407609953303e-01,5.391368747412914608e-01,-8.572991104597506296e-02,-8.797265443476030497e-03,-8.429510240036256798e-04,1.985851228237152100e-01
4.314452171302143868e-01,5.044353062166417878e-01,4.279876572368360166e-01,-7.738744284694807317e-03,-1.900184065326966307e-02,-1.028192997943555044e-02,8.468709141016006470e-02
4.283599432129468476e-01,4.377779898619701959e-01,5.206537967291079427e-01,-5.929915055106105282e-02,-8.652310276353058355e-03,-7.774226000978848479e-03,1.367212384939193726e-01
4.939554697981495268e-01,4.796256699514028776e-01,3.795906427604821554e-01,3.625364415687640229e-02,4.668042269046390053e-02,-4.730225734449763908e-02,1.698190420866012573e-01
4.805687064080274573e-01,4.763268306387329898e-01,4.714709804636968982e-01,1.488642065581284764e-02,1.773756226327516047e-02,-1.203571587359117921e-02,4.588492214679718018e-02
4.931061824028267759e-01,5.065139768580471102e-01,4.049439113785884281e-01,3.080485702547700391e-02,5.564444821342208469e-02,-7.434619364421983512e-02,1.945564597845077515e-01
5.788737787518852818e-01,3.683293651795665480e-01,4.384071264001057067e-01,3.810360298587699840e-02,4.583981199042014981e-02,-1.168622624493662332e-01,2.934539914131164551e-01
4.604689596527147821e-01,4.779977114478348166e-01,4.676254608184100547e-01,8.926046423199192684e-03,-8.631379348108659741e-03,1.021650545614877920e-02,3.175978735089302063e-02
4.660610260319373865e-01,4.719230171563584819e-01,4.588940861655760872e-01,1.267466731920860977e-02,-9.069127170410102440e-03,7.755244253161154913e-03,3.220032155513763428e-02
4.710059251902336541e-01,4.602411397883204858e-01,4.573015243213284231e-01,9.211389710542887063e-03,-8.224247480926271531e-03,1.155177126028632609e-02,3.184274584054946899e-02
4.615352055686459121e-01,4.699581817228873359e-01,4.595765989476581215e-01,4.622141804326004855e-03,-8.610366725756921080e-03,5.071125693287705134e-03,2.132924646139144897e-02
4.484052862240854864e-01,4.841376720362141062e-01,4.663254899347175630e-01,1.296589790938909408e-02,-1.446839341998687641e-02,1.616959002727603664e-02,5.361267551779747009e-02
4.676050308077980833e-01,4.732228979222926069e-01,4.466975543616101274e-01,8.340161518162598348e-03,-1.320944310737733052e-02,2.346235440268027231e-03,3.653486073017120361e-02
4.640728733165543907e-01,4.743827127679633993e-01,4.555769536249915652e-01,7.405155413578267190e-03,-4.259049107595501947e-03,4.514228709593955113e-03,2.336936630308628082e-02
4.666779191311833941e-01,4.824750028041774885e-01,4.479739149946556642e-01,1.487144929087041816e-02,-1.621264617329690183e-02,9.997738873085188285e-03,5.144657939672470093e-02
5.571462175883350465e-01,5.631549073834927199e-01,2.883305421576060068e-01,5.799310455745367889e-03,8.537437240978670849e-02,9.568119743093322915e-02,3.512052297592163086e-01
5.853759588550235815e-01,5.929726669966496333e-01,3.069534608607477066e-01,2.828858045022879589e-02,-1.363127362260936441e-02,2.857306631316330892e-02,2.917178869247436523e-01
5.711549072729457110e-01,5.433873743458361716e-01,1.732375689876769487e-01,1.233995078386252928e-02,-3.449363393297493613e-02,7.294528896672783369e-02,4.099382460117340088e-01
5.774870433127217151e-01,5.473696606555116251e-01,2.985156546971992064e-01,1.115003598256745880e-02,-8.617764307003734914e-03,4.194443383349663601e-02,2.760506868362426758e-01
4.770421551320377374e-01,4.747524697188431064e-01,4.576552783525514312e-01,1.259881681050952114e-02,1.231970601297502355e-02,-7.159352974385994536e-03,3.770926594734191895e-02
4.415472159472106362e-01,5.074228150598484310e-01,4.124980780620145504e-01,-6.855108446874819215e-04,-1.798916499628180551e-02,-4.336959536321942192e-03,9.014290571212768555e-02
4.628980784874262566e-01,4.864520281438742266e-01,4.709001964694735642e-01,1.348780277326300410e-02,1.848992549442134842e-02,-1.170315047467527028e-02,4.911849647760391235e-02
4.614970778803237361e-01,4.854923809476843766e-01,4.465403568055278383e-01,1.349846764425960237e-02,1.437004073140527895e-02,-1.097070858448087084e-02,5.182237550616264343e-02
4.813832396017958537e-01,4.697539489993554085e-01,4.682626630340002150e-01,3.767355456903768995e-02,3.765370599885643765e-02,-1.621768241210709560e-02,9.723754972219467163e-02
4.805490505449711014e-01,4.873554123979957353e-01,4.689487069025072841e-01,2.719823195373840402e-02,3.675673392591181227e-02,-2.046948942711505903e-02,8.825675398111343384e-02
4.607133904794701862e-01,4.725106455975356390e-01,4.568462816861300624e-01,1.064484510483204062e-02,1.041195744287564881e-02,-9.100642731607653732e-03,3.336736187338829041e-02
4.424807361111539605e-01,4.440831430429308391e-01,4.038550519830514940e-01,-7.962292662325995418e-02,-9.786811135324857691e-02,-9.474986731548708241e-02,2.761212587356567383e-01
5.079322504664682825e-01,4.349281697297366911e-01,3.960083941909846583e-01,-4.997709640208508608e-02,-5.491837798314059410e-02,-7.842513183910541918e-02,2.113725841045379639e-01
4.994132713061576467e-01,4.375833704161416482e-01,3.808785922484427822e-01,-6.864195620268545572e-02,-1.019565995903623512e-01,-1.094756382406557593e-01,3.030177652835845947e-01
4.672599371229879117e-01,4.244462414724728960e-01,4.203728919411132137e-01,-5.516890800635623759e-02,-4.741620669914348857e-02,-6.456725912683355939e-02,1.743746250867843628e-01
4.816003918436741471e-01,4.501265757219429786e-01,4.444214049797320376e-01,-3.167554820643467967e-02,-2.959103224790815209e-02,-4.018087896625148481e-02,1.080885380506515503e-01
4.583330879870318730e-01,5.190540997755661579e-01,4.323460240150374667e-01,3.758770789529163221e-03,-2.776275644794284556e-02,-1.696268083928827988e-03,9.112441539764404297e-02
4.509720224206196781e-01,4.640258157545579798e-01,4.094139586376533968e-01,-4.390742706903982134e-02,-5.996460487558097352e-02,-5.388742556935144368e-02,1.665003746747970581e-01
3.046839757621406797e-01,5.019049016034419219e-01,6.824543882354128232e-01,-2.025835289012431761e-01,-5.522915837993776916e-02,-1.006870463275912238e-02,4.895687103271484375e-01
5.084331999495739218e-01,4.384150856262608587e-01,3.848372969225805074e-01,-9.365450395157308774e-03,-1.789559974246441795e-02,-4.728173337298433726e-02,1.394815742969512939e-01
4.984357491769833004e-01,4.459129060662871402e-01,4.144923420116361501e-01,-2.351474228374284686e-02,-2.276975782432791653e-02,-3.324366761655971059e-02,1.092054843902587891e-01
4.958904697052061161e-01,4.546892997923066004e-01,4.324964061321610043e-01,-1.457553624546598266e-02,-1.551720933756682921e-02,-2.056505052199414027e-02,7.571583986282348633e-02
5.209453031892858910e-01,4.243582728569622042e-01,4.387685517277487568e-01,-1.617576200373429737e-02,-1.807846108708205043e-02,-6.265015048006029874e-02,1.472597867250442505e-01
4.988703669866977886e-01,4.145658873551048007e-01,4.289727469104544499e-01,-2.237857067200955952e-02,-2.258356811736711434e-02,-4.122864426807819338e-02,1.192983537912368774e-01
4.682677360760672536e-01,5.144339987340587061e-01,3.955304042323790625e-01,-3.420465940512939368e-03,-8.784248804299843449e-03,-2.410232074813015157e-03,1.051858812570571899e-01
4.956042763790483585e-01,4.295320596185357997e-01,4.330337810028281331e-01,-1.252551903049393608e-02,-1.459774923882172122e-02,-2.001920833083602885e-02,8.036596328020095825e-02
5.033034475290797394e-01,4.242365383176893712e-01,4.486811623908875668e-01,-5.374425176181891507e-03,-9.444888904425808793e-03,-2.607505969840880067e-02,8.550059795379638672e-02
4.350197441424494271e-01,4.391000854562788769e-01,5.045377319781900738e-01,-1.945039670691952032e-03,6.313316426091751315e-04,-5.192326419225753217e-04,6.766902655363082886e-02
5.042684481565298249e-01,4.393370275015154314e-01,4.363894785890919947e-01,-2.767291906817597423e-03,-1.671808698081859567e-03,-1.033219696029686295e-02,6.904916465282440186e-02
5.052777656228574221e-01,4.342106032285127371e-01,4.303792454354097852e-01,-3.427450764079103662e-03,-1.796706756715948060e-03,-9.077396411109300844e-03,7.503084838390350342e-02
5.055361554016899461e-01,4.476319195728907241e-01,4.248418360747120981e-01,-3.926068329365192677e-03,-1.873255016964638347e-03,-6.418365687961414059e-03,7.329588383436203003e-02
5.103613865491574142e-01,4.341283436934761930e-01,4.019964781079198302e-01,1.070678419037062075e-02,7.239738315110766376e-03,-4.394465812819929595e-02,1.248518675565719604e-01
4.134867118277517073e-01,4.559769920797251963e-01,5.024639842603416673e-01,-1.728477303543538360e-02,-7.147044962397772552e-03,-1.297062189592531646e-02,8.657916635274887085e-02
5.093042022623813780e-01,4.530381425422954078e-01,4.119308105497615502e-01,2.220852852622643976e-04,-2.019223364284942167e-03,-2.231115220347954300e-02,9.313631057739257812e-02
5.179382458392397526e-01,4.536918613192270078e-01,4.154709839270178118e-01,1.654673196157452862e-03,2.988052864347357299e-03,-2.147671805483142293e-02,9.727658331394195557e-02
4.611605217828686487e-01,4.637920915476589356e-01,4.809796735003316615e-01,-5.699802313813646416e-03,1.329151991403143378e-02,1.583501470366223754e-02,4.156041890382766724e-02
4.564615914055727974e-01,4.760315003363992381e-01,4.614861465926382023e-01,-8.703408564321300778e-03,9.141974503801476859e-03,8.527351630377625821e-03,3.171781077980995178e-02
4.688283436240035518e-01,4.634442007390279783e-01,4.491081345370039335e-01,-1.409543965342083434e-02,2.214229454975168501e-02,2.310992935095256343e-02,6.309352815151214600e-02
4.754956995592329871e-01,4.739347160501558021e-01,4.820348904485884933e-01,-1.913388621060503614e-02,3.431908786657016791e-02,3.122021843642107733e-02,8.724234998226165771e-02
4.626839675023003973e-01,4.639521150728201371e-01,4.703038957678117304e-01,-3.034931735205441752e-02,2.238997087916594353e-02,2.199700121027699934e-02,7.595253735780715942e-02
4.408549965386623914e-01,4.352516261324052560e-01,5.045493731154379047e-01,-2.904255672372107761e-03,7.400015931190390226e-05,2.297093812106499396e-04,6.686369329690933228e-02
4.770561718269593077e-01,4.639410202492497137e-01,4.617626725383129904e-01,6.216885559891177811e-03,-5.578872905426653268e-03,5.628895791003835428e-03,2.257644012570381165e-02
4.622426110650974529e-01,4.773422640737414735e-01,4.648015679402686673e-01,5.973322634782896046e-03,-5.474475857096053333e-03,7.155754863978097680e-03,2.337679080665111542e-02
4.537929207038811641e-01,4.279748836400018019e-01,4.528565097398072337e-01,-2.625234883824898238e-02,-2.726184467871732575e-02,-2.473827406267257653e-02,8.231889456510543823e-02
4.658366486865358480e-01,4.687769508986965872e-01,4.633454991483301200e-01,3.466497995969537987e-03,-2.065034389598650530e-03,2.043713201536108935e-03,9.140522219240665436e-03
4.654625897461860951e-01,4.745616378878595998e-01,4.605338903694137787e-01,3.985489204585036457e-03,-8.418935628145918313e-04,1.869438526490543829e-03,1.456689275801181793e-02
5.193128378207064744e-01,4.540158072057262073e-01,4.248956079897793225e-01,-1.005881837456594138e-02,9.288534434873919193e-03,4.722597914587663842e-02,1.194420382380485535e-01
4.949708743564553148e-01,4.645622560962345271e-01,4.488626757254333688e-01,-9.668831387583457643e-03,1.120476183242462807e-02,2.570960659989824856e-02,6.548751145601272583e-02
5.123546995936097970e-01,4.445169251139741151e-01,4.459057008285157719e-01,-2.065892445668219939e-03,1.432734678497693190e-02,2.558798349555854029e-02,8.427655696868896484e-02
5.103470500939999432e-01,4.298312502277518155e-01,4.700946093404244630e-01,-1.549166062646576553e-02,1.586183634179745214e-02,3.020832826920955699e-02,9.526013582944869995e-02
5.136698846939233842e-01,4.485280719358481494e-01,4.703628071232601182e-01,-1.119693636291131710e-03,1.701730041186168621e-02,3.312168213272277673e-02,8.638010174036026001e-02
4.933615731867478926e-01,4.464551069541466410e-01,4.690279007055186966e-01,-9.341718004931177585e-03,1.604791124020609958e-02,1.825648952216743157e-02,6.070622056722640991e-02
4.426371176544361408e-01,5.217289814340305698e-01,4.304134110598177299e-01,-2.688287040204145537e-02,-5.822873080849415989e-02,-3.230633491786304157e-02,1.511378735303878784e-01
5.073423990385883542e-01,4.558702506806312504e-01,4.478365986472621074e-01,1.103753798724802946e-03,2.933336164729636044e-05,6.665780209795321362e-03,5.713480710983276367e-02
5.063308597665139299e-01,4.447841450280510256e-01,4.389620850739944791e-01,1.030612574758754674e-03,4.509970296053551764e-03,2.585797396437713308e-02,7.905904948711395264e-02
4.982285428950510853e-01,4.558716748891126769e-01,4.593131379848552909e-01,-8.541587269654735397e-04,5.309107980168004462e-03,9.013666405397078793e-03,4.461687430739402771e-02
4.582096596650243048e-01,3.882348904674522427e-01,5.152254030953283825e-01,6.194466857586816699e-02,1.735781598140411983e-02,-6.499529342471932307e-03,1.570954024791717529e-01
4.831900572052863496e-01,4.164333760380874438e-01,5.026638929883479046e-01,2.980453043751239012e-02,1.715340735177050754e-02,-9.097987939075735664e-03,9.965772181749343872e-02
4.927688793384776278e-01,3.900484435293430363e-01,5.237254313447193832e-01,1.807716835979613496e-02,4.726310688415843488e-03,-7.416478001002612709e-03,1.261033117771148682e-01
5.025744389933193279e-01,3.903795536093855878e-01,5.162617374044549123e-01,1.745348752644785770e-02,1.360866909425516823e-02,9.301162325486660165e-03,1.266478300094604492e-01
4.707809965833805732e-01,4.295351603014209152e-01,5.049658668447895016e-01,9.881692005362581119e-03,5.160300290588620484e-03,-1.494469480609043454e-03,6.825934350490570068e-02
4.765960953145140788e-01,4.395140836304962662e-01,5.128523707412093735e-01,2.498896156737899499e-02,-2.723673227321860794e-03,-1.593632485601897660e-03,7.705366611480712891e-02
4.716002564846707434e-01,4.283366219344192927e-01,5.043434008339504615e-01,8.626853379731973595e-03,6.327102800494014204e-03,-8.809177364070226507e-04,6.860128045082092285e-02
4.535721716873246656e-01,4.468507252223292148e-01,4.620241542461884787e-01,-1.059779465522632871e-02,-1.197600152074933255e-02,-1.010638294084111564e-02,3.531365096569061279e-02
5.200331277632643801e-01,3.961661951649848579e-01,5.035407630741730589e-01,3.580194599417732548e-02,2.712018544082048233e-02,-2.929482333651886941e-02,1.489918380975723267e-01
4.947594306536111652e-01,4.268176991952924992e-01,5.099561039371817150e-01,2.800031208546874609e-02,1.659461863858611649e-02,-1.604416665938773745e-02,9.914609789848327637e-02
5.384657351605769415e-01,3.956770701054866946e-01,4.652302620178551673e-01,7.177502818112645178e-02,2.196690686151946126e-02,-8.165994588845040814e-02,2.284786254167556763e-01
4.791768536168998227e-01,4.264016434987362159e-01,4.769111494130267581e-01,2.982006482797395011e-02,2.153408939201581149e-02,-2.044269395660871028e-02,8.934962004423141479e-02
4.545156284079983622e-01,4.281761021866097860e-01,4.783502309324002555e-01,7.032621477495648588e-02,5.628466157569597672e-02,-4.094683567963604276e-02,1.768072396516799927e-01
4.783294617595788001e-01,4.549902436681531603e-01,5.009252136258512955e-01,4.737960922377363465e-02,3.458921394593510862e-02,-1.927940181761388788e-02,1.141116246581077576e-01
4.196459111655689300e-01,4.694686409417421769e-01,5.121081294163597475e-01,2.912723959983231151e-02,-1.338100562079243619e-02,1.658101468764002981e-02,1.016463413834571838e-01
4.275551344744148441e-01,5.111085783805724425e-01,5.117532361361154525e-01,4.800400474066222195e-02,-4.007821250022799292e-02,4.056661018047889866e-02,1.539621651172637939e-01
4.299848925282251377e-01,5.109662415452481676e-01,5.019516455114402254e-01,4.728624670009511782e-02,-3.946383857728832933e-02,3.924253457546984097e-02,1.480179280042648315e-01
3.960235996220881072e-01,5.173142550758184077e-01,5.181503101283803092e-01,3.097876002439147944e-02,-2.597197744738422714e-02,2.768055461479219242e-02,1.483740210533142090e-01
4.598701915841015841e-01,4.719587229670031414e-01,4.908189565882773997e-01,5.842259159554986925e-02,-5.476755886648311533e-02,6.698546090899834549e-02,1.828361153602600098e-01
4.702971687001958889e-01,4.660389985021917703e-01,5.130648797208358092e-01,6.183988285653074790e-02,-1.297066855157703348e-02,4.565320163596137820e-02,1.423347890377044678e-01
4.154564053559770542e-01,4.458023236215456486e-01,5.215392113733868795e-01,9.168478639081897863e-02,-3.289603972449978847e-02,5.789220203902787493e-02,2.178864926099777222e-01
4.442942350788711692e-01,4.627355089470002181e-01,4.831072516011122864e-01,2.536947344270503585e-02,2.363918499981900595e-02,-1.721428502405561445e-02,7.501351833343505859e-02
4.882893856791356013e-01,4.655945101813828146e-01,4.450167361460672377e-01,1.931279225403731425e-02,1.783004898623238160e-02,-1.771223786646007256e-02,6.647831201553344727e-02
4.283933546054096708e-01,4.365749206889913969e-01,4.664289924713129754e-01,-5.875025672481608979e-02,-4.399933797126387436e-02,-5.244058347113740581e-02,1.600471884012222290e-01
4.796973769371125629e-01,3.915092158473179595e-01,4.811534453366860808e-01,-4.792192014479570994e-02,-3.025194199981514828e-02,-3.774017747520623522e-02,1.477014422416687012e-01
4.735312516681702277e-01,3.999254408674576267e-01,5.160467937163480956e-01,-4.530604161558041826e-02,-2.131879773732894834e-02,-2.595923017653272921e-02,1.410595923662185669e-01
4.371186332547161713e-01,4.061052196512654477e-01,4.971893915396179420e-01,-4.101492424056200903e-02,-2.286173218480521893e-02,-2.401945641545697244e-02,1.215680018067359924e-01
4.235619499101530017e-01,5.007989885437429400e-01,4.403703183956441114e-01,-9.510547387801557631e-03,-2.472370773764101873e-02,-8.361368965426356145e-03,8.523336797952651978e-02
4.358161337760050325e-01,5.033957090369858278e-01,4.365958774349711358e-01,7.124383424164125456e-03,-2.026373518967208853e-02,7.853214082550984132e-03,7.800037413835525513e-02
4.647733946772791835e-01,5.426050180530015421e-01,3.719864637744354496e-01,-1.863241866549994463e-02,-1.188000068056902225e-01,-4.647821576742640522e-03,2.556082308292388916e-01
4.451213276060812518e-01,5.094795267171855491e-01,4.462307587635799266e-01,1.224105990522240950e-02,-2.726120490314085792e-02,1.272421875758109923e-02,8.506806194782257080e-02
4.399586255571868998e-01,5.056848205465120927e-01,4.134138129803572870e-01,2.130631930304116572e-02,-5.706374527423753451e-02,2.110876901885557627e-02,1.386963576078414917e-01
4.360536654238557075e-01,5.076304910767260870e-01,4.457854541831889339e-01,7.352584604883439894e-03,-1.880089027920875747e-02,1.433364319039654756e-02,7.975174486637115479e-02
4.555617528880396283e-01,5.080480578535931935e-01,4.235939892292217568e-01,-4.438437518893978938e-03,-3.006235038044824739e-02,4.776429413983197987e-03,9.106808900833129883e-02
4.564710484112181610e-01,4.985009505049364797e-01,4.448536662164309097e-01,1.744797058478942536e-02,-2.428524066901326106e-02,1.945262061235580181e-02,7.878819853067398071e-02
4.060985227883668891e-01,5.374694630556471342e-01,4.304078799863801374e-01,1.059533539800076689e-02,-5.429065454201582874e-02,-1.191702287510473107e-03,1.543994694948196411e-01
3.993457829693324856e-01,4.691071552286904534e-01,5.024824422088502995e-01,-8.171066426100211805e-03,-7.634547084885672484e-03,-1.115740153684922041e-02,9.517082571983337402e-02
4.856857584096002656e-01,5.113184527991512240e-01,4.291133395073980505e-01,2.709123301005702741e-02,-2.239892619426247719e-02,2.476767172049378074e-02,1.041865199804306030e-01
4.482864006300290582e-01,4.403673663509724556e-01,4.821173882557852064e-01,-7.604266684611100599e-03,-5.502473142805265789e-03,-5.328107970543016943e-03,4.271566495299339294e-02
4.841182942893222374e-01,5.175815112581506616e-01,4.135182592273229929e-01,1.016088479690841276e-02,-3.266409677138312762e-02,1.381922566956269097e-02,1.120273619890213013e-01
3.394385737924469071e-01,4.356481619306093456e-01,7.363803556763441893e-01,-2.448585622039915755e-01,9.614801880869765227e-02,8.239797356453321120e-02,5.971584320068359375e-01
4.681405727904979774e-01,4.961056495542705003e-01,4.124485185218056404e-01,5.800236529586047518e-02,-7.692423382340103644e-02,3.354120525322947660e-02,1.914705187082290649e-01
4.769850380334532125e-01,5.736174785593224357e-01,4.173097566009938975e-01,2.308497909478112939e-02,-7.524010502879811824e-02,3.533608973989010166e-02,2.024683207273483276e-01
5.108924588055325788e-01,4.370234871329611859e-01,4.908518176273458655e-01,3.442150658443895311e-02,3.562805848482879234e-02,-6.566965236927628513e-02,1.570922583341598511e-01
5.255712169597278605e-01,4.173410294058298442e-01,3.852085178336054905e-01,2.250726684010506684e-02,2.584986359284646359e-02,-8.938387598935158829e-02,2.090855985879898071e-01
5.397624151504120116e-01,3.719740449436785834e-01,4.938316785503148454e-01,4.020547651417633039e-02,3.420139266500952374e-02,-4.616069026572474504e-02,1.931502074003219604e-01
5.098604374265521821e-01,4.061185016872710385e-01,4.493101283698023862e-01,9.730427479444414551e-03,1.199493250661327545e-02,-3.629264962273890532e-02,1.132001355290412903e-01
5.563653346952416312e-01,3.597025453120059613e-01,5.110800673286157725e-01,4.841643510535250522e-02,4.392193072428712125e-02,-8.714063013111666978e-02,2.596563398838043213e-01
3.739966719410101614e-01,4.897311237007669349e-01,5.059714716781517074e-01,-9.611869033276079777e-02,-8.740046801583763181e-02,-6.412118431050121969e-02,2.801879644393920898e-01
5.135582382718384409e-01,3.984708480527735519e-01,4.790889518962409555e-01,3.480150684026665775e-02,3.362807532518578141e-02,-4.613076792865027781e-02,1.545198410749435425e-01
3.623344929220457811e-01,4.705290770479102491e-01,5.180147258911623753e-01,-7.172885393181741009e-02,-3.713502448526360272e-02,-2.035345433158777112e-02,1.997837573289871216e-01
3.755952271246721930e-01,4.734056588713173586e-01,5.107976788606651830e-01,-1.007865036426572186e-01,-5.873690589249427191e-02,-2.339366661695491470e-02,2.389309406280517578e-01
3.229510683194952714e-01,4.783553487406732030e-01,5.380721225108434647e-01,-1.111038513562048330e-01,-1.725151285640164067e-02,-1.230508225417109580e-02,2.745471000671386719e-01
5.079983871822332242e-01,4.276057836974972992e-01,4.577544938869684277e-01,2.068943408998716663e-02,-1.287666040312310765e-02,4.235271346919594615e-02,1.100500896573066711e-01
5.070972991398151608e-01,4.815833324247243419e-01,3.943487036194175399e-01,2.465489637477439808e-02,-2.503238704119608790e-02,6.484145387385982506e-02,1.637169569730758667e-01
5.089682446016463579e-01,4.497726537976529104e-01,4.622991780993818134e-01,1.344521390945427677e-02,-5.626185029955672184e-03,3.027956145130938914e-02,7.941886037588119507e-02
4.995780889180492235e-01,4.573425216422596362e-01,4.537763274775005184e-01,9.381663682181120775e-03,-4.772989537908895429e-03,1.090698422491113116e-02,5.134646221995353699e-02
4.834363578921221372e-01,4.658072419724709201e-01,4.761655947541281741e-01,1.273729138109735287e-02,-7.249388670037962452e-03,1.649615479951150113e-02,4.118517413735389709e-02
5.082658221053369951e-01,4.723937880629618391e-01,4.190446180221686912e-01,2.528896451542423512e-02,-1.803409468510493857e-02,3.568157873927283591e-02,1.129623204469680786e-01
4.976393682721143574e-01,4.706881063101674423e-01,4.450653064386296265e-01,8.243106004279680821e-03,-1.210824071270281445e-02,1.904966625129731611e-02,6.169124320149421692e-02
4.838981665446828728e-01,4.732445874516198470e-01,4.644672392134236993e-01,2.111119102604723172e-02,-1.564917746317805169e-02,3.865151555852108095e-02,8.268982172012329102e-02
4.823353036575173669e-01,4.700666690121744762e-01,4.261967265255113824e-01,2.102490447088369019e-02,-1.780706315850967211e-02,3.163698784451048074e-02,8.884496241807937622e-02
3.831157358324104312e-01,4.726395745974947826e-01,5.013878380606863194e-01,-1.922234480593669123e-02,-1.062460702478050349e-02,-1.357455318222057679e-02,1.158213391900062561e-01
3.180035281704874373e-01,5.078644549652742146e-01,5.021432281225943761e-01,-4.451075221778128671e-02,-3.700770280660336392e-02,-7.748721044957753747e-03,2.126643508672714233e-01
3.706156124641102889e-01,4.248474785004172083e-01,5.030875474575620121e-01,-9.114204644426215918e-02,-5.562649070694856285e-02,-4.160035085326969223e-02,2.295670062303543091e-01
4.118406131672199266e-01,4.319079954060141002e-01,4.982816595016375527e-01,-4.003703730101224045e-02,-2.172609207130885012e-02,-2.164778614252923714e-02,1.173496991395950317e-01
3.917327973803057528e-01,4.828346848159661420e-01,4.708084217685097328e-01,-7.773460736621626288e-02,-7.592010856108545591e-02,-4.631083501493916260e-02,2.218157947063446045e-01
3.928464371968098945e-01,5.029935607335341841e-01,4.921056224552994296e-01,-3.094790649485104975e-02,-3.819419293503240748e-02,-1.966106836689206563e-02,1.395028382539749146e-01
4.284190782752074211e-01,4.580361370352360462e-01,4.908903030520975763e-01,-9.751746288460183196e-03,3.187013992781710832e-03,7.844725723088129613e-03,5.856611952185630798e-02
4.375918444191472245e-01,4.828312203008856551e-01,4.714018061289417250e-01,-6.137030835893527055e-03,8.930642455242460837e-03,1.224786921505285030e-02,4.962320625782012939e-02
4.805225068695129220e-01,4.751908795801549346e-01,4.332333370440242248e-01,2.234104275081776059e-02,-2.224349993241270945e-02,2.527913398428081188e-02,8.313455432653427124e-02
5.088796783402366186e-01,4.456144788238429744e-01,4.670011589105585448e-01,8.476015777707172905e-03,-8.592351304950670426e-03,2.412938019380499871e-02,7.273608446121215820e-02
5.200363968123593583e-01,4.790725940095600932e-01,4.235487459102500463e-01,3.813029430337520898e-02,-4.552616025690158115e-03,5.443005321748959485e-02,1.426437050104141235e-01
4.920881530007449878e-01,4.621802472037784271e-01,4.539462481147327200e-01,1.471153492387684489e-02,-7.736467258800837007e-03,1.188657280013742483e-02,4.961110278964042664e-02
4.924944204924738278e-01,4.761592338567501304e-01,4.559265202073427559e-01,1.513929720606343836e-02,-7.521508090046476018e-03,1.588623794017033491e-02,5.119705200195312500e-02
5.069686344411934442e-01,4.372444044289471310e-01,4.477425275780976821e-01,1.878705619352528597e-02,-1.401022998978709508e-02,3.499489919828711881e-02,9.778217971324920654e-02
4.925254643530498910e-01,4.625640838169480240e-01,4.685928108202598863e-01,1.419610316703281104e-02,-8.740500061795889591e-03,1.346729671780214944e-02,4.616581276059150696e-02
4.743187393983899214e-01,4.805913543131142274e-01,4.441805928065420961e-01,2.107742066311634258e-02,2.747295848377834596e-02,-1.462461355284056658e-02,7.331711798906326294e-02
4.873557804361733914e-01,4.899813467222645103e-01,4.354601243446985515e-01,3.369341500907135911e-02,3.211114893981520391e-02,-1.620697507823649908e-02,1.006152182817459106e-01
4.352393633045643084e-01,4.136216336135133953e-01,5.104264648599029508e-01,-4.596514828597066810e-02,1.314909364524275738e-02,1.304510364510449300e-02,1.229365915060043335e-01
4.396820437979880869e-01,4.400759596203349666e-01,5.397072125568824763e-01,-5.969017451395964430e-02,5.793249197207304621e-03,6.276556952474876723e-03,1.444763243198394775e-01
4.355790453356518932e-01,4.601617901580252745e-01,5.121394880655381066e-01,-1.646702783615000901e-02,9.791163369175051936e-03,1.239582157036810822e-02,7.839518785476684570e-02
2.966615895550788196e-01,4.127464611570890174e-01,6.623498474482756304e-01,-2.202327973886449297e-01,-4.538560793701433560e-02,3.607452933726160160e-02,5.102390050888061523e-01
2.897486567145750591e-01,4.767967798780808897e-01,5.221442593985100578e-01,-1.285045298260713564e-01,1.128713342130285152e-01,7.389339581623723119e-02,3.868673145771026611e-01
3.672591547313714955e-01,5.130027070961179492e-01,5.368729134489521604e-01,-2.035160779281102172e-01,6.462261623559520385e-02,4.603413216819231962e-02,4.104046225547790527e-01
4.797463969404726081e-01,3.954056792129149178e-01,5.773719725665285019e-01,-9.516224852210633522e-02,2.197335940551713510e-02,2.892189517619334072e-02,2.366503626108169556e-01
4.023841368617076530e-01,2.513445597355359329e-01,5.764699769876283630e-01,-1.954377223942098396e-01,-1.431890679235615221e-02,-7.999223707352389953e-03,4.413699805736541748e-01
3.897273069555044489e-01,2.733209904531236356e-01,5.855711271594850054e-01,-1.917736037855981013e-01,-2.317795812118086940e-02,-2.392399090689574515e-02,4.340077936649322510e-01
3.769352720998062622e-01,4.796307192973229827e-01,6.127062616507660264e-01,-1.055902409161312699e-01,2.818385259383627411e-02,2.362321936107719678e-02,2.818275392055511475e-01
4.788337708870141207e-01,3.939711670957327105e-01,5.625221369196602428e-01,-9.594424359939585090e-02,2.561494060969416592e-02,3.178999443185240997e-02,2.322143316268920898e-01
4.957001341322232468e-01,4.603440911856451767e-01,4.505967044576135172e-01,-3.784779285313520474e-03,3.187233919547099309e-03,7.085867772640803801e-03,4.374663531780242920e-02
5.129262586999275841e-01,4.665196637930860701e-01,4.400979814000953727e-01,-4.529299740901139570e-03,1.570086506037798521e-02,2.479718432399291919e-02,8.199764788150787354e-02
4.842204170213911252e-01,4.707532349589815812e-01,4.480800742341473075e-01,-9.156559380387063740e-03,4.779635083834238123e-03,7.478063854899959055e-03,3.858247771859169006e-02
4.901889455053261568e-01,4.558177179604480656e-01,4.700023784753068479e-01,-7.585867204165138399e-03,1.158678803364971907e-02,1.311704487218387158e-02,4.457139596343040466e-02
4.831191789209806631e-01,4.275984155465826220e-01,4.627143394230644469e-01,-1.971049137163806073e-02,1.718599211164298715e-02,2.519885783669103402e-02,7.951448112726211548e-02
5.081353783421790338e-01,4.089327612592583150e-01,4.573260406414947354e-01,-2.326458837309722943e-02,2.942105874205322089e-02,5.089992995293468603e-02,1.391950249671936035e-01
4.978383198399902176e-01,4.579051784859233254e-01,4.597931971877734503e-01,-1.464399274270212136e-03,6.241907557197246340e-03,7.755265947688180436e-03,4.273846000432968140e-02
4.900452171890303243e-01,4.722126331281806810e-01,4.655194234065201941e-01,-6.431952799073146522e-03,1.364537323363282199e-02,1.218061654240653116e-02,4.012428596615791321e-02
5.049180318984969329e-01,4.681528916789929884e-01,4.541902884366783577e-01,-6.688170651018826747e-03,1.273222579645044185e-02,2.318458120272313960e-02,6.552148610353469849e-02
5.054142861999302294e-01,4.611735353345013388e-01,4.222180492341663927e-01,-1.084396718469317171e-02,1.536847278057934703e-02,3.936596571580852633e-02,1.044441312551498413e-01
5.151332182348955513e-01,4.485836289136254096e-01,4.469300405659180075e-01,-1.882608848775380516e-03,5.869158024731748087e-03,2.200699836367197779e-02,7.815705984830856323e-02
5.146005174325514187e-01,4.125393543348958025e-01,4.425395426747475436e-01,1.794192380176303642e-03,7.416961421081314475e-03,6.278683735696370671e-02,1.423231959342956543e-01
5.078137938054158029e-01,4.080640080363516775e-01,4.999612827787422442e-01,2.231095190910330900e-02,-1.812777934823486424e-03,4.436097754975033142e-02,1.289778202772140503e-01
4.524555974314002360e-01,4.299124455137955381e-01,5.076195565382776165e-01,-2.706691946270186819e-02,2.025758668097206797e-03,3.186974961005134381e-03,8.387766033411026001e-02
5.230077219416401357e-01,3.547150106140922743e-01,5.300597004187195260e-01,-6.000847804497381165e-04,7.150136825271567742e-03,1.679749360309332196e-02,1.748138517141342163e-01
5.370716048107715412e-01,3.884057454507464091e-01,5.122987089853310305e-01,5.607504246368651135e-02,-5.335661083719569694e-03,3.081863162034453180e-02,1.772014498710632324e-01
4.584947902369697625e-01,4.350886892077673318e-01,4.745021655897264656e-01,-2.388578862839203787e-02,2.091960227172062411e-02,2.226705755889972493e-02,7.543672621250152588e-02
5.152081395487463356e-01,4.011828791551654838e-01,5.157568495942306264e-01,2.050843012402859405e-02,-5.568498862868713831e-03,1.234015972941517568e-02,1.219683513045310974e-01
5.116947612351007146e-01,4.049525595022810398e-01,5.019501234108432186e-01,1.095825941908915371e-02,2.434633840298973916e-03,1.981835272842865509e-02,1.095674484968185425e-01
5.130909731965582754e-01,4.219415488739357567e-01,5.047396460262871809e-01,2.423167542414880055e-02,-6.515496221522070234e-05,6.814073194063656122e-03,9.755805134773254395e-02
5.051187856470442661e-01,4.257393526470226175e-01,5.084672064894495414e-01,5.984980002292032870e-03,3.988652386105627154e-03,3.245837953585579277e-02,9.946823120117187500e-02
4.843322199091071312e-01,4.381533055302392898e-01,4.382544304141120506e-01,-9.928577235419368957e-03,-1.107450791711829530e-02,-1.370879848227397370e-02,5.792486667633056641e-02
4.998046876884044143e-01,4.456878124103016980e-01,4.412628140979158453e-01,-5.502227119355152657e-03,-7.076669765417879093e-03,-9.300220039533749206e-03,6.073077768087387085e-02
4.377328407946520228e-01,4.083973493339444483e-01,5.116029735585466698e-01,-4.418540779424179332e-02,1.114764208646867177e-02,1.011154447348856789e-02,1.225600838661193848e-01
5.167881561892747611e-01,4.015388432321409518e-01,4.675117744629778138e-01,9.935403109579367051e-04,4.729709441200627591e-03,-1.128516716635529979e-02,1.023896187543869019e-01
4.588024343845780173e-01,4.427412487540716701e-01,4.963899573977332280e-01,-2.151216060777755984e-02,8.176719800002943059e-03,6.777971468450329565e-03,6.325505673885345459e-02
4.535352105648474685e-01,4.472110126197363367e-01,4.917782561540668951e-01,-1.298942448679385638e-02,1.425596874173354692e-02,1.239418818670662455e-02,5.762901902198791504e-02
4.468594194968171784e-01,4.248993653616657262e-01,5.118412562293883639e-01,-3.536897758958525845e-02,2.597574587365279394e-02,2.688885557083268291e-02,1.186508759856224060e-01
4.529169179379875509e-01,4.696819065604804222e-01,4.930760111191445083e-01,-1.211843198837937036e-02,1.435146840186251986e-02,1.544994804157395242e-02,5.472765862941741943e-02
4.375514087997535717e-01,4.617651185729327867e-01,4.924292073503931388e-01,-2.342612271029477500e-02,1.865312817359002229e-02,2.070128089246617981e-02,7.902453839778900146e-02
5.163921361808356814e-01,3.959078484808551956e-01,4.438436435716970330e-01,-1.475646081129936005e-02,-1.146313163649804491e-02,-4.675767296228738878e-02,1.365470737218856812e-01
5.083914758338933249e-01,4.285996607848557849e-01,4.296555483564418743e-01,-1.251944916768588968e-02,-3.084358704460797573e-03,-2.560668473681784740e-02,9.353851526975631714e-02
5.123426216235996700e-01,4.486928086174284402e-01,4.289594950955576969e-01,-2.780614648623324584e-03,-5.665538610496737709e-03,-2.834826363488874082e-02,9.070328623056411743e-02
4.942713885967999210e-01,4.454816601647090812e-01,3.907390109359171193e-01,-2.606667723319655919e-02,-3.399190329435748670e-02,-4.767508742829425911e-02,1.427290439605712891e-01
5.203095766705172487e-01,4.356404775575221100e-01,4.262619930564930382e-01,4.137353163988293642e-02,3.715428944994952909e-02,-5.862210661112340904e-02,1.662442982196807861e-01
5.397815738343113567e-01,4.341831854469369034e-01,3.348833583487793031e-01,-2.895518494900073750e-03,-4.671350893042582920e-03,-9.716760397733874288e-02,2.447705566883087158e-01
5.180719854747521946e-01,3.986084570465991406e-01,4.503775243052865473e-01,-6.767596139371822965e-03,-4.509592276855326626e-03,-7.140785823979123315e-02,1.620577424764633179e-01
5.263725117907600559e-01,4.793392285805154751e-01,3.856038011562606949e-01,2.418992650957834875e-02,2.399731024518007502e-02,-9.259014986342965770e-02,2.112084776163101196e-01
5.404663927580281024e-01,4.379264430446451750e-01,3.975991897282287746e-01,-5.188562461224722339e-03,-1.551566935527750853e-03,-1.115587768941372071e-01,2.317325025796890259e-01
5.967686519770654119e-01,3.779348772719102745e-01,2.488295760850693650e-01,5.644879673421737860e-03,-2.506790120781427888e-03,-2.170107355958926232e-01,4.839467108249664307e-01
5.777472918343016239e-01,3.631495443567961390e-01,2.548654329573628030e-01,-4.751461135453809853e-02,-7.039475428430440329e-02,-2.259567243002007508e-01,5.057901740074157715e-01
6.025766657861593156e-01,4.165110625163608304e-01,2.943880260233458501e-01,-8.903243792988700667e-02,-1.067531942626641639e-01,-1.808186674260093274e-01,4.778206348419189453e-01
5.772609355046889323e-01,3.597384181347538790e-01,3.790123280598735600e-01,-4.289008769634054807e-02,-4.238122804365679341e-02,-2.468821828120482398e-01,4.870879054069519043e-01
5.833381693391173073e-01,2.688881046992234181e-01,3.614565100958131993e-01,-4.530662328861007754e-02,-4.112782561146695326e-02,-2.172385248107860101e-01,4.807805120944976807e-01
4.522012358786391406e-01,4.711523793086422329e-01,5.103828566729392557e-01,3.064778644468774474e-02,-1.091214756159748604e-03,1.473028629906602410e-02,7.819216698408126831e-02
4.456228804169924396e-01,4.432982098571861540e-01,5.147119056665784287e-01,2.263957315034290790e-02,6.180049430715536980e-03,-2.575714933591368491e-03,8.131075650453567505e-02
4.425010817238942407e-01,4.420919612928150833e-01,5.058201661729425647e-01,2.374623821825349451e-02,1.628771540539550181e-03,1.129011689519454631e-03,7.575495541095733643e-02
4.079267901264165275e-01,4.453617299635957982e-01,5.143658748185236940e-01,5.549695941384583803e-02,9.404370440664607672e-03,-2.826072081898912784e-03,1.351855695247650146e-01
4.368340076641745173e-01,4.609759233296921721e-01,4.695137669624769305e-01,-2.331596859935436764e-02,2.281060469221906153e-02,2.237196440222656221e-02,7.453345507383346558e-02
4.038332733777290073e-01,5.085899833303350048e-01,4.539541960639449925e-01,-2.823170044174794311e-03,5.530104338762775740e-02,1.456862549195786678e-02,1.344278007745742798e-01
4.456553071974331814e-01,5.034888321315369453e-01,4.718611060825854131e-01,3.329600841541982418e-04,2.766961278445779701e-02,-2.817526495991131731e-03,6.954751908779144287e-02
4.693466342542375047e-01,5.436622780837978564e-01,4.552505813634907805e-01,7.883107802340817358e-03,6.952716239811609911e-02,1.951281941402915887e-02,1.503324061632156372e-01
4.702456545955815970e-01,5.165681169570562892e-01,4.425473686308975529e-01,2.436462403422892230e-03,2.513256050748870207e-02,2.468413755117457743e-03,7.827543467283248901e-02
4.709428599563701967e-01,5.044642190688055639e-01,4.417481886991205253e-01,-8.493148824884336407e-05,2.566557650879476918e-02,4.129500483655854440e-03,7.058329135179519653e-02
5.364783629167196866e-01,3.981842852586233161e-01,4.429151678590786956e-01,-2.525049718778304801e-03,-8.746592757875638197e-03,-4.845155356078137410e-02,1.491019278764724731e-01
5.172393928190496259e-01,4.428315473388908519e-01,3.991613417712931988e-01,2.562785658489189541e-03,2.044678928754178893e-03,-4.112834276837711717e-02,1.256975978612899780e-01
4.887095752078300936e-01,4.340647446886894967e-01,4.120350028741014969e-01,4.541302768468418599e-02,5.848766392705201378e-02,-7.355428082398529632e-02,1.932752579450607300e-01
5.273373786655112250e-01,4.616373841406106737e-01,3.534340646483112858e-01,2.956007117713116677e-03,1.005558974530735335e-03,-6.781193826433709604e-02,1.922447085380554199e-01
5.025283041882040447e-01,4.418966941779437496e-01,4.371219178060952726e-01,1.179575776106701890e-02,8.667951389625977443e-03,-2.177178265308238325e-02,7.780323922634124756e-02
5.585707125025891617e-01,4.536916188642942660e-01,3.798147998721849161e-01,-7.644125758998174952e-03,-4.728328185508229829e-03,-9.671986001576891867e-02,2.291551977396011353e-01
5.674632177746398165e-01,3.957861924489954331e-01,4.159789617002387363e-01,7.178434994938425948e-03,1.702303753437780370e-02,-1.151029656629526249e-01,2.591990232467651367e-01
5.297443497033720305e-01,4.572516366676032673e-01,3.551185285882121345e-01,-1.203734927067529005e-03,-4.055990705856355773e-03,-6.921479845936030773e-02,1.936905682086944580e-01
4.640126747667293605e-01,4.599097834731479262e-01,5.117999942275197611e-01,7.521319495885089856e-02,-9.029963109016221623e-03,2.277051603277869402e-02,1.458345353603363037e-01
4.637764556991772480e-01,4.544001819576413137e-01,5.000067830490256826e-01,2.033421664788839789e-02,-3.759942711531483097e-03,1.018597163511830890e-02,5.774401500821113586e-02
4.971092942051645314e-01,4.051318489831245984e-01,5.082693602881549477e-01,4.688463866318169637e-02,5.556412307665558117e-03,1.910812499750169646e-02,1.318839043378829956e-01
4.916804254695703591e-01,4.365396622200221621e-01,5.063101420544949827e-01,2.790029970858787581e-02,-5.931850107341239860e-03,2.334037572564385404e-02,9.020192176103591919e-02
4.613288444656430953e-01,4.286180532757739026e-01,4.989982402561429775e-01,1.503054615772690845e-02,-5.036321714478081586e-03,5.559421801682846997e-03,6.758507341146469116e-02
5.023265769821400051e-01,3.984792879555472123e-01,5.295154211583412707e-01,2.394275028175602699e-02,4.748959610565444203e-03,1.918862768956211984e-03,1.270647495985031128e-01
4.876552065530548874e-01,4.118230773218023999e-01,4.988400510924892450e-01,1.634619929262983232e-02,-1.071900272482614533e-02,1.064297970212470419e-02,9.060843288898468018e-02
4.838744924314979379e-01,4.224438154454200345e-01,5.147326035261674537e-01,9.753802178699659889e-03,3.904061519954806110e-03,7.556586337496121880e-03,8.440394699573516846e-02
5.390288555286287808e-01,5.469068293896531818e-01,3.335222437736200529e-01,3.112431737285105502e-03,-1.079993104833536222e-02,3.824597332319920606e-02,2.206382751464843750e-01
5.454790987481794584e-01,5.730318032905133974e-01,2.032689975884074407e-01,4.343118611326563135e-03,-1.127619659742297442e-01,-1.677940920838598762e-02,4.078513681888580322e-01
5.336560306732733849e-01,7.063045969888512854e-01,2.168172009647516552e-01,9.148553459851585523e-02,-1.042111790931199294e-01,4.106225510184562111e-02,4.976375997066497803e-01
5.236926045751530978e-01,5.314165554570163819e-01,1.939437034595129505e-01,4.859909746492646621e-02,-1.012702072913003321e-01,8.300883999670299884e-02,4.121467471122741699e-01
5.308628724860845471e-01,5.346422102797143694e-01,3.565498360073570128e-01,4.003775714146404902e-02,-1.337248926247941276e-02,6.086605339051382596e-02,2.179854810237884521e-01
6.577217377223809613e-01,5.845743159383048893e-01,1.894883965142610815e-01,4.267177878433555532e-02,-1.225137670588400673e-01,-2.220068845324586065e-02,4.922530651092529297e-01
4.335823681778937511e-01,4.792590159232736347e-01,4.593196156699464461e-01,-9.944422825327373788e-03,-1.721614827299513401e-02,-1.136540565660904695e-02,5.609411746263504028e-02
4.554112343663800910e-01,4.693007977046401158e-01,4.541038862444102264e-01,-4.043435696098750427e-03,-4.834443863109536867e-03,-7.386043369442318006e-03,2.226234972476959229e-02
4.526400502211855859e-01,4.511883770032616980e-01,4.450245722967375306e-01,-1.088776482953408842e-02,-1.425707569209266716e-02,-1.181277099636389612e-02,3.785624355077743530e-02
4.534982148059989449e-01,4.416830553568267814e-01,4.700266743666514091e-01,-1.701552381952916790e-02,-1.987378550265806940e-02,-1.358329918268138398e-02,5.670166388154029846e-02
4.554830617499172618e-01,4.555583132145227809e-01,4.524288990380422870e-01,-5.530307801123327330e-03,-5.819383252468044755e-03,-5.019317235628539819e-03,1.668809726834297180e-02
4.522184745703836661e-01,4.488471016297402860e-01,4.627602937401493755e-01,-1.257158551072112482e-02,-1.378763329966347512e-02,-1.258764367636377307e-02,4.096112400293350220e-02
5.029327471712373709e-01,5.497602518271952343e-01,3.374684140405004307e-01,-2.041231312638712436e-02,-9.780862719446481446e-02,-7.506422128151922502e-02,2.901258766651153564e-01
4.087903125690915962e-01,4.489134402028219228e-01,5.093418773448813441e-01,-1.393873226859678946e-02,-1.506380185664694211e-03,4.465987524740033365e-04,9.097422659397125244e-02
5.304688188162827167e-01,5.629087307879810931e-01,2.062711518630929441e-01,-1.527630552369209187e-02,-1.284570563312347480e-01,-5.617331391632648940e-02,4.199327230453491211e-01
4.321958317203832833e-01,5.470474311607247397e-01,3.623398863932693059e-01,-5.422498438864879061e-02,-1.440099775119239867e-01,-6.740170332700966271e-02,3.328069150447845459e-01
4.717847341366726011e-01,5.709827805226374009e-01,2.640897145713805294e-01,-2.352724659461869969e-02,-1.535670452256095997e-01,-3.921464785849565482e-02,3.880758881568908691e-01
5.161297923978597213e-01,4.318874491137460470e-01,4.780722256600789533e-01,-8.530901483707437408e-03,3.374694825530282632e-02,6.946869940743864713e-02,1.531394571065902710e-01
5.051909632039910392e-01,4.308251916739052056e-01,4.643974614418407421e-01,-1.071545462203782328e-02,2.181146511529979612e-02,2.783528307846617339e-02,9.086709469556808472e-02
4.941319574376324408e-01,4.360386981052130073e-01,4.776329181775491040e-01,-2.243688772678755286e-02,2.893943723059382370e-02,2.191534340171226100e-02,9.028911590576171875e-02
4.877819755859457707e-01,4.304234600200330663e-01,4.985435696470185141e-01,-1.610381931479816509e-02,2.292196340897333789e-02,3.039427297777169690e-02,9.564916789531707764e-02
4.519386497560766713e-01,4.649799611042852998e-01,4.608823066486726350e-01,2.194110116588646187e-02,2.475675655743722267e-02,-1.914836968436863657e-02,6.720367819070816040e-02
4.550537609174403197e-01,4.792261368482039763e-01,4.413603973789855806e-01,1.765519007851715921e-02,2.154658196438389781e-02,-1.601276678206944512e-02,6.480680406093597412e-02
4.680498275696641231e-01,5.004412750571907154e-01,4.533361413659108829e-01,8.109990877984336877e-02,7.968057388655361284e-02,-3.400658582135634989e-02,2.097384184598922729e-01
4.836229858564655149e-01,4.877079676940508368e-01,4.197608105081497287e-01,3.907408197607329520e-02,5.804959207965598028e-02,-6.596392204943021809e-02,1.791627109050750732e-01
4.684341690109131151e-01,4.735047207030342320e-01,4.610711126011595717e-01,1.978505393737646847e-02,-1.440848565944735822e-02,2.319939220026625767e-02,5.940583720803260803e-02
4.532478493132195974e-01,4.646407481106132331e-01,4.887759236691591180e-01,3.843690823401633982e-02,-1.601542875180041528e-02,1.466406452215757508e-02,8.266830444335937500e-02
4.296861297863417417e-01,4.819537538774176788e-01,4.668582443901230783e-01,5.952099173200180171e-02,-3.757044798861549489e-02,5.000608741548202840e-02,1.566379964351654053e-01
4.293457096535716611e-01,4.709193537277567843e-01,5.255298043974518940e-01,6.503257487936585368e-02,-4.619391764779652576e-02,5.447862396673280178e-02,1.870137155055999756e-01
4.353059003942287286e-01,4.634297392236533253e-01,5.305418163227131334e-01,9.873798202488348608e-02,-1.132091521636318342e-03,4.745882102181980811e-02,2.078241109848022461e-01
3.969877596095794381e-01,4.947653085004122264e-01,4.927617225967305670e-01,3.351622560707839121e-02,-2.834022745700208110e-02,1.627807955737147622e-02,1.262656003236770630e-01
4.509762137113717539e-01,4.781582434159414863e-01,4.949166413548087284e-01,3.796772913806410743e-02,-1.538389105359895016e-02,2.316294394994984282e-02,9.010791778564453125e-02
4.620433378473871033e-01,4.853346275325507997e-01,4.925386209747315003e-01,8.510210972426711373e-02,-3.132361501156814138e-02,5.863369058729416688e-02,1.890674829483032227e-01
4.555497321038914360e-01,4.088678326537649177e-01,5.212746978330341507e-01,5.825205397819895742e-02,-2.254376013071133307e-04,2.510499427094910890e-02,1.470985263586044312e-01
4.356828722157169986e-01,4.605603641259174985e-01,5.046958478458142272e-01,2.408506133149707074e-02,-9.251303410859950879e-03,1.779396945289147408e-02,8.131246268749237061e-02
4.605025435836030967e-01,4.434597384447677704e-01,4.855091112797813024e-01,3.019421791849452238e-02,-1.669694698795388607e-02,2.426710194433804105e-02,8.173175901174545288e-02
5.157600118980093518e-01,4.610137290637623120e-01,4.884801177574240039e-01,6.068122919166112766e-02,-2.059770355358133548e-02,7.221710179871626556e-02,1.738195419311523438e-01
4.883816019263871322e-01,4.221994154037404523e-01,4.950551776558455019e-01,2.780654727904833742e-02,-3.038429806239177633e-02,5.100765829950332925e-02,1.332698911428451538e-01
3.071690379980069330e-01,5.113289298224235058e-01,5.285451675038248531e-01,-4.691524680342690212e-02,-2.169638756724819734e-02,6.302589483798874161e-03,2.315750718116760254e-01
4.715701845488130539e-01,4.666134363002474306e-01,4.813526026842152028e-01,-1.257352370441769049e-02,1.302491975387972192e-02,1.528083807929014361e-02,4.304058849811553955e-02
4.321245296147484538e-01,4.794110882225833814e-01,4.670951783825402770e-01,-2.185529186184280090e-02,2.703838203673176663e-02,2.499911804727561471e-02,8.547733724117279053e-02
4.536226884697307504e-01,4.892852072836614830e-01,4.638432543982918266e-01,-8.503466368763513972e-03,1.064937290162687455e-02,1.414595795068673313e-02,4.657534509897232056e-02
4.495284854087394089e-01,4.566955545893841562e-01,4.962143348212813554e-01,6.272751881567279267e-03,-7.858051926299499572e-04,5.090851005067166708e-03,4.576002433896064758e-02
4.410817882893336428e-01,4.980228605100739947e-01,4.589554594552933131e-01,-9.987115623910346532e-03,2.558755013491732441e-02,1.420234062022886212e-02,7.356984913349151611e-02
4.652891013730070524e-01,5.115119975824317100e-01,4.749250895796164884e-01,-1.184176221560239058e-02,3.812892024175178196e-02,2.607934675028917085e-02,9.277137368917465210e-02
4.697480541278256094e-01,4.065448438288089550e-01,4.817015716091147537e-01,-3.210886106635199577e-02,-2.398169961898519859e-02,-3.282037157694925322e-02,1.137667149305343628e-01
4.838961294478325015e-01,4.221334794172547089e-01,4.545211179603894092e-01,-2.264750846645344554e-02,-2.164010514915695044e-02,-2.531532514976852707e-02,8.791726827621459961e-02
4.522794750116822526e-01,4.661378888302482038e-01,4.589964891586134632e-01,-1.007686397439626000e-02,-1.185965913646105062e-02,-1.224337106712470279e-02,3.633691370487213135e-02
4.680276195934346961e-01,4.565895527003501764e-01,4.394555200667445427e-01,-1.582223047403924845e-02,-1.406039657480018766e-02,-1.574536345172921833e-02,5.204082280397415161e-02
4.434724578505768178e-01,5.042978823495698482e-01,4.358838545008480447e-01,7.953873938577996116e-04,-1.315169317209301724e-03,9.686405594479865220e-05,6.500779837369918823e-02
4.583850347778785639e-01,4.742626917973719602e-01,4.270841035905450500e-01,-1.644453265481489804e-02,-9.044831713591421768e-03,-7.139593929090307795e-03,5.420747399330139160e-02
4.680894630227953046e-01,4.622283336980622659e-01,4.376956899058831452e-01,-1.848198837392986058e-02,-1.607440226751021342e-02,-1.496328537160732802e-02,5.702282860875129700e-02
4.384323883251705634e-01,4.626436956815536128e-01,4.601236361773550776e-01,-1.701677479167004736e-02,-2.015427979610326728e-02,-2.084254297997661931e-02,6.262631714344024658e-02
4.784306935276247397e-01,4.577350016840953661e-01,4.262608926854853930e-01,-1.929945659415067613e-02,-1.797425432406698012e-02,-2.324143817206461918e-02,7.600941509008407593e-02
4.779551240253826494e-01,4.568163753131322946e-01,4.223849250946549727e-01,-1.278236485409751759e-02,-7.908889132261402027e-03,-7.700237160712954630e-03,5.670898035168647766e-02
4.527508124494460939e-01,4.667001454260748528e-01,4.328298478604821753e-01,-2.296186424400755918e-02,-2.647798877655792651e-02,-2.506898298345844669e-02,8.024754375219345093e-02
5.056400144918532513e-01,4.440466480833265006e-01,4.446584719159822341e-01,4.888545300216608734e-03,2.088199109643259100e-03,2.465227715458967114e-02,7.526229321956634521e-02
5.082525977214864543e-01,4.465069132968826904e-01,4.754775272728523627e-01,9.041345891410892260e-03,-4.830905332213786567e-04,2.821384669416246785e-02,7.414186745882034302e-02
5.354915516564163758e-01,4.058500811900184191e-01,4.548237581251471373e-01,2.569496170316558706e-02,-1.104552768890043092e-02,5.604069864616142982e-02,1.569225788116455078e-01
5.199563693197600811e-01,4.738994667211307021e-01,4.505111273197471289e-01,1.614798944039881265e-02,1.121422627550504141e-02,7.802028182853866511e-02,1.522054225206375122e-01
5.163448005245080408e-01,4.466954042486395715e-01,4.760124850264068619e-01,8.599829090413013688e-03,2.001122537353767095e-03,2.841988225655671732e-02,7.953342795372009277e-02
3.417149673384108355e-01,5.760508068131824366e-01,4.878307488974438222e-01,4.941177481100134279e-03,-7.085094280978515568e-02,3.511049446235702670e-02,2.466860264539718628e-01
4.007455609528625673e-01,5.198279757342956220e-01,4.725999623143001260e-01,-1.819268809119204897e-02,-4.135794488965697374e-02,-1.388078625990954613e-02,1.322477608919143677e-01
5.051313901917182658e-01,4.308737427321037150e-01,4.716982546209541605e-01,-1.790786293959412134e-02,2.244203603563795987e-02,2.914570419027721210e-02,9.576394408941268921e-02
3.935434375944102392e-01,5.570661573225698104e-01,4.764774575577250815e-01,-3.526020548020439987e-02,-1.090034782592704532e-01,-2.586350762010974219e-02,2.478669434785842896e-01
4.403502263219422619e-01,5.031187605389990658e-01,4.356785007681402977e-01,-1.196664802892477173e-03,-2.306512583561350863e-03,-2.529687581139627821e-04,6.538653373718261719e-02
5.096690244445540863e-01,4.597542799310761485e-01,4.462144148218492035e-01,-7.397188570191433853e-03,3.948261208683441492e-02,3.348365437531333755e-02,1.074937134981155396e-01
4.635352587862586748e-01,5.081824459229317137e-01,4.649580142872851707e-01,-2.684154869934742005e-02,5.316074438063070340e-02,4.331335009464387653e-02,1.349059343338012695e-01
5.066981592984225458e-01,4.248358837977369018e-01,4.722597856249795001e-01,-1.826997872077487303e-02,3.886234956607509394e-02,5.333814472441270743e-02,1.383304893970489502e-01
4.657283765227031580e-01,4.394283977315221468e-01,4.855781977588090048e-01,-3.633131051759602714e-02,2.543692104814625557e-02,1.698591870732437184e-02,9.151131659746170044e-02
3.592166245706226446e-01,5.505911012979236574e-01,4.641680623071974821e-01,-5.013070941920858004e-02,-8.507633260224015115e-02,-1.131354284807301568e-02,2.391467541456222534e-01
4.584164436403925236e-01,4.863091090928235993e-01,4.946153473913468823e-01,-3.456723207718508800e-02,6.443871406175206984e-02,7.854338978001397520e-02,1.887527257204055786e-01
4.513713230264191911e-01,4.576049596171185563e-01,5.055318258883849669e-01,-3.764533014672577504e-02,2.501426052673064171e-02,2.410214138107940468e-02,1.024987474083900452e-01
4.587307550362819120e-01,4.647966131463512340e-01,4.928415404151286205e-01,-3.032231618150623212e-02,1.888781815433860853e-02,2.095302873820357667e-02,7.835237681865692139e-02
4.765116893014749166e-01,3.950442547645877656e-01,4.877314838931671170e-01,-4.697338270693584422e-02,4.422550929222383159e-02,5.324067553426035243e-02,1.693155765533447266e-01
5.176448957013513041e-01,3.989321746008923641e-01,4.886113886479892532e-01,-5.649673589688924968e-02,4.191208969714845661e-02,5.382983237625023343e-02,1.871562749147415161e-01
4.579553774327853599e-01,4.338753438135428686e-01,4.918983557189438027e-01,-2.525457194993872487e-02,2.065215748995945580e-02,2.100871345562281903e-02,8.406149595975875854e-02
4.866182041172498196e-01,4.287657456910613507e-01,4.663144426255828034e-01,-1.620549177377510544e-02,2.070112470302498328e-02,3.018257162213235784e-02,8.597065508365631104e-02
4.563677419376200306e-01,4.366828734669109258e-01,4.918411896487889234e-01,-2.509511524383408604e-02,1.921136625625789393e-02,1.937486326674354303e-02,8.041660487651824951e-02
2.810763785804921699e-01,5.448013101869455532e-01,4.227015178615374236e-01,-9.189007006083690920e-02,-1.816204694080448268e-01,-5.708209390098808317e-02,4.316513240337371826e-01
4.941440604516516011e-01,4.381728803119442905e-01,5.001730948831322188e-01,-2.236486960113098429e-02,2.564129293740302629e-02,2.708281585171819911e-02,9.581232070922851562e-02
4.295418052913914653e-01,4.807879780607713371e-01,4.680753931468957796e-01,-2.415177811197043167e-02,2.529425942465083135e-02,2.619378580159507225e-02,8.867906033992767334e-02
4.584867991848592950e-01,4.536178670632962651e-01,4.748888347198288451e-01,-2.425907788800996806e-02,2.137862317293817010e-02,2.374254944894568439e-02,7.211355119943618774e-02
4.361706222713740422e-01,4.400264382474518565e-01,4.974374827675424049e-01,-2.193445970680493913e-03,-2.501506316046301238e-03,-2.388069692224410213e-03,5.985463038086891174e-02
4.875936945903761033e-01,4.895542239020464481e-01,4.365704733421928441e-01,-7.134479876511856146e-03,3.138863621794477088e-02,1.795097612534833978e-02,8.235532790422439575e-02
4.756278213367906571e-01,4.927456247429797820e-01,4.783309573329856401e-01,-1.886449419807170735e-02,3.578854706745628056e-02,3.348912989266910473e-02,9.235089272260665894e-02
4.127367216653426985e-01,4.258792588625867626e-01,7.453985493736445811e-01,-2.131713563701209957e-01,4.834891411453530463e-02,3.116072097992571635e-02,5.027091503143310547e-01
4.728288044568022541e-01,4.552615606853681052e-01,4.815814302597019037e-01,-8.368561581423978463e-03,1.191773687043290800e-02,1.054442678796488515e-02,3.884233161807060242e-02
4.883424729681576371e-01,4.970566274172980581e-01,4.473379159796617710e-01,-1.171402364638781182e-02,2.597949520157771114e-02,2.600975400347676353e-02,8.112096041440963745e-02
4.953065060988497414e-01,4.688954786435769462e-01,4.837938227375579436e-01,-2.039684011681146616e-02,2.894721635838936810e-02,3.392721531768218279e-02,8.798356354236602783e-02
4.871138845078520352e-01,4.142194269468263967e-01,4.578692034942561939e-01,-3.784122774627905750e-02,-2.201498636179951424e-02,-4.500620955699491388e-02,1.259508281946182251e-01
4.789629154269841593e-01,4.748670682313363978e-01,4.214176712306665351e-01,-1.373178896292243968e-02,-2.089043736757741423e-02,-2.300661027506790274e-02,8.096520602703094482e-02
4.871522060056245884e-01,5.322962372315331869e-01,3.580444324819596624e-01,-4.288331402433195189e-02,-6.484201556150306911e-02,-4.597027126044830186e-02,2.213717252016067505e-01
4.596775191080388345e-01,5.189232298477911565e-01,3.523231473323649166e-01,-2.485503161743227510e-02,-7.571935814898467232e-02,-3.984326076063618438e-02,2.126295864582061768e-01
4.601991583030373145e-01,4.370541851034915326e-01,4.729007069861250745e-01,-1.560422645669225575e-02,-1.556612491802059073e-02,-1.347882789602948377e-02,5.471216514706611633e-02
4.372435425368498274e-01,4.654559905505092354e-01,4.576149474800518258e-01,-1.153784060689850947e-02,-7.913325216850482582e-03,-8.796782219903489033e-03,3.815215080976486206e-02
4.837237354854722060e-01,4.558420481863846296e-01,4.577799746554363503e-01,4.248246693534549895e-03,5.966229845802220773e-03,-5.256544020453096829e-03,3.115984052419662476e-02
4.711073228044848626e-01,4.174178870859331369e-01,4.558298047676156428e-01,-2.637989527529833664e-02,-2.219102185257516846e-02,-2.687181137843108747e-02,8.959364145994186401e-02
4.763711135488590820e-01,4.378066965370469577e-01,4.478034897040976681e-01,-1.456963396677899911e-02,-1.701647306994105713e-02,-1.434402240768709903e-02,5.765749141573905945e-02
4.527799397884950672e-01,4.775509199822542961e-01,4.225289825986697223e-01,-4.790256588677190008e-02,-5.611587351904986920e-02,-6.746982308880183909e-02,1.796261072158813477e-01
4.253951347068679056e-01,4.290714547074063745e-01,4.976775875944932093e-01,-2.965306365092192781e-02,-1.160747421087059660e-02,-1.219047250844433432e-02,9.198081493377685547e-02
4.362461847134799231e-01,4.227569106510610797e-01,5.129860159229574501e-01,-6.578553251404714586e-02,-1.797007506785373160e-02,-2.535402541220196579e-02,1.516132801771163940e-01
5.193633561290926792e-01,3.316085833161221408e-01,5.172778999469757055e-01,-4.896139078390788352e-02,-1.365920809428482555e-02,-4.553513904975322463e-02,2.209895253181457520e-01
4.689116678540068972e-01,3.917039590367772939e-01,5.285123013213134380e-01,-4.524971325405940936e-02,-1.452927070384764548e-02,-1.740769278894738203e-02,1.476478427648544312e-01
4.812021256983463058e-01,3.732194252720504313e-01,5.061104440143341376e-01,-4.963836464519216785e-02,-1.699276172791333236e-02,-3.053804935801602422e-02,1.613264828920364380e-01
3.532656542483941786e-01,4.749757500912732966e-01,5.238933926707332045e-01,-1.404495905087028151e-01,-1.343729755320512143e-01,-5.318385067616128448e-02,3.807783722877502441e-01
4.005294630093979569e-01,4.766448988863183356e-01,5.252529692479427359e-01,-6.966576533384433167e-02,-4.633485202145587456e-02,-2.810205623707707351e-02,1.876859515905380249e-01
3.912770202266847019e-01,3.852783911612799872e-01,5.451965854048977933e-01,-1.055821616635835986e-01,-1.233800349686497815e-02,-8.888008475719411106e-03,2.424602508544921875e-01
4.601263291562147639e-01,4.692464788013397947e-01,4.686777496217270911e-01,-3.343312518932595179e-02,-4.709846624592400888e-02,-3.952053268770631955e-02,1.215403228998184204e-01
3.774497597723870390e-01,4.661116443055740022e-01,5.020320623136471649e-01,-1.276670715822703639e-01,-6.491343695175162687e-02,-5.917544965292166614e-02,2.904807925224304199e-01
4.635442134153076599e-01,4.471868866845892243e-01,4.986609969986748325e-01,-9.677325654502814956e-02,-8.496356225458309708e-02,-7.989013500716479754e-02,2.664096057415008545e-01
4.473699181797382574e-01,4.789602130689351589e-01,4.451528735182193608e-01,-3.397384524491454949e-02,-3.882341805612729568e-02,-3.181776558776266278e-02,1.099747642874717712e-01
4.304536866536024520e-01,4.889347146334844796e-01,4.501073476830320108e-01,-3.264234165501654020e-03,-7.501212331108961153e-04,-9.191655093830108578e-03,5.425904691219329834e-02
4.145231965838028776e-01,4.895176973310061963e-01,4.471897486165503088e-01,-5.421557918099727778e-03,-1.315769358872202754e-02,-1.450760655504255980e-02,7.402995228767395020e-02
4.072611291476622153e-01,5.066223424623106375e-01,4.441471802054093865e-01,-3.414900570617534353e-03,-2.038530628631261138e-02,-7.420573303847971709e-03,9.494762122631072998e-02
4.420570906386979693e-01,4.898686698345174340e-01,4.371009248840933559e-01,-1.049572664437946855e-02,-1.323254453744142356e-02,-8.355727472011945448e-03,6.010581552982330322e-02
4.411139870261407414e-01,4.952943237854907643e-01,4.401489260841631168e-01,-5.229700239107380917e-03,-8.681568727784031575e-03,-6.574009961732975825e-03,5.853664129972457886e-02
4.629715865870653313e-01,4.671523592917161127e-01,4.675588820923107236e-01,-7.604216609326621724e-03,5.762638467965057812e-03,8.328126425937767627e-03,2.237215079367160797e-02
4.649203701363422425e-01,4.642322655467885362e-01,4.648517580039497332e-01,-1.070550045196341088e-02,8.320321245884079037e-03,6.528559092834862812e-03,2.607304602861404419e-02
4.744307276339359558e-01,4.673307972090814943e-01,4.631879652569506067e-01,-4.538881885551914602e-03,3.627469822768163415e-03,4.839557144213598935e-03,1.638687774538993835e-02
4.663553080357577540e-01,4.686987413222987175e-01,4.660102219413188029e-01,-3.214574598917891834e-03,1.097017951942042815e-03,2.618958312565591254e-03,7.849019020795822144e-03
4.674590721792279968e-01,4.666999821124452330e-01,4.697242817282769045e-01,-2.463199269264941624e-03,2.982923964058886712e-03,3.928670364321313127e-03,9.931052103638648987e-03
5.560331479486233519e-01,4.172476385200934446e-01,4.033583622585794615e-01,2.265492655038749831e-02,3.674244042748241700e-03,-8.963630249959571306e-02,2.169474512338638306e-01
5.928033747834670075e-01,3.945621357376393745e-01,4.443368237600919812e-01,1.679409952185808783e-02,-5.046796227074470433e-03,-1.037817972024027285e-01,2.552336752414703369e-01
5.102618419724123111e-01,4.122090341167609084e-01,4.494400302376058698e-01,1.333971328197244843e-02,1.194294093655183867e-02,-3.938241301452292953e-02,1.138620451092720032e-01
5.239003689750384440e-01,4.699408724721569341e-01,3.842080692254562502e-01,-3.164910856751790985e-02,-4.229499025664412021e-02,-1.132332342501728012e-01,2.484446316957473755e-01
5.184770759010219887e-01,4.732347132965202818e-01,3.915059058092716926e-01,-7.330256862825958522e-03,-9.443362867826312831e-03,-4.730046755246831297e-02,1.398742496967315674e-01
5.342220171291047759e-01,3.803721303776350648e-01,4.369358690274204871e-01,-7.338912677262159935e-03,-2.098062008796060945e-02,-1.120804367361815934e-01,2.394475489854812622e-01
4.529625281987148533e-01,4.530409905058014330e-01,4.315874588467150108e-01,-3.224770851067674388e-02,-3.358027700984810016e-02,-4.172917791776482171e-02,1.103865876793861389e-01
5.043075137399005703e-01,3.919572336057396411e-01,4.319879794853501154e-01,-1.944716417906075870e-02,-1.699585548436933699e-02,-4.911629906509488303e-02,1.377169787883758545e-01
5.016804179430076616e-01,4.924260787498923042e-01,4.135463097642356201e-01,-3.973406408269031936e-03,5.708162497954213585e-03,1.732424343785128260e-02,8.990629762411117554e-02
5.068776423162822953e-01,4.930940999082376042e-01,3.961291664714627903e-01,-1.781972032120605898e-02,-3.342784402945960659e-02,-3.663562848293600710e-02,1.387807726860046387e-01
4.209920699401172306e-01,4.469798997766686321e-01,4.382315018617808366e-01,-7.144169328844478251e-02,-7.480828392665124504e-02,-6.788353397438502690e-02,2.155218273401260376e-01
5.011990208462406837e-01,5.207506866198921003e-01,4.064254039193082590e-01,8.828504451907913039e-03,3.927006971350359421e-02,1.635653891715834352e-03,1.268288493156433105e-01
4.655444170250569447e-01,4.672172514168755342e-01,4.719816719616191092e-01,-1.578883095054322911e-35,1.410437785164988644e-03,-3.812199984378710329e-04,6.314440164715051651e-03
2.060935562020601297e-01,5.548032993796740975e-01,5.330756592108246705e-01,-9.085548510749971718e-02,-1.058079765035341152e-01,-1.999078341752470386e-02,4.171845912933349609e-01
5.020510247361948952e-01,5.327549356273377779e-01,3.911149305512512941e-01,4.128029250791378363e-02,3.924399004439457772e-02,-1.979744284595489831e-02,1.660240739583969116e-01
4.863051150179839577e-01,5.113228064875877665e-01,3.990416848617950873e-01,1.204533845733498330e-02,7.441442893015721635e-03,3.857569400013984972e-03,1.052138730883598328e-01
4.968871477045669893e-01,5.114514442174199482e-01,3.838602447346400881e-01,1.146400376282290592e-02,1.670683056107985509e-02,-2.591504903034740417e-03,1.260362267494201660e-01
2.486110530325173762e-01,5.589408180837099893e-01,5.826775911342001457e-01,-4.567813379295270620e-02,3.381964070454215876e-02,4.031622981048503529e-02,3.446755111217498779e-01
4.687716868029828676e-01,5.095805077714116171e-01,4.255307239968570410e-01,1.326444503081822615e-02,1.001768992696953561e-02,-6.465769898832643414e-03,7.908268272876739502e-02
5.569506265943805490e-01,5.749693926990862014e-01,1.512431819107835085e-01,2.870106060450497432e-02,1.019260178506650877e-01,-2.246125401000143539e-03,4.537473618984222412e-01
4.549172902066982438e-01,4.554480387001008101e-01,4.776605069038351581e-01,-2.629045308662571884e-02,2.090291202697763806e-02,2.071999455239560695e-02,7.195677608251571655e-02
4.654394857908904504e-01,4.638862036310246739e-01,4.751390899024823256e-01,-1.094463728134226557e-02,1.048967034790502899e-02,8.218157300350531144e-03,3.168012574315071106e-02
4.655128983186563874e-01,4.561327581803998332e-01,4.854525728068493917e-01,-1.125238777718228639e-02,1.105336803963484320e-02,1.378221968583836186e-02,4.459644481539726257e-02
4.358673479312817900e-01,5.015398799585364387e-01,4.592944778485281154e-01,7.478367880463048477e-03,-2.062292812797687433e-02,1.203536825958282860e-02,7.212098687887191772e-02
4.514066752461634024e-01,4.692259544170759855e-01,4.841911265493420435e-01,-3.655706598592410334e-03,6.634691963933325373e-03,1.224649865878179623e-02,3.781840577721595764e-02
4.794392297685384219e-01,4.551140285800834295e-01,4.686935913761272610e-01,1.534511040309857396e-02,1.402468354445130481e-02,-1.084788453241840485e-02,4.577462747693061829e-02
4.517945556601814516e-01,4.866211866936174246e-01,4.645850874291915233e-01,2.262052909102377565e-02,2.648133095873218823e-02,-2.122759684135155575e-02,7.695271819829940796e-02
4.560359497366289205e-01,5.027685404337046693e-01,4.659954921766950031e-01,1.123880144423004476e-02,2.644012208481634138e-02,2.107083861718421491e-03,6.562913954257965088e-02
4.505052629684693777e-01,5.136264197066342518e-01,4.651639548592952367e-01,8.471189235048921795e-03,2.990053764426277294e-02,3.621485512830039364e-05,7.855761051177978516e-02
4.496121482952605830e-01,5.020641253617970090e-01,4.521679043894991090e-01,9.486844412088529452e-03,1.737913477083019922e-02,-2.134800183165292027e-03,6.175324320793151855e-02
4.725195365703720451e-01,5.122965727314677808e-01,4.388690390019344689e-01,1.499934459333487555e-02,2.567476601630382452e-02,-1.141909478300489646e-02,8.424247801303863525e-02
4.757168197765065387e-01,4.862410685413797728e-01,4.342588394296095777e-01,2.797215377393718130e-02,2.438181928352235045e-02,-2.173240805325832997e-02,8.839385956525802612e-02
5.249164729719051348e-01,3.583864048286147796e-01,4.599392685336565201e-01,3.119855344035382672e-02,2.773732552982724822e-02,-7.771248798155143411e-02,2.109015434980392456e-01
5.319030790753915827e-01,4.737105425084234822e-01,3.971686594480392518e-01,2.034430032617668815e-03,-7.112848067775244141e-04,-4.106643964139829184e-02,1.370127350091934204e-01
5.226238748891934849e-01,3.884632829103194518e-01,4.368126646698803350e-01,-2.943835079361557111e-02,-5.616646421532604794e-02,-1.019618312567271423e-01,2.389616221189498901e-01
5.915768436368169514e-01,3.354144830296492685e-01,4.120254322240435862e-01,3.971702175079529912e-02,3.434260676496775355e-02,-1.499323768411539304e-01,3.571740090847015381e-01
5.326278859049380365e-01,3.728338807239210406e-01,4.312986327593791858e-01,-1.900132856627391800e-02,-1.734393173701034851e-02,-1.112062362885770789e-01,2.422725856304168701e-01
5.638046004071461947e-01,3.575149514648562343e-01,4.927083635561996244e-01,-1.047621645732421843e-03,1.216510085630970531e-02,-5.582704626769414979e-02,2.067387551069259644e-01
4.653015996471367988e-01,5.356823873114020529e-01,3.324051366697249321e-01,-2.946472929807248883e-02,-8.503142949774324111e-02,-2.636948731339265606e-02,2.415571957826614380e-01
4.593062941828969237e-01,4.935969643526069150e-01,3.944060871576742233e-01,-2.430366267210544787e-02,-4.853492618367556688e-02,-3.181540572303308972e-02,1.396027952432632446e-01
4.069303082526359305e-01,5.237655803014753531e-01,3.807516278164926882e-01,-3.155033845147058730e-02,-1.186499732649431427e-01,-4.909936772959075379e-02,2.642846107482910156e-01
4.520595736590846125e-01,5.296465654943403045e-01,3.735591693250324696e-01,-4.666870657394065619e-02,-1.255275077029534003e-01,-4.623844882229487946e-02,2.801642715930938721e-01
4.555204583867722423e-01,4.743420716129552739e-01,4.682124003775953169e-01,-9.198932416633760420e-03,5.809221922164155630e-03,6.132475846416790034e-03,2.728332392871379852e-02
4.503966696210157106e-01,4.702137478662072323e-01,4.847413412432451385e-01,-9.419265285191250406e-03,9.371864258449044000e-03,1.144399005273006621e-02,4.259366169571876526e-02
4.624082482837482688e-01,4.819075290825046154e-01,4.598468286125156346e-01,1.989895225103505052e-03,9.594112700734818821e-04,-2.567807723451735660e-03,2.170599065721035004e-02
4.476641653502919094e-01,4.538283743689380811e-01,4.938708992069761328e-01,-7.752263926731186271e-03,5.935017595780278307e-03,5.117621493129909452e-03,4.746333137154579163e-02
4.526871870642973916e-01,4.383577607691915845e-01,4.923572016886998415e-01,-2.516211962382917597e-02,1.746810596517931261e-02,1.365942296827016116e-02,7.564411312341690063e-02
4.680252179423614600e-01,4.490347728638138802e-01,4.924548551237144522e-01,-1.062348549013297436e-02,1.376697679067203153e-02,1.206160474998769702e-02,5.258312448859214783e-02
4.486396472039370642e-01,4.657393013124035974e-01,4.853153961895335655e-01,-1.304124568857250970e-02,8.767078240891698279e-03,7.812122240766323014e-03,4.398023709654808044e-02
4.477619789616879564e-01,4.543047868443551018e-01,4.830781464795108615e-01,-8.612091718602317078e-03,6.607342014608112886e-03,6.372680729013018713e-03,3.916990756988525391e-02
4.574714312109635639e-01,5.123831518646446703e-01,4.388513273812301163e-01,2.542211960845553245e-02,-2.574040758343512647e-02,2.906801425663874811e-02,1.041435226798057556e-01
4.995555250399959513e-01,4.957442167736507144e-01,4.086313500230455698e-01,1.541433681070947248e-02,1.718862711465457202e-02,-7.606610779507867737e-03,9.852880239486694336e-02
4.475405571611719147e-01,5.102042097327227355e-01,4.134725795754585209e-01,5.948981678075862707e-03,-2.882217769707380584e-02,-1.808476151011717938e-03,9.914797544479370117e-02
5.088261822912450993e-01,5.144700296404970397e-01,4.011478147179579068e-01,1.653455316823541910e-02,6.818180561245733989e-03,3.752025781397962264e-04,1.148662865161895752e-01
4.281068055691196750e-01,5.357377030562018305e-01,4.722888975458096605e-01,3.593853595571087217e-02,-5.089566670977199031e-02,3.081618227270284394e-02,1.525642871856689453e-01
5.287332308416317073e-01,4.845114218118617422e-01,3.788891059772479530e-01,5.429398210446337650e-03,-4.203441803818787174e-03,-2.249769791074925432e-02,1.394357681274414062e-01
3.529055353950720786e-01,5.591916651076185296e-01,5.146596027759329228e-01,4.014123788747165494e-02,-7.642857261386677703e-02,3.198351122186780804e-02,2.465309202671051025e-01
3.369380816749618091e-01,5.187063305153140069e-01,4.940421947248790357e-01,4.377691078872646135e-02,-4.906614937529783782e-02,1.844772323349705076e-02,2.077438980340957642e-01
3.533873083629184841e-01,5.549810951797713443e-01,4.441263752708176638e-01,3.601991670802868334e-02,-1.043856917284295277e-01,1.915604159388045041e-02,2.612728178501129150e-01
7.142361250279535279e-01,6.546669679540448872e-01,2.075361680449308577e-01,6.178481811071130647e-02,-8.401962179330344643e-03,-8.397364443572563619e-02,5.127652883529663086e-01
3.928274995997029784e-01,4.977742194825409694e-01,5.611383128859467329e-01,-7.807272183988141212e-02,7.042401308847036356e-02,5.253331578661181445e-02,2.512421011924743652e-01
4.255025830184335778e-01,5.039342797056817203e-01,4.479689676139029797e-01,-2.667387107667670842e-02,6.906164687805171898e-02,3.703990673217642110e-02,1.595402061939239502e-01
4.404374901705114809e-01,5.017083297714429735e-01,5.010231842595890273e-01,-1.912276409137175781e-02,9.550199565059545870e-02,4.272247245197564880e-02,1.940287798643112183e-01
4.472201580040961466e-01,5.160116731941551960e-01,4.444961286343434570e-01,-4.376983902804257309e-02,7.114918685492277461e-02,3.867802445330495442e-02,1.742098331451416016e-01
4.020771789188867240e-01,4.715208205126552032e-01,4.947230333112827005e-01,-5.978958720658740511e-02,2.674218842067917559e-02,2.545028440327600297e-02,1.475973427295684814e-01
5.139122340079058660e-01,4.237998715953975593e-01,4.833269450960435143e-01,8.679692510268587069e-02,8.701139461031356936e-02,-4.340436064743656563e-02,2.393020391464233398e-01
4.648483642606833777e-01,4.548548414200510037e-01,4.437011091680507224e-01,5.418426607778497467e-02,5.695991448005840313e-02,-4.574044933352502951e-02,1.585982590913772583e-01
4.926511471286137978e-01,3.969411020543101021e-01,4.360986428708418239e-01,6.612975686459006408e-02,5.710644402954484500e-02,-7.615313133914701493e-02,2.173631191253662109e-01
4.287528953628615969e-01,4.875411833669296979e-01,4.833213964420867148e-01,4.482896871502154573e-02,5.294535232994709850e-02,-1.115905920769261379e-02,1.343052834272384644e-01
4.252720704738106039e-01,4.948685092235766692e-01,4.668980502026309765e-01,4.409254811369147514e-02,4.606849759962906160e-02,-1.595132456699563384e-02,1.290041804313659668e-01
4.715505456901488146e-01,5.140331350400643151e-01,4.468912405740705918e-01,7.015348493597231561e-02,5.728473703863726230e-02,-4.063605978139569336e-02,1.817236095666885376e-01
4.562152870534574856e-01,4.858608191947125232e-01,4.475498041562575025e-01,4.231718175846253815e-02,5.768819199130605785e-02,-3.305975249176750647e-02,1.408747583627700806e-01
5.182363852689766404e-01,4.287843446651880552e-01,4.056756492962648175e-01,-7.928648555963782596e-02,-8.156399352494413113e-02,-1.198681861600446319e-01,3.041792809963226318e-01
5.183575960326598508e-01,4.286315896279898618e-01,4.356383202985231740e-01,-9.209205591392048001e-03,-2.174374861880675608e-02,-4.748934559589205323e-02,1.261335760354995728e-01
5.848932147544827487e-01,4.347936414789031478e-01,3.434081043568224523e-01,-1.587916515780698340e-02,-1.120594056263780891e-02,-1.211250399247140869e-01,2.995748817920684814e-01
5.343744908129651749e-01,4.756732903579439786e-01,3.865013471945134005e-01,-1.002405376969019851e-02,-1.813242985417876096e-02,-4.824216842526801025e-02,1.578026860952377319e-01
4.985657356685722630e-01,4.994905813532578009e-01,3.849391071727796265e-01,-2.600783979413090127e-02,-3.951396020549050037e-02,-3.225584881026236084e-02,1.511673033237457275e-01
4.972520234678383111e-01,4.544229119820462071e-01,4.123251145628430980e-01,-2.078893850097183332e-02,-2.040513464389953277e-02,-3.317379010314645826e-02,1.060976833105087280e-01
4.795989145910921070e-01,4.577335643630353612e-01,4.328433236933179606e-01,-1.334650349564089379e-02,-1.118108303701560030e-02,-1.825556677680824705e-02,5.959098786115646362e-02
4.855008868514487652e-01,4.337813071331572679e-01,4.568027941767796030e-01,-1.185177182345275269e-02,-1.196141031622501710e-02,-2.076328500934365717e-02,6.448413431644439697e-02
4.609670573986091591e-01,4.550029427483455735e-01,4.492716924367571862e-01,-5.040556192435265148e-02,-7.256108681052944598e-02,-5.331087878268500613e-02,1.790146529674530029e-01
4.900748676045734720e-01,4.098235421793978150e-01,4.577037025220528355e-01,-5.255293164703539466e-02,-3.674714466455802908e-02,-5.710864265539129098e-02,1.643503010272979736e-01
4.990461989165220213e-01,4.080050971594329501e-01,4.530242991607393854e-01,-3.084592181553467982e-02,-1.873379210400662187e-02,-5.815605733739259708e-02,1.423737108707427979e-01
4.791516670680292522e-01,4.248528694273233097e-01,4.540078371437827887e-01,-1.844411250418956372e-02,-2.209141464662585028e-02,-2.853609742030916926e-02,8.451548218727111816e-02
4.818530819694364364e-01,4.690524062128976768e-01,4.516911029323716908e-01,9.804354871609882727e-03,6.980128314816060747e-03,-1.308255235112506555e-02,4.044144973158836365e-02
4.889666853885114572e-01,4.379116654679339193e-01,4.679930819689118171e-01,4.073710453673978077e-03,1.387293304823850743e-02,-6.753054980610038137e-03,5.234186351299285889e-02
4.873417629529906425e-01,4.402861908513535094e-01,4.596858355256612239e-01,5.633340894899511835e-03,1.033862208390960366e-02,-5.011259217875409233e-03,4.657160863280296326e-02
4.956476740079146515e-01,4.445376271166921467e-01,4.491710099597557848e-01,3.552745770672499290e-03,7.697241477478782706e-03,-7.237742000928289697e-03,5.262752249836921692e-02
5.026374736719592118e-01,4.434772122933528515e-01,4.425754828594133938e-01,6.289762028352770609e-03,7.630806597542604333e-03,-1.007574469673073667e-02,6.443624198436737061e-02
4.375510211397481974e-01,4.359971881264386728e-01,5.108519519979941581e-01,-3.084959227810347288e-02,8.752622959743498049e-03,1.327977262870344392e-02,9.541127830743789673e-02
4.878070718604710088e-01,4.551255360954919449e-01,4.529130494204668955e-01,1.012460059526081209e-02,1.031900358347330113e-02,-7.606834868793450194e-03,4.411173611879348755e-02
4.743539590338337608e-01,4.501639446227401753e-01,4.867961636751005905e-01,1.919045776007479928e-02,-8.803837909880912055e-03,1.471302282301136834e-02,5.502458661794662476e-02
4.601416801124668665e-01,4.554359675890518599e-01,4.894294665722593862e-01,3.335403855466910223e-03,-5.855965273045640219e-03,4.029490217062556452e-03,3.467996791005134583e-02
4.689513268809396007e-01,4.430879631574870525e-01,4.888859809652639776e-01,9.997302422872432828e-03,-5.738605395766732675e-03,6.615769369417855324e-03,4.595453664660453796e-02
4.601171552399829223e-01,4.589504416159256861e-01,4.821579414116766160e-01,2.548864177715418414e-03,-5.073716721201655504e-03,3.215274691973076665e-03,2.531016990542411804e-02
4.616664252705205418e-01,4.634808330684291877e-01,4.816353717342526930e-01,6.052392993797080407e-03,-5.252663450798580186e-03,5.416602960114384226e-03,2.542643621563911438e-02
4.962341771139904267e-01,4.599853018842925967e-01,4.399624406835462298e-01,8.340964735297320617e-03,6.494691253244993037e-03,-2.132209915663449071e-02,6.434170901775360107e-02
4.719133835300513558e-01,4.573662389791471328e-01,4.720052855676492576e-01,3.731614886794702192e-03,-7.527303211742996346e-03,3.167029299721282540e-03,2.132629230618476868e-02
4.757417926742235625e-01,4.640343939037104848e-01,4.746020383094175510e-01,1.328182234666381786e-02,-8.453008508923758740e-03,9.958477847045286643e-03,3.414839506149291992e-02
4.707749221926002536e-01,4.576805782636171882e-01,4.593831612776776430e-01,5.018892245898093352e-02,-4.330740576918400142e-02,5.130137911615578750e-02,1.457083970308303833e-01
5.412136358264459934e-01,4.734223330098372706e-01,4.543539313529258994e-01,5.987559487636863464e-02,-6.255984512236617730e-03,8.964441010356402617e-02,2.030590325593948364e-01
4.983966825125357714e-01,4.539582622554452218e-01,4.529522487851652679e-01,8.913900800316943568e-03,-3.446646335986222609e-03,1.344048082278004319e-02,5.325825139880180359e-02
5.232862763514960491e-01,4.722681001368084219e-01,4.488212208144820581e-01,1.548637973553629310e-02,-3.865326440967950181e-03,2.681187352436266783e-02,8.526290953159332275e-02
5.038780585076678697e-01,4.303112327337444976e-01,4.524664765537751987e-01,1.978968900202490895e-03,1.362387118288594257e-03,1.829154096825562348e-02,7.276056706905364990e-02
5.420624045208177755e-01,3.970482630186102924e-01,4.451243949681669698e-01,1.982622049623966945e-02,8.006760269112468340e-03,1.191419131575275209e-01,2.456107586622238159e-01
4.836288056061613383e-01,4.557599323293652915e-01,4.355743750042680995e-01,4.331556856818150752e-02,-3.998675653581102579e-02,6.064050407107782203e-02,1.523286849260330200e-01
5.309607538757037393e-01,4.528052939374679897e-01,4.185757769583587917e-01,2.018226590844478252e-02,-2.620914168635042358e-03,5.098659625541754337e-02,1.378282904624938965e-01
4.845410649335980535e-01,4.359778098977621363e-01,4.927433646608522233e-01,2.322315954621421638e-02,-1.068805154970475964e-02,2.971715778346812817e-02,8.622050285339355469e-02
4.461470533888241552e-01,4.749589753820981919e-01,4.660452493272764785e-01,4.971097201352949607e-02,-4.254835912536958364e-02,4.154347067457136999e-02,1.366563886404037476e-01
4.458046946039457836e-01,4.739801035085239311e-01,5.117632037163216685e-01,4.505126281371557573e-02,-1.779142605839659566e-02,3.343324328857175815e-02,1.169519945979118347e-01
4.732571306129109145e-01,3.881518959874961094e-01,5.171550928368594535e-01,5.936984694617706421e-02,-3.033569552874685812e-02,4.961559365607632471e-02,1.833742111921310425e-01
4.273173213888362132e-01,4.704622611425994805e-01,4.956660335862811406e-01,1.140361813217984945e-02,-4.595244466985119909e-03,1.193972721708848328e-02,6.682274490594863892e-02
4.437218760131337314e-01,4.384035640401760525e-01,4.980828935680278180e-01,-6.850620820111191604e-03,5.538507567376334956e-03,1.865637473871147685e-03,5.929395928978919983e-02
4.511031774098230307e-01,4.558383820670209863e-01,4.877739314020236860e-01,1.254165812038677240e-02,-6.994969866556992148e-03,8.952678095851339390e-03,4.530609771609306335e-02
4.722985955772331379e-01,4.720159884089035751e-01,5.312757642415451009e-01,6.559139408010623840e-02,-1.999494493056635028e-02,3.632750782951126717e-02,1.468339264392852783e-01
4.645157851580845043e-01,4.102406506217350923e-01,5.134329853193101423e-01,4.478133745789660003e-02,-2.922829552156252196e-03,1.141112438367323373e-02,1.201084703207015991e-01
4.630192571061000906e-01,4.671030696338817623e-01,4.893319060816140320e-01,3.721799560911304150e-02,-2.069420052891694090e-02,2.195116073866957423e-02,8.652991056442260742e-02
4.281374967141205468e-01,5.052667206576354486e-01,4.681664780990403840e-01,5.348881341650200960e-03,1.314496084596651800e-02,-7.534317011432322547e-03,7.237631827592849731e-02
4.755214875000186581e-01,4.416020628644879986e-01,5.152164816767432765e-01,2.613423794239053133e-02,4.628659976016182183e-03,3.280423847162531725e-03,7.885558903217315674e-02
5.214279413100419980e-01,5.013703974977873346e-01,3.971677682072355386e-01,7.967700470252444059e-03,-9.165812510003482766e-03,2.241682923965793162e-02,1.236954852938652039e-01
5.296249158746217933e-01,5.248341558441750321e-01,3.488884709309159060e-01,1.491476541246073394e-02,-9.962063377629492514e-05,1.567954399042249466e-02,1.822845935821533203e-01
5.070904192407754696e-01,5.199832052277132410e-01,3.223389394849438538e-01,1.910765442360003868e-02,-4.045627637440306346e-02,3.066872930682010973e-02,2.133270800113677979e-01
5.186402703584755969e-01,5.238737972256373165e-01,3.634427687432351672e-01,1.372356213678971835e-02,-1.531205934406708671e-02,1.297142397582634263e-02,1.633984148502349854e-01
5.226008081018631568e-01,5.085977092724641713e-01,3.933465774538061344e-01,1.071971378650847517e-02,-1.606910374095619695e-02,6.397238137018191467e-03,1.278082281351089478e-01
5.278400832949252663e-01,3.723206766588683658e-01,4.729816143534059658e-01,-1.714379295506986492e-02,-2.388207952059051868e-04,-4.602445048958722640e-02,1.609373539686203003e-01
5.108764415273825410e-01,4.282994436394012006e-01,4.232148493254551669e-01,-8.007696335700085696e-03,-9.832583729752396307e-03,-4.723126782618489172e-02,1.201643496751785278e-01
4.814656715303083923e-01,4.661339380017134881e-01,4.446238544352901778e-01,1.020990286543629368e-02,5.526315183792644692e-03,-7.426353390162628021e-03,3.996663168072700500e-02
4.784426859184644498e-01,4.735629558228634517e-01,4.179894853152409939e-01,-2.089536368029002930e-02,-2.768673212101610548e-02,-2.166473349845361024e-02,9.165698289871215820e-02
4.602609654478575507e-01,3.749094439686148084e-01,4.838919098302964517e-01,-7.805910898790731356e-02,-5.313355740584824877e-02,-7.841181106142389168e-02,2.346373200416564941e-01
4.892782022778179307e-01,4.095496696278998483e-01,4.840766738878800601e-01,-3.185478254047913182e-02,-2.330560406155498740e-02,-3.292083343736546680e-02,1.178726553916931152e-01
3.838987379927455978e-01,5.330600066915871516e-01,4.357645474422869314e-01,6.914280549579940316e-02,-1.032494225691897860e-01,4.241171784346810941e-02,2.625310420989990234e-01
3.712201778226405513e-01,4.814131399083317886e-01,5.025647970145804555e-01,3.646152862319727850e-02,-3.384659411147136060e-02,2.178837603980366550e-02,1.541750580072402954e-01
3.906312375585547780e-01,5.005127258475814411e-01,4.437206567878429486e-01,6.657335410732047321e-02,-1.027933091125105419e-01,6.066631658642767516e-02,2.551382184028625488e-01
4.414710966936161718e-01,4.687751485440335708e-01,4.754675981279223862e-01,2.302268436589588116e-02,-2.016178698913969822e-02,1.946855238520039250e-02,7.014078646898269653e-02
3.271220025192589365e-01,5.656817719649797072e-01,5.617988192025561434e-01,1.480134552115912328e-02,-3.627096818655844296e-02,2.537528276562828894e-02,2.500704526901245117e-01
3.164586977750993846e-01,5.704871037884029494e-01,5.531533899747327343e-01,-2.766769566632864413e-02,-5.759120492674874719e-02,1.945735724506379369e-02,2.716802358627319336e-01
3.143893765103691340e-01,5.558177558692384279e-01,5.622885790223584035e-01,-3.568321541333118602e-02,-5.596387748877783980e-02,1.081898867864087253e-02,2.710326015949249268e-01
2.277276776494622512e-01,5.877535749423362654e-01,5.536335508962816343e-01,-1.464866468330916494e-02,-6.937649937996619165e-02,3.299364182131767076e-02,3.699290752410888672e-01
3.458444926069218495e-01,5.849691800017940979e-01,5.427412622062218750e-01,3.261684760341807682e-02,-4.235745181209782384e-02,2.039599959191239209e-02,2.422562688589096069e-01
2.195257937255148950e-01,6.911065602091042148e-01,5.310652442721485178e-01,-4.171735244960012717e-02,-8.501760633527419286e-02,1.252320343216424808e-03,4.465858638286590576e-01
4.565966359306241062e-01,4.323759163788686299e-01,4.857170732025548054e-01,-1.934891690882372881e-02,-1.177995179767938813e-02,-1.194989576137692015e-02,6.409215927124023438e-02
4.333102012140403470e-01,4.543451408800221469e-01,4.795213918226581828e-01,-1.928415820285181090e-02,-1.232501704293604422e-02,-1.150140616789658253e-02,5.978373065590858459e-02
4.493768734339392834e-01,4.136870384712226234e-01,4.780624480125378883e-01,-3.144679170206965413e-02,-3.395436696255935138e-02,-3.153650014835195081e-02,1.119350790977478027e-01
4.554411630389570975e-01,4.316120832459858225e-01,5.006740176819880483e-01,-2.248049511225258187e-02,-1.172379779983879523e-02,-1.197895595352725315e-02,7.778585702180862427e-02
4.578305556736457782e-01,4.217161292138396078e-01,4.766310680390391519e-01,-2.392402000234125289e-02,-2.100948618996775763e-02,-1.933068068203794287e-02,8.061624318361282349e-02
4.241416175190384497e-01,5.274661963289749567e-01,4.375069074736036567e-01,7.615282727154733255e-03,-3.585917231595665833e-02,7.992874043840709347e-03,1.170338094234466553e-01
3.872682327025828708e-01,5.583182472834014032e-01,3.893692621699930689e-01,-1.332822951304122455e-02,-1.296302695042902964e-01,-1.140113436386929954e-02,2.832632064819335938e-01
3.605052892444230439e-01,5.701257934498533686e-01,4.433234594511231697e-01,-3.300641592769370386e-02,-2.051729955037070452e-01,1.870884290575004077e-02,4.050252139568328857e-01
4.661493177927463205e-01,4.585678480770560839e-01,4.756159083051160752e-01,3.464917264603119881e-03,6.372245611149992932e-03,-1.920417639125103970e-03,1.969170384109020233e-02
4.319843642140114293e-01,5.075826771258740155e-01,4.599659425471691043e-01,1.472602450242644322e-03,-2.588596471564687945e-02,8.873503263805685229e-03,8.145971596240997314e-02
4.877436593779048701e-01,4.757690532251993010e-01,4.364421282247711309e-01,2.411855965660399115e-02,-1.754621021918696330e-02,2.606239015589579058e-02,8.286971598863601685e-02
4.589863772427397737e-01,4.741460385556623414e-01,4.591042831302997729e-01,2.491288669001312864e-02,-2.358637525956617034e-02,2.492857548476390059e-02,7.498833537101745605e-02
4.791228604526762136e-01,4.859326065299452990e-01,4.336543681292583385e-01,5.838280488807053026e-02,-8.042512423648427722e-02,4.610856577746227924e-02,1.960399001836776733e-01
4.943332399552624046e-01,4.562722232569315639e-01,4.782398549210852279e-01,4.089830020781910075e-02,-6.333842375667023128e-02,5.801750670905148760e-02,1.680668890476226807e-01
4.612835028886222988e-01,4.742839634480596200e-01,4.746296321612843427e-01,2.567177147463896650e-02,-2.841065564672862198e-02,2.304823086815179292e-02,7.852327078580856323e-02
4.517100874761859619e-01,5.151579146464864145e-01,4.156162421900969628e-01,3.181205206836099086e-02,-5.326435592380204115e-02,2.447377996153107110e-02,1.447848826646804810e-01
4.318708951056328127e-01,6.899679716732509682e-01,4.248120268613109207e-01,5.191366877319324169e-02,-1.843869550863665718e-01,4.056632218320567473e-02,4.283729791641235352e-01
5.279728065973998685e-01,4.491897949179586291e-01,4.233570961075718841e-01,2.185285567839804002e-02,2.293149047891743231e-02,-3.481291191574350380e-02,1.247208341956138611e-01
5.102239924073785904e-01,4.418251860474736170e-01,4.366007676587012054e-01,1.215037119511277845e-02,5.935768937438341483e-03,-1.726103261068171954e-02,8.065643161535263062e-02
5.069564852360100016e-01,4.193456012906764396e-01,4.593509756345780515e-01,2.042653754290721206e-03,1.271041926311482564e-02,-1.593783021092883001e-02,8.384757488965988159e-02
5.120977526791609113e-01,4.560649667609747437e-01,3.928719770523694810e-01,9.959686500696722511e-03,4.959459160706033813e-03,-3.904144796248692345e-02,1.249719336628913879e-01
4.668873653285168235e-01,4.758566962594114047e-01,4.669782012977891084e-01,7.129116149740746290e-03,6.572638371150235116e-03,-4.437290898892588820e-03,2.051298879086971283e-02
4.994497192304628852e-01,5.154011720395244023e-01,3.955049556860230631e-01,2.791606068247820018e-03,2.119317574985790653e-02,2.840799186107219234e-03,1.187942549586296082e-01
5.365339833024854732e-01,4.945639119123840244e-01,3.865240523591185196e-01,3.391603418959220073e-02,5.930620880667343553e-02,-8.302254055702151803e-02,2.294544279575347900e-01
5.691307239481351310e-01,4.738038689455215113e-01,3.869730837358693609e-01,2.713977045721000306e-02,3.731869292584639314e-02,-9.646860131688209106e-02,2.433319389820098877e-01
5.484069443534369537e-01,4.428093671963615474e-01,4.340934296125037450e-01,5.972562589402137523e-02,5.258446813950078819e-02,-8.630365000483482263e-02,2.312768697738647461e-01
3.974511479197676000e-01,4.081136032354302223e-01,5.189206231087669652e-01,-8.790372828036166486e-02,-2.516118694188333033e-02,-2.864439286203774443e-02,2.027691155672073364e-01
5.100353914855785264e-01,4.708919818205718477e-01,3.785159420190347124e-01,-1.002441375360491223e-02,-6.895829795409195127e-03,-2.684007344194562147e-02,1.276195347309112549e-01
4.000230464701131639e-01,4.672209646248516868e-01,5.277282182904069474e-01,-4.716619107207657008e-02,1.909457618735399195e-02,1.919760359604976221e-02,1.453136354684829712e-01
3.987954736723229310e-01,4.381737907422406653e-01,5.221147645705170870e-01,-5.113444640701719085e-02,1.532651741254640806e-02,4.194344671441299285e-03,1.431917250156402588e-01
3.938164792230902655e-01,4.774862154996093455e-01,5.318581361175804822e-01,-1.005177883036339065e-01,9.704518733516022747e-03,3.366400497182910762e-02,2.202271968126296997e-01
3.899078374226246924e-01,4.378808536452419298e-01,5.105841994002400241e-01,-4.623478747033221703e-02,-1.243313563748194711e-02,-1.025550796852419885e-02,1.351563036441802979e-01
3.838346897713362238e-01,4.780030782600970252e-01,5.388948418923398265e-01,-4.058829335369328051e-02,-7.658331252663286987e-03,-1.082003933814442874e-03,1.530727297067642212e-01
3.466327676995305529e-01,4.734593134262313208e-01,5.397780890108195839e-01,-7.015845281411360601e-02,-1.088904351241638292e-02,-1.172754908912919218e-02,2.107820659875869751e-01
4.178860834837522797e-01,5.328309496819287894e-01,3.694103273876611637e-01,8.190379008534011407e-03,-1.058565955459732089e-01,5.042638241151196563e-03,2.345818579196929932e-01
4.859964698208930067e-01,5.109428339123570639e-01,4.196063105721732356e-01,3.383324155711701919e-02,-5.482045286473823803e-02,3.363464999458808113e-02,1.500997841358184814e-01
5.060553407326159325e-01,4.820199172524208264e-01,4.425656916403006291e-01,5.897939313238398373e-02,-2.734350811179566895e-02,6.040649514886616001e-02,1.634263694286346436e-01
5.201323736401953779e-01,4.792368163520717705e-01,4.359676456146976409e-01,6.451766343500545120e-02,-4.464466320223009488e-02,6.508475675700969854e-02,1.910216957330703735e-01
4.655474349414970292e-01,4.728111211600082853e-01,4.638120849277326263e-01,1.222626406132275908e-03,1.871185648342339161e-04,-1.080694391154332764e-03,8.744758553802967072e-03
3.026153983171948614e-01,4.957224608721026993e-01,5.182676144537252672e-01,-6.696119842284171952e-02,-5.143812854034917476e-02,-1.559607224800814082e-02,2.535172700881958008e-01
3.229515418485169320e-01,5.228634990471090482e-01,5.259691612105459324e-01,-8.793240080862779751e-02,-4.006079942778115188e-02,-2.914479920054810491e-02,2.667479515075683594e-01
3.704591169454833910e-01,5.035195781110713975e-01,5.304543152724934263e-01,-4.632978094676697134e-02,-2.542207210803094225e-02,-1.486290856558158090e-02,1.762254983186721802e-01
3.881372276909063057e-01,5.099146298775322217e-01,4.763804033255503723e-01,-3.625937118852737284e-02,-4.735561044003516740e-02,-2.354268026096050653e-02,1.555802971124649048e-01
3.720445576210345551e-01,4.542156272083186508e-01,5.058103326718357273e-01,-9.760891304538764357e-02,-8.797575848783623087e-02,-6.010583106693982020e-02,2.762128114700317383e-01
3.716406244445900064e-01,4.709330575668289054e-01,4.978798726997005764e-01,-5.432224340053600636e-02,-3.572844389021399836e-02,-2.395819527690555908e-02,1.663279980421066284e-01
3.702753953873659243e-01,4.736855146279701501e-01,5.188103503316996434e-01,-5.703562750648150798e-02,-3.310679436454674190e-02,-3.252118690642422094e-02,1.833480745553970337e-01
4.311661268687371762e-01,4.832741986671039713e-01,4.926422163527076625e-01,2.340981059964572161e-02,2.244844813829565897e-02,-1.119919528565966292e-02,8.260316401720046997e-02
4.645563496144140547e-01,4.829565967608595578e-01,4.741944676018643445e-01,1.020492857579269157e-02,1.251426971789970817e-02,-8.516151580470839380e-03,3.541095554828643799e-02
4.644109530895599858e-01,4.643941576644085023e-01,4.703208714998743933e-01,1.004255821331615818e-02,8.369481727075012839e-03,-9.552598250939065352e-03,2.866158820688724518e-02
4.757938229382346340e-01,4.582762956889415706e-01,4.732888205154890948e-01,1.031585984931646278e-02,1.199689306196455828e-02,-7.053561683801432870e-03,3.419857844710350037e-02
4.792977811792397125e-01,4.755909953843935334e-01,4.578934766488708674e-01,1.220601735058252785e-02,1.076222196061709518e-02,-7.038256762927658228e-03,3.654574230313301086e-02
4.734220380618314739e-01,4.396591910904720790e-01,4.834662958459023940e-01,2.029236041842381183e-02,2.194650830217472620e-02,-1.995382271850266315e-02,7.385588437318801880e-02
4.444093851972250042e-01,4.882776378473767664e-01,4.687669746067536503e-01,1.585511408677036174e-02,2.161806664999010863e-02,-7.824614129435757820e-03,6.155518814921379089e-02
4.344438853978438986e-01,4.796432492933851433e-01,5.139123097800526452e-01,-2.952552458861134460e-02,2.209570124665397386e-02,1.611155381575752124e-02,9.810691326856613159e-02
4.385425845970931102e-01,4.393434312948595877e-01,5.085613666872373928e-01,-1.542871547652427747e-02,1.268089016767062933e-02,9.051942961914380067e-03,7.930675148963928223e-02
4.260826245527418177e-01,4.413193429790782107e-01,4.949352538189923378e-01,-9.251814880290516740e-02,5.891638651403411503e-02,4.369237559500818713e-02,2.138762921094894409e-01
4.933832340595077914e-01,3.915466005691675133e-01,5.189926045461727977e-01,-4.461812082421666437e-02,2.947364922734999407e-02,2.667425195359649295e-02,1.560367792844772339e-01
3.914783659047930131e-01,4.315389999954573619e-01,5.159865240520636887e-01,-5.219136740810330355e-02,-5.909530340837508902e-03,-5.074088479130087204e-03,1.430841833353042603e-01
4.664950762043885701e-01,3.906118538199404577e-01,5.142759850804358157e-01,-4.771407354089918229e-02,-9.469732386612578559e-03,-1.028443410415651529e-02,1.381422579288482666e-01
4.572869710043512281e-01,3.535944098982112260e-01,5.842955157873264138e-01,-8.399516063144354949e-02,-2.465496021380095271e-02,-8.487150790480348442e-03,2.515122592449188232e-01
3.970080623989906132e-01,3.871706992146690673e-01,5.366129482780782611e-01,-1.036465977736259203e-01,5.791429868183324559e-03,6.281905163283065842e-03,2.310984730720520020e-01
4.740573946974824260e-01,3.984974146886032798e-01,5.393684901555190203e-01,-4.834602485787906773e-02,7.690449246859220808e-03,2.245862237443867031e-03,1.487088799476623535e-01
3.962061455676929578e-01,3.875718936108702439e-01,5.915459986555258176e-01,-1.056246744263378556e-01,3.504157581982435266e-04,-1.239479949681336797e-02,2.717531919479370117e-01
5.250548930341900622e-01,5.114879185961149766e-01,3.692673667412932348e-01,8.949577549520231629e-03,1.396352295810257028e-02,1.794577536514538676e-02,1.553435772657394409e-01
4.606279378124893964e-01,4.750564522321250593e-01,4.696930426233818512e-01,9.760732030742935370e-04,2.447480500166902394e-03,-5.351642006802628977e-03,1.631903834640979767e-02
5.275821281812704822e-01,5.281930132428158675e-01,3.529575277322364868e-01,1.546253180711722880e-02,-6.572278250638195068e-03,1.300701642196675639e-02,1.787601858377456665e-01
5.259602267967562472e-01,5.184747198929932077e-01,2.986475813605872220e-01,1.220828844006968021e-03,2.413780260478696343e-02,1.556563342653621493e-02,2.291391640901565552e-01
5.200971698006175981e-01,5.000878436034769114e-01,3.427773035392188694e-01,3.747921119001456237e-03,-6.535633158906407891e-03,3.902974291450162642e-02,1.817550659179687500e-01
5.223670919826545189e-01,5.099388755057405742e-01,3.668703475574304207e-01,5.654439061875393517e-03,-1.163476462444083988e-02,4.988392154371995568e-03,1.515843868255615234e-01
4.359272603060399542e-01,5.072339187489263157e-01,4.331469662479625060e-01,1.975739872684905904e-02,5.141837820682765986e-02,-1.281736760113173605e-02,1.220085695385932922e-01
4.448360359301675726e-01,5.171943726985430700e-01,4.484510791221486548e-01,5.883922311770316792e-03,3.501458232851376723e-02,1.479518058784161372e-02,9.708674252033233643e-02
4.574861612336548755e-01,5.044245450685924670e-01,4.262957709565308728e-01,4.752820157259354458e-03,1.747049880537574276e-02,-8.466384479519132276e-04,7.500434666872024536e-02
4.729206219732830507e-01,4.989051690702245856e-01,4.480929921959674322e-01,1.005976081374232618e-02,2.220355742376998315e-02,-7.740054921206239447e-03,6.244244053959846497e-02
4.673373548038654568e-01,5.102590661588459753e-01,4.376655507848994375e-01,2.621103806176620227e-02,5.569988545422394771e-02,-3.475269798350231337e-02,1.377969235181808472e-01
4.499714804332174412e-01,4.979799862189150939e-01,4.458212660193410226e-01,1.056650579916114212e-02,1.738359214790195437e-02,-7.681200592506653123e-03,6.276790797710418701e-02
4.717831349690957965e-01,4.568272164411883995e-01,4.563413266474853347e-01,2.769466430210032817e-02,2.833511949939519770e-02,-2.745958285821742048e-02,8.486983180046081543e-02
4.280143279684807678e-01,5.536499034850741463e-01,4.599620105332568598e-01,1.877981832658492597e-02,7.845881452023531488e-02,1.302594504327144083e-02,1.811784058809280396e-01
4.518573720585428721e-01,5.047718412759729656e-01,4.419961112823315719e-01,4.435692243042398467e-03,2.322075911506483320e-02,-1.135814610893058976e-03,7.141076028347015381e-02
4.517074236288867728e-01,5.086657828425344974e-01,4.472434634680321208e-01,5.322484675508594096e-03,2.412042595027241373e-02,-8.476793111224399310e-03,7.459478080272674561e-02
4.678256666147715404e-01,4.550584804234729108e-01,4.502424072443804159e-01,-4.468177106132791183e-03,-5.775152730646530667e-03,-4.097150320846979984e-03,2.140079997479915619e-02
4.584161027253398912e-01,4.573719516929463103e-01,4.540447544403736768e-01,-2.332373327690945124e-03,-2.457070186057897822e-03,-3.136734679555754513e-03,8.920951746404170990e-03
4.581085367526911423e-01,4.639580403286343024e-01,4.337977075714340991e-01,-1.113438704824992569e-02,-5.720711590427320602e-03,-5.360837877502197882e-03,3.638349100947380066e-02
6.747696946024128728e-01,6.820760902190113883e-01,2.887805481285689035e-01,1.066439364398778927e-01,1.649404009921873471e-01,-2.740209935277497857e-02,5.194695591926574707e-01
4.618488943006802683e-01,4.580332318266179259e-01,4.877175240773831133e-01,9.538165221113970374e-03,7.159612780639045687e-03,-3.071338628868409883e-03,3.517755866050720215e-02
4.560046748247477688e-01,4.548146989631052795e-01,4.537132212237584561e-01,-4.622177212401680328e-03,-3.658776118839226089e-03,-4.286300377344938115e-03,1.277930475771427155e-02
4.560955934804178935e-01,4.650726527975926894e-01,4.429921929129488345e-01,-6.318505165750500432e-03,-3.112314025020092908e-03,-3.793042874128303103e-03,2.370460331439971924e-02
4.368906456928623450e-01,4.972362544374058779e-01,4.599311361963221434e-01,1.510985544693793821e-03,-5.866392537356179306e-03,5.255855171687953166e-03,5.454382672905921936e-02
4.586079885693565283e-01,4.644065974705819944e-01,4.409535587317048311e-01,-8.053287849633338630e-03,-2.008376269832796383e-03,-2.398558821410086937e-03,2.591525018215179443e-02
4.954139963020456339e-01,5.487739954445722823e-01,4.524848734402663331e-01,-1.612612645300210215e-02,8.282033322141914289e-02,5.621860228201119164e-02,1.944743394851684570e-01
4.726642322220118708e-01,4.727484493730478854e-01,4.551147059192613975e-01,7.319684310118900090e-03,1.766501119788605216e-03,-8.376781535662974941e-04,2.194700390100479126e-02
4.670998236318444352e-01,5.374066080698797210e-01,4.812121704649399145e-01,1.488774492081634294e-02,1.026562622999804691e-01,6.659192530327955051e-02,2.230096906423568726e-01
4.871496926104530445e-01,5.388631602774266449e-01,4.116926585841164110e-01,5.170960070214704329e-03,6.616623877091726280e-02,7.206295472128817527e-03,1.601253002882003784e-01
4.561009098961020247e-01,4.848435350970665136e-01,4.659280085137013083e-01,-9.007044604417934613e-03,7.828449697518004638e-03,1.239420971023765493e-02,3.909395635128021240e-02
4.603123150498291127e-01,4.881224192844120791e-01,4.348278377103581005e-01,-1.215837004348488057e-02,2.843493318575780748e-02,1.727973977688667881e-02,7.678847014904022217e-02
4.721932466625010094e-01,4.903612494722350834e-01,4.593947239127522675e-01,-8.378815672430615924e-03,1.255657556268922372e-02,1.247744883610630434e-02,4.332526773214340210e-02
4.544129975980053526e-01,4.832403121622066977e-01,4.727073873515379998e-01,-9.931517619353662923e-03,1.279747011391226506e-02,1.197436779792589688e-02,4.307792708277702332e-02
4.393595365457141910e-01,4.403965321915896403e-01,4.863350857763992230e-01,-5.879383421683100075e-03,-6.615552817809240704e-03,-6.756706887053600188e-03,5.030925944447517395e-02
4.763212633411351149e-01,4.972731991248642291e-01,4.550481454789251368e-01,-7.514219334858501104e-03,2.435277687755325188e-02,1.232880940879857792e-02,6.117029115557670593e-02
4.648178685217066453e-01,4.716031246115383602e-01,4.673071618099294278e-01,1.990611984600108245e-03,1.227329510693195942e-03,-3.363898454713339179e-03,9.257420897483825684e-03
4.668258606973243463e-01,4.663473691032346546e-01,4.672103743983835322e-01,1.300237363584870855e-03,1.585087864057755248e-03,-3.798739897319585584e-03,7.514081895351409912e-03
4.625235340482421464e-01,4.756936457913732985e-01,4.667522974619209841e-01,2.262839681018904026e-03,2.607080894281707615e-03,-4.452782629990370382e-03,1.519456319510936737e-02
4.670747089487300441e-01,4.770381791312517383e-01,4.624013425829138213e-01,5.942027280670316748e-03,4.596391374154573661e-03,-4.290456529624036251e-03,1.980408094823360443e-02
2.986102143040180179e-01,3.922131613530231431e-01,5.459693273396762914e-01,-2.056365847748103381e-01,-1.054422671486844182e-01,-8.752172416001421928e-02,4.795707464218139648e-01
3.202565601749897128e-01,4.695157382124656165e-01,5.249548097357547016e-01,-8.625158609910829610e-02,-4.053102926894264213e-02,-2.509607539948075297e-02,2.505241036415100098e-01
3.471614478268880699e-01,4.420089643243600985e-01,5.388878169724464762e-01,-8.438405502668400171e-02,-1.230276124257918477e-02,-9.618465786394293088e-03,2.228540033102035522e-01
2.547158715503515247e-01,4.876593999165963478e-01,6.094399602833548979e-01,-1.297881202121736743e-01,5.202236327037696242e-03,2.546227652069077418e-02,3.873270153999328613e-01
2.640051599052066766e-01,4.995448995259024194e-01,6.441319135078262814e-01,-1.992496378594355855e-01,-5.083794456391928923e-02,5.488880147059588960e-02,4.963198900222778320e-01
3.056947766965187885e-01,4.884548558103543048e-01,5.171957250240312165e-01,-2.179216046570369714e-01,-1.136730683830933925e-01,-3.395061468852126479e-02,4.734681248664855957e-01
4.684132090345029531e-01,4.709743791908094779e-01,4.634920117195529543e-01,2.072488339283544336e-03,2.034759225791165900e-04,-7.814003772008057663e-04,7.630425505340099335e-03
4.687702330601062894e-01,4.283489350694108522e-01,5.110288654847834344e-01,1.775600703500419472e-02,1.871485797256337543e-03,-5.545069929365800156e-03,7.859008014202117920e-02
4.972966199998009595e-01,4.213522253166146481e-01,5.030374859801964860e-01,2.411934944872519415e-02,1.522458183970449089e-02,-2.278400558719911179e-02,1.011653169989585876e-01
4.840643871693795508e-01,3.703598150644814013e-01,4.914764318954812916e-01,4.783950784455481831e-02,2.746503988328910864e-02,-4.487739711975036183e-02,1.702857464551925659e-01
4.982741853375010632e-01,3.945702604891771492e-01,5.000926223012803762e-01,2.731928322105305756e-02,1.900574588463689596e-02,2.981860420494767826e-04,1.194543465971946716e-01
4.847787304841181810e-01,4.319384246240214886e-01,5.234893686724779727e-01,7.472753913605126308e-02,6.282528547511653967e-03,-3.951735138777262742e-03,1.524925231933593750e-01
4.699067507774651320e-01,4.368990505087938514e-01,5.022731590199671636e-01,8.241897503996611918e-02,2.485224208898744597e-02,-5.334202062485460250e-02,1.843179613351821899e-01
4.525790684639979244e-01,4.458393390920784016e-01,5.076189373378361402e-01,3.956880897891221216e-02,1.874850419658742606e-02,-1.199077886399475129e-02,9.812589734792709351e-02
4.892678830549597180e-01,4.445834324379899782e-01,5.387739678988970882e-01,9.225604086845293206e-02,5.061160760456209773e-02,-3.137193449113490767e-02,2.069551497697830200e-01
5.004505296768626543e-01,4.210799491518049109e-01,5.489916826026567387e-01,8.547301050789254950e-02,3.100563025100755432e-02,-3.585114113669649570e-03,1.932567805051803589e-01
4.857373838531444110e-01,3.625010031545377043e-01,5.089913360321544067e-01,4.737584055219895562e-02,2.751799742186869166e-02,-2.655507572082150408e-02,1.723784506320953369e-01
3.569519196962381846e-01,5.553689085183338703e-01,4.759902692641939659e-01,-4.589176150350519207e-02,-7.730793971633660722e-02,-2.632491716279481732e-03,2.327846735715866089e-01
4.007521395430067024e-01,5.081322814785669273e-01,4.669465577150350710e-01,-5.187803316514576213e-03,-1.029085396784089508e-02,-4.991172514754234346e-03,9.631931036710739136e-02
4.394606901254565212e-01,5.004570822409946107e-01,4.348081013357634195e-01,-1.516358390293949705e-03,-3.167521689219197304e-03,-6.838968063096912417e-04,6.375263631343841553e-02
3.869844334818058340e-01,5.406774332513084591e-01,4.777880657766251926e-01,-5.210933078972789304e-03,-4.723084123487081287e-02,2.619221998834985344e-03,1.571790575981140137e-01
3.813201925003291137e-01,5.766409951878079809e-01,4.765832112507155105e-01,-2.395923983935294242e-03,-1.107958721742954150e-01,2.895495207337607253e-03,2.559061646461486816e-01
3.468569880186131993e-01,4.824700487244250602e-01,4.799295933400368752e-01,-6.726010686366773461e-02,-7.118811558569633491e-02,-4.359871331090992008e-02,2.291950881481170654e-01
3.859765238812926658e-01,6.537456581595846306e-01,4.327199686567466674e-01,-5.146366115425980020e-02,-2.043783141491014865e-01,-4.958932170956077690e-02,4.494475722312927246e-01
4.838402573419895991e-01,5.181491516580787327e-01,3.786584413778715241e-01,4.792382784163796809e-03,-1.941109868533243479e-02,-1.737189377020952529e-03,1.306036412715911865e-01
4.719043617709793859e-01,5.379423582429153639e-01,3.907291580165537792e-01,-2.127753107679196745e-03,-4.327904351397954957e-02,-7.448164366970041333e-03,1.486953645944595337e-01
4.349556324176750421e-01,5.127678791964981331e-01,4.471623190786588875e-01,-1.192770798358634525e-02,-2.809004311709710142e-02,-1.048597989631130586e-02,9.153003990650177002e-02
4.234574945708578508e-01,4.980398868733745266e-01,4.483935604873060532e-01,-2.034618646597411915e-02,-3.661592852363353828e-02,-2.358619249858312159e-02,1.061016246676445007e-01
5.882835647852311389e-01,4.402569520890081689e-01,3.859212471568717051e-01,-1.140943758088566046e-02,-2.189739905176479873e-02,-1.330040081276946395e-01,2.963217794895172119e-01
4.757490457037393261e-01,4.734331453673371604e-01,4.561333500127219276e-01,1.871027199148025261e-02,2.894436986324917110e-02,-3.275828729639378156e-02,8.442499488592147827e-02
5.020342564835351684e-01,4.976775083738362304e-01,3.186014414219875412e-01,-1.201601341559475553e-02,-5.259657739299577334e-02,-5.658267122140982208e-02,2.262842357158660889e-01
5.122909796280765704e-01,4.763382423378311192e-01,3.910585329454685510e-01,-9.005760053762558448e-03,-1.111421874999916209e-02,-4.584860980282615822e-02,1.362036764621734619e-01
4.352604357150172687e-01,5.044055006660239648e-01,4.412167448201817499e-01,-2.234214189844913761e-04,-2.081392898848057667e-03,-4.279725811070148717e-04,6.647077947854995728e-02
5.983203758784489956e-01,4.857577673577195276e-01,3.269558418982837500e-01,8.380204855844668177e-03,-3.141746651327643244e-03,-9.500749294563953784e-02,2.882414162158966064e-01
5.591096112968938492e-01,4.907187248914314237e-01,3.307887654041660741e-01,1.071925255814510161e-02,-2.131434487142686018e-02,-8.590209087838152069e-02,2.550250589847564697e-01
4.313775571792169417e-01,4.902443846006822037e-01,3.994187942560048499e-01,-6.381124884877747983e-02,-1.049955558543148870e-01,-7.839986695114005422e-02,2.647553980350494385e-01
4.443938438789724610e-01,4.516545990976745806e-01,4.433711971405803198e-01,-8.065768162006442532e-02,-9.050034288018120321e-02,-1.146503627512649170e-01,2.891076505184173584e-01
4.694919851403948075e-01,4.549955027566157106e-01,4.674243851127022897e-01,-6.030645601874410483e-02,-5.729936734282086580e-02,-5.960300568842832186e-02,1.777702569961547852e-01
3.967765384156099473e-01,4.908161335766439981e-01,4.797576822027640464e-01,-8.710647278109269476e-02,-6.957754131634373562e-02,-6.081854137191072818e-02,2.372934967279434204e-01
4.360217777457930932e-01,4.152091248806986656e-01,4.789856934698035751e-01,-9.976349349560896529e-02,-9.047920310612642125e-02,-7.663895582582977428e-02,2.742472887039184570e-01
4.530673843173712578e-01,5.056824470751908329e-01,4.082157270266253413e-01,-8.210606235517762044e-03,-1.373219919354896380e-02,-4.671897546651200377e-03,8.929350972175598145e-02
4.119513003319477673e-01,5.025643333276430536e-01,4.404447469979440588e-01,-5.798400238676921364e-02,-8.670762841396446874e-02,-5.634352156256718092e-02,2.204667031764984131e-01
4.074721114985749293e-01,5.151187103479338836e-01,4.369044661935702623e-01,-1.940191343102726229e-02,-4.313147104738116605e-02,-2.555211955543208388e-02,1.339953988790512085e-01
4.244078509148645484e-01,5.096310221861540812e-01,4.252776215254262526e-01,-4.320847207483737712e-03,-2.569628033211638490e-02,2.338243465843270041e-03,9.614015370607376099e-02
5.574270298420042069e-01,5.515446233085893324e-01,3.593580964006414247e-01,3.555510668534003077e-02,-1.979551308086164099e-02,4.977509566683246262e-02,2.247254997491836548e-01
5.630393520720090583e-01,5.341120894830113652e-01,2.713052218594120824e-01,-7.642315794469950116e-03,-2.422300379444514498e-02,-1.865510485993124301e-02,2.837006151676177979e-01
5.559281513548642861e-01,5.605857903698135969e-01,1.625951790893458981e-01,-9.009382512719971321e-04,-6.699684057056494446e-02,-9.973804446756998066e-02,4.470746219158172607e-01
5.975178441863963075e-01,6.747575508808116851e-01,1.780736277373529131e-01,6.844609614719594781e-02,-5.515298101220664218e-02,-7.837625825139218905e-02,5.058713555335998535e-01
5.396852465835922930e-01,5.335671953775112941e-01,2.920315066302388018e-01,4.833527384153267145e-03,-7.107187803732716025e-02,-1.996579629500161435e-02,2.761779725551605225e-01
4.506627859403314895e-01,4.664349107825985219e-01,4.992162948086395491e-01,-1.356778988241894371e-02,4.484957960651078136e-03,1.012744562854536734e-02,5.254242196679115295e-02
3.926010135648463351e-01,4.377199715350754139e-01,5.170505694247879980e-01,-5.082941206854676985e-02,6.866975057056507944e-03,4.388701495896968514e-03,1.409202367067337036e-01
3.125362025843305691e-01,5.155971030560149160e-01,5.659734606133278723e-01,-4.179751729246698744e-02,-9.570568311810018561e-03,1.790736748790463378e-02,2.459245473146438599e-01
3.843555707713310898e-01,4.303877782677054675e-01,5.401620903565568232e-01,-1.311405877677473131e-01,-7.002458557651456729e-03,-1.505731957494917291e-02,2.676627635955810547e-01
4.263542855720765523e-01,3.878327185204974437e-01,5.189354899088185480e-01,-5.777880073838267960e-02,-8.273061448341164498e-03,-1.238824753263930226e-02,1.558924913406372070e-01
4.257802876747967535e-01,4.549793704143381134e-01,4.960958519072786732e-01,-2.946457818788504601e-02,1.137784048178747294e-02,1.560653801677891993e-02,8.641329407691955566e-02
5.342872638533460172e-01,4.403553984872357607e-01,4.593220607503346598e-01,3.109343619035180931e-02,-6.639396057518708212e-03,6.396356878415455915e-02,1.506918072700500488e-01
4.305315052984070578e-01,4.506065245150153165e-01,5.200565964796993734e-01,-2.350517386372554668e-02,2.682129299995262683e-03,-9.729666944007222748e-04,9.111768007278442383e-02
5.227751618468519101e-01,3.662632141596638968e-01,4.999707444490653074e-01,1.113014386055220274e-02,1.806960832531061961e-02,-1.439942121675493077e-02,1.530361771583557129e-01
5.622757732238786721e-01,3.739533029374527140e-01,5.118658786352749956e-01,5.834814552683957600e-02,3.548508192831933972e-02,-3.237679648881759686e-02,2.136563956737518311e-01
4.920498344528371204e-01,4.519689780767268128e-01,4.478431499800986648e-01,4.603356904428626897e-03,3.635724065598429366e-03,-2.053604787419248401e-03,4.364337772130966187e-02
5.198342518239656984e-01,3.712615923254439787e-01,5.343309709707069199e-01,5.060726290798817778e-02,1.939968421609666177e-02,-3.719667383616823836e-02,1.933931559324264526e-01
4.408982861783123930e-01,5.004306571707352047e-01,4.844008700531334255e-01,4.048387028983350261e-02,4.045690890686616525e-02,-1.054355880686880069e-02,1.140499114990234375e-01
5.935284968073258893e-01,3.231123039344401815e-01,3.945277063158812436e-01,6.325405780768426911e-02,6.273779841810925295e-02,-1.628847283173412153e-01,4.028880894184112549e-01
5.130707376794838570e-01,4.195055017475363135e-01,4.793101289366215600e-01,1.325281956470084760e-02,1.303909135445886075e-02,-2.962449381890546948e-02,1.020059287548065186e-01
5.167892803837601523e-01,3.977799607157026518e-01,4.776461996351981099e-01,2.713901254899609219e-02,1.112122131242081896e-02,-4.498791462494115823e-02,1.403188109397888184e-01
4.303636192983568698e-01,4.996990054782942670e-01,4.264328216239507974e-01,-8.908589810697959896e-03,-2.028512248916884003e-02,-7.955784347913148410e-03,8.220596611499786377e-02
5.248882877507957678e-01,3.331328336437315851e-01,5.004376106726323714e-01,2.405887952605296684e-02,1.414401144932867470e-02,-5.550450700539483195e-02,2.103766649961471558e-01
4.543881203729185914e-01,4.854021571436586968e-01,4.352357356660094267e-01,-1.116153357654800851e-02,-1.732836111977826415e-02,-1.186277813648424669e-02,6.016152724623680115e-02
5.301901308444202376e-01,3.864644017540817544e-01,4.809488776529331489e-01,6.049299897366021937e-03,1.669459251741958403e-02,-4.798861896918858727e-02,1.544641852378845215e-01
5.207923201084370124e-01,5.198170147932528184e-01,3.151451082812112281e-01,-3.441316958563604179e-03,-1.236225236245214187e-02,-2.561609434958496412e-02,2.110775113105773926e-01
5.128255069364099361e-01,5.224555826098606914e-01,3.361922354545047176e-01,-3.017007059302404936e-03,-2.335731495077334602e-02,-1.681647250846765237e-02,1.884288340806961060e-01
5.193863379695587978e-01,5.706717422329466993e-01,3.210080204832586048e-01,1.374586759971782590e-02,-3.429522568344298833e-02,-4.779211294867974358e-02,2.512083947658538818e-01
5.418323236447968316e-01,5.689035216756608282e-01,3.282463455098523775e-01,1.430904250824184716e-02,-5.439669250147409485e-02,-3.141623285530537740e-02,2.541378140449523926e-01
5.800058201573292660e-01,5.443763409395148134e-01,1.725212727775339294e-01,2.210307282915862509e-02,-1.392078575729577099e-02,-9.450105878202127996e-02,4.261842370033264160e-01
5.474561360244205588e-01,5.229028387634347963e-01,3.230815662605043825e-01,6.624396899786151247e-03,9.991846769380593931e-04,-1.288634937224058911e-02,2.146403789520263672e-01
2.835087738026326187e-01,6.217828297998843068e-01,5.541894338860817726e-01,-1.107323571614365898e-01,-1.587868231773875427e-01,-4.416162029498048314e-02,4.630427360534667969e-01
5.511064513058941960e-01,5.745639068874344169e-01,2.951693867931481363e-01,4.668302457060376567e-03,-8.450173535199818333e-04,-1.472629952464839763e-02,2.697698473930358887e-01
4.720525544254791650e-01,4.431931619669370326e-01,4.574849390701826723e-01,-2.692406654834281557e-02,-2.207321406309810385e-02,-3.263756706380084582e-02,8.635216206312179565e-02
4.523862446854598485e-01,5.030535861394167529e-01,4.383491789495932434e-01,3.376640361314854968e-03,-3.122410067831984330e-03,-6.632972390691226007e-05,5.948870629072189331e-02
5.083641568193230098e-01,5.151872436458893034e-01,3.933492532062703995e-01,-1.388721197087872464e-02,-4.690988020388287688e-02,-4.295847941704390716e-02,1.636343747377395630e-01
4.122760128396241730e-01,5.039354144896043275e-01,4.475450830309448125e-01,-4.176296330647868982e-02,-5.955295953946387194e-02,-5.396069276281934696e-02,1.761249005794525146e-01
4.398800541309582091e-01,4.122617618943718587e-01,4.324779491398768605e-01,-9.311202214376020081e-02,-8.623388284759754552e-02,-9.482867692994614850e-02,2.755157947540283203e-01
5.185847950635508186e-01,4.341275080723854263e-01,3.898272542770881977e-01,-7.539447736554476254e-02,-8.689967853598745684e-02,-1.191718970035001574e-01,3.084647357463836670e-01
3.478392079552746763e-01,5.810515570895987691e-01,4.898421670810331197e-01,1.798470985473302544e-02,-4.647012639079346752e-02,2.649439490699290883e-02,2.258110344409942627e-01
4.314371115900809128e-01,5.245419485895332912e-01,3.798893004392385198e-01,-1.349405613199057379e-02,-6.030810929385283653e-02,-2.224639930451650580e-02,1.704911142587661743e-01
4.395096218111648745e-01,5.011247552348419010e-01,3.933412863687438255e-01,-2.157352335687155384e-02,-4.130459501966448482e-02,-2.861330858872542307e-02,1.332037299871444702e-01
4.079282403698580306e-01,5.072221870934126020e-01,4.156648554937076856e-01,-1.363577944968245512e-02,-5.240774014235247136e-02,-1.753704348102102378e-02,1.373721361160278320e-01
5.162231865841873102e-01,3.643360942805492497e-01,5.325151619082949539e-01,1.575883900242765201e-02,8.436298525169886806e-03,-1.832053714262260602e-02,1.666586995124816895e-01
5.365498335717776568e-01,3.637962021748745167e-01,4.703282805582931214e-01,1.302298307993163783e-02,1.666758505156861608e-02,-6.639383253167911725e-02,1.932763308286666870e-01
5.124678419711830024e-01,3.993631440005380728e-01,5.509130853596594379e-01,6.361632179579955471e-02,2.938180165272508138e-02,-3.416254330545625412e-02,1.919668316841125488e-01
4.023314801290455156e-01,5.023519621726666440e-01,4.732581060814792795e-01,-2.420873591175349074e-02,-3.774367145711892552e-02,-1.086453289967558716e-02,1.196938827633857727e-01
5.506007247595974263e-01,5.654195697433664902e-01,3.287954481196923018e-01,3.009674424208922273e-03,-4.777688630921247265e-02,-3.944071343328706125e-02,2.534676492214202881e-01
4.840388218733443493e-01,5.076153840492505509e-01,4.093721475373432450e-01,-8.085527395076213403e-03,1.608234695462052929e-02,9.338598858224302426e-03,9.552502632141113281e-02
5.510631149272368079e-01,1.987496862596747071e-01,5.024938852861391414e-01,7.689325905275520845e-02,6.161933344231305260e-02,-1.345289222439880472e-01,4.390840232372283936e-01
5.264174838071205009e-01,3.544722337036422810e-01,5.314861611183332446e-01,3.293195010812124957e-02,2.515343362158981716e-02,-2.300875678313135317e-02,1.928787976503372192e-01
5.507352419762059359e-01,3.314405659402941406e-01,5.388074810885621346e-01,3.357404348510227565e-02,4.310005481008539335e-02,-3.344493261915822829e-02,2.406801134347915649e-01
5.130597111455017512e-01,3.609762581052989305e-01,4.911898107090427179e-01,1.708923922713855362e-02,1.809774367457936406e-02,-2.311031178111145820e-02,1.540863066911697388e-01
5.714625461944449203e-01,2.921008300957668169e-01,5.419858985821121022e-01,3.085162660046672934e-03,8.753231102678133563e-03,-5.324514861830271367e-02,2.818523347377777100e-01
5.151909588930781991e-01,4.757008978112234887e-01,3.923783445102919099e-01,1.380539264518273329e-02,6.963062490178841858e-03,-1.903042893809809080e-02,1.166028156876564026e-01
4.548829457953527666e-01,4.393148791876245740e-01,5.226037088527661911e-01,6.612817533687238847e-02,-2.671569948468794655e-04,2.019153585105362345e-02,1.422141492366790771e-01
4.459440249310408499e-01,4.703425060308634165e-01,4.862788034697623218e-01,2.161280034550887991e-02,-1.633093035963945755e-02,1.411299671731622990e-02,6.353770941495895386e-02
4.742301833632786567e-01,4.797295588130066624e-01,4.607815662641923660e-01,1.389323618197707208e-02,-7.222673437400880039e-03,1.221351867183799629e-02,3.831637650728225708e-02
3.991562293478356782e-01,4.984056631910718238e-01,4.707446167124465508e-01,3.280828577545467917e-02,-3.569599598830680565e-02,2.661436845147039168e-02,1.305640786886215210e-01
4.606167328444112918e-01,4.646605950621662817e-01,4.718559650460546484e-01,7.701519854764909447e-03,-7.210676213340102593e-03,7.373484340557561779e-03,2.437723986804485321e-02
4.543476598328802241e-01,4.777280335633903308e-01,4.646259387679071429e-01,1.138046199235181327e-02,-1.049310634529558757e-02,1.384276571449802318e-02,4.130014404654502869e-02
4.673261294738711435e-01,4.476763019837458057e-01,4.778030088340181614e-01,2.206924738434791478e-02,-1.746414976282023579e-02,1.668817915044826586e-02,6.255701184272766113e-02
4.578195799913718500e-01,4.759108650228748849e-01,4.754086748750360192e-01,1.116691986506303594e-02,-1.098269231367327188e-02,1.372439282439610539e-02,4.024297744035720825e-02
3.842117391964007811e-01,4.967409417711715625e-01,5.076350057551868300e-01,6.241426580072098607e-02,-4.202746306345104405e-02,3.903912917653397374e-02,1.885871291160583496e-01
4.563804134387355882e-01,4.581735119410885737e-01,4.917949191271409615e-01,1.665189986920191862e-04,-7.038499810295443734e-04,1.829472429848809280e-03,3.472046926617622375e-02
4.607905410127998147e-01,4.640483872564676870e-01,4.757050843302880194e-01,7.504496245018826665e-03,-6.148341136006220918e-03,8.727101804013369032e-03,2.636879682540893555e-02
4.674755988915515470e-01,4.627856916402297016e-01,4.922902173232225898e-01,1.879819875966680029e-02,-5.964545378600974272e-03,1.136009978766814969e-02,4.804309085011482239e-02
4.540130359530303306e-01,5.012854217755495778e-01,4.413727935753321563e-01,1.006116083783040877e-02,-1.771361140908021825e-02,3.181443902340022958e-03,6.532496213912963867e-02
5.027889880804455869e-01,4.390204999533596775e-01,4.447614053858334193e-01,-7.578266723491421184e-05,2.974952467874407945e-03,-2.609664418663391102e-03,6.148405000567436218e-02
3.993123288710445085e-01,4.940564452097361281e-01,4.779805991785581742e-01,3.130707179942975732e-02,-3.683937714632219002e-02,2.947190531979309788e-02,1.316411197185516357e-01
4.535514307837486547e-01,4.595259503122564038e-01,4.858730787479154656e-01,1.302731155150360295e-02,-9.377061776896572151e-03,9.908116918692580141e-03,4.421210661530494690e-02
3.800188644508307179e-01,5.611092197662386205e-01,4.451644577202023001e-01,1.210337047762971401e-02,-1.046794702889540518e-01,4.623269126491320186e-02,2.548836171627044678e-01
4.106787855036475587e-01,4.877839119232160181e-01,5.227242037487287440e-01,6.057661709451315352e-02,-6.036861986819912901e-02,3.879712926408933338e-02,1.905713528394699097e-01
4.343613842840399752e-01,4.841027848153631741e-01,5.026876724946705011e-01,2.299898448358126887e-02,-8.676653554262022880e-03,1.663348040371182002e-02,7.991729676723480225e-02
4.034108775216425080e-01,5.226038697638037966e-01,4.727474290140366575e-01,2.264178715177991158e-02,-3.392061890407375990e-02,2.124881782627007637e-02,1.307455897331237793e-01
3.365973608641829040e-01,5.533699729918144516e-01,5.335215777528398151e-01,2.847904800343517909e-02,-4.123453104246302403e-02,5.094298665531106496e-02,2.416636645793914795e-01
3.750258199189203667e-01,5.591030095077377249e-01,5.130853613225414556e-01,6.196315524768674504e-02,-5.040875901762416345e-02,6.463654584024154659e-02,2.433234751224517822e-01
3.703241592667062543e-01,4.880964170261610779e-01,5.227740875152877553e-01,9.090310947580045042e-02,-4.891227266729052114e-02,8.374174119808635089e-03,2.265715152025222778e-01
3.807337486410431460e-01,5.188155633334053940e-01,3.959840591067620430e-01,-3.322957908479661632e-02,-1.032316095779067661e-01,-3.279022874317135544e-02,2.360124439001083374e-01
4.022305656122051598e-01,5.226783375754309180e-01,5.074064990978152112e-01,2.494682433888587361e-02,-3.657596185256292709e-02,1.697378634235875705e-02,1.401648968458175659e-01
3.661160524591707821e-01,5.752678518577249989e-01,5.435199666591898904e-01,5.217577154993657818e-02,-5.526692227173510968e-02,3.466991920792977105e-02,2.429990023374557495e-01
5.453464837250752151e-01,5.145026754925978718e-01,3.365399814709265081e-01,7.221953434570684005e-02,7.098574640205475295e-02,-1.230173677734153759e-01,3.380456268787384033e-01
5.466524656876020627e-01,5.017177744270059359e-01,4.016153845851874182e-01,6.973421262111949293e-02,1.220538538233622156e-01,-1.220716002011833917e-01,3.471629619598388672e-01
4.975501659529832366e-01,5.117314868723602528e-01,4.010911740989455687e-01,2.154371727097969397e-02,2.290105884489809784e-02,-7.965270637522513936e-03,1.184460669755935669e-01
6.857381650611391599e-01,4.068414978728302489e-01,2.941362978957833274e-01,6.012473207853055723e-02,6.752307492147385792e-02,-1.682958539096906792e-01,4.810534715652465820e-01
7.272834104396447286e-01,4.851969186833348657e-01,2.970523661153527395e-01,1.155918922184366454e-01,7.159615514771493217e-02,-1.600917224170638753e-01,5.214422941207885742e-01
5.009640418849159449e-01,5.101513176999492583e-01,4.060792233521053896e-01,9.564800186134612969e-03,3.830613912989504904e-02,-1.374598466847477482e-02,1.232990697026252747e-01
6.970633750808973295e-01,4.155209053166840638e-01,4.172737442464376501e-01,5.467233397196478301e-02,9.995777867628689861e-02,-1.748322257458252704e-01,4.576205015182495117e-01
7.809147514605079277e-01,4.247076883198195318e-01,3.932494141945688249e-01,2.656292909036956154e-02,9.189746991131594878e-02,-1.598690271009068631e-01,4.931584596633911133e-01
4.438241831295711703e-01,4.819460788586758526e-01,4.478645902347030416e-01,-1.279648233444371543e-02,-1.577408591228436630e-02,-9.642650939824200240e-03,5.321872979402542114e-02
4.518495039863678064e-01,4.672121370941941243e-01,4.607149616775808032e-01,-7.795365279306053392e-03,-1.418335982846435396e-02,-1.353750548693373988e-02,3.891026228666305542e-02
5.101152523951797413e-01,4.674257945527168778e-01,4.018711902828411286e-01,-5.511639241667227497e-03,-7.547179197635226107e-03,-1.084506610459008528e-02,9.763783961534500122e-02
4.470926552434447143e-01,3.769426183910080108e-01,4.502118692264924782e-01,-8.731268145426131222e-02,-5.969100367074041402e-02,-8.335797591120840122e-02,2.440384924411773682e-01
4.433231584062337638e-01,4.594878533149658328e-01,4.544296429061404075e-01,-4.504946584115696734e-02,-3.271424242116643261e-02,-2.878480263420593252e-02,1.094981357455253601e-01
4.422296916116461585e-01,4.839854366273901309e-01,4.408246568878560478e-01,-1.222916657002100400e-02,-2.304337371716185315e-02,-1.580404732498092227e-02,6.778743863105773926e-02
3.398865338046946905e-01,4.729758610211921566e-01,5.896779102113705040e-01,-2.070773925140677874e-01,-1.110313055080324462e-01,-7.499419329383755217e-02,4.789189100265502930e-01
4.343958470169366759e-01,5.074652507564081372e-01,4.760071384796353278e-01,1.134761683346860797e-02,-1.753568587394855466e-02,1.497702906232836056e-02,7.753621786832809448e-02
4.541955543747027702e-01,4.916401123579442478e-01,4.434470603750567674e-01,-2.512400055834659168e-02,-2.736391545106948292e-02,-9.818538689426385691e-03,7.968253642320632935e-02
4.643705833012134465e-01,4.833676277969360391e-01,4.585927111914228638e-01,-4.411787492069170480e-02,7.683189835455689343e-02,4.806070556507974906e-02,1.760173588991165161e-01
4.205308530539034750e-01,4.792212118256317654e-01,5.067741156255878288e-01,-3.215974625590636848e-02,1.142315790426820174e-02,1.568719546921617039e-02,1.002660840749740601e-01
3.908321249149829812e-01,4.892890756964612398e-01,4.942784755771283400e-01,-4.501872711199597643e-02,5.148488347423964967e-02,3.129344246197308943e-02,1.648632287979125977e-01
3.882544357424377868e-01,4.885192767976062611e-01,4.712683734666000546e-01,-4.579580228507713208e-02,4.508405872035069900e-02,2.800579598516533472e-02,1.528510004281997681e-01
3.440965697824202585e-01,4.672024942612301168e-01,5.469254904042641918e-01,-1.233843908801505324e-01,7.735473188804808942e-02,6.643943453568530721e-02,3.289227485656738281e-01
3.880141892908849366e-01,5.040833541488995984e-01,5.440676798831074468e-01,-4.864852731881028763e-02,4.325683884875333729e-02,5.594260156284681235e-02,2.044846415519714355e-01
4.093433948047230375e-01,4.588294620012026148e-01,4.850120579116218855e-01,-3.528360391928114792e-02,-2.796466643926264622e-02,-3.355040275164295621e-02,1.178466230630874634e-01
4.030675485964934079e-01,4.753445615968300841e-01,4.934311673008020538e-01,-3.251065729433336854e-02,-2.877762334096627128e-02,-2.150536578940104651e-02,1.179027706384658813e-01
4.771753642888290625e-01,5.083916848265505051e-01,4.456440087855712551e-01,1.452784642575558061e-02,2.611673797263278432e-02,-9.875648971028487544e-03,7.697395980358123779e-02
4.371657971520394037e-01,5.021332643551924546e-01,4.319972503390150376e-01,9.604659783451440641e-03,-2.707896200195273814e-02,1.021354814716133978e-02,8.586490154266357422e-02
4.647023648504285398e-01,4.931275844711404122e-01,4.264421208942274499e-01,1.330815251272996456e-02,-1.554080936560507317e-02,1.512810598309884645e-02,7.281377166509628296e-02
4.583210150695651297e-01,5.079872739234118084e-01,4.241999901284183028e-01,3.037129553727608428e-03,-2.941701074493801790e-02,1.030586545080373201e-02,9.092871844768524170e-02
4.690660089950658973e-01,5.080440563214935201e-01,4.015182865449354876e-01,1.096166987981097088e-02,-1.025973501237146049e-02,1.066178931489789213e-02,9.865162521600723267e-02
4.604825567813093379e-01,4.948386050300590533e-01,4.364662180844010031e-01,1.085448825471074796e-02,-4.754066902900472638e-03,1.120242284657131486e-02,5.813755467534065247e-02
4.432355442207359664e-01,4.424865917864372333e-01,5.037376070045130882e-01,2.433069570624248404e-02,1.849006993694554419e-03,1.173002784426418381e-03,7.413977384567260742e-02
4.250236480652447857e-01,4.510276632097849348e-01,5.393820991301710999e-01,5.260363257130862280e-02,4.141202446401777426e-02,-7.333760367656154584e-03,1.561663597822189331e-01
4.582866802467971956e-01,4.740488453640894773e-01,4.874106973156509537e-01,3.379012420178278964e-02,1.930653004635661876e-02,-2.539647129179980686e-02,8.435687422752380371e-02
4.532205746552934178e-01,4.190698641140984115e-01,5.100446015675824674e-01,4.927513494521997689e-02,-1.082444598756988896e-02,1.977542499497874501e-02,1.230635866522789001e-01
4.725004148328428855e-01,4.404883740993415508e-01,5.142569453246695899e-01,6.509177281386875624e-02,1.982755284397859363e-02,-3.434553153288927990e-02,1.467451900243759155e-01
4.818284399025626330e-01,4.714821940301933689e-01,4.544981167235295771e-01,-3.952021345463456459e-03,3.691688928236707377e-03,4.757449338355417001e-03,2.696045674383640289e-02
4.584144962672018209e-01,4.333643811259643153e-01,4.971173821086585787e-01,5.604316872204802291e-02,3.427247236284415577e-02,-2.410455818546433995e-02,1.333579421043395996e-01
4.380410022176577378e-01,4.907665265380020680e-01,4.444940718916837730e-01,-2.052324986887039873e-03,-1.075544612110124632e-03,-5.038672938520055190e-03,5.073118209838867188e-02
4.456991894852033176e-01,4.721769127504228392e-01,5.124070700910458021e-01,2.684248618085903135e-02,8.858046530980809297e-03,-3.866366207194100514e-04,7.604037970304489136e-02
5.295690639499677221e-01,4.513136839166248526e-01,4.219042778106444347e-01,-1.310591014521921283e-01,-1.536719109193786792e-01,-2.018218753123540155e-01,5.038462877273559570e-01
4.236172005666476448e-01,4.975155540038148638e-01,5.175258868405481216e-01,3.329577524668413113e-02,-6.565290120315137729e-03,1.249553465384134129e-02,1.061303988099098206e-01
4.309940264747941230e-01,4.714181608232188569e-01,4.957210854637210118e-01,1.772922072888975797e-02,-1.263389217410132263e-02,8.132084024519554283e-03,6.947936117649078369e-02
4.265644725103460155e-01,4.727586973132280046e-01,5.056297794950957991e-01,2.321296320481995926e-02,-2.185146818765147485e-03,7.454908097760893672e-03,8.081117272377014160e-02
4.669086379937743003e-01,4.335057349828566053e-01,5.113787474144532164e-01,6.154348676373217614e-02,-1.383275112276973265e-02,9.385683040729939086e-03,1.295371949672698975e-01
4.757375805877368524e-01,4.334632448765823876e-01,5.214027549431146102e-01,2.486521697052909707e-02,1.297372677937024682e-02,7.080317276144366088e-04,9.035588800907135010e-02
4.692009911438997372e-01,4.312379989912320521e-01,5.044285138482211828e-01,2.047956677862882921e-02,-9.097029828028698958e-03,3.449063059921090592e-04,7.433956861495971680e-02
4.732745566105671653e-01,4.249765897673457582e-01,5.083702723449423644e-01,1.323593947376931583e-02,9.580802515541754277e-04,2.534328546598355308e-03,7.620398700237274170e-02
4.775579709473132262e-01,4.293985277306803239e-01,5.167650832654187010e-01,1.965844631726537325e-02,1.673587956981956865e-02,5.018821797469521541e-03,8.843031525611877441e-02
4.991364843340540536e-01,4.771150419603326642e-01,4.147118933242744387e-01,1.701307723398101310e-02,1.905878850008117797e-02,-1.644533456815733610e-02,9.231846034526824951e-02
5.188194762886809697e-01,5.229023846487400595e-01,3.947848096837787701e-01,6.110161793331767704e-03,2.687321427642328994e-02,4.130658194870614162e-03,1.350458711385726929e-01
4.656613948031270156e-01,4.728007748725349124e-01,4.634503803945253519e-01,1.648509579655399460e-03,5.850486472474586999e-05,-6.818308123356796487e-04,9.011232294142246246e-03
5.058942521129172754e-01,5.339246143173767001e-01,3.834127559804856866e-01,-1.377229804699113547e-03,4.245078740123904570e-02,2.640989019678496169e-02,1.634777188301086426e-01
5.174416202283910193e-01,5.542111122912638521e-01,4.200840014879894668e-01,6.762287070289077148e-03,6.846997937242327303e-02,3.901604525221056673e-03,1.692854315042495728e-01
4.940931167924369483e-01,5.426417571973013443e-01,2.738023482926327246e-01,1.595835401823777339e-02,1.169178233212089107e-01,-2.336648484653098060e-02,3.240233361721038818e-01
5.210396348942192279e-01,5.564965642261847645e-01,3.401149987366227645e-01,1.996560058912799293e-02,5.400345390486825659e-02,2.665497385858653021e-02,2.290903925895690918e-01
5.383898689286998884e-01,5.584345790939282406e-01,2.059983954244722359e-01,3.616085052091602085e-03,6.681560789311667692e-02,-9.077760565077398758e-03,3.622540533542633057e-01
4.685510538945595882e-01,4.970332492146818382e-01,4.467293478727093481e-01,-7.960725998122791802e-02,-9.053866488510045607e-02,-8.382349764880266119e-02,2.580538392066955566e-01
4.667081170234444465e-01,4.415263482896071845e-01,4.437941132354275564e-01,-6.512170539725793683e-02,-9.241382375550542816e-02,-7.451577240072511377e-02,2.357613444328308105e-01
4.451014551195675573e-01,4.786758475200854068e-01,4.272051613338506137e-01,-1.569114243813533524e-02,-1.036927053480350865e-02,-8.825689606539821250e-03,5.782087892293930054e-02
4.976499904102230087e-01,5.188701383192252381e-01,3.907130702372174635e-01,1.300220281206323526e-02,1.788694291902031760e-02,6.291187651896896008e-03,1.254621595144271851e-01
4.583496327614631771e-01,4.745542864522254711e-01,4.314765767485832515e-01,-1.211690752744169763e-02,-5.132382460818267662e-03,-4.825092377217166800e-03,4.482797533273696899e-02
4.485670065783971538e-01,4.913102562172694254e-01,4.285790011829508361e-01,-9.698131030905571964e-03,-8.415175939106766742e-03,-5.334409953501545974e-03,6.050481647253036499e-02
4.327693965725455949e-01,4.903534783329963065e-01,4.235920806381817671e-01,-1.366516559754855920e-02,-2.185552625287729561e-02,-1.473353395836491699e-02,8.107434958219528198e-02
4.266254130457490801e-01,5.067613140821620732e-01,4.411701934165054850e-01,-5.216407455365965583e-03,-1.969420335873596842e-02,-3.514472471190688285e-03,8.215854316949844360e-02
4.545378303864668901e-01,5.132113067766583825e-01,4.212881309619496140e-01,-8.055972325301695089e-03,-2.337172835646971619e-02,-6.486288981418121026e-03,9.197075664997100830e-02
4.366162625633722705e-01,5.069759927266095367e-01,4.267048473527747521e-01,-1.781326258557985875e-02,-6.233589926884362115e-02,-2.487213791726270579e-02,1.421660780906677246e-01
4.275028024628406143e-01,4.560285079848384049e-01,4.545259801411768996e-01,-2.631388499333236694e-02,-3.155477560774293255e-02,-2.658604210005749424e-02,8.920728415250778198e-02
4.485972028313750526e-01,4.957221236037686607e-01,4.253979849689099035e-01,-1.012580599426795083e-02,-8.024434788801241766e-03,-5.805235718119248697e-03,6.673901528120040894e-02
4.773834807212994358e-01,4.376338942240891039e-01,4.610787434252712758e-01,-1.474095870740197052e-02,-1.418436120830143983e-02,-1.670193252502806189e-02,5.735945329070091248e-02
4.518490018442452572e-01,4.732443767320101968e-01,4.579451450960335679e-01,-2.093266186649627575e-02,-2.212088737133656446e-02,-2.224173954638817771e-02,6.805226206779479980e-02
4.749400928546979594e-01,4.155549116642461849e-01,4.821169387169262910e-01,-2.986091344861634481e-02,-1.603333798187751846e-02,-3.035561320003016608e-02,1.010688915848731995e-01
4.419397589634436185e-01,4.403025442766287934e-01,4.650334885185689604e-01,-1.301934233925942583e-02,-1.251976114140624166e-02,-1.568202860336525770e-02,4.785740748047828674e-02
4.330883905070460616e-01,4.652110109523562298e-01,4.297639792460642427e-01,-7.804347394194396936e-02,-1.314444708462390032e-01,-8.981188885223161111e-02,3.089555501937866211e-01
3.623199978353604522e-01,4.634454062417945330e-01,5.596598653375488563e-01,1.684818718664652382e-01,3.972647142652899199e-02,-7.104848245634830251e-02,3.664013743400573730e-01
4.605560111101029142e-01,4.801343286826499912e-01,4.358650838038128361e-01,-1.302150971320298507e-02,-1.500498242127059657e-02,-1.114878931880466592e-02,5.507607012987136841e-02
6.248696544107005257e-01,3.324458348259913265e-01,4.647730993168044389e-01,1.489250541673854400e-01,6.062453147906847473e-02,-1.632498207982820138e-01,4.709990322589874268e-01
4.377091027524625533e-01,5.755447277062359923e-01,4.494435873181689134e-01,4.035661443589484698e-02,-9.569408722920504096e-02,4.790086384256941887e-02,2.382445186376571655e-01
4.160124575035604177e-01,5.600510797027035137e-01,3.990591528390886045e-01,4.704724567808438694e-03,-1.003491116603617561e-01,-3.261944200366956315e-02,2.386310696601867676e-01
4.381443276140767895e-01,5.299278922003141101e-01,4.042932217505499914e-01,-9.001274868543567009e-03,-4.704092373868667271e-02,3.003542907381324262e-03,1.399491876363754272e-01
4.323361846728164259e-01,5.101933147161776816e-01,4.340860779040722761e-01,1.854722146590084527e-03,-1.888767713364445169e-02,3.813899943548910380e-03,8.398061245679855347e-02
5.109859675960903846e-01,3.930010360830803462e-01,5.229343633818285264e-01,5.453019868046742914e-03,7.629423586001961993e-03,-1.319326144420582270e-02,1.275106072425842285e-01
4.046415523848201357e-01,4.781904423635108814e-01,4.715227162523763504e-01,-3.028783544636799024e-02,-3.149131710286361824e-02,-1.796113691319840139e-02,1.079743951559066772e-01
3.967643691742656631e-01,5.046075528013983513e-01,4.752880418443420907e-01,-3.363452530402608748e-02,-3.815934725763425045e-02,-1.202259924373115171e-02,1.323773264884948730e-01
4.518744359093659346e-01,4.561886058504442398e-01,4.973781296200947000e-01,1.809615330943501257e-02,9.538641096832271848e-03,-1.367290659578726357e-02,6.090239807963371277e-02
4.493851686393731670e-01,4.326690678629570019e-01,5.041062005707861449e-01,-2.766067702780818441e-02,-7.771612443067225928e-03,-8.021835752934492261e-03,8.281379193067550659e-02
3.799874102196636461e-01,4.719885026026626740e-01,5.089668993043805489e-01,-4.569517921255608628e-02,-3.351596671939300470e-02,-2.043790985062424528e-02,1.553090065717697144e-01
4.371165596765273498e-01,4.611972788668753376e-01,4.823101975853745227e-01,-4.413320246112736184e-02,-3.677993812086065989e-02,-3.364326233704693220e-02,1.217832863330841064e-01
4.865872688527215217e-01,4.296591459531271529e-01,4.292103650186163133e-01,2.821146308241603493e-02,3.443237305525699565e-02,-5.843134506134935180e-02,1.394763439893722534e-01
4.946294480148750727e-01,4.370441658156083986e-01,4.930290679860364067e-01,2.930581157017317015e-02,2.217098695526631066e-02,-2.027286826954097926e-02,9.225282818078994751e-02
5.238654183544576570e-01,4.492813550666362454e-01,5.188329566183709218e-01,8.150752941157003717e-02,5.455836109391346000e-02,-3.711298941843904631e-02,1.954614222049713135e-01
4.818155238954533459e-01,4.854190785460080204e-01,4.349274034001093803e-01,2.430284240095979126e-02,2.212402410877728487e-02,-1.874017972717618649e-02,8.169656991958618164e-02
4.940131331353148636e-01,4.348306141923756196e-01,4.574762220991616113e-01,1.764944072651612739e-02,1.790010254453773195e-02,-2.477197905444584319e-02,8.007416874170303345e-02
4.529946444637647507e-01,5.173046887513635950e-01,4.115765535564890332e-01,1.350710776300096880e-03,-1.546102219252347941e-02,2.574297340216801910e-03,9.621498733758926392e-02
4.087685466128440082e-01,5.137301129060908300e-01,4.214523739573198258e-01,2.050952660176155154e-04,-4.884646432981714498e-02,7.906600200925280059e-04,1.304087042808532715e-01
4.694410952009518967e-01,5.180523730084962697e-01,4.024019418296833073e-01,4.942043686246668996e-03,-1.014137539662028978e-02,2.144837323358948257e-03,1.025269627571105957e-01
4.713337045352940513e-01,5.181364974530702217e-01,3.843259680933383549e-01,3.678530346745368046e-04,-2.694992905801937150e-02,1.326828287963996130e-03,1.265608072280883789e-01
4.842605154045900862e-01,5.267304331903248649e-01,3.893494524607944429e-01,1.039765288536506974e-02,-2.022461324219658116e-02,7.053379236196165303e-03,1.286209821701049805e-01
4.472073035202778768e-01,5.416646387167671772e-01,3.426586925603797851e-01,-1.544355269731571487e-02,-8.680922658262905933e-02,-9.382673637602229055e-03,2.309006750583648682e-01
4.986504963697135362e-01,4.535602476441537023e-01,4.577485875723307784e-01,1.818802277618730961e-03,2.346930303729337255e-04,1.948586951427344876e-03,4.339700192213058472e-02
4.473474043397128730e-01,5.376904073380321947e-01,3.965674986759721854e-01,-2.724431984134717761e-04,-5.775726373484029591e-02,-3.695818801793730388e-03,1.593015044927597046e-01
5.271226457385417286e-01,4.702057618473592937e-01,4.023029305007914114e-01,-1.206460923349156507e-02,-1.954942331878309000e-02,-4.539019051948616629e-02,1.395677477121353149e-01
4.907313524935538185e-01,4.425296765539600830e-01,4.312817506980813342e-01,-5.794154862878139745e-03,-3.633008995329062296e-03,-4.595753540475212492e-03,5.653107166290283203e-02
4.386345706313522497e-01,4.894782122761661691e-01,4.442253328778919541e-01,-1.919132551217749873e-03,-2.702726255990983966e-03,-1.867598485153099596e-03,4.873915389180183411e-02
4.139795724928662102e-01,5.054436571421081492e-01,4.009111748336431358e-01,-7.171118906748986943e-02,-1.282003210566949603e-01,-4.965653269047783785e-02,2.861162722110748291e-01
5.196983656427417442e-01,4.207625808803628908e-01,4.019794207954964227e-01,-5.107858689920877215e-03,-5.627998447336937833e-03,-5.479447406749559518e-02,1.455335766077041626e-01
5.725337037008122465e-01,4.725419280312874171e-01,3.256843745404819357e-01,-1.746221569716188693e-02,-4.626703462704033487e-02,-1.031744976237163464e-01,2.924408912658691406e-01
5.693131663527486452e-01,3.824516766739954887e-01,4.328847392864151322e-01,-4.042096751457643217e-02,-1.493911471783138621e-02,-1.295644551132793809e-01,2.897734642028808594e-01
5.125795630572769213e-01,4.205158058423154599e-01,4.714506814541044588e-01,4.561718380708765924e-03,5.001568898521984753e-03,-2.019902441376777297e-02,8.799044042825698853e-02
4.873229796857673768e-01,4.708400719963627412e-01,4.314806776349418005e-01,-3.490005596090156592e-02,-4.906479384170973901e-02,-5.413740869333352052e-02,1.487894058227539062e-01
5.018028693479102964e-01,4.135234272174671544e-01,4.548731124698973116e-01,-3.128524168831524430e-03,-1.644018126007467176e-02,-1.636684883903617022e-02,8.658263087272644043e-02
5.073889140064010705e-01,4.265185978859366567e-01,4.537369119180211241e-01,-1.138914519569768705e-02,-9.569452923759328572e-03,-2.351142153787879815e-02,8.603437244892120361e-02
4.985281649028863726e-01,4.392290576353556908e-01,4.331706455589467430e-01,-1.131311305810115721e-02,-9.712210384336466065e-03,-2.167803565052544776e-02,7.738927006721496582e-02
4.321684394840027421e-01,5.094527033198726906e-01,5.083287540251613112e-01,5.165321226476417282e-02,6.733712487226022059e-02,-1.710166771976901270e-02,1.684389710426330566e-01
4.711335225237499591e-01,4.556040121330002246e-01,4.726147918130605974e-01,-5.842484510002275006e-04,6.373782896798893538e-03,8.370855138048852477e-04,1.978293992578983307e-02
5.029277573729936668e-01,4.699071838392481215e-01,4.011295582828517947e-01,-9.236236071916498896e-03,-2.345914496535342342e-02,-4.439603529402443710e-02,1.261417418718338013e-01
4.580832741271126385e-01,4.928386725269049418e-01,4.676644106579045390e-01,-1.406701539686035056e-02,5.138450491417300564e-02,3.968016411064790444e-02,1.191848590970039368e-01
4.684176577652015006e-01,4.894445913322439390e-01,4.571216889920600157e-01,-1.032087102372253318e-02,1.888664272201415889e-02,1.295461051537928100e-02,5.196530744433403015e-02
4.594388935647862882e-01,4.916202905546090407e-01,4.635508132396607972e-01,-1.262584210830659803e-02,1.660096748239807754e-02,1.680447258199567126e-02,5.542928725481033325e-02
4.856078093538286899e-01,4.547018409841108721e-01,4.727564450791922890e-01,-8.911797083030388936e-03,1.108386380572664795e-02,1.369778941205004354e-02,4.350697994232177734e-02
4.635068180592671894e-01,4.607021337957181717e-01,4.682870938899365010e-01,-1.870597314844340067e-02,2.706262111642679727e-02,2.127803540282629385e-02,6.818567216396331787e-02
4.599533338666671467e-01,4.381288281528217254e-01,4.846534575617870710e-01,-2.687498834596419375e-02,2.349493290043599969e-02,2.091243273828499727e-02,8.222100138664245605e-02
4.750694263110394333e-01,4.281129410445977945e-01,4.706805310275832266e-01,-2.424925815978032709e-02,2.287921440296811215e-02,2.923789816387334720e-02,8.897811919450759888e-02
4.848989436773952777e-01,4.361611504759528302e-01,4.752784124531062027e-01,-6.936482093042029701e-03,1.261647520644049170e-02,8.764180329532444622e-03,5.339800566434860229e-02
4.717933533979724037e-01,4.814245682707848917e-01,4.435509903113227792e-01,-7.271482125756582350e-03,1.372375249729075944e-02,4.138448252344889208e-03,4.401621595025062561e-02
4.613935071457220261e-01,4.912274562284777990e-01,4.488292982180753232e-01,-5.387192826337254548e-03,1.518553270932700323e-02,1.273053459529011229e-02,5.184428766369819641e-02
4.741318600663859129e-01,4.525461998875613956e-01,4.752785483637874675e-01,-1.036252272740099435e-02,8.394895930351918209e-03,9.764855438290033843e-03,3.621647879481315613e-02
4.684665117172129856e-01,4.878532297263684092e-01,4.584619959428646307e-01,-6.044990058552929084e-03,1.314597355731636150e-02,1.354501577351883805e-02,4.299264773726463318e-02
4.591746886496028690e-01,4.877713160335052089e-01,4.657259460997136835e-01,-7.613175134077862331e-03,1.179263373533088327e-02,8.335451680263887553e-03,3.837787732481956482e-02
4.482703514509020493e-01,4.001433964852947334e-01,5.795082538095833735e-01,-1.106622769386724908e-01,1.152405663489276984e-02,1.418348881592432047e-02,2.521825134754180908e-01
5.053402063581858839e-01,3.622341110095500527e-01,5.488095490113507058e-01,-3.233853445676563437e-02,2.477501245697853738e-02,3.147313372663038122e-02,1.911546140909194946e-01
4.779918037501985628e-01,3.729596098427875317e-01,5.506027103298778425e-01,-9.032266286905124564e-02,2.128918265664831583e-02,4.654930491797105302e-02,2.372031658887863159e-01
4.463445289351700707e-01,5.391672067508166410e-01,4.237220341272587842e-01,-5.003006736091584333e-03,-5.843435633414542640e-02,-1.678437480146604752e-02,1.496384441852569580e-01
4.356744767766961290e-01,4.985176162780262099e-01,4.537209572029246019e-01,-1.178262277198206982e-02,-2.097822732633162351e-02,-1.169179887511414759e-02,7.271644473075866699e-02
4.977495476179208400e-01,4.677102515134671235e-01,3.933639767166682288e-01,-3.535992047644846009e-02,-4.791272306629959510e-02,-4.849930515743084564e-02,1.623497605323791504e-01
3.959093847819841194e-01,5.057106420138515190e-01,4.380540744984909862e-01,-4.521668852776127012e-02,-9.425428593563384139e-02,-4.561895843783302790e-02,2.196212112903594971e-01
5.058571085816045976e-01,5.055580599607041314e-01,3.266441489196658110e-01,-1.602979789447097139e-02,-5.678523945627889785e-02,-3.859203579531545608e-02,2.167403250932693481e-01
4.459298657577608349e-01,5.111388143926415273e-01,4.017576214098609322e-01,6.236351836011150935e-04,-1.695671405573403664e-02,-1.398028769539480911e-03,9.976693242788314819e-02
4.264910570178296889e-01,4.917259548538959746e-01,4.234033827521669346e-01,-3.502412301404328465e-02,-5.724720515533530951e-02,-3.458294129993509658e-02,1.468546390533447266e-01
4.524381161188744671e-01,4.984154534921504953e-01,4.321315593976856606e-01,-1.241661878084966350e-02,-2.003990355278020830e-02,-1.291782715972069305e-02,7.501889765262603760e-02
4.773851561920473552e-01,4.637269758955461230e-01,4.496010112830819416e-01,-1.488852811383895546e-02,-1.686648669636505241e-02,-1.834473531088273018e-02,5.574093386530876160e-02
5.002915597256705205e-01,4.989089624008416490e-01,3.842606696751245665e-01,-6.790134333739465677e-02,-1.001821676631053926e-01,-1.113382787367390991e-01,3.073019087314605713e-01
4.857677767656576884e-01,4.931601176487610538e-01,3.842173891309612621e-01,-1.650041841703775089e-02,-4.597597019069693536e-02,-2.505661844794236995e-02,1.419841051101684570e-01
4.921880836080335664e-01,4.908915883891418197e-01,3.605999911165769234e-01,-3.194876903815651453e-02,-6.175257808896726652e-02,-5.599684540968863367e-02,2.026222050189971924e-01
4.241718838493470645e-01,3.908152356761330770e-01,5.231985867226010001e-01,-5.670773596211534096e-02,-5.842036364034667098e-03,-8.823373830422007874e-03,1.555808484554290771e-01
3.995083146654490602e-01,4.354394059666272798e-01,5.190794374618090679e-01,-4.721748179607995061e-02,-3.067670470224092508e-03,-9.089942686241974865e-03,1.351168453693389893e-01
4.356243228962654035e-01,4.326511099705551699e-01,5.661392812431171873e-01,-1.115433644034133920e-01,-3.966970580529608631e-02,-4.099687525004880317e-02,2.540080547332763672e-01
4.040281538226568325e-01,4.381611770678638385e-01,5.257522195190222902e-01,-4.019159572205401043e-02,-3.059586924505233035e-02,-1.208292857896590619e-02,1.411361247301101685e-01
4.827328683755403582e-01,4.698920586700357505e-01,4.831095474170137294e-01,4.150732535267800255e-02,2.616669677635489674e-02,-1.780637958467131549e-02,9.134401381015777588e-02
4.844450380573648296e-01,4.911273060341365126e-01,4.687444506728477567e-01,3.075146453518612724e-02,3.785723851955104940e-02,-1.894360460968222415e-02,9.278538078069686890e-02
4.812630685575713385e-01,4.541847460501090561e-01,4.510962172659824243e-01,8.431832250106713333e-03,7.670021834078842408e-03,-9.870199000773866721e-03,3.883869573473930359e-02
5.111262368343072460e-01,4.581795910097437030e-01,4.319567138376938509e-01,1.144322976629631033e-02,1.160591411860212134e-02,-2.597195470846889662e-02,8.774942159652709961e-02
5.190673218168451175e-01,4.823904512697582692e-01,4.480072269365387716e-01,-4.000543332136323460e-02,5.862552938202560820e-02,6.426720752007690496e-02,1.768939048051834106e-01
4.637150077238682000e-01,4.822511898865333158e-01,4.606333731209835136e-01,-1.173414542865898946e-03,2.863915389302554466e-03,9.819825519418914472e-04,2.101993933320045471e-02
4.615609166092856097e-01,4.759086213974476065e-01,4.648335154278998016e-01,-1.348042272971086523e-03,1.069165809393627167e-03,4.073319764513663906e-03,1.510857604444026947e-02
5.917046961808588579e-01,3.456811066299100288e-01,4.987860042467383570e-01,1.090308658145407866e-02,2.784780589086675862e-02,-1.034142218653302525e-01,2.847243249416351318e-01
4.383066853449968381e-01,4.505403953116631222e-01,5.035989238566598303e-01,8.198934829077597630e-02,6.674155741210484327e-02,-2.292108849963416309e-02,1.967744082212448120e-01
5.184309836454054077e-01,4.603195049442017628e-01,4.633660197243427148e-01,6.832203192301852801e-02,9.391721369174053924e-02,-3.803333065328248774e-02,2.191205620765686035e-01
4.827387402223227708e-01,4.387189985916845059e-01,4.564765498782817343e-01,2.238090902432804050e-02,-1.757398261119576602e-02,3.530200842360123326e-02,8.740326762199401855e-02
5.155979882940654457e-01,4.795189628192088049e-01,4.817365395305510667e-01,6.111887460713299330e-02,-4.091968823751063883e-02,8.401941622053160641e-02,1.965558528900146484e-01
4.736108258716330011e-01,4.628495262419483058e-01,4.742972127389617487e-01,1.510589631671914804e-02,-6.462261479150350867e-03,1.572340953850492884e-02,4.092904552817344666e-02
4.809411113466495191e-01,5.112988381015807215e-01,4.767293852836900214e-01,7.915781452253867201e-02,-3.219698049406709284e-02,7.366459090344419647e-02,1.981272846460342407e-01
3.806430511076294154e-01,3.849534804466823168e-01,5.435380929088028390e-01,-1.415397599113928651e-01,-6.474991528115232875e-02,-6.960762060074400515e-02,3.362514674663543701e-01
3.787918093090954508e-01,4.691062333791700678e-01,5.375568552947764811e-01,-5.754510329813978392e-02,-8.445183752158667151e-03,-6.234829465566071698e-03,1.711407601833343506e-01
3.785591366861573714e-01,4.446921309398061406e-01,5.353995451464120814e-01,-9.631831844382807151e-02,-2.603083051121102970e-02,-1.272120538204804009e-02,2.212467342615127563e-01
3.804854370622287041e-01,4.659177955602871180e-01,5.496801003644129491e-01,-1.085171577751722488e-01,-3.211982587501070047e-02,6.649488669445468951e-03,2.450029402971267700e-01
3.550185111457135889e-01,5.083374101768955988e-01,4.410802378469310114e-01,-4.131361149095063440e-02,-8.031495891195995773e-02,-4.154628325239547587e-02,2.176433354616165161e-01
4.102589574112563975e-01,4.755698492597996152e-01,4.435367441049304915e-01,-5.045305771567212827e-02,-5.776889931513811555e-02,-4.525981317188009639e-02,1.642958968877792358e-01
4.147370861773680972e-01,4.783604009444302196e-01,4.791602348666348377e-01,-2.164065462507285681e-02,-2.090928465421655613e-02,-1.423211058553738688e-02,8.616067469120025635e-02
4.108170608856874240e-01,4.987332165068709688e-01,4.429952937892573384e-01,-2.054833304160949559e-02,-3.625875863458620507e-02,-2.179061763193669218e-02,1.121204271912574768e-01
4.474750819328354168e-01,4.435413722846496265e-01,4.985477794864839884e-01,-5.836358382044755377e-02,-2.428750140180808634e-02,-1.880907361586426838e-02,1.259949058294296265e-01
4.906518113404317871e-01,4.550882453354934687e-01,4.494983543483801469e-01,1.168918924900841198e-02,8.278275307915319847e-03,-1.072755251107023952e-02,4.955353215336799622e-02
4.091055585967521835e-01,5.164679321083772701e-01,4.671398885849106786e-01,2.401284016546382811e-03,-7.168430776331681173e-03,1.558773690840555178e-03,9.403566271066665649e-02
4.293384097749537998e-01,5.296390385761193809e-01,3.755931684123008374e-01,3.789985178007914454e-03,-6.328128923389439442e-02,8.957553492946171772e-03,1.750337630510330200e-01
4.544077381275167249e-01,5.072644038509497300e-01,3.907968360247903727e-01,-3.194388715118012811e-02,-5.330749345580741011e-02,-4.533686229611028073e-02,1.671975702047348022e-01
4.366840642784624582e-01,5.502593343189284836e-01,4.429499331132111251e-01,-9.471662078265828330e-03,-7.281489464166308878e-02,9.592898874199631831e-03,1.693463623523712158e-01
4.973053771147093460e-01,4.513354145833521902e-01,4.550907967032771229e-01,2.064078358714139562e-03,-1.063023626864770125e-03,5.839330034808115806e-03,4.553207755088806152e-02
3.906577746861776279e-01,4.822017661328468208e-01,4.333553283150778923e-01,-1.079834191236574981e-01,-1.211922367317788268e-01,-6.566806997753979469e-02,3.134892284870147705e-01
5.246757364522601774e-01,3.598638496260435082e-01,4.946411274435926209e-01,-3.097872875704127046e-03,4.285273013493125054e-03,-1.343099600034013651e-02,1.540780067443847656e-01
5.044749650249973350e-01,4.532484209934662944e-01,4.661182780037415041e-01,-3.900559077300040124e-03,1.607827496568767570e-02,3.237012545631805238e-02,7.807153463363647461e-02
3.978858791995337763e-01,4.758571633998499584e-01,4.697127871835626856e-01,-3.196885722630857934e-02,-4.795665064779522369e-02,-3.008400195770284669e-02,1.353472471237182617e-01
4.010202673557161090e-01,5.019498614783565182e-01,4.765830871134662527e-01,-2.791270145363606778e-02,-3.437125188859896374e-02,-1.228010117176735541e-02,1.208466216921806335e-01
4.493910883697384007e-01,4.724040139802762606e-01,4.965387263240837457e-01,1.821098868171191001e-02,-6.745955992196009041e-03,1.177671458967954540e-02,5.670102685689926147e-02
4.560229972029671841e-01,4.765201180005343984e-01,4.815302155570951315e-01,1.244625442060454112e-02,-7.943359973234332197e-03,1.310362507439110681e-02,4.143741354346275330e-02
4.567045173466084407e-01,4.633853075913024200e-01,4.736192809808152937e-01,1.205966594963256075e-02,-6.794879767715931822e-03,1.010506380369943780e-02,3.314955532550811768e-02
4.864767136671437897e-01,4.538188156885638036e-01,4.529860842643264052e-01,8.379814415275412334e-03,-6.106980948829574506e-03,1.423483539428753789e-02,4.499853402376174927e-02
4.664753434632900042e-01,4.797154533782239105e-01,4.593006186609636110e-01,1.043950892781302618e-02,-9.111516481559027089e-03,1.071821379793177174e-02,3.524799272418022156e-02
5.273512275300928920e-01,4.853468973790878715e-01,4.493254101982227522e-01,3.019917484604827534e-02,-1.683447669829998133e-02,7.207735964999015255e-02,1.540992408990859985e-01
4.591439048283521007e-01,4.764757170491288329e-01,4.679310310060576517e-01,7.607113425433532569e-03,-9.041780107570987837e-03,9.692425138231673676e-03,3.043030947446823120e-02
4.683368341402950885e-01,4.827437151417637295e-01,4.546113418129095196e-01,1.529605063368875452e-02,-1.309045899247756641e-02,1.158193520164841651e-02,4.703297093510627747e-02
3.990026894796189216e-01,5.078612670284842201e-01,5.006869956853980952e-01,3.482693532141855480e-02,-3.309971993349837549e-02,4.002317508040540567e-02,1.511680036783218384e-01
5.115355858952999046e-01,4.542972623019239098e-01,4.225992309629661436e-01,2.419047609971509277e-02,-9.886245697175510133e-03,4.850762629460784320e-02,1.233006641268730164e-01
5.008184274047423612e-01,4.819910757998698836e-01,4.942272554998723422e-01,7.490627165047858416e-02,-4.705149607704314785e-02,6.937164914900204038e-02,1.954110413789749146e-01
4.367380244232098585e-01,3.427878886895347477e-01,5.278496241435828296e-01,-8.838983083351649450e-02,5.315014574414324983e-03,9.293327229714220400e-03,2.224185913801193237e-01
4.784629022818655542e-01,4.233318412756466032e-01,5.127604302555069937e-01,-3.519392177987211434e-02,2.591267478384913156e-02,2.639004162079114715e-02,1.180091202259063721e-01
4.711616698422921301e-01,3.848327045519551737e-01,5.125397397375320852e-01,-5.271576851606599862e-02,2.837395506451425090e-02,2.278004965272729596e-02,1.582588255405426025e-01
4.498224953219219224e-01,3.950561436480982680e-01,5.374996002809668827e-01,-1.178855431709466134e-01,6.251645534189631884e-03,6.012937942429091680e-03,2.395936250686645508e-01
4.709219282393448114e-01,4.612028834320041071e-01,4.639297533267661144e-01,1.026277882465094146e-02,-9.844021607355415635e-03,9.637883677401575672e-03,3.099592961370944977e-02
3.058170339664529336e-01,5.723376542765767905e-01,3.850681325134879263e-01,-5.063798076354718292e-02,-1.921893090688756578e-01,-3.449425866595490220e-02,4.222135543823242188e-01
3.050253473534099147e-01,5.788145366308532491e-01,4.721392571335500943e-01,-6.246033867976931442e-02,-1.838148995925510121e-01,-7.891920331526480759e-02,4.346101284027099609e-01
2.754216480177602566e-01,5.417021676318605206e-01,4.539767333997699050e-01,-9.558391526260004434e-02,-1.590479394641645672e-01,-5.075071435640279155e-02,4.077572822570800781e-01
3.827460402490424629e-01,5.263113055926028627e-01,4.787652237858358584e-01,-1.418696943249189366e-02,-5.285349439602924498e-02,-1.570776647085373855e-03,1.582319140434265137e-01
3.604398014703887321e-01,5.159045443889047622e-01,4.972841703382766543e-01,-2.047707296852398304e-03,-1.271446176695326981e-02,5.299652757410179028e-03,1.490067243576049805e-01
2.652461164485492295e-01,5.568946069196658577e-01,4.569978292156343658e-01,-6.314497655585631086e-02,-1.502620667050757197e-01,-3.417921313166947389e-02,3.861425220966339111e-01
3.385743114511452490e-01,5.241554942607401513e-01,4.802953045805952170e-01,-2.421155937200611050e-02,-7.207795990526173757e-02,-1.096350822949505865e-02,2.143113613128662109e-01
4.352665259373917350e-01,4.377634537017436878e-01,5.003366922129591776e-01,-1.673495673884296819e-02,-6.520857337721766046e-03,-8.003609512525065861e-03,7.237264513969421387e-02
4.095958676418002264e-01,4.461460982337277503e-01,5.127186095600908544e-01,-3.525815560212545302e-02,-1.151144675903769364e-02,-1.944978235968430544e-02,1.160297095775604248e-01
4.660561655484274923e-01,4.803831859563043594e-01,4.633040047961959340e-01,-1.039591137267946268e-02,1.334559971481457871e-02,1.129223253544895875e-02,3.864390775561332703e-02
4.441360964616796747e-01,4.554388257996199174e-01,4.878014820632564086e-01,-1.772223712210720115e-02,-1.107311269273017137e-02,-1.436271954412516455e-02,5.890515446662902832e-02
4.399799609879612716e-01,4.414881548369878894e-01,4.821957205641128619e-01,-1.073991505622404717e-02,-1.134312249355295434e-02,-1.112630828333143959e-02,5.314316600561141968e-02
4.410676945104308744e-01,4.400744285034812742e-01,4.861413059161717176e-01,-1.204643286357868180e-02,-1.332466815333834334e-02,-9.395933859850691058e-03,5.753457918763160706e-02
4.501444314923108148e-01,4.449758681306855146e-01,4.485560548641069900e-01,-9.848182363162952258e-02,-6.118910366684805063e-02,-8.147658488030883051e-02,2.454886138439178467e-01
4.439325657028836969e-01,4.775259088871475766e-01,4.991501853377603437e-01,4.178549047008582595e-02,4.629848345274306665e-02,-3.478782023577072641e-02,1.327473521232604980e-01
5.261904387402698280e-01,3.835871385402644940e-01,4.944783403567050151e-01,3.725354438744123142e-02,1.592956896201342884e-02,-3.945107894900323764e-02,1.625207811594009399e-01
5.991309715671887526e-01,4.951665783336287041e-01,3.458114202405109250e-01,1.161770306003928437e-02,-6.096470872143369343e-03,-1.098074896019950869e-01,2.921175062656402588e-01
6.274294410546659151e-01,4.562366092818513907e-01,1.624237709824727371e-01,2.352528268816044335e-02,-6.602254835881432582e-02,-2.201496389168630941e-01,5.710222721099853516e-01
5.085581601645949856e-01,4.832497080768575759e-01,4.233585513305775927e-01,-2.528158134098016947e-03,7.206065701032106710e-03,7.494493463927462060e-03,7.801717519760131836e-02
7.383936809659079614e-01,5.447048737514561534e-01,2.593725678333548279e-01,6.066648873093131999e-02,2.344034665800088027e-02,-2.000742398608067185e-01,5.540525913238525391e-01
5.546274173262222273e-01,4.840201786725790711e-01,3.345194560503413350e-01,3.151196847450735139e-02,1.549255823033039020e-02,-1.219619157905150603e-01,2.936237156391143799e-01
5.657131565997418621e-01,5.213450421391350176e-01,3.228547989399481732e-01,7.871419854515440684e-02,6.268429526271468433e-02,-1.140377144482425664e-01,3.457789421081542969e-01
7.217051777729683870e-01,4.471877631570446709e-01,3.020468049783796571e-01,2.095175958606494346e-02,4.404319293701638299e-02,-1.995738004946292221e-01,5.127327442169189453e-01
4.297858304095099613e-01,4.501108182058574658e-01,5.059529213455409291e-01,-2.407728768470483380e-02,4.689496309484247720e-03,6.197390896950320111e-04,8.045314997434616089e-02
4.449276939223748006e-01,4.782445433591289707e-01,4.356416508403763155e-01,-2.008412974438368234e-02,-3.794770954668040541e-02,-3.187612195026495732e-02,1.004195660352706909e-01
5.113333982273794431e-01,3.543486480213938195e-01,5.484696698110844704e-01,-1.044707122631861468e-01,-2.965835973463463310e-02,-7.079198547321341461e-02,2.868255674839019775e-01
4.947119194403705733e-01,4.486617901560500665e-01,4.235918710415066402e-01,-2.623284185827161330e-02,-3.482779348201028857e-02,-5.621132443970142112e-02,1.381525993347167969e-01
4.723670326292500055e-01,4.074398505130117920e-01,4.991539830181561110e-01,-4.161049644758665900e-02,-1.395743423845847465e-02,-2.493716214877130660e-02,1.196519806981086731e-01
4.894201247613185202e-01,3.891523025089219656e-01,4.788883982252575833e-01,-3.931686766325147991e-02,-3.366451009712670417e-02,-4.679114138944397844e-02,1.539939641952514648e-01
5.534811432103216022e-01,4.750188946935417489e-01,3.887888727879644235e-01,-3.182304684209728840e-02,-6.055436959186199369e-02,-1.086439281968092085e-01,2.642098963260650635e-01
4.931215477373823708e-01,4.528974082550953351e-01,4.679723682659041040e-01,-8.575515333563678982e-03,1.183124364797736618e-02,1.671624519803607128e-02,5.213166400790214539e-02
4.882427650052240664e-01,4.710275879820973177e-01,4.568464971577591016e-01,-6.517709258947383504e-03,1.171888464458733028e-02,2.000807173937229136e-02,4.981970414519309998e-02
4.661392247025506475e-01,4.796426728652908866e-01,4.649612630881844177e-01,-9.558044366722237561e-03,1.222417198223007401e-02,1.119320383112264866e-02,3.602582961320877075e-02
5.097268863032918818e-01,4.627328298735925438e-01,4.333723752979523614e-01,-2.336001330509086121e-02,3.428790689604672287e-02,5.248901843161828118e-02,1.337145715951919556e-01
4.224718874959396131e-01,4.158072776320635433e-01,4.923797153416571981e-01,-7.562691284825472093e-02,4.682880999878536593e-02,5.452425023696048922e-02,1.950723230838775635e-01
4.658898037187936825e-01,4.811420771251570527e-01,4.605282890928195649e-01,3.563460023717246114e-03,3.496977143268398627e-04,-9.978243283184252011e-04,1.961125992238521576e-02
4.949760412503885210e-01,4.066633336640946839e-01,4.931701642908373762e-01,-6.975238553205374663e-03,1.399565014019019116e-02,9.704257370078097494e-03,9.305389970541000366e-02
4.821382432036510068e-01,4.195785052582777785e-01,4.934243618252989738e-01,-2.206013393194559274e-02,1.542523370469014304e-02,2.028674272601947021e-02,9.030820429325103760e-02
4.688260274109492531e-01,5.208499861267091857e-01,4.354361756110391446e-01,-8.268890864070062557e-04,2.984427180017641332e-02,9.597214762352724096e-03,9.224347770214080811e-02
4.782911800060908325e-01,5.092429345678838315e-01,4.340782404371079650e-01,-3.196238763228510804e-02,3.260533056569713678e-02,5.139045016976191704e-02,1.358613371849060059e-01
3.509756626866530893e-01,4.628481239262052238e-01,5.217345688755260502e-01,-6.776878592909818533e-02,1.001977723793652866e-02,1.853611668084203731e-02,1.941149383783340454e-01
4.460342919132416761e-01,5.107092932697963050e-01,4.505833833487707385e-01,-9.475243665335892230e-04,2.168048531344732646e-02,1.213298126715518614e-02,7.591962069272994995e-02
4.061460144769707958e-01,5.520132984660399700e-01,4.840247313460830370e-01,-9.429215727132409311e-03,5.743177005737463287e-02,5.148067790622731094e-02,1.846486926078796387e-01
4.725535070913485236e-01,5.073671620874472543e-01,4.327135425540244440e-01,1.657347889345526246e-04,2.672904956822947861e-02,1.667319248280955263e-02,8.463795483112335205e-02
5.122511188433578333e-01,4.532962666949690855e-01,4.391942636538601064e-01,7.431897204501125044e-03,7.666286535625174009e-03,-2.331385891113718287e-02,8.048941195011138916e-02
5.088423830197121855e-01,4.017999943817509578e-01,4.839455111938549825e-01,1.607640110834717209e-02,1.951153363810860172e-02,-3.040171322579806809e-02,1.187566891312599182e-01
5.086847290748223172e-01,3.887512243349848240e-01,4.976741836083896642e-01,1.661276173207550805e-02,1.901959407244500563e-02,-3.824570714205635658e-02,1.395927369594573975e-01
5.257016771169522595e-01,3.470365071027173842e-01,4.788858584256598938e-01,-2.749764628072133565e-02,-1.064473775526114836e-02,-6.428804634876240931e-02,2.018805593252182007e-01
5.744863037879781587e-01,3.275050451288338271e-01,4.748511264706593016e-01,-1.064757835496104796e-02,2.648919879066337357e-02,-9.534162741994761658e-02,2.757428288459777832e-01
5.932504930736623994e-01,4.379484904871466244e-01,4.050078165409075059e-01,-1.941525316731217957e-04,-1.925970807299104762e-02,-1.137515309574196054e-01,2.650485038757324219e-01
5.802846283733432697e-01,4.390114001077179418e-01,4.084562545635078701e-01,-4.904076458951816923e-03,1.639069505007642244e-02,-1.101475945956303659e-01,2.499679177999496460e-01
5.364186058502528054e-01,4.000816725782651018e-01,4.341027052321431712e-01,-2.967622456075246200e-03,-7.991301625897563946e-03,-4.089545504359527045e-02,1.426260322332382202e-01
4.237838018974451892e-01,4.541619692944970366e-01,5.133768642417169126e-01,-2.312336567801013751e-02,-6.345631841653621812e-03,-5.388989629096232852e-03,8.966644853353500366e-02
3.865376092353879356e-01,4.747367909143236919e-01,5.174370478252114935e-01,-2.049594216290628879e-02,2.911530206689920235e-03,-2.566323987321453021e-04,1.210554242134094238e-01
4.071169540313346880e-01,4.486129858983541885e-01,5.067024128768924385e-01,-1.305627873240932171e-02,7.060106219582597134e-04,-1.512568558255909541e-03,8.959096670150756836e-02
4.073776329248234851e-01,4.497918234851856489e-01,5.139195311605491145e-01,-1.112615987666413717e-02,-1.182998428331835054e-03,-5.328631162370324123e-03,9.535201638936996460e-02
4.787236908687516057e-01,3.461141699907721581e-01,4.519457458491158430e-01,-1.388323775573205299e-01,-9.742191940277954154e-02,-1.541839399885415463e-01,4.151695668697357178e-01
4.289385749915535229e-01,4.556673972163891029e-01,5.150829285116633738e-01,-2.433096263066790790e-02,5.414453545185389516e-03,7.586861850184346834e-03,8.870941400527954102e-02
3.775322562272183102e-01,4.770550275307151589e-01,5.171361145069380827e-01,-4.172413506072587819e-02,2.444999623636848543e-03,1.111495226745012627e-03,1.440298855304718018e-01
3.892706263234676500e-01,4.320230726949740863e-01,5.857285959904530159e-01,-1.276788609917936801e-01,5.795653017471479561e-03,-1.130552108192443318e-02,2.853319644927978516e-01
4.563815094491037172e-01,4.755737388393565523e-01,4.783903040941598350e-01,-7.388722765061171011e-03,9.302455489349327825e-03,1.227972964100686008e-02,3.613990545272827148e-02
4.518572423571631247e-01,4.688062433271344975e-01,4.757196054483944780e-01,-1.235652464183279418e-02,6.396744120539548176e-03,8.555808951765522113e-03,3.539278730750083923e-02
4.521006451347281407e-01,4.519177177402457501e-01,4.806327795002272585e-01,-1.178125980287428667e-02,8.558173758484579480e-03,8.044955728461970768e-03,4.061552137136459351e-02
4.451714447418055887e-01,4.830383598943492895e-01,4.393383798933118700e-01,-3.331838177415169522e-02,6.709148118311672460e-02,5.008721872425688643e-02,1.613974571228027344e-01
4.513598361608432419e-01,4.947142319662010124e-01,4.623801825402510390e-01,-8.171287981263373676e-03,1.374169825350413793e-02,5.961813735327097658e-03,4.895624145865440369e-02
4.418801397877730186e-01,4.449614329758473374e-01,4.803052169835188567e-01,-4.760068643561098101e-02,5.127880847069733045e-02,4.603251241626739321e-02,1.497016400098800659e-01
4.395233290209911159e-01,5.176459247978828504e-01,3.984854296698108200e-01,-1.146756916539525169e-02,-4.027983008928356923e-02,-1.272223789180892094e-02,1.293859034776687622e-01
5.055709573346598429e-01,4.555107549154221447e-01,4.274643798742158718e-01,-1.637338246780882869e-02,3.002695142930963609e-02,4.471117449070288741e-02,1.191763952374458313e-01
4.735404297664833617e-01,4.537956078744178612e-01,4.634362461210165263e-01,-8.787573241337689328e-03,1.053983772489406126e-02,9.841653530166917865e-03,3.388141840696334839e-02
4.881124073431467036e-01,4.487477305740260602e-01,4.607715324124706524e-01,2.099875115063214864e-02,-1.555900564850131416e-02,2.506410337668742508e-02,7.179523259401321411e-02
3.610169232331735811e-01,5.212974436837620740e-01,4.361215417905321412e-01,3.774160491378499016e-02,-9.123564611947924952e-02,2.582878618091201048e-02,2.248093336820602417e-01
4.510043584036281805e-01,4.746174872433853720e-01,4.722789641261806448e-01,4.217582976202214479e-02,-6.833810120734847005e-02,4.473777048411998331e-02,1.608071029186248779e-01
4.552277166946539499e-01,5.042176519588545958e-01,4.615510080412373872e-01,5.169963995337084617e-02,-7.198301575831411725e-02,3.002096765766591388e-02,1.685147434473037720e-01
4.273138959096526301e-01,4.726507486256864565e-01,5.060335144055823076e-01,2.295918124671844640e-02,-9.453186349821673939e-03,1.395709069673622092e-02,8.436331897974014282e-02
4.874975668128765371e-01,5.092514218701624795e-01,4.133611059202945692e-01,2.988323353556028572e-02,3.970973121024769237e-02,-4.045261425808421851e-02,1.410710960626602173e-01
4.512336701728804633e-01,4.712697064261593405e-01,5.007590346979285956e-01,1.603005090381411438e-02,1.081575082963699697e-02,8.397236409423478173e-04,5.464299395680427551e-02
4.779223228541485957e-01,4.714557776618400475e-01,4.742329105641779341e-01,1.583143128141634159e-02,1.108151524927963871e-02,-1.175477017516456980e-02,3.957773000001907349e-02
2.918406393606957083e-01,4.461533232824282380e-01,5.069502295121104396e-01,1.705589305166585190e-01,8.301418916840315465e-02,-3.172426802244815436e-02,3.845189213752746582e-01
5.358954669455709974e-01,4.607199877028141932e-01,5.514226624839819735e-01,1.891766704584826042e-01,1.699832838469085006e-01,-1.669491351501055029e-02,4.493798613548278809e-01
4.658899826681790479e-01,4.858784706264017705e-01,4.550490467923358207e-01,7.885863220936026319e-03,9.314466176601528952e-03,-7.379613433824192860e-03,3.666025027632713318e-02
4.502931827936600961e-01,4.639122461526102303e-01,4.848938262742398253e-01,2.404615157933616409e-02,2.326566745774479028e-02,-1.899205135722099175e-02,7.315787672996520996e-02
4.567304626410769175e-01,3.229473769670965222e-01,4.511138931530201956e-01,1.020185290094133140e-01,9.770868169080750010e-02,-1.326026338199738086e-01,3.602675795555114746e-01
4.349514281734372934e-01,5.243969419883021121e-01,5.060401749327909648e-01,7.079941334586013768e-02,5.692119617983647240e-02,-1.844955363598588596e-02,1.802066564559936523e-01
4.629618043566708918e-01,4.729133624987635343e-01,4.557837092738062923e-01,8.095786775099632696e-03,1.160182458575885131e-02,-5.888083616318771744e-03,3.043735586106777191e-02
4.788498324119132565e-01,4.533109728946614903e-01,4.519307512835910035e-01,8.743241667536150175e-03,8.151903563838375569e-03,-1.058818838731288674e-02,3.813673183321952820e-02
4.816032266239668735e-01,4.713385866782313083e-01,4.639144764164632728e-01,3.512585528279316832e-02,3.105626484966909559e-02,-1.598266556664552224e-02,8.716636151075363159e-02
4.657516752612929078e-01,4.756469386054249515e-01,4.749573156782191385e-01,1.052515385043759771e-02,1.133730164925853337e-02,-8.458820699964361353e-03,3.200253844261169434e-02
4.637164977496126550e-01,4.678110694239771550e-01,4.733663402173847734e-01,6.923495609951740154e-03,9.769418422154580589e-03,-1.302624770596753391e-02,3.177343681454658508e-02
4.740266137442039063e-01,4.574319749670621160e-01,4.720864997841192623e-01,1.147156222711258507e-02,1.055307410294092398e-02,-6.213748926304820015e-03,3.304050490260124207e-02
3.915840064734229520e-01,5.235117232213537530e-01,4.463203343659698508e-01,-4.536204929484276976e-02,-1.030291621038696287e-01,-6.494599979402951306e-02,2.526892721652984619e-01
4.326889953808474298e-01,4.338402838840312858e-01,5.032739804759691626e-01,-2.384415502221255700e-02,-1.050761822511723197e-02,-6.822831549189032480e-03,8.413570374250411987e-02
4.771285361637658817e-01,4.592209609594474773e-01,4.637889562785181830e-01,-7.811561124183571958e-02,-7.862754504857946691e-02,-9.363901650068273685e-02,2.518284320831298828e-01
4.595205863050064177e-01,4.786424412201610301e-01,4.412725414481995512e-01,-1.341058975764177624e-02,-1.399652599594857112e-02,-1.417306421393288440e-02,5.270142480731010437e-02
4.337355108593857200e-01,4.307472757103454342e-01,4.995443693052964984e-01,-1.952345810626215927e-02,-1.485611081405411628e-02,-1.139796887364141233e-02,8.204716444015502930e-02
4.392468186172552858e-01,4.074111854888348705e-01,5.027995504130179372e-01,-4.663647541936801616e-02,-2.226160551542883878e-02,-1.894826933144544076e-02,1.271394044160842896e-01
4.367917700680770676e-01,4.442019193690074363e-01,4.821786353620252652e-01,-3.694398993045634738e-02,-1.755240279777958365e-02,-2.443182974578557085e-02,9.267218410968780518e-02
4.134459974229208745e-01,4.337370912045871441e-01,4.903853678773765767e-01,-5.595769886336594140e-02,-6.139900764532735256e-02,-4.284038861444208063e-02,1.760096997022628784e-01
4.458460835151963342e-01,4.074118647282436445e-01,5.034513979669386075e-01,-1.546778339500019979e-02,-1.019403956961517643e-02,-2.147280388925465293e-03,8.973807096481323242e-02
3.882354873144379104e-01,4.842380336349572101e-01,5.179221370300916005e-01,-4.542031440557556254e-02,-6.606744893465102582e-03,2.429721077113886595e-03,1.411472260951995850e-01
4.275468279329884269e-01,4.298339349559314737e-01,5.070119445426479743e-01,-2.243054046250366612e-02,-2.526124558355612431e-03,6.816591619870066942e-05,8.755990117788314819e-02
4.289024890755748776e-01,4.294033059139743536e-01,5.182862271622382666e-01,-2.927550111859469548e-02,-2.846714876614385870e-03,-8.718597486386441345e-03,1.037711724638938904e-01
4.104968002996097765e-01,4.455596706932022366e-01,5.107881626160702959e-01,-3.624171969671569071e-02,1.284508801941397840e-02,1.641186599610561236e-02,1.140819117426872253e-01
4.499684811073048074e-01,3.957810840112797601e-01,5.921554183300389296e-01,-1.192882517305219464e-01,2.426753481011279662e-03,-1.287289571150051701e-02,2.721433341503143311e-01
3.995294472415438780e-01,4.297803698563946173e-01,5.112124654172758298e-01,-5.549584035469293242e-02,-2.612462025843333494e-02,-2.580465262831315928e-02,1.526243537664413452e-01
4.439944889876187295e-01,3.896718757787677734e-01,5.137919508953132652e-01,-4.527445287470438506e-02,-8.155660746165494315e-03,-1.080878576897320413e-02,1.353276520967483521e-01
4.583206670942553407e-01,3.467802757943772018e-01,5.265905768564295153e-01,-8.295756575309000402e-02,-1.682715660830497173e-02,-2.281887958617598994e-02,2.185733914375305176e-01
4.757957480438070874e-01,4.595264303927471539e-01,4.703435885944604045e-01,-1.525697929297249299e-03,6.621376478002166492e-03,4.331650250741937887e-03,2.001285925507545471e-02
4.381658278882252788e-01,5.013692955852531163e-01,4.295393732996247160e-01,-4.741267517416059181e-03,-7.820467531929027952e-03,-2.248950312425485650e-03,6.985991448163986206e-02
4.652522559622420673e-01,4.860093569313369555e-01,4.545882343676314052e-01,8.411735951180866755e-03,-3.045188462372585853e-03,5.251140499454503424e-03,3.299617767333984375e-02
4.663252845922457590e-01,4.615596954614591407e-01,4.713748592440564211e-01,3.744691930818923320e-03,-4.654126591736812944e-03,3.749349536814599627e-03,1.488277316093444824e-02
4.620111457885886508e-01,4.683510886262689521e-01,4.849411736951016461e-01,3.543873756424861451e-03,5.569890951051240449e-03,-6.315459192428707347e-03,2.590384520590305328e-02
4.478753652987372269e-01,4.716556193041127609e-01,4.841115210217827314e-01,3.423469809442439456e-03,3.365320322311388720e-03,-6.339792329264852706e-03,3.473571687936782837e-02
4.326203130575376199e-01,4.637208113006335841e-01,4.876323038245988228e-01,-7.395864247582721075e-03,3.888925562872670456e-03,1.151732463647639308e-02,5.375940725207328796e-02
4.404996178362112769e-01,4.282589946738124542e-01,5.078262822089715245e-01,-6.971919508579580392e-03,2.423336864118154528e-03,2.420413490482410440e-04,7.530238479375839233e-02
4.304842179344177122e-01,4.829633616970832044e-01,3.773801083814112278e-01,-6.675861616077487237e-02,-1.005620521969988745e-01,-6.681379880767922275e-02,2.558545172214508057e-01
4.725270535781111447e-01,3.758309246396950298e-01,5.111661111501450971e-01,-2.252930902610776609e-02,-8.398259547491862542e-03,-4.736156266993276492e-03,1.279881298542022705e-01
4.395026267845735801e-01,4.986263509389328163e-01,4.372925683731109237e-01,-3.182771171556606632e-03,-1.367226760598171499e-03,-8.054402025385496659e-04,6.057317927479743958e-02
4.308853744867233160e-01,4.971157405532137252e-01,4.416274251331208656e-01,-4.252567199681849680e-03,-5.776630127759073766e-03,-5.865667096175046849e-03,6.362375617027282715e-02
4.439708817936252605e-01,4.823682841996739246e-01,4.425514342792515321e-01,-3.739584370169170714e-03,-1.062054426079823109e-03,-9.490105734397537122e-04,3.973559662699699402e-02
4.401838792814755652e-01,4.897291468848609663e-01,4.335523374889782011e-01,-5.967547416449714252e-03,-6.411766564036962268e-03,-3.100228269012075214e-03,5.555424094200134277e-02
4.403533236222494929e-01,4.361266354429308434e-01,5.025496764375968484e-01,-1.102283036355308603e-02,-3.579614741451390362e-03,-4.476624500826022375e-03,6.791321933269500732e-02
4.403664991304035436e-01,4.370998333928428070e-01,4.981515199022096829e-01,-1.792884367487348942e-03,-3.327346761241111936e-03,-1.105470884260261041e-03,5.987543240189552307e-02
4.384941103858031597e-01,4.370159845364997020e-01,5.045268513634239005e-01,-1.318870066489767016e-03,-2.946202603382962713e-04,9.933410360355192023e-04,6.684722006320953369e-02
4.284535316106143910e-01,4.365414241038674259e-01,5.026104989255458788e-01,-9.019886965771413759e-03,-2.187883348858292356e-03,-3.099185341276193464e-03,7.247169315814971924e-02
4.515733538887453102e-01,4.924477111166933874e-01,4.492015409645700452e-01,3.286136604478179148e-03,-1.095918842915365090e-03,1.913503151763407172e-03,4.266460612416267395e-02
4.504471494576706703e-01,4.969534910894898849e-01,4.429233767439114122e-01,4.725131312422981185e-03,-2.733005874014314204e-03,1.484315342514305053e-03,5.162701010704040527e-02
4.504145853131663602e-01,5.018203627965416302e-01,4.486844194849755052e-01,5.247670263251556257e-03,-7.357914217796968082e-03,4.073012712549460394e-03,5.503895878791809082e-02
4.494080801501503242e-01,5.010179592575284557e-01,4.375913123580730812e-01,5.775772590219022291e-03,-5.260013431689270283e-03,1.262976732038068907e-03,6.000787392258644104e-02
5.168065569830280204e-01,4.857922387088649541e-01,3.911902282038886569e-01,1.356234390033026708e-03,5.158327539443776852e-03,2.263745050744783022e-02,1.202836260199546814e-01
5.226784397742665345e-01,5.009837923081055244e-01,3.926533483152870319e-01,1.003931763784207676e-02,3.183702353373312009e-03,1.923359229826793193e-02,1.264867484569549561e-01
5.348230182234545715e-01,5.167819546083356474e-01,3.176159386198185719e-01,4.796570467624578817e-03,1.848805410721577128e-02,1.746831010651861762e-02,2.135313153266906738e-01
5.158184598487919326e-01,4.864108757817199868e-01,3.516865049763860940e-01,-6.880143068354925638e-05,-5.428849669354410788e-03,3.112849005520119949e-02,1.611606627702713013e-01
5.590577489321821858e-01,5.160525294621360892e-01,3.906228787887120468e-01,8.172180536339775786e-03,2.657536368916798425e-02,6.542966057380378286e-02,1.952905505895614624e-01
4.321071064298457332e-01,4.395523045389927996e-01,5.026322259907930468e-01,-7.439112982034365613e-03,-2.197374289566013297e-03,-7.053284937475051523e-03,6.952627748250961304e-02
4.334295594022237186e-01,4.400409994724148732e-01,5.009793108325097943e-01,-2.619034905517646228e-03,-1.588015671577986711e-03,-1.742526998607353593e-03,6.478681415319442749e-02
4.385953432484343550e-01,5.039699861053505980e-01,4.307815113270751506e-01,1.155822833361751928e-03,-6.636565559757475266e-03,3.008104601812742595e-04,7.058425992727279663e-02
4.333737797661500468e-01,4.388753349921341029e-01,5.009976644422454717e-01,-2.457719564244701879e-03,-1.580395681660761321e-03,-1.209573297623554302e-03,6.527804583311080933e-02
4.955884162746136412e-01,3.846354437130929949e-01,3.551517973296464681e-01,-1.062609618237360387e-01,-1.276002961772463584e-01,-1.716163004697897065e-01,4.330442249774932861e-01
5.552286403597340714e-01,3.932351462575254253e-01,4.280690343580373924e-01,-4.099242730896292264e-02,-1.194984272890443205e-02,-1.198462422957970730e-01,2.652759552001953125e-01
5.275742027356912223e-01,4.748718878893847251e-01,3.938911320008848804e-01,-4.134100434443093407e-03,-5.460852263909269852e-03,-4.299609899795167611e-02,1.388885080814361572e-01
5.696273787753851625e-01,3.772703830159557237e-01,3.716295227976358917e-01,2.029836864461412663e-02,1.326621247463900637e-02,-1.316130564916963286e-01,3.030645549297332764e-01
5.280695991538332246e-01,4.937228259837856403e-01,3.559982752228746383e-01,3.028218319916525618e-03,1.005562777504282303e-03,-6.321911287940801261e-02,1.920902431011199951e-01
5.228885695493123986e-01,4.994323103600245561e-01,3.510628828246561417e-01,-4.474832523580046101e-02,-4.700206853512927524e-02,-7.421131838675924797e-02,2.349482029676437378e-01
4.647746235990566355e-01,5.165221030475412034e-01,4.366364710890158207e-01,5.322301471493309788e-02,-8.193730625263614953e-02,5.401796913277080725e-02,2.057150751352310181e-01
3.812671123250640504e-01,5.275156885495327908e-01,3.532364720886429499e-01,8.890039445690017805e-02,-1.622038539786888056e-01,7.664638957238262273e-02,3.828027248382568359e-01
2.794337858772878436e-01,6.292728650850736294e-01,4.869920483300551051e-01,4.888680048910218345e-02,-1.695636387143374113e-01,-7.213766509810586904e-03,4.317837059497833252e-01
2.756354657967980404e-01,5.821350475775408650e-01,4.328927959683199211e-01,3.620168131896227270e-02,-1.543738191745195054e-01,4.489921617109440127e-02,3.898023664951324463e-01
4.498309538435466548e-01,3.628598771641033949e-01,5.177876417050524260e-01,-7.939352749291297973e-02,-2.096221651159292307e-02,-3.383947797126221624e-02,2.043426483869552612e-01
2.962894495028025599e-01,6.321417874989501140e-01,4.572178531002830115e-01,8.266762363635876687e-02,-1.310724994131917953e-01,8.456602173463273475e-02,4.220694303512573242e-01
3.667154047146582996e-01,5.774315822979365631e-01,5.157949979192117951e-01,6.163473312312000435e-02,-6.730019087298731717e-02,3.569791450221175555e-02,2.530218064785003662e-01
4.401829870437585779e-01,5.006309281009380108e-01,4.392231495725574808e-01,-4.767971843762099440e-03,-9.886069904946668749e-03,-4.051614593732854805e-03,6.421484053134918213e-02
4.276622698242437681e-01,5.025246977942853244e-01,4.388702600891608574e-01,-2.586152956347109559e-03,-6.497949263416064394e-03,-1.980022441828463691e-03,7.105942070484161377e-02
4.637823151333085869e-01,4.743479368818823150e-01,4.589328507078039854e-01,1.314801942886068909e-03,-7.757193504068143680e-04,3.846504560755056694e-03,1.541964337229728699e-02
4.907958218921683602e-01,4.287316303128455575e-01,4.536087281382665815e-01,-3.363095611924898313e-03,-7.887598709206754960e-03,-6.065073929957107667e-03,5.707702040672302246e-02
4.410550356528065707e-01,4.965840579742132888e-01,4.391124745487290371e-01,-6.452444954680757946e-03,-9.709982666416885899e-03,-4.034659103859108281e-03,6.042932346463203430e-02
4.962570448003408297e-01,3.868432374133255469e-01,5.136577839187776995e-01,1.086575527863410488e-02,8.475077080594740214e-03,3.683085767053680018e-04,1.214418783783912659e-01
5.208417395638186287e-01,3.624143971478395176e-01,5.336609286577713718e-01,1.586949697938586437e-02,1.278746221417571133e-02,3.260004400547588527e-03,1.690338104963302612e-01
5.052755808766048462e-01,4.092326376788887887e-01,5.209108561089564882e-01,5.127904836818440032e-02,-4.032368412889889529e-03,1.250086570514601612e-02,1.391997933387756348e-01
4.896493781225961239e-01,3.796016464600207585e-01,5.287076763989533301e-01,-2.283683387365897585e-02,7.673755131288206204e-04,7.072632019906654804e-05,1.396448165178298950e-01
4.959478441573322849e-01,3.433582530554571965e-01,5.202758811479908374e-01,4.388846387845139058e-02,1.015796219336947449e-02,-1.225190073785185213e-02,1.847325414419174194e-01
5.025448468353634901e-01,3.862133256589100894e-01,5.200262449310502078e-01,7.528811344155553198e-02,1.267160255245309945e-02,-1.716067376732529487e-02,1.850468367338180542e-01
5.073846405643518409e-01,3.665461741019017117e-01,5.284319458968307348e-01,6.368534284543593896e-03,3.469718797578687230e-03,8.803731766935403826e-04,1.529798954725265503e-01
4.678795808633264830e-01,4.046991506631199553e-01,4.991168881574472027e-01,-7.857871860538040779e-03,-1.193332680121800271e-02,-7.624154915782280911e-03,8.790879696607589722e-02
4.532684069247396863e-01,5.100506386054901586e-01,4.075574713076488553e-01,1.430352074384579194e-03,-1.529864656700674792e-02,-2.380791970523900118e-03,9.292238205671310425e-02
5.019255482425374337e-01,3.957774400087485378e-01,5.155483199742504352e-01,1.862102675621728556e-02,7.420411768326622831e-03,6.932032874247747193e-04,1.187682151794433594e-01
5.166632729334077467e-01,4.592420427013397810e-01,4.098394034399103769e-01,1.175532563155397628e-02,1.480749385078331372e-03,5.006159723004850737e-02,1.285076290369033813e-01
5.485283140583856465e-01,4.888796886066660852e-01,4.293779415694688462e-01,1.415212221785705493e-02,4.020844807174107916e-02,8.074687035000897850e-02,1.888353526592254639e-01
4.534720394645648245e-01,4.857307039620775702e-01,4.483202827591047934e-01,5.616093796442087581e-03,-7.826876382825325232e-03,1.870519081705852545e-03,3.901600837707519531e-02
5.130514376310606472e-01,4.946571836378296227e-01,3.985034971531792869e-01,1.140691595846101379e-02,-6.175864240689468883e-03,3.973851051221379688e-02,1.288207322359085083e-01
4.674693573013170012e-01,4.647811407916311865e-01,4.723309233531133855e-01,1.636014401084199795e-03,-2.392219002379477807e-03,1.542158737905607998e-03,8.732857182621955872e-03
5.160267626803248797e-01,5.026903357135563688e-01,3.728222954474898487e-01,4.109405394325105557e-03,-2.986455456466055244e-02,5.616146739287097844e-02,1.759665012359619141e-01
5.015708191847997321e-01,4.160941395993246195e-01,4.880633886579790470e-01,6.615863204185648029e-03,-7.075720234172623753e-03,1.359899792683321243e-02,8.467849344015121460e-02
5.316448711659317317e-01,5.164257588010942035e-01,2.396308484030156283e-01,3.656579346844476830e-02,-8.256951136376619593e-02,7.632274099920108301e-02,3.507127761840820312e-01
6.673793350070285069e-01,5.727728818730962734e-01,3.657047498041373079e-01,1.143958791725081803e-01,3.533264265772492058e-02,1.434326318979056991e-01,4.196912944316864014e-01
3.900837168005940603e-01,4.849988707911858654e-01,5.070874817544798185e-01,6.937968428449747121e-03,-5.873229510858774330e-03,6.634828050796313936e-03,1.094225347042083740e-01
5.388870492495249076e-01,4.985439920904267130e-01,4.667040571141747307e-01,6.599809931007488001e-03,2.211784061432020554e-02,9.661521820905380475e-02,1.831055283546447754e-01
5.758551552320040345e-01,3.855812030144799563e-01,3.924059289083312585e-01,4.123882401281321608e-02,-1.064964170924119317e-02,1.457658179152971079e-01,3.227032423019409180e-01
4.970645066449374538e-01,4.516721419045636732e-01,4.667731257596507422e-01,1.377510483866976627e-03,-2.824997403025427799e-03,4.478151510574200633e-03,4.114405438303947449e-02
3.571006380725969542e-01,4.712359848305380239e-01,4.809257212920255431e-01,-1.276656025207955070e-01,-1.137709024171126293e-01,-6.963745224516887378e-02,3.413236141204833984e-01
4.442025413266547651e-01,4.697844220155130146e-01,4.580661192889017297e-01,-4.624972971089336311e-03,-2.280672989691440861e-03,-6.907394853590410888e-03,2.673736773431301117e-02
4.978895471151372210e-01,3.638785221157107008e-01,4.838588907540810058e-01,-3.386382249646355258e-02,-2.615503368040303367e-02,-4.733876551248887565e-02,1.687926501035690308e-01
4.315294717101474942e-01,4.656237992850587037e-01,3.748957666155646740e-01,-1.041142050757302429e-01,-1.402320161449496505e-01,-1.508101262085001504e-01,4.074875712394714355e-01
3.874658905235170980e-01,5.137249137614388061e-01,3.853887133829891898e-01,-1.616391358263821465e-01,-1.770703573294090671e-01,-1.900096584070847527e-01,5.449424386024475098e-01
4.863292535302162767e-01,4.604461269462031825e-01,4.523361646077756482e-01,4.801162718087638275e-03,1.575974971504117556e-03,-1.196835255459620677e-04,3.197290375828742981e-02
4.408551264603846609e-01,4.364201717707068551e-01,5.032110282424109293e-01,-2.091125344817749108e-03,-9.913790996391870069e-04,-2.080673672684061563e-05,6.481157988309860229e-02
4.691160997318588044e-01,4.661048697547344744e-01,4.659720118960203883e-01,3.853773687829941124e-04,1.207098620715530850e-04,2.036556329016537073e-04,3.177878214046359062e-03
4.816425487358354518e-01,4.363552507385147772e-01,5.042799332446558092e-01,6.722674522694007532e-03,-5.028945673866869366e-03,5.332876977729352624e-03,6.233257055282592773e-02
3.832163469197473749e-01,4.964031281571281151e-01,4.734219563885703752e-01,-1.245812199676234362e-02,-1.709486443869884589e-02,-1.628099148392129006e-02,1.134713441133499146e-01
5.244952105010400878e-01,3.898404248080328260e-01,5.193747994468663753e-01,4.545155989206340155e-04,8.712488125017485083e-03,3.435926013719329403e-02,1.457348912954330444e-01
5.617196516341372847e-01,3.788644385374303480e-01,5.326955935874507775e-01,2.599820433625375099e-02,1.770018097365694959e-02,7.140749519655836819e-02,2.173382788896560669e-01
4.001424039201415539e-01,4.771160284587463996e-01,5.016483490348658814e-01,-3.461587001598490781e-02,-2.682179715812114257e-02,-1.497991653852920151e-02,1.218249201774597168e-01
5.377199705405083519e-01,3.439470929022167556e-01,5.197419408300262278e-01,-1.343279972222697141e-02,1.305445093676526735e-03,5.096324090159169706e-02,2.067018896341323853e-01
4.935556457971044253e-01,4.570180941391099871e-01,4.566320339948015117e-01,2.080635994274204585e-03,-1.621032153318849268e-03,1.988447804935131527e-03,3.717498481273651123e-02
5.300918164083947559e-01,3.724540918756736874e-01,4.675013297457369932e-01,6.694659430910101540e-05,7.089218695478584874e-03,-2.677599053674451987e-02,1.456099003553390503e-01
6.524957012163385972e-01,2.341022595611255697e-01,5.202605309351682195e-01,-6.505703064075096798e-02,4.731614843252692632e-02,1.070282095255157273e-01,4.370259642601013184e-01
5.594296395177384973e-01,4.175814476447207158e-01,4.694438252697760161e-01,2.577492186829216311e-02,1.728847963205459859e-02,6.527481401498991254e-02,1.764260530471801758e-01
4.918199715915771986e-01,4.704991282889801618e-01,4.227064703335304818e-01,2.886609455980274075e-02,-3.194399312270290031e-02,3.463130697891651788e-02,1.136516109108924866e-01
5.403834504480780065e-01,4.150011502327602964e-01,4.609736667403356858e-01,-1.580132738091057781e-02,8.140415791673865156e-03,6.474632258041451704e-02,1.599817425012588501e-01
5.066202581991570142e-01,4.477584579674594445e-01,4.266248543038958507e-01,-3.307187567648784375e-03,-5.115895523800399400e-04,-5.863674778142122061e-03,7.274646311998367310e-02
7.473087098831455721e-01,3.577884378107901719e-01,3.952642141620066329e-01,9.682725335618083684e-02,7.152511542899821217e-02,-1.633225893326168132e-01,5.118884444236755371e-01
5.492347606245172598e-01,4.032878171362365705e-01,4.325638844840324904e-01,3.576672740337513701e-02,6.051244412947030804e-02,-8.222441566232477350e-02,2.301965504884719849e-01
5.251234527982764355e-01,5.251669360661683772e-01,3.595852886683458260e-01,3.499210255136037291e-03,-6.147501069279027921e-04,-1.692063206578729717e-02,1.682464629411697388e-01
5.300125416000834866e-01,5.341516304811666505e-01,2.885079135890274982e-01,2.569880162471779167e-03,-1.551959680048147980e-02,-2.898095408769268619e-02,2.502065002918243408e-01
4.599424699300269093e-01,4.812258001796596019e-01,4.618422997076419012e-01,2.727375068463168493e-03,3.348295356463385983e-03,-4.685075131722434526e-03,2.319382503628730774e-02
5.311379088441605667e-01,5.343156587257176238e-01,2.998717586941376245e-01,9.927308919960598291e-03,2.342825288329170030e-02,1.434203494688277188e-02,2.383032143115997314e-01
5.340838789548856269e-01,5.345507621719998159e-01,3.117431208694303457e-01,7.824461349171673782e-03,6.908126311262452121e-03,1.387865682043849108e-02,2.245976924896240234e-01
4.452777364456683706e-01,4.969649720678064320e-01,4.434004824633298592e-01,4.593246190906131879e-04,-2.560041874659512232e-03,3.497277388561453003e-03,5.318939313292503357e-02
5.469085608526877973e-01,5.454355397684726992e-01,3.356514557725718273e-01,-3.361967025381890593e-03,-1.213905751550538314e-02,3.547993418488921274e-02,2.203928381204605103e-01
4.860474004867439968e-01,4.733679094397439946e-01,4.620441282945147443e-01,-7.803060488000748002e-03,1.422181504943768882e-02,1.674049269646921481e-02,4.541753977537155151e-02
4.610241119292325940e-01,4.916797997573958967e-01,4.637125403022689940e-01,-4.014625147680137181e-03,6.731798217750481483e-03,5.794937992505717374e-03,3.390619531273841858e-02
5.085698482204833448e-01,3.739813446834289734e-01,5.025735569523979152e-01,4.137933588209797599e-03,4.044715076762913026e-04,7.399851653182017847e-03,1.325108259916305542e-01
4.546006615361276038e-01,4.895978209717595231e-01,4.628023582509347422e-01,-9.018897260592160375e-03,1.920885564324862141e-02,1.587681100295300352e-02,5.578722432255744934e-02
4.591196656205430715e-01,4.814271535478236719e-01,4.682875454477390953e-01,-5.956057809431558082e-03,1.063386145925065973e-02,8.161145128260865328e-03,3.197867050766944885e-02
4.943548347690851497e-01,4.406501427603006227e-01,4.856793518324596381e-01,2.419451809770640019e-02,1.629857252712162488e-02,-2.140531445295783958e-02,8.013214915990829468e-02
4.971902983756771310e-01,4.438332072358709968e-01,4.441884201820577860e-01,1.547355898085849490e-04,1.208571902149816954e-03,-1.381315513936773928e-03,5.327598005533218384e-02
4.687874746146944993e-01,5.064910298729169424e-01,4.436665188453683961e-01,1.240444884290501770e-03,5.188881116481372513e-03,6.975408170005018308e-04,5.555734783411026001e-02
4.573938771260955827e-01,4.772111194495773923e-01,4.645298242646522247e-01,-5.717647457194388431e-03,4.182097285084743210e-03,7.474406525090616232e-03,2.490732073783874512e-02
4.408965410395822571e-01,4.687957513117073649e-01,5.004002269527842994e-01,3.475469307097429645e-03,-5.946232105532697678e-04,5.477643723282727903e-03,5.278503522276878357e-02
4.626293274637516828e-01,4.818526115290954759e-01,4.612164092681944605e-01,2.248962217819833968e-03,7.565669030349606852e-05,-6.257147125078901242e-04,2.037295140326023102e-02
4.581454801914148223e-01,4.739995288332723988e-01,4.682302007901544272e-01,-2.790594121827711955e-03,4.025736299103480943e-03,6.348532974527838248e-03,1.964846812188625336e-02
4.536260979671629667e-01,4.903980931641662155e-01,4.658574347558701589e-01,-4.797177040893269365e-04,2.717896927840629875e-03,5.870540890143743917e-03,3.432572633028030396e-02
4.518024045330367722e-01,4.824410676191541181e-01,4.697369710728489522e-01,-2.859364482996661853e-03,3.027301180697837373e-03,7.315811850768919045e-03,3.038864955306053162e-02
5.233464511461428659e-01,4.447176831304901490e-01,5.464126647032343520e-01,-5.179006324162908903e-02,1.807597486871529435e-01,1.856452092869114723e-01,4.668934941291809082e-01
4.400654803406587323e-01,4.567952559573844051e-01,4.732919438382092170e-01,-2.348493483803815694e-03,-1.804991859078897577e-03,-1.018297829728826050e-02,3.413812071084976196e-02
4.650019510394588496e-01,4.779539447395888541e-01,3.791056260939961176e-01,-5.533334643321841800e-02,1.284987746406972831e-01,1.185006987247629595e-01,3.309181928634643555e-01
4.655588788039190518e-01,4.679682991345103238e-01,4.677185309060279961e-01,-4.538977656341879409e-08,-8.436003022149339732e-05,1.041003841909785357e-03,2.922038780525326729e-03
4.523030508218905954e-01,4.928394908169735911e-01,4.701962003776404830e-01,-1.640816808921398472e-04,3.959767074375457503e-03,9.048024430739032981e-03,3.912497311830520630e-02
4.568637360340986331e-01,4.712752593992710071e-01,4.738747215896743636e-01,-5.610445961308967253e-04,1.792304733713607004e-03,6.085251474152571227e-03,1.932831294834613800e-02
4.913244032804106043e-01,4.230626624337076591e-01,3.853607701039323818e-01,-7.650629178822770937e-02,1.117134710277299242e-01,1.292057888643411423e-01,3.372483253479003906e-01
4.290593194634903518e-01,4.869654132729729912e-01,4.640878483720519698e-01,-7.944923605911613854e-03,9.167704007044757616e-03,8.304234527984908146e-03,5.656973645091056824e-02
4.155226035835372089e-01,5.208778556401638671e-01,5.280113820441127981e-01,-5.957242805274342440e-02,8.167138814410754288e-02,5.991313545339469609e-02,2.309289723634719849e-01
5.000719025987134803e-01,5.219669931410209074e-01,4.140101250030602253e-01,2.706074706534734083e-03,2.444507713784480063e-02,1.977869149142611957e-02,1.129539683461189270e-01
5.295201681869698973e-01,4.877451690038623333e-01,4.983416194279861600e-01,-3.483835506731045722e-02,7.723309186240270852e-02,7.477351691564566860e-02,1.993087828159332275e-01
4.677227108584695037e-01,4.493142180059201407e-01,4.439483111352992006e-01,-7.825109184358991846e-03,-3.747538744379894440e-03,-5.232395910043946378e-03,2.782816626131534576e-02
4.578457975251006840e-01,4.553553283196848378e-01,4.533809847115795599e-01,-2.425009801173365603e-03,-1.402840823267629449e-03,-7.249027462649245638e-04,6.335603073239326477e-03
4.663510863487851377e-01,5.003253516511024790e-01,3.811375436790602200e-01,-1.775984121897635284e-02,-2.390190782923785895e-02,-1.213364352372481823e-02,1.200519949197769165e-01
4.256984432718332045e-01,4.705182893206285577e-01,4.732287792762297496e-01,-5.205694754652250705e-03,-5.042346757037500897e-03,-1.301079883197888559e-02,5.294398218393325806e-02
4.677684413098400773e-01,4.483867375601837124e-01,4.503760307085292180e-01,-1.827810275203132660e-03,-4.044704907806739164e-03,-1.344865833307066572e-03,2.013900317251682281e-02
4.615267740051959833e-01,4.554016023482551079e-01,4.498324079510894191e-01,-4.177292501414072573e-03,-1.739409639787794278e-03,-1.397725694357278758e-03,1.303582731634378433e-02
4.163151413782482102e-01,5.091856702679132818e-01,4.692903461544440380e-01,8.144942992194733125e-03,-1.543497221927117580e-02,8.007531864140925507e-03,8.727868646383285522e-02
5.021379155594364319e-01,4.711266233310066331e-01,4.507647557364877211e-01,1.287761531227666831e-02,-1.023578216883930248e-02,2.051492500783228326e-02,6.389172375202178955e-02
4.510557684360096964e-01,4.831969316816208670e-01,4.688465436909122763e-01,3.010082420041699635e-03,3.512592098056834498e-03,-5.664892479214114936e-03,3.063037060201168060e-02
5.047477399573886414e-01,4.901425737046757880e-01,3.886059421883696352e-01,2.131476896687936606e-02,-2.376077953975219703e-02,3.769084549092445446e-02,1.390123665332794189e-01
5.080987417337006207e-01,4.671325522532595587e-01,4.252855367281140331e-01,1.943003133287836068e-03,-3.842415162276008669e-03,1.937593811768572455e-02,7.953372597694396973e-02
5.343276414297610799e-01,3.159579456513302853e-01,4.865974310961049820e-01,-1.674028719113484012e-02,-1.408083863710356785e-03,-5.944348169301192503e-02,2.258050143718719482e-01
3.913371757127455108e-01,7.065256584873953472e-01,5.518641751252209016e-01,1.301130574519945016e-01,-1.614623100681943924e-01,1.345595623753197134e-01,5.077732801437377930e-01
5.004023077192694124e-01,4.614159799298459541e-01,4.235525807678181542e-01,8.063760892964802474e-03,-1.080441498171763517e-03,1.712638768247572510e-02,7.421752065420150757e-02
5.156461387653350492e-01,4.711765466164338223e-01,4.344890174551060413e-01,7.739642768657853215e-03,9.482220699993161930e-03,3.146977825402669932e-02,9.151766449213027954e-02
5.124748129873197833e-01,4.556702518646889022e-01,4.475109439799327404e-01,1.492045270592495983e-02,5.868149133905270140e-03,2.592949441426132054e-02,8.090117573738098145e-02
5.421459248179576473e-01,4.707971877837330288e-01,4.169358374990394522e-01,2.180948929947488721e-02,1.446835858966277755e-02,1.097912204574479633e-01,2.237228751182556152e-01
3.810863847207262012e-01,6.333852089272028474e-01,6.770117470826231276e-01,1.955150234337285631e-01,-5.231307300010649280e-02,1.104719605996271475e-01,4.858656227588653564e-01
4.540076746566952259e-01,4.573703662400639969e-01,5.010746819727146528e-01,1.798299421457913872e-03,1.503340083873743599e-03,-7.688407891571796176e-04,4.567925259470939636e-02
4.403768745618125147e-01,4.338429935029955997e-01,5.010603285381547423e-01,-3.595854118207875670e-03,-1.452221295898585866e-03,-1.342125151189895024e-03,6.459251791238784790e-02
4.438521987350991793e-01,5.042930868538446632e-01,4.436406698221526668e-01,1.573703679110558667e-03,1.497123841311137024e-06,2.052323869061730127e-03,6.071240827441215515e-02
4.620047239791665317e-01,4.772039493292085655e-01,4.654296890862968938e-01,-6.782924430798768691e-04,5.513191611421297891e-04,3.035773388542573840e-03,1.485361531376838684e-02
4.674819571117976857e-01,4.677037098420576688e-01,4.710928508489588551e-01,-1.995052338742306537e-03,2.550543187136835276e-03,3.538592760948049490e-03,9.017119184136390686e-03
4.667342094006126652e-01,4.721055621569865690e-01,4.644115842456674748e-01,-2.909543982153444189e-03,1.300122131786834827e-03,1.229066670212701105e-03,9.039953351020812988e-03
4.678629062373516612e-01,4.671111491127289406e-01,4.671819657595294717e-01,8.517742267406131764e-04,8.764273294457827638e-04,-1.072023372782360609e-03,2.906123176217079163e-03
3.770466949436609427e-01,5.167483796397636109e-01,4.948924221844051563e-01,-2.281565323782464537e-03,-1.014427224588019920e-02,3.223455268519710010e-03,1.315159201622009277e-01
4.621940738888612454e-01,4.929810983519111178e-01,4.559848957982233220e-01,4.255444111853291106e-03,9.156068824135864433e-04,-1.080739658521589737e-03,3.518383577466011047e-02
5.015175284476764972e-01,4.697959776482003025e-01,4.200868634216967656e-01,7.669588535902725594e-03,2.492962376877421674e-03,-7.132714355606730762e-03,7.349722832441329956e-02
4.651795902033888375e-01,4.695456717313009620e-01,4.679922986724425193e-01,-3.915680978260794470e-04,2.516523501377283226e-04,2.002568635734570165e-03,5.232044495642185211e-03
5.498216460073521716e-01,2.387943882082070868e-01,6.988726983179436303e-01,1.111895728593238764e-01,1.360397363390686461e-02,9.378233553434081604e-02,4.788977503776550293e-01
4.199289399856435123e-01,4.563121312785842765e-01,4.789783276115309185e-01,-9.268082034446798248e-03,-1.193109511745087115e-02,-1.500818622448291118e-02,6.342431157827377319e-02
4.622876587498482293e-01,4.519016813193793558e-01,4.492509655839656557e-01,-1.571227794392277347e-03,-4.756319812279252712e-03,-2.118993779696930289e-03,1.520425919443368912e-02
4.607043335011141161e-01,4.792425809422545813e-01,4.577678330429886255e-01,3.269744400298213189e-03,-1.552398994401407543e-03,2.119927921804304078e-03,2.143625542521476746e-02
4.533782514036440725e-01,4.934675893584429818e-01,4.566460339498392140e-01,7.824929096733870479e-03,-4.012330018821572489e-03,7.987040686896850969e-03,4.370576143264770508e-02
4.861151981478610273e-01,4.399593888160758803e-01,4.631291551703410336e-01,5.103629678003888427e-03,-7.402816579336338881e-03,1.093548057923723546e-02,4.689432680606842041e-02
4.437122801422058171e-01,4.917204780823478671e-01,4.479041374101299655e-01,1.976809996907955003e-03,-6.673060817726572842e-03,4.510987779258018512e-03,4.824391007423400879e-02
4.840476477275835743e-01,4.606697316967765521e-01,5.278555826615632940e-01,-6.116555120474559404e-02,5.698844853688984219e-02,6.326027736365819054e-02,1.909505426883697510e-01
4.655218905865351475e-01,4.658492896034883701e-01,4.689869187631060532e-01,5.664974101316458562e-05,-1.198975205917463411e-04,6.521534786206980216e-04,3.508251626044511795e-03
4.372236945678283915e-01,4.395318205719077609e-01,5.021707312393554057e-01,3.763459236648434929e-04,9.860577511468186090e-04,-1.030500350680195335e-03,6.387539952993392944e-02
4.557730760073647747e-01,4.853584981549258215e-01,4.565296020118450038e-01,6.568601181982700044e-03,-3.664587685907994431e-03,5.408509670986737239e-03,3.333122283220291138e-02
4.508891877077384480e-01,4.861481857409927776e-01,4.565977050718587060e-01,2.199469695529230034e-03,-3.707200323634515359e-03,5.777239542922799585e-03,3.507677465677261353e-02
4.867458709777575665e-01,4.055205469042072464e-01,5.080450622837046071e-01,1.766983470058786782e-02,-8.757520089125460025e-03,1.121160091755014042e-02,1.016124710440635681e-01
5.388470479560026893e-01,4.311931708672253061e-01,5.273143361788138472e-01,5.338298446432450384e-02,-4.331617634307314418e-03,6.414647175553687963e-02,1.772869080305099487e-01
4.593368636770428504e-01,4.796690389270483190e-01,4.628374712789258827e-01,-4.807884728039144712e-03,5.496155246147000316e-03,5.570891544128210061e-03,2.464856207370758057e-02
4.889485952149730252e-01,3.883430932106262112e-01,5.029126098432635805e-01,3.976326456014953742e-02,-1.049016710446471629e-02,2.882368248431051855e-02,1.388784199953079224e-01
5.216793346597652370e-01,4.249271060161879943e-01,4.966816358796046216e-01,4.661412582525010367e-02,-2.609341181039214266e-02,5.382860675719598753e-02,1.575470715761184692e-01
4.669197008111480307e-01,4.998501706838914260e-01,4.447397906374734866e-01,-1.548822072857940647e-03,3.942927946716598929e-03,2.204462961625047734e-03,4.873576387763023376e-02
4.832445192561816150e-01,4.753569966994939944e-01,4.578872014626127473e-01,1.396072000846920735e-02,-1.060828566860011132e-02,1.598947413028120948e-02,4.684551432728767395e-02
3.681804956458442080e-01,4.970053272917737686e-01,5.240693893711246831e-01,-1.148980138751252295e-02,-1.252267877400297866e-03,5.439690078498809513e-03,1.459600776433944702e-01
4.859899271471548321e-01,4.204320475355801112e-01,4.867681617866099764e-01,1.534564538246528491e-02,-1.066289492902065296e-02,1.255094048125805252e-02,7.661329954862594604e-02
4.690322724928902010e-01,4.685992154510171814e-01,4.652707262404508493e-01,1.353262617843232563e-03,-5.181993065842892482e-07,5.759220535876531741e-04,4.381417762488126755e-03
4.750890804349618413e-01,4.659951963537206643e-01,4.612750785098584938e-01,2.923415696525196415e-03,-5.383530481349732078e-04,1.030086625102979297e-03,1.332644838839769363e-02
4.720743769645565635e-01,4.655758936523635705e-01,4.654237203268790646e-01,2.089588669409564968e-03,-3.046333544580546483e-03,1.053431320328506848e-03,9.354735724627971649e-03
4.940443047389714293e-01,4.467308900406971039e-01,4.611649571191669961e-01,-3.902157629754262474e-03,5.184098392244902188e-03,4.548053752435271893e-03,4.418524727225303650e-02
4.895438733549906662e-01,4.569227603771035540e-01,4.573405189311091634e-01,-5.163988971258305985e-03,3.120075563893607521e-03,2.475136120584117520e-03,3.432590514421463013e-02
4.605271922944682017e-01,4.658771308776918918e-01,4.747228968809457661e-01,9.931453289128398820e-05,7.535065443402997557e-04,3.128895347356090532e-03,1.361236907541751862e-02
4.918220387164359275e-01,4.567253233462411632e-01,4.544639180183844829e-01,-3.145646820517722549e-03,2.798779235974743155e-03,4.542214963767621412e-03,3.783306851983070374e-02
5.225266699058910280e-01,3.437776163894963322e-01,5.275171687222331984e-01,-7.306838139348335783e-04,6.796629261127505248e-03,-1.465711313555857027e-03,1.816997677087783813e-01
4.871660989557677346e-01,4.600964618393119654e-01,4.605276024991692418e-01,-1.852012818089538706e-03,6.712757732793581209e-04,8.811608893412830983e-04,2.711551822721958160e-02
4.509521487953644381e-01,4.094503721625597503e-01,4.987857329667936823e-01,-1.083154452616692451e-02,-1.247380450604245600e-02,-8.025754571971341345e-03,8.371153473854064941e-02
4.694908000708426510e-01,3.950904632600845123e-01,4.905625099238797859e-01,-2.148218756815109196e-02,-1.619066300996136951e-02,-8.432746144522546353e-03,9.965625405311584473e-02
4.958563633335079657e-01,5.053889645375010398e-01,3.550018273263652602e-01,7.301717779259665753e-02,1.459915985739330124e-01,-6.854377107430174865e-02,3.395636677742004395e-01
4.710336656797735611e-01,4.021809387590510321e-01,4.726260851769318316e-01,-1.778180596481260950e-02,-2.268778813331856145e-02,-1.828559325485051498e-02,9.137149155139923096e-02
4.770181806919498446e-01,4.056375265702675814e-01,4.759491303633277548e-01,-1.254435027002051561e-02,-1.708398241451536750e-02,-1.064101081728502547e-02,8.189868181943893433e-02
4.530405443736620352e-01,4.222709345158067173e-01,4.854980053276233831e-01,-9.085197800056303910e-03,-1.258396630273474551e-02,-6.143982953520607179e-03,6.192653626203536987e-02
4.664939944662189752e-01,4.735964235289861213e-01,4.648642181840759724e-01,-7.821029825000367459e-04,1.466065479459030324e-03,1.731210834824149867e-03,9.052646346390247345e-03
2.287036015818886547e-01,5.850296990559209487e-01,5.703432442620189891e-01,4.438683047490753902e-02,3.134979609435685488e-02,-7.994772152154678592e-05,3.616764247417449951e-01
3.016781553298607532e-01,5.344858168655468589e-01,5.390365355342988662e-01,-3.775822003858762821e-02,7.903679127100547361e-03,2.203576178163038635e-02,2.473878264427185059e-01
3.132784183165684411e-01,5.494575450324516996e-01,5.642821599574785463e-01,8.888367161763114505e-03,2.099290560963337424e-02,2.828166612371425109e-02,2.519132494926452637e-01
3.464433539364654147e-01,5.321193203291346707e-01,5.299538437900433996e-01,3.925404201005144346e-03,1.293356222363561785e-02,3.603637512699286050e-03,1.861859112977981567e-01
4.548557898748027406e-01,4.589641934524176792e-01,4.533475357965123798e-01,-1.677500140643099552e-03,-4.467727159443951428e-04,-1.073269425930068735e-03,6.151982117444276810e-03
4.581170700134172269e-01,4.561067708689856004e-01,4.566844642522602804e-01,-3.951123421646624695e-03,-2.685740338242601291e-03,-3.255223984388938216e-03,1.017235871404409409e-02
4.546702849987344086e-01,4.539981765928032265e-01,4.561356598860138445e-01,-6.770982578368187369e-04,-2.085092871454075330e-03,-1.699175592447004900e-03,5.163696594536304474e-03
5.044210214693384264e-01,6.852321213731917826e-01,4.087683803378315828e-01,1.203707283715419324e-01,-1.616379701371473132e-01,1.296027587209468424e-01,4.810151755809783936e-01
4.533690060471757821e-01,4.558281518439897262e-01,4.561839252315680882e-01,-8.817807742113978765e-04,-1.617502888176726005e-03,-2.220149776076317614e-03,5.658411886543035507e-03
4.550290808293986911e-01,4.971253827257490765e-01,4.574998389646507402e-01,1.638241135169661838e-03,1.243682068065521612e-03,-1.271672505301080008e-03,4.113072529435157776e-02
4.618394164600785334e-01,4.989777997272317189e-01,4.574756641313734717e-01,8.016836768314886813e-03,6.716163511072703075e-03,-5.071442428643253494e-03,4.433568194508552551e-02
4.538144102629479981e-01,4.934104346246660500e-01,4.560242176572913420e-01,2.009618774599470411e-03,6.708718156074078807e-03,-2.890190230523303084e-03,4.071148112416267395e-02
4.594691114437796098e-01,4.851892405809831721e-01,4.602770856733354177e-01,1.497031247241400109e-03,1.472642463105636006e-03,-2.883087246555547569e-03,2.606842108070850372e-02
4.635347789000551777e-01,4.647173171928056234e-01,4.698719107763547065e-01,-2.758929723942970917e-03,4.527644009534077460e-03,2.700955189803524569e-03,1.184411160647869110e-02
4.498425625911299242e-01,4.564442480105318500e-01,4.998496306777706621e-01,7.320346297270106245e-03,1.645468351724271644e-03,3.347182519488009771e-04,4.881986603140830994e-02
4.331981596475529273e-01,4.642022745041107790e-01,4.994951954520042148e-01,-7.268683047273225006e-03,2.326482479488490088e-03,1.113718298690232096e-02,6.203160807490348816e-02
4.753012769460647213e-01,4.608367966122314252e-01,4.610726623780488365e-01,-4.631500793341679009e-03,2.970309855013183922e-03,3.373938858869747395e-03,1.818890124559402466e-02
4.591694971903834133e-01,4.821366371099844450e-01,4.623315646939015200e-01,-3.987629046237930715e-04,7.036101165783389087e-04,1.990115442353613141e-03,2.187940664589405060e-02
4.721061535298931022e-01,4.673758022110544030e-01,4.651352524669174482e-01,-2.619383377121283722e-03,1.550092773733595299e-03,1.673912070970435314e-03,8.613517507910728455e-03
4.770958313773940862e-01,4.624295140454077746e-01,4.658695984356295838e-01,-8.506132610878632796e-05,2.898365190802339175e-03,6.358750441766298491e-04,1.424492709338665009e-02
5.092798407354290902e-01,4.323281809431226974e-01,4.662993627235318961e-01,-9.795504771439355121e-04,-8.698973297354681278e-03,2.182791969557211151e-02,7.823508977890014648e-02
4.263436717499530237e-01,4.965154951420427398e-01,4.643699202699723139e-01,-7.183755244552570904e-03,1.941824175748094877e-02,1.149082057078769023e-02,7.337471842765808105e-02
5.008106714053893738e-01,4.484799177129045744e-01,4.562859082062115101e-01,1.554823192636632006e-03,4.561738359604269508e-04,8.076189109056532145e-03,5.093622580170631409e-02
4.978240581169710577e-01,4.299614633345435477e-01,4.620769882772375325e-01,4.243959462405124013e-03,-3.027073107331246671e-03,1.301680425281580462e-02,6.361705809831619263e-02
4.989276906557402747e-01,4.564903325822041169e-01,4.646745641274320771e-01,9.286662482215445741e-03,-1.773520381199629155e-03,1.856253159925166235e-02,5.312681943178176880e-02
5.355307232775317061e-01,3.730425426904865338e-01,5.253242681501395506e-01,2.276357622906215877e-02,-7.313285440089023481e-03,7.303039248396157868e-02,2.063091397285461426e-01
4.573787135551347083e-01,4.476971060324152485e-01,5.001846686573371281e-01,5.189920070612663930e-03,4.034065030593973408e-03,-5.386487150491344562e-04,4.970926418900489807e-02
5.216741540325123827e-01,3.535002070623396997e-01,5.241296987316237388e-01,3.789006754735970567e-02,5.389942826831996964e-03,5.999720935943537309e-02,2.095103561878204346e-01
5.246959052347194286e-01,3.922366003394013867e-01,4.904056229456540961e-01,1.564098390274769573e-04,1.173527701832975667e-02,2.061706103697677830e-02,1.259668171405792236e-01
5.312563948413371318e-01,3.571899112124641285e-01,5.300675763315558786e-01,-4.470376043466227009e-03,6.514337422626304865e-03,1.686085676064863828e-02,1.764475852251052856e-01
5.294750416299598417e-01,3.505570642804003989e-01,5.293164506736967034e-01,-1.835601852707020518e-02,1.487719395586889308e-02,6.448142087053618243e-02,2.147828638553619385e-01
5.301819895763300039e-01,2.939650766012218974e-01,5.250566837339394333e-01,-2.343852358354246712e-02,8.974433709345785645e-03,2.979243508357882000e-02,2.432416379451751709e-01
4.467046978931862311e-01,4.995496312505431358e-01,4.663241422695645899e-01,-2.441700892837758360e-04,4.959318522270548743e-03,3.348045695677034656e-03,4.741637781262397766e-02
3.811641501347106664e-01,4.773712691380325723e-01,5.113352820357844886e-01,-4.226768525376615321e-02,-1.520766869765948458e-02,-3.364332638232994058e-03,1.405858844518661499e-01
4.680507508193856303e-01,4.675818702970090390e-01,4.666068685525730508e-01,1.246113693455900044e-04,3.064513544403087652e-04,-4.455804147961085391e-04,1.597367692738771439e-03
4.674097091976168183e-01,4.666804884064622572e-01,4.679005540310306466e-01,7.384210854297351819e-04,7.189827728865099549e-04,-1.601416918493451472e-03,3.465665969997644424e-03
3.213993703134276347e-01,5.201319319924810891e-01,5.232269414341599312e-01,-9.083278813752652253e-03,-1.925017876557868352e-02,2.340031583034183499e-04,2.036631554365158081e-01
4.469906517339798380e-01,5.050380055433262294e-01,4.669022279448220569e-01,-1.615503804735798953e-03,4.868444658872428388e-03,6.124493043569575849e-03,5.293028429150581360e-02
2.988275157418991412e-01,5.231095391655424809e-01,4.945295846780665139e-01,-3.166229810975813852e-02,-6.011103433237798693e-02,-6.893542905350996328e-03,2.422794848680496216e-01
4.531539072239127441e-01,4.981802097157900788e-01,4.582023114141612896e-01,1.045856773808992099e-03,1.962376354190634772e-03,1.340062191931098339e-04,4.290024936199188232e-02
3.495899908638616660e-01,5.267046291309492867e-01,5.158724450032499131e-01,-4.954873214822188079e-03,-1.860791855989353191e-02,7.596817524504212047e-04,1.751643270254135132e-01
3.435359350790862520e-01,5.085212687577504997e-01,5.192322052601828775e-01,-2.534099537530136448e-02,-1.051445458815963678e-02,-1.214753193504037113e-02,1.783336102962493896e-01
3.586047831253028617e-01,4.967389386709355481e-01,4.994734777956530425e-01,-1.838572527983545549e-02,-1.817898599148965594e-02,-1.515200517878634821e-02,1.488641500473022461e-01
5.969229825412655233e-01,3.060058489579617902e-01,3.790689663704139289e-01,1.709619622242693898e-02,2.899701373629175877e-02,-2.019319178264122883e-01,4.409586191177368164e-01
4.490860394072550554e-01,4.895995429448871672e-01,4.631461746522697598e-01,-5.056122652304485300e-03,1.235581469814539882e-02,7.939457771982173090e-03,4.464529827237129211e-02
4.574269630064120573e-01,4.972842808789434410e-01,4.548089861883054530e-01,-4.200694032987226166e-04,1.819641619549397559e-03,8.174515395497356906e-04,4.137961566448211670e-02
4.546747302260857881e-01,4.972542668178246972e-01,4.570230634221842392e-01,-3.572802863639017428e-04,9.129164994125510803e-04,1.779300769006071214e-03,4.160434752702713013e-02
4.603652223398259080e-01,4.897018351195553953e-01,4.595835463603431537e-01,-2.481897464650746100e-03,1.014699429425658861e-03,1.800697907807199830e-03,3.025682456791400909e-02
4.658208993939595977e-01,4.616110294371277289e-01,4.740873043663192399e-01,4.512215026936150552e-04,3.592169493021482238e-03,1.096945932529266908e-03,1.279799453914165497e-02
4.581008032761003101e-01,4.929016878357444509e-01,4.516828370826141970e-01,-3.624456372853303212e-03,5.956720118953866272e-03,2.261415111514092358e-03,4.045790806412696838e-02
4.435605997622431573e-01,4.931065860129713596e-01,4.565086176027279841e-01,2.911252981244632013e-03,-6.113810042395404799e-03,8.339592301984621175e-03,4.824046418070793152e-02
4.644367602690370744e-01,4.735471695759322919e-01,4.642688326557569134e-01,7.461660173936525073e-03,-5.326562923664311666e-03,8.711222034748850734e-03,2.375625632703304291e-02
4.666253992935992523e-01,4.868967827382748581e-01,4.384932691806885385e-01,1.075624235095834144e-02,-3.765897167288274634e-03,3.629328355282851991e-03,4.692307859659194946e-02
4.680917498856030368e-01,4.839882409835904453e-01,4.487016625531449754e-01,1.154929230478861021e-02,-9.702016805417197284e-03,8.485250969317719577e-03,4.284218326210975647e-02
4.587116165179755956e-01,4.913520309389644569e-01,4.554140105574138730e-01,1.935988640982267295e-03,1.430054427289626797e-04,-4.111125890505513817e-04,3.457916527986526489e-02
4.495801096975348687e-01,4.935252321406935483e-01,4.692094712032086612e-01,2.603829333790002361e-03,4.384957136402364321e-03,-3.428188321480062604e-03,3.958726674318313599e-02
4.535844404089010573e-01,4.619634160753567920e-01,4.821127375310472751e-01,5.361806577831663805e-03,-1.676447443273573843e-03,5.118650779571256269e-03,2.860617265105247498e-02
4.724018717796558686e-01,4.788311503110285194e-01,4.568147517923564771e-01,7.756165068068716223e-03,2.413343602760052893e-03,-7.601252688916226765e-04,2.416998520493507385e-02
4.488189897398554007e-01,5.014471860399812853e-01,4.167262701611845199e-01,4.710598648222226632e-03,-1.141119754847977515e-02,4.769544641762255878e-03,7.755070924758911133e-02
4.037571345751446161e-01,5.050733178481363606e-01,4.318318109485516643e-01,1.298978142885838342e-02,-5.277804087259155286e-02,1.633870735066669452e-02,1.336875706911087036e-01
4.678588580269651409e-01,4.660163861065483859e-01,4.679305003570551902e-01,5.065481537421143382e-06,6.896874428070360729e-04,-3.999901713536438636e-04,2.332143718376755714e-03
4.533255841214808290e-01,4.995035539291060034e-01,4.244750761455396981e-01,6.264112843746308563e-03,-1.725625388034797425e-02,5.993966564392129697e-04,7.286387681961059570e-02
4.516140344827826447e-01,5.798181858147082313e-01,4.415026496806301326e-01,5.007829749247976608e-02,-8.334104234811838541e-02,4.858661582238167631e-02,2.308192849159240723e-01
3.499925754370747377e-01,5.633582586132885872e-01,3.907720915014217811e-01,7.730129631898612075e-02,-1.619471557761709979e-01,8.360467081604396056e-02,3.950484395027160645e-01
4.068250665985785886e-01,5.530987448909157056e-01,4.446989625256603795e-01,7.213445043013576308e-02,-7.425446358153947601e-02,3.812934370189698802e-02,2.319554239511489868e-01
4.299647415575262310e-01,4.991251418925871652e-01,4.693914631474631616e-01,2.097998939817226349e-02,-4.368311031613601736e-02,2.473109960377362429e-02,1.117625311017036438e-01
4.631734073113222272e-01,4.981583171837822843e-01,4.594768288563538250e-01,7.154966233487876186e-03,8.948624252221331135e-03,2.090130775005883572e-04,4.196282103657722473e-02
6.076437044907065932e-01,2.815563176724610872e-01,4.393807384301577357e-01,1.717574114963790061e-02,3.629582005865038957e-02,-1.818231098975430504e-01,4.287109673023223877e-01
5.075820601525862230e-01,4.882729427738463635e-01,4.811010042589541902e-01,5.814088818258700969e-02,-3.082420707713701830e-02,8.029114205967803619e-02,1.813677102327346802e-01
4.321511457917320831e-01,5.245055704607299862e-01,4.719147578610555782e-01,2.762232725339568845e-02,-4.544077569622745338e-02,1.852122755760995942e-02,1.262965500354766846e-01
4.984077342368411490e-01,4.582284019153370913e-01,4.542431874754627175e-01,3.075476636698685692e-03,1.521118316312375016e-04,1.665316988486656262e-03,4.274516180157661438e-02
5.012647621051854463e-01,4.488665442986519705e-01,4.553031147464757789e-01,9.779204784929813096e-04,-2.629360142032968685e-04,5.785619986153438948e-03,5.052953958511352539e-02
5.020075116677155114e-01,4.533834201659926455e-01,4.578873015081422193e-01,4.464523941400641875e-04,6.075925694105327284e-04,1.592775536909427341e-03,4.663589224219322205e-02
4.682107546881978943e-01,4.659699312416638040e-01,4.665047785109900369e-01,-8.017765279405795342e-06,1.988918878540523534e-04,-3.547160017032122614e-04,2.145970705896615982e-03
5.058068965998812061e-01,4.658781765086189020e-01,4.429532279945169182e-01,3.560841197359542690e-03,2.208027638874331307e-04,3.735869933900804515e-03,5.581464990973472595e-02
4.535057103307847948e-01,4.586724545335583714e-01,4.968095628649425999e-01,1.241674199178785130e-03,-1.031552305303624212e-03,2.607005636661178117e-03,4.130842536687850952e-02
4.604874600926018302e-01,4.605285218907482769e-01,4.876592342920100243e-01,1.260276831020867632e-03,-2.359696708345542914e-03,1.713894435891249405e-03,2.770330198109149933e-02
4.592092676820982988e-01,4.538900505063989121e-01,4.924925805006963309e-01,5.629708597781679820e-03,-2.967289371821536358e-03,1.665001165096143291e-03,3.798586875200271606e-02
4.663288171330542964e-01,4.842334557483671253e-01,4.628576220748619185e-01,6.698173885773564713e-03,4.377878352416650527e-03,-5.487258358197293941e-03,2.602306380867958069e-02
4.370530188561792539e-01,4.966289211108698698e-01,4.823590498917619263e-01,4.871342139074638818e-03,8.831736181682210696e-03,-3.983139201174853809e-03,5.705752968788146973e-02
4.616004930746572810e-01,4.863373921687063062e-01,4.622713585309320417e-01,6.243335982947886310e-03,5.847835604104624843e-03,-5.076709763983097701e-03,2.987670153379440308e-02
4.423509231880202730e-01,4.738706819922267610e-01,5.169569221777592372e-01,2.833094724624390590e-02,3.981630622213417833e-03,1.038901144803742148e-02,8.358988910913467407e-02
4.661310409292174772e-01,4.759707075381111596e-01,4.584633090420007773e-01,4.990560253845421901e-03,3.836348318342371836e-03,-2.442440789896577549e-03,1.917882636189460754e-02
4.660902683541525704e-01,4.809926826394302912e-01,4.566971012482002878e-01,5.395151313888699694e-03,3.239625877407953033e-03,-2.110321217658622534e-03,2.413427643477916718e-02
5.032429820651066477e-01,4.189669303866394023e-01,4.439779220823310557e-01,2.767669814540848344e-03,4.893889534652201209e-03,-1.607988348955772737e-02,8.056484162807464600e-02
4.632794991472887203e-01,4.997264543438810214e-01,4.601942378485645579e-01,6.656749516028419647e-03,9.434885478057651251e-03,-8.345964736241098239e-04,4.303981363773345947e-02
4.767223573540054216e-01,4.538096109098572195e-01,4.659428452645684726e-01,3.417929415337770793e-03,7.445132033360970375e-03,-1.924707964989167243e-03,2.463034354150295258e-02
4.531661943777427481e-01,4.932536781002820336e-01,4.584470115726173023e-01,3.032394076195643433e-03,5.571977455991112584e-03,-2.600802638092287056e-03,3.955020010471343994e-02
4.589372905050166929e-01,4.969843298771406959e-01,4.549921411161017559e-01,3.787265376445330366e-03,1.457545329781310527e-03,1.065361385659178766e-03,4.081729054450988770e-02
4.789302796005003304e-01,4.357635557754258038e-01,4.883699585239792418e-01,2.742301589621510063e-02,3.001311758344313296e-02,-1.921301051230958276e-02,9.179215878248214722e-02
4.946127310474379701e-01,4.364885894862645110e-01,4.822062818866043044e-01,1.782539172825572601e-02,1.475007627771610444e-02,-2.764437156140650553e-02,8.191327005624771118e-02
4.486012375216938963e-01,4.811969568730334879e-01,4.842769105691518972e-01,5.414504397827561363e-03,3.759174957335739437e-03,-5.236286104476171356e-03,3.721506521105766296e-02
5.371361955651734466e-01,3.911256986813795300e-01,4.429132141174551562e-01,5.830676867659135426e-03,1.388880058762846821e-02,-4.646015556679292113e-02,1.536092907190322876e-01
5.130917136175482396e-01,4.208807038374622334e-01,4.483291483243904141e-01,7.675246399072593699e-03,-2.152711238842982579e-03,-1.824369421707406486e-02,8.896272629499435425e-02
4.932953815446498580e-01,4.100712355592195935e-01,4.754292467642246556e-01,1.260160474458251606e-02,1.679095169058057030e-02,-1.576481098009117204e-02,8.846671879291534424e-02
4.493874727962917648e-01,4.702821387959175148e-01,4.822742702850987828e-01,3.127359050190152510e-03,3.727321818897612500e-04,9.155807977124815270e-03,3.334987536072731018e-02
5.039262349850174294e-01,3.944441823657296453e-01,4.777811887315212003e-01,2.777228979420124071e-03,1.089149812428206673e-02,-2.257119852249957204e-02,1.082352101802825928e-01
4.940756674928469816e-01,4.517913170795554434e-01,4.610882809989951259e-01,1.708528274645873188e-02,1.967566934422826722e-02,-3.439702844251624203e-02,8.407060801982879639e-02
5.120108631244186803e-01,4.095021727625757779e-01,4.677099676403296824e-01,3.155131087063418795e-03,7.715764252016748571e-03,-8.635698150147948574e-03,9.144158661365509033e-02
4.784650843169329648e-01,4.200899413252134340e-01,4.920574252648521330e-01,-4.891312770901641571e-02,3.128080989842104559e-02,4.399922314216112018e-02,1.425012499094009399e-01
4.778295719841555433e-01,4.355625317699777788e-01,5.133741149853665586e-01,-4.752760797621728012e-02,4.100621380664826177e-02,8.347107993889960054e-02,1.930691450834274292e-01
4.698717058555829662e-01,4.640398728459290689e-01,4.669269566743309285e-01,1.422256899095863079e-03,3.248746847789679010e-03,-1.892670924290123548e-03,8.601550012826919556e-03
5.246744553096618358e-01,4.674425054544699143e-01,4.581361504200353596e-01,-2.885338481794238932e-03,2.294484220987875675e-02,7.594077191292676610e-02,1.509970277547836304e-01
5.200066279871051744e-01,4.915778032200706638e-01,4.639308351056831148e-01,-2.269394559303615153e-02,6.530304031529228503e-02,8.956996717768220262e-02,2.019043564796447754e-01
4.682127681789999274e-01,4.666892787039715329e-01,4.658323798668558280e-01,3.339817702760329663e-04,-1.261653671449936020e-04,-3.408894831523560497e-04,2.256495878100395203e-03
5.788430358869302017e-01,1.411419048127899867e-01,5.485807267728152192e-01,-4.326641231839016555e-02,2.358548976799558841e-02,-1.261935270430395162e-01,4.840572476387023926e-01
4.961026818817214634e-01,4.036247680967273710e-01,4.949678567516628269e-01,-9.230663084280462879e-03,1.776408236122413095e-02,1.532833989372636187e-02,1.017628759145736694e-01
4.881485386516206670e-01,4.346183207231044676e-01,4.679477862671865274e-01,-3.274392289780429788e-03,1.096913596811469743e-02,1.204782520211757774e-02,5.496167019009590149e-02
4.868233132101010829e-01,4.061592668278449780e-01,4.904970316216109016e-01,-1.386278890548608977e-02,2.394921498496085238e-02,1.774722497988624748e-02,1.002927646040916443e-01
4.526961363378351755e-01,4.608527483374865730e-01,4.862879808308709917e-01,-2.335909337110572272e-05,1.227979443327031689e-03,4.919318266190185127e-03,3.159226477146148682e-02
4.676588572016281420e-01,4.706815780399932758e-01,4.651754956308402078e-01,2.126924894074317274e-03,4.574403114816026476e-04,-6.949388878663923658e-04,6.201486568897962570e-03
4.516538474221696298e-01,4.965051453239793244e-01,4.559126418748677412e-01,3.539495343385886165e-04,6.671212077025432188e-03,3.004619736086290051e-03,4.471842944622039795e-02
4.587309020631826773e-01,4.959935636417945326e-01,4.513920317881535693e-01,-2.820523057797852135e-03,5.794580342590797441e-03,1.973306737986326755e-03,4.303614795207977295e-02
4.549096145601320140e-01,4.968165853453782588e-01,4.600312245423132662e-01,6.474057726453467769e-04,2.293313607274209600e-03,2.680833032345892979e-03,4.007979109883308411e-02
4.574136094313889234e-01,4.964838324051867868e-01,4.552653440392089301e-01,-1.003478847399284779e-03,1.327090874874887767e-03,7.613654796781377720e-04,4.031220823526382446e-02
5.177933689951533802e-01,3.368194434544269367e-01,5.230781404641590138e-01,-1.755768207470384534e-01,-1.095370132496558402e-01,-1.542429201382116422e-01,4.833065867424011230e-01
4.561871477894856586e-01,5.011774917312512567e-01,4.546345546576591179e-01,5.846067824644162782e-04,1.321958702211280690e-03,1.143756705037477731e-03,4.589755833148956299e-02
4.547552850908794797e-01,4.901059818068247975e-01,4.640260919388574656e-01,-2.938672932442831093e-03,3.738223261782721522e-03,7.382998649863852826e-03,3.520293161273002625e-02
4.613217092340602954e-01,4.759665071586577922e-01,4.637068832127317353e-01,-6.454354062350937601e-03,6.051985057586591055e-03,6.501996655177553174e-03,2.338615618646144867e-02
3.213464951049509466e-01,6.535099481233513918e-01,5.121408940179107416e-01,-7.032288422955337848e-02,1.352740196834893438e-01,1.493151121427279404e-01,4.690183997154235840e-01
4.536216748441114777e-01,4.822113548708974462e-01,4.620644292142166432e-01,-3.449644800747675173e-03,3.678554894662672183e-03,6.012381819748551827e-03,2.884468622505664825e-02
4.985961125957728002e-01,4.562862214747759326e-01,4.535935095418211493e-01,8.955922182970006609e-04,-7.345985028051271130e-04,1.463654315228861674e-03,4.383786022663116455e-02
4.618910108856396635e-01,4.774752339984179028e-01,4.623321699179740452e-01,-5.446309115702214175e-03,2.949146330349258077e-03,2.338558516031715318e-03,1.917480863630771637e-02
4.616056035717106543e-01,4.818360769604254079e-01,4.603943000577717104e-01,-4.481601999991573909e-03,1.934201905473289422e-03,2.718024294100250104e-03,2.299750410020351410e-02
4.145956422754457638e-01,5.161810001238510415e-01,4.418940309947310130e-01,2.254221607121872917e-02,6.331206887097197422e-02,-9.401166602118593563e-03,1.486826241016387939e-01
5.324094196735313922e-01,5.362980817585899507e-01,3.846675238735838276e-01,3.124927181897694736e-02,6.995158718145819132e-02,-3.010076454968919901e-02,2.067479193210601807e-01
4.703116391019601106e-01,4.577137771111083886e-01,4.825175461820107037e-01,4.133722371783134925e-03,-4.200140313982429242e-03,3.730317361215271590e-03,2.464530244469642639e-02
5.271440631707360325e-01,4.835473080046819305e-01,4.136578320187027646e-01,5.888634781311247179e-02,7.574599456227082417e-02,-7.141024770745667272e-02,2.296641319990158081e-01
5.346169530450488594e-01,4.834912405543823621e-01,3.819880172718693734e-01,3.881939772207393391e-02,4.724009504557095951e-02,-4.992003040424732724e-02,1.918278187513351440e-01
4.938758415136376145e-01,3.962989682488068932e-01,4.683279898024274579e-01,-5.668372473003465035e-03,-1.156333073138903628e-02,-1.177972578606319327e-02,9.270851314067840576e-02
5.188682116467341343e-01,5.262350484437531284e-01,3.346354153249442853e-01,7.885922383007885894e-03,-1.109864359962417502e-02,-2.262757577614473402e-03,1.895380467176437378e-01
4.454540304884102575e-01,5.003748197298995004e-01,4.674606665803714978e-01,4.281374947256318098e-04,3.573311882218890411e-03,-1.219662539478695486e-03,4.832475259900093079e-02
4.876642590662010335e-01,5.160873921563045030e-01,4.291561713028920200e-01,6.040988404459130684e-02,7.988153937364241008e-02,-4.733163324712446468e-02,2.066546529531478882e-01
4.561785573484158918e-01,4.720868495461399972e-01,4.793835184572982078e-01,2.633652699619704832e-03,-7.096175290806957647e-05,8.364432085735054243e-03,2.555596455931663513e-02
5.103429654222961798e-01,4.001993868707314217e-01,4.742197880018151346e-01,9.375941099412490876e-03,1.224036915194967427e-02,-3.515927259623780055e-02,1.178112179040908813e-01
5.336081458894605944e-01,4.872767374030710363e-01,3.763769516434224416e-01,2.898280365913046344e-02,5.261213339297723252e-02,-4.562082791614179011e-02,1.914455592632293701e-01
5.244759256307867101e-01,3.674312648783281121e-01,5.150978806827652967e-01,4.434809137560548342e-02,5.093473546213662245e-02,-5.777571982846759630e-02,2.167385667562484741e-01
4.013017946142581893e-01,4.667941758275279684e-01,5.066692928178400113e-01,-9.100165276949286758e-03,-3.568161878781872173e-03,-6.863490422162028294e-03,9.443913400173187256e-02
4.326533586623479422e-01,4.976850509933091748e-01,4.877067442718645562e-01,-4.145684628397383782e-03,5.398837840995803460e-03,1.319909360504756789e-02,6.588954478502273560e-02
5.118601327829286340e-01,3.482288450999616591e-01,5.195302334207609896e-01,3.014442087654323893e-03,7.792165959401254824e-03,-5.579553437233563708e-03,1.684989780187606812e-01
4.603633844397031494e-01,4.819886476091746474e-01,4.638804278335196263e-01,2.363893994430108728e-03,1.384111099348374514e-03,-3.159952038576409588e-03,2.136426419019699097e-02
5.150117077749681860e-01,3.673882550159313087e-01,5.181412855824771846e-01,1.551744884464431248e-02,7.617546510560043241e-03,-1.635720755467734433e-02,1.548018306493759155e-01
3.712655079634274990e-01,5.087404252107267100e-01,5.127068037081187191e-01,-6.113250683483893375e-03,3.093592578441392918e-03,5.818168839002020067e-03,1.403664499521255493e-01
4.868980300777700498e-01,4.950309009253439085e-01,4.253375296441114228e-01,1.148241856935273801e-02,5.479991312445720367e-03,-5.690790701976146740e-03,7.028006017208099365e-02
4.533336616714036538e-01,4.522940788261832767e-01,5.025223152885592848e-01,1.389166972849310670e-02,9.058894274431041754e-03,-1.017945344033869019e-03,5.744540691375732422e-02
4.656101586233227230e-01,5.060233337585964275e-01,4.449651606487723399e-01,6.778748152302018892e-04,4.481570831484824394e-03,5.396137106901325832e-05,5.436369404196739197e-02
4.698089616488667630e-01,4.858879545212155260e-01,4.513082886939607796e-01,7.996398941555930492e-03,2.810725156353709089e-03,-1.054909102689569446e-03,3.342375531792640686e-02
4.566856763013262821e-01,4.552108396188966899e-01,4.874813131386630527e-01,4.932733580924644236e-03,-3.393977511001228589e-03,2.463968333519851468e-03,3.349225595593452454e-02
4.578684863997339316e-01,4.733712616649369820e-01,4.720407865397028280e-01,2.812133619594536348e-03,2.636602578244908596e-03,-3.095125043528595011e-03,1.716970652341842651e-02
5.235426247548269352e-01,3.691855014751294073e-01,5.055409614807409024e-01,1.596486617912995162e-02,1.614937479010303961e-02,-3.310600695582211622e-02,1.618843972682952881e-01
4.986944491994965145e-01,3.982688570907615411e-01,5.153274432751137057e-01,2.715126249747979933e-02,1.631822631594564282e-02,-1.167144971445089122e-02,1.243037804961204529e-01
4.794399096187353382e-01,4.664693343237824585e-01,4.536392157640205536e-01,7.811174025382098922e-03,2.313534170679911947e-03,-3.016936557202245291e-03,2.693822793662548065e-02
5.097366515641151841e-01,3.878139690034113629e-01,5.230058949692616421e-01,2.039162648549095250e-02,7.084712706178704876e-03,-6.200061751433567914e-03,1.348050087690353394e-01
4.795411942254645954e-01,4.592077247336970869e-01,4.598867848107096035e-01,2.765520856470322225e-04,2.708975235316509952e-03,-9.535984444849422877e-04,2.061738632619380951e-02
5.239584099136725959e-01,5.878864860254217062e-01,5.129227617859467570e-01,1.728935357729579347e-01,2.047323877126999980e-01,-6.527076255333778831e-02,4.828223884105682373e-01
3.811550853168069741e-01,4.814046512850417292e-01,5.120048898608685617e-01,4.329298522611163547e-02,-1.083548391033982428e-02,2.206095570799702921e-02,1.465917378664016724e-01
4.496494319397608130e-01,4.667752011546858482e-01,4.955072662869746125e-01,6.970897518439168536e-03,4.022057067929680867e-03,-3.950297208301443985e-03,4.303495958447456360e-02
2.643621315325318522e-01,5.174273675583100918e-01,4.968413597683555283e-01,1.098449621974161572e-01,-1.455757184231636359e-01,5.029025014834449109e-02,4.081888496875762939e-01
2.871754022848511112e-01,5.764063969182035008e-01,6.660878653837249974e-01,1.300169347438669687e-01,-2.756317213578787784e-03,1.220165751995444664e-01,4.615583717823028564e-01
4.679642412065458945e-01,4.685940013712744934e-01,4.680462811294149317e-01,1.247455813509649146e-03,1.094687563811196302e-03,4.213448937086430112e-07,2.935153199359774590e-03
3.240606498932699919e-01,4.931483522945380726e-01,5.517044468355215558e-01,1.473858824174420490e-01,2.247466508390408291e-02,2.666941591470154554e-02,3.327724337577819824e-01
4.236701643478946178e-01,4.818628661532879387e-01,4.950054301160657921e-01,6.948541047078603088e-03,2.498173230311968081e-03,-7.172861583016012198e-03,6.813103705644607544e-02
4.474599681069093560e-01,5.743472672416077840e-01,6.607313067066638013e-01,2.096216015803430421e-01,-3.867344893403256573e-02,1.076667768426991662e-01,4.534430205821990967e-01
4.236776530865602464e-01,5.322781718918141447e-01,5.579298576984377256e-01,8.007145233606170753e-02,1.432705379130069442e-02,2.759474592339470830e-02,1.933193802833557129e-01
3.397716930628062459e-01,5.372733207343231010e-01,5.408669218703491266e-01,4.411569927392557100e-02,-4.400403747106036018e-02,2.489208243875734930e-02,2.307293862104415894e-01
3.424461128534461163e-01,5.226076496774951785e-01,5.204097198871370233e-01,4.512989227764683392e-02,-4.100654827530436641e-02,4.323507970216227542e-02,2.209741473197937012e-01
4.530309212656681295e-01,4.716171963581688442e-01,4.813538059414907977e-01,9.995010996896593839e-04,-3.959801089247266467e-04,9.190087438489287844e-03,2.963205985724925995e-02
4.271431613850911191e-01,5.131013170996947537e-01,4.616132934984505942e-01,-2.275556233827864165e-04,1.282171721673740564e-02,3.648605547908289563e-03,7.840463519096374512e-02
4.083916702342279548e-01,4.468558242145727610e-01,4.758448273957527896e-01,-3.324416290959150005e-02,-2.988599394425709571e-02,-2.378631422864743022e-02,1.054860129952430725e-01
3.801715974344830884e-01,5.031956285055119160e-01,4.955168923344388521e-01,-2.429095311338496863e-02,3.321672322460175741e-02,1.312320453828052895e-02,1.408760696649551392e-01
4.373354769349089288e-01,5.054742616231191477e-01,4.710053862074286002e-01,-1.453345335496641086e-03,2.266924940152817425e-02,3.343347234859097433e-03,7.116097956895828247e-02
4.269576823654529507e-01,5.537058210199170549e-01,4.953218683590018823e-01,-1.296692247531907975e-02,8.267372958713621600e-02,3.565303429365254684e-02,1.920843422412872314e-01
4.518038875592416126e-01,4.337795162710686991e-01,4.911682701684485508e-01,-1.228527036501587955e-02,1.175133020287833126e-02,6.210573473137728263e-03,5.972209945321083069e-02
4.492940306126188554e-01,5.178744068098670716e-01,4.580234178203823059e-01,9.986273423213598219e-03,3.295257409082320149e-02,-9.121238332837580676e-03,8.937107771635055542e-02
4.718599584234075550e-01,4.508741749564482149e-01,4.821360675442236121e-01,8.364754183993157802e-03,-7.096317247638933220e-03,4.554527796012818215e-03,3.442187234759330750e-02
4.358238998316128487e-01,5.034404074614137192e-01,4.710110832723854446e-01,-5.921119653324322454e-03,2.297363182600288545e-02,6.010291841419716091e-03,7.230358570814132690e-02
3.924146595858121200e-01,5.033966500637666597e-01,4.961440820822879405e-01,-4.148172758522370232e-03,1.816070957416601739e-02,1.326105659965504807e-02,1.146007031202316284e-01
4.931353317521324220e-01,4.519377780016455293e-01,4.549410962602253305e-01,-8.793574556548305887e-03,9.097841258331627531e-03,1.450139835276710067e-02,5.190080776810646057e-02
4.893441494777122092e-01,4.362743297516430419e-01,4.682332604885828808e-01,-8.046248122576045436e-03,1.082587661069317649e-02,9.722281278110532152e-03,5.450795963406562805e-02
4.927803722941743736e-01,4.499113341711850622e-01,4.710359864127055540e-01,-4.480671327033839985e-04,8.478382890454976700e-03,2.497775138718425023e-03,4.016689956188201904e-02
4.935774575646297846e-01,4.525695680154663281e-01,4.681617007270548747e-01,-7.427064976531365685e-04,1.157346483724508261e-02,1.123249874058369381e-02,4.546821117401123047e-02
4.285407180559727691e-01,4.762765804657686508e-01,5.086338016246597649e-01,-5.325037279213862447e-03,1.077508736202853479e-03,1.391959242118640146e-02,7.443197071552276611e-02
4.918350413908013641e-01,4.661476644921542789e-01,4.616271826670564349e-01,3.754176036812789663e-02,-2.324005462582871134e-02,2.056863296916935577e-02,8.896096050739288330e-02
4.944475694993571424e-01,4.171770940524162641e-01,4.827760858411547229e-01,-8.895555828150917069e-03,1.281190072472512993e-02,8.860446783617331734e-03,7.855214178562164307e-02
5.022696493970195686e-01,4.331825397455531523e-01,5.208935504944085526e-01,-2.392386425941128714e-02,3.781045503402944569e-02,7.540986197779192546e-02,1.716753840446472168e-01
4.819062967937736697e-01,4.126790308067175284e-01,4.928049467820942997e-01,-1.042781397463562673e-02,1.566671588902758538e-02,9.630657974143535735e-03,8.370473980903625488e-02
5.066007008058261984e-01,5.065069321505404343e-01,3.949584632622000768e-01,2.036892539423744604e-03,6.822319449916016201e-03,6.489875377266765555e-03,1.128360033035278320e-01
4.390162779736934695e-01,4.917676471737162935e-01,4.689778021587807655e-01,-1.914154940447521797e-02,3.546845854665724856e-02,3.176289880241943420e-02,9.999882429838180542e-02
4.647225936980090566e-01,4.733878588500769480e-01,4.545227308157185897e-01,7.889512257325519834e-03,-3.006657064432572378e-03,3.347654958563415096e-03,2.269321680068969727e-02
5.002553710005398502e-01,3.599805056499453815e-01,5.033675432272888273e-01,-1.341625758147154367e-02,-1.203747379968782977e-02,-1.224231476812170059e-02,1.467909961938858032e-01
4.872680272999566631e-01,4.726227552173191682e-01,4.355162106442154180e-01,1.331109277062749591e-02,-6.654867955653586721e-03,8.803132491583232425e-03,5.506103858351707458e-02
4.791060993445675487e-01,4.639482649315802010e-01,4.630989076930528969e-01,4.785946563716707985e-03,-3.932005673466180962e-03,3.880258807752502183e-03,2.009036764502525330e-02
4.544117745761279137e-01,4.589049597076384490e-01,5.005545492344117831e-01,1.262325208562585857e-02,-3.534811197022859081e-03,6.308901129298592238e-03,5.076364055275917053e-02
4.480646898902652664e-01,4.595119789460195281e-01,4.966280905745955598e-01,6.753291339543258769e-03,-1.990185617455726523e-03,4.733140939650191253e-03,4.636201262474060059e-02
4.461332709666622209e-01,4.597575975350735034e-01,5.002678921186765049e-01,6.691422104519230765e-03,-1.360824416643867038e-03,3.932450282394184954e-03,5.064489319920539856e-02
4.148511765163207521e-01,5.097189354506370673e-01,4.859357377103974418e-01,-1.926962641721018717e-03,7.488878857192732622e-03,8.646867923941897738e-03,8.782350271940231323e-02
3.868684142968198403e-01,4.965625906403800527e-01,5.123008385579732593e-01,-1.056376481921408005e-02,4.119288797804774964e-03,1.330294552054607157e-02,1.221617311239242554e-01
4.526625795061659518e-01,4.570357271583846970e-01,5.023102575290249172e-01,1.506984311245767282e-03,1.318967455378675189e-03,9.163995438351790713e-04,4.776453971862792969e-02
4.159543286013089314e-01,5.188095130823895396e-01,4.801897511826426768e-01,2.294257191104177862e-02,6.454167185179308930e-02,-1.968788446628484332e-02,1.527653038501739502e-01
4.661772587656596301e-01,4.674357676861827238e-01,4.759431252693851477e-01,4.408130469552430479e-03,-3.068230702380889477e-03,6.152093416809046450e-03,1.687445677816867828e-02
4.690381364409429432e-01,4.674527410393419791e-01,4.665553012913870035e-01,-1.557619106495252648e-05,-1.368740075526234806e-03,6.390985218177132245e-04,3.404128365218639374e-03
4.677202624274374720e-01,4.682293052093504659e-01,4.665317360323794627e-01,2.799224694017473852e-05,-4.981725356445620848e-04,-7.477554930973263024e-05,1.743669388815760612e-03
4.251455159249226678e-01,5.069425655059305313e-01,4.838571002674500465e-01,3.017581562190784460e-03,8.545124854175476306e-03,-7.942145404548457081e-04,7.472375780344009399e-02
4.655703548029372363e-01,5.055833814813199822e-01,3.947487307690499270e-01,-9.444227714781995228e-03,-1.023553452540949989e-02,-3.715277660175410335e-03,1.003684252500534058e-01
3.375841242847391066e-01,5.185612202217143585e-01,5.236258081530065223e-01,-7.633806136554620835e-03,-3.139211563453230946e-03,4.939590219413720479e-03,1.843163669109344482e-01
4.656452562409250095e-01,4.683264887522873288e-01,4.674472510308590456e-01,4.269459640106605496e-04,-7.815624542311857008e-05,1.576242123977394808e-03,3.690991317853331566e-03
4.496900399077449206e-01,4.672012299651648881e-01,4.919619452301420282e-01,2.602629270086539905e-03,-1.568301084942072066e-03,6.854726378245192334e-03,3.901263698935508728e-02
4.667539287344783516e-01,4.694069588334519039e-01,4.677581552769105033e-01,5.449407959515173124e-04,-4.957364656079099596e-04,-8.337079390896113018e-08,2.647818299010396004e-03
4.671534708212663478e-01,5.053732979560274785e-01,4.272100867442178984e-01,-9.951635422118605603e-04,1.603995157387008708e-02,1.202934011804403713e-03,7.322575151920318604e-02
4.658891397595990025e-01,4.696624441755445356e-01,4.645348997452287132e-01,1.318972587857502330e-03,-4.293906366304105324e-04,1.202265464200555486e-03,5.593771114945411682e-03
5.322234130053242751e-01,5.783169270976645793e-01,3.460019827690299365e-01,2.059072721511551532e-02,-6.360332768378522406e-02,2.539057920779361557e-02,2.464320659637451172e-01
5.197506977757618829e-01,5.271436580184357679e-01,3.115493880185972175e-01,8.464779881698285963e-03,-3.286565540681863490e-02,1.891121085721369013e-02,2.224184721708297729e-01
6.710797763563079998e-01,7.016904564900536823e-01,2.278157986683139180e-01,7.779412085707097801e-02,-9.948902097732745253e-02,3.478505112161620755e-02,5.123168230056762695e-01
4.470673289586413190e-01,5.844295828373445856e-01,2.592222745956953012e-01,2.188963322867856429e-02,-1.665755282298426732e-01,2.381707765591789018e-03,4.057753980159759521e-01
5.780157208789936663e-01,5.934330111631469507e-01,2.647186121402240744e-01,5.589129410618785126e-02,-1.533676456291697410e-01,2.188225892687350928e-03,4.279880225658416748e-01
5.384368354557538261e-01,5.614939240348811866e-01,2.558265622953955765e-01,8.364811234718905544e-03,-7.880454640339272510e-02,-4.869752604752850683e-02,3.359629213809967041e-01
5.263686585864357781e-01,5.231828864309746585e-01,2.516143966280238731e-01,-1.318383614769061928e-02,-6.969419178778218926e-02,-3.232458426611546642e-02,3.047173619270324707e-01
5.006375093147747979e-01,3.235633229430064928e-01,4.956361431565377562e-01,-1.779787326537039249e-01,-1.045725657735120384e-01,-1.102132253429027736e-01,4.413287639617919922e-01
5.207066503577645333e-01,5.819747266408421549e-01,3.150299987761498999e-01,2.323127251921585854e-02,-3.934840862802401612e-02,6.532771931551207417e-03,2.550491690635681152e-01
4.934584320685178604e-01,4.667993545627136531e-01,4.491006663034700086e-01,1.355289196480452193e-02,1.261141836324029993e-02,-1.562296618490069920e-02,5.706310644745826721e-02
5.241530504056970408e-01,5.209671928695793763e-01,3.018557654340490171e-01,-5.664164609236902598e-02,-1.202192526562271130e-01,-1.904489589668240113e-01,4.588172733783721924e-01
5.053441315649230825e-01,3.580694024658050423e-01,5.074034291328256563e-01,-3.775988541830713890e-02,-7.398024040405868328e-03,-3.331865140032121142e-02,1.725380718708038330e-01
4.998893452218394762e-01,4.986543264075725679e-01,3.348804840287833429e-01,-6.731744527512435738e-02,-9.833855413700569315e-02,-1.070427626096463469e-01,3.225003182888031006e-01
5.595541515239662589e-01,3.974507863834626509e-01,4.598778953668210545e-01,-4.354638617686105995e-02,-2.754010694809291143e-02,-1.109386579237450349e-01,2.548360228538513184e-01
5.308240371541999014e-01,4.058837378323778555e-01,4.775126069130491979e-01,1.734940279345656769e-02,2.017147778378076267e-02,-5.144937338236434815e-02,1.478385180234909058e-01
5.527391791502863638e-01,4.500138187302266668e-01,3.312613865893656029e-01,-4.634095730877171686e-03,-2.043630717774182204e-02,-8.548272249378378873e-02,2.451382577419281006e-01
4.989524052855572878e-01,3.733083017775898904e-01,3.572451721354282794e-01,-1.245336947203819489e-01,-1.080930852409388854e-01,-1.855113197724884977e-01,4.504268169403076172e-01
4.554541094808213786e-01,4.967706373930974029e-01,4.478965847832439562e-01,4.954778889811238540e-03,8.891433330968312454e-03,-1.628695387119198288e-04,4.886025190353393555e-02
4.533261476397467127e-01,5.009397951207090749e-01,4.577768493775298819e-01,2.290300158595142712e-04,1.770452010144812124e-03,-8.304877712717861622e-06,4.565649107098579407e-02
4.565620801369709714e-01,5.056251110945997329e-01,4.606702476708082750e-01,2.913586269647402190e-03,1.226964887348028221e-02,1.606367547789618500e-04,5.195840820670127869e-02
4.860468671153514442e-01,4.554442593286306407e-01,4.599968025348128986e-01,1.529718452507976192e-03,4.960707910253058656e-03,1.287032698638978720e-03,3.006228432059288025e-02
4.954520953783661530e-01,4.395486376154135733e-01,4.334642529604469940e-01,-4.101504511062779509e-03,-8.832303185986748253e-04,-2.293633376553749770e-03,5.975737795233726501e-02
4.440407727482845734e-01,4.523599354192159305e-01,4.977576275660380301e-01,-1.154160406697325768e-03,1.353719023047860901e-03,4.412031609452096714e-03,5.075156688690185547e-02
4.722938085599061586e-01,4.666018160527177772e-01,4.671821126021993842e-01,-7.390732391169560836e-04,1.999084714574464201e-03,1.682316541116266918e-03,7.179885171353816986e-03
4.486948894671261012e-01,5.002642460081866416e-01,4.605520591789530882e-01,2.369342155211359095e-04,5.895365047989124460e-03,6.164078543149625455e-04,4.789675027132034302e-02
4.632701184977909836e-01,4.640968693098020403e-01,4.782835758379507807e-01,9.101861514850417443e-04,-2.190751404546583628e-03,1.219171272189806948e-03,1.533028576523065567e-02
4.629284294074180184e-01,4.673849414584337336e-01,4.685813180565944203e-01,3.669178287635663054e-03,-2.683432867282798447e-03,4.513976662988698069e-03,1.223693136125802994e-02
5.188014449016621343e-01,3.767835975831702044e-01,5.099595811095041231e-01,-4.011473722345145279e-03,7.130303374182129020e-03,5.876642104140968915e-03,1.389098614454269409e-01
4.681676712667289242e-01,4.678668227289537462e-01,4.685915071311058666e-01,5.081406028819591796e-03,-1.625139034654795147e-03,5.070981043691751185e-03,1.276430580765008926e-02
4.596924687997324122e-01,4.675188149258779347e-01,4.719312482604455239e-01,3.523784405996683178e-03,-2.249383713436608166e-03,5.207390303721420519e-03,1.578086055815219879e-02
4.254279565215651204e-01,4.489187177941641460e-01,5.043643342689949627e-01,-4.439619736175215090e-03,2.403260688920487659e-04,-3.384629391833386702e-04,7.062676548957824707e-02
4.575343463463357740e-01,4.571418482704683317e-01,5.068805813250047976e-01,1.074894942886476731e-02,5.483535822463699895e-03,-1.375549565648588623e-04,5.377227067947387695e-02
4.277933000707549449e-01,4.704333318421644594e-01,4.995129305168128919e-01,-3.338592044411278510e-03,4.375635912897263106e-03,7.009417093585153073e-03,6.435855478048324585e-02
4.302236462731452438e-01,4.259683914976080676e-01,5.075160603622093092e-01,-2.192136506638658888e-02,2.055090415025404103e-03,1.656642278240635230e-03,8.822508901357650757e-02
4.476264255656554614e-01,4.548431802521626377e-01,5.020303486826266370e-01,7.039395867006756694e-03,1.103765091415728544e-03,1.335648660566059577e-03,5.269644036889076233e-02
4.485772880708750465e-01,4.552742918878059375e-01,5.007853700647380002e-01,7.673303093061595130e-03,6.267205000204904971e-04,1.131578961344448112e-03,5.101523920893669128e-02
4.558942800160650788e-01,4.572942110637166491e-01,4.972610993308774763e-01,1.683899001757696839e-03,1.711256544327758406e-03,-9.423213966403477153e-04,4.092943295836448669e-02
4.400915348540195837e-01,4.743946395502068869e-01,4.529731375916022929e-01,-2.403898620139778303e-03,-3.239329207809828366e-03,-1.065715074298653232e-02,3.592075034976005554e-02
5.065296549853947061e-01,4.564856438058003674e-01,4.603106138051667462e-01,2.247382496472873255e-03,4.485975325110573564e-03,1.182076789008674328e-02,5.312562733888626099e-02
5.022701053152985873e-01,4.563394054939088340e-01,4.586367334261757800e-01,-1.790916141518311265e-04,6.890812734086611442e-03,1.310101205639020543e-02,5.164150148630142212e-02
5.401987017128473401e-01,5.989801118370453592e-01,5.559252334277704488e-01,1.970393390747618989e-01,-7.674819714251396308e-02,1.886917888537273102e-01,4.936965405941009521e-01
4.442747959972966898e-01,4.441539623391518865e-01,4.778582542998543459e-01,8.262956686231626054e-08,-1.953527016457820391e-03,-1.543588269833192500e-03,3.391928598284721375e-02
4.980261371579760010e-01,4.585857239875361646e-01,4.605901620375720817e-01,-2.546287006981053699e-03,5.731555555412741129e-03,9.642926567765493923e-03,4.332977160811424255e-02
4.056051200622258768e-01,5.074842106252505092e-01,4.700111491392569563e-01,1.299324855126292658e-02,-5.458503459350104448e-02,2.794137050477094389e-02,1.405456215143203735e-01
5.046764830278187564e-01,3.654609854555217474e-01,5.195487968721073102e-01,-1.462367907238510366e-02,1.467939379214430219e-02,9.993472787083150163e-03,1.525129973888397217e-01
4.391598446524788146e-01,4.327753269277566650e-01,4.899546253589519007e-01,-5.948106833207311185e-03,-6.610849778045692349e-03,-4.128959144501714168e-03,5.686445906758308411e-02
5.004130045455882358e-01,4.558247771423978301e-01,4.484211344959553314e-01,4.900620126573604959e-04,1.082642674507507769e-03,8.395854601121372635e-03,5.087973177433013916e-02
4.940403251129728002e-01,4.465751301359656700e-01,4.471611460032139940e-01,-7.052337982928210715e-03,1.225356943982113499e-02,2.126587387226891446e-02,6.466715782880783081e-02
5.155276553250480731e-01,4.838698877763535355e-01,4.135116825383194916e-01,4.593845929014944013e-03,9.297069920762398437e-03,7.776827927670653014e-03,9.318760037422180176e-02
3.727547301335215613e-01,5.231331965675174445e-01,5.131545510246346975e-01,4.615802760239964202e-04,5.566840867974913280e-03,7.512319251817268367e-03,1.465455442667007446e-01
5.144913758497859924e-01,4.861492458251767679e-01,3.978575710831983026e-01,2.300016086497378483e-03,2.360512647957137538e-03,2.154578574938367450e-02,1.119210422039031982e-01
3.580058149827188840e-01,5.365211147263033720e-01,5.794928384143812616e-01,6.423327402156896182e-02,6.454500074895920363e-03,2.466913269794926075e-02,2.360377311706542969e-01
5.005296198020428022e-01,3.758002269322729960e-01,5.309892418602908393e-01,-1.717821515924670139e-01,-1.130168013937859206e-01,-1.713202304964956957e-01,4.849556684494018555e-01
5.055379659381005197e-01,4.636251335343943847e-01,4.313845277794376987e-01,-8.213846849508763264e-05,2.228325162868006592e-03,1.281282325047005365e-02,6.822653114795684814e-02
5.067842575692599327e-01,4.634171933189743520e-01,4.296804510468831273e-01,1.400273085788653581e-03,2.783352926515639605e-03,1.156066028211111783e-02,7.008568942546844482e-02
5.045728081935282328e-01,4.717380105251344768e-01,4.626638876175063197e-01,-3.368015880050295036e-02,3.008221133919498566e-02,6.718703053405286618e-02,1.453223228454589844e-01
5.075118635821515012e-01,4.659468536202225342e-01,4.422451241069731420e-01,3.118771380398130313e-03,1.061649355255529434e-03,3.737927477574030499e-03,5.787108466029167175e-02
4.034150117509073263e-01,4.965565431994505841e-01,5.143426930229920702e-01,2.330521578784982770e-02,2.393122334495315692e-03,1.977009576347385240e-03,1.109352409839630127e-01
5.298256691608315139e-01,5.186504860248020155e-01,3.743242490883759155e-01,3.047173892599075191e-03,1.686464864553917017e-02,1.664593278457652398e-02,1.558210104703903198e-01
6.028426143354511657e-01,2.723393861038906349e-01,4.106233878940159232e-01,7.525558794021830825e-03,1.412526190492086400e-02,-1.940487013915397352e-01,4.431531429290771484e-01
4.685753924425625772e-01,4.460699449190266286e-01,4.927693279568812756e-01,2.376203721353639924e-03,6.715467730648617267e-03,-2.115223490162278230e-03,4.244986549019813538e-02
4.755539520410629328e-01,4.460688021378697021e-01,4.641601357118558258e-01,5.880066692135450281e-03,9.403392210059070833e-03,-6.590269450534130997e-03,3.409599140286445618e-02
5.351117033043431004e-01,2.599326457281616598e-01,3.950107168170119976e-01,-9.948428513853191379e-02,-5.057189878460644633e-02,-2.015941379914303333e-01,4.648477733135223389e-01
5.287433698702641571e-01,4.812781820067041916e-01,4.194620508302136508e-01,2.129548569272333644e-02,2.205730894052106844e-02,-3.390814363568398632e-02,1.236027777194976807e-01
4.825971892243504091e-01,4.300066659505945577e-01,5.054329365136764896e-01,5.821640562378557759e-02,5.764361247412221750e-02,-1.895755690444985569e-02,1.603189110755920410e-01
4.482982885230982206e-01,4.543622752344687599e-01,4.858691531085221893e-01,-5.423186553542892925e-03,1.406165374357295833e-03,5.285186282826388054e-03,3.739621490240097046e-02
4.586073688562822825e-01,4.595862417177107861e-01,4.917055336902007578e-01,2.050295018561430326e-03,2.396357913693298973e-03,-1.618851239506025616e-04,3.307514265179634094e-02
6.097588893145330369e-01,4.586494514440743742e-01,3.310624206724616103e-01,3.026993397887428605e-02,3.451657827413489449e-02,-8.383759557618671032e-02,2.929186522960662842e-01
4.443405474746330852e-01,4.678778775133050072e-01,5.005111316226987794e-01,4.755308337398225435e-03,-2.107058265933911805e-03,2.211146736321582904e-03,4.982830956578254700e-02
5.260964262373452049e-01,4.659155975297809005e-01,4.380047299950996509e-01,-3.228263097756814415e-02,5.756219884643828250e-02,4.809253890545212712e-02,1.615111380815505981e-01
6.054200366440444236e-01,5.489663958099495478e-01,3.459490091349249896e-01,2.815479805344262357e-02,3.007140057112003828e-02,-5.561780742997653182e-02,2.650190889835357666e-01
5.186030359865853034e-01,4.789891362854456491e-01,3.515768862671188599e-01,-1.454768609745656777e-02,-2.141295374293897616e-02,-6.926948610502865755e-02,1.981304436922073364e-01
5.573722398863460992e-01,4.574922057235160100e-01,3.331111993992016962e-01,2.630016388421411999e-02,2.707230447131711223e-02,-8.394441921454495747e-02,2.515624165534973145e-01
4.175950449567599754e-01,5.003614759356191932e-01,4.840838758027450339e-01,7.744384735788413694e-03,1.892340217300933145e-02,-5.137440457098401726e-03,8.426977694034576416e-02
4.248554016723981031e-01,4.770063048278058715e-01,4.922817551244622059e-01,4.580548467449940125e-02,2.396958168485508259e-02,-2.509923769324011109e-02,1.168659478425979614e-01
4.178832146534128822e-01,4.812813200674767034e-01,4.945241806007852903e-01,1.883525377694874464e-02,1.140438838789304722e-02,-1.703084396408518358e-02,8.578400313854217529e-02
4.470543971181708542e-01,4.853752861255682949e-01,4.877595486247817691e-01,1.565472815373904897e-02,9.959973487894806590e-03,1.419437355504997141e-03,5.103333666920661926e-02
4.848475105460739454e-01,5.103453738726050348e-01,4.323792780182083573e-01,1.441630169698263249e-02,1.965839919117756684e-02,-5.918037065032974789e-03,8.141744881868362427e-02
4.924151473346474184e-01,3.925996951515233757e-01,4.809663389629933450e-01,5.310996245440857688e-02,3.334075239516433309e-02,-4.024424916222482662e-02,1.600220352411270142e-01
3.984775974678922417e-01,5.036328887813226185e-01,4.976123224657522659e-01,2.862124112361078086e-03,2.327681072858473615e-02,-1.046489651599093423e-04,1.100491955876350403e-01
6.067288354501441106e-01,4.967702002185612753e-01,1.774388472340089340e-01,5.928584157246292140e-03,-1.779459169478132818e-02,-1.388049412555552586e-01,4.561057686805725098e-01
4.011576448599444844e-01,4.698453178141103748e-01,5.170039954112718439e-01,-9.003410234262165107e-03,4.648093938631985131e-04,3.791989009521709759e-03,1.023138687014579773e-01
4.953941560688321921e-01,3.994181986847508137e-01,5.087128189704143155e-01,-8.224892981182943194e-03,1.035407167726448176e-02,4.147962431032946144e-03,1.060340777039527893e-01
4.520841096037789830e-01,5.029984193656277247e-01,4.807806135183831930e-01,2.912064606813985490e-02,3.553469509261043824e-02,-8.210360511817374821e-03,9.213633090257644653e-02
4.569494840501572286e-01,5.007440661275083249e-01,4.488769229333416932e-01,1.033108230099633604e-04,7.285111653438982107e-03,6.884533921064151570e-04,4.997337982058525085e-02
4.575685448296730740e-01,5.008088397775095624e-01,4.565364836330053633e-01,-1.333688812911075884e-03,1.381654655488660961e-02,5.283813776429150191e-03,5.076611042022705078e-02
4.587931214800104462e-01,4.974811528038460273e-01,4.571444575255360632e-01,-3.456032046585818911e-03,1.239245757554722875e-02,5.132139498499155121e-03,4.624752327799797058e-02
4.569527640217730946e-01,4.997472593106592753e-01,4.485859406593797338e-01,-6.906758052060556641e-04,7.689870999017287857e-03,1.161099907393549260e-03,4.941967502236366272e-02
4.715330199372793074e-01,4.687461019939058726e-01,4.661348926313826357e-01,-3.197172227781613311e-03,2.124847722937199274e-03,2.850469217626076888e-03,9.510454721748828888e-03
4.346502466231959017e-01,4.394385519912545890e-01,5.029053935581053736e-01,-2.220395952915197712e-03,-1.183645135334435595e-03,-9.181434803984055799e-04,6.615427881479263306e-02
4.687623658705559748e-01,3.900940611169319006e-01,5.118020052322994617e-01,-1.339120467189705219e-02,5.772885389528643017e-03,-3.247702727279826087e-03,1.099843755364418030e-01
1.773390955161022742e-01,5.309057177050597875e-01,5.774063981605078721e-01,-1.180498339770273131e-01,-5.445881159692015500e-02,8.531186173306693279e-03,4.410620033740997314e-01
4.641230755328562552e-01,4.455832255916159501e-01,4.171516659590382425e-01,-2.813162726708690747e-02,-2.375641309027080525e-02,-3.129350731896594212e-02,9.318966418504714966e-02
4.475820553379834532e-01,4.487211101493207011e-01,5.051592829875694024e-01,-8.469410885491777258e-03,5.315109247233319040e-03,6.709988477529478697e-03,6.071133911609649658e-02
4.007012242138870417e-01,4.683940736671808325e-01,5.096230217582173871e-01,-9.279917298146507856e-03,-1.145410876134230187e-03,-3.349390054854596609e-04,9.662130475044250488e-02
4.408247336764580249e-01,4.431216579189516946e-01,5.031522855189376475e-01,-1.116713438228249776e-03,1.935687052149329297e-03,2.972042875120070853e-03,6.154932081699371338e-02
4.522163560168532825e-01,4.504518696141016632e-01,4.925618626202195593e-01,-1.446229264751297539e-03,3.384892264434982180e-03,2.120669239424213034e-03,4.190705716609954834e-02
4.464095305984118744e-01,4.403107206208470847e-01,4.976298609292714725e-01,-7.360376427760268250e-03,3.340854134187691213e-03,8.077629203413069173e-04,5.631223320960998535e-02
4.961408607964219453e-01,4.500422009730583039e-01,4.457203416308046506e-01,5.724681381570022667e-03,3.449452076336140954e-03,-3.850772032786357966e-03,5.021448433399200439e-02
5.045260877288297863e-01,4.486035341515689501e-01,4.475613495160383759e-01,5.581718622115454040e-03,6.128312772141803963e-03,-6.417743924052797880e-03,5.929921939969062805e-02
5.198894826359474752e-01,3.445100813157958575e-01,5.274871292270176815e-01,-7.090104603796089366e-03,5.674216021229565136e-03,-1.163889333370101255e-03,1.799988746643066406e-01
4.975160034677036935e-01,4.482424400553370325e-01,4.406606321465900145e-01,4.422679593397077676e-03,9.011104616373897700e-04,-6.584361385573194413e-03,5.522796511650085449e-02
4.531654597576963428e-01,4.670758963785070494e-01,4.842960237770381760e-01,-3.336515890617694578e-03,3.025248356861338136e-03,7.693916359353708545e-03,3.111293911933898926e-02
3.260718334532453633e-01,5.221248539307513648e-01,5.205242816935007344e-01,2.702961888197344051e-02,-1.207997010381672148e-02,1.053501379573046001e-02,2.027019709348678589e-01
4.119824341354343389e-01,5.179819473615183689e-01,4.083745807582446763e-01,-1.827504143812004045e-01,-2.036226526705554596e-01,-1.749108238574356711e-01,5.727062225341796875e-01
4.907165266659642144e-01,4.531327730091476158e-01,4.478501009667444355e-01,3.525102267511327336e-03,1.863862959087801349e-03,-1.971126047650090599e-03,4.121097922325134277e-02
1.904806158106283898e-01,5.651427493208156516e-01,4.921650092105325780e-01,-5.563940789713554824e-02,-1.523263654544075307e-01,-1.632255597286832657e-02,4.450302720069885254e-01
5.022562939469914500e-01,5.961336868987241466e-01,5.645693418456354529e-01,1.912685726433883682e-01,-7.560170222850200183e-02,1.918196706833747156e-01,4.940934181213378906e-01
5.297920356795728924e-01,5.199565248601567546e-01,3.608830816249800622e-01,1.261102792467250037e-02,5.565125155698579656e-03,-1.272983575518888549e-02,1.673972457647323608e-01
5.050276889261404722e-01,5.296238445859324795e-01,3.965561169673685882e-01,9.110604808616102473e-03,1.994420653796238202e-02,5.208190631986918222e-03,1.286962926387786865e-01
5.101086910053100887e-01,5.283194003950559825e-01,3.700976587363301040e-01,8.337676177670274788e-03,5.452205978973955619e-03,1.624900578820499429e-03,1.509637981653213501e-01
5.350750709066215416e-01,5.259483194078520274e-01,3.416722786789528898e-01,1.415962899847217175e-02,2.965507805179889295e-02,-1.177614993729697059e-02,1.984403878450393677e-01
5.146348890726881731e-01,5.054405383809896790e-01,3.428716190900070737e-01,1.452216428203100505e-02,1.776378921320531656e-02,-4.099740890295120593e-02,1.860903054475784302e-01
5.272928670658084682e-01,5.285082085427457166e-01,3.513962625384624561e-01,1.532564750645367367e-02,1.658189478405168449e-02,-1.424314325201037632e-03,1.808050274848937988e-01
2.352938232892923531e-01,5.568163563202382926e-01,5.372977556761061591e-01,-2.011129965830751529e-02,9.663802039263393040e-02,3.018101727667926032e-02,3.597844243049621582e-01
4.679453387519338925e-01,5.124274587058023078e-01,3.922056418237426234e-01,-4.313647238834263445e-03,-1.038648756711392160e-02,-6.635776737280801862e-03,1.076837182044982910e-01
4.857181648683764896e-01,5.122250742289755632e-01,3.848310806181659549e-01,-1.468587451324056443e-02,-4.490836764501748846e-02,-2.307754445251441675e-02,1.478176414966583252e-01
3.766976100959503193e-01,5.127122531792901450e-01,5.189236351876337361e-01,1.297320274130453997e-02,1.764402251408587726e-03,1.268720114018883835e-02,1.427604705095291138e-01
3.599651058183175323e-01,5.259307882750496876e-01,4.182462486391650969e-01,7.904991090483072524e-02,-1.642729950140956185e-01,6.601450601693482911e-02,3.661227822303771973e-01
4.508185071452804893e-01,5.124194126807578575e-01,4.022372016990214405e-01,-5.403367692747628424e-03,-1.520689699479367551e-02,-5.462138622186514178e-03,1.000915095210075378e-01
4.486484115412113782e-01,4.998111112274032375e-01,4.098925685463905566e-01,-9.856289328505124861e-03,-1.258730834402723917e-02,-4.229491135820291799e-03,8.320406824350357056e-02
4.674966046584808077e-01,4.507540819335122961e-01,4.934781777774526201e-01,4.562115440212662597e-03,-3.727935568263051128e-03,2.384419141285359315e-03,3.887851536273956299e-02
4.443760293391449401e-01,5.114059443344129985e-01,4.242115471846965025e-01,-1.282429086875546374e-02,-5.499172935521440958e-02,-1.069800886353105239e-02,1.271229386329650879e-01
4.745519638076583502e-01,4.952785790259169874e-01,3.864452812672392046e-01,-1.558820163393890255e-02,-1.921506396151702670e-02,-1.544959271667551565e-02,1.121215224266052246e-01
4.710056998065960121e-01,4.652287770642744569e-01,4.665933694835120438e-01,1.454198644512466262e-04,1.661502030472609926e-03,-1.084685410978514187e-03,6.263117305934429169e-03
4.694467471409003445e-01,4.659568861803091711e-01,4.632663763443658489e-01,2.927993629428912465e-03,2.053197525784651156e-03,-1.841746701392649914e-03,8.794877678155899048e-03
4.708012184513265530e-01,4.667465735061207543e-01,4.645905219333542058e-01,1.097021530715032141e-03,6.412764149191708301e-04,-7.026666314853635773e-04,6.012987811118364334e-03
4.249855885336130679e-01,4.868533250915375032e-01,5.149662217551659316e-01,7.111289477584933211e-03,-1.921437050949582296e-04,6.666237760076238264e-03,8.150074630975723267e-02
4.799793483460307320e-01,4.614840591675754000e-01,4.582040931874080125e-01,2.460531994313736124e-03,9.232633853260354155e-04,-1.007314063274150065e-03,2.091080509126186371e-02
4.430268974612464050e-01,4.404367497428353095e-01,5.023933442606811628e-01,-2.126595486463058859e-03,-1.559929651934282809e-04,-1.430878607437818806e-04,6.081573292613029480e-02
4.360206699897248295e-01,4.572905944545169188e-01,4.978196328658240910e-01,5.969863953907340219e-04,4.157504498166560321e-03,6.610100819067101299e-03,5.604521557688713074e-02
4.519362756214468368e-01,4.287071076664088487e-01,5.204870600834147210e-01,-2.804924778637770538e-02,-9.483604481168456937e-04,-1.025928461630661167e-03,9.590265154838562012e-02
3.626885032587640056e-01,5.676241807005497630e-01,4.355542988186369424e-01,-2.899057294358558037e-02,1.306654303298644682e-01,6.785501654584319420e-02,3.161168992519378662e-01
4.554250132071847590e-01,4.480036817433368235e-01,5.016070688704397096e-01,7.096868661701278072e-03,8.413581975193767807e-04,9.221988922456107783e-04,5.183013156056404114e-02
4.315491436649736001e-01,4.533817559336048020e-01,4.910075438380366863e-01,-3.145246757610815642e-03,-2.775866354802792712e-03,-7.787152249682640325e-03,5.430050939321517944e-02
3.019440042141239289e-01,5.123937129892832676e-01,5.322456741579312256e-01,-3.769193853930786348e-02,6.603805244880522028e-03,9.230677882709427753e-03,2.313212305307388306e-01
4.407130285158509797e-01,4.948325235935018829e-01,4.301737358100935493e-01,-5.256455332583094033e-03,-6.101768557572565845e-03,-3.546881827657011061e-03,6.198954954743385315e-02
4.798796492747107179e-01,3.851607106618661902e-01,5.033891265379719648e-01,-2.015702150654161834e-02,-9.753225278644394799e-03,-1.076336056308386559e-02,1.166319325566291809e-01
5.455571056095842586e-01,5.340777402396216234e-01,3.775234755710998313e-01,8.867991367718432508e-03,5.150892303379826093e-02,5.849927860275352248e-02,2.118964046239852905e-01
4.016710758786591340e-01,4.685123050787027843e-01,5.120520787623336068e-01,-8.891061250262613166e-03,-2.876466736826272571e-03,-3.536443732081967321e-03,9.784277528524398804e-02
4.726864818816529090e-01,4.260493908424897169e-01,4.722281937705486432e-01,-4.230955158733031712e-03,-1.181749910311211127e-02,-4.839265661449997785e-03,5.193046480417251587e-02
5.089074829966621083e-01,5.033852193822003773e-01,4.084581974262075921e-01,-2.486898941539542399e-02,2.953169297825744902e-02,3.235981967837915640e-02,1.310690045356750488e-01
4.599683455116367892e-01,5.098336632153168679e-01,4.242129613210965933e-01,-1.325718915380857087e-02,4.478206517273592563e-02,1.793271372515586881e-02,1.142639815807342529e-01
4.345695071363801509e-01,4.391377226933139699e-01,5.013448600508609854e-01,-2.187060059385813760e-03,-9.531342461457837810e-04,-1.778719499547363114e-03,6.481773406267166138e-02
4.636381730969445503e-01,5.489596394526697898e-01,4.022770372918140214e-01,4.610026607826544880e-03,5.974231491502449837e-02,2.724809512547179610e-02,1.711108684539794922e-01
4.971241088193881219e-01,4.786320100639019359e-01,4.225389322526695857e-01,-1.690229037216830696e-02,3.419817065236285814e-02,3.157999361162341229e-02,1.090099290013313293e-01
4.786561891530590751e-01,5.549556748121442507e-01,4.423688839093461445e-01,1.251748203722478567e-02,1.007642826590229440e-01,4.984403407571747630e-02,2.197515666484832764e-01
5.008926750598875488e-01,5.482546663876055604e-01,3.739821049240830142e-01,5.650441171697504275e-03,5.122926811917859202e-02,3.167078038516993321e-02,1.879851073026657104e-01
3.459566550811542518e-01,5.055564964740705269e-01,5.210924665204177408e-01,-1.981156219187108977e-02,-5.427160548202190557e-03,-2.015191601825405427e-03,1.716713458299636841e-01
4.924519734405290450e-01,3.625220334406974443e-01,5.193666979539405260e-01,-1.339362199661468626e-02,-5.196866771324059817e-03,-9.345741180390368733e-03,1.482715010643005371e-01
4.387132270008681778e-01,4.443540043910861326e-01,4.902352369458625736e-01,-2.579836503359736553e-03,-2.013864443360447072e-03,-2.126547840523117152e-03,4.941064491868019104e-02
3.781471978647925614e-01,4.902705701785461945e-01,4.956053564573004722e-01,-1.738486477236316982e-02,-1.633891087684510510e-02,-1.313768947594209056e-02,1.241919547319412231e-01
4.680794011316062875e-01,3.771829621138448885e-01,5.219986114177695979e-01,-2.497732336893954824e-02,-7.438294247228250701e-03,-5.640769402121034726e-03,1.349205225706100464e-01
3.814853960305383818e-01,4.980617274694070784e-01,4.965931670939751630e-01,-1.242400892219698051e-02,-1.828306525765056867e-02,-1.558854488538652903e-02,1.249635368585586548e-01
5.084428879045403971e-01,5.129254367057860531e-01,3.909075343655172841e-01,-1.387863314365649914e-01,-1.839415016442390582e-01,-1.824603717731384245e-01,5.229964256286621094e-01
3.678021738746292124e-01,4.972942090379249835e-01,5.219265279488852771e-01,-1.017425272926582649e-02,-3.526521128481913386e-03,-1.028130884281177508e-03,1.446224600076675415e-01
3.057517733085653999e-01,5.025215470548207719e-01,5.195632557212331859e-01,-5.235715991877686742e-02,-2.673070593744007739e-02,-2.258935678172104087e-03,2.296622991561889648e-01
3.880541546972195999e-01,4.729487548759034876e-01,5.267658452696207805e-01,-4.114772531375386622e-02,-2.108107770996942368e-02,-1.140000158508237132e-02,1.465424001216888428e-01
3.653992332931060849e-01,4.957311153649997526e-01,4.946542565307458506e-01,-1.014849331788267826e-02,-6.960773121207162323e-03,-1.059182816044081966e-02,1.328085213899612427e-01
3.832701577000244275e-01,4.706827671278864256e-01,4.980380022522491457e-01,-4.323245808450733307e-02,-3.085158792441655348e-02,-1.729451085302915331e-02,1.419167518615722656e-01
3.847592009233051225e-01,4.720878250524153108e-01,4.967433143877005852e-01,-1.963180750525053003e-02,-1.259428514303903221e-02,-1.788216913368387631e-02,1.139240935444831848e-01
4.720741769412646338e-01,4.668267449771603128e-01,4.611124301461687613e-01,-4.521053302228923015e-03,3.534126081786565649e-03,3.639097761525781662e-03,1.512261293828487396e-02
3.627532013785609855e-01,5.232377291040822831e-01,5.197877445980544353e-01,2.117497531481971149e-03,-6.782783265551867516e-03,6.138897228771518153e-03,1.596184372901916504e-01
5.021656301216196328e-01,4.404536731565091845e-01,4.344270536460931309e-01,-8.051623690297562974e-04,-1.007019864977718848e-03,-2.250285246114062596e-03,6.509054452180862427e-02
4.758763245742466674e-01,4.605696039936883479e-01,4.703599331124739824e-01,-4.471073992811990493e-03,6.564606934750374066e-03,3.588614722020736555e-03,2.020337991416454315e-02
4.906858618616680712e-01,4.594670705659509857e-01,4.623504357236545292e-01,-6.689540921038778995e-03,6.472264109534498801e-03,-6.873559554573039406e-04,3.397424519062042236e-02
4.885787890794459076e-01,4.547618923221912746e-01,4.605151037397353098e-01,-2.350801005206645897e-03,7.683420646913560748e-03,3.908847586378812709e-03,3.495207056403160095e-02
5.040516122957768852e-01,3.192248056257486755e-01,5.314914086323525577e-01,-6.295362649137582756e-02,1.414889231146784559e-03,-2.467703316234057948e-02,2.317495495080947876e-01
4.742170833474336766e-01,3.876770812192557036e-01,5.936624348439930587e-01,-1.124384536108155030e-01,-1.121479339507062620e-02,-2.526205823725169441e-02,2.689093053340911865e-01
4.808208169365834617e-01,4.559111081124124776e-01,4.636311156222366892e-01,-2.700080758908775767e-03,5.244709822565822056e-03,2.809867925556406004e-03,2.481667324900627136e-02
4.706718545207870807e-01,5.089501215539452561e-01,4.844107092291884409e-01,8.939817486966171456e-02,-6.001305215208337096e-02,7.474687732821044817e-02,2.294998317956924438e-01
3.917582720554629305e-01,5.094646072113355739e-01,5.114429395361975716e-01,5.122223957844756169e-03,-4.472284909857776776e-03,6.976675103134728079e-03,1.199011877179145813e-01
4.519434636642851166e-01,4.921014469906134225e-01,4.494459648584104294e-01,4.085328745207454822e-03,-1.611476663076857668e-03,1.926762596898472972e-03,4.228703305125236511e-02
4.584534970621279570e-01,4.805755755024536668e-01,4.589617369058789920e-01,1.128931197740980826e-03,-3.027683910376965525e-04,3.359473010914940799e-03,2.272351086139678955e-02
4.543046835528129490e-01,4.850736695368133011e-01,4.496867264340483894e-01,5.768238759048234174e-03,-4.063599847882457157e-03,1.496217809000487467e-03,3.558395802974700928e-02
4.850976730937706094e-01,4.853973095034180285e-01,4.371325223103496027e-01,-7.092231645068311323e-03,2.234975793500297223e-02,2.213736528655296104e-02,7.372069358825683594e-02
4.866478419371847997e-01,4.685099467541340990e-01,4.588465866169889606e-01,-6.501074101731897127e-03,1.424970319590514178e-02,1.245297404362883699e-02,4.241250455379486084e-02
6.788872284846562133e-01,4.877247378908006747e-01,3.018896052157805099e-01,1.228278506144444976e-01,4.324050798498090681e-02,-1.966823984161310268e-01,5.229948759078979492e-01
4.096257819516035403e-01,4.962172210659087090e-01,4.450537992673013199e-01,-8.677072043571942145e-03,-1.864169324077598333e-02,-1.208700110145432410e-02,8.597766607999801636e-02
4.824569652574327017e-01,4.845144832648807243e-01,4.355875717338890118e-01,-8.680606877222545037e-03,4.615631326755790208e-03,6.532420373214902279e-03,5.210946872830390930e-02
4.824861222219432033e-01,4.831523831735419217e-01,4.201192598454140947e-01,-8.863853390848976110e-03,1.700563016180041409e-02,1.736060915722859033e-02,7.706537842750549316e-02
4.574966067437448713e-01,4.305269181918706112e-01,4.726442173583848549e-01,-7.043380673070714741e-03,-1.324852847145920921e-02,-5.516167127122681077e-03,4.617383331060409546e-02
4.399983101740679303e-01,4.435191416132058806e-01,4.758267010625610860e-01,-2.170281405314773530e-03,-5.071501723244203202e-03,-3.966507214533595074e-03,3.617201000452041626e-02
4.466003098409435101e-01,4.476105895650200894e-01,4.673988803411265880e-01,-3.258153940340043422e-03,-3.046774779688814303e-03,-6.749117087592572742e-03,2.467662468552589417e-02
4.078947453024778236e-01,5.013390185274211319e-01,4.704923823126004878e-01,1.274816347223210701e-03,-9.582496185030863270e-03,7.931847585456857155e-03,8.526427298784255981e-02
4.470752653857922310e-01,4.870375027865553319e-01,4.679831161442948861e-01,2.348810503497553333e-03,-3.342842940471987562e-03,8.709162212949388485e-03,3.842157125473022461e-02
3.990815142693252549e-01,4.479811568449576509e-01,4.991912784919598223e-01,-3.470917391144583836e-02,-2.284896914587374039e-02,-1.754354074219677262e-02,1.167113631963729858e-01
4.496901695742847593e-01,4.522467398356728729e-01,4.672052564916038264e-01,-3.565958515390709859e-03,-6.031818982047310214e-03,-5.080969050306677511e-03,2.220993489027023315e-02
4.416760459996020294e-01,4.604925913009656480e-01,4.677498634867107152e-01,-1.594144339740969155e-02,-1.057689148913337762e-02,-1.250786641764939887e-02,4.594157263636589050e-02
4.664396062122071474e-01,5.173554638498574221e-01,4.464444708874902856e-01,1.389549970364319445e-02,2.422867190695918507e-02,-6.688079358428524260e-03,8.052844554185867310e-02
4.653381161273200672e-01,4.661594488183870566e-01,4.680658723047444458e-01,1.859692933926298522e-03,-2.646706863938650626e-03,1.262386039055057689e-03,6.484307814389467239e-03
4.654111794226059584e-01,4.701422067651059855e-01,4.625407881841671620e-01,2.457478630424878453e-03,-2.092278553243989182e-03,1.571688697535590174e-03,9.102899581193923950e-03
4.922406423663583386e-01,4.501776244391919035e-01,4.272995136879537137e-01,-8.464286206410674696e-03,-2.555334892502006145e-03,-3.993563392939697594e-03,5.947600305080413818e-02
4.601514498232230355e-01,4.638488950336288053e-01,4.816596582224206280e-01,6.004247166523144982e-03,3.496272634828913317e-03,-2.685681157673213120e-03,2.373209036886692047e-02
4.686610532179729116e-01,4.661933599099480907e-01,4.656995198520710311e-01,1.528280739345069025e-03,-3.029148579995118076e-03,1.614155652935987326e-03,7.064182776957750320e-03
4.655980964169827430e-01,4.805823972641106723e-01,4.603615082557092619e-01,7.103231000666892538e-03,-1.001227665842865152e-03,6.542149210080346923e-03,2.476271241903305054e-02
4.314162650905708496e-01,4.496770782001853206e-01,4.921030926681206896e-01,-4.042224409171307591e-03,-2.481869644621807584e-03,-9.002903563178609250e-03,5.673457682132720947e-02
4.654908907060179568e-01,4.803751720954258508e-01,4.556086000958252114e-01,7.191280664507063505e-03,-3.513533397720529795e-03,2.618040622981680429e-03,2.605826221406459808e-02
4.128609598067473074e-01,4.714292270503314675e-01,4.921342190943202022e-01,-6.490307004418737792e-03,-4.639752921469217362e-03,-1.150465707047566843e-02,7.523044198751449585e-02
4.660533408400986399e-01,4.745939599567363110e-01,4.634178284627968325e-01,3.246321536540497290e-03,5.899441124338829657e-04,1.254221469084496098e-03,1.182269584387540817e-02
4.641072048371990277e-01,4.751049442184714366e-01,4.655068372738384586e-01,1.335881913831327584e-03,-1.098632869750168582e-03,4.878629841178914388e-04,1.082613505423069000e-02
4.601163464570507955e-01,4.806668743051857318e-01,4.584375707763950758e-01,3.423628219340676005e-03,-7.591277255350134274e-04,1.197574312828991521e-03,2.237939462065696716e-02
4.581984663445076711e-01,4.527585400446130226e-01,4.657401685381777900e-01,-4.952970786459120166e-03,-8.360023590347478648e-03,-4.938129415703495367e-03,2.199812419712543488e-02
4.523572346770944330e-01,4.560827209186925080e-01,4.635965311619624218e-01,-1.616525295656585752e-03,-2.235888693813287316e-03,-7.925825041531162898e-04,1.109282672405242920e-02
4.685580971631244651e-01,4.503877668819971092e-01,4.490242788941665730e-01,-3.718006254067106591e-03,1.457360754484688314e-04,-1.124486066570193864e-03,2.005300112068653107e-02
4.743652487752721414e-01,4.475489870397332814e-01,4.408024678662840756e-01,-6.589197537331684985e-03,-3.201259421583946708e-03,-5.113421615007896978e-03,3.442356362938880920e-02
4.537466932924530405e-01,4.548695780657428522e-01,4.577192195562901911e-01,-4.897563045299074130e-04,-3.414732577637007529e-04,-1.337551396566432228e-03,4.360925871878862381e-03
4.546139735278462157e-01,4.529873402995611698e-01,4.593259176112732822e-01,-1.784172540482194692e-03,-5.293117894561537654e-03,-3.319780836830293468e-03,1.261653285473585129e-02
3.708152861677913581e-01,5.182287925542099494e-01,4.946550911050737742e-01,-6.417114529341957224e-03,-1.077557827650848718e-02,-2.549837317152704817e-03,1.389343738555908203e-01
4.581748019348040324e-01,4.459646027647762856e-01,4.616354403896353875e-01,-1.047769705809886275e-03,-6.894975362018830080e-03,-8.639839949701293154e-04,1.874766685068607330e-02
4.580622631702619962e-01,4.546593904357846272e-01,4.524732093581937953e-01,-1.875656958413226020e-03,1.132963579828481521e-04,-6.800871820596130542e-04,5.981517955660820007e-03
4.538982360800254412e-01,4.564915938214565982e-01,4.546328727213844179e-01,-1.280486198834982284e-03,-9.035307089283951994e-04,-1.627478914112298137e-03,4.546880256384611130e-03
4.987484695192918038e-01,3.843623599448385830e-01,4.899985912594898019e-01,-2.614547460081595789e-02,-1.505780820648086778e-02,-3.205867750613703576e-02,1.340676099061965942e-01
4.563965566637931404e-01,4.549281169589856066e-01,4.565138534309648999e-01,3.168064386650860015e-05,4.970728614013709420e-05,-8.858007414760021890e-04,2.169485902413725853e-03
5.058347850798725620e-01,4.027618351223717919e-01,4.802723184713376670e-01,2.654016117089800023e-03,1.366948804888661571e-02,-1.348424497236402203e-02,9.884252399206161499e-02
5.185137876003388380e-01,3.360948308710553500e-01,5.201930285713276536e-01,-1.014721712109488937e-02,9.145312595773522372e-04,-9.380199583568702565e-03,1.848274618387222290e-01
4.577739741927727701e-01,4.565969987845087119e-01,4.546169190700180551e-01,1.655677190822151656e-07,-5.974728423033613244e-04,-9.020540204711542925e-04,3.338939510285854340e-03
4.592520852633066308e-01,4.292527815536706925e-01,4.732451968270969256e-01,-5.132411229354375687e-03,-1.182094229005496364e-02,-4.705072008357983823e-03,4.560911282896995544e-02
4.610681792469026319e-01,5.009025655305130442e-01,4.333790742771609361e-01,1.134814731761274627e-02,-9.523257608028228710e-03,7.387088703816237917e-03,6.541077047586441040e-02
3.621125103181324634e-01,5.207494829490447730e-01,4.592574376400993530e-01,-1.704229891351367182e-02,-6.622666417455544408e-02,3.855076966759695550e-03,1.823893338441848755e-01
3.772819471851310835e-01,5.231348476062886999e-01,4.927341287811077830e-01,2.912455595072942086e-04,-1.106778675145383278e-02,5.209005723047315656e-03,1.349532604217529297e-01
4.488202355668031718e-01,5.159329435621816673e-01,4.306288956206074658e-01,4.478430066608521040e-03,-2.096607254960420469e-02,4.069433274246787510e-03,8.651293814182281494e-02
4.025101389473116353e-01,5.216787415659327465e-01,4.724454408384527460e-01,-3.796109615836256758e-03,-3.984501791463383735e-02,6.501257325041435477e-03,1.252633929252624512e-01
4.385528149934849740e-01,5.003368393175926521e-01,4.442043694332868942e-01,2.424133702180168368e-03,-2.283456169578750895e-03,2.847829597742603750e-03,5.964589118957519531e-02
5.077851444968354278e-01,5.190961713378321463e-01,3.741548397371199375e-01,1.047350990080751429e-02,6.495183264618775536e-03,-5.621537181274361208e-03,1.415872275829315186e-01
4.325635924089226148e-01,5.049680111447798492e-01,4.445137161990810326e-01,3.938546703626601662e-03,-1.871693141071453098e-02,3.294301009864089060e-03,7.516666501760482788e-02
5.107625266364469452e-01,4.684129885227004131e-01,4.003233533381687081e-01,-4.871159558442170016e-03,-4.039949743336364828e-03,-9.531183648671774644e-03,9.851865470409393311e-02
4.121569828881945785e-01,4.918719088692238839e-01,4.709254891278552568e-01,-5.343863602887441271e-03,-7.270430421896363800e-03,-1.117048771556907079e-02,7.577642798423767090e-02
4.233789590244926848e-01,4.745049463537135415e-01,4.743764583160189896e-01,-4.605257851392795428e-03,-4.587620094688852831e-03,-1.076153438712298266e-02,5.551134794950485229e-02
4.409244548055143431e-01,4.926652980604325216e-01,4.473707165820146048e-01,9.171656394736065268e-03,-1.381312102228903806e-02,9.274058619201079254e-03,5.888907611370086670e-02
4.349540709512673131e-01,4.927954411012966940e-01,4.554102294681301455e-01,7.015215046675920066e-03,-9.895764073731480592e-03,1.359825690205924455e-02,5.980821326375007629e-02
4.443817648311711999e-01,4.907722121997725173e-01,4.365278358864003172e-01,-1.800251272885489270e-03,-2.999015260603430603e-03,-2.211465296422124392e-03,5.127847194671630859e-02
4.165958281337399649e-01,5.011610932735959256e-01,4.551175389926860881e-01,1.398234453635918478e-03,-1.824824770278400676e-02,7.628374488541977104e-03,8.097557723522186279e-02
4.526666498716008791e-01,4.543343071298507341e-01,4.525499391109492620e-01,-2.480576806158174899e-03,-3.258618213549873115e-03,-7.008159719290998207e-03,1.416502054780721664e-02
4.462324957579884011e-01,4.366461556859874693e-01,5.030571877774799860e-01,-6.419756613926245331e-03,3.308227042278419436e-03,2.341616310360197101e-03,6.355003267526626587e-02
4.382481183237317834e-01,4.410813425658398623e-01,5.076667657914326615e-01,-1.245207038989219750e-02,-2.637907253135753343e-03,-1.339434474776368112e-05,7.152856141328811646e-02
4.307037635624146321e-01,4.391151166874928125e-01,5.043995995675004673e-01,-6.416241244053844453e-03,-2.024634258018466384e-04,-2.372855382748382570e-03,7.086934894323348999e-02
4.377363426317129602e-01,4.906028803949133432e-01,4.380525982235993210e-01,-2.054229605834764164e-03,-9.391997371908441129e-04,-1.978554264833841045e-03,5.296509712934494019e-02
4.392401187867283063e-01,4.302214965541428793e-01,5.048802641519247736e-01,-1.029028109082534385e-02,-6.507462471965375517e-04,-1.499166904074273254e-03,7.285348325967788696e-02
6.036691141119692183e-01,4.715302518024831469e-01,3.668477973715633667e-01,2.506593088501834002e-02,3.362511259963697763e-02,-1.051012413648492738e-01,2.840200364589691162e-01
4.242835332515152436e-01,5.050653506618347777e-01,4.545912572434822607e-01,5.353672384924805863e-03,-6.200052088073343924e-03,5.382787789076738834e-03,7.269234955310821533e-02
4.598724601143648338e-01,4.574062219058387946e-01,4.920859756538238372e-01,1.708859253337499055e-03,-1.090385673754595440e-03,1.609681536300229879e-03,3.381330892443656921e-02
5.057368680472682509e-01,4.738691133306926484e-01,4.323301003705678491e-01,-9.244330818698374974e-03,2.414687976777318140e-02,7.380522644079634542e-02,1.497064530849456787e-01
4.427476773227001505e-01,4.846215052068787443e-01,4.444596716891233146e-01,-1.275821195673277177e-03,-1.938748835817062817e-03,-4.189101341436225409e-03,4.187440499663352966e-02
5.056705905802021395e-01,4.857258142860919059e-01,4.204789883657604199e-01,1.566863851032599363e-03,1.285446197075908875e-02,1.767236457213724327e-02,8.600168675184249878e-02
5.441471566239731716e-01,5.240005914142803478e-01,4.435463969808202123e-01,4.220566995524230682e-04,6.092341179203267926e-02,5.867425869336571204e-02,1.730987131595611572e-01
5.504398764724776072e-01,4.760686560737675821e-01,3.874666604358735222e-01,1.405978101750397433e-02,2.070124568874039464e-02,4.063926928227416108e-02,1.637196987867355347e-01
4.604911926439255176e-01,4.616508685563852077e-01,4.777620041462869449e-01,3.702005363959697849e-03,-5.649820803691112635e-03,3.055978359128800042e-03,2.108293585479259491e-02
6.199107413570555947e-01,4.251128994455610211e-01,3.365655972677061292e-01,-5.144344508651847031e-02,4.930279931638978375e-02,1.838553907271791299e-01,4.238816499710083008e-01
4.590071207037836887e-01,4.608303878372199680e-01,4.825356336809471514e-01,1.333424381517230451e-04,-1.171374768430935619e-03,1.793994906735881401e-03,2.297480031847953796e-02
3.382443839965665333e-01,5.190719091965956267e-01,5.187010654313024549e-01,-8.846748379971245205e-03,-7.316988646909058404e-03,2.647275649932277850e-03,1.817913800477981567e-01
5.506381684561740819e-01,3.451386582923515745e-01,5.819098512663247735e-01,4.010032666029304804e-02,1.282272057938852079e-02,4.776654030281050900e-02,2.485891878604888916e-01
5.432058453859994751e-01,5.058191516786973985e-01,3.866880736377829031e-01,1.667058549695213387e-02,3.018699249778435123e-02,5.452435434706894013e-02,1.803610324859619141e-01
6.448481797638248025e-01,4.952317572315964589e-01,2.272874370756834961e-01,4.434897135957833331e-02,1.567502479295312390e-01,-1.365351916404625721e-01,5.194286108016967773e-01
4.555696401849699262e-01,4.822670554706454116e-01,4.018309780047406576e-01,-6.506795230172493505e-02,1.496725506450286569e-01,1.083296690857350197e-01,3.466242253780364990e-01
4.660944031176643687e-01,4.690856960502043926e-01,4.652593513282813897e-01,3.277770014210563444e-03,-3.891168917396586619e-03,3.728896244207714587e-03,1.146786566823720932e-02
4.653921380680367537e-01,4.676860422741979662e-01,4.694918055414650793e-01,5.224684045849205781e-04,-1.191490021590643896e-03,1.552978103080074638e-03,4.997810814529657364e-03
4.499762963299438479e-01,4.765755444684885433e-01,4.676849562920367132e-01,2.995047373625464148e-03,-3.695930672023005868e-03,8.019523913318357330e-03,2.847645618021488190e-02
4.739194063662574008e-01,4.646390442320872949e-01,4.772509930041329285e-01,1.669167417447197169e-02,-8.077721295175607427e-03,1.354897561567258539e-02,4.135761037468910217e-02
4.249854045242649758e-01,4.593906690329419562e-01,5.018919692745219541e-01,1.601887082820706645e-02,-6.535331272567138257e-03,1.523988917478635331e-02,7.776283472776412964e-02
4.439868237847927612e-01,4.501339128688028879e-01,4.764613025120028600e-01,-2.800357641441320912e-03,-2.317086862969680409e-03,-1.543869822915785442e-03,3.065188787877559662e-02
4.341039283645868330e-01,4.952515928356036601e-01,4.852564872500060855e-01,2.411152107876671918e-02,-1.585710812857458671e-02,1.886663927239400074e-02,8.242604136466979980e-02
4.554651933053829316e-01,4.628077415762456570e-01,4.811077548766513057e-01,1.058635568126412366e-02,-8.807830843219281725e-03,1.063442395325157191e-02,3.783373534679412842e-02
4.545016120557688333e-01,4.579579291247069528e-01,4.566067285743973247e-01,-3.423504235026787051e-03,-2.902832690563187518e-03,-3.108845109910311592e-03,9.926575236022472382e-03
4.581243970725338288e-01,4.631202742990682131e-01,4.814465999308679689e-01,3.344909782964390014e-03,-2.640072574125048969e-03,5.530604156548804030e-03,2.446644753217697144e-02
4.389858430868519013e-01,4.740636332314770440e-01,4.806590559672525576e-01,6.960437970306779243e-03,-4.826770723835954041e-03,1.385893351555438600e-02,4.792442172765731812e-02
3.926502119471637631e-01,5.170886516870297767e-01,4.642437086853394290e-01,5.550557464245250115e-03,-2.164690855444749776e-02,4.700664320711491991e-04,1.148931086063385010e-01
4.398241685515014154e-01,4.970960893637964007e-01,4.479433358013061861e-01,9.360503418299856611e-04,-6.362620313179063666e-03,4.954193803928638035e-03,5.548606067895889282e-02
4.511501073862388966e-01,4.918186813896188170e-01,4.483983363923775278e-01,6.248521479286483701e-03,-7.744139491646056042e-03,4.120470455192949515e-03,4.605863243341445923e-02
4.342866509264136088e-01,5.059206577992843012e-01,4.326183015647722119e-01,-2.446030821076359760e-03,-5.344889337244156449e-03,-2.721310280064689110e-03,7.334571331739425659e-02
4.726880452717294734e-01,4.606569678621440511e-01,4.247656745599615591e-01,-1.333250456139047947e-02,-5.742406060249617174e-03,-1.079006661041293814e-02,5.334990099072456360e-02
4.120793361365771568e-01,4.944809688822578986e-01,4.669739690367959439e-01,-4.751638687537032384e-03,-8.144835454653548759e-03,-1.180209578244623310e-02,7.723121345043182373e-02
4.463263124614649247e-01,4.960190032381093239e-01,4.445681012757973782e-01,4.334463461894745855e-04,-2.675221453567293295e-04,6.879163557761278558e-04,5.061643198132514954e-02
4.341290575614331626e-01,5.032172198529950569e-01,4.388156927182644274e-01,9.983699502309898496e-04,-8.486711328464574197e-03,-4.428056017303829903e-03,6.891468167304992676e-02
4.512989194726105269e-01,5.171880388276922647e-01,4.165042429413546299e-01,7.160712704601160904e-03,-3.534772567642559260e-02,9.592990144469669758e-03,1.096490994095802307e-01
4.456026268983519500e-01,4.749250755052313311e-01,4.439481416039057216e-01,-2.119367649034776049e-03,-1.659534138823420043e-03,-4.771328038663605331e-03,3.164001926779747009e-02
4.927402706824510203e-01,3.888090695386171580e-01,4.910096966607104818e-01,-9.882789493949771173e-03,-1.093454389639363783e-02,-9.718944413652657460e-03,1.075169965624809265e-01
4.923207001746274791e-01,4.571092503875240354e-01,4.596722218314372443e-01,1.878312248220612071e-03,-7.896104255983578228e-04,2.443325983537805116e-03,3.444609045982360840e-02
4.371091935060498201e-01,5.000191870665863236e-01,4.301872134143971405e-01,-5.878700592251249503e-03,-7.634650830468422099e-03,-1.999420520501538154e-03,6.878645718097686768e-02
4.473622860556484282e-01,5.169071628488972614e-01,4.114118447520371258e-01,7.935939109328372237e-03,-5.504971774628630854e-02,1.022094208917716067e-02,1.349920332431793213e-01
5.101660320712174679e-01,4.059293382691352980e-01,4.469386179737682707e-01,-1.407392237593920814e-03,-3.552633114457141384e-04,-1.567314927400183938e-02,9.495072811841964722e-02
4.415457183421098164e-01,5.142292068319345155e-01,4.196975653550805152e-01,1.143290212906732106e-02,-1.217707975523207344e-02,-1.654524343612131469e-03,9.051752090454101562e-02
4.468352094275544473e-01,5.056661215352493688e-01,4.315006657393662959e-01,1.019590083387421874e-03,-1.043521511292583477e-02,-1.618248087064255627e-03,7.025685161352157593e-02
5.231913555637055513e-01,5.147159512240804258e-01,3.720222334319794877e-01,8.877107143803272815e-02,1.534600491038202175e-01,-1.820383551053108007e-01,4.640554785728454590e-01
4.589263969365589002e-01,4.961361869089873089e-01,4.563554873023041303e-01,-2.886734618942372790e-03,8.447990967812507926e-03,3.038304063420797611e-03,4.187648743391036987e-02
4.667113265635190467e-01,4.921634096649226131e-01,4.519510129575681767e-01,-9.867251245608549617e-03,2.169729354115578976e-02,1.129861134730971751e-02,5.769521370530128479e-02
4.335333021623512528e-01,5.000905853941585155e-01,4.640531754761411110e-01,-5.973519307090976614e-04,1.030487156443836948e-02,9.109122527780200498e-03,6.243864819407463074e-02
4.530047721069063171e-01,4.998590685736681860e-01,4.669681636066101427e-01,-1.923498843087173256e-03,2.591323509432865661e-03,8.384342705843362414e-03,4.447687789797782898e-02
4.606068389469883395e-01,4.869182808279842734e-01,4.583535167446670666e-01,-2.035137121289470451e-03,1.691986730874373967e-03,1.615454799218141212e-03,2.802678197622299194e-02
4.578491588823815350e-01,4.875677708380899977e-01,4.625059334219579488e-01,-5.303025736966994865e-04,1.705861047950138791e-03,3.965362956215089801e-03,2.869206294417381287e-02
5.520626266951622618e-01,5.489034434678672358e-01,2.925413679214037277e-01,-6.747432039405538984e-03,-2.452271399346489696e-03,-1.877504288503556093e-02,2.602950632572174072e-01
5.814822784564246394e-01,5.872741724412912090e-01,3.086143084629094924e-01,3.063137652829135693e-02,2.498291848387091535e-02,-4.209373042750594492e-03,2.842733561992645264e-01
4.084391887617160877e-01,5.072833709075585951e-01,4.751951564001230532e-01,2.634424982102959514e-03,-8.509571971941506940e-03,1.288467530070025978e-02,9.145598113536834717e-02
6.117968341020492140e-01,5.333105069752144267e-01,2.540850436024426617e-01,3.364930613969261547e-02,4.733274077004436670e-03,-2.513586097467679012e-02,3.337691128253936768e-01
5.805451868198461263e-01,6.251252240400773097e-01,1.987726814345990300e-01,2.198960785281275573e-02,-1.642670328605153746e-02,-3.703623923566217585e-02,4.136813282966613770e-01
4.169843419962632192e-01,5.175841681050148413e-01,4.714729427125195493e-01,3.630726203385728750e-03,-4.718673422256001483e-03,6.757319171171414195e-03,8.860652893781661987e-02
4.523522786346643731e-01,4.199165596158354608e-01,4.911802565440605561e-01,-7.367476681816157759e-03,-1.183608119766713963e-02,-4.848785596862199843e-03,6.687862426042556763e-02
6.859513114418461788e-01,5.819331923597544920e-01,1.859228202695596410e-01,4.829784015017144264e-04,7.788165332312348144e-02,-1.491789102693826148e-02,4.771804809570312500e-01
4.692704993344003483e-01,4.661653373755494933e-01,4.670626436384793800e-01,2.866439984856675519e-03,2.875412694233110602e-03,-2.279233209115159517e-03,8.526373654603958130e-03
4.656785877609316282e-01,4.704142521049110015e-01,4.722533115033765716e-01,3.594053302323259140e-03,2.473773054027718354e-03,-3.214353749058072602e-03,1.107358839362859726e-02
4.679721750982261397e-01,4.706257158059678480e-01,4.648407324718344946e-01,4.455762102730627221e-03,4.179515100335721468e-03,-2.432232302219954241e-03,1.244469266384840012e-02
4.675951528044553496e-01,4.684849151599020933e-01,4.658833325246721779e-01,8.723528281733883326e-04,-1.217601286101073455e-04,-3.522122877072775661e-04,2.818644046783447266e-03
4.667565854613997534e-01,4.706340274295811588e-01,4.672862985530581992e-01,1.236922376273881085e-03,1.070048139365674042e-03,-1.466757697910418216e-03,5.266905762255191803e-03
4.412369421230555866e-01,4.905768411173953014e-01,4.331172764279040410e-01,-5.702387434298517889e-03,-4.757788220654325315e-03,-3.227642928334167102e-03,5.565691739320755005e-02
4.557543557325143824e-01,4.741771437286188551e-01,4.678309869758544570e-01,9.035368867561394688e-04,-1.137552042501855775e-03,5.081994034954667901e-03,1.861639320850372314e-02
4.373907811667401280e-01,4.483066162987739967e-01,4.800873859056717929e-01,-4.331827388363134086e-03,-4.342699223042784107e-03,-7.244327089140930806e-03,4.178993403911590576e-02
4.053162003276780667e-01,5.117371741085086079e-01,4.948129329132027188e-01,2.910302268226948926e-03,-8.272726816888112053e-03,1.210528306492351588e-02,1.023772284388542175e-01
4.419606094451109524e-01,4.495062908387725820e-01,4.751497363214785552e-01,-2.028038926751267110e-03,-3.049677942938660083e-03,-6.992284741635275414e-03,3.308983892202377319e-02
4.445960844771821296e-01,4.420003670606170720e-01,4.841267660663630124e-01,-1.445351636944209282e-03,-4.076573826756075929e-03,-1.655895929317679777e-03,4.166978970170021057e-02
3.882087106280870392e-01,5.497966725337339877e-01,4.119763673120346859e-01,8.354824806800550951e-02,1.917063275444027548e-01,-1.962673671166590209e-02,3.939359188079833984e-01
4.673324951475843481e-01,4.575601150103021930e-01,4.822365154030970325e-01,4.201697492470578971e-03,-5.696981511242031615e-03,3.736522826854479784e-03,2.560256607830524445e-02
4.967059595896390900e-01,5.250283531280725002e-01,3.371329042332688597e-01,1.301966525257423034e-02,3.951398533678043140e-02,-1.131691949535019136e-02,1.906882971525192261e-01
4.592536384049707987e-01,4.662205028165724574e-01,4.825156232518982846e-01,-9.530398436509448742e-05,-1.159413347967323121e-03,4.254621057083167283e-03,2.204448729753494263e-02
5.714727238733201542e-01,5.445674130996590590e-01,3.130358586143360267e-01,2.464161588328438526e-02,5.991299231260037439e-03,-5.517916642185492770e-02,2.676260769367218018e-01
4.667505503401349620e-01,4.662335957758761973e-01,4.731970701585144212e-01,1.748713531619733308e-03,-5.252049886614106955e-04,1.790126427410748027e-03,8.048142306506633759e-03
6.513020711298355137e-01,6.267759890760783437e-01,2.473445242205137840e-01,4.325093096979504975e-02,-7.040880564670931596e-02,-6.022257849748826469e-02,4.303953349590301514e-01
5.232615275566747659e-01,5.327296259432037218e-01,3.443048984974858007e-01,6.133545746630936560e-03,-1.772330005252974454e-05,-8.187413022330689754e-04,1.841856986284255981e-01
5.371425132345770681e-01,5.316312714422539720e-01,3.316748478426152502e-01,4.630887973789733075e-03,1.854696911094091093e-03,2.549633754030161594e-03,2.030002772808074951e-01
5.229756570873058674e-01,5.218991382287850866e-01,3.688185825750734947e-01,2.825265683300900652e-03,6.736731308857995745e-03,2.408372962021202053e-03,1.541982740163803101e-01
5.288458733369222342e-01,5.237642887458773266e-01,3.412306484876722612e-01,1.100629553676345934e-02,-1.050616488856520895e-03,-7.280515333685417395e-03,1.865413039922714233e-01
4.528882007294821599e-01,4.640404288308432323e-01,4.554844855291425021e-01,-1.817011954398470514e-03,-2.504545175311373873e-03,-8.001537371271728394e-04,1.152397971600294113e-02
5.373991451288205878e-01,5.429615160543389552e-01,3.560721220719508806e-01,9.120241656357042787e-03,2.481299428623297623e-02,2.224171184304644944e-03,1.898169368505477905e-01
4.460641290483832733e-01,4.623092660802624598e-01,4.620214365309325832e-01,-3.073196585796902566e-03,-3.755705790271977873e-03,-5.646464778240860120e-03,2.063028700649738312e-02
5.037856969192608947e-01,3.830480597519863584e-01,6.204120215558097673e-01,-1.399236048719175105e-02,9.991335933588352258e-02,2.446843299199899513e-01,5.024013519287109375e-01
4.792795223851477049e-01,3.626148318900727086e-01,5.720891346649165099e-01,-6.809805117039693934e-02,2.999548349436361935e-02,1.657370764419210940e-02,2.246934920549392700e-01
5.032929682776936531e-01,3.605434885631118025e-01,4.866622156047919479e-01,-2.917521883535898267e-02,1.643444621771872338e-02,3.670937353599223324e-02,1.602702438831329346e-01
4.545174673374763330e-01,4.558356902078505302e-01,4.552209362337835130e-01,-5.937383021148787002e-04,-6.130220332480619235e-04,-1.597538094236660051e-03,3.338652197271585464e-03
4.674883265723882020e-01,3.999115223784261985e-01,5.058578435335924217e-01,-9.573489532625472503e-03,-4.575247130716956524e-03,-4.215391157672270829e-03,9.498839825391769409e-02
5.595029740380639272e-01,3.902548126731039679e-01,5.031201837164573920e-01,1.049996084167660430e-02,3.356021674739189525e-02,5.572971888829488657e-02,1.879050135612487793e-01
5.003981160091978131e-01,3.408468241025262024e-01,5.237843569425517654e-01,-4.464284915397452591e-02,9.385503022818625363e-03,1.085696260425235773e-02,1.906086802482604980e-01
4.813855438377265261e-01,4.545463648969083614e-01,4.708596220247363573e-01,1.484922726227482122e-02,1.700415026310611241e-02,-1.317896637596906520e-02,5.097653344273567200e-02
4.665418257119232082e-01,4.661179326607725049e-01,4.684852231271665057e-01,8.724462723287756613e-04,-1.644456483091833766e-03,8.034786323221020890e-05,3.898183815181255341e-03
5.297698719860658434e-01,2.979628449880800667e-01,5.673066236737795975e-01,-8.560292171319476562e-02,2.919725993347087930e-03,-1.390593188416068549e-02,2.939967215061187744e-01
5.038734051612709930e-01,3.599842193437270410e-01,4.880944182593489611e-01,-3.121394910597155917e-02,1.906592115569132398e-02,3.648640586798346241e-02,1.633703857660293579e-01
4.724165808189336735e-01,4.646879168969766383e-01,4.681301669824428635e-01,1.686136021617866323e-03,-2.906194031907578541e-03,1.255260075978596908e-03,9.141741320490837097e-03
4.699543116242761442e-01,4.655379148746194851e-01,4.690458554676138481e-01,2.639385442407850974e-03,-3.634856425764478906e-03,2.747981486898529776e-03,9.975347667932510376e-03
4.403640153345027008e-01,4.752463005305247457e-01,4.581181517452315721e-01,-2.214685952372609252e-03,-1.783296226489324877e-03,-7.877058859533533908e-03,3.351234644651412964e-02
4.661074086604647948e-01,4.709730768493406994e-01,4.639138355697929317e-01,1.807149154892382205e-03,-6.601003233268396388e-04,8.921066583770089842e-04,7.256156764924526215e-03
4.663340434096620024e-01,4.683311282765695860e-01,4.654993791829765692e-01,4.041915493834828590e-04,-2.256327008648885971e-05,3.715932212283825959e-04,2.694028895348310471e-03
4.677050587502394330e-01,4.662248736233979840e-01,4.679440633899487056e-01,1.184013511241034785e-03,4.254187148867623402e-07,1.164626507315272242e-03,3.297964809462428093e-03
4.630600556980127847e-01,4.709587252000250746e-01,4.651389425569389391e-01,2.769122012497564345e-03,-3.012635373143546062e-03,3.258329294267940223e-03,1.150532346218824387e-02
4.698319457675425026e-01,4.594210268155543009e-01,4.962076957288992785e-01,4.686232333017621016e-02,6.905903926834994211e-02,-6.435287936985120694e-02,1.854675859212875366e-01
5.022778324108123638e-01,4.705062830823287245e-01,4.164182523834549787e-01,7.836833117198304527e-03,2.604964111371322732e-03,-7.690612575171200914e-03,7.768815010786056519e-02
4.736051972990634740e-01,4.596578385147851442e-01,4.589962385573561621e-01,2.348627457851123687e-02,1.958884523901959288e-02,-2.384855697857405157e-02,6.867633759975433350e-02
4.540384224020304060e-01,4.505118834557148566e-01,4.925885322595500160e-01,-7.878514118698535032e-03,5.213499927476307472e-03,5.483770830588823204e-03,4.463704675436019897e-02
4.239457925802312399e-01,5.027196329696979049e-01,4.490217080772808678e-01,-1.576707805569640833e-03,-4.998795156374897727e-03,-3.977456914036768890e-03,7.063055783510208130e-02
4.561588466787191432e-01,4.592487610224608163e-01,4.814526468141779314e-01,-6.687328013943642444e-03,6.821031957795742860e-03,6.052709136099948886e-03,3.090007416903972626e-02
4.600171892705171572e-01,4.588940363536577749e-01,4.798819634031881165e-01,-1.157057783648567009e-03,3.515003494494897338e-03,2.139814963606898133e-03,2.174857258796691895e-02
4.520410319630882023e-01,4.591573655290580036e-01,4.861529102962107718e-01,-1.659932276096620640e-03,2.099276795349114440e-03,6.233302980031155648e-03,3.331005945801734924e-02
4.419253394941531909e-01,4.924741349070198004e-01,4.676462007020790179e-01,6.675403706968492668e-02,8.475225219210329175e-02,-2.734070554121760879e-02,1.976771652698516846e-01
3.090917320691693448e-01,5.372771835746990021e-01,5.157297805953107162e-01,-4.107527163222050165e-03,-6.590891623192617066e-02,-7.275992062100805841e-04,2.463742047548294067e-01
4.503415481997860570e-01,4.917739004849348006e-01,4.453382013380111082e-01,5.995950724749391468e-03,-4.367527937380656991e-03,3.787621877572496139e-03,4.644450545310974121e-02
2.335835984159943257e-01,5.835423313647971622e-01,5.109665758994417217e-01,6.112326296189103669e-02,-9.707218273588101576e-02,2.970646669526236586e-02,3.800847828388214111e-01
4.151749301198678910e-01,5.049250675823839796e-01,4.490872688232860899e-01,7.957246944807828178e-04,-6.430735210280968776e-03,-2.385620372150864513e-04,7.929457724094390869e-02
5.184535900708334699e-01,4.702387160675237654e-01,3.981854260087869246e-01,5.608328953912900157e-03,-4.180789082370743657e-04,-1.004041006254860480e-02,1.067131906747817993e-01
2.300847101876535850e-01,5.969905341438435098e-01,5.718843695048374531e-01,5.973165773672976103e-02,-9.479725509262339200e-02,6.438160182587115629e-04,4.046022891998291016e-01
4.568945855840565451e-01,4.519447263716518393e-01,4.964833395993956677e-01,4.648133128539563147e-03,-3.283634715171060078e-03,2.149963423413883343e-03,4.357474669814109802e-02
4.172207176550754015e-01,4.920192649219505832e-01,4.892253850047567076e-01,3.052402455696269501e-02,-2.498475166243240009e-02,2.208869786571445240e-02,1.073556840419769287e-01
4.409474131304327305e-01,4.833795588314223068e-01,4.354433295368772550e-01,-7.377983206603174089e-03,-5.450811299689287993e-03,-2.457717761112356188e-03,4.832071065902709961e-02
2.234737213712447157e-01,5.263074998964597517e-01,5.084579921863614516e-01,8.230572354960957737e-02,-1.015958345098163101e-01,4.066473791459467718e-02,3.779816925525665283e-01
4.540397351987421892e-01,4.863819719152397969e-01,4.594717141033705099e-01,1.526970703414683378e-03,-1.794402925420334339e-04,4.422081137037864144e-03,3.107410855591297150e-02
4.389508148781207653e-01,5.378723277208359299e-01,4.119938580886455259e-01,-3.849069915420642168e-03,-7.961447233924991151e-02,2.809013753741560621e-02,1.860262751579284668e-01
5.159910101184137510e-01,4.242278777871152373e-01,4.811772407849541633e-01,6.751340689285939296e-04,5.038852552687432193e-03,1.077962094938429878e-02,8.284918963909149170e-02
3.613981968750112905e-01,5.529628531921414458e-01,5.089785078404022167e-01,1.746268047208552471e-02,-6.417088407240635617e-02,3.917386661459232311e-02,2.192672193050384521e-01
4.514845167564546791e-01,4.632428252629294807e-01,4.903073142829602604e-01,1.214599407840157713e-02,-7.213719615895016792e-03,1.282503341726509531e-02,4.776097089052200317e-02
4.350112857550880729e-01,5.037986482534395627e-01,4.411796320205260136e-01,1.575938690580337145e-04,-2.097676220738527858e-03,-4.107470634253451518e-04,6.602444499731063843e-02
4.333810356371268213e-01,4.333463347230569473e-01,4.849931368144142496e-01,-1.793448957158398638e-02,-1.186698753973196296e-02,-1.210940801116410469e-02,6.702931225299835205e-02
4.678027337988205914e-01,4.658279911836668008e-01,4.678104565056535602e-01,2.472356052051319624e-03,-2.021282706931912428e-03,9.687525952100286414e-04,6.109398324042558670e-03
4.708200160998851080e-01,4.676261023183003740e-01,4.614612584302976717e-01,4.448875970572383452e-03,-2.395250666193859436e-03,3.657184974716615536e-03,1.358714606612920761e-02
4.571410357422479032e-01,4.613078694625143417e-01,4.885594634567965722e-01,6.874360873405519282e-03,-3.065193260433465502e-03,6.438634243820519701e-03,3.417439758777618408e-02
5.246861376636354768e-01,4.951313083453907082e-01,3.657977910898039253e-01,5.153267839868497235e-03,8.928946893930333074e-04,-1.063130693933060471e-02,1.477978676557540894e-01
4.633097385786636435e-01,4.607228643426537484e-01,4.827049257909524216e-01,2.296728454408548600e-03,-9.239433681247836809e-04,2.066635999149801783e-03,2.154615893959999084e-02
4.615067321907764253e-01,4.661272071276528206e-01,4.779845317829487517e-01,9.814724461645843879e-04,-1.776315696444763178e-04,3.156913408990916128e-03,1.579918526113033295e-02
4.163941166068504396e-01,4.539041440739677302e-01,5.151616080766336925e-01,-1.423773506091991284e-02,1.665601242628794720e-03,7.252753573921229789e-03,9.072770923376083374e-02
4.664110832924013850e-01,4.676641236585435402e-01,4.679504657306663984e-01,3.931893554390348731e-04,1.204722435294344803e-05,1.186797651047155492e-03,2.588550793007016182e-03
4.240488392619056190e-01,4.571561560271087954e-01,5.050404966905436277e-01,-2.748700570494075346e-02,1.135933847831901641e-02,1.005615033183912717e-02,8.905849605798721313e-02
4.630453326088335708e-01,4.676946566734284105e-01,4.720777300588017700e-01,1.434756007895105932e-04,-7.495304235675813876e-04,2.027060860800296294e-03,8.676401339471340179e-03
4.350010061375886306e-01,4.401271889632314416e-01,5.024393901436681187e-01,-6.785041975134976575e-03,1.621260134402803359e-03,6.356799175163969483e-04,6.614922732114791870e-02
4.442412813941020167e-01,4.485297390052081501e-01,4.979931966937940491e-01,-7.878699948586354723e-03,5.293407779112718758e-03,5.478214537967191974e-03,5.511316657066345215e-02
4.311616056893206039e-01,4.519960439321840107e-01,5.053170142852396740e-01,-3.994339066449583212e-03,2.074225572010674357e-03,3.558764458132383877e-03,6.698416173458099365e-02
4.574191867928235622e-01,4.553294459697946883e-01,4.965931404813704875e-01,1.469528986767402274e-03,-1.433595050618076535e-03,1.226955313876259245e-03,4.047208279371261597e-02
4.242970532062544931e-01,4.635743288624720737e-01,4.986510185380112481e-01,-6.004425688162477390e-03,5.206805882384969025e-03,1.063413395358894439e-02,6.840717792510986328e-02
4.855228889026701466e-01,4.200392221969892481e-01,4.557316352554992012e-01,-5.870445905471510448e-03,-1.172054707544413835e-02,-9.777591311194660725e-03,6.345938146114349365e-02
4.505334481519602807e-01,4.653152022913672470e-01,3.912610392150994709e-01,-4.312222528575691133e-02,-5.370199594830488837e-02,-4.934536061579349042e-02,1.616881340742111206e-01
4.973247327365317716e-01,4.383520726408186019e-01,4.417414049104219642e-01,-4.761423659822322518e-03,-6.501395759686634870e-03,-9.887899220140982173e-03,6.146148219704627991e-02
4.975869197305659020e-01,4.545545755783488295e-01,4.229992312828204093e-01,-9.325287497059230393e-03,-9.588657362498724177e-03,-2.800313813874769769e-02,8.422980457544326782e-02
5.004850882736930906e-01,4.295411308823175456e-01,4.546394145980161006e-01,-1.290197751028539924e-02,-1.433786576561394722e-02,-2.415151102089642399e-02,8.214858174324035645e-02
4.902319930813614501e-01,4.341341375809155689e-01,4.418029511774217433e-01,-3.032732292588711295e-03,-6.557443200675919064e-03,-6.919291506033696873e-03,5.545988306403160095e-02
4.885686399731129503e-01,4.148853108054680883e-01,4.747412274223900552e-01,-3.211438997587886396e-02,-1.808334369065116645e-02,-4.667105905215741118e-02,1.233335658907890320e-01
2.559069290660425100e-01,6.788608762893557635e-01,6.418067923138603970e-01,9.344715952307239282e-02,9.643904554493853976e-02,1.085053289186535957e-01,5.039937496185302734e-01
4.765422418665058446e-01,3.844158003397709633e-01,4.997551698307762802e-01,-5.300599730763610323e-02,-2.547822130445346472e-02,-3.449101975935211367e-02,1.584609150886535645e-01
4.226917761326354217e-01,4.847456424552493148e-01,3.679320951508419091e-01,-1.131562121809921023e-01,-1.697848496749568281e-01,-1.288418980041034223e-01,4.300485253334045410e-01
4.375151542108040581e-01,4.381099759463205068e-01,5.075693034124444392e-01,-1.215720032670774067e-02,-2.434088557017241843e-03,-5.598155983355647619e-04,7.299572229385375977e-02
4.013659905010472095e-01,3.963971468793168196e-01,4.847590356762948582e-01,-1.711932467655353229e-01,-1.613980268568303011e-01,-1.746047628806744190e-01,5.147069692611694336e-01
3.683826080207378006e-01,4.734691184272130093e-01,5.571371630368692207e-01,-1.035611751113129780e-01,-4.983515245480545780e-02,-2.518991397066640270e-02,2.614667713642120361e-01
5.301418719127974910e-01,2.615767125639693047e-01,5.488162764318679221e-01,-3.144509061411150663e-02,-1.312540536594843620e-02,-4.574008834502209242e-02,2.953827083110809326e-01
5.385756637056411389e-01,3.652615024604987104e-01,5.358580811805331301e-01,1.094097789927452394e-02,7.253632132365843421e-03,4.721569221888348954e-03,1.736606657505035400e-01
5.284227062719990542e-01,3.358655764784303499e-01,5.330159509640506332e-01,-2.907262314116559887e-03,8.530446597673816105e-05,-1.436233050380634688e-02,1.965401172637939453e-01
4.352344599582769202e-01,5.054423946935080458e-01,4.442551730181659164e-01,-1.903909853165510044e-04,-2.765458083635759061e-03,1.774121924257243037e-03,6.640554219484329224e-02
5.368375428789216031e-01,3.590665447666666621e-01,5.419318839805804533e-01,1.917867098336610739e-03,1.245368835474373014e-02,1.393431513221299323e-02,1.832837164402008057e-01
4.545420358559326135e-01,4.803298483009228459e-01,4.336286418037512136e-01,-9.458067569850906603e-03,-3.107452621439562700e-03,-2.537353829041199410e-03,4.425314068794250488e-02
5.591717473886937961e-01,3.221459156209825481e-01,5.871595145946202354e-01,-4.626632945243968481e-02,2.148266405866135209e-02,2.414097852761563218e-02,2.704680860042572021e-01
5.200557506416476627e-01,3.265807410305984204e-01,5.317289686728009501e-01,-4.261641757330311350e-03,8.673122158971475646e-04,4.515154726254180448e-03,1.998630017042160034e-01
4.352446616728802842e-01,5.004935642576454624e-01,4.401191803354595478e-01,-9.466303916773098973e-04,-1.768695457332283187e-03,-1.529721795183885914e-03,6.310480833053588867e-02
5.299227472447599618e-01,3.423978703596408657e-01,5.365726076535772826e-01,-1.524341156485607002e-02,7.319476767282148515e-03,-3.391508577683434618e-03,1.932592242956161499e-01
4.462030385664276233e-01,4.974676046345362090e-01,4.518933923416758036e-01,6.203363977664194976e-04,-8.650280147617567033e-04,4.480289500200365649e-03,4.931876435875892639e-02
4.493678831383882133e-01,4.607518471018695605e-01,4.962151100678358628e-01,5.633423350548586936e-03,-1.487310929733208324e-03,6.352843543996889580e-03,4.487614706158638000e-02
5.351872753714496111e-01,3.433470352489933486e-01,5.313411638394812675e-01,-6.727509404275678478e-03,5.189455083759178348e-03,-1.409254857168529274e-02,1.920728981494903564e-01
5.011616363652064976e-01,4.362081882503919816e-01,4.708614319770212386e-01,4.061784855981347142e-03,6.003095184606552226e-03,3.536322792925374395e-03,5.800062417984008789e-02
4.737353351517978317e-01,4.585107448520547302e-01,4.642124202253001819e-01,-1.805340013526272012e-03,7.152360899105056867e-03,4.516283058668202517e-03,2.004815638065338135e-02
4.873343320721254535e-01,4.533787246882703958e-01,4.547715443226255649e-01,-8.765730796279319614e-03,1.108676625701590993e-02,1.558115963350049753e-02,4.934784770011901855e-02
4.945476461585416317e-01,4.586742605299554132e-01,4.625130486684327358e-01,-4.284973647541837072e-03,5.135243784753735358e-03,7.887204346285953127e-03,3.853238746523857117e-02
4.718957777909815743e-01,4.654089919143634679e-01,4.637704093214274903e-01,1.598692813232917287e-03,-9.919111966694145292e-04,-5.162995238367110842e-08,8.124751970171928406e-03
4.772729098113441815e-01,4.434260178808780428e-01,4.779783177273990158e-01,-3.403815265766896043e-03,1.115566976660332596e-02,4.445332844216436964e-03,4.046446830034255981e-02
4.898757030982383576e-01,4.592628549235825974e-01,4.635445199523652304e-01,-4.621231282157273190e-03,6.437419410492075007e-03,9.052918873136948236e-03,3.547759354114532471e-02
4.146364954959717020e-01,4.485372676273597925e-01,4.979093626284957774e-01,-2.964984350616296782e-02,-1.188845502879981239e-02,-1.256596149434840472e-02,9.378525614738464355e-02
4.664688865917335781e-01,4.661218440969853716e-01,4.667876649874395656e-01,5.175654608213996980e-04,-1.093731428417611413e-03,5.450505328070367117e-04,2.369872527197003365e-03
4.561713667570583275e-01,4.581125112379183517e-01,4.919691867087701009e-01,4.409744427966411063e-04,-8.511516789581655921e-04,1.841758474259135416e-03,3.505276143550872803e-02
4.494624521175971110e-01,4.437058794606929535e-01,4.764570517630856150e-01,-3.557559874933426125e-03,-7.867729012717232170e-03,-3.006887858172868459e-03,3.417658805847167969e-02
4.586755787552307950e-01,4.529443331326911681e-01,4.603695985195938589e-01,-3.886872328948820423e-03,-3.436946252863598301e-03,-4.539916791167039611e-03,1.371201593428850174e-02
4.622787407002873494e-01,4.441966991626091765e-01,4.802622546402268711e-01,-1.494918818438111321e-02,-1.524275728269140762e-02,-1.366231606187920215e-02,5.387932807207107544e-02
4.536859923030416297e-01,4.864281574170679079e-01,4.517735318152730772e-01,1.457487990456553728e-03,1.382518676019626244e-03,9.071137892437062785e-04,3.395438566803932190e-02
4.964715969220053204e-01,4.868394032335880972e-01,4.283122124993635760e-01,1.219688866832950754e-02,-3.665248254460968212e-03,5.647869966629209641e-03,6.829528510570526123e-02
4.265694322156683427e-01,4.481751002377466486e-01,5.027535727315041170e-01,-4.508223980100827324e-03,-2.258649862585684898e-03,-6.484686810359692466e-03,6.947840750217437744e-02
4.326517177144584281e-01,4.396677091500673096e-01,4.906764047370684723e-01,-8.291900267840521949e-03,-4.380780654278654609e-03,-6.829384150872853249e-03,5.841874331235885620e-02
4.178226754567294643e-01,4.556002784337327416e-01,4.850067549302416459e-01,-1.479689544897263599e-02,-3.639573601571903082e-03,-1.623636274374637423e-02,6.993022561073303223e-02
4.617062917639682684e-01,4.748386898096614850e-01,4.593226458928127420e-01,1.045487662191284120e-03,1.292397017745639410e-03,7.372324226301128639e-04,1.481098122894763947e-02
4.589627010131311358e-01,4.762125860755229700e-01,4.386522967250759963e-01,-7.056410049511472118e-03,-2.479583567580637485e-03,-2.356407671697298943e-03,3.528321161866188049e-02
4.023886781456669781e-01,5.206190439025344396e-01,5.248224615001018112e-01,1.804561936084616430e-02,7.182204766171453730e-03,5.232863398223515719e-03,1.253271400928497314e-01
3.742646707000196749e-01,5.130278565450070438e-01,5.162835703147594657e-01,4.937113442490871987e-03,-3.417887495902851864e-03,7.692253492157291941e-03,1.414329409599304199e-01
3.094738367487300801e-01,5.590034813280764237e-01,5.646607125899890667e-01,1.632436490217833991e-02,3.676643252657259969e-02,3.769975216793779171e-02,2.698653042316436768e-01
4.660574861515358047e-01,4.683149648273874921e-01,4.653961267226415788e-01,3.479950871723335110e-04,2.503049967739543044e-04,4.798464237154139106e-04,2.875522244721651077e-03
3.265993725219006882e-01,5.370777348669568685e-01,5.398469192054036192e-01,-2.265981149155222706e-03,3.990752839806700064e-03,1.260625812904405361e-02,2.131468951702117920e-01
3.541338531293286573e-01,5.231883025269028487e-01,5.323358889979294961e-01,-1.134394159338603450e-03,5.448804838775786474e-03,1.314131116132895034e-03,1.740908771753311157e-01
3.553231156188263462e-01,5.316786551987113807e-01,5.262058302713508162e-01,-4.715144226937058661e-03,2.735435350168022219e-03,3.066531213380539311e-03,1.740213185548782349e-01
4.743357927668950258e-01,4.613987382123786452e-01,4.617226562494795572e-01,4.115273837819131151e-04,1.022172234037477560e-03,6.765787174531059846e-04,1.297295652329921722e-02
3.792551615869725334e-01,5.105267096152779072e-01,5.257584472415535171e-01,2.232798737640783772e-03,1.792615728872501771e-02,8.395069192225967578e-03,1.437155157327651978e-01
4.944012607545961169e-01,4.184096507988458447e-01,4.787470890606670415e-01,1.772539223632574670e-02,1.769359198063888070e-02,-2.971740041279455347e-02,9.675392508506774902e-02
5.769513705886033517e-01,3.716387880535028110e-01,3.551795205883193640e-01,5.996984437380823742e-03,3.771860956831337287e-04,-1.951777969877840635e-01,4.002435505390167236e-01
4.659924039917043848e-01,4.699771310457833140e-01,4.732952908178131857e-01,1.249240537283728518e-02,1.009550935967138026e-02,-5.702326758037140619e-03,3.019268624484539032e-02
5.030626964893454289e-01,4.372519810269724916e-01,4.404991223994197957e-01,5.487520810633211019e-04,-1.010577108387042964e-03,-1.680661890298614522e-03,6.434546411037445068e-02
5.291768308341292526e-01,3.986324117170602643e-01,4.491265643634747007e-01,2.061266019710173564e-02,1.449301855005452264e-02,-3.947384702847992616e-02,1.399253904819488525e-01
4.360528898772216833e-01,4.901578215318395104e-01,4.523407918350361712e-01,-1.428049250176417046e-04,-4.307435936680300247e-03,-1.056537730966015595e-02,5.198065191507339478e-02
5.274320939614676185e-01,3.447012543474885504e-01,4.767112848549790449e-01,-1.926331392905095141e-02,-5.035845939500306276e-03,-6.318632029674926820e-02,1.996540576219558716e-01
4.907587637884739395e-01,4.796000795183895105e-01,3.819208000760806465e-01,3.672387500303393726e-02,4.926739610844739492e-02,-4.827986314786641975e-02,1.705178171396255493e-01
5.247674220326619121e-01,3.483776851356763515e-01,5.072789210557391293e-01,-3.052884127136503648e-03,4.880919968377938549e-04,-1.838857423926534493e-02,1.713986247777938843e-01
4.405932347620049594e-01,5.004537031160972704e-01,4.364527593136016126e-01,-2.462143672410495743e-03,-1.471439413952592206e-03,-7.835118331353470343e-05,6.223319098353385925e-02
4.924655502364567727e-01,4.563244577978136096e-01,4.475604477468932418e-01,4.988093467203754718e-03,3.994022153651805539e-03,-6.160267015087057124e-03,4.400083795189857483e-02
4.736646292701214289e-01,4.624386433173973687e-01,4.651579730279232772e-01,1.649431408061770602e-03,4.211721428022520940e-03,-1.627209291641395236e-05,1.281673926860094070e-02
5.363518286309174599e-01,4.978939652420209527e-01,3.841584612794364251e-01,2.378210991540215258e-02,4.929812506453411930e-02,-6.329206805761661281e-02,1.994846761226654053e-01
3.466319892521499968e-01,5.098018666945847155e-01,5.224179133739106362e-01,-5.067457822306197651e-02,1.129939077336180979e-02,1.673939060357417311e-02,1.943438202142715454e-01
4.907441661909595076e-01,4.408558805604588238e-01,4.395466944811716181e-01,-2.236984319041982524e-03,-3.631448794208431020e-03,-3.034292220921058856e-03,5.136208236217498779e-02
4.548464488900318958e-01,4.909628180718000889e-01,4.312674185128046456e-01,-6.767327080722835599e-03,-4.533785567875946165e-03,-2.779155554676240869e-03,5.416806042194366455e-02
4.870146224421767478e-01,4.395238627726634206e-01,4.788269848177189592e-01,3.692283001058882779e-03,1.127626339499106928e-02,-4.226116612118058745e-03,4.908680170774459839e-02
5.022916071499949897e-01,4.376244695367745297e-01,4.605010392339564107e-01,2.199970289127097141e-03,7.464881120853222862e-03,-4.211155841841657428e-03,5.882778391242027283e-02
2.759621531236643999e-01,4.166400097050267926e-01,7.409386494536251977e-01,-1.769096505502918137e-01,8.733319138849555963e-02,8.089751524706494112e-02,5.540641546249389648e-01
4.660532282991376452e-01,4.663381749340476112e-01,4.673277183201504648e-01,-2.357359129929002296e-03,1.271147001291283302e-03,1.020650867979519105e-03,5.097686778753995895e-03
4.436426786723197679e-01,4.597189648759900105e-01,4.997358179088858265e-01,-4.020474282784227901e-03,-2.880163807625560216e-04,8.295452591319951371e-03,5.251954868435859680e-02
4.553832029555995309e-01,4.569747448741947604e-01,5.000857337085815590e-01,1.804670067438477951e-03,1.408137398192263511e-03,8.236785388030766963e-04,4.413000866770744324e-02
4.434585730327553210e-01,4.668000200131814936e-01,4.881689463537494111e-01,-7.701614495940165310e-04,2.196064625649275619e-03,9.656773602053015521e-03,4.238210991024971008e-02
4.797184414943038711e-01,4.575227849451185547e-01,4.576817428711700275e-01,5.316324237709441416e-03,3.716630388815230727e-03,-3.019417083277302089e-03,2.535201795399188995e-02
4.580744839337991814e-01,4.809838225041642157e-01,4.690668327184217001e-01,2.362607715695776590e-03,2.457437609648392349e-03,-4.916118445573871773e-03,2.238770760595798492e-02
3.862898193558382820e-01,4.673243253050345380e-01,5.183227868425813734e-01,-8.483091831143778350e-02,7.050684465785848898e-02,1.447697407909183560e-02,2.245691865682601929e-01
3.164022609440975131e-01,5.948437070670145044e-01,6.499787453348335742e-01,1.604973412524034471e-01,1.101227658964716999e-01,9.197796160057138126e-02,4.847272336483001709e-01
3.941175530253810400e-01,4.290046082144783335e-01,4.783748429987166317e-01,-8.357944056547994549e-02,-7.028625264606822021e-02,-6.040704865627689879e-02,2.282564043998718262e-01
2.913961648248632463e-01,3.448387875271220482e-01,5.838887223517525982e-01,-2.227924894931520849e-01,-3.850151633534977524e-02,-3.614551655598721713e-02,4.796378910541534424e-01
4.474499405169800603e-01,4.465693131231198154e-01,4.916290342659549450e-01,-1.771688411334689656e-02,9.587542250492108939e-03,8.330863218792112015e-03,5.845605209469795227e-02
3.867061131748065206e-01,4.223635385567759970e-01,6.228835649135315844e-01,-2.250928462364727434e-01,-1.138388945336202412e-01,-1.188698908015821953e-01,5.309408307075500488e-01
3.994337222122361086e-01,4.394992277549847337e-01,5.388959779148514428e-01,-4.850080396212288342e-02,-4.498819011454734118e-03,-4.141278212873955957e-04,1.502849161624908447e-01
4.982753246912186573e-01,4.466578670143686591e-01,4.510316016440709119e-01,1.022609242712891947e-03,3.974107434450417642e-03,-1.129265811100222099e-03,5.012059211730957031e-02
4.683684043691838661e-01,4.683178387423910793e-01,4.650780840871157062e-01,1.616192541356998745e-03,5.819880667410736851e-04,-6.814450316075919018e-04,4.572510719299316406e-03
4.054055315932615922e-01,4.942820987670363819e-01,5.208653531045059903e-01,1.757079111001260546e-02,1.104848595870923378e-02,1.533955062362973116e-03,1.107601299881935120e-01
4.703530169049814358e-01,4.643088165213646867e-01,4.654519638628104583e-01,5.155063114310360316e-03,3.322600291823380771e-03,-3.994232189438026367e-03,1.384320948272943497e-02
4.743466499138212500e-01,4.665642078761964573e-01,4.607544978823968629e-01,4.950794218841521842e-03,1.384440310113350166e-03,-1.794931397920840473e-04,1.479562930762767792e-02
4.744064033376314549e-01,4.667870793212481328e-01,4.619643112153606901e-01,2.910172694602703846e-03,1.009272080540845338e-03,1.061323312309198552e-03,1.224344130605459213e-02
5.047092527582326404e-01,4.167771508483925080e-01,4.745544798400926911e-01,2.672681415215653195e-03,1.067112119264221684e-02,-7.802921405607325493e-03,8.084242045879364014e-02
4.421845649392220357e-01,4.679008461445937073e-01,5.034945266941193154e-01,5.647342537399037236e-03,1.553434692624447401e-03,1.933255856167820494e-03,5.438477545976638794e-02
4.692031418428452838e-01,4.665725018332974594e-01,4.675408548818924537e-01,4.975871521593717636e-04,-1.058350115238604249e-07,-6.892621291426492131e-04,2.734705107286572456e-03
4.769192924986166982e-01,4.637724081331850434e-01,4.645333655948700180e-01,4.972870976543150925e-03,5.408132319307520051e-03,-2.880803632223445394e-03,1.871482096612453461e-02
4.801628252044936596e-01,4.574976373282774178e-01,4.593920165264489541e-01,1.454844793496417937e-03,3.385922664775486372e-03,-7.248368561279398868e-04,2.273064665496349335e-02
4.747283995591850547e-01,4.605392501454572129e-01,4.649480622105712779e-01,1.271992416521000200e-03,3.700422973242376099e-03,-1.146663661422832325e-03,1.442532800137996674e-02
4.537189663711777010e-01,3.732016086016294865e-01,5.257422703158801669e-01,-6.898053505233076033e-02,-3.372347877065612343e-02,-4.253804881668057924e-02,2.014565616846084595e-01
4.344665387487933739e-01,4.531003307934294844e-01,4.803689885090367540e-01,-2.281823716055108534e-03,-3.458543160027833987e-03,-9.544577048490999679e-03,4.386020824313163757e-02
4.252275315081780471e-01,4.289079844713737932e-01,4.962143201623465671e-01,-2.280587042700214784e-02,-9.391913570085225552e-03,-9.419875683050008344e-03,8.296117186546325684e-02
3.903680244657784515e-01,4.865579461942567963e-01,5.107385198989281561e-01,7.312060757457802644e-03,-4.903930077344548222e-03,9.075207096834861376e-03,1.124399900436401367e-01
5.018460992566696754e-01,4.569089716668697232e-01,4.534623860127928174e-01,1.335222893468053940e-03,1.304509775366274795e-03,1.697797390167327938e-03,4.695961251854896545e-02
5.019832066870395515e-01,4.296576772421627499e-01,4.400936631526627951e-01,-1.927001494101418218e-03,-7.125970666400040969e-04,-4.855492004484450452e-03,6.832638382911682129e-02
5.051200626140990302e-01,4.592406064833405299e-01,4.569401779642157102e-01,3.807143388649524268e-03,1.350816512873676814e-03,1.204213299381503947e-02,5.195916444063186646e-02
4.969531594347799119e-01,4.462617174309697066e-01,4.439634304542174337e-01,1.238833051100261123e-03,1.073152703436688904e-04,2.698804860135523313e-04,5.192557349801063538e-02
4.373847605331059318e-01,5.011983111619829900e-01,4.842021630175168401e-01,4.166983462694113030e-03,8.563175016910579834e-03,-1.027210938318905836e-03,5.959609523415565491e-02
4.981446302759280909e-01,4.591641319025050461e-01,4.538831811579240316e-01,2.923375744879817308e-03,5.184584228571016175e-04,1.717772591311551595e-03,4.229088127613067627e-02
4.795119932205059721e-01,4.699358338495813192e-01,4.524142851215909311e-01,9.286589089071437333e-03,7.965240563311553820e-03,-1.215632574615600758e-02,3.819532319903373718e-02
5.437489072704504434e-01,2.719670964146041481e-01,5.722050979751074351e-01,-8.275911489045788272e-02,-4.192944464009473043e-02,-1.845503170786379765e-01,4.587013125419616699e-01
5.006989862773615352e-01,4.584284798079067969e-01,4.473575109453910570e-01,3.965965222317144843e-03,-3.147980801210023116e-04,7.557517048279411426e-03,5.095262080430984497e-02
4.638919300776139232e-01,4.701013380514675322e-01,4.765364654570800051e-01,4.461678789867380007e-03,3.740602659172636169e-03,-3.943141223258304039e-03,1.637886092066764832e-02
5.027897202323508008e-01,4.360024666658325332e-01,4.446160105807870355e-01,-9.078987425126980012e-04,1.728994515267637993e-04,-4.200563964850359371e-03,6.336364895105361938e-02
4.773923552950121163e-01,4.650843216684032999e-01,4.656902393983177735e-01,5.129238445684295399e-03,6.015948371810433265e-03,-3.737631216309118994e-03,1.933414116501808167e-02
4.640795292688266738e-01,4.550739951530374250e-01,4.712266531115625878e-01,6.845832462552340660e-03,7.762708319178812828e-03,-7.134887137350277332e-03,2.589671313762664795e-02
4.719383284236601805e-01,4.586354910822417752e-01,4.724760141564963711e-01,1.603081613284993876e-03,7.313321002172371889e-03,-2.236646781885092816e-03,1.917234249413013458e-02
4.683894424806587797e-01,4.637823324081096765e-01,4.704514565800954062e-01,2.675365353180167265e-03,4.725963320487325606e-03,-1.265635192386168392e-03,1.132518053054809570e-02
5.018176044702408189e-01,4.596476636121597514e-01,4.371470395648967000e-01,8.912492241216839195e-03,2.030945794138295634e-03,-2.364438751222894177e-03,5.916819721460342407e-02
4.581971822542678097e-01,4.821684331968358883e-01,4.705112074992252591e-01,1.970820399539368467e-03,1.973187154697712917e-03,-3.710567749012858366e-03,2.226457372307777405e-02
4.678340299971243677e-01,4.470183222538708923e-01,5.082058199900115758e-01,8.037927553273958858e-02,7.646321863843252853e-02,-3.770428188895538768e-02,2.099779397249221802e-01
4.523814469436145402e-01,6.022965590402303837e-01,3.974381624942254221e-01,-9.095767424631409290e-03,-1.180235447559300349e-01,-1.966460728569423971e-02,2.773573398590087891e-01
4.732929505462945552e-01,5.358644921618289647e-01,4.050739904382776868e-01,1.687210726623994059e-02,-5.008390358993385777e-02,1.990050211485609039e-02,1.496825814247131348e-01
4.662823910116117854e-01,5.346520080581247392e-01,3.908643414708971031e-01,1.927197546946510243e-02,-3.785728220293829716e-02,1.371519996700369323e-02,1.466173827648162842e-01
4.711360692498845482e-01,5.172947174793735003e-01,3.900794207467369046e-01,-7.584244697982575351e-04,-4.342658410089281218e-02,-1.312014590178789408e-02,1.364478319883346558e-01
4.790346690630870596e-01,5.253550072499735268e-01,3.552064560157242035e-01,1.145444589876090657e-02,-6.948723739002642119e-02,6.158325521484662828e-03,1.954675912857055664e-01
4.490085909977667988e-01,5.339856750997478141e-01,4.418414229202295429e-01,8.556081265111915163e-03,-5.036599096656490387e-02,1.683924563234607055e-02,1.286935061216354370e-01
4.611557810791020451e-01,5.488019054205496294e-01,3.727847956567100218e-01,3.289185676623430921e-02,-1.013948942169135004e-01,6.585886286050232109e-03,2.396980673074722290e-01
4.368113239662374525e-01,5.153405061390442521e-01,3.884584479949624858e-01,-9.639675080354266970e-03,-4.798434041218543195e-02,-1.323045692913874666e-02,1.414685100317001343e-01
5.789414463135602595e-01,5.766468125680680457e-01,1.399447228433247092e-01,3.630312399734732937e-02,6.670990434363499588e-02,-2.164975656696305206e-02,4.587227702140808105e-01
5.718459847479167024e-01,5.779108719463030841e-01,3.486821023878376447e-01,2.238291947919120520e-02,6.420450544842537521e-02,2.120869025810520961e-02,2.577041685581207275e-01
5.636777568900621649e-01,5.568677234945913490e-01,3.525072696685223050e-01,5.045712006513692477e-02,6.148574005362160422e-02,8.729277878351753006e-03,2.498181909322738647e-01
5.177523590575825452e-01,3.570585949767295375e-01,4.912791118764096576e-01,-9.103425374650649105e-03,-2.734298714338785630e-03,-1.362800501953972433e-02,1.519784480333328247e-01
5.374473890101792994e-01,5.473166959244959440e-01,3.771513847998787528e-01,4.079267081607136636e-02,5.426761285678210339e-02,-3.907843979983663396e-02,2.139687836170196533e-01
5.110314217213542953e-01,5.658583198616424781e-01,3.481114961661432861e-01,3.002243311238424889e-02,1.555286227622348638e-01,2.243823929972589906e-02,3.395043611526489258e-01
4.992635459001173448e-01,4.311484133122632789e-01,4.404909045745509788e-01,-3.381907609417512516e-03,-7.146100182180432046e-03,-7.023340985896291133e-03,6.652881205081939697e-02
6.875499026846390027e-01,6.323707375955535115e-01,2.864457886243003681e-01,1.144869264724170388e-01,1.893481889927065842e-01,-5.764305326582991329e-02,5.464840531349182129e-01
5.036665126833500539e-01,4.383669974776861489e-01,4.321829858643626565e-01,-1.112092853922301214e-03,-1.800656238722585624e-03,-3.763599314376655635e-03,6.900733709335327148e-02
4.944940978918030416e-01,4.287731880396853934e-01,4.510767028695694680e-01,-3.339847498805885873e-03,-7.349938035244104814e-03,-6.079110438978065252e-03,6.047539040446281433e-02
5.209441786617946546e-01,5.481421193200867181e-01,3.455725779010676568e-01,2.029524199640126217e-02,2.980975057895773883e-02,-5.380507010274746676e-02,2.210230380296707153e-01
5.843889316657925326e-01,5.420644631428380711e-01,3.453074843356853108e-01,1.648033605206108629e-02,2.763023625172681200e-02,-5.851467846894241320e-02,2.494179308414459229e-01
5.874790236289568757e-01,1.400269747228863881e-01,5.625687924252135153e-01,-4.838163277586902955e-02,1.214092253523909454e-02,-1.195850689532356181e-01,4.899531006813049316e-01
4.545743640266948771e-01,4.519172533927715563e-01,4.925019536660669162e-01,-7.575804915388496992e-03,6.901711274636792952e-03,6.987318911889715822e-03,4.480945691466331482e-02
5.356052334407279680e-01,3.192385283769364479e-01,5.049709527457905134e-01,1.953917452173973418e-02,2.142657106888680094e-02,-5.266161123174941533e-02,2.279630154371261597e-01
5.824308753696912921e-01,2.066377912626134739e-01,5.488164217717648174e-01,5.441366914172322128e-02,2.261624472327745591e-02,-1.114759726172140641e-01,4.212077856063842773e-01
5.898328933560573750e-01,1.209520320947718441e-01,5.658097503737451461e-01,1.035684013314693286e-01,5.740904386130576964e-02,-4.631527724142853880e-02,5.076064467430114746e-01
2.445405501429674944e-01,4.905970216392726013e-01,6.286564601573330080e-01,-1.888979448856860921e-01,1.534153125002649110e-02,-3.854344836401633889e-02,4.751681685447692871e-01
4.511224756408963033e-01,4.211947761076542673e-01,5.128944922200976420e-01,-2.686790517806336709e-02,-2.775292841285110102e-03,6.547415179102510606e-03,9.422053396701812744e-02
4.317874711796015341e-01,4.343231497837779509e-01,5.115858871048390988e-01,-5.344712905826483340e-02,4.645929405441324642e-03,1.607915148531399718e-02,1.248280107975006104e-01
4.406863363894470975e-01,4.338992326172693703e-01,5.020268776439407166e-01,-3.628334834395324955e-03,-8.618556576140983970e-04,-1.463039926605986347e-03,6.536968797445297241e-02
3.795303150742802001e-01,4.741601529178190444e-01,5.137370618283397805e-01,-1.829610639212927645e-02,-3.724530487687523379e-03,-1.770262213963024259e-03,1.237802654504776001e-01
4.751686434936567283e-01,4.456539301937194053e-01,4.442536065594249184e-01,-1.854504078837817876e-03,-4.293159353294508616e-03,-1.365442262444794327e-03,3.139448910951614380e-02
3.787221871134816009e-01,4.877916451005782084e-01,5.248671718599098313e-01,-4.027219573373232164e-02,3.834144102203085672e-03,1.035634386729765953e-02,1.501531302928924561e-01
4.528520067211954658e-01,4.610711861106601139e-01,4.918495233759843099e-01,4.322927654474931561e-03,-2.138860257350817112e-03,5.728476654467291700e-03,3.789547830820083618e-02
3.862019452695080179e-01,4.732509589382232762e-01,5.054077008003110549e-01,-2.048478921621039311e-02,9.036573999128478737e-03,1.660615435016573466e-02,1.172260716557502747e-01
4.247713433470161060e-01,4.367971201531930525e-01,5.607306003684173756e-01,-7.010350251587356418e-02,2.250870568309199307e-02,2.508690055889699691e-02,1.874726861715316772e-01
3.778059422611245166e-01,4.741641802750856671e-01,5.162891243993696921e-01,-1.935109181408793677e-02,-2.207986268033088669e-03,7.445344887716566495e-04,1.275075972080230713e-01
5.134460320394133026e-01,5.113192356671062422e-01,3.716609571719380889e-01,8.355598890143828977e-03,-3.330677627364764075e-03,6.349594426585708669e-03,1.420199424028396606e-01
4.585784408763434739e-01,4.580958962292931425e-01,4.461985605013873424e-01,-8.689642554139682951e-03,-2.618477770394469269e-03,-2.560083198098273786e-03,2.035390585660934448e-02
5.268824811703232136e-01,5.267575247710778452e-01,3.474772824178961050e-01,1.632530366963361873e-02,-1.089631160124497795e-02,3.040640114268327795e-02,1.899821162223815918e-01
4.757858311997631429e-01,4.506121120733846408e-01,4.474258153585632392e-01,-1.552052883644507771e-03,-1.962515842783934400e-03,-3.047568004311900728e-03,2.776190824806690216e-02
5.222823027099757764e-01,4.849145840281455233e-01,3.838206951718658999e-01,-1.197779196001554081e-01,-1.578799636819102903e-01,-1.791451450662915890e-01,4.790526330471038818e-01
5.307387716721039261e-01,5.458118532737502582e-01,2.243085133592735148e-01,3.920253682604094708e-02,-8.658267918640812078e-02,6.789397925667617351e-02,3.737305402755737305e-01
4.545292551865753317e-01,4.746729869074585717e-01,4.383808455121939174e-01,-9.826360806065050774e-03,-3.466096514212198103e-03,-2.668790084630059782e-03,3.659113496541976929e-02
5.716010957033258455e-01,5.217885806887035960e-01,3.402591933091889675e-01,2.748344919027433803e-02,-1.321262903143868676e-02,2.079523299858485053e-02,2.203717529773712158e-01
4.572849746663569248e-01,4.490431518941185862e-01,4.612274163520588277e-01,-8.432888889800552396e-04,-5.869283705706786723e-03,-3.253293068526640509e-03,1.591207087039947510e-02
4.636187475369167310e-01,4.522306968691394147e-01,4.558483343667782961e-01,-1.610105366910000776e-03,-1.100696683204554962e-03,-2.371832647106247860e-03,1.139586977660655975e-02
4.676249749821770330e-01,4.483594046513160736e-01,4.493154301099875347e-01,-1.173245808882776358e-03,-2.607584665543194371e-03,-1.689011445775872352e-04,1.944920048117637634e-02
5.786095357707664588e-01,5.768399680295679399e-01,2.854454223911994104e-01,2.963195734391448413e-02,-3.364688949514362676e-02,1.932554334993431822e-02,3.042704164981842041e-01
5.424603305125542674e-01,5.890859229548125464e-01,3.033074830162744151e-01,2.930336872252889066e-02,-5.310687006420135824e-03,-6.234767825704471376e-03,2.707322835922241211e-01
5.100338545492105746e-01,5.356506550433290936e-01,3.483594455492294850e-01,1.147126375596399517e-03,-1.702873509018839118e-02,-6.321770771297864980e-03,1.786902099847793579e-01
4.868944079161236504e-01,4.564944992584845096e-01,4.606804180072319177e-01,3.848093050169130482e-03,-4.545293708819779510e-03,4.117499560552065861e-03,3.117192350327968597e-02
4.775647154559390373e-01,4.766403487965316099e-01,4.557305473097826298e-01,1.034054398596553903e-02,-8.145281576705914670e-03,1.422532980309018820e-02,3.980326652526855469e-02
4.496413048442217675e-01,4.567667794030651485e-01,4.624530636316845356e-01,-1.172244639403963173e-03,-1.479543851562260424e-03,-6.927449270185882801e-03,1.668178476393222809e-02
4.723795251538714934e-01,4.638453228887068347e-01,4.679306211804754589e-01,3.946096404315714221e-03,-3.257551355982280569e-03,4.604666630269207798e-03,1.402912382036447525e-02
4.886283222033201423e-01,4.623708785378441433e-01,4.574740182778693209e-01,3.872027713620678283e-03,-1.062977461021045013e-03,1.182600626111046703e-03,2.990944311022758484e-02
4.804346171531997389e-01,4.637221610024703788e-01,4.557967389153090854e-01,5.751671438871681918e-03,-2.382470646891555761e-03,4.032594870294384758e-03,2.529092505574226379e-02
4.500472169058726268e-01,5.055565875726389935e-01,4.249625166965360634e-01,8.242509687490654543e-04,-4.696761441933421967e-03,-1.529377027817632479e-03,7.195972651243209839e-02
5.772252018332147960e-01,5.819118392145337104e-01,7.478326637191373694e-02,2.717725376127602330e-02,-1.311671975509731344e-02,2.250646051023679969e-02,5.089952945709228516e-01
4.577899447572571501e-01,4.550384220811838354e-01,4.565740294066435445e-01,-5.213477840601603514e-04,1.355907167979807284e-07,-8.466244850576990074e-04,2.944390987977385521e-03
4.907510952559341888e-01,5.489516767707394163e-01,1.851975639756933689e-01,-2.215345374462118072e-02,-1.577897363732828351e-01,-8.969022890719528796e-02,4.634995162487030029e-01
4.577739897721674889e-01,4.610130712965622157e-01,4.880672777819360930e-01,9.866089282944813608e-04,-1.158572638289490347e-03,3.448957717081489998e-03,2.954125031828880310e-02
5.403753157109614236e-01,5.646738934895150219e-01,3.233718164273610141e-01,-1.748811535621183763e-03,-6.158972270544801203e-02,-4.841188294774597528e-02,2.671591341495513916e-01
5.088795684115806628e-01,5.122736178327417234e-01,4.047088779177438478e-01,9.315701945593926961e-03,7.448415035203654992e-03,-1.871075265434721940e-02,1.126662045717239380e-01
6.497036708166987751e-01,2.965230170315428238e-01,5.030524087424912416e-01,-8.353863674717339205e-02,-4.108176339885120237e-02,-1.839351748242954443e-01,4.711098372936248779e-01
5.438236570599276343e-01,5.327332493864233021e-01,2.994707059518393888e-01,2.085270868932026164e-02,-2.301557663780797597e-02,-5.927827233593242068e-02,2.656252682209014893e-01
4.611354406004044559e-01,4.511438386042310733e-01,4.857166616593504571e-01,-4.002804072865255060e-03,8.460950946303459272e-03,1.848954352003741135e-03,3.496799245476722717e-02
4.816850709703581201e-01,4.476730869098208276e-01,4.499773631371309368e-01,-6.597764945304468269e-03,-4.885621538962587815e-03,-6.296269991014173673e-03,3.748173266649246216e-02
5.603369036051343288e-01,5.408064029806560757e-01,3.154571871400707606e-01,9.155840409550253245e-03,-4.877040790396861697e-03,-6.863163704735503190e-02,2.646103501319885254e-01
4.668222534016469027e-01,4.615860165950566030e-01,4.719272259404060921e-01,8.660369085388220159e-04,2.298774590827614654e-03,-2.331316789575652200e-03,1.070598140358924866e-02
3.948870854231166794e-01,4.940968550779182289e-01,4.754148890860473986e-01,-6.806693898726206247e-03,-1.401938242378275926e-02,-1.426602598260970529e-02,9.837348014116287231e-02
4.527798466258518006e-01,4.518255277722980079e-01,4.694237216383956857e-01,-2.408087102868856910e-02,-2.083819336321372090e-02,-2.365571088708281686e-02,7.081628590822219849e-02
4.084455375676078748e-01,4.971898285333494205e-01,4.525532990798030730e-01,-7.905099592938195571e-03,-1.260942837423276175e-02,-1.381344862298768475e-02,8.452000468969345093e-02
4.157879341514655325e-01,4.710867587480874197e-01,4.784712170879189541e-01,-5.374646710108026484e-03,-5.874066667483428608e-03,-1.419573029573622559e-02,6.569302082061767578e-02
5.814120935804991674e-01,4.017333897739899795e-01,3.361234759193323929e-01,-1.605438071737958980e-02,6.466875057177590147e-02,1.644229823183089578e-01,3.778914213180541992e-01
4.981036874512803636e-01,4.372088100610214134e-01,4.559529442288194900e-01,2.204509782183084257e-03,3.436778316746530188e-03,-4.219852134039797122e-03,5.496855825185775757e-02
4.447144350939457036e-01,4.676691082577082437e-01,5.086179601270139905e-01,4.740056091488645089e-03,-2.010374225316542002e-03,5.829041370512364796e-03,5.766415968537330627e-02
4.708959513585420642e-01,4.463106859690612604e-01,4.955090192647629288e-01,2.373372406840429730e-03,9.037058661245413183e-03,-2.112702860630703144e-03,4.572364315390586853e-02
4.560519448694769218e-01,4.480587294089811157e-01,5.005878033928644610e-01,7.766268412327250251e-03,3.385144581738583417e-05,1.210919749107571084e-03,5.087893456220626831e-02
5.173556223184246905e-01,4.709298974993543774e-01,4.476972428861009101e-01,3.861359717482764145e-03,7.719064104816296575e-03,2.680256973249557986e-02,7.843668013811111450e-02
5.276560278610711308e-01,4.398023076383764107e-01,4.530425417864205606e-01,4.455439048104674338e-02,-1.003434047116606373e-02,3.465799698119730043e-02,1.288070380687713623e-01
5.057512167953960303e-01,4.567975390807586522e-01,4.470948199079095575e-01,3.978971963416983761e-03,9.338316080435540758e-04,6.439911435056432272e-03,5.603676661849021912e-02
4.429926887631784327e-01,4.591105032262144947e-01,4.858446562510451705e-01,-3.133914664923912602e-03,1.565860952886736828e-03,5.049921193325833391e-03,3.897076100111007690e-02
5.061955266300964817e-01,4.491600902604767631e-01,4.596167821075901605e-01,1.402000746394556222e-03,4.369025801473207585e-03,7.391165377763180000e-03,5.470860376954078674e-02
5.085536335298097566e-01,4.273423018266704898e-01,4.559061582738882512e-01,3.004243873166612556e-04,4.201397925134593009e-03,-5.725601492792971661e-03,7.240883260965347290e-02
5.294947654966126738e-01,4.107406250383063284e-01,5.019864674515818193e-01,1.667001253837274363e-02,3.062112325013540901e-03,4.294281401110253138e-02,1.341140568256378174e-01
5.105623355258649410e-01,4.254530796791815561e-01,4.346630987042242600e-01,-7.604925300107117335e-03,2.031237717755671190e-02,5.785738869197924045e-02,1.341576129198074341e-01
5.014329113031323892e-01,4.656086854261053398e-01,4.278210911307910869e-01,8.043686820019751516e-04,2.195347608575132833e-03,1.454148677030826786e-02,6.867133826017379761e-02
5.053491664201622546e-01,4.269172110199819237e-01,4.504814174792293735e-01,3.402750556930698024e-04,2.006302811552114257e-04,-5.669450360433233096e-03,7.039568573236465454e-02
4.561140520310921764e-01,4.516530057704138956e-01,4.855255148955047728e-01,-8.282193790578568733e-04,5.773583290186082295e-03,1.813868591863623163e-03,3.358678147196769714e-02
4.425517575300742523e-01,4.746248782020603962e-01,4.789189390927545142e-01,8.784390368742064220e-03,-4.229083824510749406e-03,1.317068442083989613e-02,4.461390897631645203e-02
4.862652276026233622e-01,4.499529276449043547e-01,4.661700911661131874e-01,1.631606501536270269e-03,9.227104845862773783e-03,-1.040031289587792620e-03,3.548727557063102722e-02
5.023339013714954726e-01,4.673634356309894211e-01,4.490975596820828142e-01,-1.391224401222323744e-03,4.362167776269841070e-03,4.099443852127169531e-03,4.804841428995132446e-02
4.777757128431569522e-01,4.745284143695418511e-01,4.021288221548913189e-01,-1.382532424854735972e-02,-8.517353369652577721e-03,-1.192503013781883933e-02,8.188420534133911133e-02
4.848752698326221355e-01,4.276712984289441355e-01,4.952621302840528039e-01,5.632945134457810650e-03,1.158495355935835677e-02,-3.777684581646993493e-03,6.719365715980529785e-02
5.023679313458159212e-01,4.302392220102719822e-01,4.514485656034908367e-01,-2.340935750274517578e-03,-3.286874794927317073e-03,-3.961434765541943862e-03,6.495008617639541626e-02
5.012208586742628036e-01,4.835482183252223232e-01,4.549546272533248614e-01,-2.152074753526720188e-02,4.313713724956359102e-02,6.005937634462230751e-02,1.393861174583435059e-01
4.732223779174519751e-01,4.414096236640570603e-01,4.534809665560184389e-01,-3.816736301302723483e-03,-1.071149181299517819e-02,-4.491557726164222691e-03,3.495967388153076172e-02
5.167660191721634710e-01,3.822479972093630329e-01,4.923109774268850658e-01,3.220023834069397559e-03,1.739974467851439915e-03,-8.232538395454808838e-03,1.250880360603332520e-01
4.287472653726817073e-01,4.740118886176142854e-01,4.567787706994597685e-01,-5.297259533073393062e-03,-6.250948755773923574e-03,-1.287986149985939806e-02,4.759090766310691833e-02
5.069064565676403289e-01,4.304071938491609295e-01,4.507065726045295651e-01,-5.585857241605438192e-04,-1.533419333586218168e-03,-4.318453501313741262e-03,6.910319626331329346e-02
4.242280457380131486e-01,5.159383547311915397e-01,4.462582429717684707e-01,-6.864296150014953350e-03,-3.103017302046459647e-02,-7.653347666006240189e-03,1.004062071442604065e-01
4.429857165650200046e-01,4.792037623798016122e-01,4.374127156811899453e-01,-1.180076121014719988e-02,-1.546024032428778248e-02,-1.214441396301305792e-02,5.587432160973548889e-02
4.507128309580867298e-01,4.806969615446324839e-01,4.466942953692256135e-01,-6.575598795494237529e-03,-7.469118436028461018e-03,-7.580107127679701871e-03,3.879615664482116699e-02
4.321550811521753799e-01,4.904137001110545624e-01,4.399699870836959459e-01,-2.706930000818974415e-03,-7.479113958685247414e-03,-6.356098444633671157e-03,5.753996595740318298e-02
4.175568278818418966e-01,4.894111956256481100e-01,4.494054558665550037e-01,-4.154532473621940121e-03,-1.553103323988310434e-02,-1.542163548231929165e-02,7.333363592624664307e-02
4.637500816442877150e-01,4.658767088754123820e-01,4.714161810313985956e-01,-7.161801802677305023e-04,1.094555640727459247e-03,2.209990786486080907e-03,8.171521127223968506e-03
5.835569515576688460e-01,6.043597198485106681e-01,2.696313693173811865e-01,-3.295167426051898163e-02,-1.501406730027159131e-01,-1.464847287503060480e-01,4.906831681728363037e-01
3.550255972873381793e-01,4.925740542181885617e-01,5.173095274719828884e-01,-1.427671188748531016e-02,-1.655836943538309403e-02,-6.210019505335075650e-03,1.564718931913375854e-01
4.595053928048098424e-01,4.409658504092673903e-01,4.764768745445036591e-01,-2.841148794292210934e-03,-7.049598683271325605e-03,-3.424577041250874941e-03,3.398351743817329407e-02
5.056193054864840386e-01,4.133518607907504805e-01,5.552139069657942017e-01,7.789361912343070737e-02,1.694345491509979124e-02,1.343016306863384010e-02,1.874925941228866577e-01
5.195049317753589468e-01,3.437519345469811638e-01,5.656727697340124816e-01,1.428204594170907060e-01,7.211996643174728785e-03,4.964746435314654899e-02,3.314791321754455566e-01
4.921341152782787165e-01,3.899182414064521485e-01,4.888804075214006062e-01,5.416240917240505715e-02,3.267719424659703414e-02,-4.009019822621563006e-02,1.641702204942703247e-01
5.864709622740450490e-01,2.938408743776656507e-01,5.434445237182694566e-01,4.034964459846341472e-02,2.309541666857167427e-02,-5.113918570967997818e-02,2.987020909786224365e-01
5.533426725281713754e-01,3.121387211188355604e-01,5.386521623731579389e-01,4.331372750896315266e-02,-1.824612042196560027e-03,-7.123762651968334851e-03,2.462564110755920410e-01
5.199308690840853675e-01,3.449601140582528869e-01,5.227298759742265988e-01,3.991146794040711931e-02,1.790066864242396624e-02,-1.412114259664264820e-02,1.935216784477233887e-01
5.081370409468447535e-01,4.899142663302780143e-01,4.041749448797473665e-01,-7.999589446261128403e-03,1.815221619394301322e-02,3.882555158349240004e-02,1.222639307379722595e-01
4.965173503885521589e-01,4.576296465462628693e-01,4.571653724377408023e-01,-1.405910775146860560e-03,9.279789204501117305e-04,1.232038379889253488e-03,3.928855434060096741e-02
6.234402862693445568e-01,2.884449529700423565e-01,6.772924536003124274e-01,2.339696234446838052e-01,1.046390791767202871e-01,1.157453042512618206e-02,5.750108361244201660e-01
4.563901343664283905e-01,4.565464614672375965e-01,4.547353370744372514e-01,-1.005802674611131148e-04,-9.454265751903009852e-05,-8.121809488444641737e-04,2.248901873826980591e-03
3.275560273231156172e-01,5.715917545781720177e-01,5.115093298606676608e-01,7.917942547062533157e-03,2.609587791625526260e-02,-5.646825775539697848e-03,2.254502177238464355e-01
2.538115502258741496e-01,5.288064074908480627e-01,5.382229820114105001e-01,-1.903023000169346002e-02,1.679603579505877312e-03,1.043853801460918260e-02,2.823511064052581787e-01
5.367253742615107903e-01,4.695141314456200976e-01,3.350521553257805873e-01,-4.157605790825583819e-02,-3.618119131588876103e-02,-8.382407996398280603e-02,2.486505657434463501e-01
3.089403908051522873e-01,5.295532635582163028e-01,5.667522924081642710e-01,-1.881198880069209767e-02,3.856754822420432188e-02,1.192305234005956727e-02,2.533987164497375488e-01
3.191797890242531466e-01,5.297981749430042964e-01,5.264647143705970533e-01,-1.426156866575348584e-02,2.549442733534711819e-02,1.574392343027525981e-02,2.167321294546127319e-01
5.015903503476315528e-01,5.131778182950421652e-01,4.718215980444043778e-01,-3.363329723232780233e-02,6.977225891290773918e-02,7.697207652941780165e-02,1.927111744880676270e-01
5.268790895827084597e-01,4.991664958984942668e-01,4.075355144686254594e-01,-1.450933356256630009e-02,1.353170411979237771e-02,5.611743912357351760e-02,1.494387537240982056e-01
5.452622328466634194e-01,4.926368276258373258e-01,2.953741568044880306e-01,-4.731890975592773114e-03,7.450111483342639063e-02,1.162852107327206896e-01,3.306783735752105713e-01
5.383810540413603851e-01,5.582311521727620907e-01,3.870800226176105419e-01,1.728916633350564142e-02,8.240467736171751267e-02,2.463527499451301228e-02,2.222125083208084106e-01
4.916072894979783281e-01,5.292894408191496369e-01,3.927570069723320123e-01,-1.864407292683209483e-02,8.009769470504285449e-02,2.633971269728192788e-02,1.930991560220718384e-01
4.707262242962031440e-01,4.564147996621190084e-01,4.803791758705312498e-01,1.427778012335384440e-03,7.674566165863429615e-03,-1.394234354493935997e-03,2.499576099216938019e-02
4.721114615188060637e-01,4.564141317980634494e-01,4.789517840543005001e-01,1.427791857034358715e-03,7.657475743842954638e-03,-1.394247878397582687e-03,2.425756305456161499e-02
4.861614077601496553e-01,4.392919226385701426e-01,4.748505109138018709e-01,3.715791050729441453e-03,9.057456653650441253e-03,-4.122717347256620729e-03,4.618520662188529968e-02
4.536366034969075423e-01,4.608348333134034691e-01,4.884524160678826443e-01,4.521161113753552688e-03,-2.486874201637973708e-03,6.406318184512846230e-03,3.487609699368476868e-02
3.919757039305399315e-01,4.089156352274868067e-01,5.586760748971340007e-01,-2.202106934827347540e-01,-1.021644963057600219e-01,-5.671838204266466815e-02,4.601021707057952881e-01
6.849789588742171142e-01,3.830227836670331287e-01,4.139904595717693869e-01,-2.210172979471814597e-02,-1.299717874674055466e-02,-2.006874532886125106e-01,4.534139931201934814e-01
4.108583417985925967e-01,5.319873249507611757e-01,3.698731634480588726e-01,1.190025477193542985e-01,-1.373865516112730556e-01,1.126238342882803778e-01,3.980940878391265869e-01
5.017358434179080007e-01,4.162711287677223204e-01,4.676443700545912519e-01,2.857973401912883380e-03,6.084281153977872530e-03,-7.382156893740728087e-03,7.649755477905273438e-02
5.079710543995750172e-01,4.010805501036776022e-01,4.672372221377544266e-01,-8.786250268314559596e-04,4.856734196867893870e-04,-1.130047026148725715e-02,9.548240900039672852e-02
6.439528916073053999e-01,3.273836871150661576e-01,6.424841368518180440e-01,1.891971315645499252e-01,1.106524265827911191e-01,-6.150838437227758998e-02,5.051946640014648438e-01
3.844552977949177719e-01,4.706645105496930492e-01,5.858022773839870467e-01,-1.173179161093672179e-01,-5.031311571156611706e-02,-1.260775689730475775e-02,2.828007042407989502e-01
3.915787138838325299e-01,3.599691039412683535e-01,4.877278254299639570e-01,-1.724300413665021403e-01,-1.299380736104846501e-01,-1.447512225881265879e-01,4.647471010684967041e-01
4.563150096441594417e-01,4.611148963817460200e-01,4.919864829432616937e-01,1.111516332412697088e-03,-8.740875674742740143e-04,3.227616886700222353e-03,3.408115357160568237e-02
3.990424484626600155e-01,3.854245783019834559e-01,5.270634048588613840e-01,-1.979438398857513437e-01,-1.012568245915390908e-01,-1.754088615415297370e-01,5.088487863540649414e-01
5.962063337812746333e-01,3.092215772690152797e-01,5.359217682444333830e-01,3.982303240580454401e-03,3.292983848605385983e-02,6.491228292729223082e-02,2.909213602542877197e-01
5.061710557731405880e-01,3.967176443295919452e-01,4.644970569220815415e-01,-5.026695075818778634e-03,-7.318017571085879552e-03,-9.367932335948438161e-03,9.826061129570007324e-02
4.940852712162541183e-01,3.859271202081350216e-01,5.059237323908469808e-01,-7.617716247876792947e-03,9.552073050970768739e-03,2.119691355041771526e-03,1.165334954857826233e-01
5.040816870972324448e-01,3.819186030688934697e-01,4.993068098747513450e-01,3.118070950276200307e-03,1.001008612993856996e-02,-1.065344410934319572e-02,1.226114407181739807e-01
5.292783967614114182e-01,3.277060200259994671e-01,5.240935168606783989e-01,1.211647915376260105e-02,3.542732263132261031e-03,2.482981201597878745e-02,2.047945708036422729e-01
5.221843676666324541e-01,3.584568281962036695e-01,5.095738162072267485e-01,1.201500663434958670e-02,1.010673317368866730e-02,4.267674883793595546e-03,1.602972149848937988e-01
5.245338424198183747e-01,3.918688793783994817e-01,5.154471523303697511e-01,4.085664829577542105e-04,7.866986901887248335e-03,2.102282025257672105e-02,1.341235339641571045e-01
4.841680442635393211e-01,4.177365779211916208e-01,5.042196226660025093e-01,6.064797123079568482e-03,5.603667572606397737e-03,-1.464482460447264541e-03,7.973859459161758423e-02
4.909107847230941846e-01,4.569420376412541285e-01,4.617096959805074285e-01,-6.091680074675444789e-04,1.949682752783459807e-03,1.247297872795033154e-03,3.212225437164306641e-02
4.950100805500760592e-01,3.961352959878006730e-01,4.641179306549009786e-01,-6.067034511729462419e-03,-1.301473215051679282e-02,-1.046643336412422451e-02,9.286177158355712891e-02
5.297218110971990690e-01,3.375873534446562352e-01,5.286544010547907790e-01,-1.230253912134272008e-02,9.016435067542403689e-03,-1.083372708247868146e-02,1.943238526582717896e-01
3.956041041061000296e-01,4.982343302009861752e-01,5.112644868676705645e-01,2.356574495042148068e-02,6.991538693381326580e-03,1.227450406595148764e-03,1.177167519927024841e-01
4.909339252468082337e-01,4.601921712713359369e-01,4.590366298531746714e-01,-9.429382887519488282e-04,1.587120531369867618e-03,1.742605911973683789e-03,3.164250776171684265e-02
5.088378166358134003e-01,2.339781119379658880e-01,5.360690078290535343e-01,-1.364358319971602229e-01,-3.005183323226197009e-02,-1.186164573220015311e-01,4.295780360698699951e-01
5.498633772177037304e-01,1.274830769593894297e-01,5.743487860467128003e-01,1.383948842370634480e-01,4.098628920508955165e-02,-8.507412636472201986e-03,5.020587444305419922e-01
4.733288256925546333e-01,4.261405982114955249e-01,4.730252928617733055e-01,-5.707777089939583375e-03,-1.126439568758075271e-02,-6.453566837143480395e-03,5.306448414921760559e-02
5.895799039470763780e-01,2.825802144297470120e-01,5.764791186291755576e-01,4.242122925772703196e-02,3.715524572681122573e-02,-1.813072180933953184e-02,3.176867961883544922e-01
5.008744218392077174e-01,4.118407331156642148e-01,5.244544345891251069e-01,2.968820252400275125e-02,7.709630803921224164e-03,-2.881334479940263898e-03,1.158870980143547058e-01
4.954052898177456754e-01,3.695833326132343943e-01,5.112371243256184083e-01,-9.286050531975247394e-03,-5.507718801996889027e-03,-6.355206904825289743e-03,1.361788064241409302e-01
5.503578628528077443e-01,2.758157633094385774e-01,5.784634978866431965e-01,5.082882814079351178e-03,3.315660623831460235e-02,-1.280419101429911347e-02,2.962210476398468018e-01
4.485914902314067088e-01,4.297642813664852568e-01,4.919660122876903796e-01,-5.344946916903517246e-03,-9.217339666599363990e-03,-3.468894347934437048e-03,5.855866521596908569e-02
4.145153232294036538e-01,4.234493942419794710e-01,5.606808714629656354e-01,-2.150675358321842701e-01,-1.185380039108230033e-01,-1.350118873913178641e-01,5.057063102722167969e-01
4.955192989079196253e-01,3.835383625726194179e-01,4.947003243405767026e-01,-9.047760882567285057e-03,-1.010136520017033794e-02,-8.697288228580464520e-03,1.150100827217102051e-01
5.351205080234556766e-01,2.874762802261752737e-01,5.329784154943348895e-01,1.606713400591407506e-02,7.085045459903694873e-03,7.303634296580032055e-03,2.487706840038299561e-01
5.334134502601214356e-01,3.323550398904467351e-01,5.206796526545555137e-01,2.727447404480485595e-03,4.568261604991538096e-04,-3.646430147292418263e-03,1.951646208763122559e-01
5.233806358352276478e-01,3.411665403775810956e-01,5.261433735936802414e-01,-3.828214850273878138e-03,1.336484512593871278e-02,-1.041809182859279766e-02,1.860603392124176025e-01
5.240225462134761036e-01,3.597573169420144601e-01,5.237982392659529252e-01,1.356749602835792025e-02,1.298680085980363948e-02,-1.228768565195037174e-02,1.686933189630508423e-01
4.450818767030102485e-01,4.367188104997895559e-01,5.052894227882928080e-01,-2.695259109818019024e-03,1.926141163063255311e-03,-3.082847133026906544e-04,6.505088508129119873e-02
5.358010635524392828e-01,3.646617530927160344e-01,5.269112209548553194e-01,1.474202493623999986e-02,1.128432383128355650e-02,-1.643166590317753431e-02,1.723086833953857422e-01
4.053560920692652614e-01,4.762084395349013288e-01,4.776753001198354442e-01,-3.039971283513931422e-02,-2.970374260972840838e-02,-1.943158926020964114e-02,1.080660074949264526e-01
4.401313512959382779e-01,4.420001151668262462e-01,4.881834599057467416e-01,-3.273785623728335450e-03,-3.653222891651896655e-03,-5.191083794525390774e-03,4.874148592352867126e-02
4.059071509820037504e-01,4.959839835868133373e-01,4.720176159395158000e-01,-2.724232162657787629e-02,-3.148304241357423316e-02,-1.777135500280995276e-02,1.125915125012397766e-01
3.779417075043642882e-01,4.958155532133202148e-01,4.682744278665289528e-01,-1.830086416697005239e-02,-2.328721368756594273e-02,-1.910582956070922336e-02,1.230167672038078308e-01
4.022526701100119784e-01,4.781790300294327389e-01,4.791244908027923466e-01,-1.420249776558275834e-02,-1.340436721101958412e-02,-1.785843825572653795e-02,8.909785002470016479e-02
5.256583936509283683e-01,5.012131560870888292e-01,3.507079485343515546e-01,8.246207929496800898e-03,7.232704555409724678e-03,4.108734682026161933e-02,1.798720955848693848e-01
5.121528748346602100e-01,5.295132156795813172e-01,3.646014343614125131e-01,1.420438501137450023e-02,-8.408304452766031389e-03,1.161955524937970628e-02,1.608004570007324219e-01
4.269209769089505335e-01,4.523885178880887592e-01,4.918781370732088765e-01,-5.084763376241445941e-03,-3.832995750586159697e-03,-1.048477748106011430e-02,6.054057180881500244e-02
4.419480567550482797e-01,4.665901258604415736e-01,4.999211370892757689e-01,5.527361820400482524e-03,1.166770720304869920e-03,-3.142878390845585163e-04,5.133778974413871765e-02
4.497677784032561576e-01,4.719814759519815883e-01,4.924965136218849016e-01,5.994354045502316673e-03,4.610038567358314306e-03,-2.933873337939476352e-03,3.959049284458160400e-02
5.629695264212386530e-01,7.198268514313060917e-01,2.151854208224943110e-01,1.012915173103210997e-01,-1.142564586559658979e-01,1.377027769520656683e-02,5.202142596244812012e-01
5.530748494490790312e-01,5.426315886553070289e-01,3.632642484587659815e-01,-2.933309366801802737e-03,2.813475042613716032e-02,6.593118895036377547e-02,2.227019369602203369e-01
4.832677310743122012e-01,4.152805546164211048e-01,5.075788683254937039e-01,5.901353039324433274e-03,-2.729988960564552086e-04,1.049789132372884980e-03,8.351132273674011230e-02
4.689883930603963580e-01,4.442600157227654112e-01,5.047495031781052965e-01,3.047699748850286102e-03,6.755055239380676133e-03,-9.555272968456152149e-04,5.424168705940246582e-02
4.546799836194594935e-01,4.570194884421576731e-01,5.018846071849871748e-01,1.646736264014125872e-03,1.791618386188072003e-03,1.158525678859335375e-03,4.631528630852699280e-02
5.559694644996922008e-01,5.230255247560515741e-01,3.577595280433649716e-01,3.172635408756055431e-02,-1.801116165307031086e-02,6.214100467443334219e-02,2.223062515258789062e-01
5.096927738915748574e-01,3.679936089366293572e-01,5.148697507854094191e-01,3.520720377944816255e-03,8.882069316093593389e-03,-7.211474104362219006e-04,1.453081071376800537e-01
4.919814482078468387e-01,5.359858410386671990e-01,3.311745907864734884e-01,5.474690194899235751e-02,-8.367324640712237027e-02,1.238985532298236963e-01,3.330454826354980469e-01
5.038538217646257866e-01,5.252504740577121911e-01,3.274963304002972975e-01,9.375303448803119430e-03,-4.338498795414573450e-02,6.391690830187699186e-03,2.033869773149490356e-01
4.940106318512972328e-01,4.669371030955012380e-01,4.134489763854845013e-01,-1.091841739698465145e-02,-5.171896667698821191e-03,-7.386525885437576246e-03,7.512410730123519897e-02
4.844973267014923701e-01,4.157867589743601267e-01,5.158432425016160616e-01,6.048567354658445326e-03,4.133561773846169442e-03,2.500285651376980226e-03,8.965083956718444824e-02
3.691991438762084465e-01,5.187425476216652731e-01,5.443160701798790413e-01,1.694656505312920960e-02,3.178337126014531971e-02,-5.016333935017370377e-03,1.755254566669464111e-01
4.302234504497537415e-01,4.861781888597461188e-01,4.877541619047004451e-01,4.120330646525205941e-03,-6.715990842364056787e-03,1.263431143866543954e-02,6.234358251094818115e-02
3.256051024914022873e-01,5.601814564359631765e-01,5.432148973708792461e-01,4.016112537081584916e-02,3.250453487071330166e-02,-4.766168983843470548e-03,2.437427043914794922e-01
5.127243051304776200e-01,3.569367492676837617e-01,4.941068874341734141e-01,-9.025009150908614233e-03,-3.782997085281158186e-03,-1.368327061054976784e-02,1.502164751291275024e-01
4.198064007480110105e-01,4.732658971956661409e-01,5.059148102123963708e-01,-6.988013423145220636e-03,7.703147154893802447e-06,1.035273863890589889e-02,7.834091037511825562e-02
4.036784394235043982e-01,5.050484842157790810e-01,5.245079299212596080e-01,1.749788560596981721e-02,7.708969501905847156e-03,5.250916773038205934e-03,1.175018697977066040e-01
3.965968053291134554e-01,5.200527424056677894e-01,5.206833411785968257e-01,6.538552242760437005e-02,-5.736809215835090951e-03,-7.170554590226444099e-03,1.685182452201843262e-01
4.803785916793998356e-01,4.260259531469265393e-01,4.562829467390240312e-01,-5.182966753685271967e-03,-1.399504424542646203e-02,-6.763829465202112791e-03,5.505060404539108276e-02
5.094675677943696357e-01,3.678833514687564477e-01,5.132641157275827926e-01,3.603069686146368432e-03,8.019686811483408076e-03,-1.145044623118864120e-05,1.443257778882980347e-01
5.283439803716355465e-01,3.430868420193277646e-01,5.143032592983278750e-01,-2.876571281858383822e-04,6.764621231659368079e-03,-8.193194090987475364e-03,1.795971095561981201e-01
5.244247462490863043e-01,3.831456836976123714e-01,4.999411862729037925e-01,1.001075216315035904e-03,8.925499533905718180e-03,-1.037310363067377693e-02,1.329097747802734375e-01
4.262451988862953622e-01,4.828423377146129347e-01,5.052249105448989308e-01,8.525872409458495199e-03,9.253754567367190875e-03,-5.354910405919707621e-03,7.437740266323089600e-02
5.130384265634551078e-01,3.940214180832194990e-01,4.952475265966400086e-01,-1.122608126589115518e-02,1.592048450880128446e-02,1.616761306488042824e-02,1.195273175835609436e-01
4.017434181667607351e-01,4.956005455092728496e-01,5.047845453082490108e-01,1.905936294996552968e-02,9.833485707531846795e-03,-7.436302862957459500e-03,1.063073650002479553e-01
5.225770713088425667e-01,3.304967717778158898e-01,5.256501780026912041e-01,-7.637187015874246504e-03,4.797713347265121497e-03,-5.463824180122573045e-03,1.944946348667144775e-01
4.931659479586981698e-01,3.698956227870116020e-01,5.189048697308268343e-01,-9.764741578125931201e-03,-2.939775243770376655e-03,-4.802614778273492716e-03,1.393272578716278076e-01
4.205777512021660058e-01,5.228108184559241423e-01,5.383914878563762496e-01,6.970204441322444544e-02,3.060039762073319888e-02,2.791831994907043729e-03,1.723220199346542358e-01
4.400812454123167461e-01,4.324695867997895293e-01,5.023390457640832807e-01,-5.951989970764396364e-03,-3.713221767057178248e-03,-2.388267426123751209e-03,6.762108206748962402e-02
4.953556199189632636e-01,3.834655310336649303e-01,4.935821342032202796e-01,-9.079593633861600746e-03,-1.070690612658773896e-02,-8.950707751069458817e-03,1.146982014179229736e-01
4.649274022034658449e-01,4.767961261122747318e-01,4.252190673439425472e-01,-1.248113709956383613e-02,-1.283237647843039030e-02,-1.033572190900328147e-02,5.891292914748191833e-02
5.206549597797709428e-01,3.442852863451483780e-01,5.247269176338977825e-01,-9.837838456021827729e-03,7.062926208352288300e-03,-1.421240161465832288e-03,1.796860545873641968e-01
4.267329507330104854e-01,4.551220290249998190e-01,5.001034838136027005e-01,-2.082936478416744924e-02,-1.226836667696411080e-02,-1.132627702994860527e-02,7.902045547962188721e-02
4.406318955399189385e-01,4.415348169336543172e-01,5.011426651436824420e-01,-1.098135122091128610e-02,-4.933224705115721830e-03,-5.786824885980116837e-03,6.436593830585479736e-02
4.237914954065902795e-01,4.497874839130393543e-01,5.079530590770927612e-01,-2.343467116481467993e-02,-6.228942370697779229e-03,-8.342726412510850526e-04,8.565708249807357788e-02
4.931517930246611670e-01,3.683859686310403947e-01,5.197652930668877902e-01,-1.307289003127776010e-02,4.534252184596298217e-03,-2.958438349924949994e-03,1.421122103929519653e-01
3.924522789663310030e-01,3.984580881798600038e-01,5.250491132734458333e-01,-9.466242405600776288e-02,-1.642235595309326709e-02,-1.941572234932043006e-02,2.136458605527877808e-01
4.508920649236448641e-01,4.248561206065843976e-01,5.040835194414503562e-01,-2.774333378987726278e-02,-9.116443911233900951e-03,-7.656364312098742388e-03,8.732901513576507568e-02
4.683104230157588699e-01,4.022661633294091765e-01,5.055637995481140345e-01,-9.461144545181335297e-03,-5.998071917284035839e-03,-5.126340013059603809e-03,9.308779984712600708e-02
4.299913668620909957e-01,4.388305058968453576e-01,5.044590070031480522e-01,-6.077783032745805863e-03,-8.014407498732906837e-04,3.036648651995083222e-04,7.126255333423614502e-02
4.430906646214030076e-01,4.419857960967281674e-01,5.021162114918510389e-01,-9.659361168245254523e-04,1.745668084281616975e-03,9.751830941789169614e-04,5.970967561006546021e-02
4.297315017024733175e-01,4.400290834308105969e-01,5.042248511116868004e-01,-6.693378511928050126e-03,-5.142087663823559536e-04,1.154724988960421136e-03,7.090412825345993042e-02
3.973182277273024643e-01,5.109734325610835182e-01,5.025018347315876044e-01,9.215659674650586441e-03,1.396939149507156648e-02,-3.733402912963650674e-03,1.136154234409332275e-01
4.583028110992012905e-01,4.173794350774936435e-01,5.008772022639051968e-01,-1.306380712293786148e-02,6.965902765452139551e-03,1.459114024146888336e-03,7.676937431097030640e-02
3.596998555282718835e-01,5.334378285118357432e-01,5.314716805433894464e-01,1.518796702972968413e-02,-3.275535328027817574e-03,1.257269846354420323e-02,1.761975735425949097e-01
3.960904607979287562e-01,5.137898483298631858e-01,5.105291695167487598e-01,-8.117561393634200456e-03,1.980572532810820699e-02,1.308478770617845302e-02,1.239682137966156006e-01
3.720385692966968749e-01,5.141886170665601608e-01,5.282456578195942054e-01,8.780065119524279454e-03,1.143038026259361913e-02,5.224550813153521628e-03,1.520117223262786865e-01
4.674321628635556558e-01,4.380771053373888613e-01,5.044604141346740178e-01,2.160712712056214388e-02,5.622738902147594864e-03,2.563988902728028731e-03,6.953379511833190918e-02
4.426691337300431850e-01,3.738532059994165158e-01,7.397624350043703334e-01,-2.030698035494268028e-01,4.965622550740519253e-02,1.377957687960831672e-02,4.950996935367584229e-01
3.361971664731059350e-01,5.536836633897710414e-01,5.243711829884584175e-01,4.412763997367057101e-02,3.475191074978572353e-02,8.098924270591190480e-03,2.268174141645431519e-01
3.783632686572379056e-01,5.161029173868802999e-01,4.635794233868850700e-01,-3.333776391531034257e-03,-2.063941931714468811e-02,1.743942017978852193e-03,1.257648020982742310e-01
4.659871586078527805e-01,4.429018943221270654e-01,5.007577736932941059e-01,4.713140064044284844e-03,-1.190515515649781184e-03,6.041833130314828949e-04,5.115273222327232361e-02
4.700445540117640930e-01,4.632383690823826949e-01,4.705022990871018385e-01,1.917852963979614286e-03,-5.323996690157214474e-03,1.411129051779831840e-03,1.231634430587291718e-02
3.327076413891927320e-01,4.994869446445819872e-01,5.967427942392428131e-01,1.225222813027478236e-01,4.808293147188667793e-02,2.382297938983978999e-02,3.273651301860809326e-01
3.475505870352435522e-01,4.979030744600134173e-01,5.228996307966170543e-01,3.573057280447352463e-02,9.413039544564695202e-03,6.034759281188699712e-03,1.766184717416763306e-01
3.887976604738104247e-01,5.204576644249155892e-01,4.985895147944613415e-01,2.041975062259834134e-02,-3.739910948504462929e-02,1.550442419236850236e-02,1.452637314796447754e-01
3.216825308589648102e-01,5.156180905192438990e-01,5.259753844314852822e-01,2.105763689749419812e-02,-1.863066048888132806e-02,7.353015117362846943e-03,2.055740803480148315e-01
4.622380234910580810e-01,4.760474255298133839e-01,4.614578482251986968e-01,2.070259006258631709e-03,3.207303908475870810e-03,-3.475514032126707405e-03,1.679398491978645325e-02
5.233563544972253956e-01,3.431961264859099137e-01,5.209464769820961738e-01,8.549495029371187394e-04,7.542169675412760919e-03,-9.689164923044486441e-03,1.802327334880828857e-01
4.649515676187055413e-01,4.739015080822446824e-01,4.707047694876851374e-01,9.289279965902690409e-03,1.235466542994544115e-02,-7.676299419390348114e-03,3.090747632086277008e-02
4.701911683962198274e-01,4.998067538014565048e-01,4.174946954373668362e-01,6.890652500810627058e-03,-9.722721664823189697e-03,3.684138630536880842e-04,7.510714232921600342e-02
4.741109605376196412e-01,4.838614264589346514e-01,4.393589632035114212e-01,1.222632315035917551e-02,6.263922835340841530e-03,-4.454848744086159842e-03,4.761635512113571167e-02
5.023607553434056294e-01,5.412146846596569416e-01,3.453928993238807865e-01,-2.969814814340618683e-02,-1.135020926315551126e-01,-7.801061967029197797e-02,3.029825687408447266e-01
4.463876356234172671e-01,4.431603009910198288e-01,5.092535933582379437e-01,1.942610050644845779e-02,-2.573152899864210048e-03,9.180713029852984736e-03,7.463426887989044189e-02
4.757447287491375354e-01,4.868165548316814029e-01,4.375388308818973782e-01,1.010023747414427915e-02,8.717252130872175930e-03,-7.310027788822963737e-03,5.195777490735054016e-02
4.661626683675628713e-01,4.471185960245088742e-01,5.001882478685957256e-01,3.949007749546291392e-03,-1.990021277794948307e-03,2.371248837541292676e-03,4.737019538879394531e-02
4.709551522483385044e-01,4.839665871493276650e-01,4.492185642406308355e-01,9.214141759403793666e-03,3.013046862781795787e-03,-1.761742237432488336e-03,3.486902266740798950e-02
4.766122714347421629e-01,4.537222309809760268e-01,4.596145334060700027e-01,1.053865927333719893e-02,1.084979600965850846e-02,-9.426935607842466466e-03,3.710449859499931335e-02
4.736266555559313640e-01,4.700103953519280675e-01,4.452110540970740105e-01,1.050449559011434192e-02,6.820274796374041666e-03,-5.535788674898973333e-03,3.578102961182594299e-02
4.480157180795631411e-01,5.019244263225994818e-01,4.650481931506218469e-01,2.503027461300066838e-03,3.167939962731818569e-03,8.067053089678145579e-04,4.825878888368606567e-02
4.050220831412169042e-01,5.077131747455974065e-01,4.934838353025686741e-01,2.910158555021028198e-03,-8.284384903012665183e-03,9.613728534405200851e-03,9.897110611200332642e-02
5.098572231363029950e-01,3.687464144166077151e-01,5.268710595023491372e-01,3.790021395480370429e-03,7.413401895835322608e-03,-2.277942792766180207e-03,1.510830968618392944e-01
4.711429628259520275e-01,5.101939836100495285e-01,4.273032117675450436e-01,1.639749408481933415e-02,2.139743851703827457e-02,2.430728108359236244e-04,8.566945046186447144e-02
5.175418956642622303e-01,3.363132511314875783e-01,5.181772746533688245e-01,-1.028739230169785704e-02,-1.832381675780403538e-03,-8.774442084997240501e-03,1.830789744853973389e-01
5.557275626733538809e-01,4.006651873429391553e-01,5.344449254282598316e-01,4.579795930563436424e-02,4.077104723152633059e-03,7.153376051234253130e-02,2.071005105972290039e-01
2.629781562058124411e-01,3.867456639768735993e-01,5.570523994389552369e-01,-2.139867902330476468e-01,-6.340128394229030406e-02,-4.411005393739577535e-02,4.697536826133728027e-01
4.271791317070191552e-01,5.010448753579173076e-01,4.603366477599208917e-01,2.978209257509283753e-03,1.494609735331006890e-02,-7.063066489165486931e-05,6.930473446846008301e-02
4.966953245584739829e-01,4.248782877182680218e-01,4.869920715728688343e-01,-3.758302215197892749e-03,1.144036173308730225e-02,7.568601747692636425e-03,7.184603065252304077e-02
4.672896259838081323e-01,4.025209917097967161e-01,5.116862031347879647e-01,-9.722119486173151637e-03,-3.612068886058184686e-03,-3.762401543632529471e-03,9.698817133903503418e-02
4.687321829540424534e-01,5.008790700086761527e-01,4.513650316813734298e-01,-3.284639795265773378e-04,2.930897088409094645e-02,8.233049191695925723e-03,6.836710125207901001e-02
4.485224352172367812e-01,5.008707564123419109e-01,4.608977454795071815e-01,1.786320194970657932e-04,6.024416401464861674e-03,1.669077655068270012e-04,4.852554202079772949e-02
4.294161610980408161e-01,5.052619320813435122e-01,4.699416424635923795e-01,4.186004123098764369e-04,8.677501472892425530e-03,3.108326147824555345e-03,6.765069812536239624e-02
4.402204189938861423e-01,4.240117219288191408e-01,5.021576953864888004e-01,-1.066756548859899671e-02,-8.728839802112167007e-03,-6.824635474185857149e-03,7.624018937349319458e-02
5.051788791343920781e-01,3.835205446470670854e-01,5.083450756651675118e-01,-1.215060335713287996e-02,1.202341490026124192e-02,5.616757882114105718e-03,1.271503567695617676e-01
5.059948146729423835e-01,3.361074370934393762e-01,4.705784734160585181e-01,-1.760648091839473461e-01,-1.362469941731523915e-01,-1.459117057049723332e-01,4.864731431007385254e-01
3.778906426579911049e-01,3.352836438977316869e-01,4.692759776614859879e-01,-1.786658803502509385e-01,-1.366754278273467349e-01,-1.520197302047442411e-01,4.849693775177001953e-01
4.039757069677931134e-01,3.114498840986070771e-01,5.547526370827320363e-01,-1.697942436731945393e-01,-5.294985128385727019e-02,-7.083263367816622358e-02,3.939524888992309570e-01
4.888977690376997143e-01,2.957889310625750334e-01,5.689426715574180671e-01,-1.725202125284688859e-01,-9.175661933134571235e-02,-5.718014042330039209e-02,4.283827543258666992e-01
4.946291761873748971e-01,3.985858390999528211e-01,5.068030200483576442e-01,-9.824845950602173472e-02,-6.266729535129633710e-02,-1.035702157417875552e-01,2.888978421688079834e-01
4.939656517617119769e-01,4.581924204706960269e-01,4.278895325749354495e-01,-1.113465338552580182e-02,-1.250751440010695881e-02,-2.395867035353110158e-02,7.645475864410400391e-02
5.126285399527640285e-01,4.190379226830255321e-01,3.786085574748524474e-01,-4.252693073292534293e-02,-4.425838819759356918e-02,-9.450822861250295082e-02,2.286372631788253784e-01
4.752131781970084790e-01,4.728001472860507981e-01,4.312599050009977564e-01,-1.180498367289325307e-02,-1.278460911517413819e-02,-6.866715710623983934e-03,5.367978662252426147e-02
4.941613022956432566e-01,4.729498711973941227e-01,3.924171191081430865e-01,-1.807108230977269234e-02,-1.084191969858651350e-02,-1.434691137487806821e-02,1.029247269034385681e-01
4.925843759672274835e-01,4.547462662837226666e-01,4.085221211272751507e-01,-1.276128981083744784e-02,-8.493799661320668160e-03,-1.081470093735808699e-02,7.983286678791046143e-02
4.403135736079679674e-01,4.355732788797171962e-01,4.975206193557049072e-01,-2.098737552911958230e-03,-3.628547347766441708e-03,-1.438071149503195164e-03,6.020973250269889832e-02
4.717825864958933857e-01,4.788742991172664221e-01,4.133803755064473506e-01,-1.448695031342256065e-02,-6.730988635321589857e-03,-4.602590129035098732e-03,6.858839094638824463e-02
5.147474359517073550e-01,5.218846134145509463e-01,3.694681033568404938e-01,2.024748048503958488e-03,3.377111475913643912e-02,3.963331374762055215e-02,1.741840094327926636e-01
5.181696806236469888e-01,5.101562709382634342e-01,3.985617515453682147e-01,2.684446735032552239e-03,6.388965648407943579e-03,6.715162404930751470e-03,1.170092299580574036e-01
5.051767422331098212e-01,4.906291439281393330e-01,4.094187415352165127e-01,-3.476043643611049822e-04,2.269656287458569552e-02,4.659954177091683164e-02,1.266826540231704712e-01
5.479688451973959706e-01,5.486105106129545161e-01,3.091398447824973417e-01,1.851409690410154782e-02,-3.895689922039428346e-05,3.591516420221437834e-03,2.413710206747055054e-01
5.295082979961436287e-01,5.322512600239064362e-01,3.626609071948788676e-01,1.573238737108969415e-02,-2.319738472901741212e-03,3.020398794859600541e-02,1.783220171928405762e-01
5.305042835510093147e-01,5.367465000070488212e-01,3.317261428678310864e-01,-1.470726085118296243e-02,-1.338873486211226288e-02,3.616613976852740137e-02,2.142502814531326294e-01
4.667423693113880168e-01,4.432904685188111538e-01,5.081120446437848992e-01,4.700731447212917399e-03,2.534842488657226920e-03,5.445796007438602612e-04,5.760291591286659241e-02
3.847605937619517080e-01,5.182768858220129227e-01,4.801213963222872305e-01,3.274588755096008441e-03,-4.126325357267148636e-02,-4.606815390908998095e-03,1.392546892166137695e-01
3.842293906107572266e-01,5.816415360748360408e-01,4.887446523003140531e-01,9.823684241113926630e-03,-1.020340757006909377e-01,1.295238181694026609e-02,2.475642859935760498e-01
4.573734549254316328e-01,4.573421941438038929e-01,4.933476902846105072e-01,1.683583093248661611e-03,-1.660530817113694537e-03,1.624003148127754152e-03,3.633123636245727539e-02
3.839640888005934061e-01,5.215112980022003075e-01,5.026743222495146934e-01,9.107657688248694053e-03,-1.861275086635245588e-02,1.438898800035928738e-02,1.363538503646850586e-01
6.428044796110194969e-01,6.918026776506678299e-01,1.813074992472767932e-01,4.106242916614610827e-02,-8.794161678209201638e-02,-8.791273052138862121e-02,5.379946827888488770e-01
3.454300256668075275e-01,5.472930966849368639e-01,4.941987767081333915e-01,3.097379643257867216e-02,-8.544872739190362276e-02,6.529976556224463026e-04,2.400703728199005127e-01
4.839175978519248411e-01,4.337526620391584098e-01,5.022720367131316976e-01,6.122679894925759161e-03,-1.884170848829705208e-03,2.346503566984747130e-03,6.256025284528732300e-02
4.978283181064981910e-01,4.553369579960147018e-01,4.495236586491546116e-01,-1.261667485408932187e-03,1.389749361898796757e-03,8.346834259647762516e-03,4.801982641220092773e-02
7.571207491855063143e-01,3.761019998697199829e-01,5.039628269936876626e-01,8.063243475624753964e-02,1.191368663994367000e-01,-1.852044939947926350e-01,5.270616412162780762e-01
3.339506067546256785e-01,5.380825742690592550e-01,4.479069350955644513e-01,-1.337069722181786005e-02,-8.526487031403343075e-02,-5.640225696279491975e-03,2.320255041122436523e-01
3.380476747878062294e-01,5.192589350602988540e-01,5.285572276645362777e-01,-7.452429598653484422e-03,-3.889319508543707601e-03,4.336649898643130108e-03,1.867547929286956787e-01
4.457792743714293904e-01,4.959927385621709650e-01,4.443668527410968849e-01,7.748804950537837005e-04,7.940657840254183668e-05,3.313073219803434064e-04,5.095545947551727295e-02
5.018905138986621273e-01,4.122916656620525533e-01,5.019950941360942220e-01,7.404251355456760962e-03,-3.773576180575059086e-03,6.326198055830191055e-03,9.145811200141906738e-02
3.911706028407078706e-01,7.208402703808282075e-01,3.840723527718705732e-01,5.457006340839740122e-02,-2.276005568226982523e-01,4.849658391334160656e-02,5.314772129058837891e-01
3.394981733821977876e-01,5.191184040746206207e-01,5.332726410981897258e-01,-6.464498480229764754e-03,-6.581051398551018665e-03,1.625273472999649209e-04,1.877805590629577637e-01
4.467465017187387533e-01,4.861841576557532907e-01,4.617935126297411652e-01,2.417844063381984713e-03,-2.697402795669176165e-03,5.475089353419801061e-03,3.629900887608528137e-02
3.625042836625924636e-01,5.197560414507745863e-01,5.312536890057081296e-01,-7.877177699846735215e-03,1.025833302749818397e-02,4.652286353008490763e-03,1.650306582450866699e-01
2.118013279534149140e-01,5.785708009665072593e-01,4.759663370406238547e-01,-2.750799200207622308e-02,-1.479977043524136338e-01,-5.129255012309441759e-03,4.188965260982513428e-01
4.969155129770331247e-01,4.327768133432586817e-01,4.834488658821761153e-01,4.032811528500987626e-03,-5.075657666460584548e-03,7.029134972143289729e-03,6.087440997362136841e-02
4.691681694899029198e-01,5.190531444979380460e-01,3.958544599715976831e-01,5.599958547086522284e-03,-9.522748905570180625e-03,-4.934291540128551848e-04,1.090299040079116821e-01
4.088753591462699899e-01,4.915426274386418548e-01,4.848262801554342194e-01,1.348015216377673048e-02,-1.406148550109953543e-02,1.845235581570339040e-02,9.210620075464248657e-02
7.542120614759717512e-01,5.334476512061439024e-01,2.464998202527767246e-01,4.868227760353551620e-02,-6.257729041436147117e-03,-1.312658633384501672e-01,5.033323168754577637e-01
3.348762409683845309e-01,3.848741125993672685e-01,5.497353676362947139e-01,1.683106777823657751e-01,1.859233900137633247e-02,1.488609091423073218e-02,3.529999852180480957e-01
3.513569228671356570e-01,5.133550698832073378e-01,5.294160692332403606e-01,-1.343644331122046710e-02,7.984292030451187183e-04,5.510156707145969814e-03,1.724465638399124146e-01
3.608846691012193020e-01,5.209879648295687726e-01,5.243207959121842787e-01,-2.119557258984767698e-02,4.532601951004960688e-04,5.339451365007294188e-04,1.659126281738281250e-01
1.843673542110628727e-01,6.629819586673983967e-01,6.023423496195657867e-01,-9.878719545482288200e-02,-1.637473989570594757e-01,5.592229861902146652e-03,5.599430799484252930e-01
4.672323620213815754e-01,4.015802113743734969e-01,5.108517129752966346e-01,-1.087477600074038958e-02,1.079688869172505325e-03,-1.098353688155866105e-03,9.715171158313751221e-02
2.065450951309292238e-01,6.084400803249048195e-01,6.661560614638384337e-01,-8.002157118633694555e-02,-1.418732228654467388e-02,8.965383805958501706e-02,4.816369116306304932e-01
3.332575895256426057e-01,5.833663700660727258e-01,5.672225623943957240e-01,3.186711769036618125e-02,1.459180723933529988e-02,2.031649238541248514e-02,2.523903548717498779e-01
5.168145501297521927e-01,3.442933851805210499e-01,5.287366700975796308e-01,-9.579993772889140030e-03,7.147213129802502431e-03,-1.689913610492187754e-03,1.799990385770797729e-01
4.906407581407067897e-01,4.560926511502418901e-01,4.573474674625891412e-01,-5.493048155285413375e-03,7.039014818825819336e-03,8.512107803514020604e-03,4.010394588112831116e-02
5.112822533181863305e-01,3.771386597877102176e-01,5.100852759005943815e-01,-5.711321941825447598e-03,8.725658413254493845e-03,5.944525729174979928e-03,1.351578682661056519e-01
4.522662067991924939e-01,4.969560479575623191e-01,4.411751763592191566e-01,2.528306628505059758e-03,-1.983031594699358018e-03,2.917118211919275759e-03,5.169479921460151672e-02
3.006423119441813396e-01,5.648349151775282628e-01,5.499343717276867771e-01,-2.856294115259526770e-02,5.273095776404870295e-03,3.298749405949476417e-03,2.620052099227905273e-01
3.323906070145492553e-01,5.672121424070576401e-01,5.706481436424767351e-01,3.045626123383330525e-02,1.382501134003307451e-02,2.826560127804793321e-02,2.484205812215805054e-01
4.611282775069597828e-01,4.855417524780247795e-01,4.525985550769849874e-01,6.223310173499393798e-03,5.734570991138621295e-03,-1.690637208448811640e-03,3.317278251051902771e-02
3.040821671263429504e-01,5.354118028375735028e-01,5.506707203466569833e-01,-8.057038127354114107e-03,-4.996476591001131062e-02,9.040209426223940262e-03,2.553535401821136475e-01
3.096058165765467329e-01,5.611274498518513676e-01,5.259105824816135977e-01,2.205675942263704559e-02,-1.365902134271488634e-02,1.479233825348323997e-02,2.414978295564651489e-01
4.326101504557991473e-01,5.843751564167428691e-01,3.870394651840590727e-01,-2.250529263195729518e-02,-9.572059802791639538e-02,-3.457733451506894706e-02,2.542024254798889160e-01
5.434723566139884054e-01,4.940634935845503728e-01,3.218783273713675119e-01,-2.248237246892736962e-02,-5.022250876556263316e-02,-4.727949600110362138e-02,2.374568730592727661e-01
4.708234543333343902e-01,4.022669641351083181e-01,5.204099339496260912e-01,-1.021024539570986565e-02,7.217104498316699764e-03,7.615408187858827395e-04,1.050192043185234070e-01
4.941505553791545879e-01,5.130912562993423798e-01,3.581253375330273880e-01,-1.456316338642322204e-02,-1.082329640787374481e-02,-1.718048009372672921e-02,1.526801139116287231e-01
5.209081227563668870e-01,4.899607624953025709e-01,3.584929497931260700e-01,-1.592489596904488741e-02,-1.544868853405470706e-02,-1.305029375320122982e-02,1.558776050806045532e-01
5.303716244549472325e-01,4.968566009027578501e-01,3.531614660901307712e-01,-9.499579324618574825e-04,-5.531897232930806400e-04,-1.392332277086163334e-02,1.648414283990859985e-01
5.134669985562319017e-01,4.891768194357399291e-01,3.102043900678240762e-01,-1.094283694106674976e-02,-3.444060742917114115e-02,-5.407893303511903532e-02,2.228445857763290405e-01
4.493114035945678375e-01,4.245800622596989649e-01,5.050155497214715572e-01,-6.167687564852841406e-03,-1.168046916004325617e-03,-1.265937655695682394e-03,7.221669703722000122e-02
4.662406631408189672e-01,4.467777423459257102e-01,4.927426920610548100e-01,-1.568503318573662847e-02,1.412525979465566878e-02,1.436307989555042977e-02,5.960279703140258789e-02
4.534302958793435812e-01,4.762717430868064206e-01,4.866860263950853471e-01,1.171847797884482782e-02,-9.997052968016967994e-03,1.230157609956663775e-02,4.509815946221351624e-02
4.358740901909052834e-01,4.757550113532515446e-01,4.781049931982530032e-01,2.178949302379453237e-02,-1.511633339066359091e-02,2.098513016967789094e-02,7.155916094779968262e-02
4.695035248625222812e-01,4.503976162904239078e-01,4.814344675153919284e-01,5.806573975887051493e-03,-8.057869711219897702e-03,4.407846837829048313e-03,3.300846368074417114e-02
4.256898707142228178e-01,4.743231170056938506e-01,4.692472713877693935e-01,-5.260661674920765786e-03,-5.099664631190733641e-03,-1.292891544308165212e-02,5.297750607132911682e-02
4.639745182909197352e-01,4.408016507878084189e-01,4.907693249845210826e-01,1.120796710343019767e-02,-7.482374478033608327e-03,5.202653967682675969e-03,5.001871660351753235e-02
4.661854550946090692e-01,4.508299935902059241e-01,4.964980010148945522e-01,4.792258803142691002e-03,-2.945932021334467243e-03,1.888097430134316876e-03,4.154192283749580383e-02
4.822817548652654773e-01,4.130311418572377158e-01,4.998910702632563541e-01,-1.070100897893564058e-02,1.893820253276072563e-02,9.405601998177160264e-03,8.949910104274749756e-02
5.677750481418804007e-01,1.941560367540461352e-01,5.211642479810318918e-01,-1.075695394604252175e-01,-2.028467829811391940e-02,-1.476149326917993720e-01,4.750448167324066162e-01
5.629363405208359650e-01,3.289508077514609052e-01,5.116875968516967355e-01,-4.679978507159066048e-03,1.610019034259385987e-02,-3.977781617224998567e-02,2.257750630378723145e-01
4.655966111935092577e-01,4.797865339927276929e-01,4.861620383486025543e-01,3.014939901373747677e-02,-2.103516455879505392e-02,2.997733431307327695e-02,8.415927737951278687e-02
5.087510135371399178e-01,4.129412280831789017e-01,5.064606337587992391e-01,6.045532941000907566e-03,1.490247983144468496e-03,5.466948696497348631e-03,9.576685726642608643e-02
5.849360898387936381e-01,2.806015609828533264e-01,5.340977820620798067e-01,-1.925599124024744008e-02,9.871952283640455118e-04,-3.276271071157156600e-02,2.899442613124847412e-01
5.367892169741027564e-01,2.757477971939905625e-01,5.330449562582726397e-01,-1.237195699358482198e-02,9.039864203499123688e-03,-3.436293835283922571e-02,2.672564685344696045e-01
5.560066018228609908e-01,1.478915730117489336e-01,5.725050655337688976e-01,-8.106721953091566846e-02,9.258896562834408386e-03,-3.545450131249771458e-02,4.441928267478942871e-01
4.830336274550802722e-01,4.467474326193056067e-01,4.835210584383998200e-01,4.863132252884249176e-03,-6.082312076262205193e-03,4.510057634010094900e-03,3.971861302852630615e-02
5.351539794138561179e-01,3.351681358267007416e-01,5.303105247393663513e-01,-2.637579693407416694e-03,1.673174811020005422e-03,-9.490099159234731407e-03,1.983648836612701416e-01
4.334731875879673790e-01,4.971041463599099042e-01,4.547039783912869004e-01,2.291229854361072869e-03,-4.530286755629465804e-03,3.112324654669386490e-03,5.705339089035987854e-02
5.243251391236691816e-01,3.828306248696144443e-01,5.106967646927572657e-01,-1.626382962196073903e-03,9.159403013284732678e-03,4.997000983226742785e-03,1.364280730485916138e-01
5.600179552944937189e-01,2.934146082249289855e-01,5.194493732464479097e-01,8.643627780765385585e-03,-5.869443922514823442e-03,-5.717126405358333163e-02,2.684037685394287109e-01
4.607736954240767568e-01,4.627256397646152819e-01,4.888724092170612656e-01,4.815027481387373041e-03,-4.955690703904822893e-03,7.332538352647005771e-03,3.229596093297004700e-02
3.718274048688425815e-01,5.113571604883840882e-01,5.001892671649634803e-01,3.686932156260012972e-02,-3.527499274542661434e-02,2.383292223582269068e-02,1.659821122884750366e-01
5.251045401874990803e-01,3.483427598221684462e-01,5.144801067879651857e-01,-3.620043718050339893e-02,-1.065971285302889579e-02,-3.879061505533382137e-02,1.956171095371246338e-01
5.274224983465565231e-01,3.353840889099013456e-01,5.300323872556707006e-01,-3.256256812595214548e-03,5.291263386128492938e-03,-1.031151470590991118e-02,1.944776177406311035e-01
4.706390390466037021e-01,4.657969263625741374e-01,4.592840505968243114e-01,3.521122672015849879e-03,-3.545385926101525184e-03,1.826072159920236323e-03,1.350212935358285904e-02
5.355898545577738590e-01,3.490540749468379333e-01,5.200944186871617747e-01,5.116486283825923652e-03,1.227399010088946196e-02,-6.002697689362223969e-03,1.810630708932876587e-01
4.983237188988394739e-01,4.533903077309660024e-01,4.584332112600724707e-01,2.363500880496081035e-04,2.375732640717064664e-03,1.909250281442326398e-03,4.296373948454856873e-02
5.177373971068581771e-01,3.775502547867319314e-01,5.105326235955965908e-01,-6.308034282952348741e-03,1.196204007188973566e-02,5.910047093968955750e-03,1.390962153673171997e-01
5.084280415818455134e-01,5.467829627502810430e-01,3.844141198144766514e-01,1.516078800818279892e-01,-1.631649705993869215e-01,9.838281247248366335e-02,4.466182887554168701e-01
5.325937066610977322e-01,3.491159048661489628e-01,5.108920468562353490e-01,-2.465848680485771115e-03,-5.514666332535549109e-03,-1.857371710744028237e-02,1.769116073846817017e-01
5.359870232316206184e-01,3.623235358398064765e-01,5.165524040814460927e-01,9.442005667560949070e-03,1.339621387274627512e-02,-1.211593202163967382e-02,1.685462743043899536e-01
5.123099228518147585e-01,4.703357978368555847e-01,4.484396425885967541e-01,5.159094751063657801e-03,4.426513003962477023e-03,2.733082958286843500e-02,7.443046569824218750e-02
4.164171553034805018e-01,4.849930460456070569e-01,5.098109463669210362e-01,2.887173602450123291e-02,-1.016015548412201909e-02,1.809408710907542059e-02,1.039860397577285767e-01
4.703147034443587726e-01,5.147257936681313151e-01,4.086070651315719671e-01,7.785264688455984135e-03,-1.005211868498456958e-02,7.676258756850897966e-03,9.582495689392089844e-02
5.240044257042927311e-01,5.175993706837173081e-01,3.932553239505538478e-01,6.196522108367207016e-03,2.951570226269990740e-03,2.130196449656928878e-02,1.334224343299865723e-01
5.204634943140139525e-01,4.943825622543115417e-01,3.732973795287016228e-01,1.253581472033185769e-02,-1.331305936422926689e-02,3.662654173813271324e-02,1.533868163824081421e-01
5.309750998807346578e-01,4.988523751651385840e-01,3.869256173388768705e-01,2.349671024838074530e-03,-2.590291662327339969e-02,4.388659146599233757e-02,1.579949557781219482e-01
5.150374770632368815e-01,3.819426741317538676e-01,5.053112335559653001e-01,3.908666023626701817e-04,2.277138429662753025e-03,6.142957271868026460e-03,1.290098279714584351e-01
4.381342191959737287e-01,5.042026239124697273e-01,4.358375105532577010e-01,-2.870114298873376892e-04,-1.890513255079415405e-03,3.650839018831183590e-04,6.733065843582153320e-02
4.517791427845928021e-01,4.937935374038040504e-01,4.689403990258942945e-01,-8.129793784986757629e-03,1.598894152066599253e-02,1.202971663071391271e-02,5.232647433876991272e-02
4.249821798262304884e-01,5.133135971874475123e-01,4.486180194219684392e-01,-3.483952007802664994e-03,-2.682453061050403889e-02,-5.876011741198942061e-03,9.258492290973663330e-02
4.317083507484602012e-01,5.075494908059715593e-01,4.451498145387405292e-01,-1.248192202822234883e-03,-1.031900886209931312e-02,6.210188570178389478e-04,7.237687706947326660e-02
5.005840260901296412e-01,4.416672025019420800e-01,4.694997177011049350e-01,-5.627393883973238857e-04,2.298817155404669476e-03,4.984163268311139587e-03,5.193618312478065491e-02
5.221678994714461508e-01,4.864346172507311161e-01,4.228322484386687341e-01,2.945386047176879948e-02,-5.588698186404129778e-04,5.382715930521093928e-02,1.374425888061523438e-01
4.300631442055595777e-01,4.323879341385996611e-01,5.039914100470168634e-01,-2.384133939621225703e-02,3.205317660841348285e-03,4.609673773020222382e-03,8.425392210483551025e-02
4.052472947129479586e-01,5.076331744674720259e-01,4.436482472262092136e-01,-4.904696151406935656e-03,-1.676745941237000118e-02,-6.025882958611466014e-03,9.513323009014129639e-02
4.389873933408279250e-01,4.444509717984703734e-01,4.910507784909790563e-01,-1.686641257771421621e-03,-2.559223880056562574e-03,-3.399342212119604942e-03,5.018808692693710327e-02
4.074714659797866179e-01,4.964575767038732490e-01,4.430663612440336463e-01,-5.633055187800461473e-03,-1.555879096512338515e-02,-9.505917731487971770e-03,8.432427048683166504e-02
4.784296110838106575e-01,4.372706094826420697e-01,5.050089117451407317e-01,3.245178900534383126e-02,1.256113562773721742e-02,-1.742054099095086128e-02,8.965282142162322998e-02
3.611286414674124701e-01,5.559648880422377593e-01,4.856107555467865655e-01,8.180502759609914465e-02,-1.511034026344355852e-01,1.080361161531945974e-01,3.908857107162475586e-01
4.446381982683194067e-01,4.430941363106504216e-01,4.980698952082496245e-01,-1.876846475991220120e-03,7.516954995051649104e-04,4.100471834078346818e-03,5.479540675878524780e-02
6.326163118533778551e-01,2.796460517195969997e-01,5.940280723426357712e-01,2.517164947332788394e-01,1.089219685319055969e-01,5.049147809466620479e-02,5.880308747291564941e-01
4.767940711977514678e-01,4.195711353683274081e-01,5.067073481083141928e-01,-7.969245928858765746e-03,1.171823726164207199e-02,2.098642908905453026e-03,8.060201257467269897e-02
4.587808615960069503e-01,4.032491179723304842e-01,5.505905796275458730e-01,5.186279866410933859e-02,4.943373123546038021e-03,6.996996334489509126e-03,1.577991992235183716e-01
5.023062447155035581e-01,3.959805084452290291e-01,5.232905812138605173e-01,5.900010853644022113e-02,4.923025497762040931e-02,-2.897988982503504549e-02,1.849596500396728516e-01
4.611341781090922409e-01,4.467183748147954270e-01,5.104762262162713116e-01,2.577435762163441876e-02,-5.709369035469634771e-03,7.459305627774258200e-03,7.490944862365722656e-02
4.576810059904858896e-01,3.970998406296052385e-01,5.475146030667741304e-01,1.524169103435026318e-01,7.572068938997757181e-02,-2.375498177647003550e-02,3.252213001251220703e-01
3.390268985224099696e-01,5.822850774368886206e-01,5.222151228476676899e-01,2.793424190116094649e-02,-5.411242161255536837e-02,1.378085295952338925e-02,2.446744740009307861e-01
4.114299217505325568e-01,4.948336633582157695e-01,5.030686443619155623e-01,2.545701158553739449e-02,-1.603444764619919513e-02,1.621526429689209084e-02,1.059014648199081421e-01
3.118352404406142808e-01,4.833024104731249992e-01,6.414122053477440133e-01,-1.613169385012947488e-01,7.772257219548600604e-02,1.393976760900109690e-01,4.857955574989318848e-01
3.242253769261108087e-01,6.658673381186046569e-01,4.518085880017108091e-01,1.922197660556923537e-01,-3.282322556955758613e-02,-2.478628398815731215e-02,4.531328976154327393e-01
3.132984231698646704e-01,5.779121267116467120e-01,5.176464383279617554e-01,-2.186774959614524658e-02,-7.646903268399500575e-02,1.346523200385350318e-02,2.778962254524230957e-01
4.355875469650443144e-01,4.742762381661507209e-01,4.571593914475146070e-01,-3.313956579746314603e-03,-2.355816235149970402e-03,-1.049807678779383739e-02,3.883037716150283813e-02
3.744924465363195787e-01,5.408715035724381837e-01,5.666891632765821418e-01,6.927543752513809494e-02,2.082261099473220467e-02,2.207005191833368365e-02,2.231665849685668945e-01
3.556354234098935141e-01,5.200896658105106374e-01,5.686259441570487017e-01,3.172298229323183144e-02,2.310814304391630228e-02,1.278318242675376484e-02,2.061412036418914795e-01
5.010785823032327668e-01,4.542393523380230391e-01,4.574416638670700253e-01,1.185577589131369715e-03,1.249320905472920979e-03,2.024446640685843846e-03,4.555621743202209473e-02
4.447044221102428030e-01,4.445861293688729843e-01,4.879147927971919096e-01,3.968160403598566855e-06,-4.306961370638885678e-03,-5.314914786050702403e-03,4.486263915896415710e-02
4.409801269641789867e-01,4.378492420832220677e-01,4.812570101308503157e-01,-8.278983412399939026e-03,-6.996190306243999131e-03,-1.103540593107099274e-02,4.975879192352294922e-02
4.595865534958719079e-01,4.605294299371376354e-01,4.821979211649463082e-01,1.347346240644741681e-03,-2.863935535215537866e-03,1.978605188204007100e-03,2.307900041341781616e-02
5.880774429731107089e-01,4.940628870009795004e-01,3.468634618377378076e-01,-8.278862918150312403e-04,2.384582500706792542e-03,1.370528405588569143e-01,3.173560500144958496e-01
2.772368883155393871e-01,5.360388744549736684e-01,5.245314198875897782e-01,-4.869929126543034135e-03,-2.155389990416346768e-02,9.904169092105737093e-03,2.566941380500793457e-01
3.863238364328094310e-01,4.945945117308949701e-01,5.153261748739781378e-01,2.322790081935461465e-02,-1.620337979020210293e-03,1.450453023330401138e-02,1.290526986122131348e-01
4.845559117722842979e-01,5.212093164267810330e-01,4.597316048855277781e-01,1.035861671189495514e-01,-6.317398783572426846e-02,7.778517341782435757e-02,2.553122639656066895e-01
4.691922263051594988e-01,4.716730712987301510e-01,4.692755241909976061e-01,1.207677098118570790e-02,-1.421883289344907410e-02,9.549742246538648824e-03,3.638156875967979431e-02
4.851629511738915768e-01,4.183317553720708459e-01,5.145839927293345273e-01,5.979550392317125110e-03,1.085190127764288151e-02,-2.647077346091098772e-03,8.820332586765289307e-02
4.667699884771119856e-01,4.684226624851591803e-01,4.723074893699156229e-01,4.864134303604624072e-03,-4.394689086541919698e-03,6.695461301176243440e-03,1.696026138961315155e-02
4.674835488109334580e-01,4.539467204812464018e-01,4.897146974899311278e-01,3.808638084617628917e-03,-5.103860569657957952e-03,4.278280704041940823e-03,3.398507460951805115e-02
3.868107461420778881e-01,5.031240621919252920e-01,5.164694179105593363e-01,2.410942800148384649e-02,-3.030915032882106671e-03,8.844936559307712415e-03,1.313970386981964111e-01
5.197389275727679614e-01,5.781049525013588486e-01,3.015402303442888399e-01,-5.563737630513059321e-03,1.162510035562598909e-01,7.825802498395734164e-02,3.503731787204742432e-01
4.255288327646343793e-01,4.650906633836501269e-01,5.166837628093671198e-01,2.748681336966825664e-02,-5.236700701839077689e-03,6.022127837279039886e-03,9.341169893741607666e-02
5.979056748847511038e-01,3.233052572161619898e-01,5.889576228173837302e-01,1.911682071486970474e-03,3.457411335610827835e-02,3.592285577871437430e-02,2.837194800376892090e-01
4.400809699893015181e-01,4.370225162895503557e-01,4.901245171995540773e-01,-2.058315597626240393e-03,-3.560707712348994223e-03,-2.484367757946301554e-03,5.230706185102462769e-02
5.158213900742771862e-01,3.826746450233468044e-01,4.892196054419495344e-01,-1.374782191290675097e-03,6.673166959008871787e-03,4.546286269110600547e-02,1.457176953554153442e-01
4.937780501764784669e-01,4.515770583256283333e-01,4.679546753208818632e-01,2.176823937480746717e-03,-3.787961850469224838e-03,4.163461215524336470e-03,3.830487281084060669e-02
4.947831701904002455e-01,4.947881194481022482e-01,3.734794097290154991e-01,-8.539216505557938042e-03,-1.119768861200047885e-02,-9.053713348849893108e-03,1.247238218784332275e-01
5.195918765101276149e-01,3.397053544072225484e-01,5.199613462210550541e-01,1.838934640867547973e-02,-3.298404190375679203e-03,3.198685366829374932e-02,1.911606043577194214e-01
5.205515919457819329e-01,3.640412730710421707e-01,5.147767552960224036e-01,1.683462867391032416e-02,-1.279155698775666372e-03,1.714658493029135727e-02,1.592549681663513184e-01
3.253063801173450287e-01,5.786564624358866427e-01,4.949815450233608916e-01,1.547863435074746108e-01,1.400153911595505563e-01,-7.918353841886956179e-02,4.466409981250762939e-01
4.619608927236578677e-01,4.743443335762148050e-01,4.655680638608187816e-01,1.110945504637959359e-03,7.421982349093535908e-04,3.369729714011413923e-03,1.269301027059555054e-02
5.723102270080061560e-01,2.034891962439538404e-01,5.089906614775255855e-01,1.508204711200461165e-02,2.230227281169349166e-02,1.240179485003713306e-01,4.062027335166931152e-01
4.814289480634703633e-01,4.596990899240056550e-01,4.708312445575568161e-01,3.148455255836983199e-03,-5.083394971322705187e-03,2.821141770415518807e-03,2.203063853085041046e-02
5.543484492565023958e-01,3.799207139563323121e-01,3.630855079856416534e-01,-3.085437769464760213e-02,4.783494792917689781e-02,1.794370692524585031e-01,3.741102814674377441e-01
5.172757532907257261e-01,3.757747236983776107e-01,5.433715084652191996e-01,1.810281238941796947e-02,7.830446058746996438e-03,7.340542972556271528e-02,2.042749673128128052e-01
5.174086287586292521e-01,3.930254550083746579e-01,4.977785324749667284e-01,2.895440456470173719e-03,3.833821086477275705e-03,2.360846800451620042e-02,1.231104582548141479e-01
5.186213133065316061e-01,5.003052852242366733e-01,3.161962921008520944e-01,-5.190696245884659707e-03,-3.770469547956801365e-02,-5.340138237215773936e-02,2.247323542833328247e-01
4.361050362567177041e-01,4.720124634874062197e-01,4.874793680037250443e-01,1.023749965820371435e-02,-6.966803476601853180e-03,1.263919659353303707e-02,5.498382821679115295e-02
4.935031059726793234e-01,4.247094757148539568e-01,4.868493751529495150e-01,-3.204288841015537175e-03,9.903795025172893243e-03,7.578723609832774440e-03,6.940079480409622192e-02
5.824816132269787783e-01,5.751963968850221098e-01,8.132157054264005369e-02,2.208015372955406813e-02,-3.634894995893545727e-02,-1.367390626237427985e-02,5.035381317138671875e-01
5.291881260858889435e-01,5.048280086287111335e-01,3.141702902924666252e-01,9.871179403337761518e-03,-3.211424575269581153e-04,-4.861763972919241894e-02,2.212959080934524536e-01
5.058916504708341755e-01,4.238133703897836169e-01,4.831881248939181028e-01,2.784882436579518439e-03,1.312127150192011994e-03,1.030199226096201355e-02,7.573409378528594971e-02
5.281490012387100030e-01,5.103634854017096156e-01,3.506533396825197713e-01,2.600562376063627126e-03,-4.081161392613333154e-03,-1.802410765998564701e-02,1.723631173372268677e-01
5.009996994395861103e-01,6.343883377426735581e-01,2.214045446319405364e-01,1.733231219314455493e-02,-1.161754800240143576e-01,-6.426029178701835043e-02,4.324816763401031494e-01
3.400595103467808911e-01,5.228045227052218191e-01,4.905073793735428844e-01,-9.289238394668303256e-03,-2.876694149622581811e-02,-7.161341376175358112e-03,1.772908270359039307e-01
7.166813644688396767e-01,6.978784158990948283e-01,2.207152437396874278e-01,7.214257302302343189e-02,3.416669516155294850e-02,-6.218201454911047310e-02,5.174223184585571289e-01
5.029603437130374388e-01,4.429860270244873610e-01,4.397667519348483212e-01,6.014656291050660304e-03,4.008642460145480507e-03,-1.194003267488228694e-02,6.621771305799484253e-02
5.337701299923638398e-01,5.922650386295769120e-01,2.996597490539132380e-01,1.296405914852099238e-02,-7.219807677190451245e-02,-9.037233166154138393e-04,2.967624068260192871e-01
5.146117704317066943e-01,5.057347200869038994e-01,4.001603318625560068e-01,1.359616016101634905e-02,-7.681031732915776303e-03,1.627409106945294087e-02,1.169959083199501038e-01
5.267973439000225300e-01,5.071802617857634754e-01,3.832450783632249669e-01,8.874532226166196094e-03,9.841618511859462695e-03,1.908060283724311718e-02,1.406949162483215332e-01
5.117288857958914861e-01,5.016159228486108956e-01,3.941705982717582657e-01,1.017804763911840139e-02,-1.687230258714758017e-03,2.137168450324068020e-02,1.200954839587211609e-01
4.637714301087844659e-01,4.599019279445809572e-01,4.801432497716683900e-01,-5.094945039017434278e-03,4.369556189547365785e-03,5.468905581315548249e-03,2.390065975487232208e-02
5.283391511710514576e-01,5.364784766724775000e-01,3.457899702946999332e-01,1.324840572974193657e-02,3.643611105976971281e-03,2.593488987025847903e-03,1.883158087730407715e-01
4.501082094056816363e-01,4.818892053978308110e-01,4.726312675875801728e-01,-2.585620590547843111e-03,3.026057276752947348e-03,7.370887194253382922e-03,3.181244805455207825e-02
3.639591866604486858e-01,5.228945681628099917e-01,5.037031011072458098e-01,1.993980454767273550e-03,-1.227926902747414860e-02,6.970443953012993819e-03,1.522780209779739380e-01
4.146550413034228999e-01,3.473193737475262499e-01,5.556669254749601050e-01,1.664466463648301420e-01,3.362712041546158520e-02,8.654317598148978177e-03,3.473385572433471680e-01
4.059073710057100048e-01,5.073337679384857246e-01,5.356729026274517080e-01,5.374242105554625365e-02,3.759100483879539850e-02,1.525600840241656854e-02,1.660330891609191895e-01
4.545295273998007368e-01,4.414803731801854036e-01,5.223190559182998571e-01,1.645840655741504302e-02,1.090342708267428261e-02,-4.386028528546172256e-03,8.292948454618453979e-02
4.250045355514885936e-01,4.506373070383616897e-01,5.075983213689641005e-01,-4.434407841447293372e-03,-1.434854604955151025e-03,-7.004067406991120598e-04,7.367703318595886230e-02
3.289434157154830785e-01,4.883280166045376181e-01,5.429274651786916150e-01,1.293654967767846053e-01,5.628028461802815630e-02,1.679784241111294859e-04,3.111200034618377686e-01
4.722403909961935820e-01,4.722954012173561367e-01,4.633981357828728109e-01,-3.219605841576364969e-03,1.239213984717852692e-03,1.082531673132260076e-03,1.085794996470212936e-02
4.768818634764412367e-01,4.389457651236270408e-01,4.863272194367255774e-01,-3.874005538051953062e-03,1.046057576280845849e-02,2.489807503156707836e-03,4.773441329598426819e-02
3.758842183246333679e-01,4.743016747421393564e-01,5.729551239176574606e-01,1.631047844473104969e-01,1.729694903545596785e-03,4.785359042308103689e-02,3.403176665306091309e-01
4.581240966483344224e-01,4.438109007814605156e-01,5.366793696433880267e-01,7.183511327050025319e-02,-1.492344596906113562e-02,1.300259569203517269e-02,1.554231494665145874e-01
4.562209666857626189e-01,5.105726899668812102e-01,4.312514587047283632e-01,-5.029573353297576814e-03,-2.687005746879380166e-02,-5.037915872226828538e-03,8.516310155391693115e-02
4.601303860839474069e-01,4.556056900202676840e-01,4.859936367712341942e-01,-4.911944333227321073e-04,4.508006538982116049e-03,1.629273686797880812e-03,2.959827333688735962e-02
3.383362304343482951e-01,4.855659869789538674e-01,5.143344478594840119e-01,6.643751460184620095e-02,-3.286136279191797377e-02,2.797258594240355223e-02,2.134681046009063721e-01
4.399200137397334398e-01,5.524387034494881998e-01,5.105805587660315892e-01,-1.114812666977073492e-02,9.048061780181203273e-02,5.304386898173466675e-02,2.075494229793548584e-01
4.288801967087326750e-01,5.199392795981925275e-01,4.721254666179185988e-01,3.515676596998968187e-03,1.408021680088037547e-02,1.007145028103467906e-02,8.461781591176986694e-02
3.941180266261435916e-01,5.093242127154204990e-01,5.056999002642417196e-01,-5.751566010463672954e-03,2.230084419726129433e-02,8.787363126106432012e-03,1.212061718106269836e-01
5.062036703186491016e-01,4.432636547786028558e-01,4.698069225424041928e-01,-1.038088066806907038e-04,3.504321073613039187e-03,3.970988367940394247e-03,5.549357086420059204e-02
4.454849671260462940e-01,4.977728691468109035e-01,4.705496499062375992e-01,-1.061400368197128706e-02,2.963917680250300127e-02,9.962811063084279356e-03,7.295800000429153442e-02
3.832609235775822354e-01,5.475198038238542342e-01,5.206533020222295916e-01,8.108326551682655189e-03,5.793134232487355539e-02,4.315301175565400965e-02,1.978424340486526489e-01
5.197270394408235461e-01,5.233916136268468300e-01,3.376487507956263956e-01,5.308389403001757129e-03,-7.628537450127668984e-03,-3.239704185045073925e-04,1.846418380737304688e-01
4.818543690411093983e-01,4.621554056440311808e-01,4.591549758262941650e-01,1.956646715988593320e-03,-1.031776727460708516e-03,1.638287360207660672e-04,2.170061506330966949e-02
4.466313899024803025e-01,5.213453936799401500e-01,4.726341168763954492e-01,-6.615931620932371951e-04,2.727476980886267902e-02,4.862537997316483847e-03,8.136056363582611084e-02
3.960496271797558365e-01,5.043653252955692112e-01,4.969863881370886194e-01,-8.080784413169291025e-03,2.170725671804478452e-02,2.485154138271223126e-02,1.202072948217391968e-01
3.890663209680095269e-01,5.092064435571096448e-01,5.041258029433756116e-01,-3.573005534610314976e-03,1.925773474723384629e-02,1.116149888935762287e-02,1.239906847476959229e-01
3.775595524206547537e-01,5.147388366131663284e-01,4.700712400223646115e-01,-3.738323335627691864e-03,-2.455531577785585035e-02,-8.872214394801678991e-03,1.295100152492523193e-01
5.069158445148750358e-01,4.093951366096184596e-01,4.801507282760919537e-01,-2.710779275432015703e-03,3.920857765110232797e-03,9.342751504743508975e-03,8.914332091808319092e-02
2.880572014073629616e-01,5.222410102332517567e-01,5.237063310720783127e-01,1.034130669740104987e-02,-2.649015370808933956e-02,1.252398505187201326e-02,2.410060614347457886e-01
3.578831234666730032e-01,5.245135020045502694e-01,5.311062923372122935e-01,1.070530123551035120e-02,-4.455720880600675532e-03,1.117872011143639793e-02,1.722961664199829102e-01
4.938357848177640785e-01,4.479440671149751974e-01,4.697898153558041634e-01,-1.914494479424603841e-03,9.077658936918040281e-03,3.396306909273830252e-03,4.328463599085807800e-02
3.615548879891546386e-01,5.325756285210049290e-01,5.172608904065172375e-01,1.337907728885372009e-02,-8.000114283343941202e-03,9.406947763442499028e-03,1.669070869684219360e-01
5.349552589270920588e-01,5.499266549080265021e-01,3.225754645384538155e-01,4.368351865560955510e-04,3.824378915881347651e-02,7.342647722993578957e-03,2.303454428911209106e-01
4.944820154018345071e-01,5.108979935831881036e-01,3.554883107770364092e-01,-5.117428374916860832e-03,-1.235672552888447510e-02,-6.772941837810385508e-03,1.501489281654357910e-01
3.401418935144092659e-01,5.732375135482093986e-01,5.558533298239203280e-01,3.177616574639380298e-02,-4.527224732057735790e-02,3.023239043515889984e-02,2.500070035457611084e-01
3.421623952315415162e-01,5.195188840294961974e-01,4.685015931296198088e-01,3.155472162087705895e-02,-8.654965165452696563e-02,2.653372974068145262e-02,2.293067425489425659e-01
4.202482122472537829e-01,4.979146921255690472e-01,5.058773176718863729e-01,4.072099172753610580e-02,-1.181853910045141398e-02,2.298022121566852330e-02,1.170120388269424438e-01
3.617823852010280117e-01,5.097349360683235409e-01,5.233821710043059516e-01,-1.606877790356444399e-04,-1.957056863185531285e-03,2.174885809237133566e-02,1.597684323787689209e-01
3.838386591511153689e-01,5.242299364995298694e-01,4.911029886126968558e-01,1.644876856372261970e-02,-2.357763801027963624e-02,5.569815858674813207e-03,1.368533521890640259e-01
5.067346889063966131e-01,4.315410097663459066e-01,4.286612550004054167e-01,-1.104445400576586737e-02,-8.739851198991907891e-03,-2.735555078746527286e-02,9.337555617094039917e-02
4.983921866033497738e-01,4.526618087279297709e-01,4.572467654925554958e-01,-3.543152076433773306e-04,9.550807030219468337e-04,1.622219315050380146e-03,4.374500364065170288e-02
5.076526921678730098e-01,4.537006280390551982e-01,4.331183220529656874e-01,4.998332536700612200e-03,2.450512156877875016e-03,-4.233698030322165934e-03,6.776172667741775513e-02
4.883499153056489739e-01,4.545607674564235423e-01,4.641239837029973447e-01,-1.364803909660135782e-03,6.863147359508897476e-03,2.596503334811721755e-03,3.281997144222259521e-02
5.011366373066985513e-01,4.515051457076464936e-01,4.127420183169450141e-01,-1.353694840730697638e-02,-4.648756011326414181e-03,-1.114718308888303262e-02,8.292825520038604736e-02
4.599383134719414179e-01,4.619137541489813370e-01,4.749256028333492252e-01,5.676310771918022940e-04,6.939757291954755901e-04,1.106600580155380669e-03,1.431781519204378128e-02
5.065419356181064536e-01,4.427961920880553737e-01,4.104399865826824367e-01,3.360192865347028969e-03,8.037909983519408042e-04,-1.946056996867557426e-02,9.135078638792037964e-02
4.748429123400774166e-01,4.719119560119233170e-01,4.645851932652282912e-01,-8.001295918095197371e-03,1.190632548290773175e-02,1.204644489204201134e-02,3.371113911271095276e-02
5.091796358687729063e-01,4.297638298042873450e-01,4.330564105584291390e-01,-1.922907882036882510e-03,-1.104637862196362376e-03,-1.905592900725786715e-02,8.461895585060119629e-02
4.793434772589179049e-01,4.545619637969313676e-01,4.729072789973218782e-01,-1.139963081588300699e-03,8.617810729828706204e-03,1.514365226425051390e-03,2.701162360608577728e-02
5.074493638307906451e-01,4.432961439752144406e-01,4.371972482375006686e-01,3.342487179824220941e-03,3.285151477704362222e-03,-6.109930399201092717e-03,6.871668994426727295e-02
5.075635840364253193e-01,4.432641007412285727e-01,4.408266350930619137e-01,3.346926212725294912e-03,3.541185840037506648e-03,-9.949552273047461773e-03,6.830299645662307739e-02
4.415888291199719373e-01,4.762958718002757719e-01,4.862033543279309922e-01,-3.131004831892546334e-03,3.781134696856400940e-03,1.163325062450505654e-02,4.609657824039459229e-02
5.062187673834767088e-01,4.395533048779726726e-01,4.407165735472649004e-01,-4.888280261930318636e-04,1.789521745470329210e-03,-1.070624063072154152e-02,6.871886551380157471e-02
7.238243177796572780e-01,2.034671734017404754e-01,5.371598356621453130e-01,5.691380925733110357e-02,3.388824768175618257e-02,-9.928003348671801676e-02,5.012138485908508301e-01
5.567628428508538674e-01,1.885613117054888987e-01,6.722294816337227585e-01,-3.993882580304365659e-02,-2.725760930658391312e-02,-1.006786078070473628e-01,4.783750772476196289e-01
5.475639218711126910e-01,3.585912130389066199e-01,5.508786733463406637e-01,3.016889266457492905e-02,3.137983147138483780e-02,4.979758466204414064e-02,2.224231064319610596e-01
5.311705120318783724e-01,2.971813040264044137e-01,5.326382212504666702e-01,1.159889278493455092e-02,8.282119641691310444e-03,7.224850330933623062e-03,2.363525182008743286e-01
5.708315782041565312e-01,3.031001112175392143e-01,5.735160736516732305e-01,3.475999485526701238e-02,2.338227471548649447e-02,5.612505629451813643e-04,2.786969244480133057e-01
5.386384985471285303e-01,2.757341505103647616e-01,5.287569506890202886e-01,-3.582871725599581780e-02,6.924388851984838653e-03,-2.914054478372498855e-02,2.704826891422271729e-01
5.375328936574423899e-01,2.767530010105603289e-01,5.326761131936410543e-01,-3.512452040298805200e-02,6.727417007544866934e-03,-3.110812892364319543e-02,2.711149454116821289e-01
5.642118519151154699e-01,3.603150571287486170e-01,5.666475211070000073e-01,5.507117582746641482e-02,1.470876934017768464e-02,3.353984665842880269e-02,2.349441945552825928e-01
5.275043136638838392e-01,3.346427023398854672e-01,5.350540050926324565e-01,-3.618455478278117653e-03,1.189805117859014764e-02,-1.647080070630452427e-03,1.979412883520126343e-01
4.722998130000951589e-01,4.662431635413368802e-01,4.638255807851718315e-01,1.071638341463774331e-03,-1.950868922311986249e-03,1.305365779640467591e-03,8.783222176134586334e-03
5.336290196945532305e-01,3.754692787802888509e-01,5.227115599741063434e-01,1.969258988148720260e-02,1.214902028458773181e-02,4.434556686847015115e-03,1.583419591188430786e-01
5.300741020847873353e-01,2.949733914622035824e-01,5.228039764211503959e-01,-1.153591135695122144e-02,1.049332772976679234e-02,2.005590082494544679e-02,2.356952875852584839e-01
4.749292565200403660e-01,4.183182369752289631e-01,4.771925740106547353e-01,-2.417028316451348344e-02,-1.750842126279590280e-02,-2.087901690731904653e-02,8.554589748382568359e-02
5.248356298575147516e-01,3.757154447657766738e-01,5.069142329553011361e-01,-2.919855900751873543e-03,1.207422036893159630e-03,6.917252496807085524e-03,1.416300088167190552e-01
4.635669930770100478e-01,4.774780923541463440e-01,4.633323587616038353e-01,1.239560564611785938e-03,3.841891180031014349e-04,-1.885665202082192470e-03,1.457934454083442688e-02
4.635996459297032635e-01,4.808415172992569486e-01,4.585685072036574939e-01,5.063555783303474132e-03,2.878255275104769396e-03,-2.022112987421444477e-03,2.287748642265796661e-02
4.627523068940740392e-01,4.874840134576284290e-01,4.585763547075960567e-01,3.345183203449302381e-03,1.081668495861867231e-03,4.030722815261335475e-04,2.774783782660961151e-02
5.467968232311521959e-01,3.827810191222431602e-01,6.273973643207007012e-01,6.904164671458126734e-02,5.255409909307427740e-02,2.526045256402867922e-01,5.105199217796325684e-01
4.643608847922541250e-01,4.860693083830179839e-01,4.612794948625559832e-01,5.109629357432492539e-03,6.827886923198767458e-03,-4.852335140614652889e-03,2.892167493700981140e-02
4.951312568383146040e-01,5.217668612814304607e-01,3.617586109270312100e-01,6.635008079453991528e-03,-1.242026895942662489e-02,-3.142672839968926445e-03,1.505811065435409546e-01
4.987182638997811335e-01,4.567353623905945903e-01,4.527162341789738309e-01,8.554742435041497346e-04,-1.324076057216080655e-04,1.372165226750893729e-03,4.421932622790336609e-02
4.454906434894370659e-01,4.822376809368756900e-01,4.728439665885795784e-01,6.173913158007288300e-03,4.900442300861608709e-03,-8.585766223463079522e-03,3.874191641807556152e-02
6.858137635762820983e-01,1.337492608429041163e-01,5.682670927804267524e-01,-7.599993761212674170e-02,7.834392993641258601e-03,1.005139778855307017e-03,5.207822918891906738e-01
6.565615475616064511e-01,2.276918269762338021e-01,6.592002747429405174e-01,8.961177567833558677e-02,1.156981312461165534e-01,8.969769777231127728e-02,5.229281783103942871e-01
5.006125333036560709e-01,4.528231133968266264e-01,4.585054699667942546e-01,-3.244858665015317080e-05,2.549862296194125178e-03,1.790914701738997427e-03,4.553780704736709595e-02
5.584276282230097310e-01,3.258738414476968215e-01,5.367085372875459726e-01,1.966496675394059646e-02,3.601155885596244582e-02,5.930002353798585757e-02,2.551513910293579102e-01
5.212963255372602411e-01,4.069259452370888597e-01,4.987694253595629790e-01,1.294004920637456015e-02,3.330410036866595074e-03,2.096542166078279798e-02,1.134279146790504456e-01
5.465655322294326046e-01,2.938826977180631350e-01,5.487685508475772522e-01,1.242413047899614403e-01,-1.231737380232028264e-02,1.122840060719216548e-01,3.860000967979431152e-01
5.880843010346086253e-01,3.577812240655136033e-01,5.572311091441572994e-01,6.207370280014855302e-02,1.335301125901120281e-02,3.942458149403484796e-02,2.522757947444915771e-01
5.602536538208628958e-01,3.995950216070162098e-01,4.878180971047018644e-01,2.361968934247663660e-02,9.686689479295955418e-03,4.871804140412003964e-02,1.688082218170166016e-01
5.164882898597338290e-01,5.164581210313595738e-01,4.082828902771717394e-01,1.519969039485897025e-02,7.491213530626660011e-02,-1.439348588144336201e-02,1.727866828441619873e-01
4.922943479654260934e-01,4.537834776444316653e-01,4.621919059198758561e-01,-7.553202056282495337e-04,4.004746849926326367e-03,1.853855380668013994e-03,3.591808304190635681e-02
5.087781293313602404e-01,5.635326534139523114e-01,4.228689218422962970e-01,1.828297624977389541e-02,6.336560912867927886e-02,2.209385602955614425e-02,1.720325201749801636e-01
5.272031554436191758e-01,5.308844241452470580e-01,2.752125504871197892e-01,4.719109319388482132e-02,9.217388397479131523e-02,-6.630792283529227116e-02,3.313604593276977539e-01
5.690670593197346694e-01,5.846230856246033003e-01,3.084614175181992213e-01,3.615360473481180059e-02,3.177673369509614182e-02,-7.875148679385315584e-03,2.816875278949737549e-01
4.836420954408395811e-01,4.704212138959228406e-01,4.580990131963122436e-01,-4.126584173714783858e-03,2.938169199767921413e-03,3.143737801406949230e-03,2.441664598882198334e-02
5.502805444006511060e-01,4.004232885005132303e-01,4.623133121978442728e-01,-1.251952586379683451e-02,3.969650792243824972e-02,1.093103646233043319e-01,2.409498393535614014e-01
5.277579997794785704e-01,5.298702146102899357e-01,3.498548247133034805e-01,1.088839767888356326e-02,1.755108504720240270e-02,-3.053981132240654595e-02,1.900200098752975464e-01
5.079769696433592552e-01,5.477284467897357567e-01,3.511173620072997048e-01,3.035347832210327432e-02,3.849083469934998225e-02,-2.791373709235569003e-02,2.048577070236206055e-01
4.919533654409610213e-01,4.535760258385182486e-01,4.581658392089518750e-01,-7.617456712133757659e-04,1.999110964864572910e-03,1.730316830824742526e-03,3.661220893263816833e-02
4.829799093067452809e-01,4.667207168174694054e-01,4.578923194630822313e-01,-6.128539952184477654e-03,3.083555751671903950e-03,4.185638057427037290e-03,2.606923878192901611e-02
4.581113106511740529e-01,4.678843431542198950e-01,4.773954170860281732e-01,3.611791595450896102e-03,-2.083028775569321662e-03,6.230977325950214259e-03,2.115542814135551453e-02
4.672584085426401135e-01,4.665810478275023154e-01,4.676464861418354602e-01,-1.580444556572565022e-03,8.575913667701140584e-04,5.346912174793467133e-04,3.380795475095510483e-03
4.630914695858244778e-01,4.660289726575783664e-01,4.721988006610739474e-01,1.227241588172847241e-03,-2.655607162872978492e-03,1.670858821872526524e-03,9.943339973688125610e-03
4.914910707414101854e-01,4.040109123544572967e-01,4.929483004096648635e-01,-5.305221660697952667e-03,-1.066180157565239234e-02,-3.037089060450809050e-03,9.074971079826354980e-02
4.630111076211087529e-01,4.659810748545727965e-01,4.730283630013327190e-01,-3.937188744268087801e-05,-6.427709419269460279e-04,1.677426095030845046e-03,9.439310058951377869e-03
4.594706697125017225e-01,4.458735818918133087e-01,4.855866834168405255e-01,-2.884423196019207485e-03,5.825067230718587209e-03,1.610173785333033963e-03,3.683151677250862122e-02
4.768079834056013211e-01,4.601374297481844455e-01,4.544354098311990109e-01,9.276529469109541515e-03,-8.522265226996552853e-03,1.074126326024403728e-02,3.503783047199249268e-02
4.810017775259965989e-01,4.544821263642250808e-01,4.695521362405905563e-01,-1.536961018536798932e-03,7.837281238955610269e-03,2.270210310864371073e-03,2.715810947120189667e-02
4.569365120171636208e-01,4.982678388228373723e-01,4.545240028412181887e-01,5.484160762711204166e-04,1.748447231588351339e-03,-6.003706134596939860e-04,4.271961748600006104e-02
4.681890067547679890e-01,4.928622723353201507e-01,4.471630547310987414e-01,7.259776441128210252e-03,2.842129639410309952e-03,-2.058924203563110983e-03,4.200837016105651855e-02
4.534199927226260085e-01,4.853842248846516605e-01,4.216580571957944112e-01,-1.109822955567702635e-02,-1.172646148508178082e-02,-7.549001880351187410e-03,6.323593109846115112e-02
4.789879339051819618e-01,5.138828329642924908e-01,3.758680709554827470e-01,-9.379185692245226372e-03,-2.124242824712843300e-02,-5.456309743758716406e-03,1.309834420680999756e-01
4.536961050117708227e-01,5.134786545948095693e-01,4.220592500602693975e-01,-4.301310242888069929e-03,-2.248406442462798360e-02,-8.003267807823561189e-03,9.072174876928329468e-02
4.521343362419199541e-01,4.552159071196482110e-01,4.854897398689662080e-01,6.840784030770389419e-04,6.068658527151565667e-04,1.659468257914186633e-03,3.209458291530609131e-02
4.357592624576584472e-01,4.900069062164233991e-01,4.420444321656630815e-01,-3.569332016995357525e-03,-4.027001773268740377e-03,-6.734710189109258290e-03,5.351909995079040527e-02
4.321939439095986435e-01,4.975508797827765117e-01,4.475686211157033356e-01,-9.351101416647923312e-03,-2.515143851311691173e-02,-8.454071565758961015e-03,7.666548341512680054e-02
4.545686138343708604e-01,4.872933643585761199e-01,4.334651259509913479e-01,-7.522714395871008507e-03,-4.270978213231452388e-03,-3.418657004117166102e-03,4.966318607330322266e-02
4.413137984517653267e-01,4.976337832791741245e-01,4.419957034187507183e-01,-7.344707449878611592e-03,-8.755721388659896964e-03,-5.829862992388830725e-03,6.023109704256057739e-02
4.657596051936362391e-01,4.663113921559904340e-01,4.690427456803504258e-01,2.189718459992119430e-04,3.985162929916281557e-04,-5.803470450444115383e-05,3.146789269521832466e-03
4.356096256852230453e-01,5.547759866398216388e-01,4.596873934603395440e-01,-5.577641243830023382e-03,7.675473015530871745e-02,1.871998821271689609e-02,1.752986311912536621e-01
4.600917207615091709e-01,5.485311764254711120e-01,3.916854058918688430e-01,8.721338418165938688e-02,1.545342357381346010e-01,-2.771254923170005449e-02,3.395817279815673828e-01
3.878369794061468645e-01,4.892417419363737641e-01,4.876226396253358075e-01,2.690860466927768452e-02,-2.206767973533087235e-02,2.109862303246952397e-02,1.228412985801696777e-01
4.664497057936674573e-01,4.554700416083877768e-01,4.743087474761965572e-01,-1.299915659430572442e-03,5.005156938788668519e-03,1.122403477867509568e-03,1.877793110907077789e-02
4.968974734245926728e-01,4.276993128241352027e-01,4.248165538155340704e-01,-9.645459276991948799e-03,-1.001347548338001915e-02,-2.359037871185743276e-02,8.512113988399505615e-02
4.920939137290933352e-01,4.508117580957434756e-01,4.599930604210806240e-01,-1.832992099424091224e-03,6.604202391506787916e-03,5.527892407830623835e-03,4.052267968654632568e-02
4.893232517491178934e-01,4.547431482569114780e-01,4.648121142529879068e-01,-5.957206480043349302e-03,1.364570120571579649e-02,1.032635015009416950e-02,4.397684335708618164e-02
4.926271463671128004e-01,4.668420242090662864e-01,4.515040765425101243e-01,3.040925965592817929e-04,1.782540092571727837e-03,4.995844635055190011e-03,3.715240582823753357e-02
5.014785027614753199e-01,4.508607832109888802e-01,4.579902337372893650e-01,-2.713074203084270535e-03,3.886651550725394189e-03,6.461911300544638526e-03,4.944467172026634216e-02
5.016590177810219542e-01,4.559108405601330904e-01,4.578790558921537746e-01,-2.522288364802186423e-03,3.874448820055537319e-03,1.107131233719713809e-02,4.938187077641487122e-02
4.860560408398821863e-01,4.588595928106780075e-01,4.468884053259696842e-01,6.210400050351040646e-03,1.781814206346609775e-03,-2.575039326419878861e-03,3.679203987121582031e-02
4.683761759078090003e-01,4.675698873445550685e-01,4.660035861317761707e-01,7.168323816426108892e-04,1.627113099007053930e-04,1.254694955635456447e-04,2.456519985571503639e-03
4.884204945591510971e-01,4.562034403531528004e-01,4.591210486455993278e-01,-5.502631068194181220e-03,8.220254277542624055e-03,9.059710601958460841e-03,3.862957283854484558e-02
5.229316865213617938e-01,4.945713640403831546e-01,3.581206098906881685e-01,8.223118490718503773e-03,6.910708612049981658e-04,3.749373445131962829e-02,1.664768308401107788e-01
5.071945765516437943e-01,4.597193667041209464e-01,4.561966311266897889e-01,-1.506481829078552305e-02,3.371122807536927612e-02,5.344161674348515967e-02,1.228485032916069031e-01
5.183681923617849963e-01,4.485920907717975692e-01,4.735182981875009633e-01,1.362864951518672971e-03,9.255242449983195133e-03,3.304048072246057455e-02,8.537176251411437988e-02
4.307464428522284616e-01,4.888828170829958575e-01,4.824887635754868120e-01,1.473657748176980357e-02,6.668469391462364046e-03,-9.369008674712880902e-03,6.400965154170989990e-02
5.067887313387856585e-01,4.189215684833988984e-01,4.652438239811903520e-01,-2.325586802847817453e-03,4.757079010954885431e-03,1.696895204440808380e-02,8.212268352508544922e-02
4.656211098688931016e-01,4.716098922964898632e-01,4.666753733041133501e-01,1.337257992412600998e-03,4.396700467509214089e-04,-1.840748178396781195e-03,6.839078851044178009e-03
5.041482746823016114e-01,4.447187265939063217e-01,4.462757750076697949e-01,2.897009637625363402e-03,2.454016191602756934e-03,2.392337679248272148e-02,7.212481647729873657e-02
4.970805985933684501e-01,5.067890624662984012e-01,3.836731305887453036e-01,1.030202453311088347e-02,-9.246668889066611552e-03,2.387980186436631808e-03,1.210310906171798706e-01
5.053924349312883813e-01,4.283182415031928647e-01,4.633613815902595245e-01,2.600890984951683815e-03,8.041333770223905823e-04,1.364259194364865826e-02,7.105016708374023438e-02
4.862200224277046789e-01,4.797334430209790890e-01,4.380535391429278280e-01,1.205257478495844019e-02,3.531584675320533374e-03,-3.580728993015937309e-03,5.060953274369239807e-02
5.016858527434240322e-01,4.475938113382080807e-01,4.685860715753091266e-01,-5.575901598422102097e-03,6.723385401398602849e-03,2.590597810199352091e-02,6.688312441110610962e-02
4.486800650480715635e-01,4.430021720844016242e-01,5.015622405942119499e-01,2.201916712361756678e-02,7.469422336192452216e-03,-2.458921718677546924e-03,6.905844807624816895e-02
4.336201271163968585e-01,4.752761470562369972e-01,5.034173304496319945e-01,8.988543755171465172e-03,3.266392625738565036e-03,-4.909556023735107229e-04,6.304373592138290405e-02
4.742362913047309392e-01,4.661135639139157294e-01,4.581494589143549345e-01,4.954513312089590948e-03,1.333815508157540049e-03,-1.379640712485896790e-03,1.669685356318950653e-02
4.549045237924387308e-01,4.616463137972035558e-01,5.012308172957367081e-01,9.210987494253605398e-03,3.636350732950420842e-03,-6.376267929725446936e-04,4.663336649537086487e-02
4.748752935126305252e-01,4.604146179165123365e-01,4.625203361607420072e-01,7.170763230320890101e-04,9.124978908679672474e-04,7.579769646333254151e-04,1.374260615557432175e-02
4.274448272673598836e-01,4.625546165530941001e-01,5.061425639697638701e-01,1.631369823659862064e-02,9.272943741809758656e-04,3.124505390898330275e-03,7.411644607782363892e-02
4.560880564985572150e-01,4.569987450822611819e-01,5.014929454712008239e-01,9.414966087686908389e-03,5.323599154368297698e-03,2.412644657359356432e-03,4.888243973255157471e-02
4.565549220123761298e-01,4.488749353009025000e-01,4.945754871990977186e-01,4.800926544229168307e-03,2.207799949882128122e-03,-1.829872722736563271e-03,4.347825050354003906e-02
4.578446792118082698e-01,4.571272336757577492e-01,5.048810732691613179e-01,1.058971175358796452e-02,3.043827578456780990e-03,1.928328484186625676e-04,5.109809711575508118e-02
4.955665133777112930e-01,3.749906868621810663e-01,4.919046297003022428e-01,-1.819530393649869404e-02,-1.560467490265685098e-02,-7.387403928972536768e-03,1.264826059341430664e-01
4.621332943030206919e-01,4.579354946416814842e-01,4.985700938811119531e-01,9.129609620119827351e-03,6.204634255448751232e-03,-3.114958401300503381e-03,4.350709170103073120e-02
4.666051735966520453e-01,4.434616501805966338e-01,5.046900906709094192e-01,3.883295330037631488e-03,4.157488918526833568e-03,1.065316999544957833e-03,5.447936803102493286e-02
4.699309739590433188e-01,4.399862142890112460e-01,5.160645413389584046e-01,1.891405365012648054e-02,1.044423592947587784e-02,-2.246204271119035985e-03,7.630242407321929932e-02
4.708957737575252267e-01,4.276203557320517046e-01,5.137199031998800347e-01,1.019298984850715122e-02,2.895492204423602989e-03,-9.197706921669307435e-04,7.680677622556686401e-02
5.355237737280940102e-01,5.359838006881815220e-01,3.499859727241610985e-01,7.599050907248836376e-03,-1.290163540368043701e-03,5.770822230899449838e-03,1.865153461694717407e-01
5.087496362244673387e-01,4.738364471266825473e-01,4.490063961408250481e-01,-1.847450971346013653e-03,1.301677409729244672e-02,2.561718818083713600e-02,7.203907519578933716e-02
5.149503179741794501e-01,4.996452787009433849e-01,4.043825117653056522e-01,-1.181791339307084344e-03,4.220333416333364208e-03,1.142182344442510371e-02,1.059067398309707642e-01
4.734680392580029595e-01,3.897785342560713961e-01,5.298306050851111504e-01,-4.895940510925644168e-02,7.914758964919397025e-03,1.072148833613391188e-02,1.504043787717819214e-01
3.663947590324193593e-01,4.961840015979783192e-01,5.114984930843540223e-01,-1.090630278537425488e-02,-8.021908883198041948e-03,-4.540374163441928193e-03,1.402824968099594116e-01
4.864621621008696772e-01,4.762776938234759561e-01,4.378982086254613604e-01,1.057664916637759099e-02,3.544512066001593610e-03,-3.678027154519163035e-03,4.880014061927795410e-02
4.384527313481818567e-01,4.900212736872469055e-01,4.398428783329321745e-01,-2.054566129611334977e-03,-1.870817830527021601e-03,-3.650137477509630274e-03,5.150430276989936829e-02
4.957512752915861354e-01,4.680924239429786748e-01,4.386217757728694822e-01,1.491482835125374634e-02,1.570033267246054645e-02,-1.777657056055066687e-02,6.930752098560333252e-02
4.458997856788011194e-01,4.756707105561954751e-01,4.500112023726235422e-01,-2.132752924581635991e-03,-1.852951031149019162e-03,-1.623020836879866162e-03,2.850718796253204346e-02
4.541633731170944266e-01,4.222210252144562581e-01,5.018184792065553124e-01,-1.166388270493492856e-02,7.765822955093666831e-03,2.006732253502898581e-03,7.358452677726745605e-02
4.520252486117551372e-01,4.498852412795276146e-01,4.617756853245038595e-01,-1.288197645904707147e-03,-2.155038117479134239e-03,-4.488911308609302986e-03,1.413784082978963852e-02
4.013313020829097355e-01,4.356557052437997624e-01,5.410934618730505186e-01,-4.697255323320507353e-02,1.600473242520329686e-02,1.116691958163642563e-02,1.538706868886947632e-01
4.533371326162437542e-01,4.141606417368197124e-01,5.124041907067720114e-01,-1.419754315059586040e-02,8.304502286762223406e-03,3.738902351440446300e-03,9.050578624010086060e-02
4.338253963406382696e-01,4.481614006883099521e-01,5.046635158292640533e-01,-7.027524045807071948e-03,3.429356162600138373e-03,6.662603321232237440e-03,6.726540625095367432e-02
4.952404733150379545e-01,4.846536221653747756e-01,4.402819620034882364e-01,2.298087853531044153e-02,-4.201393022006184863e-02,6.053484509997079932e-02,1.429124176502227783e-01
4.353957197910137134e-01,5.028494931104972032e-01,4.411588669897037462e-01,-7.474886421679974172e-04,-1.688120922843229553e-03,4.023763291179151291e-05,6.484373658895492554e-02
5.045177739147268525e-01,4.560560859160716629e-01,4.689733959397213159e-01,1.106649458851976728e-02,-6.307128437184523345e-03,1.672559133571417320e-02,5.670427903532981873e-02
4.491250173753945085e-01,4.682970387036199389e-01,4.498523372167932410e-01,-1.809360116711299137e-04,-6.127654571047537121e-04,-2.861197001027022870e-03,1.949192583560943604e-02
4.972927252837977541e-01,4.396296478732472646e-01,4.515142224086524658e-01,1.537194466446860060e-03,3.266877323439444777e-04,-5.640189112848691642e-03,5.370118096470832825e-02
5.007287919750023075e-01,4.682426173630025446e-01,4.243133638610546154e-01,1.408801304900750284e-02,-5.549863543040302327e-03,1.442126209708731281e-02,7.565686851739883423e-02
4.978467616278628993e-01,4.497180251819289376e-01,4.556580625205584045e-01,1.681132784919239960e-03,-9.027625172728898735e-04,7.768508147979158798e-03,4.751573875546455383e-02
4.984156610020122335e-01,4.494242995146227049e-01,4.577421142150092104e-01,3.484702689170402282e-03,-2.012293139596240017e-03,5.635409500827828072e-03,4.696476832032203674e-02
4.895659484220445945e-01,4.719994359669683059e-01,4.539904946284060161e-01,1.174328952478079918e-02,-5.490243027125152504e-03,1.835655548165500070e-02,4.964162409305572510e-02
5.010857985287417993e-01,4.602891445815602278e-01,4.383225612644615077e-01,7.013503532570984633e-03,-3.808165963660401117e-03,1.817261680802372686e-02,6.499897688627243042e-02
4.768412157307021504e-01,4.765069229616077373e-01,3.987975346687370193e-01,-2.637249636370241762e-02,-3.147873055728087066e-02,-3.748704072462873821e-02,1.238544732332229614e-01
4.436551692373330025e-01,4.439614701885455372e-01,4.750107117095456188e-01,-1.577387503463198405e-03,-2.075231362757882624e-03,-5.071335317084754019e-03,3.272917866706848145e-02
4.964892378551847285e-01,4.372090859365269644e-01,4.668285639346603788e-01,3.926933872731680833e-03,-5.397939350867132259e-03,1.100983224517298673e-02,5.597256124019622803e-02
5.066477730890411868e-01,3.962812806907984875e-01,4.671080804798316000e-01,-4.881502107336145417e-03,-3.454556875466302437e-03,-9.933256893235285767e-03,9.891203790903091431e-02
4.892254053087083387e-01,4.598623812550425849e-01,4.569285656571755450e-01,7.242103623854259653e-03,-4.623702647912206892e-03,8.307501099426524427e-03,3.722181916236877441e-02
4.332977335267904628e-01,4.902979663106045161e-01,4.532940539054123308e-01,-3.207686289339146783e-03,-4.188839434688452525e-03,-7.400604204436117203e-03,5.250617116689682007e-02
5.108569264765947526e-01,4.280414252436891553e-01,4.298258254179103122e-01,-8.994999746198238395e-05,-6.629971235393365518e-03,-2.264434208746956417e-02,9.156423062086105347e-02
5.162361176821602671e-01,5.064928761937691482e-01,3.619883111183093694e-01,1.171993381385983204e-03,-1.845644070901712036e-02,-2.292033009990179782e-02,1.580712199211120605e-01
4.368556848000873516e-01,5.002930945273533769e-01,4.311773710272651661e-01,-5.225518298080474543e-03,-4.649708892433411685e-03,-2.760198029573209064e-03,6.772296130657196045e-02
4.242366387952076767e-01,5.084236998337288149e-01,4.496435385927596839e-01,-3.337094352507446386e-04,-4.908016977891956067e-03,-1.042583446532300206e-03,7.529874145984649658e-02
4.872215346928988056e-01,4.643833050679499475e-01,4.609325581571713237e-01,6.900629498317490708e-03,-4.635400891359854440e-03,5.812428696420755825e-03,3.034750744700431824e-02
4.864020659201749863e-01,4.389661049741679921e-01,4.662348028452486526e-01,4.760130181955350530e-03,-7.168472189960158232e-03,1.083433817174386804e-02,4.769194498658180237e-02
4.431846484317276125e-01,4.672470513314939122e-01,5.048913233861546113e-01,4.125930604694409004e-03,1.831115124059619695e-03,5.080929731505340330e-03,5.514053255319595337e-02
4.480242667281510438e-01,4.594882063975042064e-01,5.048130583232481872e-01,7.521904908510341874e-03,1.468509459354489345e-03,4.629800817479207478e-03,5.427593737840652466e-02
4.502312811723381825e-01,4.432673910487386348e-01,4.998322084963698342e-01,2.093307680802511048e-02,-3.998413988217775113e-03,6.672033261616433335e-03,6.595645844936370850e-02
4.280236768420281335e-01,4.699558049106717927e-01,4.974020689309269216e-01,1.026257682390718101e-02,-5.558986385921859709e-03,7.927288242823501974e-03,6.526618450880050659e-02
4.289073983701776616e-01,4.703064710880599519e-01,5.053023538291600003e-01,1.033046190195830924e-02,-4.461994303715400428e-04,8.922944279494660416e-03,7.033492624759674072e-02
4.919789016581803676e-01,4.522900987546010776e-01,4.176598519642055751e-01,-1.139456612400312728e-02,-4.992246544888599181e-03,-8.464199185440128906e-03,6.948447227478027344e-02
5.027532504697349580e-01,4.535232862981822266e-01,4.279902279996773973e-01,-1.230338684734359755e-02,-1.270885913595014814e-02,-2.177855504877016651e-02,8.181747794151306152e-02
4.909564230650917405e-01,4.539265335164044401e-01,4.309599793710068849e-01,-6.643654200153141162e-03,-3.257142061285321199e-03,-3.924417220454506569e-03,5.440191924571990967e-02
5.022034294260828702e-01,4.498582594314886052e-01,4.265331561038213093e-01,-4.376527210544226866e-03,-1.455813026893138136e-03,-5.391953410687758651e-03,6.823542714118957520e-02
5.006589996921180230e-01,4.400388229446524080e-01,4.343428254339543604e-01,-1.693859200614618700e-03,-8.023970115940597461e-04,-2.203842150442488455e-03,6.385649740695953369e-02
4.855051589470020246e-01,4.494101117962769343e-01,4.600229187626708738e-01,2.278652768979528426e-03,9.754997477607576378e-03,-4.461344938075227640e-03,3.732535243034362793e-02
4.230366310748621128e-01,4.711104761554535392e-01,4.706597179985690937e-01,-5.296754134723311372e-03,-5.349287396174541402e-03,-1.407913542750834253e-02,5.526577308773994446e-02
4.968137449322408417e-01,5.193734952064087418e-01,3.561279765885928539e-01,3.437873448516795273e-05,-1.269970156857522410e-02,-8.257954920568771895e-03,1.554467678070068359e-01
4.843197389156773669e-01,4.533769507718085068e-01,4.336316807443409971e-01,-8.664601744980971951e-03,-4.309073425787488670e-03,-3.041856980868857391e-03,4.761296510696411133e-02
4.564666104034012517e-01,4.554320377230835493e-01,4.551197512072315821e-01,-9.001240456104089534e-05,-8.551814863226646444e-04,-1.378236367878500688e-04,1.940681715495884418e-03
5.171821448190820902e-01,4.968699869233879074e-01,3.681233761216542444e-01,-1.787892718256711829e-03,-7.462020100249541071e-03,-1.205081879061733335e-02,1.421819180250167847e-01
4.678889627674158724e-01,4.498650013799442293e-01,4.490304794136550370e-01,-6.442461258541933543e-03,-7.780289501014447939e-03,-6.940777293713689192e-03,2.812896668910980225e-02
4.587869132543859196e-01,4.614663753958203607e-01,4.409663295585683485e-01,-1.629539306233263041e-02,-1.378784104094170175e-02,-1.556822271045778423e-02,4.966431483626365662e-02
4.590245831401248977e-01,4.652784284823813787e-01,4.484839186669798972e-01,-1.058275231215089450e-02,-9.722206050145443951e-03,-9.496031147371101697e-03,3.325969725847244263e-02
4.682477216866905434e-01,4.452468393075108000e-01,4.384018364796489209e-01,-1.316405487974387292e-02,-1.494034980372333649e-02,-1.323361499028526470e-02,4.947970062494277954e-02
4.325695072006588426e-01,4.473678100678828429e-01,5.279514876938264933e-01,-5.375903188527574039e-02,-1.640993032413400748e-02,-1.937935643890130802e-02,1.360509395599365234e-01
4.814557641874093741e-01,4.773900271324182931e-01,4.026595016019323126e-01,-1.687167666402300537e-02,-1.232591488222903493e-02,-8.071997581873725444e-03,8.608271181583404541e-02
4.444936289299747934e-01,4.372633964737108747e-01,4.909415579874137348e-01,-2.742644784682314596e-03,-1.134615720449920484e-03,-2.586103491224411161e-03,5.091176554560661316e-02
4.626542548495533036e-01,4.872423030114805265e-01,4.588255011982378395e-01,5.678268193051234924e-03,9.309285545369529527e-03,-4.198563013374542567e-03,3.351079672574996948e-02
4.399831516046333046e-01,4.961066312162001890e-01,4.649209007620064837e-01,4.314774291627877616e-03,1.071327544067687300e-02,-5.543182435888667839e-03,5.352100729942321777e-02
4.680510157048590192e-01,4.499859592765081961e-01,4.537440355256271429e-01,-7.564545835681934019e-03,-5.965259278524297042e-03,-6.812542221139962668e-03,2.627226151525974274e-02
4.900177293281678947e-01,4.389957820396541699e-01,4.398612443047072995e-01,-2.118193623961433288e-03,-1.942958152139686971e-03,-5.708479599568872876e-04,5.084873363375663757e-02
4.468488361568574430e-01,4.996707858986892403e-01,4.674972313082501052e-01,1.610901885364785478e-03,3.454438774359773999e-03,-1.459301610105630384e-03,4.664546251296997070e-02
4.387661685482994733e-01,4.398781011623005277e-01,4.908382107900604585e-01,-1.402128890557773023e-03,-2.565404674501964993e-03,-1.183264578751892174e-03,5.181385576725006104e-02
4.722865234370147158e-01,4.862995535602563368e-01,4.591251445717450808e-01,1.231613551614831395e-02,1.634898316056667897e-02,-6.056549009922094877e-03,4.382912814617156982e-02
4.404518235507612345e-01,4.885552724520999535e-01,4.860895488240112861e-01,1.664987927865697534e-02,3.145774659630456993e-02,-1.032403292224587897e-02,7.950845360755920410e-02
4.635081869644520625e-01,4.857146580673816771e-01,4.532695967131775694e-01,5.300342706819356937e-03,3.451056563218062988e-03,-2.399314875048008059e-03,3.102578781545162201e-02
4.442634384891024912e-01,4.986432980593611952e-01,4.675632928054545556e-01,1.376098711282932111e-02,2.250242436749154418e-02,-3.927641263755232877e-03,6.607919931411743164e-02
4.832829714455493808e-01,4.423740494012946001e-01,4.446192518559553553e-01,-1.412786685467665344e-03,-3.950020310000468271e-03,-1.495521467910324075e-03,4.057385399937629700e-02
4.500584262072308550e-01,4.980399611965336537e-01,4.457418476138638175e-01,1.246602892395692538e-02,2.201271257600112205e-02,-6.354256180255813714e-03,6.759430468082427979e-02
3.965767353651362126e-01,5.019686491206400980e-01,4.655295888351642652e-01,3.402220252660513589e-02,-3.650888352237956908e-02,2.770008990662412712e-02,1.355285644531250000e-01
4.449178353630749982e-01,4.726345207240633672e-01,4.171752094226808261e-01,-2.231832488734090264e-02,-3.063989995159083213e-02,-2.145590314180289421e-02,8.943490684032440186e-02
4.606451298443900444e-01,4.608941319271401271e-01,4.413951219505934942e-01,-7.715425867777071268e-03,-5.276306846898521502e-03,-3.458211992571031106e-03,2.594990283250808716e-02
4.462762896690528058e-01,5.005307968682495279e-01,4.394476542434990196e-01,4.286327719427975025e-03,-4.050569270141262182e-03,1.016718851777215606e-03,5.889062955975532532e-02
4.762821904532860695e-01,4.987874352650372156e-01,4.112549409502499476e-01,1.720240582988204550e-02,-1.669473541889871654e-02,1.067473340585109627e-02,9.090788662433624268e-02
4.547664483909059641e-01,4.552882588756249072e-01,4.547705282824546225e-01,-1.870268507540608516e-03,-5.440349009271847319e-04,-4.671786315890347663e-04,3.508073044940829277e-03
4.795942728768496921e-01,5.054685501907846268e-01,4.077795587156713419e-01,1.270822020058121407e-02,-1.134698378216008642e-02,2.803038844627802478e-03,9.262458980083465576e-02
4.506287316198063220e-01,5.019082541426986843e-01,4.301742543941121100e-01,4.638090651441436479e-03,-2.059790779660371912e-02,4.104992393017930716e-03,7.405930757522583008e-02
4.344419855626447946e-01,5.007494510782259933e-01,4.476132802878423633e-01,2.454383687835197739e-03,-5.274300881088150351e-03,4.428266850457463280e-03,6.210606545209884644e-02
4.641895294326642829e-01,5.144181837378507538e-01,4.235451355413926144e-01,5.422046024722920569e-03,-2.557279916954303262e-02,5.705076024603467598e-03,9.145567566156387329e-02
4.808008845899645056e-01,5.140013466451348600e-01,3.858285794434949678e-01,9.508380802615361629e-03,-1.937318029191895455e-02,2.738036371367763479e-03,1.212221607565879822e-01
3.880334820363305903e-01,5.176003872395316119e-01,5.259389186580132325e-01,2.714761116233628882e-02,2.983839153786924450e-02,5.385281333453235085e-03,1.513488739728927612e-01
3.630417842389687122e-01,5.251988540540607486e-01,4.976392831210588730e-01,2.162643010057971934e-03,-7.539002883391168752e-03,1.449373081265362302e-02,1.529712826013565063e-01
4.750357273452116003e-01,4.412917960763901859e-01,4.461963455394573619e-01,-3.267391675181869747e-03,-6.967832459562737016e-03,-6.242027320162714735e-03,3.594129905104637146e-02
4.578348410002811009e-01,4.526772051091519922e-01,4.563329233177711997e-01,-1.566742435663355960e-03,-2.903899486139947458e-03,-1.863093351365912838e-03,8.011611178517341614e-03
3.479763359615740681e-01,5.223202341914952029e-01,5.128913893714250882e-01,-1.793979751864238636e-03,-2.006625757307204869e-02,3.180516626198744753e-03,1.734612435102462769e-01
2.983305334630180772e-01,5.212324318555102698e-01,4.977436397913799770e-01,-3.323319591621575614e-02,-5.883869375292049425e-02,-7.291185616628175978e-03,2.426109611988067627e-01
3.301956180565259746e-01,5.203948325422764754e-01,5.419158402731419910e-01,-7.056151108709375619e-02,-8.724031381065829038e-02,-2.432196085300052102e-02,2.833306193351745605e-01
3.210506012933042608e-01,5.250987081836081538e-01,5.209681634375445958e-01,-9.809040221531633089e-03,-1.773900803707720991e-02,-1.254345924062744535e-03,2.050542682409286499e-01
4.507979429107354941e-01,4.628946656209578792e-01,4.509219623827173118e-01,-3.469363104663451998e-03,-1.017501217017853857e-03,-1.466133005292501353e-03,1.380253117531538010e-02
3.267337510390945776e-01,5.295282001316488074e-01,5.040788548611689901e-01,7.581935451957274273e-03,-4.725495673284288434e-02,6.829072812047685438e-03,2.088629454374313354e-01
4.561191344584863971e-01,4.843732989429061497e-01,4.224796927050117334e-01,-1.235490032857257045e-02,-7.998928334221425476e-03,-1.215271203891652926e-02,6.303418427705764771e-02
4.103276595644704816e-01,4.527075838998489421e-01,4.984696954037342587e-01,-9.679510750158012641e-03,-5.632531101991605782e-03,-1.273228679982776196e-02,8.180594444274902344e-02
4.421745556289349288e-01,4.427198653517106508e-01,4.972398856931060096e-01,-8.793941741167649387e-03,-7.535885048639218500e-03,-7.557741627741251973e-03,5.980123206973075867e-02
4.419473882023807754e-01,4.383049363442703683e-01,4.860944787727517480e-01,-5.451449469485663592e-03,-7.047047500829245123e-03,-3.598441068082399059e-03,4.899000376462936401e-02
4.181452263329220598e-01,4.526891773059206758e-01,4.917408893503318890e-01,-8.715244637744739425e-03,-4.743738956260570676e-03,-1.131318763592846673e-02,6.889601796865463257e-02
4.254142675741386936e-01,4.495874500621736547e-01,4.968987623371580731e-01,-3.829506268423087459e-03,-3.055755205829765401e-03,-8.803223075862117580e-03,6.535186618566513062e-02
4.101085492068554661e-01,4.496482728565741049e-01,4.963813372281761782e-01,-1.076795756556619792e-02,-4.538819801612541463e-03,-1.032863933225774966e-02,7.952906936407089233e-02
4.304580756427756061e-01,4.263479384394879279e-01,5.193054599443190922e-01,-2.258433427456289430e-02,2.606282284479739808e-03,-1.771849162467573719e-03,9.917599707841873169e-02
4.552344864767823851e-01,4.298516243844667795e-01,4.997556813369404272e-01,-2.163774401335286784e-02,-1.133419980441981341e-02,-1.330568163327056942e-02,7.795891910791397095e-02
4.420463602317065699e-01,4.434284715043855796e-01,4.860861426942395536e-01,-9.409842557173246635e-03,-7.185702482950587916e-03,-7.288217774498604619e-03,4.960279911756515503e-02
4.620588387545699338e-01,4.543445071584017447e-01,4.920528243795661005e-01,2.083485016725422200e-03,2.095339147028484322e-03,-5.256867820980670085e-04,3.489350527524948120e-02
4.955686026006090872e-01,3.120885597981489790e-01,5.355544744758877762e-01,-7.821092125446019172e-02,-4.566742846140148943e-02,-5.053840525537160039e-02,2.736241519451141357e-01
5.264708991166177077e-01,3.694370598574888143e-01,4.920515445241971375e-01,1.974271037589786851e-03,-4.608635723586675635e-03,-1.481235108207783029e-02,1.455092579126358032e-01
5.303084022678449250e-01,3.451234260994350267e-01,5.168555587896124237e-01,-9.004430176686093606e-03,-2.844453268867827567e-03,-1.758190967141710914e-02,1.821484863758087158e-01
5.020238193645318869e-01,3.817681808025848444e-01,4.818145121425846944e-01,-1.219031818808608697e-02,-1.237105290606578360e-02,-1.918315490712248217e-02,1.202017962932586670e-01
4.693102864214501180e-01,4.920523790615249915e-01,4.710083638477907120e-01,4.931018208066045849e-02,7.536203371794145123e-02,-2.128782327418848180e-02,1.617830991744995117e-01
4.555542244558269394e-01,4.916843928891580506e-01,4.668471335558425084e-01,2.927454584270534205e-03,3.132329563300987555e-03,-6.335024293689454564e-03,3.464745730161666870e-02
4.615609064008380225e-01,4.915797649906517020e-01,4.582097182525454171e-01,7.311489620708897484e-03,7.100269515702673472e-03,-4.360236459911371112e-03,3.717003390192985535e-02
4.710381216814306660e-01,4.810739134090926128e-01,4.537866278226805328e-01,7.635981251790264004e-03,1.450944985116255082e-03,-9.939981269542473054e-04,2.748941630125045776e-02
4.552303685013318058e-01,5.487995156472437186e-01,4.216303488212362338e-01,2.192757728430486802e-02,4.805079331749351201e-02,8.035367310422975376e-03,1.469383090734481812e-01
5.026603996363508964e-01,4.590755626103201203e-01,4.368174692339788501e-01,8.991616332076155654e-03,1.805800449669950564e-03,-2.916011880511501855e-03,6.035739928483963013e-02
4.257092102620632645e-01,5.064812839447575543e-01,4.604757855042435621e-01,2.644983855117169404e-03,1.406797760708166506e-02,1.314646613958548108e-03,7.446187734603881836e-02
5.527892492549053571e-01,5.287191119178341614e-01,3.321106115207610454e-01,-2.242938578312235649e-03,-1.381213778989847729e-03,-5.581293502338161711e-02,2.309388071298599243e-01
4.613288471288077286e-01,4.985518254801033500e-01,4.471242629882978270e-01,7.986091878926220716e-03,6.651262960198579301e-03,-1.850938789668513844e-03,4.950137436389923096e-02
4.913768205893267460e-01,3.998989596170507421e-01,4.447623174539104829e-01,-2.769605506894478458e-02,-2.625535740440506152e-02,-3.940326694230469190e-02,1.237093955278396606e-01
4.658574859924197176e-01,4.618126131326075190e-01,4.866005282573651058e-01,5.416121124478989052e-03,7.256122799183278849e-03,-5.347883142181689489e-03,2.936485037207603455e-02
3.846344474804740954e-01,5.136031186801559567e-01,5.131057195319175257e-01,4.436191672038819478e-03,8.187382056200828706e-03,7.653923674849951939e-03,1.304028481245040894e-01
5.094771591050137882e-01,4.459933829244783210e-01,4.224136958248972396e-01,2.358323024768896846e-03,-1.194951225102669663e-03,-1.066487180617258640e-02,8.028266578912734985e-02
4.922473546623055141e-01,4.694849133029563859e-01,4.166404317210731234e-01,-1.147065457012105133e-02,-4.515708263911052955e-03,-6.929350362070723149e-03,7.150865346193313599e-02
4.758287819698898691e-01,4.613804117524539783e-01,4.391850566010905843e-01,-6.674414120543286331e-03,-3.765828484854799683e-03,-3.802209790700256976e-03,3.523682802915573120e-02
4.605993946675950856e-01,4.566537368634508431e-01,4.962616539801363857e-01,7.268144701952839425e-03,6.433255189769734352e-03,-2.528737023302591713e-03,4.159203916788101196e-02
4.602070875282492923e-01,4.482675697000351733e-01,4.958686190806271821e-01,6.958869164380588473e-03,6.438110712934183404e-03,-1.602516567649659492e-03,4.601529985666275024e-02
4.609304526177933625e-01,4.520415062141293627e-01,4.872552995687109978e-01,6.084922472193414998e-03,6.417887877769903361e-03,-1.822921931497555655e-03,3.536420315504074097e-02
4.710065440957431626e-01,4.360208749508174275e-01,4.857551062565764743e-01,8.370574063912474688e-03,1.195147953386559679e-02,-5.197885847561286958e-03,5.174236744642257690e-02
4.069610380914829295e-01,4.866738565856831844e-01,5.058038858872170307e-01,4.141497146068843366e-02,2.096579950644247153e-02,-8.246018384706624987e-03,1.221199557185173035e-01
4.907874328759228577e-01,4.496063712054335637e-01,4.307409593043532436e-01,-8.732178133281968957e-03,-3.263372878218170122e-03,-4.756047280555467105e-03,5.618934705853462219e-02
4.792413005517419666e-01,4.390888800707869466e-01,4.869460277458933506e-01,-4.001035069316300104e-03,1.182898980124805211e-02,2.458608478370366036e-03,4.966766759753227234e-02
4.576677736541746033e-01,4.569381401997862913e-01,4.898985442882564656e-01,3.820009940418316648e-03,2.537739893397100016e-03,-4.021936794165886092e-03,3.427093848586082458e-02
4.255156912773562783e-01,4.570326478617830479e-01,5.010399062336491349e-01,2.005069601724427178e-02,2.239878439934736044e-03,-2.900403456680325899e-04,7.441993802785873413e-02
4.539422755744974558e-01,4.557456362515439063e-01,5.021690529499156508e-01,6.545788772963790497e-03,4.194148899509166778e-03,7.249179615041071801e-04,4.924423992633819580e-02
5.070453190519913500e-01,5.131349154701374538e-01,3.715031362672708282e-01,3.079402794399001297e-04,6.297094693461857857e-03,-5.470588099996290081e-04,1.391197592020034790e-01
5.289389184487979234e-01,3.214542956177939281e-01,5.063426069380946304e-01,-2.050574166861182310e-02,4.334872722466753120e-03,-4.545495452110470680e-02,2.153795808553695679e-01
4.804855447842214522e-01,4.490746156280331358e-01,4.464982508525815463e-01,-7.621429941543540060e-03,-6.995938220276653845e-03,-7.053512910618287869e-03,3.930081799626350403e-02
4.910401463381049991e-01,4.729173113733194933e-01,4.167598403233075954e-01,-1.042992753691757840e-02,-5.081695648458401347e-03,-5.444975103545308948e-03,7.065830379724502563e-02
5.407049092142137692e-01,2.993897408449101571e-01,5.364723360437226862e-01,3.927750410506599017e-03,1.419427868732457167e-02,1.242208671012879446e-03,2.405927777290344238e-01
5.701396167956874761e-01,3.189921050433713878e-01,5.470954238939556014e-01,-3.750394029621846592e-02,-9.668653516451975946e-03,-8.102445337232996869e-02,2.863801419734954834e-01
4.684349658229732816e-01,4.143742431363225953e-01,4.939646843540407284e-01,-6.960762888720060763e-03,-1.125983448881109558e-02,-5.060469362011530726e-03,7.454539835453033447e-02
5.198778347071155714e-01,3.403155530525970862e-01,5.350998799614284929e-01,-7.200207160026158258e-03,5.822213327888327294e-03,-2.143144848068529503e-03,1.883577257394790649e-01
4.692535136021913078e-01,4.398114289562603529e-01,4.610214286000602901e-01,-1.154490397539712117e-02,-1.159851378467025886e-02,-1.516775524973413246e-02,4.675304517149925232e-02
5.115270206951849641e-01,3.605819926018917765e-01,5.105563515886596404e-01,-1.944798311650056469e-02,-5.436711455223148561e-03,-1.748279192019910194e-02,1.574138402938842773e-01
4.727371995809747096e-01,4.721109616898431227e-01,4.158367459593031445e-01,-1.283542490803269570e-02,-6.015486479487137071e-03,-5.633914497225896156e-03,6.245355308055877686e-02
4.565447511447823792e-01,4.575743922615755910e-01,4.549342057590423094e-01,2.859984194105987205e-07,-9.410475841805232685e-04,-9.893789292491394008e-04,3.302366472780704498e-03
4.540972973448875738e-01,4.578560224619652175e-01,4.516298166688336724e-01,-3.521883194058330561e-03,-1.936577455835689380e-03,-2.498010156821111813e-03,9.832252748310565948e-03
4.976284694641041062e-01,4.411982606289601150e-01,4.311951653758771541e-01,-7.675955324963766764e-03,-4.475173926376332240e-03,-8.651491640092134547e-03,6.565283238887786865e-02
4.438460051777097237e-01,4.748359351155569397e-01,4.465979932847987111e-01,-5.282463895739230447e-03,-2.513580784455478941e-03,-2.204773646041991754e-03,3.162144497036933899e-02
4.492037027987595410e-01,4.276869874213417022e-01,5.032908501825612557e-01,-3.972689699950286701e-03,-7.448316610013679291e-03,-1.166268771995442217e-03,6.906537711620330811e-02
4.589001553463676886e-01,4.611122167583367459e-01,4.485679121350597542e-01,-6.615677436216694206e-03,-2.102424743724686743e-03,-2.523529859220286116e-03,1.726762205362319946e-02
4.588839967420778043e-01,4.749528054080874861e-01,4.351477996586065045e-01,-6.772036339131139344e-03,-6.011664291490460138e-03,-4.825218328252259617e-03,3.897276148200035095e-02
4.554199308185550299e-01,4.446628953562792308e-01,4.661250353699213367e-01,-4.379088628837304875e-03,-7.364482156579090291e-03,-3.739847465453064682e-03,2.465083450078964233e-02
4.546576488554484596e-01,4.575794194778342039e-01,4.569490035882404766e-01,-9.943809360870754788e-04,-1.009644594924504705e-03,3.084333425493789683e-07,3.621707437559962273e-03
4.804791405359226109e-01,4.635332290695042823e-01,4.589288334631446142e-01,5.459167499214296650e-03,5.882798554944110477e-03,-3.865946692189324834e-03,2.498912066221237183e-02
4.481326896330684040e-01,4.500181760286804389e-01,4.691499933565461133e-01,-6.979251748110667283e-04,-1.280953266597099471e-03,-3.818591567816430679e-03,2.134907618165016174e-02
4.496159237227990713e-01,4.525571163902180061e-01,4.633533477763105979e-01,1.253749161467373942e-03,-1.734092743937479340e-03,-1.304417492177849464e-03,1.325912680476903915e-02
4.545400410100134403e-01,4.583174838561154263e-01,4.957469058542445239e-01,7.357749636625767094e-03,1.847766274331944349e-03,-4.732219251644986281e-03,4.238457232713699341e-02
4.713036395110114518e-01,4.944665244925341430e-01,4.473892011912069533e-01,9.425329143060476311e-03,2.896373956886192074e-03,-2.028588920004188723e-03,4.434376955032348633e-02
4.538197953851103028e-01,4.573756561525055275e-01,4.920926434859371756e-01,6.362265915508410162e-03,3.317048432456535384e-03,-2.838569531261238982e-03,3.898689895868301392e-02
3.850739601176895177e-01,5.239112204995950428e-01,5.099689154973703342e-01,4.654257850567121262e-03,8.248491657629804935e-03,4.277155862064432358e-03,1.336354911327362061e-01
4.482635957183619402e-01,4.644310059382459333e-01,4.535152394327175984e-01,-2.865912702673758996e-03,-3.286737238635999495e-03,-5.849936760658091227e-03,1.907283440232276917e-02
4.595920088103101486e-01,4.593845846506837693e-01,4.860395637491857213e-01,5.557104495346131511e-04,1.241316576060499336e-03,-2.239048981800544503e-03,2.693679928779602051e-02
4.617856709803661031e-01,4.495520605540659353e-01,4.982155669428732225e-01,6.145154831760734834e-03,6.203391872174259837e-03,-7.398492028693028424e-04,4.639875888824462891e-02
4.618805340012614447e-01,4.507576469901923844e-01,4.926987558697389913e-01,5.512134252778879556e-03,6.416671602985032224e-03,-2.259883317338738477e-03,4.057415574789047241e-02
4.734586747343411672e-01,5.085267641744114497e-01,5.575929644914462413e-01,-4.263329528789968487e-02,2.085640547616341989e-01,1.635931689392579325e-01,4.707396030426025391e-01
4.853329260542028067e-01,4.845319655190484798e-01,4.346508895802412842e-01,-7.549703279994507236e-03,4.076009784084556192e-03,5.558390177344754192e-03,5.331265181303024292e-02
2.926615740211988004e-01,3.560781550248550142e-01,5.868791389710853457e-01,-2.115232408335200043e-01,-2.843517760429422475e-02,-2.185818559018286658e-02,4.582713544368743896e-01
4.296305043334979201e-01,4.604190598569193882e-01,4.779977451063045502e-01,-2.265173190208119580e-02,2.076002269574837508e-02,1.825206724728138663e-02,7.503212988376617432e-02
3.992686369979129291e-01,5.071787324503311822e-01,5.014560415304974983e-01,6.091267473870190519e-03,-6.779565927042948900e-03,1.138518826128652461e-02,1.081566810607910156e-01
4.854987448252379156e-01,4.527526848124283632e-01,4.756960282386686334e-01,-1.001499437821088898e-02,1.272760529266087591e-02,1.441494401715494311e-02,4.751468449831008911e-02
4.550912491488758316e-01,4.858435781982899382e-01,4.794624882742460348e-01,-3.579464941620400659e-03,1.737619936893267450e-02,1.505596476983411466e-02,4.913727194070816040e-02
4.857339320105528158e-01,4.939113061212541678e-01,4.209662141750706299e-01,1.168302315668798448e-02,4.615861028395659704e-03,-2.971952370507444964e-03,7.274098694324493408e-02
4.699030062046444245e-01,4.939838654411203844e-01,4.445603057614068709e-01,-6.289803021907204410e-03,1.207077887812922808e-02,9.282230313021720344e-03,5.144598707556724548e-02
4.456551728334903761e-01,4.993838646925358726e-01,4.573235286455282766e-01,-1.971747230937251349e-03,9.213823728636780577e-03,3.646817407128904055e-03,5.198309570550918579e-02
4.185041636357097472e-01,4.835505158506826495e-01,5.153526158335038909e-01,8.461787675103389986e-03,-6.708911777947732728e-05,9.290004801241877677e-03,8.823119103908538818e-02
2.109805138748705455e-01,6.937110907750753119e-01,7.054221619754412753e-01,9.047457115898538405e-02,7.947980682280220144e-02,7.337841024841752768e-02,5.463336706161499023e-01
4.594430088849754124e-01,4.907050200239119753e-01,4.559992389875688890e-01,-5.117414380323885917e-03,3.601725685023431274e-03,3.604139527336362638e-03,3.540173172950744629e-02
4.652708503258071726e-01,4.806883179732965305e-01,4.555035206585368868e-01,-7.079232625903787539e-03,5.217760745242241288e-03,5.036553558313034730e-03,2.813909761607646942e-02
4.650983687821652612e-01,4.936066452550247896e-01,4.552304171025571833e-01,-1.314840629719310613e-03,3.197757351921488335e-03,2.977660619367430202e-03,3.541015833616256714e-02
4.466330300412900134e-01,4.943131169976487937e-01,4.614150670494610029e-01,-4.443470413339388470e-03,6.545779649937547191e-03,6.342423950495465132e-03,4.577711597084999084e-02
4.798835426850490138e-01,4.566904318576232580e-01,4.220370361949173366e-01,-1.266590578084132550e-02,-7.393076117155023691e-03,-7.400296966997168754e-03,5.789680033922195435e-02
4.832681145770298947e-01,5.142072739883274402e-01,4.158977850106265195e-01,4.063273552449364091e-03,9.729552051838018939e-03,2.168665373010079597e-03,8.903935551643371582e-02
4.758318164622962754e-01,4.626954034196739673e-01,4.347576010786257661e-01,-1.552126387230872567e-02,-1.051291607986297623e-02,-1.450915675113846788e-02,5.482634902000427246e-02
5.009738037538900013e-01,4.428435802915059449e-01,4.665170008838249172e-01,1.118502417029342867e-03,-4.125883765470955071e-04,4.707203884596493360e-03,5.132396891713142395e-02
4.721241373980948342e-01,4.901922868973293546e-01,4.124984229040754569e-01,-1.198339232555952448e-02,-7.780833179499589691e-03,-5.365078220200648201e-03,7.521829009056091309e-02
5.228637000271282309e-01,4.971247651582277882e-01,3.672053182787936576e-01,5.869541009297474070e-03,-1.580138299624341859e-03,-1.229987575061707201e-02,1.464590430259704590e-01
4.754613097177426417e-01,4.486299688571842581e-01,4.416181606635601331e-01,-7.641779971817498456e-03,-3.305488685097654478e-03,-3.741321984191472386e-03,3.474455699324607849e-02
4.617889551549300697e-01,4.632357021850212475e-01,4.487819092834913204e-01,-4.302140219427223224e-03,-1.666504986801864256e-03,-2.210200178928304303e-03,1.638920791447162628e-02
4.808506738344250908e-01,4.536536256351112462e-01,4.335754674843078638e-01,-8.745919140082563173e-03,-3.284107593951408974e-03,-2.796046925720429514e-03,4.443153738975524902e-02
4.454258822929967332e-01,4.746422566761678841e-01,4.395544125535212343e-01,-7.536254610809440396e-03,-5.235652394319952052e-03,-4.332904730815265344e-03,3.699402138590812683e-02
4.689717634178789396e-01,4.494613257608098822e-01,4.477692457103974455e-01,-8.387833399240948382e-03,-7.671927313592889763e-03,-8.293380957003052695e-03,3.178862482309341431e-02
3.800976240588830879e-01,4.768617373157341688e-01,5.211624020512054534e-01,-1.963425949638750515e-02,-2.325131781473945697e-03,-6.572994133480343504e-03,1.300573050975799561e-01
4.544843532800941777e-01,4.900488337677332273e-01,4.291565760850276079e-01,-6.875559121449238524e-03,-4.905723290626171421e-03,-2.645244514239658822e-03,5.515530705451965332e-02
4.516089757524686110e-01,4.326873340648144106e-01,5.108847241638018177e-01,-2.584054702125753236e-02,-3.977634292163695871e-03,-2.027454069547100866e-03,8.400139957666397095e-02
4.527577736298601940e-01,4.360820423950516056e-01,4.756194216245036577e-01,-3.032020285494555368e-03,-8.081536648881405480e-03,-3.102357188515918619e-03,3.787290304899215698e-02
4.220362608161778994e-01,4.530203970101791544e-01,5.177933720105248883e-01,-2.691627285921264698e-02,-3.373192103578402049e-03,-3.397874817927025101e-03,9.697792679071426392e-02
4.489381432282822382e-01,4.317730922357482792e-01,4.984880349348400075e-01,-2.647156990144136721e-03,-3.727892132653575202e-03,-2.850461796013903002e-04,6.052532419562339783e-02
4.344670797968021025e-01,5.050526520264818631e-01,4.445357629147314582e-01,3.838944947891602399e-03,-6.675431172332249065e-03,3.814285006969268636e-03,6.778304278850555420e-02
4.112944688129249737e-01,4.520351929744754749e-01,5.074563664447915290e-01,-1.059039239065286304e-02,-1.200576445473522510e-04,1.329197818788579533e-03,8.562140166759490967e-02
4.061964731498092229e-01,4.488861243021087799e-01,5.077665979210373992e-01,-1.544467573827825423e-02,-4.583285335224537675e-03,-5.763738803740363348e-03,9.317295253276824951e-02
4.347842665063597067e-01,3.925389044374485992e-01,5.161096489751501037e-01,-5.115299123776675949e-02,3.664384278428070227e-03,5.020232707300602976e-03,1.407120674848556519e-01
4.537432469729768547e-01,4.217607959454450772e-01,5.151385490235841358e-01,-2.877521670638876275e-02,-3.582562820731686679e-03,-7.579267752774946319e-03,9.721477329730987549e-02
4.593643884326691906e-01,4.195905341078390305e-01,5.083201480319640142e-01,-1.626678438831008142e-02,1.410720304648113710e-02,-2.080158797015729810e-03,8.561326563358306885e-02
7.008871288468306870e-01,6.983054983687615458e-01,2.622536343004335246e-01,4.334315243039360555e-02,1.010063433436300950e-01,6.344466402611341482e-02,4.894813895225524902e-01
4.252604014365630736e-01,4.268007551037928948e-01,5.074175165380214736e-01,-2.322244723516669884e-02,-5.022676830541120477e-03,-4.024980259473415894e-03,9.147536754608154297e-02
4.300720588412389467e-01,4.423080656135854882e-01,4.968201422947224888e-01,-6.826854955692238276e-03,-3.732149779976676705e-03,-7.442203560378680624e-03,6.431221216917037964e-02
4.404752348012479501e-01,4.872525790795842471e-01,4.389659142060516328e-01,-7.400088739228460541e-03,-4.849202611161351067e-03,-4.610186191128456436e-03,5.059238895773887634e-02
4.735648749078421593e-01,4.765537605854487935e-01,4.193673528679835449e-01,-1.583806876179536666e-02,-1.965264796156116281e-02,-1.909111634357684925e-02,7.818516343832015991e-02
4.540554371953249291e-01,4.721925278551984406e-01,4.348077951349416104e-01,-1.029849766397474865e-02,-5.529531936497511339e-03,-4.563563465484330416e-03,3.899877890944480896e-02
5.015414184329572977e-01,4.829033042374287765e-01,4.327552213668716119e-01,-2.235765420733284818e-03,4.040948066455348972e-03,7.674316716885721396e-03,6.354167312383651733e-02
4.517970213970736726e-01,4.267024426387516223e-01,5.080592636046905586e-01,-9.630717237314507032e-03,3.092864480272267125e-03,5.993454793662074702e-04,7.426360249519348145e-02
4.168162592687648660e-01,4.491567186455788785e-01,5.057090617602768567e-01,-1.383586897522332340e-02,9.816306777170151487e-04,4.621193189216939970e-04,8.155260235071182251e-02
5.024509521179720828e-01,4.671421087970080710e-01,4.114711121914006453e-01,-9.785047732751836480e-03,-3.015083071884941575e-03,-6.415577349932700436e-03,8.215622603893280029e-02
4.076305017536322461e-01,4.501003355636757908e-01,5.064100762673200418e-01,-1.249510605721958038e-02,-3.842031634161016760e-03,-6.286767260321686479e-03,8.942692726850509644e-02
5.691645936539182493e-01,3.109102117895514716e-01,5.408933301406481098e-01,-1.373576816392197385e-02,2.505892832442679040e-03,6.540494608683136007e-03,2.467926293611526489e-01
4.460312049655333899e-01,4.785571170323768553e-01,4.496534709259006890e-01,-6.940060060404590683e-03,-6.529584328813477050e-03,-6.907275489207171347e-03,3.699688240885734558e-02
4.459836577220967491e-01,4.848948952714715044e-01,4.426166847402265847e-01,-6.612176389306920893e-03,-6.797066007324562877e-03,-7.183101437686691473e-03,4.561784490942955017e-02
4.509290415911199057e-01,4.683308251559104018e-01,4.488444553425828820e-01,-3.172314998190748671e-03,-7.505276856604577379e-04,-3.229002922673388995e-04,1.938134431838989258e-02
4.574529340456819360e-01,4.925018429319972246e-01,4.557372796168476237e-01,1.860731211579418716e-03,-2.076977587843806380e-04,-1.150959878355624789e-03,3.613850846886634827e-02
4.417407063034932690e-01,4.749350298927409453e-01,4.480736166576017587e-01,-3.098808606142752515e-03,-1.782033105654407890e-03,-5.819120352167329695e-03,3.273642435669898987e-02
4.456419967104655044e-01,4.718437002284386339e-01,4.490895343286818719e-01,-6.025999993352362805e-03,-6.373368432685325852e-03,-8.257470259061325604e-03,3.230229765176773071e-02
4.989042643057953197e-01,5.474755797397408141e-01,3.235966370607060716e-01,-2.791803945506403720e-02,-5.017121195989705101e-02,-4.006345487032031416e-02,2.373010814189910889e-01
4.424226969655067343e-01,5.057146231383904400e-01,4.678628889765388821e-01,1.895615758850923739e-03,3.151778112665698864e-03,1.539354060949957043e-03,5.559318885207176208e-02
5.116549261183724884e-01,4.700465897350543654e-01,3.748762735371003463e-01,-9.771655342867269917e-03,-8.830934001416329213e-03,-2.508331289472654629e-02,1.309826374053955078e-01
4.356649708524309439e-01,5.003716427463074101e-01,4.389642246347174592e-01,-4.013322865794958778e-04,-1.689823343673614109e-03,-1.210698061145362714e-03,6.322817504405975342e-02
4.374595718147618051e-01,5.002108443952509864e-01,4.384341703254407419e-01,-1.201176464537379815e-04,-1.065714716048948808e-03,-2.212177513625745735e-03,6.241511553525924683e-02
5.128978310418953468e-01,5.079119148818842522e-01,3.608577035859752424e-01,-3.693475387237818951e-03,-2.178449257029419286e-02,-2.309087147611155535e-02,1.595217287540435791e-01
4.726780788672776401e-01,5.019352180745650926e-01,4.160648769804891622e-01,-7.738414372078031463e-03,-2.117283516119304598e-02,-1.110272738469331166e-02,8.724507689476013184e-02
4.509261316004987696e-01,4.843453943030823217e-01,4.694733369421564828e-01,1.328757627891733427e-02,-1.163884749641930227e-02,1.678427746161907999e-02,5.120757222175598145e-02
4.522449869191411120e-01,5.378894293518976522e-01,2.706524241114467433e-01,5.578842296132065920e-02,-1.338052020281860766e-01,1.029699607482160301e-01,3.882269859313964844e-01
4.958699847693773255e-01,4.951368993970911569e-01,3.735869015370014701e-01,-1.554313658654993095e-02,-1.565982640501192846e-02,-1.255375068120157325e-02,1.296043694019317627e-01
5.094397618434924890e-01,5.120025132108078081e-01,3.644083402966279417e-01,6.721821942799906073e-03,4.012934013457827853e-03,-7.798447428858904136e-03,1.475759744644165039e-01
4.072364367458977119e-01,5.150981721361302945e-01,5.025169731223944058e-01,2.654575462944706518e-02,-1.828021761991220628e-02,1.548642654040116931e-02,1.194630861282348633e-01
4.170245140433609943e-01,6.489017653624519211e-01,3.486765957137942795e-01,2.040614046287508518e-02,-1.618836185218287260e-01,1.027229531829467607e-01,4.310579895973205566e-01
4.760943390810296050e-01,5.113348277998156499e-01,4.130399249649747695e-01,1.421473680910016572e-02,-7.812841066763807907e-02,5.913059942032614091e-02,1.919568330049514771e-01
5.098627204976120542e-01,6.943199304587105436e-01,3.640127030111711681e-01,1.014417339764785569e-01,-1.768378639031172594e-01,7.961959719995069518e-02,4.752933681011199951e-01
4.616182851743805826e-01,4.598005893776749287e-01,4.606355551384354041e-01,2.392335157645348459e-02,-2.117653260022275483e-02,2.292732562609599983e-02,6.813066452741622925e-02
4.499809183676731772e-01,4.708136526802740862e-01,4.944812330210300311e-01,2.964129058505262510e-03,-1.317323787728726884e-03,9.665399545356943498e-03,4.241511225700378418e-02
4.647059360295867636e-01,4.991730877789837817e-01,4.065434513668731986e-01,1.255389018813072438e-02,-2.191453235211936537e-02,1.232953491118955226e-02,9.457878768444061279e-02
4.696597953160686068e-01,4.916489945515414295e-01,4.124423309580103059e-01,-1.245671547056140770e-02,-8.338453664862646719e-03,-5.024696672978857040e-03,7.593003660440444946e-02
4.695985155728551463e-01,5.051875451708975895e-01,4.003926783618704799e-01,-6.630701988469946649e-03,-9.934580982017606268e-03,-3.874945043470235089e-03,9.482630342245101929e-02
5.077567212069378222e-01,4.089213588002417743e-01,4.507479685029526784e-01,-1.637607448968181551e-03,2.173406566666431783e-03,-1.674849052655592516e-02,9.081684052944183350e-02
3.595503871159198561e-01,4.937591818232810459e-01,4.993751933272562171e-01,-5.474708986789707243e-02,-5.165621493947588488e-02,-1.654736029852071563e-02,1.913518458604812622e-01
3.227074008706585229e-01,5.376732808909875372e-01,5.257579850157690915e-01,-2.762579830327530420e-02,-2.659242109342324981e-02,2.918500302568405747e-03,2.196076065301895142e-01
4.902389283007360099e-01,4.350293087544774284e-01,4.639057580277372028e-01,5.203701291504802748e-03,1.070578627525161156e-02,-4.688273547376293343e-03,5.271347612142562866e-02
4.858861238656528858e-01,4.656998617986961575e-01,4.410943101374701913e-01,1.044896496532464816e-02,2.843671691531466945e-03,-3.945583115971843143e-03,4.368200153112411499e-02
4.155642019749040128e-01,5.075945420183243240e-01,4.542801868598082549e-01,2.244989264739201558e-04,-7.558630430342467600e-03,3.426466511338966368e-03,8.131566643714904785e-02
4.810475705502491595e-01,4.618061010976414194e-01,4.593980137891496285e-01,2.378969317776192388e-03,-3.002892525664939589e-03,1.248821722663029030e-03,2.170431800186634064e-02
4.316521927637313460e-01,4.733977568671993152e-01,4.851059846619522609e-01,1.767639858058508637e-02,-1.657567832913528147e-02,1.251271797498669340e-02,6.782234460115432739e-02
3.405308726651031792e-01,5.185488098224904085e-01,5.188039959859598316e-01,-7.978398094204539395e-03,-1.186796371595850476e-02,-2.214052536805137441e-03,1.799002438783645630e-01
3.241499513932892818e-01,5.313918421925596380e-01,5.027965046115221437e-01,-3.396736887025966767e-02,-3.696531358894027119e-02,-8.580006969127081801e-03,2.135936319828033447e-01
4.391901157092526486e-01,4.898556855642006713e-01,4.382737503638637899e-01,-3.875528550817606849e-03,-1.767730755000631801e-03,-2.138298685397515501e-03,5.179207026958465576e-02
3.388037655914065693e-01,5.126010075066951277e-01,5.055184614474812488e-01,-1.496194603146051502e-02,-2.554861083049173379e-02,-1.084800860288689592e-02,1.789064854383468628e-01
5.017002159892435253e-01,4.949451424340602923e-01,4.899115088659866113e-01,6.450560136643797293e-02,-4.933894697884448621e-02,7.563140916499298816e-02,1.924869120121002197e-01
4.593111784205540227e-01,4.741896150826127587e-01,4.644928591284392949e-01,1.689209839086558158e-03,-1.437551895478418216e-03,4.247667793525386135e-03,1.549226883798837662e-02
4.493118087466650978e-01,5.005604016223573760e-01,4.279670280451134956e-01,-7.390427892927345539e-03,-3.882440854126458819e-03,-1.659083609628534501e-03,6.628152728080749512e-02
4.489503059895495474e-01,4.900411779599665452e-01,4.288866355530055463e-01,-9.457595211842166269e-03,-4.861368133665088138e-03,-2.650460746754585133e-03,5.723422393202781677e-02
4.492502441169071714e-01,5.026626790383010857e-01,4.247872179949236937e-01,-5.162697382690420098e-03,-6.316055650474420961e-03,-1.414695072261659215e-03,7.045281678438186646e-02
4.404139636748430342e-01,4.867649322831094638e-01,4.679348350439825888e-01,3.475704241864762626e-03,-7.709101709683321979e-03,1.031519874820699401e-02,4.651810228824615479e-02
4.903499255805388590e-01,4.413321653444503556e-01,4.601913167629862467e-01,3.395355800609471588e-03,8.883138865279024271e-03,-3.513663457239008144e-03,4.628529399633407593e-02
4.332628568631395338e-01,5.035224650512137856e-01,4.557453636191841073e-01,1.181535319486454877e-02,-1.696098435290409670e-02,7.119880101340215171e-03,7.277482002973556519e-02
4.681357126321861739e-01,4.835287923267688193e-01,4.673337088860853306e-01,1.556176454075426999e-02,-1.602847903591187242e-02,1.585638533585473006e-02,5.001452192664146423e-02
4.602875552734384534e-01,4.918333336176424764e-01,4.559451971040374141e-01,-1.081462372801675212e-03,2.328964721230363834e-03,9.360039284594327390e-04,3.425469994544982910e-02
4.039085542283908370e-01,4.690690930864330199e-01,5.200390542768805746e-01,-1.086626067006254449e-02,-3.097996629357978923e-03,1.823944895490975078e-03,1.027524322271347046e-01
4.493780471721848802e-01,4.921838633849487388e-01,4.518191982967774134e-01,1.196371388527947121e-03,-1.305894333373558295e-03,3.835657392274663836e-03,4.227704554796218872e-02
4.515589138809179004e-01,4.864467460536828214e-01,4.543922559149002893e-01,8.429219251803890620e-04,1.009937864108536275e-03,1.484104789076211902e-03,3.373631089925765991e-02
4.608718229964714475e-01,4.862698165282265395e-01,4.548147272746879133e-01,5.037094598119532841e-03,-4.955125487591354990e-04,1.570304011165984817e-03,3.032879345118999481e-02
5.040115937528889534e-01,5.434460301996173470e-01,3.788156371120161570e-01,4.124941918769791521e-02,-3.083875994897247730e-02,5.321364587182853684e-02,1.965167671442031860e-01
5.035647755712477913e-01,4.919735252087063526e-01,3.956730676623321230e-01,2.075162877475373105e-02,-4.345845032370016479e-03,2.186076257834281347e-02,1.153542622923851013e-01
5.248958036100125346e-01,5.238737974068344849e-01,1.763456417760516093e-01,4.350451652933360475e-02,-7.093313801264844454e-02,1.047656783227940702e-01,4.181292057037353516e-01
5.491224201170183949e-01,4.285335193726678704e-01,4.003102409588109034e-01,8.490477548565217303e-02,-4.559625943696519329e-02,1.240146152720740941e-01,3.045390546321868896e-01
5.557343071971171389e-01,4.759222509477684659e-01,4.205193070215643147e-01,3.152585871358717234e-02,7.003498166805758804e-03,1.061486421657425461e-01,2.253722697496414185e-01
4.727844933605311883e-01,4.667907842477341251e-01,4.669623713969791590e-01,-7.194681211645102999e-04,1.655442978444434006e-03,1.038089476308769405e-03,6.923352833837270737e-03
5.115319848768001831e-01,5.196099081728091651e-01,3.649989684147036395e-01,1.130123628059542980e-02,4.264186315092981759e-03,-6.738290857341975269e-03,1.526262611150741577e-01
5.012591656962555042e-01,4.842078830446810422e-01,4.048316275155677824e-01,1.468524673202742208e-02,2.171406959563635525e-02,-3.357331571628581479e-02,1.157055646181106567e-01
4.970853574967185606e-01,4.578175714640101979e-01,4.448372740403828685e-01,3.379454547603638614e-02,4.426494128603668254e-02,-4.563300151883122047e-02,1.333103030920028687e-01
5.193158324650589686e-01,5.108333707090449982e-01,4.115723257885900432e-01,6.641243285609094160e-02,7.561414123302895307e-02,-2.063560841785312683e-02,2.059817910194396973e-01
4.535003988562444910e-01,5.096935862750585633e-01,4.720321620736013801e-01,1.484190674140302597e-02,2.453074517259250936e-02,-4.239068415381842120e-03,7.056748121976852417e-02
5.077566594837484848e-01,4.419080522906673747e-01,4.675533709186038833e-01,-2.294058401020026942e-03,4.686903128755151582e-03,5.514500072346989815e-03,5.897399038076400757e-02
4.830262486032117497e-01,5.064779879486377423e-01,4.168935726371528205e-01,4.878262639875473317e-03,7.858596038512239215e-03,-3.644581096823723554e-03,8.228581398725509644e-02
4.445782144330568952e-01,4.727302549397673359e-01,4.983509171632977131e-01,1.852666026018880488e-02,-4.441486883441207040e-03,1.284496966845767585e-02,6.127072125673294067e-02
4.597519212315714365e-01,4.589442950223553419e-01,4.876837055410036537e-01,1.035309486777113725e-03,-2.326033067601716246e-03,1.954012046915809108e-03,2.888419292867183685e-02
4.475901913845560798e-01,4.550520783200888153e-01,4.958024461361948410e-01,1.442247727904791624e-02,-7.305445700691524588e-03,9.862651625498427416e-03,5.564435943961143494e-02
4.568673661873534075e-01,4.538298889175741979e-01,4.931913360817123948e-01,4.915047780086965155e-03,-3.427473055432324420e-03,2.554209289683678948e-03,3.957623243331909180e-02
4.691302183880241006e-01,4.388349711607674175e-01,4.961269861715688623e-01,9.812306417237614056e-03,-4.987700484609476105e-03,3.682575449979129910e-03,5.355988070368766785e-02
5.228943076516410216e-01,5.189573842356870470e-01,3.424259522107889198e-01,5.802056047617920771e-03,-5.037365330246551786e-05,-6.728512643410804531e-03,1.791944652795791626e-01
5.269221821230325453e-01,5.109343528599010753e-01,4.109274359560625700e-01,1.009011760365442767e-02,3.119121864055673238e-02,8.437211986062754035e-03,1.236671134829521179e-01
7.154362937752214435e-01,5.115295004569491155e-01,4.210927405965532166e-01,8.364749206967179995e-02,5.653733743147146967e-02,2.721843276419653179e-01,5.665955543518066406e-01
5.179978563757523524e-01,4.968524534013355476e-01,3.669029830194526220e-01,3.442514800929784551e-03,-2.539431244604538861e-03,-1.234117342000249501e-02,1.435048431158065796e-01
4.558273687616651859e-01,4.627827376608126819e-01,4.812626444006470328e-01,-2.609812089439199952e-03,2.233603354667472278e-03,5.744693238775425148e-03,2.555041015148162842e-02
4.588125343085046048e-01,4.583694837246064524e-01,4.814507122479430024e-01,-6.477933256013469060e-04,3.151454903040820654e-03,1.834412630759990571e-03,2.374578639864921570e-02
4.537291035423511865e-01,4.452853996760085531e-01,4.924262709201741584e-01,-4.599706030865926415e-03,7.147087896492389757e-03,3.828999392304522666e-03,4.643503576517105103e-02
4.514887184366584982e-01,4.491180519384110892e-01,4.929499269869099254e-01,-1.076280075468487567e-03,3.817649782393487453e-03,2.431222678735910601e-03,4.344966635107994080e-02
4.587261366983402811e-01,4.524829708873009393e-01,4.856961350863204241e-01,-3.076089098588513388e-03,7.141632738589456927e-04,1.077952491850413556e-03,3.111493401229381561e-02
5.018513130651851561e-01,3.788168055482962204e-01,4.753996426619179760e-01,-2.417136615738670752e-02,-1.068752023060665773e-02,-4.022613075957314627e-02,1.397589743137359619e-01
5.141959531556986596e-01,4.858067843582669632e-01,4.085144544214035500e-01,1.132300681713089598e-02,-2.511379238690605257e-03,8.000454376587142272e-03,9.782581031322479248e-02
5.177273410083002014e-01,5.110055036606879764e-01,3.615221994106091463e-01,6.532121765368945412e-03,2.558435609622396688e-04,3.543634407767129891e-03,1.534963101148605347e-01
4.683115849745821402e-01,5.118503133509039182e-01,4.006619317466426633e-01,-4.115516252122901168e-03,-1.021215480373493384e-02,-2.586901154900156461e-03,9.900115430355072021e-02
4.986021715965286427e-01,4.457373954493254464e-01,4.665533974590626576e-01,3.396793671913205578e-03,-2.178915774561529517e-03,3.831951085563526857e-03,4.712182655930519104e-02
4.367364302651054464e-01,5.023774897395717476e-01,4.279609461329355047e-01,-2.974016558361196154e-03,-7.127894760119515144e-03,-2.480056008966394047e-03,7.182755321264266968e-02
5.187939299332146037e-01,3.493132245025235560e-01,5.103935488683646327e-01,-7.461011900179169085e-03,-3.820974693086232922e-03,-1.773758547615277362e-02,1.688941717147827148e-01
4.987861783484320299e-01,3.824497641343003740e-01,4.792435822352097974e-01,-7.704704580202391059e-03,-1.185538299134793021e-02,-1.658534913455627161e-02,1.143132448196411133e-01
4.890361708255569484e-01,4.392229454898526897e-01,4.706168968520075824e-01,9.094507878298201467e-03,-1.040813411047197476e-02,6.529723973238830102e-03,5.103071033954620361e-02
4.917377625786122364e-01,3.523299104285494421e-01,5.004869893483308019e-01,-4.217414010682105779e-02,-1.848861971480024805e-02,-3.800833958796884932e-02,1.772742867469787598e-01
4.697892277132510452e-01,4.143522226730235181e-01,4.920961287652647065e-01,-6.643471161277781679e-03,-1.149928839211014284e-02,-5.490830378682692338e-03,7.366846501827239990e-02
4.377284526328169556e-01,4.681467154932087427e-01,5.031600237663529374e-01,2.571947685751450885e-02,-1.053699708997625148e-02,1.112233671061649450e-02,7.684350758790969849e-02
4.499398536170594043e-01,4.876797988306693088e-01,4.629447020325437867e-01,2.274874339747062074e-02,2.535831915872382991e-02,-2.482265338519943493e-02,8.020453900098800659e-02
4.773907167326070233e-01,4.695078669575606378e-01,4.622208330109729424e-01,1.616726167014375520e-02,1.138548694402586811e-02,-4.698253562474475307e-03,3.757569193840026855e-02
4.380217216721579154e-01,5.026395605879734330e-01,4.348298653579396600e-01,-1.176848845239329136e-03,-3.005123393110539082e-03,-9.223559628504401399e-04,6.652595847845077515e-02
4.439952577872222639e-01,4.871623486991842333e-01,4.658981818628362137e-01,6.201234735157034987e-03,7.929968272859463235e-03,-9.525702390043053885e-03,4.442844167351722717e-02
5.558136735869533274e-01,5.256214318227658833e-01,2.133766171328691230e-01,-3.659685885633793493e-03,-4.794670178174470498e-02,-1.059292771493576535e-01,3.852734565734863281e-01
4.410801128392151105e-01,4.877789718684565901e-01,4.821893185636085821e-01,6.335699683073701093e-03,6.604720329188571923e-03,-8.050131557724255968e-03,4.895611479878425598e-02
4.179850173468714902e-01,4.867253869380171460e-01,4.791767219185784077e-01,1.050700413162302359e-02,1.985976289521310459e-02,-1.290534245151754925e-02,7.922997325658798218e-02
4.463811092100840039e-01,5.058446917489913819e-01,4.370533018612402509e-01,4.336656044575117400e-03,-4.024083449931214161e-03,-2.797932313122158780e-04,6.544329226016998291e-02
4.671385294257920928e-01,4.600940001160784831e-01,4.845445790204803704e-01,1.451490404738477874e-02,1.009916620426637435e-02,-8.050513397023036435e-03,4.009579122066497803e-02
4.710892052541342800e-01,4.551082142434079714e-01,4.694610537317671639e-01,8.689108626440627745e-03,-9.377143946124478352e-03,6.959943090717087173e-03,2.945573255419731140e-02
4.480341475006834329e-01,4.708096798244023051e-01,5.008111795120779863e-01,1.411635594560501673e-02,1.387311167217607916e-02,1.035418301944065209e-03,5.727595835924148560e-02
4.500408336780213903e-01,5.054561860490275338e-01,4.249544203853309332e-01,-3.497464979156885822e-03,-6.342971373256593368e-03,-1.547393733622627263e-03,7.249097526073455811e-02
4.401945011076103254e-01,4.972029671286807839e-01,4.313704353421714544e-01,-5.551859840125710453e-03,-5.729576422224092608e-03,-3.442761110951650990e-03,6.369762122631072998e-02
4.471645282104296237e-01,4.657273986724098647e-01,4.534276557057257961e-01,-8.995229653789078850e-03,-6.296194287754245528e-03,-8.399765735756020354e-03,2.899796888232231140e-02
5.059332403574650083e-01,4.730575084295162158e-01,4.692785985358770562e-01,-1.026185232228036051e-02,2.155424584090674667e-02,3.789501061073918819e-02,8.507113158702850342e-02
4.692414003736527506e-01,4.494321072812185180e-01,4.882286461656312748e-01,4.296076054573814279e-02,5.242123772876195603e-02,-5.248357137177163401e-02,1.522283256053924561e-01
4.726388246986382713e-01,4.645494989000743535e-01,4.657714467758307664e-01,-7.811058514449723987e-04,1.596244648097753984e-03,-5.234631171303640550e-04,8.206218481063842773e-03
4.643965618210895707e-01,4.558608582375920926e-01,4.842734603180300912e-01,6.921673366962251099e-03,7.588100306782407170e-03,-8.755600414703869003e-03,3.441018238663673401e-02
4.604100975949153574e-01,4.600723535887936699e-01,4.876776525261729001e-01,1.506221548156699581e-03,1.687930155963154096e-03,-2.669184631594699944e-03,2.809929102659225464e-02
4.417358584428296986e-01,4.785817945813584107e-01,4.868477780455384707e-01,-2.677878310082202392e-03,3.668659032685275823e-03,1.027746054550591169e-02,4.592696577310562134e-02
4.660672244540418618e-01,4.572288467157504255e-01,4.813383673987088329e-01,2.825131495294582080e-03,6.481253542781415487e-03,-2.301200542602341737e-03,2.474161423742771149e-02
4.528692079941606941e-01,4.982516373235530427e-01,4.417046332176383650e-01,6.707718221558934060e-03,-7.821757731834983601e-03,7.981856981567707603e-04,5.487549304962158203e-02
4.596919862428262560e-01,4.357607717120364765e-01,5.024960135213152324e-01,-3.022420061810600096e-03,7.715160692232557287e-03,1.986656744914294150e-03,6.039086729288101196e-02
3.985702071852083028e-01,4.024681199210601856e-01,7.086859093898041362e-01,-2.196473213676067293e-01,8.855129651865169260e-03,2.665746454062856846e-02,4.920163452625274658e-01
4.451326865313166015e-01,4.920464407780966720e-01,4.547787511347990974e-01,8.231113369946033848e-03,-8.560210396733654997e-03,6.796719451114116226e-03,4.902127385139465332e-02
4.665379715400226335e-01,4.462328927833204006e-01,4.862361132452637236e-01,-1.202703491401347193e-03,9.371703796998006111e-03,1.697195293424404216e-03,3.842854127287864685e-02
4.292956409924427175e-01,4.395238015168431711e-01,5.008258239507774601e-01,-6.986486508896680089e-03,-2.255478638200692377e-03,-3.218011340229494973e-03,6.842748820781707764e-02
4.545996118310989820e-01,4.352924241845912978e-01,4.977352043950238891e-01,-4.194525692848755961e-03,3.168465797226750411e-03,8.908411630665699762e-04,5.613870546221733093e-02
4.349458476915682437e-01,5.131451074801680612e-01,4.605624806295463003e-01,7.856298829800170691e-03,-2.003611839743264095e-02,8.511606443771753405e-03,7.984346896409988403e-02
5.167070433241149896e-01,5.192919705464800195e-01,3.425806196579260221e-01,-6.914656147840457685e-04,-8.414941313559553757e-03,-9.738468175420376266e-03,1.768478900194168091e-01
4.259215979275974839e-01,5.005144438654677286e-01,4.569175977661910637e-01,2.484475391332795473e-03,-9.502325672937792997e-03,7.850175949479416132e-03,6.846196949481964111e-02
4.830777782386000974e-01,5.022713134124965340e-01,4.338390726858510904e-01,-2.123857226667200462e-03,9.712935139323709485e-03,1.407446530430244997e-03,6.356418132781982422e-02
4.343300804466765364e-01,4.970324121332864720e-01,4.587387207812173018e-01,1.071462635739283374e-02,-1.459634721425239791e-02,7.176919505832325165e-03,6.430380791425704956e-02
5.217149829645693071e-01,5.214179695090257471e-01,3.376490096175438493e-01,5.311773873850009382e-03,-8.208074155594418525e-03,2.524126826357751450e-04,1.846961081027984619e-01
6.814324251849003256e-01,5.618536411686825272e-01,2.439241795544409563e-01,5.379644090096710046e-02,4.189653828356568188e-02,9.838009980419472333e-02,4.431477189064025879e-01
4.630255321434480487e-01,4.629397941204728140e-01,4.753154298662200516e-01,-3.988587666503097540e-03,5.386632607374544461e-03,5.836611919397165400e-03,1.972497627139091492e-02
5.078183498964947695e-01,4.830585977749010662e-01,4.309237172059343646e-01,-1.416669765955747571e-03,4.586189878414629294e-03,7.256800870433883707e-03,6.963506340980529785e-02
4.823660666998500490e-01,5.058378868066294443e-01,4.154078964119104489e-01,-2.395167552904621739e-04,9.656086477092047649e-03,8.087184016769128053e-04,8.299281448125839233e-02
4.579107401268208699e-01,4.629302132031521966e-01,4.813543778618318281e-01,-4.452362106788514302e-03,5.669035356832544635e-03,5.691871185897158167e-03,2.664959989488124847e-02
4.618220126820622440e-01,4.624479216488595057e-01,4.711634497677162914e-01,-3.325326547301165735e-03,1.952299631021482467e-03,4.114894746209646174e-03,1.331210788339376450e-02
4.672745875626566625e-01,4.626927393856460902e-01,4.714012116898451121e-01,-3.229588782078366728e-03,3.375036279480040768e-03,4.089547779545628370e-03,1.313645578920841217e-02
5.100260274020514961e-01,5.217107786836443495e-01,3.722061026922943716e-01,5.760282289254425349e-03,6.710459234910685737e-03,7.947131046345291827e-04,1.448370963335037231e-01
4.584739958266025872e-01,4.625550462590007905e-01,4.745023451902229406e-01,-2.602501988377976371e-03,1.652874039360933923e-03,5.121908973005346970e-03,1.775858551263809204e-02
4.530234216988032192e-01,4.670582021316228571e-01,4.768741050309849849e-01,-1.268468765746953502e-03,2.659355023328874822e-03,7.195686297240258197e-03,2.474809624254703522e-02
4.519360624801542770e-01,4.916360019360325184e-01,4.706455133099287091e-01,1.025657423305121121e-02,2.354113127991964635e-02,-7.513329818523531087e-03,5.771361663937568665e-02
4.985992031661440338e-01,4.882832925902456100e-01,4.290042898109392988e-01,2.854973167429484399e-02,3.333890662214566286e-02,-1.786340675522470750e-02,1.047327518463134766e-01
4.333372432329649082e-01,5.506577968360417685e-01,4.914380998494477515e-01,2.357025733209343332e-02,6.797440374004551367e-02,2.056348993909976833e-03,1.608238518238067627e-01
4.805792148954097787e-01,4.705953815152602027e-01,4.525765211278643951e-01,7.604113972026932053e-03,-1.459177491147976326e-03,2.321616338028886003e-03,2.828919515013694763e-02
4.133347877822939886e-01,5.442495889276196541e-01,3.858582958812327712e-01,7.529078525076997319e-02,1.441619072101165688e-01,-3.154282746585487796e-02,3.222260773181915283e-01
4.678253205529626646e-01,5.113298468079522374e-01,3.898533142687923836e-01,1.826763442043501974e-03,-1.187982864455128934e-02,-2.081072699388124454e-03,1.086775362491607666e-01
5.718417431627864644e-01,3.894598453603403954e-01,4.740859667282120715e-01,7.065038470279785821e-02,-7.727147609542214801e-02,1.885076485217543618e-01,4.055649638175964355e-01
3.779743877556266951e-01,5.160213526384288540e-01,4.643313109700085151e-01,-2.255267974060119491e-03,-2.054221500174317414e-02,2.955665269919256332e-03,1.260975301265716553e-01
4.974402581297762138e-01,4.410914272000304170e-01,3.243936931242005772e-01,9.936528861280771729e-02,1.467618615157907647e-01,-1.387393976898681769e-01,4.187513589859008789e-01
5.989185541717683137e-01,5.468390145354505849e-01,2.758089130089003138e-01,4.583168874558124495e-02,1.182975973790970636e-01,-1.682949864580064181e-01,4.727990329265594482e-01
5.263122959727947192e-01,5.048048939188638506e-01,3.054682448096081027e-01,5.281680924701400576e-02,9.728556541109037448e-02,-8.496519283092299202e-02,3.207871913909912109e-01
5.448853519697538506e-01,4.676592694111185167e-01,4.775518991616882203e-01,1.418071262593723070e-01,2.180069153417232286e-01,-7.206606500295333062e-02,4.730614721775054932e-01
4.381505082195522593e-01,5.037514918248320317e-01,4.365581193529362580e-01,-4.404739381493766336e-04,-1.739123028024509767e-03,2.375489994557229050e-04,6.648542732000350952e-02
3.766727138869103708e-01,5.267561697677327626e-01,4.951503931124371372e-01,-5.543876135588580745e-05,-9.468602176925697625e-03,-1.016676258555852721e-03,1.380309313535690308e-01
3.897291237951097664e-01,5.966144140623323988e-01,4.553644066214347363e-01,8.741199604025617909e-02,1.449355904772241799e-01,-9.521065679472991150e-02,3.829716742038726807e-01
4.919686908932822123e-01,4.551138397617864317e-01,4.457081497929401004e-01,5.639963314333062624e-03,2.469818826860429879e-03,-2.987252955646007777e-03,4.397602751851081848e-02
4.956136648798818434e-01,4.553022566661562021e-01,4.265116650263056641e-01,9.203682399383602067e-03,3.930126317050093576e-03,-1.326991183967722067e-02,6.665755808353424072e-02
4.980036740605935930e-01,4.429317155342428203e-01,4.423119545262819141e-01,-6.774014013573186055e-03,-7.126722029645276082e-03,-8.692986004253970209e-03,5.986795946955680847e-02
4.857603604996702518e-01,4.426926303217930125e-01,4.425958610433049500e-01,-7.659638388469599234e-03,-6.805134004887435084e-03,-9.183398658508104551e-03,4.926408827304840088e-02
4.907352692070638400e-01,4.430531376922072218e-01,4.350065356313621567e-01,-6.483595861878873809e-03,-3.349196836913349851e-03,-5.083245263237568153e-03,5.439938604831695557e-02
4.521241028985115706e-01,5.120966859821134420e-01,4.253673139609448484e-01,4.813141200098700577e-03,-3.493791099763252344e-03,2.797127561437826298e-03,7.776182144880294800e-02
4.975861537949574087e-01,4.376836998140307133e-01,4.401103970651820685e-01,-7.497332786038665795e-04,-3.410361028794384186e-03,-1.567930655119125546e-03,5.909975245594978333e-02
5.075306672494730442e-01,4.856127159796344017e-01,4.015324983206691734e-01,4.453934895202098861e-04,9.416556637358679260e-03,2.267787518703383645e-02,1.058405116200447083e-01
4.150276879760806947e-01,5.067148040006090870e-01,4.538795564278281791e-01,2.888679672235720114e-03,-1.643810097161954933e-02,8.069961268532451978e-03,8.593496680259704590e-02
4.676589236751218515e-01,4.676593187916620042e-01,4.654370153274525190e-01,7.802266352699994403e-04,-4.267874012141748170e-04,7.816439677918852027e-04,3.023798810318112373e-03
5.285676288815570611e-01,3.363504229381919508e-01,5.350124297500139514e-01,-6.214562899033905345e-03,5.305903952166366420e-03,-2.941719203329092903e-03,1.960971057415008545e-01
4.757691570934586278e-01,4.592644908764277334e-01,4.636553245200354390e-01,-2.065851472329066976e-03,5.222787499359835169e-03,3.359423156499065713e-03,1.864690706133842468e-02
5.195375193696180061e-01,2.874519042630621080e-01,5.292203735726851432e-01,-7.512023175176059386e-02,-1.134239598036358883e-02,-2.566403986475739724e-02,2.747649252414703369e-01
5.037052372673882505e-01,3.413639651750396964e-01,5.103910475823666415e-01,-4.625927464100693109e-02,-2.140217413105348701e-02,-3.374846476947097190e-02,1.967118978500366211e-01
5.554520791315438188e-01,2.985971226825655522e-01,5.820750782157309011e-01,-1.984717950099966835e-02,3.446080813431932899e-02,-3.444697559739570160e-04,2.797610163688659668e-01
5.182821594399149578e-01,3.549891431127906172e-01,5.248984968579244459e-01,-6.427470653340284015e-03,9.881602647564735956e-03,1.051316808465325298e-02,1.689296960830688477e-01
5.071004524912520184e-01,3.480091232479421981e-01,5.353934903709349769e-01,-1.419154166539341594e-02,2.790620534687532697e-03,-4.154631209139402403e-04,1.767478585243225098e-01
4.197558256725564818e-01,4.801718672133807875e-01,4.558691589446979275e-01,-1.152606762818528773e-02,-9.123169400463891632e-03,-1.651258691180807620e-02,6.510522216558456421e-02
5.369631517738423510e-01,3.456687975449000971e-01,5.610276659146699041e-01,-5.278821670591013482e-02,2.890363466845542045e-02,-4.819275349956568885e-05,2.294386476278305054e-01
5.102637243099986675e-01,3.642981260663574195e-01,5.250427431337455486e-01,-1.503574475309809103e-02,9.341047195010686310e-03,1.046776053504906018e-02,1.579566746950149536e-01
2.580840712110430424e-01,4.222117784275694619e-01,7.276366359218245927e-01,-1.434493408604071152e-01,2.082132973278547766e-02,-4.837992255868937136e-02,4.903126657009124756e-01
3.835584718760146061e-01,4.912210706808706751e-01,5.631233201046648151e-01,-1.201529094631951511e-01,-5.458398432329367861e-02,-2.240071119896765509e-02,2.797429561614990234e-01
3.251639319147123230e-01,5.437361540877185817e-01,5.953749972555401060e-01,-7.804744420638015656e-02,-2.120379348120906074e-02,6.849425388137337506e-03,2.854662239551544189e-01
3.193641956382570202e-01,5.163954941377622010e-01,5.601378624459054656e-01,-7.460536119312878578e-02,-2.743891820302297307e-02,4.063997955881844260e-02,2.706745862960815430e-01
4.830698134941615596e-01,5.041941019539942781e-01,4.322391578886600194e-01,-8.905111282661584967e-06,8.011539314979145010e-03,1.639338217854224193e-03,6.560768932104110718e-02
4.583205618118175728e-01,4.898174354217019189e-01,4.540715823037964061e-01,-3.618743453663730066e-03,1.276598142982001381e-02,8.466325583949078568e-03,4.344156011939048767e-02
4.487181748288064931e-01,4.623827943352992742e-01,5.131879757829342914e-01,-3.823745718355707479e-02,2.513441651116353481e-02,2.988153432406752408e-02,1.114556714892387390e-01
4.689421912449950880e-01,4.962237192430293264e-01,4.481979535596814501e-01,-1.498920593287774100e-03,4.014633711058887208e-03,2.235647753152112185e-03,4.255145415663719177e-02
3.570808621254538684e-01,4.590641963112613855e-01,5.804176333399334586e-01,-8.295615507911287267e-02,1.044147475766040931e-02,3.736347343914235564e-02,2.503270208835601807e-01
4.830602077386897952e-01,4.960745112049689265e-01,4.318213131363451418e-01,-3.761412071956733542e-03,7.969837344235768811e-03,3.080107161126758100e-03,6.101717427372932434e-02
4.110007319909848023e-01,5.084657712674387486e-01,4.523925722440879649e-01,-7.265375984117674636e-03,5.694035496372757549e-02,1.608386303479556259e-02,1.335646063089370728e-01
4.031538562715450968e-01,5.100586489142694413e-01,5.004963328033125158e-01,-3.295091550272813852e-03,4.426000494430392534e-02,1.566028578743085264e-02,1.309311538934707642e-01
4.574335348372903787e-01,5.042671005237313597e-01,4.475409868123134682e-01,-8.414611681412649622e-04,7.159297572744997493e-03,1.818669447091586597e-03,5.404037609696388245e-02
4.691734534942013646e-01,5.123088443952955595e-01,3.784482088972509484e-01,-1.193674371330965753e-02,-2.290276643463969725e-02,-7.396504846133763675e-03,1.271628588438034058e-01
5.119224277600323836e-01,4.100287625669444269e-01,4.868540163941357246e-01,-2.731842028192815221e-03,9.369253318840422076e-03,9.278040880919284986e-03,9.487052261829376221e-02
4.612524503693999356e-01,4.933082692495880939e-01,4.492665858013547564e-01,-5.084597651152259444e-03,5.579390675445970900e-03,5.213648768008435908e-03,4.251996800303459167e-02
4.515543054253255417e-01,5.000709726578311809e-01,4.658569260287883651e-01,-3.148473017262660208e-03,1.843917158776461201e-02,9.668554001148176383e-03,5.652173981070518494e-02
5.199687232928908998e-01,4.193203932720735438e-01,4.409118351273348391e-01,2.674015196979919601e-02,-1.406972187037504492e-02,6.573705111197453155e-02,1.553260833024978638e-01
4.501658513019063945e-01,5.032507516958526494e-01,4.588079234237777415e-01,-1.842985726724120444e-04,6.133976352946646921e-03,5.229048114014100707e-04,5.047501996159553528e-02
5.067728034237749535e-01,4.475902291684161205e-01,4.742461553420279641e-01,6.594952367183921568e-03,7.833682699459606352e-03,3.186569382020744412e-02,7.743640244007110596e-02
4.980019139525287408e-01,4.062260077317760287e-01,4.927377925001825698e-01,-5.943741278898311345e-03,1.879364541167052524e-02,1.402364708621826710e-02,9.860519319772720337e-02
5.016848091147751987e-01,4.557842234536461645e-01,4.472401904777925652e-01,1.171275695203923776e-03,1.914655031616768798e-03,8.010750150356911459e-03,5.272257700562477112e-02
5.052577075423981823e-01,4.223345715752254148e-01,4.642308232508881027e-01,-1.981178152403743540e-04,5.559095340499467172e-03,1.479702643162298173e-02,7.685738801956176758e-02
3.370184441038782119e-01,5.143300364663083712e-01,5.076172658250327485e-01,3.991286006468995617e-02,-5.012171294744371952e-02,2.998216121511697654e-02,2.128536254167556763e-01
5.018715417047022731e-01,4.536003847620962426e-01,4.574450491278072017e-01,1.400487908745849577e-03,1.372935945394256844e-03,1.941346792380224196e-03,4.671343415975570679e-02
4.958015972438660213e-01,4.827763453102236202e-01,4.324540012508626963e-01,-4.945923858881781307e-03,4.265953380798969893e-03,7.680803543846411417e-03,6.051795184612274170e-02
5.052966031550475412e-01,4.216350928194779746e-01,4.654801775187076274e-01,-1.035196767111776174e-03,6.561106546917200473e-03,1.470219169613999968e-02,7.768086344003677368e-02
5.021433613638729421e-01,4.562800968321681361e-01,4.550897463814819743e-01,-1.659705339348866858e-04,4.984079793892297154e-03,7.638590576794257979e-03,4.908257722854614258e-02
4.863051532179074599e-01,5.067656494414428670e-01,4.033253960646175917e-01,1.445431319632459882e-02,7.194239484954983999e-03,-1.983127310120395490e-02,1.047089770436286926e-01
5.571504143433385625e-01,5.125552720147225072e-01,2.453330685240848741e-01,-9.774173372863553116e-03,-4.192358488642364961e-02,-1.233079088956541836e-01,3.694416582584381104e-01
4.625881314137122446e-01,4.798968563389709452e-01,4.571970078474139054e-01,4.624222384080845134e-03,-5.361710496577127942e-03,4.745467434603683511e-03,2.529668249189853668e-02
4.937694865564980495e-01,4.859510319472734041e-01,4.281306624598240629e-01,1.054324658602293421e-02,-3.292570004654720058e-03,5.763340624984193347e-03,6.574223190546035767e-02
5.019545131680325234e-01,4.564864871860853657e-01,4.546607760007528309e-01,1.004016912043465427e-03,1.291231779457881158e-03,1.570159993309572189e-03,4.657368734478950500e-02
5.514448802285727425e-01,4.474662847509136565e-01,3.526115929945999872e-01,-2.099669051416495208e-02,-3.107842178737554861e-02,-1.078692234724582810e-01,2.622962296009063721e-01
4.602226789552615882e-01,4.698479400986629861e-01,4.673572940950492249e-01,7.276215872243686940e-03,-8.760540163567689595e-03,1.095659818321641568e-02,2.870693430304527283e-02
4.680382204597128282e-01,4.039818949977297957e-01,4.955119432123474832e-01,-8.321291870211961275e-03,-1.308974227866718451e-02,-1.084609750472847849e-02,8.770719915628433228e-02
4.625986022427313049e-01,4.542612860856189427e-01,4.482981214877441167e-01,-4.638395136900767650e-03,-2.281320202163992453e-03,-8.789742987958389054e-04,1.540331635624170303e-02
5.616781086057754946e-01,5.301699785282377730e-01,3.352454780549022351e-01,-7.438017624213710127e-03,-3.208732295326834766e-02,-7.207758973247793688e-02,2.529235482215881348e-01
5.021125154497365628e-01,4.330458515012654552e-01,4.834578530820539122e-01,2.626717768744527438e-03,-2.673348628745834347e-03,7.076008074351987191e-03,6.342029571533203125e-02
4.515633681162642410e-01,4.970632820324610290e-01,4.448647361154325908e-01,3.330745485589617968e-03,-1.066125886662315633e-03,5.546454746449291408e-04,4.957333207130432129e-02
5.635946735135888286e-01,4.982075125264899262e-01,3.177951029029114638e-01,-1.765920430362402649e-02,-2.210284649819486621e-02,-5.073090262994922606e-02,2.423691302537918091e-01
5.038951686890872361e-01,4.896012304864361120e-01,4.468262856122864890e-01,-1.532296510543525690e-02,4.141689103526447618e-02,3.395060843387649741e-02,1.093335375189781189e-01
4.763799412949213385e-01,5.613632249833544474e-01,4.153918593965356676e-01,2.420206983270784679e-02,-7.530996817684948441e-02,3.087681164863248159e-02,1.943110823631286621e-01
4.608414400532855892e-01,5.004105749646815537e-01,4.417489745545248869e-01,8.067820565372205502e-03,-4.352530980469343155e-03,2.014167444419083866e-03,5.431376025080680847e-02
4.646931437188273062e-01,4.869360813662440557e-01,4.413204001581009783e-01,8.660658551529077515e-03,-2.726392910163823874e-03,2.022663502746536307e-03,4.266738891601562500e-02
4.505746236817552708e-01,4.199606804049578201e-01,4.813390364644339336e-01,-1.126740026771767648e-02,-1.386524249807370886e-02,-5.640211185591823169e-03,6.227773427963256836e-02
4.795897747932614807e-01,4.987881616249445482e-01,4.117197358990296596e-01,1.898063462228891454e-02,-3.126588768076214719e-02,1.079506944253873224e-02,1.031551137566566467e-01
4.631994811375350074e-01,4.720050013532751665e-01,4.655611509336562426e-01,-2.718748637861652384e-03,8.296927195256393033e-04,1.138135714049302080e-03,9.510255418717861176e-03
4.618998537025973961e-01,6.055435665842332504e-01,3.253014196239152334e-01,-6.625762253239977917e-02,2.026164927247800784e-01,5.871958384572498885e-02,4.534188807010650635e-01
4.154484661227462738e-01,3.694125074681719467e-01,7.317293805002722529e-01,-2.268420837992621009e-01,5.814696967521050530e-02,6.754417598799826450e-02,5.430608391761779785e-01
4.645694132548754962e-01,4.996247789602195621e-01,4.486996007969532574e-01,-7.755730960843595402e-03,2.923142241975308642e-02,1.878534959630880422e-02,7.641728967428207397e-02
4.695610355657237611e-01,5.449899961001177795e-01,4.125216313052926242e-01,-7.764205733965188474e-04,6.947871357383328395e-02,7.901175815957513227e-03,1.670820564031600952e-01
4.634343237461111542e-01,4.816153834829297598e-01,4.614830938272346250e-01,-1.244251534199287273e-03,2.095627435280297997e-03,1.847172591051059447e-03,1.994716189801692963e-02
3.387583176518964567e-01,5.460009484411431080e-01,3.784773665346594651e-01,2.373151242004232706e-02,1.659398241658446294e-01,-5.302158132044950669e-04,3.472666144371032715e-01
4.449954212951584553e-01,4.393918551527303817e-01,4.957391999037145669e-01,-1.379986138554058564e-02,8.462874189072887993e-03,9.575043011129420398e-03,6.286406517028808594e-02
4.497881848149908879e-01,4.875417312260148517e-01,4.662776175946039547e-01,-8.895309651136034529e-03,3.628436647684255001e-02,2.596101263357687358e-02,8.534438908100128174e-02
3.942286607327800119e-01,3.701402800761613432e-01,5.841927385684129170e-01,-2.350907538077022241e-01,-1.828023965905872772e-04,-3.014421094441576895e-02,4.580083489418029785e-01
3.749706023113785758e-01,3.509907202593004483e-01,5.197974660732503915e-01,-1.982643499580845903e-01,-8.233123019042348778e-02,-1.088025603067641067e-01,4.458680748939514160e-01
4.010545599180403986e-01,4.369596332272203121e-01,5.210690109372736467e-01,-7.444370805913975986e-02,-4.595506467219086233e-02,-1.741087930701391839e-02,1.877608448266983032e-01
5.565116691037903518e-01,5.598942498203834939e-01,5.885667398719995891e-01,-7.542258830197097474e-02,2.157043200537389349e-01,1.755482281290599578e-01,5.000328421592712402e-01
4.703930831650662281e-01,4.821628919178030381e-01,4.596410054505497556e-01,-4.359970568470239970e-03,2.895629935196429670e-03,2.770619644376288646e-03,2.204306051135063171e-02
4.703900940292200517e-01,4.902229947384827424e-01,4.408784941259146772e-01,-8.914040814963499273e-03,7.277825517960118291e-03,6.246412588379839440e-03,4.862008616328239441e-02
4.424950826246846769e-01,4.469588500598645764e-01,4.757034170854492761e-01,-5.074136439289863090e-03,-3.599725999110313813e-03,-6.684711868036787713e-03,3.499507531523704529e-02
4.676991494009796191e-01,4.825974954082402624e-01,4.595334554826231988e-01,-5.396408772937338373e-03,3.524711457616352614e-03,2.644002561443136237e-03,2.357755973935127258e-02
4.024675040436878626e-01,4.587281270475673245e-01,5.947016766795900633e-01,-1.134372488393554645e-01,-2.082654562657280765e-03,2.930542661792787194e-03,2.606661319732666016e-01
3.538207645508369414e-01,4.493593145357476226e-01,5.085117376077634699e-01,-1.071380236091252353e-01,-7.097821019907228635e-02,-4.805246771456320870e-02,2.734126448631286621e-01
3.717303888083661745e-01,4.808446232044870650e-01,5.238365611323380078e-01,-4.800044900809303378e-02,-2.455992547509097332e-02,-3.405279710369535535e-03,1.649295091629028320e-01
4.394107420694689514e-01,4.129944425096936378e-01,5.264451762800710366e-01,-5.314733748649226597e-02,-2.206187534910061115e-02,-2.112793667721647728e-02,1.478012502193450928e-01
3.341114840775867290e-01,5.169888085405802691e-01,5.020857995575630506e-01,-5.314342449533953489e-02,-4.538697919814602133e-02,-1.651496252782040652e-02,2.154335826635360718e-01
4.680970723681820989e-01,3.840491340127092923e-01,5.042513302633345740e-01,-4.158065872574169541e-02,-1.215374426765720647e-02,-2.445531579046927514e-02,1.372372359037399292e-01
4.987158829755947154e-01,4.548160433955775739e-01,4.570491251387489018e-01,3.199402484863265311e-02,3.851925107200915299e-02,-2.469520668478344602e-02,1.057627573609352112e-01
5.061186469314228331e-01,4.829063053269496142e-01,4.290042237233724354e-01,-1.859342255963431596e-04,2.194490525813612598e-03,7.773778148805925332e-03,6.993773579597473145e-02
3.940141071564272623e-01,4.291698157698181637e-01,5.343202259876586036e-01,-5.801905629791476171e-02,-1.238109386570771832e-02,-1.814823479284761315e-02,1.659390032291412354e-01
5.481166928533239835e-01,3.726936536353844254e-01,4.260053008376500916e-01,9.526762921277301399e-02,-4.070559752760243705e-02,1.444954437938284764e-01,3.451067805290222168e-01
5.007329921880795398e-01,4.656201543955231226e-01,4.413046102830175954e-01,2.794667508197374618e-03,-9.335474836323540658e-04,3.618579393348116471e-03,5.237625539302825928e-02
4.662344052935832317e-01,4.624054631315179797e-01,4.715903153600251030e-01,6.653567358450697064e-03,6.942569343098891309e-03,-5.552668889075046410e-03,2.082686126232147217e-02
4.722047192681399497e-01,4.607189633887691094e-01,4.704857161642371222e-01,2.326786189482747593e-03,-6.255197306261050041e-03,2.245301112755449836e-03,1.624444313347339630e-02
4.691115895535062363e-01,4.659577191497326076e-01,4.719020706168837176e-01,3.678835091203564757e-03,4.637708262545721209e-03,-3.448779643927996769e-03,1.293612178415060043e-02
4.705109948692186017e-01,4.624761172442707902e-01,4.655221792900587352e-01,1.794863314125840197e-03,2.696530107198262787e-03,-2.374076362868375676e-03,9.886868298053741455e-03
4.692146333760310317e-01,4.624858626202534850e-01,4.680685600261076384e-01,2.699681579331343530e-03,3.237742872371404766e-03,-1.499222924291559230e-03,9.946605190634727478e-03
4.687606236640995405e-01,4.584197210040141801e-01,4.716052630545518598e-01,3.324257608654712735e-03,4.660702483330957796e-03,-2.517747334210273472e-03,1.617955602705478668e-02
4.695307346187574948e-01,4.688958599011599504e-01,4.683163453776505447e-01,3.580626943783111506e-03,3.250624622978886494e-03,-1.987736186328493797e-03,9.117151610553264618e-03
4.970191330780213135e-01,5.178644622752142102e-01,3.616450215118655054e-01,5.677313575175418382e-03,-1.281531170098979856e-02,-2.368722209959856113e-03,1.489591300487518311e-01
4.887151739144676710e-01,4.600936740384858337e-01,4.596542684808673784e-01,2.450470024955850919e-03,-2.607460639340163523e-03,1.046822334434279302e-03,2.955771051347255707e-02
4.891326848431470364e-01,4.598879170725751475e-01,4.544322770704682379e-01,7.214359037813043544e-03,-2.942757152080940561e-03,4.952769330358280757e-03,3.605939075350761414e-02
4.797068793567587086e-01,4.866075666774721253e-01,4.374658990536335335e-01,1.178638303105392429e-02,-3.708428815063240149e-03,4.079918437154569574e-03,5.129681155085563660e-02
4.692487757443353780e-01,4.664929259792643390e-01,4.673428995849287504e-01,4.185707721591697301e-03,3.866785326117234533e-03,-3.766721272190369420e-03,1.208121981471776962e-02
4.601400569161591680e-01,4.797325464147841334e-01,4.558274047131043449e-01,5.562830030298603415e-03,-3.229406965032674201e-03,3.330058662811122717e-03,2.538406103849411011e-02
4.691135742042671364e-01,4.613072307994156018e-01,4.712386458700739689e-01,2.193378218126571227e-03,3.632845641646244381e-03,-1.230939517698943081e-03,1.185812056064605713e-02
5.087700328356554724e-01,3.908925579164166386e-01,5.320256455984898603e-01,5.283863810935865435e-02,-8.353744642972319237e-03,4.414904632584234351e-02,1.777913719415664673e-01
4.154768943282866056e-01,4.583188738258299200e-01,5.150928923410973415e-01,5.056474642145029896e-02,-2.620493313927090267e-03,1.378117793169525082e-02,1.255060881376266479e-01
4.019555389415226943e-01,4.792976961711849504e-01,4.741231898696617320e-01,-1.363253934586263622e-02,-1.429113509643506474e-02,-1.630222584600659122e-02,8.703972399234771729e-02
4.835772280586622673e-01,4.929642370898016934e-01,4.113972224224213825e-01,1.751271832391435371e-02,-1.314414517837291484e-02,1.398157459056499630e-02,8.944533765316009521e-02
4.425539276538298372e-01,4.755961027374966399e-01,4.716473183938315050e-01,1.961749960572901560e-02,-1.983008538114496705e-02,2.324679436951988462e-02,7.023088634014129639e-02
4.533657967509985287e-01,4.508235624012955078e-01,5.130146045049159831e-01,3.146972928156867993e-02,-6.322389557295670856e-03,1.267505665469548758e-02,8.537566661834716797e-02
4.666166003430989306e-01,4.666073510481051900e-01,4.597434160103321954e-01,5.610021793257235351e-02,-4.570069655197735170e-02,4.896360162497129243e-02,1.514821648597717285e-01
4.237626723129364614e-01,5.028042112497582705e-01,4.713948774985264323e-01,4.515311280215976442e-02,-4.942010544680316975e-02,2.497479838795964302e-02,1.416550129652023315e-01
4.649322316734496585e-01,4.744527780086373325e-01,4.584443467513441561e-01,4.695223760372302553e-03,3.167199284719213366e-04,1.129782602150500217e-03,1.627166941761970520e-02
4.531244140169436441e-01,4.768462555467434805e-01,4.641979010651519633e-01,3.995137374959172386e-03,-4.246762858707671222e-03,7.427099142434417066e-03,2.627048082649707794e-02
4.676476291017350739e-01,4.663608675154736205e-01,4.682942594923802937e-01,2.263066256544240596e-04,9.192873263916813377e-04,-6.122463584073296590e-05,2.367720939218997955e-03
5.137204088947053826e-01,4.461032259388394983e-01,5.580957326333878532e-01,9.937786843550176774e-02,1.763815830077976798e-03,5.889831435813239202e-02,2.226792275905609131e-01
5.622095632123094155e-01,3.903806782708893475e-01,5.526858399968380686e-01,1.002790211265280756e-01,-4.422692161046396647e-02,1.073109977790223518e-01,3.139459788799285889e-01
4.016492082956284460e-01,4.128453148168480524e-01,5.605032149361934835e-01,1.376408027934451495e-01,-3.545960415449444375e-02,8.651350440574329115e-02,3.265613019466400146e-01
4.820987137202267236e-01,4.633375584072321751e-01,4.624098552888585845e-01,-1.017484969137372923e-03,2.019908210034402577e-03,1.523928531300373619e-03,1.981311105191707611e-02
4.451411119745015688e-01,4.502759028966720201e-01,4.921968443438611840e-01,-5.262975926640033400e-03,2.370711886295062687e-03,5.430882249090502288e-03,4.676994308829307556e-02
4.661283016846174410e-01,4.657970162234798539e-01,4.678727744535994826e-01,-2.978703680155043478e-04,6.924213294830440957e-05,1.650196966056905303e-03,3.490109927952289581e-03
4.662545853313872501e-01,4.697063444225952900e-01,4.675113743113377685e-01,-1.791706064296555607e-03,5.299620587171976951e-04,6.153686619733866230e-04,4.556892905384302139e-03
4.779081389067713626e-01,4.929436031989867795e-01,4.277331551701634149e-01,1.537593597560318881e-02,-2.075652820979558000e-02,1.544435447373347300e-02,7.883743196725845337e-02
4.635396334157562692e-01,4.857833225445994385e-01,4.395944361113619525e-01,1.082069576817321077e-02,-6.347319759450518670e-03,3.117805246520886572e-03,4.584837704896926880e-02
4.549316031913361313e-01,4.791910610641467727e-01,4.517369804015567425e-01,9.530931458368254242e-03,-1.014174691894605476e-02,8.799997140375668062e-03,3.859569504857063293e-02
4.517028644618799604e-01,5.069962032301827959e-01,4.240172433673430330e-01,1.784497116135097886e-02,-2.441600805087347156e-02,1.330098605303231887e-02,9.289337694644927979e-02
4.546418560017544408e-01,4.911546458265299564e-01,4.674146033470888972e-01,9.661493165592154736e-03,-1.069812815441318135e-02,9.287646712152191480e-03,4.372782260179519653e-02
4.719938327344422313e-01,4.630924667104596160e-01,4.667651738160553676e-01,-2.772204339922380942e-03,1.624991615308655482e-03,8.509663438790054414e-04,9.653007611632347107e-03
4.810697054510356119e-01,4.597692957901682864e-01,4.659209852434653687e-01,-9.745388466395128908e-04,3.482252385744327456e-03,7.442928853231512612e-07,1.999361440539360046e-02
4.552826859867049603e-01,4.958646782756435112e-01,4.499351665531612365e-01,2.342979298946136317e-03,-9.903644736837696402e-03,8.072026131231785362e-03,4.897647351026535034e-02
4.656653022693864052e-01,5.121279392022803911e-01,4.249341936630454120e-01,1.009612780350463077e-02,-2.281689735042115308e-02,1.235860234289056468e-02,8.964434266090393066e-02
4.819315486892544742e-01,4.596285071191872351e-01,4.620157151052236566e-01,-9.436787008150805418e-04,2.086939852438718900e-03,-1.200764759229650122e-04,2.157923206686973572e-02
4.526099994057316556e-01,4.936754411287697097e-01,4.469099955693204840e-01,5.663707173068223411e-03,-6.243625535022214942e-03,5.475244788236695304e-03,4.749789461493492126e-02
4.449803492931153071e-01,4.567817039173900917e-01,4.676506636705366482e-01,-3.207186781143447993e-03,-1.860044415186447222e-03,-9.253664514283310369e-03,2.614962868392467499e-02
4.554853161715108900e-01,5.147380743554315075e-01,5.257969357437733970e-01,-4.378361618021654050e-02,7.010269181312482611e-02,5.683417902653965098e-02,1.856690794229507446e-01
4.606777515057515204e-01,4.865640727025152268e-01,4.452954921023689616e-01,-1.243596571256137991e-02,2.826484413852508107e-02,1.939289833650831296e-02,7.275866717100143433e-02
4.960635683015572339e-01,4.652746819418284163e-01,4.549297720909984410e-01,-2.702521344972882121e-03,1.221343895033984378e-03,1.925385207680190697e-03,3.756312280893325806e-02
4.922477457516286625e-01,4.477441267820527759e-01,4.671804206648078051e-01,-1.561207708427894041e-03,7.151546529932802446e-03,4.005370948536585499e-03,4.125810414552688599e-02
4.150955688368338503e-01,3.853761279440146015e-01,4.857844253559694403e-01,-1.289614934783989419e-01,1.120742338124273013e-01,1.359957906316484055e-01,3.886395096778869629e-01
5.049523667944963989e-01,4.423248855320744966e-01,4.697112351832242183e-01,8.941913168060775918e-04,2.426563967926005476e-03,5.042325716582038778e-03,5.525770410895347595e-02
3.888442200964853934e-01,4.455753240067540921e-01,5.483294916216917558e-01,-8.153178668570806864e-02,7.058168941046798206e-02,2.557720306113784106e-02,2.376055419445037842e-01
4.935285183646809792e-01,4.877859438796377511e-01,3.602469063538975558e-01,-4.109244720087553565e-02,1.226771408844391231e-01,1.514431893270840601e-01,3.688516020774841309e-01
5.016728566709183212e-01,4.580691785250614045e-01,4.478629192275124238e-01,3.435116784414335780e-03,3.585101521462579757e-04,7.317419624796558594e-03,5.144801735877990723e-02
3.180662617429551586e-01,4.918249819195706918e-01,4.625705977772743283e-01,-9.647331539903912512e-02,1.668050288217337862e-01,1.037696854846722055e-01,4.119007289409637451e-01
5.060931095198593077e-01,4.659502832666693184e-01,4.434815408507371548e-01,1.566351943519864133e-03,9.092917600335953098e-04,5.030777000116958692e-03,5.571370199322700500e-02
5.020741041554354078e-01,4.591543438955284495e-01,4.574748649982494642e-01,3.597983691956967330e-03,2.897614720058126585e-03,1.192470420399064507e-02,4.906760528683662415e-02
5.009475590342743478e-01,4.592407198990505757e-01,4.529394940014262461e-01,3.027260730992319994e-03,1.039345440743200729e-04,1.634885764277143510e-03,4.557975381612777710e-02
4.932450663520190348e-01,4.868151087168186009e-01,3.463415665846820701e-01,-2.271802403089241348e-02,-5.620543259685871484e-02,-6.691633096111976320e-02,2.124529629945755005e-01
4.521347148330356336e-01,4.626851742804015677e-01,4.481451233257856548e-01,-1.436489054684738330e-02,-1.388139090055833490e-02,-1.856752064834235258e-02,4.899702966213226318e-02
4.497785475119233101e-01,4.651268578807968845e-01,4.472996132989815465e-01,-7.017048620383797841e-03,-6.188686062522511140e-03,-4.968542565074314001e-03,2.482818625867366791e-02
5.082794615272555605e-01,4.688160368447872872e-01,4.418257181007824719e-01,7.728257940745781283e-03,-2.585002899582109197e-03,2.974385464020978288e-03,5.980581045150756836e-02
4.939123581469860857e-01,4.708107883934708471e-01,4.451892674950256312e-01,8.751554156306098203e-03,-1.587766892353847069e-03,3.768843150147054965e-03,4.540910571813583374e-02
4.439231445278126187e-01,4.582211872798130914e-01,4.690663816257495400e-01,-1.797303289289817457e-03,-4.734228546838969119e-03,-8.138942996035288674e-03,2.743672952055931091e-02
5.424280763613235079e-01,5.382104982298463458e-01,3.736072688457092172e-01,3.346447633464670612e-02,-2.717159587716954164e-02,6.664324636918185496e-02,2.161127179861068726e-01
4.798099726424479017e-01,4.728704416844845548e-01,4.526468379159961364e-01,8.296590418628287805e-03,-1.252540276439880005e-03,1.769841031426222381e-03,2.860240265727043152e-02
4.219246291819634953e-01,4.769297140944215307e-01,4.517317891438156763e-01,-6.463309132890862792e-03,-9.270417575318904910e-03,-1.536576098620176523e-02,5.801676958799362183e-02
4.923279200290700541e-01,4.683101341152430264e-01,4.449934208749100062e-01,6.874984455250495938e-03,-1.233747385184304039e-03,4.352612916685701799e-03,4.340204223990440369e-02
4.821574480772213289e-01,4.498165926661927272e-01,4.698677512849748217e-01,4.599807041089850300e-03,-7.726753437095312468e-03,7.081019334302749574e-03,3.453278914093971252e-02
4.693093946143454542e-01,4.684963728572401620e-01,4.680430435079050988e-01,4.207291118409371006e-03,-1.080275540564155186e-03,4.306447347367747987e-03,1.065253186970949173e-02
4.353098813532842448e-01,4.785867885909302899e-01,4.529294733461382005e-01,-2.594651321816454029e-03,-2.757134066482790254e-03,-1.019388248918344161e-02,4.213747754693031311e-02
4.012939215578032459e-01,4.496156227994755894e-01,5.091645674633952234e-01,5.618078218137371321e-02,1.565217068650961996e-02,-5.817149843952234244e-03,1.380720883607864380e-01
4.806499819869896051e-01,4.655838262460983423e-01,4.592588951872972891e-01,2.977159696614875648e-03,-1.069278363832034924e-03,2.616271351305029321e-04,1.981191709637641907e-02
4.726836452064195337e-01,4.613640072724316532e-01,5.561433929376845553e-01,7.524266790366557212e-02,1.076535212285276155e-02,2.023183823582302976e-02,1.630902737379074097e-01
4.772773708664150849e-01,4.729531264658298206e-01,4.569124851836716128e-01,7.844241847009806104e-03,-2.044985245620347877e-03,2.215924069619894677e-03,2.360589243471622467e-02
4.172304911187726395e-01,4.803600054103460693e-01,4.691119968188037781e-01,-1.043672116715609575e-02,-6.602435039918730028e-03,-1.552004150604257074e-02,6.769002228975296021e-02
4.720102372500715182e-01,4.654913066618319717e-01,4.655306359616048772e-01,1.311126215789142546e-03,-3.825131664971222569e-04,-4.121445019166210342e-04,6.953223142772912979e-03
3.846867283098638901e-01,5.045387629973809851e-01,5.138689102656319729e-01,6.248007021613468694e-03,2.189620840376910182e-03,1.568710945073114021e-03,1.253342628479003906e-01
5.559041068093790727e-01,3.691693204107885373e-01,5.453657030998457778e-01,4.944515784288781857e-02,3.845114354538740897e-02,-5.085341531853827118e-02,2.292186766862869263e-01
4.652840667443490785e-01,4.717057571297521013e-01,4.655993547829179180e-01,1.643554937288131419e-03,-5.439438634133688701e-04,1.981144823881723482e-03,7.751069497317075729e-03
4.713051674861074569e-01,4.259836372577905927e-01,5.075948390269244825e-01,1.072290684071878358e-02,1.122686834187219210e-03,1.928184471510557482e-03,7.331822067499160767e-02
4.708855156306844258e-01,4.631725159157236149e-01,4.712486558628974920e-01,1.133073266490477148e-02,-8.482230231965365644e-03,1.317971073629932433e-02,3.441712632775306702e-02
4.677440811542055710e-01,4.686058084554373115e-01,4.667050108223896876e-01,8.656345554301248532e-04,3.392597752222889355e-04,1.764179530132630608e-04,2.324708038941025734e-03
4.587869875175386025e-01,4.408295182188780026e-01,5.133755230446798157e-01,5.231993111579383293e-02,-4.263598467631589221e-03,2.056378141523969305e-02,1.175496429204940796e-01
4.716173241475199451e-01,4.287620878700469373e-01,5.042296483724519884e-01,8.868768347147127848e-03,6.569781636162245510e-03,-7.381388275822730553e-04,6.829955428838729858e-02
5.211031850245116948e-01,3.508302406914435845e-01,5.464518792980913586e-01,6.417947566865118969e-02,2.090722956518272641e-02,6.934381686308002495e-03,2.185503095388412476e-01
5.497699949378940243e-01,4.349555562352869220e-01,4.445087496969176155e-01,-1.051207294853090390e-02,4.437560039901000675e-02,1.008849929157781544e-01,2.212446928024291992e-01
5.014565266311790115e-01,4.569255664094005187e-01,4.541301346455394183e-01,3.967446130670679045e-04,1.043194064670897652e-03,2.429592646985263057e-03,4.622499272227287292e-02
4.981509809416050372e-01,4.577478499299554304e-01,4.543791378463197805e-01,-9.283721229315671690e-04,8.499952123981266297e-04,2.310340812867082809e-03,4.243387654423713684e-02
4.984633267145817670e-01,4.577451775837380610e-01,4.540364892683223519e-01,-5.964243838913822456e-04,7.078996460445211632e-04,2.536257442181220987e-03,4.294882342219352722e-02
5.011939785562729011e-01,4.554287136647853229e-01,4.488233217382359141e-01,-9.820828942153948804e-04,1.669447329370462880e-03,8.177413430608997807e-03,5.150002986192703247e-02
5.003425939816508183e-01,4.471233000210027009e-01,4.572254067091376384e-01,-2.229383640495010202e-04,2.974752947431767800e-03,7.803216666411123305e-03,5.104983970522880554e-02
4.894958234142145481e-01,4.641595207195717832e-01,4.721167837711485182e-01,1.399857814775590063e-02,-9.262704989769004679e-03,1.305981965237673972e-02,4.313454404473304749e-02
4.192471665339568276e-01,4.833923296910373479e-01,5.102757684871617183e-01,7.323638972987224147e-03,-1.692731598256015961e-03,7.978254821485442766e-03,8.319990336894989014e-02
4.517706554459813839e-01,4.614977629586673458e-01,4.876353194332554986e-01,6.821100199437567235e-03,-2.243276694799410925e-03,7.803973149827178081e-03,3.700562566518783569e-02
4.824959908053126911e-01,4.630943228094226427e-01,4.638750134377196410e-01,1.967329993963991708e-03,-2.881515803504109893e-03,7.020567745065586611e-04,1.999716833233833313e-02
4.615937248120449143e-01,4.757668098598479833e-01,4.722644682123044446e-01,9.888603494850519218e-03,-6.721906353823456359e-03,1.001732771407009767e-02,2.989063039422035217e-02
4.656130403905061055e-01,4.700285540312000299e-01,4.672391545484133046e-01,2.465012596759387931e-03,-2.190146833040928359e-03,1.162696425991195616e-03,7.185788825154304504e-03
4.736911424159784278e-01,4.525599007339405899e-01,4.681602142406121603e-01,4.414068485980704622e-03,-6.758815419505412661e-03,6.681623275668028585e-03,2.626164816319942474e-02
4.643190805813584565e-01,4.628342313001788111e-01,4.814895484171136664e-01,7.878797345207890369e-04,-2.798696226169386427e-03,2.092197100859824466e-03,1.900046132504940033e-02
4.741017243844988793e-01,4.612794280387306212e-01,4.691938368886368615e-01,2.513896981030066917e-03,-4.843957959252825039e-03,2.230275887037641569e-03,1.516052335500717163e-02
4.630739575398895025e-01,4.695035768492220596e-01,4.679397020199648205e-01,1.863009565263388937e-03,-8.248099156558811110e-04,3.235751483699258416e-03,8.808757178485393524e-03
4.772482461515515362e-01,4.724081777594201781e-01,4.564825932679024700e-01,7.655904926262118923e-03,-2.388714875862825091e-03,1.965534800118902675e-03,2.363636903464794159e-02
4.118653753583843002e-01,5.036768303638863298e-01,4.763260237498739280e-01,5.267402259992094715e-02,-4.612392596074541690e-02,2.919406332961208342e-02,1.546902656555175781e-01
4.545638861638013895e-01,4.800766163696991162e-01,4.574512702268228592e-01,2.566032914863556648e-03,-4.152420734036666936e-03,5.800864561963183647e-03,2.753185108304023743e-02
4.539640426246544513e-01,4.768770802488975780e-01,4.645757282958367096e-01,4.396242103952500112e-03,-2.721414140838368002e-03,5.647409782114894486e-03,2.388196066021919250e-02
4.629466991576353663e-01,4.697418438239158722e-01,4.647778642848279240e-01,5.567803033385959870e-04,-2.132888677122228831e-03,1.899199430531407903e-03,7.904597558081150055e-03
4.715997143263097047e-01,4.686351267209402094e-01,4.635672037789667077e-01,2.154379497439526739e-03,-3.951223257791419740e-04,-2.245529809716990412e-04,8.002538233995437622e-03
5.374888532364774374e-01,5.664269213272000725e-01,3.000894221639726078e-01,6.151864419642122210e-03,1.420472567829538790e-01,8.189043520183825198e-02,3.805649876594543457e-01
4.658048792013400052e-01,4.772585899437567503e-01,4.651533103608044839e-01,5.649154289775578514e-03,-3.344751721831600542e-03,5.570454267174258269e-03,1.901225186884403229e-02
4.714186541264778207e-01,4.674254058881347484e-01,4.604609938401678093e-01,4.035699573661052919e-03,-2.271592338157130998e-03,1.743998193363106419e-03,1.287343353033065796e-02
4.793749402667066839e-01,4.697746357816073304e-01,4.370007908700540011e-01,2.304227125482904634e-02,-2.034337243739220771e-02,3.026826733269083816e-02,8.404660224914550781e-02
4.762066555492178166e-01,4.617799072598532950e-01,4.575398767053016624e-01,8.382537338226763238e-03,-8.394888799563151455e-03,9.796728008654826195e-03,3.158210963010787964e-02
4.664551977947898886e-01,4.798909813819335901e-01,4.535175041246958250e-01,7.947759209157899754e-03,-2.365997023876675268e-03,1.668413983280454121e-03,2.713627740740776062e-02
4.722261302650216930e-01,4.652822283253842395e-01,4.692887032663231595e-01,1.541852639971792163e-03,-4.137138346422051041e-03,1.529176466851412926e-03,1.009672507643699646e-02
4.731800520520944020e-01,4.664857995176712735e-01,4.636204580861811309e-01,1.013924113013719508e-03,-1.046203316727724883e-03,3.782477913753986150e-05,8.864342235028743744e-03
4.771028805933710260e-01,4.622205740451899025e-01,4.720479548351718124e-01,6.385433050253979184e-03,7.204245825498381203e-03,-5.512954969414847473e-03,2.325960248708724976e-02
4.610017892737597323e-01,4.725494576948766623e-01,4.783851685383655461e-01,1.515263140440934776e-02,1.106422153692393842e-02,-6.849676698261443313e-03,3.783655539155006409e-02
4.769203368924700981e-01,4.736582756121476279e-01,4.573417679711984651e-01,1.328169464737678079e-02,1.287984493696001619e-02,-8.560130744220476040e-03,3.970899060368537903e-02
4.694289555232236677e-01,4.743008766375644836e-01,4.605162885893241964e-01,5.769942898631680479e-03,5.265273165206567178e-03,-6.626286674403233240e-03,2.147934213280677795e-02
4.713023629862156949e-01,4.334058853458458982e-01,4.936788879984826961e-01,9.005536642532814898e-03,1.022163431747469958e-02,-3.919857799083021656e-03,5.820381268858909607e-02
4.612248845528625907e-01,4.607288343458741942e-01,4.876643640264121116e-01,7.662288337037557323e-03,6.469551988587073782e-03,-4.346065585925470987e-03,3.272261470556259155e-02
4.873163053786341292e-01,4.208860413456677052e-01,4.849271738674202359e-01,1.018511839371244801e-02,-1.045208314796167853e-02,1.779051892789284758e-02,7.647504657506942749e-02
4.759074974823870874e-01,4.362159575352513863e-01,4.834744648107441312e-01,6.834699714144735171e-03,1.307994022673247825e-02,-6.618662504103955610e-03,5.213286727666854858e-02
4.645266846910469094e-01,4.636622369408299749e-01,4.755117264125826027e-01,1.075525248939809657e-03,1.302024747184378972e-03,-2.274570085606304227e-03,1.244955789297819138e-02
4.913247890978262866e-01,4.725744427655217961e-01,4.379568686953592693e-01,1.364577105151351145e-02,-4.210221310920958353e-03,8.568219803988896474e-03,5.505529791116714478e-02
4.825628180994943062e-01,4.621238955508701896e-01,4.601501594617602442e-01,1.988468863667167044e-03,-1.092576501874314293e-03,-4.131570976504703803e-04,2.186187356710433960e-02
4.748847758719192957e-01,4.432709009002685496e-01,4.787640533087828554e-01,5.954268311749158146e-03,1.007218420596597309e-02,-3.953241182883864002e-03,3.993389382958412170e-02
4.554868193848275459e-01,4.687821638096087429e-01,4.909729633269141469e-01,1.791388848831366315e-02,9.474969669576768783e-03,-5.726385353305593617e-03,4.790254682302474976e-02
4.581208998165455792e-01,4.485300344772376047e-01,4.996929980278690953e-01,5.948247503077024739e-03,3.536615245405189990e-03,-8.611339203166432435e-04,4.862950742244720459e-02
4.424909160822948495e-01,4.657828142032422458e-01,4.949670664005093590e-01,9.788105422883389833e-03,3.734131055460194939e-03,-5.382093162262497829e-03,4.990132898092269897e-02
4.492582979105461671e-01,4.681753005179466465e-01,4.830058749412601271e-01,6.330056467540476524e-03,4.567205993379929059e-03,-7.308502519164046529e-03,3.466090932488441467e-02
4.630121769642889795e-01,4.638851480381379622e-01,4.821953005911966406e-01,7.067411710000027743e-04,2.189280531877611877e-03,-2.819500986122041187e-03,1.979227177798748016e-02
4.931633758624672792e-01,4.549534593421111217e-01,4.601289749996613776e-01,1.713218065554026693e-03,-2.602248684875763454e-03,3.362590791258602847e-03,3.677049279212951660e-02
4.930365902270244516e-01,4.580039936140751777e-01,4.544513313121135711e-01,2.011540648861892197e-03,-9.662355102543014520e-04,1.052824222134709012e-03,3.718370944261550903e-02
4.643544420311338516e-01,4.735217612535749798e-01,4.715230174492271442e-01,9.738190675493545514e-03,1.692312179052580037e-02,-1.101433293286551741e-02,3.971563279628753662e-02
4.799943288875799241e-01,4.556373418154366361e-01,4.833132037683532944e-01,1.542198016889808135e-02,1.326161129601893113e-02,-8.347468770425411216e-03,4.620908573269844055e-02
4.628189817733421862e-01,4.599291748086904441e-01,4.818982278680101761e-01,1.258197352848482490e-04,2.210438449032904942e-03,-8.737742586205930534e-04,2.108316868543624878e-02
5.022836917754882613e-01,4.562322268962031857e-01,4.564247359082611588e-01,9.947138728631959356e-04,3.030328100471833103e-04,9.826473090900293000e-03,4.903908446431159973e-02
4.654147257459533837e-01,4.517424861830509064e-01,4.861724390433681542e-01,4.655207690056565456e-03,7.231251289780142762e-03,-3.198666939025945292e-03,3.397348150610923767e-02
3.568637675942190057e-01,5.350383151172045659e-01,5.281088997859662015e-01,-4.419380689538476153e-02,3.298484703179365568e-02,1.465080494754087900e-02,2.008152306079864502e-01
3.265641310958825039e-01,5.707078865550445634e-01,5.730654028366278796e-01,-4.272889324672091843e-02,2.917663268934114068e-02,2.578421549155946596e-02,2.649771273136138916e-01
2.270788694119934281e-01,5.239546998602869765e-01,5.414645752128540712e-01,-9.383417314890377114e-02,7.109144448093444868e-02,4.004256915257455723e-02,3.742016553878784180e-01
5.158019724083081625e-01,4.115370075381564741e-01,4.837240352775555308e-01,2.812744240346432261e-03,3.609642252693774471e-04,7.459755507818036091e-03,9.352347999811172485e-02
4.574153698985937710e-01,4.559327966459141290e-01,4.812164537929631836e-01,-3.268790265944410741e-03,5.900266698940372957e-03,3.196689231710901722e-03,2.776918001472949982e-02
4.522607657598801678e-01,4.522223909763507521e-01,4.854411022866754744e-01,-2.340487883939545782e-05,1.230726338626760225e-03,5.645603708732271778e-04,3.328229859471321106e-02
3.293851857191587573e-01,5.281129223823202157e-01,5.578621939211874103e-01,-5.920701205282816182e-02,1.079563273608422080e-01,5.883916558657719537e-02,3.196185231208801270e-01
3.529949317144797094e-01,5.261143370275227493e-01,5.431024157039672229e-01,-6.059417178426216612e-03,7.542390372224921924e-02,2.453514944391870303e-02,2.284343540668487549e-01
3.176812707707138417e-01,5.261836488391079536e-01,5.196983050336020371e-01,-9.710428790802430599e-03,3.098590492085050857e-02,1.099706967686558436e-02,2.137502133846282959e-01
3.842644152769456589e-01,5.162591908214164693e-01,5.069539896835634218e-01,2.079828472642376164e-02,7.210801353193276031e-03,2.481152821220189431e-03,1.332408785820007324e-01
1.783805725029456168e-01,5.761671540413473291e-01,5.276567726218365229e-01,7.157139943275611128e-03,1.192887516622113675e-01,2.540101857622611634e-02,4.313575923442840576e-01
4.876218230057228209e-01,4.756881546184739684e-01,4.550580688150898112e-01,1.273639376799003999e-02,-9.471720014646549043e-03,1.537669615841861202e-02,4.774224013090133667e-02
5.011645603679428795e-01,5.003743404441762799e-01,3.942948293516778113e-01,-3.386071149832453348e-03,6.095721254411954303e-03,5.660073382087028523e-03,1.076071187853813171e-01
4.435949505110035052e-01,4.442717563686753857e-01,4.964406919298953169e-01,-4.062791333369721643e-04,1.453104574913045757e-03,7.312618964546662543e-05,5.257575586438179016e-02
4.833465970923339072e-01,5.065993721232247005e-01,4.211247797472534860e-01,-2.651569697024371269e-03,7.526196177297192307e-03,7.188346763132495536e-03,7.877255976200103760e-02
4.385030824335917066e-01,4.977166253159781006e-01,4.743627388153076052e-01,1.934230218667618711e-02,-1.730139588921789789e-02,1.511172530936539561e-02,7.330936193466186523e-02
4.633009112973958121e-01,4.712933542582520285e-01,4.677629493020549201e-01,-4.397611343017374217e-04,1.555492805895042927e-04,2.503098065740378460e-03,8.220437914133071899e-03
4.879085001566104696e-01,4.633760024957557233e-01,4.751880278210244835e-01,1.344138591087929921e-02,-9.497498787738469991e-03,1.563027905211711310e-02,4.468921199440956116e-02
4.769468813545794661e-01,4.637580895158990302e-01,4.598409577211411969e-01,6.293428876676888419e-03,-2.646451900132484360e-03,3.479996924472244808e-03,2.042337879538536072e-02
2.059394962963802811e-01,5.878109669451583308e-01,5.580491189561737064e-01,2.136144206337385956e-02,4.654149048851891068e-02,1.673329045199963699e-02,3.795440196990966797e-01
4.799091062472494174e-01,4.651431303884366875e-01,4.596079117221347210e-01,3.725771398712655457e-03,-2.219523857459472071e-03,2.354993770488623094e-03,2.008647657930850983e-02
4.974717222557596963e-01,4.471065203594972726e-01,4.595975361152156435e-01,-1.594622919924028196e-03,5.947903480765365930e-03,6.610488321035013111e-03,4.804605245590209961e-02
4.981118529112782967e-01,4.575965057154804394e-01,4.550206142098173201e-01,-3.654215583991221854e-04,5.933095401493151217e-04,2.222871408852170830e-03,4.205676913261413574e-02
4.886420596294084873e-01,4.640216566587832547e-01,4.543067375052412538e-01,6.149175215628536507e-03,-2.060192639778003331e-03,4.099698749754014659e-03,3.341140598058700562e-02
3.541963979241040672e-01,3.040418869269327917e-01,5.228191054756838874e-01,-2.065063455988404573e-01,-9.402890425058758883e-02,-1.150481123554532165e-01,4.832943379878997803e-01
4.925727375155539711e-01,4.568722548362553759e-01,4.587128646037503810e-01,-7.164185303101563811e-04,2.564766990133883311e-03,1.064676698547879991e-03,3.516925126314163208e-02
4.871039110388155069e-01,4.549179967968762783e-01,4.681918884345540044e-01,8.193619866509016525e-03,-6.724628016821998511e-03,1.664756772738726701e-02,4.419716820120811462e-02
4.600936682763974717e-01,4.854409680067559574e-01,4.534372137879368880e-01,4.582114711798534155e-03,3.238658699851310854e-04,8.017142746183166142e-04,3.034381940960884094e-02
4.932905173173510183e-01,4.697051796723814565e-01,4.306483151547021437e-01,1.051626733411316697e-02,-3.298592448657418873e-03,1.087500780331510965e-02,6.100894510746002197e-02
4.276013401118630153e-01,4.791158938340855378e-01,4.868070676547150422e-01,-3.716466854914844079e-03,3.454734595134020293e-03,1.293436611650944888e-02,6.073093414306640625e-02
4.921607437532771745e-01,4.589730442895401663e-01,4.497821650704866836e-01,5.807358549124011331e-03,-1.762880335328577712e-03,7.084788879551044694e-03,4.185692220926284790e-02
4.246538678826403124e-01,4.489911083884597365e-01,5.071999741437305254e-01,-4.176571036907678752e-03,5.046841973695675564e-04,-8.913694103042120844e-04,7.384236901998519897e-02
5.004085535023288234e-01,4.978571308059905887e-01,3.858303014963555544e-01,-6.788320597435731907e-02,-1.006031823386885626e-01,-9.234090518731889741e-02,2.874200046062469482e-01
5.142842706880086379e-01,5.272444098283368685e-01,3.512901294944066333e-01,-4.531070425002196866e-02,-1.037562682745112458e-01,-8.149815573711564898e-02,2.953448891639709473e-01
4.378555159403804131e-01,4.413717314503171063e-01,5.041673278506553224e-01,-1.106219114403039425e-02,-1.767064497413870124e-03,-1.902520471455497125e-05,6.747546792030334473e-02
5.537395033049578030e-01,5.603103138699044861e-01,3.261806768582143912e-01,1.756571198635383706e-03,-5.130278176129936252e-02,-5.142637196468369948e-02,2.629840970039367676e-01
3.677450809993492165e-01,4.971598892391871916e-01,5.164944381850720134e-01,-1.143880224798625618e-02,-2.714528215354513642e-03,1.934998752094206631e-03,1.415982693433761597e-01
4.975267763576325386e-01,4.932550169846463550e-01,3.199410724188743171e-01,-2.254808403572142878e-02,-4.954251495149773754e-02,-4.799036542086877744e-02,2.158568501472473145e-01
5.414289943542672789e-01,5.332678250541041942e-01,3.468354362128261981e-01,-2.057876306535148109e-02,-5.313716635713824910e-02,-7.567671315861031200e-02,2.515296638011932373e-01
4.161653073717010987e-01,5.057248027314217298e-01,5.080555214322801660e-01,6.522623424515990032e-03,8.050342443801658879e-03,1.419309682222313039e-03,9.253742545843124390e-02
4.382462802666035051e-01,4.346489857452728311e-01,5.013188915568614901e-01,-1.887593821513249481e-03,-1.130095388132370659e-03,-1.598454220859040278e-03,6.511659920215606689e-02
4.540533486470655355e-01,4.732058889108333166e-01,4.738346307514049172e-01,-9.392529342487910800e-04,2.879907313074218586e-03,7.169237887574803764e-03,2.368500083684921265e-02
5.105055554679506225e-01,3.932880227209843982e-01,5.142569829810500481e-01,-1.345590444336118054e-02,1.137448434581725225e-02,1.442201844958027751e-02,1.254952549934387207e-01
4.815016798866108561e-01,4.494514854852120767e-01,4.724178292654954148e-01,-3.431168746984186810e-03,7.307192297724196539e-03,3.334514775482024743e-03,3.236437961459159851e-02
5.170281920575527934e-01,3.659567306343191051e-01,4.955268754960298061e-01,-1.922667722626748496e-02,1.700514600540915106e-02,3.968089111801418462e-02,1.635142117738723755e-01
4.845729107693378390e-01,4.683294023255584748e-01,4.676115320533034692e-01,-1.927076927985075724e-02,1.703281710305622892e-02,3.557619364934711675e-02,7.782970368862152100e-02
4.553040485988347763e-01,4.402276522348226306e-01,4.864296135142389677e-01,-9.334927058912578790e-02,-5.668780916772050982e-02,-6.929307609216406316e-02,2.277119457721710205e-01
4.889576476581850573e-01,4.523816756855428833e-01,4.697907403011045147e-01,-1.722453686841723128e-03,9.389822864810623212e-03,3.087269960271960163e-03,3.614034131169319153e-02
5.479430186942120251e-01,4.382294504292545412e-01,5.121980844265678900e-01,-4.086343197311358144e-02,4.891578879802140761e-02,7.991968513845026933e-02,2.018471062183380127e-01
4.718568046399966853e-01,4.657632703491280113e-01,4.828236170074273748e-01,-1.272258496894034668e-02,3.129129639570338989e-02,3.282233606371443013e-02,8.294078707695007324e-02
4.814471318178394910e-01,4.638953274303215246e-01,4.617985929041232840e-01,-1.125015527716071622e-03,1.862199900318452315e-03,2.025945637170039736e-03,1.938497647643089294e-02
4.721261232029526078e-01,4.612838793578710739e-01,4.685793339401390645e-01,-1.404421518459310087e-03,1.565769771319868711e-03,1.197795298736270943e-03,1.045251451432704926e-02
4.645961125503526024e-01,4.658981242482859164e-01,4.684580231485876989e-01,-3.263063501114395171e-04,1.802892319743702385e-03,4.268522314918144584e-04,4.711542744189500809e-03
4.773672416254108875e-01,4.385909933490457213e-01,4.858234306324898943e-01,-4.399905118020514330e-03,9.516267227380012517e-03,2.701092988151018465e-03,4.748312383890151978e-02
5.241110653194193114e-01,4.195923595491800606e-01,4.488059043570525875e-01,-6.781943962825449923e-04,2.293227860482504460e-02,5.790792216339710891e-02,1.426998972892761230e-01
5.005915341429776344e-01,3.563759946244309806e-01,5.046919103613151103e-01,-3.660746293143814917e-02,1.950489263603941842e-02,3.308249523602004721e-02,1.727751940488815308e-01
4.368881291313106985e-01,5.493079715989857004e-01,4.368610961755886590e-01,1.363581850178887528e-02,5.127853085793942362e-02,1.182857822730174618e-03,1.452299207448959351e-01
4.561196772091783425e-01,5.021868471263032374e-01,4.596760073254599344e-01,5.412598714896421810e-03,1.099976311077367069e-02,1.762411845933930729e-03,4.930712655186653137e-02
4.586271251060895504e-01,4.615576810155000986e-01,4.737892524742501887e-01,-9.117000114956977201e-04,3.600312932395758735e-03,1.100516084916089736e-03,1.546151842921972275e-02
4.566967415357509052e-01,4.668221118899095190e-01,4.746022639189395598e-01,-1.577252650176903326e-03,2.001575384916897196e-03,4.379297840659986812e-03,1.785630546510219574e-02
4.604070307708694187e-01,4.376013072146726635e-01,5.093651185627674494e-01,-2.033220721825474905e-02,9.121509393487672868e-03,8.512624907214279280e-03,7.576751708984375000e-02
4.674706470931678237e-01,5.095412851155158851e-01,4.349338690615879854e-01,5.599305198072297013e-03,2.008984390376661669e-02,8.128352859896468413e-03,7.550162822008132935e-02
3.718368438655419439e-01,5.149297781097185167e-01,5.064339136001747566e-01,1.725120956236511540e-03,6.605838501503215852e-03,4.770128430241254622e-04,1.395442336797714233e-01
4.690695057816485769e-01,5.009569358119081439e-01,4.466780623344535073e-01,-2.429941135657573848e-03,4.493776686593549050e-03,2.626735168223663566e-03,4.828235507011413574e-02
4.404541575808385012e-01,4.348244872188431476e-01,5.029381119724882776e-01,-2.121153178450314175e-03,-2.901532939059051509e-03,-1.424859036060698806e-03,6.582208722829818726e-02
4.768378868901652634e-01,4.765320030273282881e-01,4.598006116652791353e-01,1.183043888792179900e-02,-7.315652357328865027e-03,1.436682465441713706e-02,3.853312879800796509e-02
4.577103545773681947e-01,5.059656694684560030e-01,4.595591649371774112e-01,1.843089258797836255e-03,1.231259313998504627e-02,1.366833784418943669e-03,5.209005624055862427e-02
4.770723634787284451e-01,5.108673372971280768e-01,4.244403751721219087e-01,-2.691782747272125024e-03,3.234105011277386976e-02,9.750771075514884367e-03,9.558098018169403076e-02
4.650165518006148524e-01,4.658565627860684066e-01,4.708369581952785432e-01,7.418654694376922501e-04,-8.238421745560684699e-04,3.170207717966853477e-03,7.970660924911499023e-03
4.517604472231476764e-01,4.679456883457570049e-01,4.776514703063143297e-01,7.436603365048880844e-03,5.670866129684612976e-03,-8.660416973648946831e-03,3.163302689790725708e-02
4.610407547753017088e-01,4.692240501704940669e-01,4.785466444259308116e-01,2.350075560501335096e-03,2.394875961177923580e-03,-5.442631140790040942e-03,1.878318935632705688e-02
4.704256088549078063e-01,4.660936513126078262e-01,4.644082959403665889e-01,2.076524620769233491e-03,1.089137191315451550e-03,-7.685839565197511922e-04,6.868322379887104034e-03
4.599141459457413150e-01,4.710890563137122289e-01,4.896241277655293822e-01,1.495516054368793528e-02,1.223199758826653237e-02,-7.499683194681459365e-03,4.431847110390663147e-02
4.681801911640139369e-01,4.652702098307654466e-01,4.680340885663762940e-01,3.717899394655517129e-04,1.678451864652291247e-03,-7.923861308400271392e-04,4.337521735578775406e-03
4.667439602529234177e-01,4.636414432798875995e-01,4.727783456445778798e-01,-8.413703012712775951e-05,1.188805999908449903e-03,-9.360743032873606760e-04,8.464686572551727295e-03
4.695483290351611938e-01,4.652845890497147030e-01,4.720188399114593203e-01,1.541833663582899182e-03,-4.160929674790959064e-03,1.529157646474828920e-03,1.004506088793277740e-02
4.187967975852570079e-01,4.269733497666770017e-01,5.987309051458037379e-01,1.576989265681245644e-01,3.123216301336772041e-02,-5.195182168668383699e-02,3.414704501628875732e-01
4.824724629943767384e-01,4.595058296010529619e-01,4.669042186105203940e-01,2.660767331047364081e-03,-4.382622373787835833e-03,1.784277705827821232e-03,2.237629145383834839e-02
4.657636869319625172e-01,4.614556150389949041e-01,4.755301825945719152e-01,6.419715149860730696e-04,3.121211441825335036e-03,-4.730234126491948579e-04,1.368035841733217239e-02
4.908149383308267888e-01,4.566877534170921682e-01,4.568791438687960782e-01,6.211314059880609049e-03,7.509356493563076711e-03,-4.923552135369894424e-03,3.893335908651351929e-02
5.148082833796721047e-01,5.067837678566352588e-01,3.954588223925041279e-01,7.459870524561168547e-04,5.444328326763748886e-03,6.918531666538369970e-03,1.165553703904151917e-01
4.886186528715112387e-01,4.639463655435858702e-01,4.679388420941456572e-01,1.342264606934260272e-02,-4.901813889431175068e-03,2.072114304467023715e-02,4.926297813653945923e-02
4.980056209916653986e-01,4.840129172251000367e-01,4.377466482788981428e-01,1.236948913572117302e-02,-3.454625325658711599e-03,4.232565544213978334e-03,5.943327024579048157e-02
4.672282628313224051e-01,4.497788111801327982e-01,4.972518032624071438e-01,2.854103553725590315e-03,-4.767283327388258628e-03,2.943695231501463911e-03,4.299308359622955322e-02
5.046267748775665751e-01,4.351887191271664457e-01,4.808570201635464780e-01,5.584930072425149314e-03,-4.030260206222771417e-03,8.257375767182217885e-03,6.389816105365753174e-02
4.962055151138585751e-01,4.503493871848724406e-01,4.473153690431369012e-01,5.681253653805793183e-03,4.639905051437451244e-03,-7.195402488451696672e-03,5.067401379346847534e-02
4.792102406923487434e-01,4.539619968171969555e-01,4.581607047871537608e-01,1.903374883542892490e-03,4.337797992316732264e-03,-4.154026140462938922e-03,2.584915421903133392e-02
4.969179521690548218e-01,4.349698207037044351e-01,4.841024392195134030e-01,5.244474955454067264e-03,-1.980559565407434639e-03,8.109070984844340968e-03,5.915626510977745056e-02
4.770019184192210715e-01,4.644481470061961326e-01,4.574813623859511069e-01,5.469662465777313555e-03,2.517528459832766262e-03,-2.058014876435506138e-03,2.037313021719455719e-02
5.015749789180209417e-01,4.460032942894474051e-01,4.666109494291215132e-01,2.445912654966617573e-03,2.689271345090174774e-03,5.218636196268952067e-03,4.989019781351089478e-02
4.857651970208787806e-01,4.514241207769383868e-01,4.567685058234113304e-01,2.068575812643373181e-03,5.506376230388285165e-03,-2.004825027073318857e-03,3.376678004860877991e-02
4.902854725447287065e-01,4.430904259122258604e-01,4.565787735828524818e-01,3.829874734418709480e-03,8.015720852518960424e-03,-4.480691701967966581e-03,4.549410566687583923e-02
4.935657509163092760e-01,4.409095036814943969e-01,4.607536753678942998e-01,1.232894922625778905e-02,1.246170984539629253e-02,-2.050690864999069399e-02,6.561283022165298462e-02
4.904334822079083889e-01,4.368364827149858187e-01,4.681450274983891546e-01,6.242300244141625425e-03,1.050331785094567663e-02,-1.621222625444781670e-02,5.840536206960678101e-02
4.676593708526995963e-01,4.880618252333579488e-01,4.535989760193459563e-01,-4.773797567923955022e-03,2.905983265077906243e-03,2.973520937372956495e-03,3.195384889841079712e-02
4.948065818727480081e-01,4.256620325246399661e-01,4.701363516348728844e-01,-4.141715190769551871e-03,7.000076979718591885e-03,4.352976541026138541e-03,6.276214867830276489e-02
4.715984547092704759e-01,4.729358807996279501e-01,4.635060157031681283e-01,-2.789823102400592648e-03,2.396206007558142163e-03,2.217116262302125645e-03,1.155079528689384460e-02
4.534070384925367181e-01,5.358776903324455887e-01,4.271466820815790766e-01,-7.520453715867669690e-03,5.465572773237140775e-02,9.565508802485097814e-03,1.380675137042999268e-01
4.375644963033336055e-01,4.443246203541958983e-01,5.046255750064567724e-01,-7.261490230002006375e-04,4.389460912081003799e-04,2.321779582791152520e-03,6.409273296594619751e-02
4.662264200599186004e-01,5.029134189517190379e-01,4.517346225116841141e-01,-7.073886799651737771e-03,1.903565825231895089e-02,1.266718773568504749e-02,6.169416382908821106e-02
4.878531802455671751e-01,3.973405231283775318e-01,5.233555928252066058e-01,-7.473146430339258628e-02,2.756630589288529623e-02,4.698762429079669789e-02,1.957650929689407349e-01
4.466884752338209363e-01,4.969405604606565441e-01,4.561621960782824003e-01,-1.990464999245172666e-03,8.942442315539768025e-03,5.283648391564921276e-03,4.974422231316566467e-02
4.672447860339893344e-01,4.881548318388307939e-01,4.548545534824003367e-01,-5.345133696525755651e-03,1.683060088426534956e-02,9.716010985202392508e-03,4.548130929470062256e-02
4.670962938249694218e-01,4.956794534552045328e-01,4.363293978443096299e-01,-2.815535682241024611e-03,1.039256268625485258e-02,3.502632461883546048e-03,5.502378568053245544e-02
4.631755579846975057e-01,5.063709302665908574e-01,4.484208071763693404e-01,-1.461352159239647300e-02,3.322270127906314097e-02,1.573956802476486963e-02,8.611614257097244263e-02
4.548704823543192610e-01,5.010106281951415275e-01,4.562536903540230226e-01,2.038624675532198921e-03,1.082579988067100714e-02,2.809619833718997230e-03,4.954541847109794617e-02
4.587805066461714265e-01,4.982432782381945313e-01,4.560099103323978498e-01,-3.241142027519702037e-03,1.259596853276889403e-02,4.996737463732446767e-03,4.750488698482513428e-02
4.493053784955859942e-01,4.933388581006292184e-01,4.683265822816410351e-01,-1.335799154873675660e-03,1.043061911685148023e-02,1.247206375706939180e-02,4.755615070462226868e-02
4.225774739526976798e-01,4.496882438584332009e-01,5.028288223475179120e-01,-5.978124619330908197e-03,-1.517719021369838030e-03,-4.446044360391183600e-03,7.192373275756835938e-02
4.606402451810236442e-01,4.907785456816119996e-01,4.554707248630702754e-01,-7.944674822538807992e-04,2.756007477259381742e-03,1.565857512941520781e-03,3.350936621427536011e-02
4.713441646528557238e-01,4.615036425378314378e-01,4.743128472793672334e-01,-9.287439529049441823e-04,4.163169665703948114e-03,7.349692362794853738e-04,1.382268127053976059e-02
4.624984233687517432e-01,5.809200178216463728e-01,4.362062689034189589e-01,4.689925104544966777e-02,-8.450095545041824696e-02,4.872406538946869037e-02,2.301531434059143066e-01
4.481344750623614814e-01,4.074494507305277402e-01,5.055631066109470551e-01,-1.622306245076261463e-02,-8.115865904046891052e-03,-2.824264559306303036e-03,9.110926836729049683e-02
4.258376779111325838e-01,4.519260020233611952e-01,5.100056164050416063e-01,-3.894137414376660361e-03,1.324536622892280363e-03,3.670499589000026947e-03,7.523440569639205933e-02
4.420245004600182326e-01,5.357723208746122401e-01,4.338607802199685448e-01,-5.599657971823910479e-03,-5.749189528958365686e-02,-1.083620542240240972e-02,1.413609683513641357e-01
1.820167888244195176e-01,5.646765491355641986e-01,5.040246206663184791e-01,8.236449334354628560e-02,-1.295844812863592710e-01,4.947035876339903743e-02,4.527341127395629883e-01
4.691795702179372696e-01,4.033635937055731757e-01,5.067310765401481509e-01,-9.879761945576536267e-03,8.372852850254191778e-03,6.787925317259080977e-04,9.336955100297927856e-02
3.770235452914547092e-01,5.779431497364297954e-01,5.397979919137070315e-01,6.601138827557991029e-02,-5.491236978053157941e-02,4.303205676079687597e-02,2.486634701490402222e-01
6.276520441867718958e-01,3.329751925013326730e-01,4.725054149439383289e-01,3.730094134525086674e-02,1.129920013554113062e-01,-1.878374495418624612e-01,4.620727002620697021e-01
3.959581782846556264e-01,5.110525298452064380e-01,4.690547897894605245e-01,-5.903675460991457836e-04,-9.153676147658263568e-03,4.254663719800496659e-03,1.023891568183898926e-01
4.670923225523156419e-01,4.458943667637183528e-01,5.011861417933362040e-01,3.978624859120624517e-03,-5.073579879634118085e-03,4.588884011206088680e-03,5.022297054529190063e-02
3.137889601909821247e-01,5.919394439862374346e-01,5.095657664623217675e-01,1.640416132405744798e-01,-1.518663989255233659e-01,4.143820072150613404e-02,4.650928676128387451e-01
3.362302047980800235e-01,6.852196183437968546e-01,3.701425152066558089e-01,1.034424676025104406e-01,-2.007033138671380224e-01,2.899027852017852999e-02,5.163103938102722168e-01
4.954154423833243004e-01,4.022588234695385623e-01,5.141917333728280859e-01,2.157033680671442341e-02,-1.221549543732301747e-03,1.243847490806456076e-02,1.124468892812728882e-01
4.781456439207127374e-01,5.128902156851326000e-01,4.233906802553771276e-01,1.272598159309839064e-02,-2.223940487737643967e-02,1.306593768362811908e-02,9.267961233854293823e-02
4.606107086624743885e-01,4.584156407658366295e-01,4.927286579094589114e-01,7.821794667769114279e-04,-3.070310240835236008e-03,1.714635910255519341e-03,3.384993225336074829e-02
4.603244712285400331e-01,4.626617919157062220e-01,4.817053688434596026e-01,3.722418307476847168e-04,-1.069395578629379765e-03,2.053700680892817706e-03,2.071548625826835632e-02
3.275251455894878094e-01,5.351828685932185081e-01,4.835691806513324198e-01,1.786157038588249285e-02,-5.630107054099587477e-02,1.411306960619806115e-02,2.147831320762634277e-01
2.464052364903362158e-01,5.745513867934113339e-01,3.951117799912358119e-01,-8.591704986931424201e-05,-2.073595948642658060e-01,5.032545074846978689e-03,4.583296477794647217e-01
4.136696216148597061e-01,4.763027661953617153e-01,4.760438072347344396e-01,-2.742693076123785961e-02,-2.676662402730385637e-02,-1.656712867281832230e-02,9.558364748954772949e-02
3.736234722089044613e-01,5.098618481113359469e-01,5.092391538855567390e-01,5.421915835654603916e-03,-3.181982311683983176e-03,1.496889597249796179e-02,1.388064026832580566e-01
4.248193367554121691e-01,4.019133298220077810e-01,5.593966849590896739e-01,-8.949007340898593177e-02,-4.750443196801858170e-02,-2.324742027483035767e-02,2.326695919036865234e-01
4.535827933246902588e-01,4.733388870612220689e-01,4.817255244692690286e-01,1.346041474943468963e-03,-1.637896194886207663e-03,7.318716086047738663e-03,2.829311788082122803e-02
4.670362284625028670e-01,4.381112572075801515e-01,5.086730390631504228e-01,8.337317986610710135e-03,2.983967716629187857e-05,3.309956718854345156e-03,6.337211281061172485e-02
4.440443777981938900e-01,4.653572484318067026e-01,5.086667104292115216e-01,5.370025206512515914e-03,3.249466656368950410e-03,2.563900046221761803e-04,5.806360766291618347e-02
4.409777025116172200e-01,4.870177023763861412e-01,4.414670980673504053e-01,-7.432758580303797449e-03,-8.996895050714204950e-03,-7.871090841632817983e-03,5.188276618719100952e-02
4.371412444075221670e-01,4.831832382340437437e-01,4.419730758257133796e-01,-2.336554601410906120e-03,-4.566092254644529315e-03,-7.749139095714377770e-03,4.668852314352989197e-02
4.370673070320988396e-01,4.781689384429085310e-01,4.482484020299086214e-01,-3.589858047285381364e-03,-3.551875518444955280e-03,-7.767475511489452603e-03,4.015357419848442078e-02
4.788484669632240287e-01,4.356952309134698442e-01,4.335537782069733281e-01,-1.206024330612176509e-02,-1.148577710659016288e-02,-1.907944667187153054e-02,6.231686472892761230e-02
4.812732262196299238e-01,4.480624530431948638e-01,4.818019070198806264e-01,4.396323899282574346e-03,-6.889146478328926453e-03,4.846729477867735107e-03,3.730454668402671814e-02
4.527721282285558368e-01,4.550828535420834431e-01,4.338160046326656194e-01,-2.060395214918666132e-02,-1.109399813485228807e-02,-8.097237560959017269e-03,4.741277545690536499e-02
5.015296307128014330e-01,4.536742832731456287e-01,4.574396489604765081e-01,1.439747255923503428e-03,-9.410915567901678106e-04,1.890134299115166575e-03,4.630024731159210205e-02
4.560279762254530467e-01,4.720645925754401451e-01,4.293931595370932830e-01,-1.324137083373051922e-02,-8.676921160504317068e-03,-6.542007640740353860e-03,4.768627882003784180e-02
4.954386626153023943e-01,4.263574945451699127e-01,4.832128654526923750e-01,-3.455322535455103688e-03,1.081238198991459412e-02,7.227120800532040035e-03,6.797308474779129028e-02
4.445487866271508048e-01,4.664943799926686285e-01,4.401799034673467559e-01,-1.161614422909845908e-02,-1.152442164755824311e-02,-1.304308839907017577e-02,4.370562732219696045e-02
5.185320741034697978e-01,3.972466480403230027e-01,4.885443808431616519e-01,2.434751106029819923e-02,-6.930201087753855380e-04,4.956002713269229421e-02,1.453298926353454590e-01
4.574390762458437343e-01,4.415088992618435570e-01,4.636853798585323094e-01,-3.231344296708829611e-02,-2.453318357624698423e-02,-3.130984259906462869e-02,9.094678610563278198e-02
4.384791937560306718e-01,4.388896745781150077e-01,4.907602641327892812e-01,-1.773626955296863251e-03,-2.123413502773929037e-03,-4.419766348378926721e-03,5.285437777638435364e-02
4.578124396987749978e-01,4.538641791669338899e-01,4.551106412997532602e-01,-1.362694205323610342e-03,-2.399547921757025446e-03,-8.879699346603746584e-04,6.118074990808963776e-03
4.954021136203241582e-01,4.265234580729285185e-01,4.863314857693069038e-01,-3.495924532287529238e-03,9.382698116414792816e-03,6.372151674535679426e-03,6.800261139869689941e-02
5.088818104074875892e-01,5.264157904043521574e-01,3.452207702524763278e-01,6.657327576554809313e-03,-1.931495812937504206e-02,-1.677241270760545166e-03,1.766992062330245972e-01
4.441224576423180026e-01,4.676834565949230527e-01,4.491210145320424507e-01,-2.614891629182995465e-03,-3.560708369051156057e-03,-5.462008114170772630e-03,2.470596507191658020e-02
4.326820651436908971e-01,4.517510140519125361e-01,4.973282531597253420e-01,-4.125181726509567250e-03,3.886301784458375311e-04,3.946811710431073934e-03,5.838027223944664001e-02
4.573740065080001971e-01,4.571727120069004613e-01,4.966192797866406661e-01,7.760277148941329209e-03,-3.215885998709001273e-03,4.986592598983949007e-03,4.283015057444572449e-02
4.739222351646552034e-01,4.384286184890062166e-01,4.860361963701030907e-01,-4.825538380596005109e-03,1.101562811581756514e-02,2.660067973182864490e-03,4.787097871303558350e-02
4.554397007422482102e-01,4.903074669235207850e-01,4.625121552758922339e-01,-1.789763003186991511e-04,2.249363488054237966e-03,3.302208327314044845e-03,3.266755118966102600e-02
4.567652149383866766e-01,4.519158880111573406e-01,5.000948638525226642e-01,6.373405830684901463e-03,-8.046482886773307763e-04,3.192776869355833016e-03,4.759704694151878357e-02
4.443340548576747984e-01,4.684907517189407788e-01,5.069877386333694336e-01,2.703664862629725704e-02,1.906063082136816604e-03,3.597130438855510558e-03,7.237529009580612183e-02
4.556456639947512599e-01,4.904843594185581135e-01,4.666885668115430263e-01,-1.256317964985188612e-03,1.509270784974659765e-03,6.205782466498940136e-03,3.283388540148735046e-02
4.544804777468798296e-01,4.570929460768533570e-01,5.064102497954262594e-01,1.126822366545033281e-02,2.257501397295463754e-03,9.600406575814551119e-04,5.446865037083625793e-02
4.290843137906528160e-01,4.664086324882991685e-01,5.172778425322261953e-01,1.858069275539803167e-02,4.270105212459252182e-03,9.460599668749063162e-03,8.507864922285079956e-02
4.513075704981843184e-01,4.521241836389656710e-01,4.853613480763493970e-01,-1.314299279288769521e-03,4.286536138999164254e-03,1.070772960546295931e-03,3.458703309297561646e-02
4.234887567248517559e-01,4.647902483056174372e-01,5.076916566016951293e-01,1.620395275898806053e-02,-2.327467228700464113e-03,6.212847968546006058e-03,7.898094505071640015e-02
4.503311270983658687e-01,4.572338266151125818e-01,5.018692655426245652e-01,5.756497975068071600e-03,6.033683971058507664e-04,3.809829296680960434e-03,4.992116987705230713e-02
5.606072233647266811e-01,3.502165620319911410e-01,5.445098710717762858e-01,-2.318141750624821279e-02,9.768426879872849078e-02,1.634642287327993104e-01,3.892776370048522949e-01
4.553295528649904389e-01,4.907405561290243967e-01,4.597870155787446289e-01,-1.451253843429699839e-04,2.080213344727322670e-03,2.249097535287772689e-03,3.382580727338790894e-02
4.467400837497976784e-01,4.632523205210827832e-01,4.668139906948627904e-01,5.508709872122048018e-02,-4.384897262771814130e-02,3.236014169149155351e-02,1.354904025793075562e-01
4.536048188787915603e-01,4.829950765471073826e-01,4.951324334135828176e-01,3.312460431712469650e-02,2.910574691377532108e-02,-6.109022277888721125e-03,8.551570028066635132e-02
4.560402480893593347e-01,4.526505816308129537e-01,4.830874487876221091e-01,-8.964563689017560066e-03,7.594135580893481008e-03,7.151617962081935689e-03,3.744678571820259094e-02
4.408637978819407999e-01,4.443844775116371770e-01,5.022284884132336424e-01,-1.380144812126331494e-03,1.540604679455887926e-03,1.487058993330850820e-03,5.984516441822052002e-02
5.036487676125491753e-01,4.385249963343426649e-01,4.398450897705282192e-01,-4.608996433489645841e-03,-4.216975425778743403e-03,-9.971866727583969872e-03,6.761856377124786377e-02
4.967103628970970242e-01,4.495363501747378088e-01,4.102501088587001132e-01,-1.061989043261676174e-02,-4.622461916834974711e-03,-1.230932085486950711e-02,8.049280196428298950e-02
5.142398518245557826e-01,3.928616936879695265e-01,3.947258403067762100e-01,-3.615595259126776900e-02,-3.535842270956063293e-02,-9.996440989029992119e-02,2.283876687288284302e-01
2.979641653044606264e-01,6.511377982056181235e-01,3.989740796360531361e-01,-5.815419125420186880e-02,-2.025697585952374036e-01,6.578838287876141375e-03,4.823273420333862305e-01
4.493824237251328180e-01,5.366290967495754849e-01,4.020097176940393702e-01,1.165979598969802203e-02,-4.292359004747554885e-02,2.317548659391281338e-02,1.467505842447280884e-01
3.551323174381859071e-01,5.821938939918196443e-01,5.020523160865125734e-01,1.296585022692211056e-02,-9.503986415004093968e-02,1.706072254463104898e-02,2.612619996070861816e-01
4.566498535458946018e-01,4.546080500624448129e-01,5.017792690598638083e-01,2.338991276211298091e-03,-1.082407923568290279e-03,1.553510621190652653e-03,4.647737368941307068e-02
4.557275135031321756e-01,5.006792467511369527e-01,4.476086508770875105e-01,3.628001284371126962e-03,9.453626428032917833e-03,-5.986659698996176122e-04,5.253766849637031555e-02
4.315915703083194610e-01,5.205705570710167374e-01,4.626873944491435853e-01,1.130355170797541463e-02,7.424192382231874221e-02,1.389935376603894900e-02,1.536743640899658203e-01
4.593514049542651856e-01,4.587433997272342689e-01,4.909562819265197997e-01,4.770586901438108457e-03,-2.677588607330643952e-03,3.872499577246515945e-03,3.395919129252433777e-02
4.099012813935923871e-01,5.542471235672581376e-01,4.773476664271245617e-01,-5.591221732046963364e-03,5.462865575275767382e-02,3.641540272638119774e-02,1.693340837955474854e-01
4.727255817150954331e-01,4.709360042303982197e-01,4.582973074949343584e-01,6.469270749383137196e-03,9.225308644609950476e-04,-2.114996838936940651e-04,1.771437190473079681e-02
4.511584395450108920e-01,4.568771679879710113e-01,5.003548558452701744e-01,1.947422303615546418e-03,-2.547720163986040521e-04,1.480736755799189801e-03,4.679530113935470581e-02
4.686917482649207711e-01,5.053468619533648676e-01,4.427095626998993616e-01,1.893940584126135905e-03,4.872658836630718027e-03,1.830225052617698170e-03,5.534518882632255554e-02
4.729004465247633737e-01,4.798749650888267104e-01,4.538182851639528392e-01,7.941731688865628219e-03,1.450717509791569224e-03,-9.938423003558567118e-04,2.728281356394290924e-02
4.862891784356302427e-01,5.134454664868699503e-01,4.174382044091787258e-01,9.618229295152951400e-03,8.521862578320523254e-03,-2.067953727368876046e-03,8.863342553377151489e-02
4.620888517625196812e-01,5.156200781980481151e-01,4.065938916522928714e-01,1.313642526981585040e-02,4.323596187446191591e-02,-1.250622907637195455e-02,1.245429888367652893e-01
4.533711930576649340e-01,4.703658175160840282e-01,4.802470268300959022e-01,2.041835006488553709e-03,-1.962985711056697020e-03,9.366176541736057418e-03,2.901079133152961731e-02
4.071833891773939396e-01,5.107520258489666176e-01,4.448191283729999168e-01,-1.037979025363185365e-03,-1.745568187172523433e-02,1.391124106326882721e-03,9.575055539608001709e-02
5.164079686248139733e-01,2.362259151251940859e-01,6.994830041080789540e-01,-1.979524425704403956e-01,4.964387755528610474e-02,9.166204830023002431e-03,5.371348857879638672e-01
5.104678487707264845e-01,3.517220307500341092e-01,5.930860396310945193e-01,-7.822850934458044914e-02,8.291720144168627593e-04,-5.003097684979224136e-04,2.519984245300292969e-01
4.800299609570369830e-01,5.105528919833777213e-01,4.194668099357103941e-01,1.376868338712182969e-02,-2.337402400196371410e-02,9.128721336548779527e-03,9.437094628810882568e-02
3.432127471516087658e-01,5.750900305337208751e-01,5.377534281592181165e-01,-2.188218206603151274e-03,-6.559455994421579950e-02,1.465786289314547491e-02,2.450927346944808960e-01
4.549100901634028360e-01,5.155307198811892588e-01,4.222086899754342593e-01,-4.767515098418594402e-03,-2.537060980052970038e-02,-7.781358053929128028e-03,9.437935054302215576e-02
4.014709452071441587e-01,5.154607422691296348e-01,4.691244591011362042e-01,7.603355114302212019e-04,-1.008497479637902004e-02,-2.563998941857384244e-03,1.009229347109794617e-01
3.993099321438809413e-01,5.106114269564220320e-01,4.987776743639000809e-01,5.054758444446337713e-03,-7.601843759848004450e-03,1.104116856509695412e-02,1.087505593895912170e-01
4.348715153818256685e-01,4.910729596476121062e-01,4.395518789464281650e-01,-1.179622122318362866e-02,-2.698530206364057812e-02,-1.825799700526316988e-02,8.074404299259185791e-02
4.063427596612269044e-01,5.334139969328922648e-01,4.310401918152265144e-01,1.163566847497136698e-03,-5.085803361249447568e-02,-1.259095990809176897e-02,1.478445380926132202e-01
3.698166191157872262e-01,5.775020897025362476e-01,3.042032214367749177e-01,4.549245610653685629e-02,-1.876289362449622411e-01,5.027266000538470336e-02,4.248174726963043213e-01
5.046895759630782852e-01,4.479520556696384714e-01,4.567007323594174939e-01,4.225181130813532911e-04,1.475020673484268201e-03,7.889517512071803768e-03,5.470926314592361450e-02
5.076035676232598659e-01,5.528129220109070374e-01,3.525428566744379655e-01,2.324279501505353840e-02,-3.618635679298439628e-02,4.248678438243615879e-02,2.099102735519409180e-01
3.213265832892555074e-01,4.548790144661607471e-01,5.238271220447715537e-01,-9.148291692599509750e-02,-2.978221074386577794e-02,-1.189913904984874274e-02,2.449313402175903320e-01
3.644981535414957285e-01,5.139211748865388785e-01,6.114261270532285186e-01,-8.272128848104612353e-02,1.604520128038992161e-02,2.749512294815495417e-02,2.645234763622283936e-01
3.734914122172879325e-01,4.771862550844048756e-01,5.308086186708229626e-01,-5.331113985643295972e-02,-1.431224426233096945e-02,-1.981990925657802025e-03,1.683474928140640259e-01
3.770931403898371004e-01,4.668561171428425860e-01,5.177402808432702841e-01,-2.263873302691492978e-02,-6.645764445164421570e-04,8.070310125214317457e-04,1.294407993555068970e-01
4.951195342953345069e-01,3.993235652880471886e-01,5.073413888422748652e-01,-8.277480511372533115e-03,1.112443402123344111e-02,4.447679875695468785e-03,1.055139824748039246e-01
5.237457073617501901e-01,3.860174230722350219e-01,5.073470743289733020e-01,2.447950926218926595e-03,3.501925467504812123e-03,8.767974696041024724e-03,1.313957422971725464e-01
4.831158273808381365e-01,4.047977447568193998e-01,5.142734678593601227e-01,-3.756002246841024655e-02,1.503981421136138703e-02,1.126565964754870121e-02,1.218044608831405640e-01
3.560848680027381419e-01,4.930282235249114908e-01,5.325817787864607356e-01,-1.419566448954340775e-02,5.751074662392752744e-03,4.046426911449712248e-03,1.627496778964996338e-01
3.435516584836716403e-01,5.072856192483002902e-01,5.334964278963522100e-01,-2.652260042674535814e-02,5.997896164404176861e-04,8.248425584710856323e-03,1.846698373556137085e-01
3.013958608097995207e-01,5.184549901585296938e-01,5.332820160273690213e-01,-5.349927099777625900e-02,-3.222742654375285089e-03,-1.466189565022558809e-03,2.432631701231002808e-01
4.764022811222262122e-01,4.234157452995249149e-01,4.912360184184100809e-01,-7.252276822549140987e-03,1.477788764689456739e-02,9.711899645155843211e-03,7.006788253784179688e-02
5.219565932922634044e-01,3.661962876810935796e-01,5.716296006860860368e-01,-6.539273195010004980e-02,2.532024635003392657e-02,3.205614659315557391e-02,2.286930829286575317e-01
3.451410906332737505e-01,5.200973878033136044e-01,5.270494015755742279e-01,-2.262642807689690949e-02,-8.883831762461684087e-03,-1.860198130530925234e-03,1.834594011306762695e-01
4.588901375078854317e-01,5.112391657782683341e-01,4.498201594717754492e-01,-1.580027305435805288e-02,8.606718028670115594e-02,3.294720762702647160e-02,1.718303561210632324e-01
4.563656006973855761e-01,4.348250076026696220e-01,5.014490795741800566e-01,-5.923906371325169014e-03,6.962304200378268554e-03,1.481482916678058008e-03,6.103216856718063354e-02
4.596575315445146637e-01,4.794339248898690231e-01,4.554092354356809036e-01,-4.460571217078908648e-03,3.853757445817292560e-03,5.311434027402853718e-03,2.611605077981948853e-02
4.538513565638169767e-01,4.833616055930657351e-01,4.622848969868973978e-01,4.070467373421761750e-03,4.413924350186280640e-03,-4.610979557170375234e-03,2.941158227622509003e-02
4.509020398716359068e-01,4.995069432466172632e-01,4.588747890626171388e-01,1.752179397188624414e-03,5.590214139654501105e-03,-1.275094405761312841e-03,4.632845893502235413e-02
4.342381940533424078e-01,5.045808614464133424e-01,4.625613246258497013e-01,8.122511441865248177e-03,1.338390627129482958e-02,-3.072303952265845357e-03,6.724280864000320435e-02
4.507789752953809681e-01,4.967491296503261933e-01,4.588934811229093969e-01,1.570879178125688313e-03,5.776471760148881376e-03,-1.980978958573144288e-05,4.374451190233230591e-02
5.030627494693182822e-01,4.168999667658105368e-01,4.868437496335084047e-01,-8.262499943969650248e-03,1.142853557013179082e-02,8.343360258901111673e-03,8.423231542110443115e-02
4.355203663895786947e-01,4.467339925994007199e-01,5.051445541520851457e-01,-6.007376705555793513e-03,2.096441334987950243e-03,4.488872561383364795e-03,6.613950431346893311e-02
4.609115504340839942e-01,4.349218028367833333e-01,4.985441841101668214e-01,-5.791380292266399069e-03,6.190365478864808674e-03,1.567162719957694789e-03,5.738200992345809937e-02
5.918623894641820149e-01,2.815143271985913742e-01,5.877651295016875777e-01,-1.292920993579699598e-02,1.421383843009538066e-02,-4.046822868259191373e-03,3.101900219917297363e-01
5.458691588372232006e-01,2.411786381399628199e-01,5.353397319373599528e-01,-6.810065397983153246e-02,2.797892951650366930e-02,9.357269385249382398e-02,3.636867702007293701e-01
4.645575306962009265e-01,4.816123212394045061e-01,4.545755299929273296e-01,-6.948526251745042355e-03,3.887340422033145389e-03,4.006375177839514336e-03,2.826801314949989319e-02
4.386465775735015615e-01,4.403005731115380295e-01,5.042593555562704388e-01,-2.639381018785717011e-03,1.016267049627285523e-03,-3.774993408412959410e-04,6.498979777097702026e-02
4.270898441505821541e-01,4.787234106236790687e-01,4.782049326249846466e-01,-2.337325000900927763e-02,2.255287440985474096e-02,2.243288866184696764e-02,8.552221953868865967e-02
4.675214481211327211e-01,3.904007295201998851e-01,5.190345314305107038e-01,-1.306153996320676483e-02,2.964478025904688108e-03,-1.718493785449249451e-03,1.145467758178710938e-01
5.233813679403845898e-01,3.832827581817214169e-01,4.924282474875179560e-01,-1.315046358512840128e-03,1.272145328790373099e-02,4.531078778743952845e-02,1.513245701789855957e-01
5.475693975378592704e-01,3.487493179853833336e-01,3.414058237546538366e-01,3.878896972137629157e-02,-3.822905265663465585e-02,1.932021449214603448e-01,4.023962318897247314e-01
4.557268138955382630e-01,4.544400917187276234e-01,4.990342522156801519e-01,2.224090084133903585e-03,5.980599365711524069e-04,1.956680699943539464e-03,4.427542164921760559e-02
6.000522128106761111e-01,2.053956102150279461e-01,7.164249811246570232e-01,-1.905754037674903603e-02,1.037378946772250926e-01,9.089287650947570907e-02,5.228599309921264648e-01
5.816748718228713644e-01,3.258684143614180018e-01,5.947641788909844296e-01,6.655346620781723036e-04,3.451502006867178396e-02,4.035956182797098557e-02,2.782417535781860352e-01
4.558511218324453607e-01,4.540288807300242313e-01,5.023115032608418407e-01,1.589394238449929556e-03,1.422431258702390499e-03,1.085057763017545579e-03,4.757867380976676941e-02
4.744325961348648812e-01,4.661939012146492645e-01,4.627568594053029227e-01,3.158826819581464322e-03,1.009831221326988517e-03,-6.615143164485845766e-05,1.187489181756973267e-02
5.223350657791530072e-01,2.223286468961971074e-01,6.619699409862590533e-01,-1.083461919866311601e-01,1.136436574545132173e-03,7.190635520964494543e-02,4.495834112167358398e-01
5.477851421689264866e-01,3.028301892703174625e-01,5.073548435310052396e-01,4.448615658649536508e-02,-3.210763824478597722e-05,1.236145603610903643e-01,3.217338621616363525e-01
4.554049893687795447e-01,4.658128668262191963e-01,4.774323941456722897e-01,-2.593015831411699199e-03,3.723049166464519229e-03,6.615116123358080573e-03,2.360732294619083405e-02
4.290755435375506188e-01,4.673564743766046026e-01,4.958143420651215383e-01,-5.367240941220389507e-03,7.559337490210804415e-03,1.443102482921270607e-02,6.517123430967330933e-02
4.390252450813487695e-01,4.596752676245605129e-01,4.913078972618323825e-01,-1.941587858830658153e-02,6.729225973704499111e-03,7.605894532229111674e-03,5.933453142642974854e-02
5.132017177164773791e-01,3.835691674569628451e-01,5.142706024925798314e-01,8.836840669924803451e-03,6.025939656953065854e-03,4.025182634309141215e-03,1.316666752099990845e-01
4.551712755515243680e-01,4.585640785034540423e-01,4.919229641952347354e-01,-5.442549016019524767e-03,6.077486086401526558e-03,7.648630614209231231e-03,4.015821963548660278e-02
4.854938523751966550e-01,4.518774172327899574e-01,4.519041807443331948e-01,4.792781664698396774e-04,1.597496855209545440e-03,1.882438170062032169e-04,3.372858092188835144e-02
4.423668828900992889e-01,4.606854824848224395e-01,4.915116683427086519e-01,-2.199590022719001992e-03,3.355440847159397218e-03,7.993444858411823117e-03,4.572192579507827759e-02
4.472945587395992795e-01,4.668024338647715488e-01,4.754548455329153933e-01,-4.551269464922202447e-03,5.129988158961098881e-03,8.755707016111237070e-03,3.154823929071426392e-02
4.719876462345756751e-01,4.723100352565818283e-01,4.605170180161087257e-01,-6.685856353724524935e-03,1.072176172271992016e-02,8.816244678954459485e-03,2.911230549216270447e-02
4.719359936773531716e-01,4.722743781198083246e-01,4.565087967297324356e-01,-6.581717089292905484e-03,3.280059507550983113e-03,2.617440119419064872e-03,2.064266428351402283e-02
5.018524172247603721e-01,4.955392802871743108e-01,3.927414551610496352e-01,1.492211747012232165e-02,-2.526603847919309948e-02,3.054478521543396025e-02,1.289895474910736084e-01
4.554676299631232328e-01,4.817600315853600712e-01,4.638140536467231789e-01,-2.959984371705078315e-03,4.134948816725249332e-03,6.819658679902974342e-03,2.754281833767890930e-02
4.725894671486556842e-01,4.898132795756603430e-01,4.640563563741032516e-01,-7.696785286251698818e-03,1.373969307089936004e-02,1.363845370984634320e-02,4.264419898390769958e-02
4.621475886092167862e-01,4.879096501346219528e-01,4.525645425470742889e-01,-3.127137860096606669e-03,1.193120094186734571e-02,1.020369358724516201e-02,4.208492860198020935e-02
4.702481316022421032e-01,4.823213192926080195e-01,4.504075678999052146e-01,-7.267625536149958411e-03,6.689615397473640257e-03,4.440845273865438696e-03,3.362766653299331665e-02
4.609580718203319938e-01,4.879096485957847840e-01,4.559286269731472330e-01,-3.727654950934038494e-03,3.910515580535891753e-03,3.522783675950446908e-03,3.181236982345581055e-02
4.576265859101170674e-01,4.603418375213814140e-01,5.015847313436901933e-01,3.156841978645084923e-02,1.113282472691350979e-02,-2.093094988723019894e-03,7.207629084587097168e-02
4.388863284819637944e-01,4.523375293030465483e-01,5.348547657945474931e-01,8.089982359322445138e-02,6.230826898248895129e-02,-3.017105977689550633e-02,2.052125036716461182e-01
5.178741644663008570e-01,3.442724971641382137e-01,5.259395060568933244e-01,-7.531685576555839298e-03,7.377444356779558517e-03,-8.347279363279164113e-04,1.787128895521163940e-01
4.585975648666698046e-01,3.985655384973442739e-01,5.209652230248437155e-01,4.822633420049678155e-02,1.092487736192798188e-02,1.395899516424593551e-03,1.363043189048767090e-01
4.618655563635351013e-01,3.944599437553549803e-01,5.157913895702536111e-01,5.178625315502698168e-02,5.221010546631316487e-03,5.886547921908476429e-03,1.389877498149871826e-01
4.448236295313120481e-01,4.690761393859663730e-01,4.832516905592615375e-01,1.238212219537944067e-02,9.592540754723013346e-03,-8.082544095803403938e-03,4.544124752283096313e-02
4.281301813038923543e-01,4.544689206497748435e-01,5.149677974913366985e-01,-2.616698273902734809e-02,4.848401731345355382e-03,4.844390905125308538e-03,9.023506194353103638e-02
4.663229158437290356e-01,4.323922894389670701e-01,4.834081616067804066e-01,1.219276733207191009e-02,1.094894630043933247e-02,-4.962443564008183448e-03,5.387404561042785645e-02
4.596904834097110815e-01,4.373334197113655786e-01,5.010682190904950373e-01,3.234725895819628300e-02,2.383615949300769976e-02,-1.952547782531007317e-02,9.552118182182312012e-02
5.009583117214737591e-01,2.313633372063990112e-01,5.425936704876463956e-01,-1.467358147503776133e-01,-3.285875615661391913e-02,-1.184035171011348225e-01,4.421890079975128174e-01
4.705729387284807719e-01,4.493784165565838373e-01,4.842560433496324590e-01,2.512963174419230363e-03,8.776722220946402489e-03,-2.844229914137151160e-03,3.465181589126586914e-02
4.657478536675510594e-01,4.537481218618136247e-01,4.842379531373151580e-01,5.701278385903743584e-03,5.756909614941054833e-03,-4.344854073292348309e-03,3.100526705384254456e-02
4.349432164649336130e-01,4.272951406630830506e-01,5.071788866183091216e-01,-1.121391008535670697e-01,-2.284130573300231434e-02,-5.774455307241965069e-02,2.347827851772308350e-01
4.368790413589153099e-01,4.300529477408074897e-01,5.037094383205681369e-01,-6.990030342755246436e-03,-1.539137578633518371e-03,-9.450876267594720669e-04,7.159229367971420288e-02
4.491504719797539957e-01,4.759362230475110978e-01,4.406597779262778625e-01,-5.723259565280775819e-03,-2.669254070201906165e-03,-3.001260482882032055e-03,3.411249816417694092e-02
4.611994959687244489e-01,4.712801357611062780e-01,4.695429202614348485e-01,-1.574860853213838965e-03,2.039612978462091841e-03,5.006341686390583350e-03,1.349948067218065262e-02
4.559182080766818745e-01,4.552371313832331845e-01,4.836976199445819358e-01,-3.313714912301612883e-03,3.269052458083917742e-03,6.000227505347474274e-03,3.104979731142520905e-02
6.435918521692407523e-01,1.960095597250132715e-01,6.588938644071554718e-01,-2.673572954862167561e-02,1.050640536171277839e-01,2.616541035479099525e-02,4.946985244750976562e-01
4.303611038095835895e-01,4.379512760992049225e-01,5.070398955190830170e-01,-7.356028927777337294e-03,5.013648787193311510e-04,-7.703757939219920683e-04,7.429745048284530640e-02
4.626645542145235157e-01,4.558677971060876022e-01,4.748854859375725157e-01,-3.444680241775337041e-03,5.487298700515398989e-03,3.668595953850489668e-03,2.109299413859844208e-02
4.426220451543719236e-01,4.363894981463496414e-01,5.042593867940456942e-01,-3.222806428164665983e-03,2.462337132700178309e-03,8.608187800181961490e-04,6.537381559610366821e-02
4.665693087616050727e-01,4.534665519895529351e-01,4.747379839816014413e-01,-2.308782661005197735e-03,7.169843482339828197e-03,2.550298736577047941e-03,2.313363552093505859e-02
4.490280386754725850e-01,4.227825780470912398e-01,5.123649239464080907e-01,-6.067031992059398679e-03,2.241655013072230748e-03,-4.738803732456184771e-04,8.055350184440612793e-02
4.668674724216607119e-01,4.638720253783352732e-01,4.684678391690826893e-01,-1.946287273266181488e-03,2.370738050118516814e-03,6.945301817184875402e-04,6.782338023185729980e-03
4.678229257373621719e-01,4.493513166429923267e-01,4.782759412997109605e-01,-3.783495456015178310e-03,1.245565402246933198e-02,6.389224927131570940e-03,3.569861128926277161e-02
4.105491063479145275e-01,4.795824123969320008e-01,4.882755727344785801e-01,-5.190636228853000994e-02,-5.759709384523235831e-02,-3.136355692693601482e-02,1.625650376081466675e-01
4.490711662760230038e-01,4.224965443124245601e-01,5.060972747119091286e-01,-5.830875697439823029e-03,-6.158435805366002484e-03,-1.510714818883223407e-03,7.547355443239212036e-02
4.963731330898273342e-01,3.154740473401058121e-01,5.952239690048715115e-01,-1.975179206444017399e-01,-7.423960258468957629e-02,-1.311540830591816920e-01,4.955368041992187500e-01
4.404724707100621806e-01,4.793883615790267561e-01,4.795135942538181761e-01,-5.405399096161000137e-03,5.233044394232233727e-03,1.132790451774735863e-02,4.554238915443420410e-02
4.412618576605567555e-01,4.340255428578240204e-01,4.903051322429709535e-01,-7.228467972744265918e-03,-6.115998479804813162e-03,-3.071996631556881026e-03,5.576539784669876099e-02
4.597967091710017939e-01,4.652914374028322420e-01,4.752640872790150905e-01,-5.072375168856534285e-03,6.717589712271950994e-03,7.519766604322324598e-03,2.380437962710857391e-02
4.642918823346361412e-01,4.755646077530703564e-01,4.654147323094987021e-01,-4.534521024113401938e-03,6.362069735236977781e-03,8.303475953741893886e-03,2.248631045222282410e-02
4.538718434368426147e-01,4.569289747973350746e-01,4.985285483172106069e-01,1.752001472942228558e-03,1.879459628182100512e-03,5.996576554063197872e-04,4.345032200217247009e-02
4.657339287802715333e-01,4.777316615324940230e-01,4.664082242797184530e-01,-2.304986010392639194e-03,9.073816114816285125e-03,9.960022294498880810e-03,2.639806270599365234e-02
4.766733225223268033e-01,4.620033098115541303e-01,4.629267006168490406e-01,-3.930026744700487566e-03,3.742892877241366188e-03,4.064444153717938941e-03,1.845096051692962646e-02
4.737605435945229648e-01,4.625606386387978719e-01,4.649908701700981029e-01,-4.520936892749832965e-03,6.733905499831703903e-03,6.566503534634385818e-03,2.075657807290554047e-02
4.760047943629190370e-01,4.573771379624814171e-01,4.636272191881795623e-01,-6.913408526317508900e-03,1.047853147306659731e-02,1.001719579306645236e-02,3.230241313576698303e-02
4.128902142888030702e-01,4.871350137960028803e-01,5.089957535942162270e-01,-3.195095720768201253e-02,1.074510790011096520e-02,1.495993591914536978e-02,1.081369072198867798e-01
3.315428707024073995e-01,4.501527910255267995e-01,5.676511127560852632e-01,-1.264282717275043433e-01,1.073026368980815604e-01,8.503350369116079166e-02,3.820950388908386230e-01
3.383766260347358390e-01,4.915124416003117669e-01,6.142230553877773280e-01,-1.307125573738626145e-01,1.158627715876102970e-01,3.807106719428297176e-02,3.913795351982116699e-01
2.330294405965440130e-01,4.819323949377225524e-01,5.754321384989322663e-01,-1.400750590201010892e-01,3.146427215836399699e-02,3.765719978726593531e-02,4.000681340694427490e-01
5.190828590831331191e-01,3.595698006195031105e-01,4.952794970459693524e-01,-3.172174203783408811e-03,6.633626666292587182e-03,-1.345691883752463472e-02,1.513919979333877563e-01
4.043040172435119484e-01,4.793906842057039652e-01,5.267107092169830418e-01,-4.335450455164669564e-02,1.709457355874531917e-02,1.018655692446474720e-02,1.351188570261001587e-01
4.529832056636242665e-01,4.470054533672095376e-01,5.019369597817486817e-01,9.279810374259792743e-03,1.276378483143484959e-03,1.118023577211867386e-03,5.469752103090286255e-02
4.745239922632129015e-01,4.464981852084017877e-01,4.661629859430860279e-01,6.201726917173942984e-03,1.050596427053168691e-02,-5.456864300485583970e-03,3.401279821991920471e-02
4.619089143198003011e-01,4.817118827349285426e-01,4.603714480300651890e-01,2.000684845777079418e-03,-3.301645035350362907e-04,-8.728327976180979067e-04,2.096636593341827393e-02
2.985818064678038009e-01,3.853480276670056548e-01,7.117913499580765802e-01,-1.956459400724972486e-01,-1.475403558426082243e-02,3.521546258161258741e-02,5.114912390708923340e-01
4.829130519802940502e-01,4.076555424359525337e-01,5.044494100725965824e-01,9.415543797600471956e-03,9.908541046502301886e-03,6.208528053551014801e-04,9.115882217884063721e-02
7.477966100716182396e-01,3.298998965214783308e-01,4.816568784072057241e-01,7.341994886037124524e-02,8.384170658493052264e-02,-1.934643595647476955e-01,5.327234268188476562e-01
3.250734694689342841e-01,5.426300013026025271e-01,3.803100226347343460e-01,3.365925440689482989e-02,1.730392764371092018e-01,-6.174612237636698843e-03,3.629129827022552490e-01
3.635053315710147226e-01,5.007320796332300761e-01,5.263046386677199262e-01,-8.488467456722520454e-02,2.262988768732617645e-02,-1.938251762418225768e-03,2.148446142673492432e-01
4.705339885521814813e-01,4.832512279504136976e-01,4.590109668629034356e-01,-3.617499993940244494e-03,1.031415400064504247e-03,2.508784247679323245e-03,2.241387031972408295e-02
4.580792691326973087e-01,4.914447466007785259e-01,4.582244425041003821e-01,3.961208564056043109e-03,3.865319894697835223e-03,-4.279542319720205067e-03,3.542980924248695374e-02
4.494765961817936972e-01,4.808477483667479846e-01,4.679322134061787430e-01,4.460662155462828161e-03,6.334971403566070323e-03,-8.079190639681953223e-03,3.349168598651885986e-02
4.688944633849644883e-01,4.399406338824133345e-01,5.066656394899928806e-01,6.115110257266444249e-03,5.718816683467980826e-03,-1.961335533820182154e-04,5.974127352237701416e-02
4.522161863282031513e-01,4.726360730118774889e-01,4.684974822611417400e-01,5.093692695312024461e-03,8.062077866348948268e-03,-9.148624652918964720e-03,2.955521270632743835e-02
4.641644043346314641e-01,4.765136063788485421e-01,4.639116201996450473e-01,1.336092853331070397e-03,9.606088339085872051e-04,-2.349962604052231990e-03,1.343052834272384644e-02
5.275007314797905966e-01,3.420518934868128080e-01,5.206243848719827039e-01,-2.860834575366659298e-03,5.780595362946634036e-03,-1.020948499517984609e-02,1.833053380250930786e-01
5.264668215357320991e-01,4.764529682902854946e-01,3.861400198164319786e-01,6.436463828443679883e-03,6.477694494469489646e-03,-2.095236167145283698e-02,1.293904334306716919e-01
5.061565700288898073e-01,3.977356966956251405e-01,4.972374183071127107e-01,3.104524920300044503e-03,1.224089884827108017e-02,-7.366620914370466434e-03,1.072793081402778625e-01
4.654118633467627109e-01,4.772834031918435360e-01,4.673318045653599428e-01,1.051515669354726075e-02,1.219098493036631543e-02,-8.326209691325034759e-03,3.327717259526252747e-02
5.123294837997038886e-01,3.624004945811072909e-01,4.944167210767848042e-01,-8.726880953682505590e-03,-2.330588192517114854e-03,-1.245893973373228894e-02,1.443065255880355835e-01
5.296978589885497080e-01,5.156390313470604614e-01,4.397328470773494424e-01,5.933561971927805295e-02,9.010283894633991375e-02,-3.257138223308909258e-02,2.124310433864593506e-01
4.762750705796529038e-01,4.508774806157623272e-01,4.445504960922622706e-01,-1.756336701820805082e-03,-2.372089201062733705e-03,-2.634281442881557852e-03,2.987827546894550323e-02
4.821669319711412993e-01,4.866733242921573721e-01,4.306752383895642300e-01,2.414532552603875296e-02,2.489167199416117068e-02,-1.928918373851151030e-02,8.733692020177841187e-02
4.583221927067455681e-01,4.879051013721708574e-01,4.734205743550901069e-01,1.263862963300761179e-02,1.957894197512531284e-02,-9.353490978423971078e-03,5.047899112105369568e-02
4.952895857557172987e-01,3.622292010538113449e-01,5.112431939011826687e-01,-1.266801848695414158e-02,-2.713186451004352597e-03,-7.362862773949560222e-03,1.440435051918029785e-01
4.227199780294396692e-01,4.488889106134147933e-01,5.068709202103827138e-01,-6.203109303433276822e-03,-5.375082789470757424e-04,-2.942741321676222137e-03,7.554028928279876709e-02
4.683051631606510168e-01,4.261651218798342411e-01,4.961779074221777108e-01,1.404366212356558327e-02,-9.501490102108716904e-03,1.010288930451520850e-02,6.997103244066238403e-02
4.816384358304012792e-01,3.879314298234567415e-01,5.040418487709028561e-01,2.216343017022565434e-02,1.864751360513588335e-02,-1.232833697663359394e-02,1.198126822710037231e-01
4.666014995176355762e-01,4.297216639560912377e-01,4.946949765881428207e-01,1.185107753131431178e-02,1.089160884465174492e-02,-3.905371799448854701e-03,6.331216543912887573e-02
4.411447693863496111e-01,4.357573112450365826e-01,4.981242001095413929e-01,-1.130247220550285696e-02,-6.139981653464197768e-03,-5.535030908348117021e-03,6.458250433206558228e-02
4.663703910678499431e-01,4.286072693114572063e-01,4.975605030017962727e-01,1.122109685771400037e-02,1.064760930097253047e-02,-3.623454979643128682e-03,6.583277881145477295e-02
4.927184641797012210e-01,4.688496668453695504e-01,4.012754862462122318e-01,-1.252015842277613353e-02,-8.901007269331176128e-03,-8.358393356385666190e-03,8.755820244550704956e-02
4.166275142388312647e-01,4.486954562682184955e-01,4.944754691132347002e-01,-3.180745216985344376e-02,-2.300282226790472534e-02,-2.631358480014378207e-02,1.062637269496917725e-01
4.573661530891190985e-01,4.482347895662454063e-01,5.045262824913052668e-01,6.720563342601804276e-03,3.085716578487832356e-03,5.578282768636061645e-04,5.388035252690315247e-02
4.593112295562362668e-01,4.825556835812981893e-01,4.650175765083993662e-01,-4.910731774696363910e-04,-1.015379021763177967e-04,3.412907808650661370e-03,2.181568928062915802e-02
4.529961601483716849e-01,3.509802741381473079e-01,5.051336252984230946e-01,-9.095071313714463146e-02,-4.042525115391697177e-02,-5.765798574869109711e-02,2.411149889230728149e-01
4.724559332040297321e-01,4.437183917560033608e-01,4.784396566421256214e-01,7.060252751096497865e-03,1.074519109020102836e-02,-4.431791612149660851e-03,3.985536471009254456e-02
4.828631094032790894e-01,4.755264000543690250e-01,4.908355360882222240e-01,3.575168018349285382e-02,2.847777629853747577e-02,-2.428875915233278532e-02,9.062675386667251587e-02
4.487591050346189658e-01,4.289178741910421588e-01,4.903804795760571267e-01,-3.854627817062864208e-03,-7.195091808295844132e-03,-2.536158234904544763e-03,5.631173402070999146e-02
4.565321667518403848e-01,4.587902586066142097e-01,4.897790747913947085e-01,1.222088278639974629e-02,8.570295385461206700e-03,-6.207003241673339326e-03,4.265397787094116211e-02
3.481511925758942749e-01,5.227929740683939785e-01,5.257086485403269505e-01,2.542102907012375873e-03,-2.171536261326107787e-04,5.928888499313902938e-03,1.764721870422363281e-01
4.652299411156034514e-01,4.778700044721231888e-01,4.536475529809326779e-01,-1.139648040809377975e-02,8.938719768985636804e-03,7.067798046830413815e-03,3.492173925042152405e-02
4.745611941403802825e-01,4.713707310626395475e-01,4.588778063856679967e-01,-5.480276692363657796e-03,3.330435892130368791e-03,3.472773313144716933e-03,1.912241056561470032e-02
4.739740916908565804e-01,4.680106228896662723e-01,4.389064911751319187e-01,2.086311708271663609e-02,2.256325063076731335e-02,-1.891044057871249517e-02,7.044216990470886230e-02
4.346491496415787470e-01,4.584022544397062804e-01,4.789613582049026541e-01,-1.717534546009988339e-02,-1.315572080792587299e-02,-1.325281598150405103e-02,5.836383253335952759e-02
3.767263212285644758e-01,5.131171715520379539e-01,5.100695270814957771e-01,-4.876343827555067872e-03,4.606494149635818533e-03,1.285181752198162955e-02,1.372099965810775757e-01
4.816103061744753666e-01,4.620340229071733806e-01,4.583899601732557838e-01,-4.714938204685764980e-03,3.072333599347580688e-03,3.476837949842464647e-03,2.447697147727012634e-02
4.843019798162456202e-01,4.544332464341255262e-01,4.614938959943605257e-01,-8.922357668763121821e-03,1.435204330881277406e-02,1.285235060321950236e-02,4.564448446035385132e-02
4.806670865415844651e-01,4.375348199424745066e-01,4.390609709025998786e-01,-1.200793573127400399e-02,-1.153087213936660957e-02,-1.483490174193112174e-02,5.734607949852943420e-02
4.821383592885239988e-01,4.695674804949283576e-01,4.417480710303555158e-01,-7.893625958456051972e-03,4.899486635796225335e-03,1.334558708292505128e-02,4.555126652121543884e-02
4.864364976438542709e-01,4.629730437968695989e-01,4.646160076004273165e-01,-3.851444756286698506e-03,6.908324959793022378e-03,6.936255969422993814e-03,2.909800782799720764e-02
4.675787567332033157e-01,4.532815731570584150e-01,4.779974471333658381e-01,-1.098823224368853692e-02,1.282953951317015832e-02,1.256798820819844502e-02,4.232959449291229248e-02
3.237811378488125169e-01,5.314557083338856680e-01,5.402365300253226810e-01,-8.217791015314305711e-03,4.895365328122958971e-03,1.186340570400772586e-02,2.138366103172302246e-01
4.246686119540449833e-01,4.891333653807334314e-01,4.884507136378178349e-01,1.423379588165944037e-02,1.059283572762163492e-02,-1.072844729782806636e-02,7.349754869937896729e-02
5.080694671285974628e-01,4.659533775207353457e-01,4.216119366224251319e-01,-6.905342189609174793e-03,1.667304043047306353e-02,4.303009451268102054e-02,1.101780608296394348e-01
5.067976147866776193e-01,4.475660432203072414e-01,4.221298985168165929e-01,2.695032293447973803e-03,2.388307366238772052e-03,-8.363114003310146913e-03,7.688124477863311768e-02
5.167749108263975932e-01,3.842537356789144098e-01,4.713530735131745697e-01,2.734932785721853280e-03,5.205318146949682902e-03,-5.112451395588372277e-02,1.468009650707244873e-01
4.750663111029838626e-01,4.622190541637839489e-01,4.653439794468383628e-01,1.178801833686836517e-03,4.729327792555731731e-04,-1.381607091783768060e-03,1.205141842365264893e-02
4.737324000819270742e-01,4.539497692612010638e-01,4.883523627393094313e-01,1.214481269678494187e-02,1.305509228078992855e-02,-9.497946552629586356e-03,4.602983593940734863e-02
4.864063690614266466e-01,4.290142197465727225e-01,4.940436667695518036e-01,6.234670822681562079e-03,1.060545817619515038e-02,-3.757552716086336002e-03,6.547447293996810913e-02
4.705515214737797658e-01,4.645527093365303672e-01,4.652525919880318717e-01,1.432087993821677153e-03,1.866688108069800966e-03,-4.271193494651285487e-04,7.030690554529428482e-03
5.020619261754181162e-01,4.167256965998099583e-01,4.754353804610317868e-01,7.752104412810327918e-04,1.010348636167960994e-02,-7.392254952062933711e-03,7.868301123380661011e-02
4.126709569241571174e-01,3.538488334407557945e-01,5.502129659405123885e-01,1.673359679449081816e-01,2.878039362082365077e-02,4.376013467249003155e-03,3.420741558074951172e-01
5.029192112374886170e-01,3.738667713741966048e-01,5.062483440491315489e-01,3.460129333775308763e-03,1.334096819918030282e-03,6.950119812683491077e-03,1.314588040113449097e-01
4.664054498879319777e-01,4.759004628342898835e-01,4.619604729007591448e-01,5.064599110855994880e-03,5.126853751747253649e-03,-3.285784598684955270e-03,1.844754070043563843e-02
5.088224811463059050e-01,4.936467986372621852e-01,4.066968830668466484e-01,-6.954562835696242312e-03,9.019396784110492518e-03,1.584055519885246149e-02,1.012523025274276733e-01
4.704162179500325225e-01,4.709913374171010303e-01,4.618717040377253724e-01,4.681346881680341875e-03,1.499114603325822420e-03,-1.991756671192870289e-03,1.275311503559350967e-02
4.799234534226619053e-01,4.547066760399199326e-01,4.585297124557588533e-01,2.709950715117349484e-03,5.845776648527844718e-03,-3.555353906656109810e-03,2.676881104707717896e-02
4.907536270288589408e-01,4.398420890274115092e-01,4.387539896644187531e-01,-3.800221938591378992e-03,-2.114601124453211866e-03,-1.815558229638744320e-03,5.210752412676811218e-02
4.815439402068158459e-01,4.547942738184951872e-01,4.576337038210128161e-01,7.159833161472883671e-03,6.404467048396465280e-03,-6.613080584024685731e-03,3.249142691493034363e-02
4.978443911450658454e-01,4.837794431373425019e-01,3.761746371849898352e-01,-1.169234274662865440e-02,-3.597170578252455175e-02,-4.712564281127228083e-02,1.557066887617111206e-01
3.872803385486758843e-01,4.943128450779059602e-01,4.929681703083552691e-01,-7.390544960634036487e-03,-7.877379514737031102e-03,-1.283189520784009698e-02,1.102625653147697449e-01
5.192334217866249046e-01,2.270360693346799019e-01,6.929810866832858407e-01,-9.748958588996943508e-02,9.847110966076513122e-03,6.495343565303274280e-02,4.558470845222473145e-01
4.521731408747095560e-01,4.653463277998835523e-01,4.640679101349716729e-01,2.211305364252787869e-02,2.587515665678120566e-02,-1.941614307980917692e-02,6.902766972780227661e-02
4.862274263149990450e-01,4.350504113597850053e-01,4.526281104267715349e-01,-2.867345616040430350e-03,-8.830597309134560757e-03,-3.463422628156107713e-03,4.819831252098083496e-02
4.185243041410788289e-01,4.754829729255112269e-01,5.283689241001797710e-01,6.240902619174275995e-02,2.790194248322528867e-02,-1.661238207721979152e-02,1.546016037464141846e-01
4.456904241889787510e-01,4.578570870276286731e-01,4.576698928613706641e-01,-2.297193303828056789e-03,-3.000474391751295402e-03,-9.719835265023178336e-03,2.172672562301158905e-02
4.732589668675716288e-01,4.435882472531483822e-01,4.850576961420236533e-01,2.419488929248820447e-02,2.017609264974877872e-02,-3.401091141528560929e-02,8.841530978679656982e-02
4.418285981659197392e-01,4.442548612657812868e-01,4.843170668017254821e-01,-1.077495904621634040e-03,-1.869253235911313244e-03,-4.089563310718595870e-03,4.209759458899497986e-02
4.526198746482947288e-01,4.589444912205994931e-01,4.564274662591458753e-01,-1.121078213428616105e-03,-1.842462815928734522e-03,-3.077669304011841200e-03,8.531562983989715576e-03
5.323882267713964112e-01,4.914231559235259783e-01,4.532238889305437723e-01,2.176384608941484555e-01,1.353467634238156025e-01,-9.368706270674943826e-02,4.775873720645904541e-01
4.559683812138627945e-01,4.621291217066122448e-01,4.493762460595399078e-01,-4.641826774684547352e-03,-1.832027442903960213e-03,-2.230636611147335680e-03,1.454851403832435608e-02
4.530642194075150675e-01,4.291706330910453060e-01,4.915230597039731419e-01,-2.834098498364654405e-03,-9.721249912554070019e-03,-2.772369192562058968e-03,5.744186788797378540e-02
4.496908084350190737e-01,4.485741987933771213e-01,4.693541468064610367e-01,-8.025098245337821496e-04,-4.061476855221769766e-03,-9.770661849569102064e-04,2.154374122619628906e-02
4.462823444393418937e-01,4.802401446425010878e-01,5.068988183941369741e-01,4.707195205325803711e-02,3.655102823797706790e-02,-1.012444784108796833e-02,1.171829327940940857e-01
4.350272001300177216e-01,4.434190193310836858e-01,4.907956921789665694e-01,-4.513325740403121948e-03,-3.244258485344598576e-03,-6.857052969816017189e-03,5.427975580096244812e-02
4.553190720253477708e-01,4.571860411467119634e-01,4.984125344577683414e-01,1.875563627797687113e-03,9.960614214389799763e-04,1.554367392673418487e-04,4.235186055302619934e-02
4.399086389528457097e-01,4.839580771944880788e-01,5.067873256442734231e-01,8.496580588278974944e-02,6.579577303941806787e-02,-3.232709932592053859e-02,2.030937820672988892e-01
3.955204310709975468e-01,4.811087643606782871e-01,4.737394943248680601e-01,1.355704113088974649e-01,1.396469310464417690e-01,-6.307826887835012164e-02,3.637682795524597168e-01
4.955006131760081312e-01,3.181960267155417021e-01,4.505658358460828405e-01,1.642457919050268889e-01,1.105809026089248914e-01,-1.311146827044596952e-01,4.412216544151306152e-01
4.982101669213922501e-01,4.590971794516778282e-01,4.558766610653807727e-01,5.731062800462579342e-03,-1.045827293567239136e-03,1.077595512767821548e-02,4.600371420383453369e-02
4.861218813492392821e-01,4.384084479430055969e-01,4.757991606418033315e-01,2.858170208653465320e-03,1.186936191456946198e-02,-4.068798730446198525e-03,4.886119067668914795e-02
4.471629575423226033e-01,4.813414777583234772e-01,4.829219668894003670e-01,5.012967644574622093e-03,4.843652816778950404e-03,-6.486422104808651709e-03,3.868696838617324829e-02
5.008335785233795079e-01,4.585731819055782754e-01,4.495257562947169716e-01,4.045258654763748789e-03,-1.507548055746908222e-03,7.240953510570036396e-03,4.963214322924613953e-02
4.704557841255151418e-01,4.685110619710675661e-01,4.636392190034333005e-01,2.640437705997621728e-03,1.406677523823906184e-03,-1.065356560186595837e-03,8.200493641197681427e-03
4.857820843098857866e-01,4.385522105566014295e-01,4.789851979254963754e-01,2.904517138564356726e-03,1.054813936165164071e-02,-3.737100290059022084e-03,4.854728281497955322e-02
4.981247074164596444e-01,4.557581425566460398e-01,4.567720144507208535e-01,1.629931569684447230e-03,-7.946489143061556465e-04,1.432015205455143374e-03,4.205967113375663757e-02
5.160060510017770996e-01,4.600935221741233039e-01,4.212609714650693560e-01,1.814754629646911019e-02,-4.484487052469358394e-03,4.599830712831070451e-02,1.191690787672996521e-01
4.921920761920994813e-01,4.589367398570600720e-01,4.545444446812651473e-01,1.879578844461559295e-03,-7.915552562056518476e-04,1.007504673505936347e-03,3.587199747562408447e-02
4.706996525471540127e-01,4.688989497994081046e-01,4.658609118874224020e-01,2.452081189363220035e-03,2.691782158496045050e-03,-3.091021583014537475e-03,9.294150397181510925e-03
4.773300348978130048e-01,4.847326220932726693e-01,4.575743316594920174e-01,1.184197334565651079e-02,1.298812579572640284e-02,-5.777890681588294421e-03,4.022751376032829285e-02
4.819658111970788750e-01,4.951059923199188084e-01,4.281237412980185564e-01,1.757221534910037228e-02,-2.317799065474866055e-02,2.426147941797295038e-02,8.990545570850372314e-02
4.924881448872268086e-01,4.624087778580702190e-01,4.547236759796570715e-01,3.609389912853218103e-03,-7.735791049434024257e-04,1.387520801370905124e-03,3.523699939250946045e-02
4.806712233170297721e-01,4.399578592418302847e-01,4.488008455361593430e-01,-1.846401659946396911e-03,-5.617146509831224925e-03,-1.228603718253050339e-03,3.853779658675193787e-02
5.061046873384843492e-01,4.167172939720105718e-01,4.715089728870096031e-01,-1.207497720462694904e-04,1.006540096313212479e-02,-8.264458164045708141e-03,8.126150816679000854e-02
6.979978272317817201e-01,1.362546864294390536e-01,5.794416223150348211e-01,5.823385359681061690e-02,1.696828187505904084e-02,-3.226549095409021045e-02,5.264725089073181152e-01
4.864611018039477486e-01,4.661439025253733548e-01,4.472464496571069703e-01,9.742587728525537241e-03,1.807876484655777027e-03,-8.401716344558888844e-04,3.808572515845298767e-02
5.292564625575902904e-01,3.288815800102917741e-01,5.283678535348382832e-01,-1.443625440096649691e-02,3.302037086889677599e-03,-4.626083350756009759e-03,2.017299085855484009e-01
5.327706243834842148e-01,5.147814360371003595e-01,2.807326162680625070e-01,5.391680395534387618e-03,-9.262026422517216986e-03,-4.341229980986291426e-02,2.555606663227081299e-01
5.267867181501607599e-01,5.290662235540714020e-01,3.626299325853610256e-01,8.267759928032091671e-03,9.987353746233005106e-03,-1.209664626827591620e-02,1.681372672319412231e-01
5.320496260558998936e-01,5.177364608314680705e-01,3.403584437587083844e-01,7.453306221570824876e-03,-5.453891709372728734e-03,-7.417011072331732013e-03,1.860849112272262573e-01
5.221710020527515761e-01,5.102624660335980389e-01,3.271515869702034118e-01,2.060253696932045492e-02,3.177159434850405917e-02,-3.012503349568641450e-02,2.070657908916473389e-01
5.215160817487465295e-01,5.146957261263505057e-01,3.609810868416485907e-01,1.774499207679971005e-02,1.802423000422999355e-02,-1.989379486666477403e-02,1.668222397565841675e-01
5.038555003117076714e-01,4.474849896954245509e-01,4.372260934471601801e-01,3.492021881791275949e-03,3.627315853390556451e-03,-7.530672715289559761e-03,6.408873945474624634e-02
5.029123620759232693e-01,4.233980603118721597e-01,4.316408504259506285e-01,-7.287637777521140808e-03,-6.909524931217846978e-03,-2.056123895907584209e-02,8.547452837228775024e-02
5.183915810445720584e-01,4.948177157003463833e-01,3.635687587398122589e-01,1.356925128641839340e-02,2.723190598991754793e-02,-1.029272364918602106e-02,1.548256576061248779e-01
5.221958108913282715e-01,4.851735667500430282e-01,3.882043435653540486e-01,6.959152695902408314e-03,3.894583711898657284e-03,-2.212681541803574597e-02,1.265830844640731812e-01
5.414577671175569984e-01,5.105271760867549080e-01,3.055138109179160177e-01,1.298218159040291815e-02,-1.769450706165250770e-02,-3.665612256642531569e-02,2.341031283140182495e-01
5.126893856821281847e-01,4.508469302281923330e-01,4.064006141292378915e-01,-7.984474518893567088e-03,-3.133085630357809650e-03,-1.336933122544749393e-02,9.646530449390411377e-02
5.055756430561888504e-01,4.247843861658411879e-01,4.516901361038542784e-01,-1.471590109440796103e-03,3.366326860476944252e-03,-5.047449090111488443e-03,7.207163423299789429e-02
5.061538796577514931e-01,4.508538610107736821e-01,4.097291037411154302e-01,-7.413790487620912362e-03,-4.390796371900874441e-03,-1.257333641046999052e-02,8.786656707525253296e-02
5.106010724631966369e-01,3.991931831131166342e-01,4.708644761572052251e-01,-3.375034545597681030e-03,4.549352703658748019e-03,-1.084200516642502485e-02,1.000632494688034058e-01
4.979347405362087309e-01,4.400440881405998650e-01,4.368095468088240563e-01,-2.949381845310288398e-03,-1.366153817147832631e-03,-1.244374115889590590e-03,5.987804755568504333e-02
5.070984412364499816e-01,4.357351776299090984e-01,4.292231548449546019e-01,3.623643609355723934e-04,-5.780251390808087419e-04,-1.019332041435982994e-02,7.689569890499114990e-02
4.707140861209904159e-01,4.260181826827295071e-01,4.735166038523082599e-01,-4.247784062637693751e-03,-1.150067471702365292e-02,-4.850916112646207722e-03,5.150107294321060181e-02
4.814649685807788071e-01,4.989091103360726032e-01,4.170948970573373771e-01,-1.206656549935351645e-02,-2.796777749961357890e-02,-1.812249145191742461e-02,9.664033353328704834e-02
4.919946048759051838e-01,4.291707950745492495e-01,4.525868080554039663e-01,-3.106365228292576070e-03,-1.026851184977455381e-02,-1.963863818807618216e-03,5.814553797245025635e-02
4.915639333633459174e-01,4.027586542633827538e-01,4.690645200630920719e-01,-5.871967034580071083e-03,-1.128264320200238202e-02,-7.133171525526078166e-03,8.386009186506271362e-02
4.411926554033666625e-01,4.324582800832972307e-01,4.980231323028259660e-01,-6.477457624824456764e-03,-6.087110610738169850e-03,-2.350663894747331579e-03,6.368657201528549194e-02
4.515365321183104630e-01,4.529820256816242119e-01,4.579462696961199009e-01,-2.417078953358459906e-03,-2.195510266684482566e-03,-3.446383167925276027e-03,1.007617171853780746e-02
4.555423126427948777e-01,4.555429302597030494e-01,4.533590437628244318e-01,-5.141696348845893431e-03,-5.363771142935173930e-03,-4.659630389382106962e-03,1.534684747457504272e-02
4.905079462896219100e-01,4.392429097916816794e-01,4.447697128212159123e-01,-2.080133509990630958e-03,-4.441952453529155083e-03,-1.109028003793873386e-03,4.950940608978271484e-02
5.062876571192093111e-01,4.527975060460029955e-01,4.078286358602399853e-01,-6.538076865144634188e-03,4.739026370530375828e-03,-2.037918492693700442e-02,9.343626350164413452e-02
4.976171596025452115e-01,4.372471010733179897e-01,4.320786288505059636e-01,-5.036935073025324699e-03,-2.417804845548785029e-03,-6.439202105258486596e-03,6.481757014989852905e-02
4.510129032911484037e-01,4.621324387246155685e-01,4.537231204079195668e-01,-2.413190833721609932e-03,-1.820702600872716164e-03,-4.389788744398611699e-03,1.364107988774776459e-02
4.582295864933454976e-01,4.362330243524086271e-01,4.734689507151611521e-01,-2.085353123417108424e-03,-9.621444613367261325e-03,-2.699510456404578644e-03,3.693135827779769897e-02
4.556055164816276148e-01,4.506670681451664384e-01,4.617207150297690799e-01,-2.316247418377814608e-03,-5.192605447674301586e-03,-2.429375453332980640e-03,1.437614578753709793e-02
5.113947886238696672e-01,4.347688254383462736e-01,3.899796218969400763e-01,-9.768019750874894561e-03,-1.208402116770890093e-02,-5.308725922968441507e-02,1.431387811899185181e-01
5.006446884581672307e-01,4.360437349228424297e-01,4.378679731712676881e-01,-1.291346141851156329e-03,-1.248959384989999305e-03,-1.596861740726353068e-03,6.384430825710296631e-02
4.262773460913136803e-01,4.719703522648999727e-01,4.581835314124979019e-01,-1.598910968321564513e-02,-2.295852835008699994e-02,-2.125188762450538199e-02,7.315142452716827393e-02
5.043092641002868692e-01,4.406027090130685275e-01,4.356793242220382556e-01,-8.980124014340975592e-04,5.010429910265300907e-04,-2.324763039389660460e-03,6.645150482654571533e-02
4.300153751107099187e-01,4.280997027666980093e-01,5.068621636182005785e-01,-2.333900234378725666e-02,2.801877118984914729e-03,3.050482745146558365e-03,8.798810839653015137e-02
4.490550096130859759e-01,4.671088542235492524e-01,4.434696918921779973e-01,-4.818665301378631007e-03,-3.067057775758773395e-03,-8.762031986935094399e-03,2.803876437246799469e-02
5.185722453377840102e-01,3.877826412541819368e-01,5.103065871848555535e-01,-5.838893117050355380e-02,2.732723129365119755e-02,2.129543261260913659e-02,1.729791909456253052e-01
4.624744347754530249e-01,3.671759985437547669e-01,5.765522680543071488e-01,-6.540763703806588836e-02,3.728162653368834178e-02,3.980887908549978621e-02,2.339347302913665771e-01
4.098853693673654708e-01,4.149183321013443226e-01,5.370471851461302570e-01,1.534233893919688119e-01,8.191890108685170868e-02,-2.526970716627631452e-02,3.289672732353210449e-01
4.683266325340682545e-01,4.638894226467181747e-01,4.728555064874013225e-01,7.454220107520333032e-04,1.081536486783980441e-03,-1.041602842850453039e-03,8.290116675198078156e-03
4.749356883372966021e-01,4.591494560019067639e-01,4.713901680496043745e-01,1.080072714931671653e-03,4.086406709922126186e-03,-1.016473447811874764e-03,1.620187982916831970e-02
4.948312609285962504e-01,3.911906686567324654e-01,4.995437656608687216e-01,1.564261933560066875e-02,1.698396941010750158e-02,-1.329030783848103234e-02,1.156776696443557739e-01
4.095172646528563720e-01,5.089030605768979365e-01,4.708131960089358414e-01,-3.977885895957462316e-03,-8.735368044810749161e-03,9.308553053156728811e-04,8.844079077243804932e-02
4.131771820072266399e-01,5.378486735480257908e-01,4.590091771778749830e-01,1.004405774197131632e-02,-7.781346306904327048e-02,-3.794857261090291752e-03,1.744713932275772095e-01
4.681099106847210756e-01,4.664251161204989171e-01,4.652289407053931680e-01,3.108079411250665169e-04,1.556786307102964043e-03,-2.620779541169873401e-04,3.748504910618066788e-03
4.295393607800334079e-01,5.052186166630567854e-01,4.433980001835315377e-01,-5.678488161460495346e-04,-8.853133927138521347e-03,9.373064287104993387e-04,7.147962599992752075e-02
4.434121889529640814e-01,4.972557521685384008e-01,4.444781605174223382e-01,-2.137269478522574664e-02,-4.000790167552151916e-02,-2.070840344513746531e-02,1.014970764517784119e-01
4.745561072911617662e-01,4.619300702008726778e-01,4.593502447836508296e-01,1.155519530730498862e-03,3.454897238095419425e-03,-7.878017428542337212e-04,1.550231594592332840e-02
4.959188143354434919e-01,4.243080527746365127e-01,4.755499790218853384e-01,1.089876927634807376e-02,1.477056838958511024e-02,-5.800624848901429070e-03,7.208441942930221558e-02
3.587953058828690089e-01,5.649390737698842813e-01,4.618889079928513164e-01,-8.064901414826027015e-03,-7.868388649378012245e-02,-1.911726982644908202e-02,2.274564504623413086e-01
4.732235244648644312e-01,4.588992142535897600e-01,4.676019605763364617e-01,1.448617749919704160e-03,6.611249941559452399e-03,-1.899211439200304856e-03,1.745007745921611786e-02
4.865663348836540281e-01,4.498323842566369635e-01,4.677543841931808277e-01,2.096313780507227248e-03,5.696798179177673879e-03,-2.619188478056929271e-03,3.381360694766044617e-02
4.930860572341285719e-01,4.308203037641189503e-01,4.680702977654337404e-01,-3.052237285595828849e-03,1.027395989092327357e-02,1.195831844227252666e-02,6.098198518157005310e-02
5.005577597595602946e-01,4.213276212216079397e-01,4.636978467800588755e-01,-2.541600216410507766e-03,7.742186052735921392e-03,1.661409863387838803e-02,7.578218728303909302e-02
4.860459493144481113e-01,4.522522088497639703e-01,4.516299588307544632e-01,1.522980927725587491e-03,4.067293450218637148e-03,-1.754758134746439409e-03,3.506075963377952576e-02
4.973711700331333585e-01,4.392958682870038434e-01,4.445506265642508725e-01,1.663778119803625225e-03,3.518323204642375378e-03,-3.037584103527295968e-03,5.628767609596252441e-02
4.981653107810367076e-01,4.520754015324016106e-01,4.446271882004058651e-01,4.406446335882862816e-03,1.142641790604340254e-03,-2.141671157359343377e-03,5.098009854555130005e-02
3.793167471118482070e-01,5.243833875959519331e-01,4.742193766614769546e-01,-2.698691230356301332e-03,-2.099432787700152014e-02,-7.351519382300773439e-03,1.333787888288497925e-01
5.020969909952918142e-01,4.245741258465411949e-01,4.506579243857746775e-01,-4.426220527499168935e-04,-3.539000102995703157e-03,-5.358098333133669462e-03,6.922685354948043823e-02
5.040324537559723872e-01,4.438436750298504485e-01,4.384488937257455254e-01,3.260019016237361567e-03,5.321670204626062321e-03,-2.910894375330103177e-03,6.417758017778396606e-02
3.160042758587762179e-01,4.768990903030746464e-01,4.923096250856937028e-01,-1.190772666233366334e-01,1.351505613661712901e-01,9.423432356428164403e-02,3.906144201755523682e-01
5.311063906505492094e-01,5.745709525564147713e-01,3.584589725275416638e-01,4.199394511685039522e-02,7.163191145290376260e-02,-2.554823134949025382e-03,2.447525113821029663e-01
6.339499112754043431e-01,5.441320398493916244e-01,3.027219705196610433e-01,2.734609987287058355e-02,1.973148686931557871e-01,-1.373532792428171050e-02,4.556730091571807861e-01
5.173984091727068524e-01,4.180038277476274544e-01,4.543130461547401633e-01,3.309295528242372879e-03,5.776645765536828764e-03,-2.155820598893054552e-02,9.547740221023559570e-02
5.269415300795284862e-01,5.361226860181259601e-01,3.306580310910881004e-01,1.580574297593950392e-02,2.874136179835829266e-02,-9.148641392157673413e-03,2.095050662755966187e-01
5.000835040422959565e-01,5.273884885569850578e-01,3.634556076598041696e-01,3.555146358418762465e-03,4.689699956343234416e-02,9.402582154889349217e-03,1.733334809541702271e-01
5.044727772626381723e-01,4.359414285609252704e-01,4.380216701408813362e-01,-9.357179599598265814e-05,-7.070786669828630190e-04,-1.197208689435632452e-03,6.755840033292770386e-02
5.021570918355298119e-01,4.362212846925903609e-01,4.402288431383146183e-01,-1.148593695052475697e-03,-3.041201147775631462e-03,-1.819469593313993196e-03,6.435049325227737427e-02
5.109212296663935282e-01,4.249959094596051923e-01,4.510250406799897194e-01,6.099653462242539431e-05,1.201891662531740044e-03,-4.791377872164102533e-03,7.679408788681030273e-02
4.888884349210239066e-01,4.325128734128218522e-01,4.870301038522417136e-01,-5.624437861675979193e-03,1.513985121739797567e-02,4.702887327956113001e-03,6.265614181756973267e-02
5.018563998733401865e-01,4.296343771222307373e-01,4.377061386900379381e-01,-8.967929308545420902e-04,-2.580743857133415819e-03,-8.109830673199211817e-03,7.012785971164703369e-02
4.940602545707336035e-01,5.439089593724268923e-01,3.472091134621955177e-01,1.039765684270242685e-02,1.473012432214443057e-01,1.493642005811194294e-02,3.121811747550964355e-01
5.505564408322383141e-01,5.491407345950032326e-01,3.455264882888352540e-01,-3.352514511487319094e-03,6.567780443034920701e-02,2.436526150783699385e-02,2.377066761255264282e-01
4.902523368074870880e-01,4.288694392274209899e-01,4.477810209183935020e-01,-2.695637620551149822e-03,-7.233236564459089371e-03,-3.203012058341039772e-03,5.634000897407531738e-02
4.338886389056004766e-01,4.777052748217718303e-01,4.538196068835397279e-01,-1.244998589684278081e-02,-1.957581300822284001e-02,-1.459768668198856492e-02,6.080916151404380798e-02
5.199849915773722131e-01,3.299821293493179208e-01,5.203366017260728782e-01,-4.218503943680756117e-03,6.066128055011929532e-04,-3.644310988817078996e-03,1.904267668724060059e-01
5.475550589396416257e-01,2.840707626817946529e-01,5.454083930214093101e-01,-1.265969411319524569e-02,2.080532042957716765e-02,-3.882861364369485924e-02,2.741629779338836670e-01
4.753549996938654099e-01,4.456881832970612245e-01,4.505650503233128989e-01,-2.169307244771701264e-03,-4.583829458687301885e-03,-9.805196337892571959e-04,2.896996960043907166e-02
4.729672169514071434e-01,4.535785859599553715e-01,4.387001935429906130e-01,-1.161991916285379407e-02,-4.371253358972415452e-03,-5.596705739762120047e-03,3.797522559762001038e-02
5.337236580183725154e-01,3.703225079673420073e-01,5.430900404150394989e-01,8.021856697740026299e-03,1.017044265392502526e-02,1.367193544547201309e-02,1.714125722646713257e-01
5.111058051360165555e-01,3.248741174155795886e-01,5.734707075669263077e-01,-3.795627436349592598e-02,3.283878552056476025e-02,3.124432208420027668e-02,2.463163882493972778e-01
4.806436130942410290e-01,4.442480831630387095e-01,4.408332375246429291e-01,-3.668593940246771875e-03,-4.532574693081764549e-04,-1.092600133634330159e-03,3.879631683230400085e-02
4.725119666788707984e-01,4.975137760017481758e-01,3.922018024929593838e-01,-1.552712356671404406e-02,-1.332861884445525093e-02,-9.162355580536541214e-03,1.029115617275238037e-01
4.726060761644452768e-01,4.372745444660742220e-01,4.576884213750245789e-01,-1.898333938639327383e-03,-9.944735232592455398e-03,-2.195983761471057092e-03,3.557753935456275940e-02
4.751040432668248159e-01,4.371419583312678991e-01,4.522890215940544856e-01,-2.474989774247969478e-03,-8.599335470983800189e-03,-3.367690472082943490e-03,3.701061755418777466e-02
4.548438645252033674e-01,4.527084441515120128e-01,4.617708903851697744e-01,1.612319954556661210e-05,-3.412366599192258754e-03,-1.722945608594881771e-03,1.054395362734794617e-02
4.618043068644163140e-01,4.459484046468465412e-01,4.576278692404027182e-01,-1.881935533207975981e-03,-6.719693695231831847e-03,-1.778244635238618440e-03,1.892631687223911285e-02
4.729409620506836998e-01,4.308300348239966771e-01,4.567030035379797681e-01,-5.235101195894036052e-03,-1.236520034771621153e-02,-8.772588484154131283e-03,4.609766229987144470e-02
4.569474192878912877e-01,4.548061433018841249e-01,4.525215204272107217e-01,-4.930631406418915438e-03,-3.824350602503380752e-03,-4.576021615611498838e-03,1.394011639058589935e-02
4.635624770277381179e-01,4.554908372112486670e-01,4.511083635792793034e-01,-8.058729990081027082e-04,-1.993876034391322150e-03,-1.971675748944574751e-03,1.205274369567632675e-02
4.448923097929787240e-01,4.554538216347300272e-01,4.685116555003524530e-01,-1.911784241068653026e-03,-4.614595586046872470e-03,-9.297148305361928322e-03,2.746128477156162262e-02
4.588575382129160274e-01,4.534261537267377795e-01,4.999104537579552865e-01,9.441266420724343843e-04,2.169708567450918512e-03,-2.209697267544021872e-04,4.421266168355941772e-02
4.810517047789497069e-01,4.451203162313820960e-01,4.414959397679928399e-01,-8.186706764062030850e-03,-7.857436877418933277e-03,-1.035799311517954756e-02,4.628799110651016235e-02
4.806239186819949993e-01,4.337019464110364875e-01,4.534366730725455374e-01,-1.887754717713198069e-03,-1.031500744572953245e-02,-3.947321897510035205e-03,4.518596827983856201e-02
4.449586106011856890e-01,5.000451946321374797e-01,4.483793800899350535e-01,-3.651491150894973798e-03,2.315417534747758743e-02,7.533206645352890675e-03,6.838413327932357788e-02
3.933199051878277785e-01,5.083144723017363198e-01,4.924773701170573892e-01,-1.144902601524954745e-02,1.157147098398696866e-02,1.350750016723020926e-02,1.139985918998718262e-01
4.871575997379049561e-01,4.278306510146193120e-01,4.960972336991982257e-01,5.362112607558965419e-03,1.302451805130202395e-02,-3.863927711434655184e-03,6.906464695930480957e-02
4.857280870571028530e-01,4.531815009636926406e-01,4.534998682392391012e-01,6.001882404455691428e-04,1.550084252215814173e-03,9.324843237145584397e-04,3.255637362599372864e-02
4.586531265211647446e-01,4.934617602654082225e-01,4.582600989973554251e-01,1.798224982756709304e-03,1.878133486992569897e-03,-7.865612826624074436e-04,3.532159700989723206e-02
3.725317540604914934e-01,5.449832276864300384e-01,5.623999042233196466e-01,-5.324870297465449792e-02,4.625510037315168355e-02,3.542733140168309591e-02,2.274566888809204102e-01
3.047792644639208959e-01,4.923238113060318666e-01,5.222836618531230268e-01,-5.747689762822844051e-02,5.722067023770759618e-03,1.242149059375017087e-02,2.283883690834045410e-01
4.651681506099323848e-01,4.774440211471421280e-01,4.625956140810318917e-01,2.576698425997721569e-03,7.858785118030597308e-04,-5.134036081464499234e-04,1.454155240207910538e-02
7.554837602335852109e-01,5.402820182639460622e-01,2.722190146388319687e-01,6.055507787814583959e-02,3.897411931335872937e-02,-1.937223222196647887e-01,5.513618588447570801e-01
4.664220850646122463e-01,4.438973713752485395e-01,4.998227915952032085e-01,3.045790660038979678e-03,3.315033236273506184e-03,-9.722893174415982772e-04,4.938568919897079468e-02
4.022043814205962242e-01,4.756321353793835915e-01,5.858735105656770470e-01,-1.052254598173628514e-01,2.652162596825352603e-02,2.678443995476712663e-02,2.512353062629699707e-01
5.331131109815727687e-01,3.573130215731638581e-01,5.272627375402989536e-01,6.702266049448397760e-04,1.923917680973839806e-02,1.666121076826088121e-02,1.784824281930923462e-01
5.846959030688289038e-01,5.257371308550435884e-01,2.951347476087623489e-01,2.722267483310189529e-02,1.814644278996763171e-02,-3.098754300590838076e-02,2.762995064258575439e-01
4.861915035880458591e-01,4.756394496635455438e-01,4.395102190235373740e-01,9.972675052523105946e-03,3.013782558167650560e-03,-3.160491685263823198e-03,4.640562832355499268e-02
4.328497721920900321e-01,4.816089081113043013e-01,4.962044533112366929e-01,-2.215917067284051481e-02,2.340203602329700774e-02,1.555402283835875983e-02,8.452209830284118652e-02
5.170215395788394508e-01,3.911071656729269708e-01,4.873897035212854112e-01,2.413646159936746333e-03,7.327636843771698563e-03,2.194550369608163493e-02,1.209329441189765930e-01
5.148741405577411667e-01,4.979424477137848193e-01,3.653957657328484321e-01,1.843257423089958739e-03,-1.273834289077452244e-03,-9.975325820689943251e-03,1.428745090961456299e-01
4.769653358434037260e-01,4.541288527038184197e-01,4.650327865345313949e-01,4.078925297267091757e-03,6.368917309381786664e-03,-1.975304155844492468e-03,2.397292107343673706e-02
4.640372135782694918e-01,4.765876914601677172e-01,4.652236941190699415e-01,4.991956964626935271e-03,4.791488894791087576e-03,-3.742080829956989912e-03,1.815694943070411682e-02
4.532326177320953886e-01,5.003189153547219492e-01,4.578536324602685004e-01,1.364373986946031733e-03,1.895879022462065465e-03,9.526395239388928387e-04,4.516610503196716309e-02
5.184352692320381983e-01,3.890845808277329509e-01,4.913631045995389690e-01,6.497545758672392674e-03,1.370965425888123583e-02,5.405166125762587981e-02,1.530292928218841553e-01
4.457315347126088456e-01,5.071549181103333082e-01,4.665970831224224291e-01,-1.202087307476069900e-03,3.845240021044938998e-03,1.490838582183865108e-03,5.460705980658531189e-02
5.254934484399796935e-01,3.842896344262888286e-01,5.104847328403495643e-01,2.423248668800995730e-03,8.560560929146065687e-03,7.180849638709799025e-03,1.357816308736801147e-01
4.586174629799787961e-01,4.997741900838322260e-01,4.507712490163642838e-01,-1.641934986767309415e-03,5.163581063298762486e-03,2.139845758859470950e-03,4.669235646724700928e-02
5.253113907796727045e-01,3.635712083525965421e-01,5.254961918011752386e-01,6.719576312906616090e-04,1.175847199849662690e-02,1.220150166770660183e-02,1.644766926765441895e-01
5.579871310681729923e-01,4.328063357721859128e-01,5.133985713140185592e-01,-5.677000352980502925e-05,3.432373099618785811e-02,8.408052286469337722e-02,1.918846219778060913e-01
5.045350857447243875e-01,3.390299904452533930e-01,5.178260868127119165e-01,-4.154581091215518024e-02,9.613771017188108697e-03,6.188560409993943377e-03,1.879857629537582397e-01
7.291180521504261325e-01,5.430621314196495408e-01,3.080113640611146231e-01,9.956163204125557942e-02,7.853852025135381332e-02,-1.786639765430602378e-01,5.268806219100952148e-01
5.386569882979725943e-01,3.291968913904121941e-01,5.244453725726301307e-01,-4.975851379375689082e-02,1.986086992200722032e-02,1.507893997269347218e-02,2.244815081357955933e-01
5.377310055821673540e-01,3.522381845930865341e-01,5.451785610425573525e-01,-4.713654729229066476e-02,2.674827523962815257e-02,3.860310251175184948e-02,2.216463238000869751e-01
5.054979897182494408e-01,4.375243671966853598e-01,4.439018106701688726e-01,-9.896474279641257735e-06,1.688978831040019836e-03,-2.461211788040010024e-03,6.522513180971145630e-02
5.791102650059148926e-01,2.184699154904840568e-01,5.884668237606802688e-01,-1.581810984847038248e-01,3.682794799360387256e-02,-3.807353823997945697e-02,4.658377468585968018e-01
4.530434514733948648e-01,4.453659792776250015e-01,4.826894595553054557e-01,-1.726562135101691181e-02,-1.292919667977915875e-02,-1.054196568080789827e-02,5.380178615450859070e-02
5.416495853706790875e-01,5.784207663850891024e-01,3.555617451758119607e-01,-8.952774708524625924e-02,-1.766885661604113977e-01,-1.281032925209301676e-01,4.579924046993255615e-01
4.548950943351610654e-01,4.271779523151550406e-01,4.977119000052511177e-01,-2.470432667764302023e-02,-1.030945168901624756e-02,-1.637202627597215271e-02,8.211074024438858032e-02
4.537901126372232419e-01,4.995942346221847741e-01,4.600979311476690592e-01,1.133353945990260873e-04,1.721008111490937575e-03,3.324911982633014292e-03,4.348529875278472900e-02
4.561413515595671431e-01,4.970617005130711363e-01,4.582972733517096664e-01,2.469178827587857009e-03,1.585224131919594267e-03,-3.574137475226738620e-04,4.021336138248443604e-02
4.675514721916089744e-01,5.058260094991732236e-01,4.400852943040811649e-01,7.219256895093580269e-03,4.771237952310455541e-03,-1.300326641949924511e-03,5.916338413953781128e-02
4.578641720184075115e-01,5.044742107392117259e-01,4.569912297331872320e-01,-9.214235376430897611e-04,8.949207590549882255e-03,4.613082427342147032e-03,5.020556971430778503e-02
4.407923817985307524e-01,4.219084781518684935e-01,4.975858165433942326e-01,-1.090328870755405584e-02,-6.980428861148625826e-03,-3.340946887694623557e-03,7.204781472682952881e-02
4.667109095165341004e-01,4.950715050581308008e-01,4.445049259369212580e-01,-1.553008777121836969e-03,3.947658913254310439e-03,2.282551292945999774e-03,4.468581080436706543e-02
4.341713509924014502e-01,4.920472922460273346e-01,4.685673687799898901e-01,-3.411874776519437363e-03,1.331391206505830489e-02,1.252716989319263563e-02,5.982894077897071838e-02
6.959540210332207932e-01,2.373458977352040922e-01,4.940545344205956590e-01,6.752586763163063999e-02,9.702357043900182096e-03,1.152861839769630664e-01,4.607889056205749512e-01
4.535693303853108316e-01,4.972485459834590227e-01,4.577356593621595415e-01,-5.561415759151955925e-05,1.554890783989864526e-03,1.166547168622824237e-03,4.188788682222366333e-02
4.636498399065216991e-01,4.841934391626669387e-01,4.573856872974195187e-01,-1.248131599401248668e-03,2.725861815090970409e-03,1.917981539652247611e-03,2.505928464233875275e-02
4.466545115457755677e-01,4.086669735437157280e-01,5.006206174861497216e-01,-1.878670364070496313e-02,-1.167468951832408182e-02,-1.161019875063056824e-04,8.873099088668823242e-02
4.401933496003480051e-01,4.402064478196654473e-01,4.982946627947989482e-01,-7.753294160495059935e-03,-7.178200308591584609e-03,-3.384611566106282554e-03,6.119059398770332336e-02
4.333502672889268936e-01,4.575665043312798774e-01,4.672661010080824684e-01,-8.624191103890113327e-03,-5.758915824942444084e-03,-1.350663911805712047e-02,4.225292056798934937e-02
3.527376153154876959e-01,5.000262367610077696e-01,4.480541623044442257e-01,-5.423855940828043593e-02,-8.152502023076391158e-02,-4.322823999259898381e-02,2.260766029357910156e-01
4.608553484833807778e-01,4.841819095617699853e-01,4.651594916482749698e-01,-2.037941301646366016e-03,2.084472432590391434e-03,1.845696788173557855e-03,2.231519110500812531e-02
4.650377426060271491e-01,4.917426423119918288e-01,4.557239706464101814e-01,-4.323275784506427390e-03,6.189457705755719696e-04,2.523261105411767589e-03,3.354017436504364014e-02
4.814724535172538178e-01,4.594923551699618969e-01,4.614194522582836799e-01,-9.496073885653812498e-04,4.253489657559124393e-03,1.746067456816515623e-03,2.259665168821811676e-02
4.668050698769543039e-01,4.612079738702388743e-01,4.723194704638087882e-01,-2.315400246061112034e-03,7.159424637147774814e-03,1.293923388060382214e-03,1.635477878153324127e-02
5.463803232246865482e-01,4.756564553966822206e-01,4.910443999260429848e-01,5.902665283876992047e-02,-1.729106677370221418e-02,9.008523344184815596e-02,1.996140927076339722e-01
4.518740264673222207e-01,4.796468821920795156e-01,4.740017386787959697e-01,-2.270580976225141431e-03,2.159140026522969949e-03,7.995930952290061094e-03,2.945631369948387146e-02
4.274701161767420765e-01,4.754365304334203790e-01,4.878421305111073081e-01,-4.750202086996725172e-03,3.781732408260716789e-03,1.171352789058473579e-02,5.976575985550880432e-02
4.603028387498585561e-01,4.828008973331615050e-01,4.581370593448833017e-01,-3.386525528952027183e-03,2.909823234587331515e-03,2.469812863746474567e-03,2.525244280695915222e-02
4.653397467518350927e-01,4.699197280419831202e-01,4.698797415751901352e-01,-2.971133028089475124e-03,3.570857046026115842e-03,5.000338939142786980e-03,1.267047040164470673e-02
4.663123543204119037e-01,4.663717677744845802e-01,4.678578807634209968e-01,-1.524565549559148050e-03,7.176391339807638254e-04,6.056148465664245792e-04,3.452330129221081734e-03
4.709711973542304309e-01,4.611113578611124031e-01,4.658358036147680070e-01,-1.032710221414535412e-03,3.352568728731035799e-03,2.295887423715018078e-04,1.048958022147417068e-02
4.301809822839103292e-01,4.569975679632932719e-01,4.729327191056533763e-01,-7.159021031390875797e-03,-4.827081624220876804e-03,-1.348187674838183421e-02,4.657600820064544678e-02
4.713550785535834398e-01,4.636893700789477268e-01,4.670135705061305154e-01,-2.499795977045356481e-03,1.944011357316091908e-03,1.482238728106646678e-03,9.000367484986782074e-03
4.664115371700846002e-01,4.695957032448706547e-01,4.669324909297407622e-01,-1.570285981448147619e-03,7.371768008178452821e-04,1.075285079234478179e-03,4.609544295817613602e-03
4.308120176910775756e-01,4.832947433936751191e-01,4.870930236036547512e-01,-3.920477568187790557e-04,4.974841925277146380e-03,1.471424126992275719e-02,6.076547130942344666e-02
4.179032700213208273e-01,4.560339570669220688e-01,4.916642657293591734e-01,-1.590911366882863387e-02,-5.059482287367735205e-03,-1.383773742132137809e-02,7.411221414804458618e-02
4.492566725580086628e-01,4.803922133372505732e-01,4.355383234156273708e-01,-7.664699347025417595e-03,-4.339040245986512147e-03,-3.476006761907386375e-03,4.305480048060417175e-02
4.418143068718278776e-01,4.812434959004733281e-01,4.595381369596892029e-01,-1.500876113334748650e-02,-1.797410135029706840e-02,-1.562572972148658368e-02,5.956041440367698669e-02
4.496689095310440476e-01,4.724419812819993236e-01,4.456754558825928858e-01,-8.844023204231190455e-03,-6.854003976641267863e-03,-5.347797249875043020e-03,3.296790644526481628e-02
4.248543960511170781e-01,4.761131656741582896e-01,4.451336671525310540e-01,-2.376684516633642205e-02,-3.801065331282109383e-02,-3.079265114963841699e-02,1.042727157473564148e-01
4.677861289513035037e-01,4.467401434046576192e-01,4.477775364023486304e-01,-9.073954647604113091e-03,-1.029467045269516316e-02,-8.899785156033353239e-03,3.499637171626091003e-02
6.061366739741360643e-01,6.583972566572158236e-01,4.062078292705511018e-01,1.015947759107760223e-01,1.856271831416563822e-01,-9.380704085631640793e-03,4.333035349845886230e-01
4.766587900474174022e-01,4.526306741718795212e-01,4.674714647154121772e-01,2.820838848065947754e-03,6.801373450201321849e-03,-2.072865482481208322e-03,2.483024261891841888e-02
4.861326469789983284e-01,4.664325454336015753e-01,4.465877853914059781e-01,9.732344129345914599e-03,2.144379535565060692e-03,-1.114716995020862116e-03,3.839961811900138855e-02
2.820341971844273488e-01,5.110102696105908171e-01,5.257741591632962841e-01,-8.583879830907353847e-02,1.024430708255781863e-01,4.996078932277027429e-02,3.422067761421203613e-01
4.749794591448003311e-01,4.711238598012723044e-01,4.595710820274750974e-01,9.702993501690852091e-03,9.855710185887099281e-03,-8.731839969252695385e-03,3.155090659856796265e-02
4.732697256966025279e-01,4.559389373848216631e-01,4.717742925737846149e-01,1.786231083397275951e-03,6.962956608978350566e-03,-1.458381981585301669e-03,2.093027159571647644e-02
4.496389600920033258e-01,4.965873351754508946e-01,4.675026011383205393e-01,1.824742036251607476e-03,4.839392778936703852e-03,-2.808674636947871769e-03,4.229071736335754395e-02
4.854256940511019747e-01,4.413580137632328593e-01,4.663685148565616667e-01,2.957377222674073373e-03,1.045022249359272258e-02,-5.240170675348379374e-03,4.360698163509368896e-02
4.839523677832417992e-01,4.422973895361491103e-01,4.378837315683015152e-01,-7.121725764115447756e-03,-4.743267703509910713e-03,-4.547965118965922350e-03,4.711871221661567688e-02
4.668556419944366875e-01,5.015393263250154110e-01,4.216110502823702255e-01,8.933218636476164889e-03,1.379160726847817806e-02,-1.181457499346765232e-03,7.505664974451065063e-02
4.736852094341509334e-01,4.619380591758357468e-01,4.661691534365131062e-01,8.734212167539837784e-04,5.376574639171691553e-03,4.608364877675009540e-05,1.397182978689670563e-02
4.615725736690071690e-01,4.918913472108902285e-01,4.498047589980025407e-01,6.788705685834460317e-03,4.672844678906730963e-03,-2.111417794593102235e-03,4.039350897073745728e-02
4.951878522441116037e-01,4.549657369779918636e-01,4.494657270140206551e-01,2.804675704262734465e-03,6.881760702132647817e-03,-1.047462924668943890e-02,4.862220585346221924e-02
4.151756030968701272e-01,5.160497038524027857e-01,4.855526162813929569e-01,1.118224001699719621e-04,7.564950504607285617e-03,4.646780125744423215e-03,9.091639518737792969e-02
4.917443430207512622e-01,4.559812675500911072e-01,4.706152591289441967e-01,1.142186663628198817e-02,1.041022830251739535e-02,-1.267612986520627247e-02,4.656547307968139648e-02
4.676043846354664413e-01,5.024506601730475142e-01,4.441409420799040664e-01,8.968650371241702196e-03,3.044646437527808933e-03,-1.639049746702538838e-03,5.347512289881706238e-02
4.459801562693896382e-01,4.441438943312368548e-01,4.757632145025779136e-01,3.500605044392968309e-04,-2.238440394334025463e-03,-1.211365078293206608e-03,3.106273710727691650e-02
4.975555032857101878e-01,4.534585943394567331e-01,4.366499721267581569e-01,4.092709146504483822e-03,1.064750447446327110e-03,-3.801143580822834590e-03,5.536491051316261292e-02
4.815072391341894686e-01,4.544854075092614187e-01,4.568803967541580913e-01,7.263269190468848308e-03,3.389440687264543960e-03,-2.572256873719697048e-03,2.972840517759323120e-02
4.650028235328894088e-01,4.658132065955779000e-01,4.717710705560133055e-01,2.451372234108789051e-03,2.151458063544425987e-03,-3.567993980409015897e-03,1.053977012634277344e-02
4.829143807933473642e-01,5.053371089460502175e-01,4.124200580755761347e-01,-1.444436547824469712e-03,8.362601397818181931e-03,9.300688659440381955e-04,8.527342230081558228e-02
4.818845325234411003e-01,4.662851194740786354e-01,4.546839217421987378e-01,7.779465698470636528e-03,3.119171227559403188e-03,-2.778099611002899771e-03,2.815675362944602966e-02
4.651160442048274946e-01,5.002104836806520183e-01,4.396963690808882719e-01,3.519004281085095793e-03,5.253813407834233805e-03,-1.036922578592531651e-04,5.375740677118301392e-02
4.861176356850215319e-01,4.645353853437781400e-01,4.401044409050453021e-01,1.125264847287281954e-02,3.291764749941334268e-03,-4.817259458862464469e-03,4.551846534013748169e-02
4.963707126610998333e-01,4.559276316835454423e-01,4.258498104742162726e-01,9.706853526018986711e-03,3.718110034211757290e-03,-1.332331823612271926e-02,6.792224943637847900e-02
4.561392901318653270e-01,4.998390819292198306e-01,4.548596217169704192e-01,1.571009535845304544e-04,1.569688314763418961e-03,1.283463635260351145e-03,4.449312761425971985e-02
4.862769422063423774e-01,5.159146711423400200e-01,4.118672154883493142e-01,6.482824600603632678e-03,7.884734628216278490e-03,2.985296915994006470e-03,9.465654939413070679e-02
5.142582005276858936e-01,4.183306357339394710e-01,4.843454768577982184e-01,1.518409599137539897e-04,6.205671267378436509e-03,6.611663471959867283e-03,8.645320683717727661e-02
5.060931400620081178e-01,4.412972551344718219e-01,4.665724126071454925e-01,1.328199445533039295e-04,5.268879860166395326e-03,4.673976367567255104e-03,5.786612629890441895e-02
4.966991427737905140e-01,4.503797516040540239e-01,4.460404482123385694e-01,5.483780077704442438e-03,4.061975033235580741e-03,-4.098280579455349307e-03,5.055107921361923218e-02
4.764325325236482556e-01,4.677864725490804010e-01,4.597248981607393037e-01,5.097178337457861086e-03,-1.357315719303285118e-03,1.685132973227459986e-03,1.736184954643249512e-02
4.702226509085872252e-01,4.713809184009920550e-01,4.633743984855903109e-01,-4.131533496576051713e-03,2.506683583835862036e-03,2.343125993149888005e-03,1.194579713046550751e-02
3.349747573092032304e-01,5.387918601776995331e-01,5.285053766983870416e-01,6.661948023085589431e-04,-1.116329116547384176e-02,1.084538646598426880e-02,2.006955891847610474e-01
3.492725296437681481e-01,5.242755725244259146e-01,5.263037622964660267e-01,4.942415108804160693e-04,-9.767618727879144591e-03,4.652884951750388930e-03,1.770226508378982544e-01
5.054060230026952150e-01,3.968422547080026064e-01,4.985450654169429341e-01,-1.244297351571753245e-02,1.217036265095929222e-02,1.848126853831850644e-02,1.141131967306137085e-01
3.618105737117639498e-01,5.170708801623459250e-01,5.027555661921481178e-01,1.137002785883695945e-02,-1.997031674545659413e-02,1.827267540257587058e-02,1.570797115564346313e-01
4.703630920070066002e-01,4.769948151388423985e-01,4.611445455071011557e-01,-2.891277731653936912e-03,1.567680031838873450e-03,1.851295683441875773e-03,1.525874901562929153e-02
4.872669695436501192e-01,4.663903915437902503e-01,4.411170227005374866e-01,-7.745599576783413279e-03,7.578846934940264291e-03,1.081805103908553903e-02,4.801652207970619202e-02
4.590247396202851715e-01,4.574060448983269245e-01,4.992951153385308816e-01,-1.027638613408408483e-06,3.109640716248185215e-03,-1.745202591727044051e-03,4.156507551670074463e-02
3.434806510938599455e-01,5.397282086400070344e-01,4.950678434119918925e-01,1.165460183964751742e-03,-2.536005438824451633e-02,2.472141152937009593e-03,1.835619062185287476e-01
4.816543002542684193e-01,4.599063477541019962e-01,4.616246433389427639e-01,-2.858948915815775257e-03,1.898861439093258449e-03,1.659217945058515760e-03,2.195799164474010468e-02
4.570630796152639341e-01,4.532671649193988905e-01,4.983293135065623991e-01,9.388879233058589719e-04,6.213588297334200154e-04,-2.264405051325391299e-04,4.333486780524253845e-02
4.772143332267758664e-01,4.491537314711355200e-01,4.703627475784400436e-01,-2.767390842809619184e-03,1.023252661601850404e-02,3.042608321638243414e-03,3.173237293958663940e-02
4.847561214027438226e-01,4.844245363213234845e-01,4.327539880781327009e-01,-6.103952727848931462e-03,5.419057692394372433e-03,4.453758658799451993e-03,5.428139492869377136e-02
3.530192343333549698e-01,5.132257352464508759e-01,5.303477402483429692e-01,1.043065763284212709e-02,-4.486694851123459310e-03,7.489765745517378524e-03,1.710480004549026489e-01
3.980375498487694896e-01,5.213635708753676656e-01,5.447927745914137310e-01,5.514447650255438482e-02,3.362362713821358956e-02,3.893672261238204178e-03,1.766565442085266113e-01
3.917416775988937783e-01,5.140999389769280725e-01,4.903154274751277963e-01,2.358253598289107925e-02,4.006700470704443323e-02,2.128977473222229411e-03,1.382935792207717896e-01
7.072833933890484426e-01,6.760131810514277140e-01,2.086019705276550007e-01,6.064272105369213767e-02,-1.282944230816031664e-02,-7.774278635932066472e-02,5.135419368743896484e-01
4.650473533510049440e-01,4.737299338852852260e-01,4.634783075295935140e-01,1.798552145686281535e-03,3.907107705945087267e-04,-4.391958550102601552e-04,1.011006906628608704e-02
3.689801026380595261e-01,5.491799741659109113e-01,5.312018592514029525e-01,1.585935195382738236e-02,7.425523646834457370e-02,9.598478077663414459e-03,2.170898914337158203e-01
5.305702398903958672e-01,3.427410388819508436e-01,4.317118892944492581e-01,-1.807445827751566828e-02,-1.641535032408034459e-02,-9.955837371013169512e-02,2.408492416143417358e-01
5.891680125911300525e-01,4.901502137101768075e-01,2.633325854389871878e-01,-3.324601071576206018e-02,-1.500792291339070883e-01,-1.471984123021088386e-01,4.686139822006225586e-01
3.869030146570044404e-01,5.135737592264487672e-01,4.892367002912658691e-01,-1.818356875368454945e-03,4.643520771134393432e-02,1.684529433930798126e-03,1.415701061487197876e-01
3.979851864729929134e-01,5.272617977670028822e-01,5.220050335397494745e-01,1.456505824576560110e-03,2.585253852143348102e-02,1.240735551939815134e-02,1.361387223005294800e-01
4.858151482174137836e-01,5.052501768317595454e-01,4.098321587707349778e-01,7.430756761411154779e-03,8.364678818553005282e-03,-9.012810602638390367e-04,8.947544544935226440e-02
3.502628859485569790e-01,5.227620522629085054e-01,5.222006057441667126e-01,-2.066262578413465695e-03,2.277265670186983185e-02,1.255738388005104254e-02,1.780479699373245239e-01
6.409405479695576835e-01,3.876213250276424604e-01,3.986540123593326213e-01,-7.879939539056181330e-02,-7.769809881715471211e-02,-2.195727896415129998e-01,4.928216636180877686e-01
3.818565935713961190e-01,4.764033886007791874e-01,5.020754371882890643e-01,-3.714539096350667063e-02,-2.546035262468187774e-02,-1.275353700335116192e-02,1.363720893859863281e-01
7.513651268716899922e-01,4.046002375250934424e-01,3.770647150824676941e-01,8.422620479125673965e-02,1.088062331503614616e-01,-1.996978822289175726e-01,5.540656447410583496e-01
5.085933284395640630e-01,3.910865666520045858e-01,4.312404183855624296e-01,-1.896005870368317608e-02,-1.661643442084301259e-02,-4.810379609627069009e-02,1.398231685161590576e-01
5.059243473307749595e-01,4.498321401139805387e-01,4.091099918920931833e-01,-3.946046173757515249e-03,-2.786899179821099217e-03,-8.628515177420283122e-03,8.591968566179275513e-02
2.625801933683566958e-01,4.008970609663910500e-01,6.047413833857494536e-01,-1.928058659461366064e-01,1.053551316305392956e-02,9.475033427369159919e-03,4.483344852924346924e-01
3.436642280647494441e-01,3.626407102214516676e-01,5.815166489289009810e-01,-2.076170715455648297e-01,-1.196220400861336547e-01,-4.495475830722094751e-02,4.803393781185150146e-01
4.257777194355029660e-01,5.518910140576600565e-01,5.177482068834763362e-01,1.722707652593017877e-02,8.678477646850026039e-02,1.540147691404294278e-02,1.922528445720672607e-01
5.079985373940842930e-01,4.954852218644226203e-01,3.957802941840586897e-01,1.210241538242912140e-02,3.542666762589301906e-03,-9.003923418266604126e-03,1.098433583974838257e-01
3.546525931734063053e-01,5.295686830026608005e-01,5.246594082923977664e-01,-6.620296617965172603e-02,-7.347406747201187804e-02,-2.265598748317294159e-02,2.462614923715591431e-01
5.207227156034820448e-01,5.076258745535972006e-01,3.718711559119896592e-01,1.002992133401884103e-02,-4.752797524968924679e-03,7.097182808496866301e-03,1.445666104555130005e-01
3.513975835297695749e-01,5.296095129985549654e-01,5.735820032350009701e-01,-6.591999756814231892e-02,4.962173605518227851e-03,7.457488982060517073e-03,2.341079711914062500e-01
2.571559830739172936e-01,5.238723148988324585e-01,5.101689665276467611e-01,-1.097553404045041731e-01,-1.100319823192996843e-01,-4.911482718628055327e-02,3.838842213153839111e-01
2.348176377799761627e-01,6.913742933215539788e-01,6.834813196325171258e-01,-4.142228030880576450e-02,-2.804334129012013913e-02,5.116904536579049145e-02,4.693231284618377686e-01
5.145294739148191798e-01,4.697657519739141252e-01,4.243680534505750446e-01,9.370996365242589138e-03,1.961367429103230264e-03,1.534108209800561645e-02,8.413052558898925781e-02
2.955558570993063183e-01,5.600155684852147209e-01,5.428498409989135354e-01,-2.825494295041840187e-02,-4.491642771894449604e-02,-4.240568853915709091e-03,2.723883092403411865e-01
3.669972239564370797e-01,5.033037739450578751e-01,5.270593714979157074e-01,-4.356114601979343276e-02,-2.896662355105166994e-02,-1.008589385896355162e-02,1.757752597332000732e-01
5.167063364157024052e-01,5.514618976945490081e-01,3.832040176898027228e-01,3.089008591962207409e-02,-8.576701677731625451e-02,4.438471946715792649e-02,2.334765791893005371e-01
5.038845570418155617e-01,5.454186200729833622e-01,2.834484262134418509e-01,4.546105344001151460e-02,-1.206566220267162454e-01,6.982570481511649052e-02,3.520992100238800049e-01
2.553586510235044682e-01,5.290253508410666106e-01,5.373166295552916916e-01,-2.120900138733962728e-02,1.801090905865298554e-03,1.196763296366518126e-02,2.811051905155181885e-01
3.584532569412978154e-01,5.048712128587391490e-01,5.168702524364021667e-01,-1.738075188023951306e-02,-1.632931511960566615e-02,-3.816138288504393287e-03,1.583949774503707886e-01
3.107279017042479108e-01,5.275886032548262605e-01,5.405717366516110678e-01,-2.554943421732982708e-02,-4.103009812023174219e-02,7.231409245535783820e-03,2.391197681427001953e-01
3.012775724934048660e-01,4.928995691884667796e-01,5.316428217721218541e-01,-5.786605501156742715e-02,9.291888099327251169e-04,8.713611678712832043e-03,2.364738881587982178e-01
3.508648383528424342e-01,5.292851392010520239e-01,5.120366980510118182e-01,1.869230833075420303e-02,2.851161021701279722e-03,1.461046704785361368e-02,1.754047721624374390e-01
5.029544323130543670e-01,5.347452250667075191e-01,3.211325427539132304e-01,1.605558439730819559e-04,-5.145224964188158806e-02,-2.362189265295669763e-02,2.224099338054656982e-01
4.932367089977716113e-01,3.689837570492208729e-01,5.227761882533590310e-01,-1.069079078668043817e-02,-4.181442626991381181e-03,-4.055840756436153091e-03,1.429210454225540161e-01
3.547312989938729011e-01,5.350091506584693235e-01,5.262631307738986353e-01,7.563127649262579464e-04,2.337845403696684875e-03,9.026036825297574506e-03,1.768117696046829224e-01
4.696142421055736760e-01,5.175049138331806464e-01,3.842056014554877663e-01,3.973649802740939797e-03,-4.644202827194482408e-02,2.471804065497665206e-03,1.421784609556198120e-01
3.549308970789379902e-01,5.103218098420683191e-01,5.240833248041569803e-01,-2.098614922002609365e-02,-9.506979188143472193e-04,6.333600671788019304e-03,1.670881211757659912e-01
4.998672283850382758e-01,4.412293684207799216e-01,4.710462412470125537e-01,-1.456959093269097815e-03,6.070418725855286635e-03,3.505098004086763808e-03,5.227640271186828613e-02
4.998314701202813404e-01,4.530934080097553385e-01,4.577776809513913192e-01,-2.732786125980960650e-04,7.476885509317189073e-04,1.667539110331533840e-03,4.469561949372291565e-02
3.762746149626196024e-01,4.723197381036794429e-01,5.264334112608854976e-01,-2.620021347987174301e-02,7.801336629688732874e-04,-7.411448361772230396e-03,1.399152576923370361e-01
4.648433012911121764e-01,4.726742415370891459e-01,4.640456775330182859e-01,-3.328623891472373090e-03,1.213132859554644271e-03,1.909039336646958535e-03,1.080710627138614655e-02
4.592924636584035936e-01,4.651812945348275941e-01,4.646081599759790404e-01,-5.251920221322711226e-03,8.866675515354215109e-03,6.022848150135778726e-03,2.142563089728355408e-02
5.026688393378830888e-01,4.405656644914279219e-01,4.363146587899628948e-01,-9.736291771558446256e-04,2.335064214985394914e-04,-2.287962639265381671e-03,6.447935849428176880e-02
3.595979808441607251e-01,5.081989227266310305e-01,5.255978568163873765e-01,-2.116230179597070396e-02,1.335674646298912541e-02,1.580714779297386768e-02,1.661288589239120483e-01
3.457960886636892717e-01,5.204034132797292767e-01,5.350119793423665504e-01,-2.247605526291610381e-02,-6.762181106801064875e-04,3.214147783245869736e-03,1.865469813346862793e-01
4.611409307543066216e-01,4.601862976098036739e-01,4.857784224638023174e-01,-1.664244094869015041e-03,1.066853266385538006e-02,1.171465961338790003e-02,3.732156008481979370e-02
4.823516760469890308e-01,4.189606203301414200e-01,5.058810127934003642e-01,7.889580391146682956e-03,-3.868847847776932334e-03,1.214772315585574934e-02,8.208499848842620850e-02
4.876153725749329260e-01,4.182137958537403555e-01,5.037283079801574415e-01,1.465054241760753266e-02,-5.980404052196418990e-03,6.079437660181159775e-03,8.400332182645797729e-02
4.825375698760746568e-01,4.663108732607675888e-01,4.542863104213527015e-01,-6.005846249507578241e-03,3.810680033280534028e-03,4.118741895300834753e-03,2.838452532887458801e-02
4.818563669920369330e-01,4.011774630702057420e-01,5.510359697267582790e-01,-5.163740376965512968e-02,2.892455915206097045e-02,4.608750741380223531e-02,1.837323307991027832e-01
4.672138816293433528e-01,4.098972487754243277e-01,5.385215369526290541e-01,6.403975641977731337e-02,-2.049339994574255960e-02,2.251150460867707565e-02,1.659536212682723999e-01
5.236012406586348922e-01,3.802761862656949265e-01,4.602396972959366672e-01,9.921592764184239410e-02,-4.009378672982574776e-02,1.572716327313587181e-01,3.521824777126312256e-01
5.039417987225900397e-01,4.482146615253682076e-01,4.537943397434614501e-01,-4.450042474735863875e-03,1.293700383239781981e-02,1.999052849001764845e-02,6.772058457136154175e-02
4.779221966398762289e-01,4.818808974739882678e-01,4.432661339301988690e-01,2.505975244902230309e-02,-2.372421583060540379e-02,1.834055906344990092e-02,7.704235613346099854e-02
4.652220459098518890e-01,4.287476138111016577e-01,5.075707671962840228e-01,1.045034210573515462e-02,-2.332718575250557810e-03,7.412099713089876328e-03,7.195287197828292847e-02
4.703643649035997854e-01,4.422516212802788949e-01,5.132726337509273540e-01,2.971102293937384273e-02,-4.684861540984621049e-03,1.589356669588464638e-02,8.549625426530838013e-02
4.552428530137937468e-01,4.601459219158264835e-01,4.917169256672602184e-01,1.363644951547840142e-02,-6.602270301533375886e-03,1.124750652075255826e-02,4.736782237887382507e-02
5.738765232151128437e-01,4.741040140116790091e-01,3.815879378543858280e-01,-1.810964766496493336e-02,-4.409995019034212288e-02,-1.148609148548783432e-01,2.722897827625274658e-01
4.895170951640355761e-01,4.444042625420967507e-01,4.363953669764581433e-01,-2.064549817034992338e-03,-2.105835516086276057e-03,-2.589839926673482336e-03,5.006821826100349426e-02
4.728875316471948809e-01,4.629965028292905571e-01,4.884253431044750515e-01,1.617479935039969202e-02,-8.686261518892920627e-03,1.517604802675080571e-02,4.685193672776222229e-02
5.109430356855156896e-01,5.114472670140207677e-01,3.738911422358694447e-01,8.376520719160351208e-03,5.686362632379894470e-03,-3.759122255658079066e-03,1.385730057954788208e-01
5.344024738380458439e-01,5.278608009425397318e-01,3.372504972123643308e-01,5.835480832040016407e-03,-3.539227573006949439e-03,-3.322096113877923661e-03,1.944089382886886597e-01
5.053855100709631065e-01,4.755315111324063260e-01,4.205751156569373927e-01,1.211706356349221206e-02,2.465275242515357033e-03,-7.149720994347131577e-03,7.851237058639526367e-02
4.731035931619861357e-01,4.531033048962821441e-01,4.371619896011326722e-01,-1.072251035884996644e-02,-2.680759266911239211e-03,-4.001853952201319189e-03,3.724900633096694946e-02
5.115302762203036702e-01,4.534748312837230677e-01,4.252672280093305890e-01,4.509393208008231728e-03,6.080252235283350494e-04,-4.725772380829881998e-03,7.702480256557464600e-02
5.053551603999988373e-01,4.298270261286922800e-01,4.393184080556462590e-01,-5.015209550668775626e-04,1.324168859841769750e-03,-7.888601623171204169e-03,7.259768247604370117e-02
4.925297376800092386e-01,4.501185844162356453e-01,4.243949968412003004e-01,1.737001777752028575e-02,1.736960378114916700e-02,-3.280749340953720977e-02,9.268566966056823730e-02
4.744745511620314105e-01,4.442760863808982719e-01,4.470937380253757198e-01,-5.085247918185930270e-03,-1.940681859027899902e-03,-2.904444531481494614e-03,3.080556914210319519e-02
5.023244664729347164e-01,4.835908936391313251e-01,4.358450643164330507e-01,-1.476649656064011294e-03,3.858642862855557638e-03,6.525285490423768896e-03,6.086055934429168701e-02
4.857338153939999570e-01,5.007234601598038459e-01,4.013984843451344764e-01,-1.232567345175999279e-02,4.331882109896415672e-02,2.900049880012716200e-02,1.311857849359512329e-01
4.910598592939630080e-01,5.178812898816167465e-01,3.194417547089049014e-01,-1.359563207488731842e-02,-5.698502132032207124e-02,-2.908802913417757666e-02,2.181970328092575073e-01
5.055127103791713372e-01,4.357955466977115888e-01,4.380617485016853330e-01,-1.822911342786613306e-04,1.960783218351547143e-03,-2.579626012016416302e-03,6.884200870990753174e-02
4.964047343842932780e-01,4.597230672495239978e-01,4.434612233546266769e-01,7.693787978522836218e-03,2.456962534362909858e-03,-3.564286480724133087e-03,4.939948767423629761e-02
4.973625088605591604e-01,5.266031000806007389e-01,3.770289757351651394e-01,1.119697240817398888e-02,-9.571836732467038644e-03,6.356122865483113636e-03,1.400927305221557617e-01
5.968064075932209001e-01,5.139615812993941768e-01,2.490228085229894139e-01,-2.730198223122242210e-02,-5.086066536328224218e-03,-1.898883348991141362e-01,4.577020406723022461e-01
6.615582945603855070e-01,5.862424840648225999e-01,3.777137364829025179e-01,1.116893375077209344e-01,-4.299079245703192609e-02,1.924934826337246496e-01,4.679653644561767578e-01
5.057495912350687961e-01,4.178088002721689342e-01,4.832045237193834386e-01,-1.061870067115777369e-04,1.069652140727359209e-02,6.651131492668198135e-03,8.206841349601745605e-02
5.278971803148408970e-01,4.749189923259226620e-01,3.773173664183130938e-01,-7.611021725437850782e-04,-4.487200553707056984e-03,-2.243825308920654321e-02,1.381162256002426147e-01
5.233180638834333820e-01,5.034838045587030075e-01,3.168377361262733061e-01,-3.340672061840140906e-03,-1.817231648661108562e-02,-4.852028447911175407e-02,2.168385833501815796e-01
5.166938412098887046e-01,5.146193261642064698e-01,3.428185369054114195e-01,-2.768457906167487827e-04,-9.702462759670394538e-03,-1.267833186228300296e-02,1.750459372997283936e-01
5.280553749356626803e-01,4.971580269722584711e-01,3.681018724540869869e-01,2.957848048111637838e-04,-5.290727306917742366e-03,-1.093200899636298865e-02,1.484600752592086792e-01
5.112496704242041057e-01,5.241534191819657851e-01,3.729663053491261149e-01,8.026144917532854195e-03,7.333296128267595762e-03,1.567565106514524345e-03,1.464074105024337769e-01
4.569295783705054625e-01,4.469110121435105887e-01,5.065354825201988653e-01,8.142630930103969197e-03,5.413316487972589901e-03,4.413401336595557264e-04,5.784030631184577942e-02
4.686378689206139314e-01,4.544308714861935439e-01,4.466287981957755004e-01,-4.626240762652531618e-03,-5.967566324402661087e-04,-8.716550587932561135e-04,2.100259996950626373e-02
5.100618520633248831e-01,5.385840648839730349e-01,3.241389714890592355e-01,-2.858223444666538327e-02,-5.595472235383702059e-02,-4.625328076977170549e-02,2.427869290113449097e-01
5.154013187576462762e-01,5.194486909635560590e-01,3.479727470490748265e-01,-2.225036994687521700e-03,-1.719887125595680882e-02,-9.301412150835488418e-03,1.728819161653518677e-01
4.988271038105969168e-01,4.354913852766795768e-01,4.637081560016270698e-01,5.121828541185904395e-03,-5.642074828031565584e-03,1.087308603936384087e-02,5.957634001970291138e-02
5.062526959758474332e-01,4.437915229888861890e-01,4.666979056134361592e-01,1.328436304167543696e-03,4.255614692131000527e-03,3.657954725533804196e-03,5.563369393348693848e-02
4.738119292431856033e-01,4.498891729572099818e-01,4.748165242940965980e-01,-1.822553743610015771e-03,8.718594414135411377e-03,3.873461051945430080e-03,2.967082895338535309e-02
4.966169823870368871e-01,4.552234569042865053e-01,4.588108145809622340e-01,-2.415640560153857366e-04,2.241613664257754209e-03,8.068255446679463254e-04,3.993747755885124207e-02
5.706354096891270711e-01,4.787299350602031156e-01,4.513950454187571348e-01,2.794616119628562378e-02,7.831856373649663181e-03,7.504650850219542202e-02,1.764339804649353027e-01
5.141472228388224153e-01,3.966956941958743044e-01,4.496263420737752203e-01,1.254511196591447629e-02,4.773659762787387266e-04,6.216903130709797859e-02,1.498249620199203491e-01
5.075591634001944685e-01,4.110965366124849085e-01,4.837738911863341817e-01,4.505520417587887717e-03,4.179320010811685138e-03,7.548199940962311769e-03,8.866009861230850220e-02
5.148219235765587598e-01,4.849619010738169256e-01,4.124527403162692729e-01,4.261623151133701881e-03,8.833474958595232936e-04,9.084227591576491193e-03,9.283705800771713257e-02
5.009977694739433662e-01,4.583205836369940722e-01,4.538006351749898082e-01,2.929112406451747901e-03,-3.627467177777414314e-04,1.767108966026385061e-03,4.549914970993995667e-02
4.920281061687780122e-01,4.575173080927776859e-01,4.589574390229021472e-01,-1.670071196933855476e-03,1.713193739863763578e-03,1.461367452410724859e-03,3.416062518954277039e-02
4.951157520935384748e-01,4.672000231212719568e-01,4.521020965647096213e-01,-1.242698153007049935e-03,2.912932607342396882e-03,4.034019430857033878e-03,3.882799670100212097e-02
4.997003484883388857e-01,4.470142642974856417e-01,4.605231648159184843e-01,-2.163305112198755844e-03,4.634824498620720296e-03,7.011022760623878552e-03,4.972454532980918884e-02
4.988357412610356922e-01,4.070541261835222691e-01,4.518472594533027853e-01,-8.573470675851081399e-03,-1.623184555747464106e-02,-1.255393927861861436e-02,8.833368122577667236e-02
5.131567975419346617e-01,3.985361270970822489e-01,4.674236934617288508e-01,-9.890574531159952460e-04,-2.829014577133400887e-03,-9.331432323512125690e-03,1.013687700033187866e-01
4.969572331365255113e-01,4.567183601627812228e-01,4.536744613836717344e-01,-3.562701926505121471e-03,1.941964893810787986e-03,4.114924578151612361e-03,4.302447289228439331e-02
5.367794451437304382e-01,3.806522655589935633e-01,4.207093284840447422e-01,-1.532936611109317060e-01,-1.340201820007959066e-01,-2.010901019407052848e-01,5.151883363723754883e-01
5.351972498758733598e-01,3.494274761678718977e-01,4.777246500902977422e-01,-1.295118252888891389e-02,-7.314096619789539969e-03,-6.454929763370249873e-02,2.007495015859603882e-01
4.985175498591758458e-01,3.587388059164069443e-01,5.146726678213777717e-01,-1.801586916855760223e-02,-9.774473301311908252e-03,-1.831851326357121848e-02,1.559623926877975464e-01
4.958343400631832210e-01,3.862679581489916747e-01,5.102794598480328014e-01,-7.288439750280983030e-03,1.241386672790542427e-02,2.967151187757841729e-03,1.201841980218887329e-01
5.256029230902149463e-01,4.690590840920348947e-01,3.595803328381298458e-01,-5.908222530829597592e-03,-9.833180651160481830e-03,-6.171360213620653151e-02,1.821912527084350586e-01
5.044478421909410759e-01,4.505031759417751358e-01,4.247901053501957347e-01,-1.497498501516986245e-04,-1.072462171875594641e-03,-5.374538206188738711e-03,7.105242460966110229e-02
5.016735453933245381e-01,4.405658833314573530e-01,4.438898780859096838e-01,2.085179512829900012e-03,2.587015301893072407e-03,-2.011228989625116117e-03,5.989433079957962036e-02
5.005658425998047445e-01,4.493704352038648264e-01,4.590963266121853570e-01,-6.998417330696905803e-02,-7.218909587644517512e-02,-1.006765852675538947e-01,2.509025931358337402e-01
5.033277717177842003e-01,4.277939296729242336e-01,4.279733325439804004e-01,-5.696822303401116554e-03,-1.011152927699427578e-02,-2.411598578827662751e-02,8.854758739471435547e-02
5.251066804492009465e-01,3.611057659200527237e-01,4.946830708118774012e-01,-4.289242345193101068e-03,-6.364223682392700088e-04,-1.092207671465196192e-02,1.524686217308044434e-01
5.265678545586727211e-01,5.180368389500663584e-01,3.372208416024773392e-01,5.253358081396308603e-03,-1.783840950255712954e-03,-5.146758858459522627e-03,1.856921017169952393e-01
5.256171637722708567e-01,3.163977883378455980e-01,5.622987692956687988e-01,-8.465558241942468254e-02,-1.493320886607074627e-02,-4.451287154854285943e-02,2.844392359256744385e-01
5.181862866523999633e-01,4.334586269616321208e-01,4.414775013154496608e-01,1.398936134496315056e-03,7.898728966512117778e-04,-5.220177069410526088e-02,1.214350685477256775e-01
5.110059658358948598e-01,4.673283763056791384e-01,3.986267763587920121e-01,3.147862492564274493e-03,-1.622576803481747421e-03,-1.305861773465210804e-02,1.008839458227157593e-01
4.909502947292048725e-01,4.533564528415606198e-01,4.273978277940330694e-01,-7.582341145516511421e-03,-2.617020226838419859e-03,-3.848115978483886406e-03,5.744978412985801697e-02
5.252375062469567535e-01,3.812567972653725934e-01,4.779173552349452736e-01,-5.800785134026856596e-03,-2.263246400197161008e-03,-2.224550470740735766e-02,1.332567185163497925e-01
5.135679052741231043e-01,3.832843602178970799e-01,4.785252481518511569e-01,-2.210523290601086859e-03,-7.020186637020851307e-03,-1.766243674018115606e-02,1.213865801692008972e-01
5.549733271035512949e-01,3.096129682080742684e-01,5.067630207198073888e-01,-5.731974208660856746e-02,-3.230147801606052943e-02,-1.171474403604863268e-01,3.238123357295989990e-01
6.894152130334429973e-01,2.100220129020535231e-01,6.926302310110670213e-01,-9.110368189611919854e-02,3.760726908752180103e-02,-7.769141437482621204e-02,5.278445482254028320e-01
4.798017190625606943e-01,3.646212226899264719e-01,5.183374337212314220e-01,-6.416487339026638592e-02,8.948757244625861126e-03,9.784723562379433331e-03,1.790781021118164062e-01
4.824566209292586727e-01,3.939061159168291137e-01,5.171217372833902814e-01,-4.201448838728614327e-02,6.926082594799882163e-03,4.326598038098553034e-03,1.326958835124969482e-01
5.163249639064064755e-01,4.970002922389820110e-01,3.416989931656561064e-01,-2.639950703359670268e-03,-8.709194265198776097e-03,-8.945616477154747989e-03,1.672770529985427856e-01
4.823863080864274622e-01,3.857018019031310807e-01,5.193061203246998048e-01,-1.663806478884555934e-02,1.292160768828834808e-02,1.068419229903538013e-02,1.263106316328048706e-01
4.862696564411981281e-01,3.818945558288529551e-01,5.191718990541802636e-01,-2.123161580223448947e-02,6.763662975022157776e-03,-2.534581020190677524e-04,1.300025880336761475e-01
5.334628681599254962e-01,3.224664923612839962e-01,5.906815998622445552e-01,-5.686495151118720753e-02,1.898336722750121330e-02,1.386078590695668904e-02,2.668796181678771973e-01
5.015133027345398675e-01,3.436434168224509755e-01,5.536094652234834212e-01,-4.501280101746914231e-02,1.275294353081404819e-02,5.649970786345637729e-03,2.062121778726577759e-01
5.240882197808837129e-01,5.174275078853352028e-01,3.370204462875783236e-01,3.775023796949349576e-03,-9.557806263508084998e-04,-4.964499673624183165e-03,1.841524988412857056e-01
4.553137693516957629e-01,4.596068976062778755e-01,4.798215660898229040e-01,-3.046966155814847046e-03,3.072722450361790782e-03,5.429411382311483993e-03,2.566048130393028259e-02
6.548588170972540201e-01,5.174062680974931272e-01,3.121040316549248406e-01,-1.690571896381036152e-02,-6.448663626471755339e-02,-1.987286846987197930e-01,4.701848328113555908e-01
5.504877103319952836e-01,5.586281975319951076e-01,3.709917957946478051e-01,2.794905981196589909e-02,-3.042329053450718718e-02,2.320766282754209708e-01,4.477109611034393311e-01
4.657660082969064530e-01,4.647809018757842470e-01,4.707258229641801406e-01,-6.952250920883493689e-04,2.255980091185465740e-03,1.087788093275672682e-03,7.122102193534374237e-03
4.640081248481197074e-01,4.662176951781266121e-01,4.777269396272900148e-01,-4.394812125586784572e-03,4.759593323324033676e-03,6.654574326866098330e-03,2.053119055926799774e-02
4.634210682710712126e-01,4.591731290288204037e-01,4.743381933419244523e-01,-3.368441768774011261e-03,4.213141373021586818e-03,1.604498687445768271e-03,1.669185422360897064e-02
5.095297428526819328e-01,4.186394885366692686e-01,4.483876995690472267e-01,4.411506027133825503e-03,-7.406896007700237853e-04,-2.012725186523489640e-02,8.784942328929901123e-02
5.312038851690588093e-01,4.431151489505220087e-01,3.958538558537073593e-01,1.886844036142555463e-03,-4.884484727827950604e-04,-4.146719048447607830e-02,1.390195041894912720e-01
4.993849403483272553e-01,5.625403813459074476e-01,3.696935409463543154e-01,1.612747049010694947e-02,4.164651336651502972e-02,2.165813293576597867e-02,1.907616108655929565e-01
5.171198737320981120e-01,3.848325033473806722e-01,4.756700248738472414e-01,2.634629078059084681e-03,3.842475931322830197e-03,-2.571257158946911939e-02,1.256314963102340698e-01
4.850301223438681086e-01,4.538292547314498604e-01,4.393880481014532102e-01,-1.141038530260409314e-02,-1.069407199385942475e-02,-1.638073641025275182e-02,5.631417781114578247e-02
6.902932361273798056e-01,3.174677887322031600e-01,3.859341876444524200e-01,7.912242500278857116e-02,-6.514624627192796072e-03,-1.959638000965121252e-01,5.022691488265991211e-01
5.006952767582308894e-01,4.564518613597686181e-01,4.550796498821680358e-01,2.905428350702855692e-04,1.177976667264257803e-03,1.943224856939005122e-03,4.512004554271697998e-02
5.524839568135681001e-01,5.151524886623031207e-01,3.852140746863226273e-01,3.849052323328646524e-02,1.992392815777372251e-03,4.466137909983678572e-02,1.832179278135299683e-01
4.778984088409906628e-01,5.074208174215938394e-01,4.148818437342969845e-01,1.030659797320044452e-02,-1.562097930579828611e-02,1.346213043946949822e-02,9.109045565128326416e-02
5.264928802781582151e-01,3.433224940925740931e-01,4.909848887025328734e-01,2.018466136984992110e-02,1.399861465568107317e-02,-5.766677690512405502e-02,2.002366334199905396e-01
5.119437331039357053e-01,4.859217053085141957e-01,4.103211835479147473e-01,1.033214141283715463e-02,-1.813125243408143534e-03,8.042013187002832256e-03,9.425501525402069092e-02
5.180045495754775908e-01,4.733276039889367515e-01,4.002845920318716666e-01,3.232669771805038363e-03,1.807790020411595032e-03,-4.094124618040247132e-02,1.251573413610458374e-01
4.145260607239043549e-01,5.043794795185072566e-01,4.851063675454801993e-01,-3.749868857935975469e-04,7.684498104059373641e-03,5.793172908530681321e-03,8.361575007438659668e-02
4.853340954415565900e-01,4.014461187476645043e-01,5.071302308993934638e-01,-8.965823247348143205e-03,1.382115217292982298e-02,3.249953357970018948e-03,1.009287610650062561e-01
5.897428679456903078e-01,3.673075369782740629e-01,4.892585595176602853e-01,2.336635103152505735e-02,1.684477444319353728e-02,-1.044544518806544697e-01,2.691555321216583252e-01
5.067582818269397160e-01,4.659000130661899441e-01,4.425178897208534856e-01,1.571882035467568042e-03,4.501324798884797089e-04,4.719699216196221458e-03,5.697650462388992310e-02
5.019495617280944622e-01,4.494286892698393654e-01,4.553848981963894427e-01,4.085778386427417063e-04,5.517947147983374593e-05,5.476458273171900919e-03,5.071072652935981750e-02
5.742447526543257297e-01,5.800589183647089087e-01,8.855042457860151650e-02,2.499233904498715866e-02,-4.106712297850336618e-02,-4.793322920304414307e-03,4.957408607006072998e-01
5.083489844836432958e-01,4.463259963323434887e-01,4.666067995416232628e-01,2.442021833175329892e-03,-4.183544471583109888e-04,5.210326557445473829e-03,5.567893758416175842e-02
4.976552055418083098e-01,4.493225739060741630e-01,4.662944763315170493e-01,3.220598229620626196e-03,-2.802595837663935784e-03,4.039803679587897038e-03,4.367416352033615112e-02
5.371602289865387014e-01,5.259356178405768523e-01,3.729570434273749568e-01,1.231571428120808998e-02,1.282582855016003998e-02,6.404235192380949154e-03,1.622255891561508179e-01
4.466581114683246256e-01,3.800679621550124287e-01,5.166635368791262506e-01,-8.727140682808083583e-02,-6.729109080155430689e-02,-7.718674504320746643e-02,2.613488733768463135e-01
5.238449758630546738e-01,5.244962076500123693e-01,3.627758653422979984e-01,6.705627361696603686e-03,-9.921672060772131988e-04,1.021156105543510190e-03,1.618318706750869751e-01
5.002363131319009781e-01,5.138577537480608637e-01,3.450172085304470393e-01,1.515665601381214860e-02,4.613809461574136517e-02,-1.509291589861003202e-02,1.848013848066329956e-01
5.051928702028217755e-01,4.320604865903774350e-01,4.402758946364191961e-01,-1.971017393440943112e-04,1.287655549627257949e-03,-8.622063471848673971e-03,7.101504504680633545e-02
7.035328165675989176e-01,2.562207995059478383e-01,6.913421233932257604e-01,6.100825706127817327e-02,6.604843863316928188e-02,1.189751441271263699e-01,5.113727450370788574e-01
5.485357834827316870e-01,5.411020853067101122e-01,3.800901850721002950e-01,3.697634357780739400e-02,-4.126382732543164289e-02,5.755557464680758489e-02,2.152319699525833130e-01
4.623263028459235757e-01,4.412904464905588187e-01,4.611111788215547791e-01,-2.926465717018139796e-03,-5.921747588976979809e-03,-3.168612334461755938e-03,2.407149411737918854e-02
5.394527263083936930e-01,5.860139506538362131e-01,2.961407209871872448e-01,1.247844098385194299e-02,-4.873330592242640369e-02,1.759871405679633641e-02,2.849888801574707031e-01
5.045432789056184530e-01,4.402167291604562882e-01,4.448923607659542867e-01,1.824781397098768510e-03,1.165586280555634636e-03,-3.195193408919053384e-03,6.247953698039054871e-02
4.966371526164384820e-01,4.351735866139347375e-01,4.395205600610857521e-01,-3.462068319023589233e-03,-3.473364880431888038e-03,-2.900461147225362121e-03,6.022353470325469971e-02
5.218686907933509644e-01,5.283216257610130473e-01,3.635415852282307125e-01,1.010011795074805367e-02,-1.689485751485197626e-02,1.476649207611027866e-02,1.671743988990783691e-01
5.129910686810774667e-01,5.149729456383901338e-01,3.551728553112611930e-01,-5.772715736228609638e-03,-2.159299020531003921e-02,-1.017402127352391196e-02,1.644158363342285156e-01
5.149982362607532504e-01,4.679894608744730733e-01,4.105250828159910936e-01,-1.729436254256609467e-03,-4.666958202113603545e-05,-8.369406575827801481e-03,9.182826429605484009e-02
4.137201070466989816e-01,4.702340635912931610e-01,4.791806573116249579e-01,-6.704361044973360800e-03,-1.248363698886416004e-02,-1.549344112678021843e-02,7.142817974090576172e-02
5.311886019625128297e-01,5.211017490685906361e-01,3.479376534124107856e-01,1.749215573816283870e-02,-6.248617901610081099e-02,3.161660171648195822e-02,2.178636044263839722e-01
5.782821844770305031e-01,5.320855024272796996e-01,3.319864958960289103e-01,2.169187468904216348e-02,1.726556516297318017e-02,2.758813556859669724e-02,2.366577386856079102e-01
4.981615429333267064e-01,5.746287445269823158e-01,3.942837529012601094e-01,4.944354937227107838e-02,-8.260385354614943609e-02,6.255037393700171866e-02,2.532249987125396729e-01
4.843259780606612441e-01,4.083340782120384316e-01,3.073252224010778466e-01,-8.913537810243987725e-02,-1.219362734603970794e-01,-1.803037913056839969e-01,4.354566633701324463e-01
5.044040558615980885e-01,4.410981567732810138e-01,4.363420628200337381e-01,7.829609837313061566e-05,-1.855808030756245881e-03,-4.366153474179966347e-03,6.632409989833831787e-02
4.621754017581390372e-01,4.455776782223098698e-01,4.526470806964147942e-01,-2.780114060300287963e-03,-6.164614986143272628e-03,-4.186000462692879287e-03,1.994711160659790039e-02
5.103712989169962855e-01,4.644039612885255686e-01,4.749400857577531498e-01,4.690011547182257323e-02,-2.343851096356033142e-02,6.335387094970766630e-02,1.484175920486450195e-01
4.947350683794924375e-01,4.957569306656123276e-01,3.906485837348731560e-01,-9.096199149659029218e-03,-7.345452914368662961e-03,-6.937351469460484830e-03,1.072188094258308411e-01
4.694475820082568696e-01,4.257507296719897361e-01,4.686959985036950882e-01,-5.947264066817305878e-03,-1.509330790938160326e-02,-6.723005012817833380e-03,5.293645337224006653e-02
4.758531310295619488e-01,5.124344363875472652e-01,4.087890577482959364e-01,2.555312405700885942e-02,-2.782561306530229386e-02,3.271729495359079060e-02,1.256265044212341309e-01
5.001201603590013089e-01,5.052411912443646180e-01,4.126635531424341918e-01,2.853746858978844364e-02,-7.201181983147759980e-02,5.389136022105232848e-02,1.866436600685119629e-01
3.607388313222021914e-01,5.224594028512553612e-01,4.958064386525956047e-01,-1.965792992182007187e-03,-1.267907386029782334e-02,2.896815199932074869e-03,1.518967896699905396e-01
4.526701467886130037e-01,4.795696494763010964e-01,4.174698393443826427e-01,5.022837968585092822e-02,-6.190111633969257177e-02,5.295871071864149959e-02,1.743195503950119019e-01
4.990544101192793125e-01,4.655687344410823214e-01,4.684880421330931410e-01,8.975135831794458369e-03,-4.945316618353868925e-03,2.078084862284671624e-02,5.140638723969459534e-02
5.707680927753508993e-01,1.957456832755143927e-01,5.223176559988230716e-01,-5.707226011398958826e-02,-1.856554384989984874e-02,-1.242186017881082016e-01,4.265158772468566895e-01
5.190621533173025437e-01,4.741777846096106308e-01,4.058230564686491904e-01,1.827831862477064320e-02,-3.649142198447209023e-02,6.767142585957310053e-02,1.687911748886108398e-01
3.873945972553322070e-01,4.920248193681249216e-01,4.964228862576632872e-01,-8.826060838733730193e-03,-9.358137126198855932e-03,-9.539655684740784222e-03,1.104374676942825317e-01
4.831739003928699483e-01,4.557271102098183757e-01,4.618171092241999398e-01,2.157384292624717551e-02,-1.594217444713857262e-02,2.764500693981654031e-02,7.123730331659317017e-02
4.943550110737737757e-01,5.126055683442609645e-01,3.693389133684204517e-01,-5.459892085588446964e-03,-1.405520491416020583e-02,-9.780813565814564653e-03,1.386102139949798584e-01
4.316468737931459243e-01,5.253871472035920309e-01,4.338432310950467441e-01,2.077106067351059196e-02,-4.065807673249931253e-02,9.109204341817302847e-03,1.228358969092369080e-01
4.899883983248323194e-01,4.617885083972030347e-01,4.489208076144771686e-01,7.513881470275960567e-03,-8.698705720440583211e-03,1.334997773882806715e-02,4.748392105102539062e-02
4.901263234371314725e-01,4.902322482885776433e-01,4.189786383033937689e-01,-1.197110039773190485e-02,8.569929491713956446e-03,1.597845065644214885e-02,8.053400367498397827e-02
4.482798444707511432e-01,4.864819054053711733e-01,4.667999643556153266e-01,1.697539466612341076e-03,-2.343664453491326165e-03,5.853111513028177483e-03,3.496835008263587952e-02
4.495532289284540073e-01,5.072956802975582269e-01,4.130230783517862547e-01,7.376797228108079342e-03,-1.701385280979269415e-02,8.167795826539363258e-03,8.949740976095199585e-02
5.098372246102911287e-01,5.261761500681568782e-01,3.589662657939626245e-01,1.178052584472959359e-02,-1.448211097077352696e-02,5.214995086263568384e-03,1.631600558757781982e-01
5.909728506261490155e-01,6.963114474392022579e-01,2.608903842179269850e-01,8.910202710987692731e-02,1.492848635012301028e-01,9.811850432601078309e-02,5.238112211227416992e-01
5.293193858292033482e-01,5.200134706343142454e-01,3.717942125793014529e-01,1.713231251744989393e-03,1.724544616694267951e-02,1.432498749787212110e-02,1.579604446887969971e-01
5.063337398959288915e-01,4.684824986773557520e-01,4.440042702473026015e-01,7.520680119319798039e-03,-1.324761603291966768e-03,3.990763821073671329e-03,5.640174448490142822e-02
5.062855330063033010e-01,4.586779612123491612e-01,4.782451034943057122e-01,6.514164400914961017e-02,-4.253016226678477119e-02,7.618308963470980799e-02,1.930962055921554565e-01
5.312850628307047574e-01,5.244329705377993589e-01,3.675714973718831047e-01,4.737635751806854208e-03,1.150897841280333796e-02,2.833123325773170918e-03,1.619138270616531372e-01
5.755561197978833476e-01,5.600728319176955239e-01,1.978297422304829412e-01,-5.281439738502091003e-02,-1.333428437829761726e-01,-9.557617682598276709e-02,4.755859076976776123e-01
4.931469004875356221e-01,4.654190963475334231e-01,4.513757647797631556e-01,7.498965757231735446e-03,-1.982110850105378488e-03,6.706244913965514476e-03,4.087600857019424438e-02
5.311707264338830781e-01,5.325547677846380612e-01,3.567651260223577148e-01,1.696109949596612612e-02,1.203827327727644697e-02,2.597318015835051955e-03,1.788257509469985962e-01
6.094423149322941713e-01,5.821273776858677529e-01,1.633880026091635851e-01,1.290746289746610119e-02,-1.047072903078449246e-01,8.818325392678012797e-02,4.942126274108886719e-01
4.527202095279118099e-01,4.404961352430417088e-01,4.728458882158794174e-01,-4.409479069828813741e-03,-1.187601550365972522e-02,-4.228342894555581905e-03,3.654552251100540161e-02
4.515409502804806352e-01,4.575445738382662997e-01,4.537922536408227625e-01,-1.969854588533645912e-03,-2.639913997428950006e-03,-3.029965711921454863e-03,9.364100173115730286e-03
4.581204085881765420e-01,4.567181547658694662e-01,4.513923092599773645e-01,-2.631640207907567659e-03,-5.286067021050360436e-04,-4.358295560471798081e-04,7.744923699647188187e-03
4.552555618105209034e-01,4.546265556115703932e-01,4.544358615807941870e-01,-2.065893442954495635e-03,-5.913560622670221804e-04,-8.978421364495653379e-04,4.101606551557779312e-03
4.575078373775769980e-01,4.448734376501464194e-01,4.651539876442432053e-01,-3.318078347938500840e-03,-8.661609204628405168e-03,-3.571367034825697652e-03,2.471961826086044312e-02
4.948349257273008117e-01,5.151240245024611975e-01,3.695160599613257491e-01,-4.040607129342714370e-03,-1.396264791828736966e-02,-9.261543442771334039e-03,1.398221999406814575e-01
4.851993029287801629e-01,3.724214867388920824e-01,5.409114797030761812e-01,4.778135761695505995e-02,2.702784269557838639e-02,-4.202586628114572675e-02,1.909057050943374634e-01
4.923864650994801417e-01,4.702326029101773774e-01,4.135407976912396921e-01,-1.013452155602321408e-02,-5.519523828129410670e-03,-6.711405145078353993e-03,7.413060218095779419e-02
4.584059872966206872e-01,4.534824539340384653e-01,4.556904211299716012e-01,3.551519103993428016e-05,-2.073376434568361803e-03,-1.456486917450697770e-03,6.124525796622037888e-03
4.635290910613463211e-01,4.548153726001081254e-01,4.509590500368224064e-01,-1.168268575526619068e-03,-1.548463548254427023e-03,-1.352585540555258439e-03,1.188188791275024414e-02
4.625366314790607114e-01,4.502172490210124556e-01,4.507269765111389659e-01,-3.746620778089650421e-03,-1.514591217680253624e-03,-1.152008776286923570e-03,1.409689057618379593e-02
3.974071045592072471e-01,5.088635088423963948e-01,4.790456609297669699e-01,-3.114996276935443065e-02,-4.669802016590504645e-02,-2.017583660803051737e-02,1.437446027994155884e-01
4.836767950522581350e-01,5.236294160664134445e-01,3.914431492423877668e-01,-9.207812743383367998e-03,-4.145669550463104008e-02,-1.433223490362724867e-02,1.407650411128997803e-01
4.967047200883429325e-01,5.267907546645640426e-01,3.618088436121996154e-01,6.735241785183069922e-03,-1.342686860642350669e-02,-1.612508943889312107e-03,1.544191837310791016e-01
4.735531548798130874e-01,4.749777075645275071e-01,4.286962201118640348e-01,-1.053973312974100171e-02,-5.027973911618426398e-03,-5.543428472130846121e-03,5.078743398189544678e-02
3.950935617828029711e-01,4.791630245493800899e-01,4.938713752869270390e-01,-1.421368079294309077e-02,-7.321376802221264343e-03,-1.392784982118937427e-02,9.934476763010025024e-02
4.674345219126373463e-01,4.021368941927329077e-01,5.164301837414609908e-01,-9.464256857433751488e-03,-3.294676244667562540e-03,-2.346897343010756649e-03,1.009032204747200012e-01
4.584917729507366757e-01,4.207886656939843206e-01,4.797097642767698122e-01,-6.822071834374767926e-03,-1.629276804544446677e-02,-9.374745990241449903e-03,6.222020834684371948e-02
4.332526940778571589e-01,4.651952442347720984e-01,4.573937736063907744e-01,-6.396720392837344088e-03,-8.141405727445228183e-03,-1.300415797897603622e-02,4.075434431433677673e-02
4.521294642635705907e-01,4.467239928845076480e-01,4.484254230385175122e-01,-1.122662715069526300e-02,-7.786852485012679681e-03,-9.755100319873224318e-03,2.946895919740200043e-02
4.565988497227329024e-01,4.658068362767928683e-01,4.539327124054092222e-01,-6.220402160799633901e-03,-3.644031705759937304e-03,-5.696019981555044791e-03,1.922748237848281860e-02
4.966017084212405175e-01,5.100703899215613957e-01,3.838286347267286791e-01,1.161734252677834763e-02,-9.366074667996644385e-03,3.106411137037765145e-03,1.229434162378311157e-01
3.497149473763972449e-01,4.884473124968998214e-01,4.209161835774268279e-01,-9.640778290176017784e-02,-1.731460969374487846e-01,-9.844299340766660134e-02,4.016634523868560791e-01
4.161663040877792707e-01,5.213610913349098208e-01,4.314334180761209003e-01,-7.302867284817794735e-02,-1.234652963498083927e-01,-7.375672026786730950e-02,2.962157428264617920e-01
3.544091920101202220e-01,5.331037087537686681e-01,5.405832840225039959e-01,-8.680315116918949081e-02,-8.033222107352198937e-02,-2.645320906275351602e-02,2.781864702701568604e-01
3.869470855822357280e-01,4.718113736239308298e-01,4.817784813540327837e-01,-4.973423634720693098e-02,-4.364552749494821776e-02,-2.995571475441940676e-02,1.548368632793426514e-01
4.308596235254460449e-01,5.017689679070205244e-01,4.378984938104679703e-01,-2.500716826394718765e-03,-5.873526721758530120e-03,-4.702940383599220169e-03,6.904467940330505371e-02
3.967127399555515632e-01,4.876819599362277602e-01,4.839611428925436054e-01,-9.388274086526054996e-02,-5.764279600457784120e-02,-4.676283895476512215e-02,2.256568968296051025e-01
2.948617188919796517e-01,6.322428520616717451e-01,5.026006407324510317e-01,-7.900668304528925268e-02,-1.990249696093288612e-01,-3.704101508452695146e-02,4.780893027782440186e-01
5.132967386910302077e-01,3.941196217736007146e-01,4.944163864560695010e-01,-7.715940434973064636e-03,8.902535742999848761e-03,2.204418428013111067e-02,1.190955787897109985e-01
4.827824411805078930e-01,4.480753232394942831e-01,4.805639439465294038e-01,4.349231689889043739e-03,-7.013583468010019077e-03,4.807411278274388924e-03,3.749880194664001465e-02
5.271599333645923258e-01,3.100005717485453394e-01,5.287693114047812282e-01,2.985364595709364115e-03,1.297654868431529461e-02,2.172294108810332233e-02,2.223911881446838379e-01
4.967272598282009288e-01,4.436478100927900847e-01,4.488056975928639836e-01,6.573865225931258861e-03,6.454748958205093132e-03,-9.121617490417550586e-03,5.544821172952651978e-02
5.495113293678230981e-01,4.157639940809037538e-01,4.373349175527124211e-01,-9.530984756463240296e-03,1.242408078484276944e-02,5.685009498731984773e-02,1.609347462654113770e-01
4.950550416356813699e-01,4.690037247167877510e-01,4.253425198264723650e-01,9.371405285607583777e-03,-5.438189487302388068e-03,1.498409294374376290e-02,6.890692561864852905e-02
5.077390336547601413e-01,4.266018224666994207e-01,4.713088255635056179e-01,1.558118709969500987e-03,4.685120366515740584e-04,1.201334681580143622e-02,7.345382869243621826e-02
4.930627453262834692e-01,4.714474827835752890e-01,4.368664260358163243e-01,9.455959364009952281e-03,-1.939271849413851979e-03,4.357710433287241038e-03,5.241225287318229675e-02
5.138903395955464193e-01,4.218657991254386452e-01,4.640189845687539005e-01,-3.807204599070739427e-03,4.737471622618002337e-03,1.673765363710480458e-02,8.554263412952423096e-02
5.146254608354497995e-01,4.187060435309714057e-01,4.835775267675643252e-01,-3.543514386117270747e-03,7.980117655760683715e-03,8.632004601761599297e-03,8.739943057298660278e-02
4.765917104555886241e-01,4.546567748800444675e-01,4.641857262444483712e-01,3.440242588640623697e-03,5.510984877263681858e-03,-3.370784489969581767e-03,2.288297563791275024e-02
4.262857273032907290e-01,4.474519812763049220e-01,5.241592294115735573e-01,9.676869171127902569e-02,-4.173086580347427216e-02,5.606829987472033289e-02,2.251744121313095093e-01
4.931582601057764581e-01,4.623276621454708302e-01,4.546638317212928770e-01,4.052454421590034189e-03,-9.723229160233313713e-04,1.634168866526999756e-03,3.613385558128356934e-02
4.672249119955932950e-01,4.552688548548804448e-01,4.911029881788755991e-01,2.966857842560338600e-03,-4.652581119396969993e-03,2.851834790606860067e-03,3.338177129626274109e-02
4.721683153970013258e-01,4.665752256716088064e-01,4.666527085688457754e-01,1.013443503751044073e-03,-1.969816923494043925e-03,3.780902523641140018e-05,6.751393433660268784e-03
5.019982610552983227e-01,4.350877008132755797e-01,4.385578500031210858e-01,2.992453391742066256e-03,4.815672766468970765e-03,-9.466824925344110783e-03,6.798657029867172241e-02
4.701463655422305488e-01,4.483633107352488212e-01,4.912577543873438146e-01,5.459601070207296958e-02,-2.277569114761209337e-02,3.049708749993246606e-02,1.211142018437385559e-01
4.769546701634738151e-01,4.734600248885417195e-01,4.437074730283340207e-01,1.113393222522920251e-02,-5.179700320683932289e-03,7.809687413648186069e-03,4.045684635639190674e-02
4.534025886595234867e-01,4.792192166035787459e-01,4.566981616518137610e-01,2.525874411845626180e-03,-4.677895704839753026e-03,4.914609005687788253e-03,2.737748809158802032e-02
4.479708032092815650e-01,4.868993701377432037e-01,4.600232522963361159e-01,1.526545904615471535e-03,-4.040417237418221508e-03,8.793011388364937314e-03,3.846332430839538574e-02
4.904925041667466123e-01,4.744349450518118849e-01,4.492759947660981412e-01,1.278976184927087430e-02,-8.161729489144451885e-03,1.254144753053397336e-02,4.957064241170883179e-02
4.378347926948396029e-01,5.077680445908990814e-01,4.623928128739415722e-01,7.885708888756290738e-03,-2.246039873002364864e-02,1.212243283253352545e-02,7.692304998636245728e-02
5.717858310244960940e-01,5.423115984288008340e-01,2.889366435271659150e-01,5.106177809196966316e-02,2.937859032086095890e-02,-1.129208159661384825e-01,3.481381535530090332e-01
4.746276926019493136e-01,4.583539356736520132e-01,4.374673673019962572e-01,-7.577083551369102367e-03,-2.699916597145593945e-03,-4.087009656137560905e-03,3.584972769021987915e-02
5.012512271799893782e-01,4.932155464892018504e-01,4.174187815898646181e-01,-6.571820962190434018e-03,6.848210425438417542e-03,1.565580826365803313e-02,8.616480231285095215e-02
4.353930579269035261e-01,4.753350807760122199e-01,4.517327212906309675e-01,-3.539133079470522907e-03,-3.322470344536042168e-03,-8.475175664382293694e-03,3.867672756314277649e-02
5.103157582547903637e-01,4.534909200824303599e-01,4.092254268566241637e-01,1.211988117542903490e-02,8.638388145957125175e-03,-1.578396741456933317e-02,9.547678381204605103e-02
4.899377954293180903e-01,5.472640170493805467e-01,2.690550044844324806e-01,2.918174287285342158e-02,1.089825257091742161e-01,-2.056815040166530550e-02,3.227899074554443359e-01
5.426160932617983823e-01,5.489877621192759127e-01,3.533495030624071997e-01,2.686369772950805354e-02,2.140623633345755186e-02,-2.550378469457566938e-02,2.062992155551910400e-01
4.266193419360829187e-01,5.019361805464220838e-01,4.477000524280468907e-01,-3.522827298146858407e-03,-4.603461835431257691e-03,-2.897214464417863927e-03,6.822960078716278076e-02
5.153176459797131903e-01,5.506942881269464296e-01,3.560363266878983080e-01,1.981592936901799967e-02,4.763962890786280213e-02,9.444210177771441422e-03,2.012736350297927856e-01
5.267747382389932342e-01,5.113885407951249684e-01,3.650829281852813191e-01,4.990983218445569844e-03,7.741994905173095638e-03,-1.584256266889536718e-02,1.577994227409362793e-01
5.100123825592260962e-01,4.529896521717140523e-01,4.315316363074812034e-01,3.766629371121087491e-03,1.326460546064605651e-03,-2.775898611005159396e-03,7.075726240873336792e-02
4.394455858239355583e-01,4.873183303257198618e-01,4.803234307591683905e-01,2.550412269184787906e-03,-4.377056169269625055e-03,1.073025776831667936e-02,4.927746206521987915e-02
5.291377326472858078e-01,5.148485842417619418e-01,3.635336891450007824e-01,8.058295718567700175e-03,6.849975091924728580e-03,-1.576041046183455571e-02,1.623061448335647583e-01
4.708585052457736619e-01,4.912759943341102886e-01,4.079760345310219916e-01,-1.054954291617533728e-02,-8.882610953121622410e-03,-6.301822350490771281e-03,7.965362817049026489e-02
4.461048878014786112e-01,4.764186625467798364e-01,4.442741561076949397e-01,-2.003379642843680208e-03,-2.427959428669873077e-04,-1.951639979624207079e-03,3.164517506957054138e-02
5.748885961112171206e-01,5.798766447067240648e-01,2.128293568511356593e-01,3.288769743210408214e-02,7.824799548559521756e-02,-1.032192164924134598e-03,3.931080996990203857e-01
5.596173495335405867e-01,5.607001238975081181e-01,3.221617802713664380e-01,6.319419727147610952e-03,-1.506181669006195940e-02,-4.310187303883220022e-02,2.510321140289306641e-01
2.088036846407156921e-01,5.654776009487907373e-01,4.982203303536839600e-01,1.081734381313314841e-01,-1.269793692820885556e-01,6.413544420136617352e-02,4.511837065219879150e-01
3.837234227339386683e-01,5.206723203785461607e-01,4.901948811346623081e-01,1.019814481245021227e-02,-3.940975060708647865e-02,7.061291833052750835e-03,1.436349600553512573e-01
5.167703183661291888e-01,5.274049141181393896e-01,3.345722509969386582e-01,7.441907822950889935e-03,-1.152155722722536350e-02,-2.022658949784681554e-03,1.892709434032440186e-01
5.481328388995488909e-01,2.392716971708714613e-01,5.563684312474321825e-01,-8.270814309513584150e-02,3.722972181914768058e-02,7.394341554796371452e-02,3.729472458362579346e-01
4.533389927625087190e-01,4.915548488857871545e-01,4.312198992377042073e-01,-7.193661199026618602e-03,-4.938828545227774529e-03,-2.607881887265616708e-03,5.517093092203140259e-02
5.305429395302235784e-01,3.570063687857767398e-01,5.372866506466538183e-01,3.003319261513462055e-02,6.478266475108587774e-03,-2.334885450872832210e-03,1.848754584789276123e-01
2.990284904171595093e-01,4.983150358009274528e-01,5.111213606716428215e-01,1.317043662125737258e-01,-1.233551208251133235e-01,6.947789980246660280e-02,3.931925296783447266e-01
4.707834217137257804e-01,5.183613672024429686e-01,3.755072479983819767e-01,1.100419198379971137e-03,-2.582824539784031939e-02,-3.028359097819916228e-03,1.338158994913101196e-01
4.936549280629231595e-01,4.864738680187924436e-01,4.376569223995754321e-01,1.151157003481688770e-02,-2.181456346665387389e-03,3.478867752222128407e-03,5.686257034540176392e-02
4.067177770594119224e-01,5.071642573017418609e-01,4.382036161348584757e-01,-2.797155116999901908e-02,-4.875460196844122462e-02,-2.957058243089281252e-02,1.414910852909088135e-01
5.170994122146128635e-01,3.518285401765750553e-01,5.276900427588635534e-01,-7.879991206143301466e-03,1.391043341412874328e-02,1.244590804507887671e-02,1.743801385164260864e-01
5.050684125822234583e-01,4.479068496011590628e-01,4.310482943835998171e-01,-8.732452691896393617e-04,4.996131146652107731e-05,-4.073722580337961821e-03,6.758252531290054321e-02
4.828140625006087649e-01,4.360633311395699097e-01,4.972742653223389264e-01,6.713183843081818938e-03,-2.345217026042779613e-03,5.249404472466569389e-03,5.749019607901573181e-02
5.049187883579736580e-01,4.435129711353736348e-01,4.308206191831518428e-01,1.658634879347638301e-03,-1.391763340054725823e-04,-3.921791376079490458e-03,6.903337687253952026e-02
4.749463992457517159e-01,4.640388118627712943e-01,4.635887331718895887e-01,1.325841231006475796e-03,-2.108459668984207034e-03,1.097753971207936479e-03,1.209598593413829803e-02
4.828273233335039216e-01,4.596411654748528974e-01,4.694931210849576653e-01,2.658925487272759385e-03,-5.729175831945738408e-03,1.783041021698857304e-03,2.313974313437938690e-02
5.039194219367707506e-01,3.624790896277718666e-01,5.283932309826034901e-01,-1.800376348210371708e-02,1.245617992359736477e-02,1.508292499617632475e-02,1.618217527866363525e-01
5.119376214215192178e-01,3.478643081963137540e-01,5.271099357148043563e-01,-7.759308203998466213e-02,2.990940655458665300e-03,7.384631203480402674e-03,2.188426852226257324e-01
5.414863429790961469e-01,3.073241959935207879e-01,5.671321023439821474e-01,-8.159805790153885907e-02,6.839137643577927403e-03,-2.372265268564346594e-02,2.886143326759338379e-01
4.611362128247161740e-01,4.747401322442842408e-01,4.710468321108059464e-01,9.296692123411105617e-04,-1.042122400976932574e-03,4.365449211274296214e-03,1.454256102442741394e-02
5.008039673160551430e-01,3.097528263638360535e-01,5.360417875347547323e-01,-5.244515287291462435e-02,-1.444173862651831246e-04,-4.757539702718554218e-03,2.297692596912384033e-01
5.451137683191166206e-01,3.157813636473826291e-01,5.664533800637211458e-01,-7.537335069450930292e-02,4.724556189339304633e-04,-4.265466775650361003e-02,2.836281955242156982e-01
5.586450851523769856e-01,5.324778244843786368e-01,3.435137383253450416e-01,2.406388106635119067e-02,4.084182574840205388e-02,3.877404404576077074e-02,2.293217778205871582e-01
4.654734829712567357e-01,4.745026425968601469e-01,4.618165851351201945e-01,4.384078910853675924e-03,-1.049463400889492221e-03,1.815694297985228798e-03,1.409865729510784149e-02
4.815211196435589258e-01,4.723349019402270921e-01,4.508061189867291207e-01,7.684417429129956206e-03,-1.744212719201944069e-03,1.940871518933565002e-03,3.071191534399986267e-02
5.468864033912925748e-01,5.431574787405923921e-01,3.285712455905818175e-01,1.497327141861238241e-02,1.317605513016812313e-03,2.480407872210990076e-03,2.180770337581634521e-01
4.739530424183471258e-01,4.615715230964689275e-01,4.653283463223882310e-01,3.062323090946985661e-03,-3.752797479534619035e-03,1.755488840296100641e-03,1.416085194796323776e-02
5.121715102375543616e-01,4.460267176958865321e-01,4.472838279607549983e-01,-7.687495708786337483e-04,-2.716413197640921411e-03,2.786968899202840397e-02,8.153300732374191284e-02
5.138308942421553338e-01,5.007419486659556718e-01,3.891385662829450198e-01,1.070043897784648916e-02,-2.092783816345582248e-03,2.002769396111721278e-02,1.250894367694854736e-01
5.068461264019961110e-01,4.666349704012384136e-01,4.327951813916948720e-01,1.191477398250152071e-03,4.566461474774393368e-03,2.620204682895356518e-02,7.905228435993194580e-02
4.685078163095419135e-01,4.674984908733609279e-01,4.622721587952434708e-01,3.378504951626776567e-03,-1.945725948520043470e-03,2.524733259641635374e-03,9.916230104863643646e-03
5.574247636244480386e-01,4.951113822258214059e-01,4.024566429952372570e-01,1.468959130593734501e-02,3.629159344231038670e-02,4.573269731780474356e-02,1.706297695636749268e-01
4.343350303471508744e-01,4.964367686988543915e-01,4.471931492368348415e-01,-1.387172869091241392e-02,-2.893970906091382703e-02,-1.219531645049360194e-02,8.221567422151565552e-02
5.042423183161743871e-01,4.296113672704012787e-01,4.356636793728881907e-01,-4.378136580158387614e-04,-1.636949466243542211e-03,-7.409039676260472176e-03,7.299325615167617798e-02
5.594536599116126663e-01,4.976317003797379179e-01,4.209969709674173943e-01,-5.431668846413643253e-02,9.197513201078606759e-02,1.753247474060467548e-01,3.753372132778167725e-01
5.625574180740826602e-01,4.148601332649750062e-01,3.216336628967057520e-01,-1.044763780329980088e-03,2.818490674422694311e-02,1.877062255712257099e-01,3.903361260890960693e-01
4.064867483296608075e-01,4.869059610391313075e-01,5.006129049549981058e-01,5.642720541475095171e-03,-1.480258517553080175e-02,1.184143017307439857e-02,9.450376033782958984e-02
4.667225631218035464e-01,4.476718538888015964e-01,4.458931100049161045e-01,-8.279707613762950918e-03,-2.428919214021824438e-03,-3.204470382263829159e-03,2.557626366615295410e-02
4.422548875456205342e-01,4.653764094414540864e-01,4.570965003038262586e-01,-3.331071192342615044e-03,-3.408657310228080037e-03,-9.289443924514195761e-03,2.717984281480312347e-02
4.219561214327338661e-01,4.545730084515621772e-01,4.788437872584333510e-01,-2.993722437948476839e-02,-2.351098292259726913e-02,-2.422065658902931157e-02,9.247432649135589600e-02
4.463470856648356078e-01,4.756909096597506936e-01,4.505155406538727259e-01,-2.034228484956584777e-03,-4.590355496297367417e-04,-4.497530429663322733e-03,2.880707196891307831e-02
5.492810888095525090e-01,4.071222606719555603e-01,2.738510808583184963e-01,-5.776602458365891896e-02,-1.081252208129763331e-01,-1.965908284360789182e-01,4.668445289134979248e-01
4.412786056475795915e-01,4.595000507874222317e-01,4.793268435540551931e-01,-1.729946385526323974e-02,-1.572237837220494955e-02,-1.450606567759027063e-02,5.794020369648933411e-02
4.528201674812858957e-01,4.348381553695142565e-01,4.817721805058662876e-01,-3.041529018570341292e-03,-1.051824340299045875e-02,-2.719168764865244163e-03,4.543150961399078369e-02
4.741018734639145804e-01,3.783173307838373911e-01,4.455786835010364655e-01,-7.736031771737991725e-02,-5.876591176520720022e-02,-8.675514141369793097e-02,2.411424666643142700e-01
4.727130054414758753e-01,3.872242126589330868e-01,4.964880355958800617e-01,-1.880684408155661527e-02,-1.651240888974896820e-02,-9.376813097536311828e-03,1.097676157951354980e-01
4.733374359162844103e-01,4.006699518020235828e-01,4.787264449103815767e-01,-1.541689776496625065e-02,-1.551295096437712434e-02,-1.372076784134757324e-02,8.775526285171508789e-02
4.511694450310976268e-01,4.174878624921383730e-01,4.916268028323415029e-01,-1.040086244941514602e-02,-1.148653603012377185e-02,-5.511310820292522443e-03,7.032348960638046265e-02
4.416830333877554415e-01,4.850349005825919657e-01,4.464428565632539425e-01,-6.876355862371039823e-03,-7.932484072985291484e-03,-7.720700031887652720e-03,4.695898666977882385e-02
4.498376891827488011e-01,4.083659037254662727e-01,4.951580646160710364e-01,-1.337379993268593067e-02,-1.334611392220239230e-02,-1.050602928039057714e-02,8.399657160043716431e-02
4.586384840701026033e-01,4.556478451470023505e-01,4.885725669292696471e-01,1.206231891230316773e-02,1.135429088962318367e-02,-1.100121493546493343e-02,4.669961333274841309e-02
4.554530805012025896e-01,4.549059139803937057e-01,4.556294628836080607e-01,-6.567259655810557973e-04,-1.509739133676770134e-03,-8.970257373380857409e-04,3.312519052997231483e-03
1.609013348053821013e-01,5.744299801449366250e-01,5.929192299995384996e-01,-4.486239342612417975e-03,6.582037788237053537e-03,3.381622112211855880e-02,4.273342788219451904e-01
4.599513165044319396e-01,5.009892820717497530e-01,4.194826107972273732e-01,8.718745325509869026e-03,-6.255465542556746909e-03,1.424758718598270876e-03,7.303503155708312988e-02
2.889432408944948572e-01,5.018019889604459216e-01,5.337058464725530360e-01,1.048170406803342336e-01,1.041173451988361143e-01,-8.035315303429496278e-03,3.446629047393798828e-01
4.226237119866408376e-01,4.995228742670955735e-01,5.303865440651741592e-01,3.572370910212412792e-02,-1.034389979398312159e-03,1.692540547167982121e-02,1.180279850959777832e-01
4.556687576118769178e-01,4.657652322699591396e-01,5.292170538474761932e-01,3.189779288689417042e-02,1.243681738416925649e-02,8.397336430008445554e-03,9.217748790979385376e-02
4.552721315397779134e-01,4.568085218976984385e-01,4.526794420137733033e-01,-2.237473681859979309e-03,-7.431662904022812892e-04,-9.289143936216584648e-04,5.685975309461355209e-03
3.595680645215970084e-01,5.167847727722598705e-01,5.216099425412878965e-01,9.403261894025455661e-03,-7.048400273327861017e-03,2.783883747454150241e-03,1.610482186079025269e-01
4.357041020800702102e-01,5.019394900597670128e-01,4.384216248337507449e-01,-7.614681689673806226e-04,-1.826353617102765116e-03,-1.681012215324423397e-03,6.507486850023269653e-02
4.243216438553574776e-01,4.937902677435396792e-01,5.030852417781805919e-01,1.562637356550472881e-02,1.259242068836038085e-02,-3.146476404145072056e-03,8.243757486343383789e-02
5.360564502509636009e-01,4.276931852832995817e-01,5.234887973181747700e-01,8.966533150231874305e-02,5.887519491551741063e-02,-4.861128361433968842e-02,2.283556908369064331e-01
4.399746846528855837e-01,4.523400465803631976e-01,4.758066569753123254e-01,-3.379987519656789050e-03,-2.413774691643129095e-03,-9.282357830631174714e-03,3.611087799072265625e-02
3.962310491523775013e-01,5.164962745082379847e-01,4.689204980984673643e-01,-1.115312842985837632e-03,-9.173587917230075287e-03,1.774901772408874010e-03,1.061655059456825256e-01
4.829579203452363245e-01,4.980416936995356036e-01,4.900559678321320112e-01,6.954979240464255474e-02,-4.465096379963490875e-02,7.055498377491771500e-02,1.886730045080184937e-01
4.099464271969096574e-01,5.141331300029367002e-01,4.448196370684475154e-01,1.171185113201063258e-03,-2.130949253922144113e-02,-8.820296809076070069e-03,1.001872047781944275e-01
3.886160727144192251e-01,5.208573319780045452e-01,4.802891063664693205e-01,1.105573940213571728e-02,-1.905920879745247667e-02,9.920056472316952922e-03,1.245809346437454224e-01
3.628941628505892303e-01,5.263994797037363504e-01,5.172059245546609674e-01,7.154957757363558137e-03,-8.931379835123846520e-03,1.677627879623828575e-02,1.629494875669479370e-01
4.266258071016239550e-01,4.883536300268973007e-01,5.085901510096529909e-01,2.257153982093021427e-02,-1.414431320572639029e-03,1.038357464833249318e-02,8.559718728065490723e-02
4.338799213975176872e-01,4.522944738236401863e-01,4.814901084465466607e-01,-4.451768282426089504e-03,-7.784522190947417916e-03,-1.168310605035631153e-02,4.878361895680427551e-02
4.664564605228141425e-01,4.862134353189087599e-01,4.476771370457907073e-01,9.165301407854504340e-03,-1.223014333800605128e-03,1.565223380196250052e-03,3.711965680122375488e-02
4.691134663062522803e-01,4.407715555290607767e-01,5.040680352225452854e-01,1.878809529267387243e-02,8.312213995137240560e-03,-1.753864439584377089e-03,6.550762802362442017e-02
4.293348482403868127e-01,3.576213161650370620e-01,5.253169870448730627e-01,-8.032125186695845964e-02,-3.101338312845375311e-02,-2.863321504561140013e-02,2.143319994211196899e-01
4.770632410628333764e-01,4.663989752626272467e-01,4.628350950520281337e-01,5.410618600656442838e-03,-5.300481984264924888e-03,5.305864336316884478e-03,2.051829174160957336e-02
5.076292930863575137e-01,5.031150303251412659e-01,3.926692239354208636e-01,-1.540094869597395492e-02,-3.296411189634369798e-02,-3.306807306157896059e-02,1.413124054670333862e-01
4.656894725091900167e-01,4.697005874100634304e-01,4.684602461366744186e-01,2.932896944711509916e-03,-2.424414046710370550e-03,3.052652235444530508e-03,9.167736396193504333e-03
4.659669446159440120e-01,4.693261776217282910e-01,4.666590433410958139e-01,3.827531437742665802e-04,3.616612262237525049e-04,1.665926468747101221e-04,3.217713674530386925e-03
5.073387351820393132e-01,5.025255597847623212e-01,3.698391947991542805e-01,-1.505586924720534771e-02,-2.939513562293658358e-02,-2.965151105660726594e-02,1.554907560348510742e-01
4.793318970080651109e-01,4.909758694308168359e-01,3.789978220958883370e-01,-1.927975163645917478e-02,-2.062519170222697901e-02,-1.789768521532295736e-02,1.213387772440910339e-01
5.054619319061547378e-01,4.749014989178290125e-01,4.112644810936297302e-01,-1.271203121418942178e-02,-3.417055881924692395e-02,-3.492443503734073834e-02,1.207277998328208923e-01
4.664652135343274053e-01,4.744269105619297044e-01,4.590316151252825105e-01,5.284109922482260226e-03,-5.329565545543857439e-06,1.018564811848368711e-03,1.626988127827644348e-02
4.650024307459110773e-01,4.697263643495883101e-01,4.653144516340581571e-01,8.359912846651411898e-04,-4.017665435474256715e-04,1.724929463002293885e-03,5.696136970072984695e-03
4.947614485053048461e-01,4.736812753362953377e-01,3.780697349401277996e-01,-1.945578621420770982e-02,-1.647409613551079760e-02,-1.852830260799488357e-02,1.207522749900817871e-01
3.209420445225401597e-01,3.973319814461566124e-01,4.945802377405362771e-01,-1.922258770552231488e-01,-1.198614292681964566e-01,-1.122702397173281075e-01,4.631283879280090332e-01
4.411297646775117487e-01,4.405164447328912547e-01,4.829144077550347469e-01,-1.103058681822891886e-02,-9.994179733002411109e-03,-8.972251966228587255e-03,5.175071209669113159e-02
4.225868841041441337e-01,5.088992336700423058e-01,4.400047119473045054e-01,-6.906341588833829481e-02,-7.572861892644004722e-02,-5.106476773073231890e-02,2.135097086429595947e-01
3.990050583994140254e-01,4.697567803652520912e-01,5.013913513445996673e-01,-1.192321368353689015e-01,-8.433047501113460909e-02,-6.753486340356994189e-02,2.931064963340759277e-01
5.045579687265264734e-01,4.441416748536862746e-01,4.389648450083767917e-01,5.166422313397449860e-03,-9.192766995102769718e-04,2.406672595794948424e-02,7.622286677360534668e-02
4.611774609026518257e-01,4.110165644248572892e-01,5.108249869382075481e-01,4.252047995392341934e-02,-1.653272995866994846e-02,3.130557929306251180e-02,1.290559619665145874e-01
4.440950384960656305e-01,4.758584599390251468e-01,4.435025890779925040e-01,-4.760829608432948397e-03,-1.699703284303362861e-03,-2.430327229390019054e-03,3.350324183702468872e-02
4.526286567164738428e-01,4.634722623376481554e-01,4.502883687369225729e-01,-1.411939389151745626e-03,4.702376959623766274e-04,-1.490121656368220476e-03,1.271783653646707535e-02
3.697100360949951980e-01,4.716904357778475831e-01,5.707950202883286250e-01,-1.196244375329763715e-01,-3.383171304903152127e-02,-1.479253923166167980e-02,2.781162858009338379e-01
4.500053706914905471e-01,4.619743160943973193e-01,4.513000070448754952e-01,-4.192227670728259151e-03,-1.222333505918131750e-03,-2.007098792191987918e-03,1.409710105508565903e-02
6.606175486223520021e-01,2.894527471962310416e-01,6.113092897343315180e-01,1.336626844903777145e-01,8.643495713325477503e-02,8.816840917859275484e-02,4.703448414802551270e-01
4.534483679443632176e-01,5.016974484811327351e-01,4.249725857814605212e-01,-4.592855338807144520e-03,-6.554856908602435875e-03,-2.321693873925150670e-03,6.871045380830764771e-02
5.300676451135030165e-01,3.688591752387966327e-01,4.864972043520000011e-01,-1.516887764229282558e-02,1.217990786175210914e-02,3.273149301521550980e-02,1.587829291820526123e-01
5.055694542773683242e-01,4.694011532209280690e-01,4.237766535222955988e-01,8.492088209584008202e-03,-2.097095628302100227e-03,1.454454591644753665e-02,7.683796435594558716e-02
5.488380211057802827e-01,4.534009368263177686e-01,4.668816510481167414e-01,5.044967681750917726e-02,-2.959170762518274767e-04,8.119008436082135460e-02,1.881878525018692017e-01
5.050781651216398327e-01,4.066359042425691239e-01,4.830370979836886569e-01,2.146537923138569157e-02,-7.764256666686552080e-03,4.211329919810215261e-02,1.220272257924079895e-01
5.088372900796875875e-01,4.328090987403632739e-01,4.719798221237784808e-01,8.481590804040182313e-03,2.936501056234218452e-03,1.349540741212633399e-02,7.158639281988143921e-02
4.405506934079468917e-01,5.004201569094729463e-01,4.355737379868446224e-01,-1.787782108357486525e-03,-2.462447253716819676e-03,2.079151069672215428e-04,6.272957473993301392e-02
4.529286589309667321e-01,4.856728664800169515e-01,4.589280393298722505e-01,8.570656369120898625e-04,-2.904228345496944873e-03,7.128787420705829476e-04,3.067185357213020325e-02
4.978221023558388469e-01,5.079913419539627828e-01,4.140508229106526494e-01,1.402509627638252356e-02,-7.032695557217466878e-03,1.716877805131375445e-02,9.795773774385452271e-02
5.136624372805140837e-01,5.104498221129994961e-01,3.813800558866573542e-01,1.352618792280401924e-02,-3.732463850687816730e-03,4.812566790825949757e-03,1.332070827484130859e-01
5.049053779752059601e-01,4.860963715513034189e-01,4.036207992046704773e-01,2.064437820460592043e-02,-8.342994749092610268e-03,1.491543025506926468e-02,1.042213067412376404e-01
5.124650021814687317e-01,5.279108753531575049e-01,3.274687285848395524e-01,1.483037394126387326e-02,-3.608457684683338829e-02,1.389735124445538351e-02,2.060707211494445801e-01
4.618325546302050610e-01,4.915492578413557800e-01,4.236012696944010947e-01,-1.126595063272980111e-02,-1.593040285319314436e-02,-5.742890430986527343e-03,6.871580332517623901e-02
4.025228154204028019e-01,5.149407998110993034e-01,5.419581891224398706e-01,8.366170749670262530e-02,-4.502106448900630026e-02,5.303233784887348423e-02,2.278613597154617310e-01
4.532942833562318974e-01,4.953682374803392019e-01,4.269900696214941616e-01,-7.421466540407835495e-03,-5.146802173881181823e-03,-2.953842670469543526e-03,6.196555867791175842e-02
5.438985414022083908e-01,5.237120679673432644e-01,3.480706634149786649e-01,1.088108386882500993e-02,6.144949604421178629e-02,2.730999292365611508e-02,2.207346856594085693e-01
3.688714220438115143e-01,5.230928020236226272e-01,5.174922797686691833e-01,6.165996555589708245e-02,-7.430502454078530272e-02,2.149077846459809468e-02,2.287072390317916870e-01
4.719181667313773199e-01,5.137728799714688099e-01,3.750313402922116901e-01,-3.360454556915941447e-03,-2.460863203249872080e-02,-1.889339523253493998e-03,1.305962651968002319e-01
5.123881806882403245e-01,5.007141293047909780e-01,3.578667674192924641e-01,1.769199854365327909e-02,-2.968915562497726618e-02,2.819813980875584061e-02,1.678631156682968140e-01
4.592141893478683401e-01,4.435324640313573208e-01,4.995655168098315779e-01,2.041797703559358398e-02,9.172950488432226115e-03,-7.381117195535298429e-03,6.460245698690414429e-02
4.436333153653038708e-01,4.994260153660806667e-01,4.434216161557379410e-01,2.179721818477767790e-04,2.412570796681500408e-07,7.506211529007446185e-04,5.591524019837379456e-02
4.818272631193458166e-01,4.099828066989648634e-01,5.179727633830603084e-01,8.018543097134261943e-03,3.999844359936276759e-03,1.361612214050690909e-03,9.649573266506195068e-02
4.483978980862922681e-01,4.419795244636957610e-01,5.057301872476634985e-01,2.190706311710908377e-02,1.752526173457463581e-03,3.548423488639281149e-03,7.199244946241378784e-02
4.562632935019405589e-01,3.918363137062511603e-01,5.349544897044186120e-01,1.591852886938670830e-01,-2.972192716503459925e-02,7.673883458135308255e-02,3.342896401882171631e-01
4.887861752702924445e-01,3.868397752625253316e-01,5.437607971816402763e-01,6.437807127685235553e-02,3.858474626894610460e-02,7.317300630308714617e-03,1.899482160806655884e-01
4.925426761139320431e-01,4.544736014150936310e-01,4.460252228607801128e-01,6.142300503863326773e-03,3.713655683151757987e-03,-4.051549120940559426e-03,4.523332789540290833e-02
4.904977319321794926e-01,4.308693555058449309e-01,5.182459358401877436e-01,2.236365882037388841e-02,7.219121844716666625e-03,3.241767201384811604e-03,8.756917715072631836e-02
5.916860487053274831e-01,4.673733333737594697e-01,3.680222685860395915e-01,4.295985634741730091e-02,4.905578199470257694e-02,-1.154778614106338475e-01,3.007263839244842529e-01
4.487026777614480100e-01,4.884481291973768458e-01,4.688470679758595105e-01,2.154160368078225987e-02,2.604179431191374489e-02,-1.842109773473159240e-02,7.503004372119903564e-02
4.667318310558775107e-01,4.682373344369497592e-01,4.677068489643506632e-01,1.514475460405841764e-05,-5.834169469938409961e-04,-8.981693799486353922e-05,1.671921927481889725e-03
4.623895465625901813e-01,5.051421940055743631e-01,4.124835321743324235e-01,3.046869706712344514e-02,4.552774078512587808e-02,-2.119973437403783328e-02,1.296288967132568359e-01
3.878128241523742803e-01,5.132083640514804035e-01,5.097663342390843511e-01,6.650975585097728890e-03,6.806992238491566330e-03,5.411260813538067843e-04,1.248073056340217590e-01
4.824742199970098455e-01,4.579343792164125571e-01,4.574156334910679522e-01,-5.443011811632368288e-03,6.660439899627019350e-03,9.373254176599316034e-03,3.317740187048912048e-02
3.274793868219471604e-01,5.497593301698681101e-01,5.475673413586749083e-01,2.799088366865398053e-02,1.521979862791508487e-01,2.215175782419800607e-02,3.496300876140594482e-01
4.495381969386026966e-01,4.481514015362866310e-01,4.675832355479152547e-01,-4.627131784421581115e-03,-6.779470167476489388e-03,-6.077781959308755678e-03,2.579737268388271332e-02
4.121325817569367889e-01,5.039995084974764339e-01,5.029242446453394688e-01,4.530670615300221027e-03,1.297558889124645655e-02,-2.603765323337104559e-03,9.449298679828643799e-02
4.945587166893425368e-01,4.512929612309475313e-01,4.149469885998898211e-01,1.791235962272096777e-02,1.694694685687944680e-02,-3.987548735601430250e-02,1.065824106335639954e-01
4.979368728950542833e-01,4.400809866740538201e-01,4.600953567596942628e-01,1.452190999822860476e-03,5.662020219091123963e-03,-3.730036262880640375e-03,5.228929966688156128e-02
5.367177391516130269e-01,3.299255259919645633e-01,5.326145122093552953e-01,2.040372405098120345e-02,2.317288649199055611e-02,-3.275831791515278896e-02,2.191130965948104858e-01
5.018049115835911955e-01,4.304523892427941090e-01,4.518237766197960026e-01,-2.595569838852003082e-05,7.362544830202452303e-03,-6.761207412797937306e-03,6.574786454439163208e-02
4.495589404758645324e-01,4.109243584154108064e-01,5.161123635768313234e-01,-2.159964738881858110e-02,-5.502251898812501527e-03,-1.972221078479436188e-03,9.997689723968505859e-02
4.501534110681353340e-01,4.418499924852145044e-01,4.974774511877482208e-01,2.194212527420420430e-02,7.625167861055441761e-03,-4.469004622556852803e-03,6.618291884660720825e-02
4.378187425300267277e-01,4.852913086289905031e-01,4.459016185490677353e-01,-3.069080635392391985e-03,-5.390666274959266847e-03,-7.906376054159716324e-03,4.730994254350662231e-02
5.191868563277923787e-01,4.446027989026682392e-01,5.254770611316901263e-01,8.615426880170928836e-02,4.751892422161309304e-02,-2.894257327423952267e-02,1.939750909805297852e-01
4.804472306561243800e-01,3.465163979113645709e-01,5.604185338868583610e-01,1.494587457946519038e-01,2.029914610466958605e-02,4.801930702522802519e-02,3.319803774356842041e-01
7.552713702168837306e-01,4.856248983745817260e-01,2.956003390892510962e-01,6.226018578020560412e-02,3.863813263576770796e-02,-2.138606756704536926e-01,5.597989559173583984e-01
4.378183688434427734e-01,5.000079294215445946e-01,4.388777412738567030e-01,-5.827634663085765054e-03,-1.102384032066523224e-02,-5.554092951090676758e-03,6.604380905628204346e-02
4.730392244741863372e-01,4.577366396429024542e-01,4.309824701714803918e-01,-1.240395482874941287e-02,-4.217983207266107724e-03,-5.115836095141759396e-03,4.419079422950744629e-02
4.462804872423199454e-01,4.508388489311721536e-01,4.759830198487389197e-01,-1.122708072926849494e-03,-2.242125461306792439e-03,-4.401627742410111656e-03,2.906217426061630249e-02
5.032557587690025258e-01,4.497672028856102289e-01,4.089836029965271957e-01,-5.225232855090100950e-03,-2.056910053727114673e-03,-8.644020393844037767e-03,8.381254225969314575e-02
4.887331260196587368e-01,4.123671582591587059e-01,4.982542305347526512e-01,1.579768958790221320e-02,2.000816192489349860e-02,-1.936183386701511092e-02,9.860944747924804688e-02
4.358843301171346218e-01,5.053179901344613256e-01,4.391805609271019484e-01,-1.469893540885624920e-04,-1.478463924142994291e-03,7.725080879757371391e-04,6.790759414434432983e-02
5.104556623129171689e-01,4.128554563473751382e-01,4.996546951151384364e-01,1.350911504531284064e-02,1.634518462861129021e-02,-1.887063153253792924e-02,1.049074381589889526e-01
4.572082727937715196e-01,4.539533784468894329e-01,5.008598329050246711e-01,2.112243264044896818e-03,4.622678543931394465e-04,9.909455923178291364e-04,4.555333033204078674e-02
4.552486651741899926e-01,5.108148111910325584e-01,4.279992781641723809e-01,5.244904226611436966e-03,-4.751097164209875864e-03,1.273151863774676712e-03,7.415778934955596924e-02
4.851795208115983193e-01,4.239980919994607578e-01,5.079235138526041471e-01,5.476670579506075394e-03,1.137791898502298060e-02,-2.296403403578461695e-03,7.839731872081756592e-02
4.167592191784709188e-01,4.470756672260748354e-01,4.940380230233468173e-01,-3.713738550530098353e-02,1.250788081440777980e-02,1.471126775903297546e-02,9.901738911867141724e-02
5.934841360653693165e-01,3.888516036719271152e-01,4.531383283762598913e-01,2.402927721379524359e-02,-4.288859743520415102e-02,1.793536744405221373e-01,3.696022629737854004e-01
4.329174027815699821e-01,4.551130217650258825e-01,5.003838769282752397e-01,-1.941484919083214661e-02,-1.477031729828332668e-02,-1.269828554683075095e-02,7.626234740018844604e-02
4.749394544630818338e-01,3.777394887233789800e-01,5.169972520309932262e-01,-2.494553633021684078e-02,-1.304550275352800957e-02,-1.924057142460143142e-03,1.330158263444900513e-01
4.525679464401630159e-01,4.860425418649206297e-01,4.508219514525828031e-01,9.971022563816233242e-04,-1.299765245401038717e-03,4.278359611307200848e-03,3.528466075658798218e-02
4.673924222458747391e-01,3.919854894275029422e-01,5.135890932696201006e-01,-1.138963845553904800e-02,-7.029601544505786719e-03,-6.477931311198554913e-03,1.093946769833564758e-01
4.274281667357702208e-01,4.760490871771128063e-01,4.960135935487265946e-01,-5.005966961483690990e-03,7.874580862500936071e-03,1.394400980422792584e-02,6.765929609537124634e-02
4.583618362816298530e-01,4.217943036216039721e-01,4.758149524309034373e-01,-7.752573105413380732e-03,-1.481246740601875091e-02,-9.204848775159478122e-03,5.807525664567947388e-02
4.626914771014026817e-01,3.809689373721972805e-01,4.974869219523153085e-01,-2.407656832953739348e-02,-1.800013213172302687e-02,-1.282950413975452418e-02,1.180581003427505493e-01
4.402858410059062866e-01,5.016345462041342795e-01,4.356123804485418360e-01,-1.349559794794184418e-03,-2.323849980820807612e-03,-3.310735762225836248e-04,6.398601084947586060e-02
4.562188246801540670e-01,4.376169532671811413e-01,4.502344503582993984e-01,-3.364804369891723906e-02,-3.367075462891708226e-02,-4.048469360645170351e-02,1.094773262739181519e-01
4.559378363396731082e-01,4.565374340507399320e-01,4.664266670395725845e-01,-4.994371076501405958e-03,-7.300044803652784402e-03,-7.678640070995889320e-03,2.270845137536525726e-02
4.479928653919804105e-01,4.054106438974354187e-01,5.137935861708884389e-01,-1.803954264982827668e-02,-5.425225860487620060e-03,-3.337973538300480301e-03,1.002143770456314087e-01
4.714228141457700860e-01,3.811228181474739518e-01,4.967751572902406876e-01,-2.066093678793913882e-02,-2.065509913605951750e-02,-1.555009183425389713e-02,1.198836341500282288e-01
4.740559325175713323e-01,4.651340255911998178e-01,4.641722451775230351e-01,7.032497639281337469e-03,-5.403426462576738434e-03,5.211494994288913031e-03,2.016294933855533600e-02
4.496431577635104371e-01,4.557929439872481781e-01,4.672855454658657037e-01,-3.062186349500263527e-03,-6.765205592299200835e-03,-8.244014576045432738e-03,2.469621598720550537e-02
4.688138591290919033e-01,4.462327456569802897e-01,4.471785108040232659e-01,-3.886339177317945422e-03,-7.924590037950686450e-03,-3.968403315876238915e-03,2.775603905320167542e-02
4.574396226051932191e-01,4.538665076036264012e-01,4.986648997372266634e-01,2.139542720406398084e-03,-4.360450750033408626e-04,8.155369374759645395e-04,4.331156611442565918e-02
4.572361875743590209e-01,4.536388930953990095e-01,5.018567586770936728e-01,1.315499568969307354e-03,1.412975292595202749e-03,7.875638236256776639e-04,4.666359350085258484e-02
3.901026188865124866e-01,3.959022565768386404e-01,5.772071503786102564e-01,-1.070051339398078172e-01,3.158657567018422277e-03,1.524419291763258813e-02,2.627432048320770264e-01
4.543496729117346145e-01,4.983545255569135080e-01,4.190835253190244303e-01,4.893197661855022348e-03,-3.422469192708047902e-03,2.713800320175687331e-03,6.972140073776245117e-02
4.367141086145283069e-01,5.007824235375353261e-01,4.532113209181193314e-01,1.435126245260739345e-03,-6.009309458822715069e-03,6.742455457569671885e-03,5.975662916898727417e-02
3.956937041240405351e-01,5.060994380896502998e-01,4.688911718607393087e-01,-1.285175479921521740e-03,-7.829205846374913402e-03,8.902597379206147327e-03,9.946098923683166504e-02
4.382747919590243568e-01,5.039479661180300551e-01,4.326715291023458532e-01,1.363879468901506948e-03,-7.493563936127852279e-03,1.152318543366704978e-03,6.993118673563003540e-02
4.677576246333164933e-01,4.462328138442027137e-01,4.530950828558475973e-01,-2.889630506853669949e-03,-6.324619940132751236e-03,-3.095394708951168614e-03,2.316238172352313995e-02
4.617258475894567282e-01,4.485645477394177294e-01,4.529388894979844982e-01,-2.414410694783981296e-03,-5.571192481535239618e-03,-3.615386179086611373e-03,1.687004417181015015e-02
4.665993102210203025e-01,4.682764684882163020e-01,4.653213246280634152e-01,4.720711996459687164e-04,-3.249160009966376318e-04,1.630792071826101973e-03,3.943755291402339935e-03
4.441965893696459555e-01,4.694566402488312140e-01,4.528373544652353200e-01,-4.551031279522018899e-03,-1.064995809225165397e-03,-7.832069214758310624e-03,2.727689594030380249e-02
4.686175050093681071e-01,4.675410416087365517e-01,4.661717199936287748e-01,3.142540313739699241e-03,-2.747758280973475707e-03,2.769685292753363681e-03,8.933001197874546051e-03
4.641119741508427654e-01,4.669723514730248493e-01,4.724889338934818439e-01,-5.409396285963219593e-04,-8.853493970495202254e-04,1.012011945275985035e-03,7.790752686560153961e-03
4.668665327140394949e-01,4.670710421492350051e-01,4.719800085336987028e-01,1.534266907901383527e-04,-1.911203853282514731e-03,1.169455998678870954e-03,6.346283014863729477e-03
4.609671658346742862e-01,4.535223313488106478e-01,4.522123269274820334e-01,-5.906925123060770277e-03,-6.863619899898642206e-03,-6.029085546327152788e-03,2.054135315120220184e-02
4.496526937060496554e-01,4.622182785031759833e-01,4.572732139178424249e-01,-1.022881129699806458e-03,-1.337038584406731153e-03,-7.052598046172400305e-03,1.667121052742004395e-02
5.298198258183020037e-01,3.659234994679607667e-01,5.302887294043243660e-01,7.922501536363316804e-03,1.247111593574089933e-02,2.108078845240907509e-02,1.700798720121383667e-01
5.729556179979886643e-01,2.955106437493872917e-01,4.976463387299761565e-01,-1.885632034592108625e-02,2.651661228056862232e-02,-1.044444695958325481e-01,3.124980628490447998e-01
5.297077887025626319e-01,3.408565194358336714e-01,5.012300241268706769e-01,-4.334693563935460535e-03,1.001649763298618698e-02,-3.431597203900339788e-02,1.870503723621368408e-01
6.031481276238179756e-01,3.184493167769902877e-01,4.125351701959051876e-01,7.718868306485783537e-02,2.921741840246868185e-02,-1.596612202877407960e-01,4.000372588634490967e-01
4.990134878894711412e-01,3.514901796681371704e-01,5.138852612140318854e-01,-4.278224027232113008e-02,-8.984691156526268888e-03,-3.875851492103218887e-02,1.855209767818450928e-01
4.597965145621690786e-01,4.625192218215426476e-01,4.915894606967844971e-01,1.061815282103919199e-02,-2.295517390463615390e-03,8.799786317507650793e-03,3.896144405007362366e-02
4.681271971691670086e-01,5.100609910487144960e-01,3.953374653788968018e-01,9.040222780592181056e-04,-9.671680935595491913e-03,-2.068516012394108587e-03,1.020051464438438416e-01
4.613160384400397662e-01,4.667418038020337279e-01,4.758350534758973849e-01,6.040596181913605346e-03,-4.204774695578889290e-03,6.782379850366825405e-03,2.149355225265026093e-02
4.620032131953460408e-01,4.659141436463263841e-01,4.752624832137878896e-01,6.898672762566816340e-04,-2.598993762788255482e-04,3.118440084083764791e-03,1.304039638489484787e-02
4.261103080934744436e-01,4.904633974034414701e-01,4.476732702936797592e-01,-1.247159817856289274e-03,-4.255312055487190173e-03,-8.939473380139856956e-03,5.930741876363754272e-02
4.459207346801019600e-01,4.745761109250505871e-01,4.716262799516229842e-01,5.365246356961678696e-03,-4.987670839625314191e-03,1.009049858365669572e-02,3.481014445424079895e-02
4.825549248860488416e-01,4.390746370191160874e-01,4.153901482670435685e-01,-3.184028397032769020e-02,-2.754918754252561747e-02,-3.688612245904417108e-02,1.134959980845451355e-01
4.596144152056693133e-01,4.631422005807769859e-01,4.994887408714628885e-01,1.058991988866773114e-02,-2.799074745306526484e-03,7.312095487858349431e-03,4.452059045433998108e-02
4.565593880495573686e-01,4.666850572395324637e-01,4.815806339259245394e-01,2.871259858478829394e-03,-2.166474119167059731e-03,6.258463261941846385e-03,2.513072639703750610e-02
4.696529384243197658e-01,5.013140309656256566e-01,4.200017951098570235e-01,7.493366399180851137e-03,-7.678318206305205507e-03,1.795113131873272158e-03,7.344834506511688232e-02
4.493496406856400949e-01,4.247912277184563434e-01,5.057721593507811253e-01,-6.687186901866926103e-03,-2.808031256726939515e-03,-2.869990255011739804e-03,7.317639887332916260e-02
4.990387517838159592e-01,4.606933364263817166e-01,4.525355277212255722e-01,5.662475196004884345e-03,-8.846636953374490200e-03,1.899573616793037711e-02,5.712468177080154419e-02
4.506233748408028372e-01,4.656331690718439886e-01,4.471908827240965167e-01,-1.050279471569932031e-02,-8.034024685684718059e-03,-1.034295517285776893e-02,3.367625176906585693e-02
5.125175665351514587e-01,4.864532045873040111e-01,4.237862627578303232e-01,1.026178201579374706e-02,-9.278049931791565799e-03,8.932875296405396598e-03,8.398462831974029541e-02
4.047726440793897318e-01,4.703663464295529395e-01,4.939832541479977079e-01,-8.077806975801869738e-03,-6.661249920496162963e-03,-1.266168659653088384e-02,8.496609330177307129e-02
5.369977597650292811e-01,5.376257918091089660e-01,3.123997689695236502e-01,1.129146260151124743e-02,1.646559086402585304e-02,1.287320052540924867e-02,2.286453694105148315e-01
5.011836921777763632e-01,4.859614638909510176e-01,4.220742742302959760e-01,1.430589969708867190e-02,-5.035005039643875371e-03,8.371905660896414650e-03,7.865171134471893311e-02
4.837080718331894236e-01,4.281028402710281844e-01,4.303724251872128037e-01,-1.657377343385183291e-02,-1.693615220281438974e-02,-2.182313773148573596e-02,7.800134271383285522e-02
4.268953606848612803e-01,5.074116520378709749e-01,4.483670431257856803e-01,-2.404502473959649073e-03,-4.685993433216997274e-03,-5.735926813170266932e-03,7.346434146165847778e-02
5.237813675507407840e-01,5.104538403378529043e-01,3.591079661607524121e-01,5.432561236379486978e-03,6.618594363566462305e-04,3.718880878074608959e-02,1.712867170572280884e-01
4.993426410540492966e-01,5.233159857965062889e-01,3.659457323493228165e-01,2.015424028703583989e-02,-1.514423440002876133e-02,1.463415194799660632e-02,1.552949696779251099e-01
4.443656134242620070e-01,4.476320903367442816e-01,5.054192187195625241e-01,-8.327264765132619609e-03,5.298077322253994317e-03,4.108662100789165113e-03,6.230300664901733398e-02
3.325146140775795955e-01,5.303853877136391892e-01,5.671091593847745749e-01,-1.691277800611243332e-01,-1.581713229619867711e-01,-7.585835974058721676e-02,4.752879440784454346e-01
4.475283117104495445e-01,4.475909432968510071e-01,4.981639698436221564e-01,-7.380004004752348593e-03,5.807519410982692025e-03,5.535934018127148387e-03,5.401219427585601807e-02
5.509056873609918803e-01,3.669070392751868637e-01,3.890607686880312999e-01,4.958209005484143835e-04,3.514434274591030083e-02,1.678207606705563459e-01,3.441911935806274414e-01
5.188549871672660796e-01,3.092716818634648757e-01,5.748965601667802572e-01,-1.639669277422612925e-01,9.940353765576703804e-02,5.349778798137509728e-02,4.215399026870727539e-01
4.860054061041807483e-01,2.784694335629801509e-01,5.433011717748469360e-01,-1.189840118965960203e-01,4.883004078838030365e-02,8.375780587315975745e-02,3.590483665466308594e-01
4.849295417936117514e-01,3.988178163042513935e-01,5.200124939199951557e-01,-3.578508424769004381e-02,9.232913784165318327e-03,1.246915004045414700e-02,1.274009048938751221e-01
4.452880204003606401e-01,4.916743736598955805e-01,4.544008183758046493e-01,2.308054213485434113e-03,-5.189591356245347800e-03,7.220846494131427130e-03,4.544476047158241272e-02
4.669024734037686697e-01,4.495494572834977665e-01,4.926186284567947715e-01,2.885171664813988759e-03,-2.495514729702164470e-03,1.893469410736454668e-03,3.825064375996589661e-02
3.628943568783181139e-01,5.048444818420628755e-01,5.048552612184288302e-01,-4.525364475733406611e-02,-3.728239286274299957e-02,-1.115066086788345581e-02,1.756074875593185425e-01
4.192696117203550399e-01,3.020532929669775823e-01,5.612771747900113795e-01,-1.645729547843863827e-01,4.999005081964651154e-02,5.713981094642225228e-02,3.861296176910400391e-01
4.066917417613990504e-01,3.423640140489354611e-01,5.889065355099807331e-01,-2.348259367241672391e-01,-1.186370912670215404e-02,-4.184656154815313139e-02,4.692196249961853027e-01
4.628277053461413160e-01,4.768207726526432211e-01,4.648509970764283517e-01,7.768283719472978549e-03,-5.498169415090686449e-03,8.602204817048203847e-03,2.579359710216522217e-02
4.524667008118251066e-01,4.769062073683583147e-01,4.665928783284207793e-01,3.709712279441005050e-03,-1.770667512574788677e-03,6.987934763814227478e-03,2.547129616141319275e-02
4.605889261886078612e-01,4.852207302679480971e-01,4.473591288860490622e-01,6.014409579468736958e-03,-2.619551195866683460e-03,1.384091731873040090e-03,3.524882718920707703e-02
4.175488889216671384e-01,6.850579067859107196e-01,4.034253749640161479e-01,2.905402143748051294e-03,-2.079053293127421098e-01,-5.825517321707062790e-04,4.530330300331115723e-01
4.371167297734497859e-01,3.904041920111708808e-01,5.554751695584727589e-01,-9.084307175702768800e-02,4.131384799652980389e-02,2.969210845703167470e-02,2.328998893499374390e-01
3.881422716067470802e-01,5.566578781793963815e-01,4.975614839661618438e-01,-7.480863569800944197e-03,3.860960270273510603e-02,2.599848860025897809e-02,1.691123545169830322e-01
4.669261172249190017e-01,4.577956191490827886e-01,4.813873735889911964e-01,2.960817712436866582e-03,-4.627214307097208927e-03,2.347733461558068960e-03,2.305646613240242004e-02
5.199801894382232170e-01,4.841978143332875684e-01,4.757337658120565083e-01,6.714152234913364770e-02,-4.477298525778709154e-02,8.483637818191225310e-02,2.068437337875366211e-01
3.299931944151407448e-01,4.273053938625812620e-01,5.532866169340486806e-01,1.648850111894497594e-01,1.683946529134854042e-02,2.663440530004941229e-02,3.494860827922821045e-01
4.374085527684177799e-01,4.076336945054555572e-01,4.979330243445863058e-01,-4.187881085432888090e-02,-2.325984334907588158e-02,-2.283911921391266336e-02,1.216606050729751587e-01
4.859860883590786940e-01,4.532672219738114183e-01,4.632447638152041303e-01,-3.004371489854785245e-03,7.066844389657670790e-03,3.461293484475217157e-03,3.250327706336975098e-02
4.651112045092514191e-01,4.695334184246131026e-01,4.658656259970201940e-01,-3.061874093697352413e-03,2.011214000473424569e-03,1.802260006940559645e-03,8.172729052603244781e-03
4.457296734250696391e-01,4.764434345565282114e-01,4.655368870030645589e-01,5.033472411518325265e-03,-5.328928021426248933e-03,8.151275577187176019e-03,3.298236802220344543e-02
4.736644876897174172e-01,4.222990571398342885e-01,4.979436134470668907e-01,-6.811032769812592862e-03,1.365684000853071775e-02,8.104961144756084659e-03,7.328547537326812744e-02
4.492280977110404971e-01,4.953134981855104590e-01,4.502640847798300427e-01,4.743236061160598788e-03,-1.180191987431334147e-02,9.781865986889721684e-03,5.338163673877716064e-02
4.842822937369696823e-01,4.311333597806510931e-01,4.861168591308919762e-01,-4.710970443420451487e-03,1.298545180028246732e-02,4.338826178841465563e-03,5.962048098444938660e-02
4.649515313682288098e-01,4.752296526220773365e-01,4.574918811439660504e-01,-5.663251029609689055e-03,6.214752391761381618e-03,3.947467503743057327e-03,2.228881977498531342e-02
3.305823519655187170e-01,4.506900317740706874e-01,4.820695633615699194e-01,-1.246911480600042255e-01,1.424576868310539479e-01,1.039944784192973065e-01,3.989363610744476318e-01
4.503570599460621771e-01,4.652202968123032023e-01,4.822145039438062719e-01,5.505459433053629288e-03,-5.315709047109252322e-03,7.900795609588456489e-03,3.354513645172119141e-02
4.989049683510209943e-01,4.065649478062385858e-01,4.711410843471858234e-01,1.312719820017485273e-01,-6.329224268874260317e-02,1.098086670350802430e-01,3.265307843685150146e-01
4.608663748306960350e-01,4.730354776020209706e-01,4.667996952219320428e-01,1.238851672441252218e-03,-1.890120202669341937e-03,7.096129625818290917e-03,1.665758900344371796e-02
4.710024029044744820e-01,4.678092390445757753e-01,4.655884736561584081e-01,1.910146574179335090e-03,-8.143350069923952850e-04,5.064348326029290354e-04,5.993679631501436234e-03
4.434037738037858722e-01,4.756319109254986133e-01,4.677924602577255841e-01,5.115327735388105687e-03,-8.466244931570939686e-03,1.020094503111281838e-02,3.812044486403465271e-02
4.393353335739876853e-01,4.931322395723081731e-01,4.617459248610024658e-01,3.131150638278915477e-03,-5.098347016263690516e-03,8.085018019625946073e-03,4.994212090969085693e-02
4.709173285468983838e-01,4.727638204202251337e-01,4.586351999761877907e-01,6.658153819454955269e-03,-1.373217920490276594e-03,1.671598872156966056e-03,1.799922250211238861e-02
4.254281157587061490e-01,4.483450772320908273e-01,5.083935870534164181e-01,-5.802376590650734633e-03,-3.938036095801881846e-03,-4.998555657735609913e-03,7.569427788257598877e-02
4.241233809143193367e-01,4.506969327682009974e-01,5.100205715969986509e-01,-6.444693935261086928e-03,-2.138424654823970969e-03,1.342734096437497686e-03,7.710783183574676514e-02
5.365645525478587308e-01,3.756211442756574037e-01,4.872910351955456187e-01,-1.576150596766411616e-01,-1.107233099894069372e-01,-1.860817116310897468e-01,4.853721261024475098e-01
3.964822084180745221e-01,5.069544262435363713e-01,4.686139159053726022e-01,-5.238885743537041381e-03,-1.025754047700317730e-02,-2.728716770888900845e-03,9.929184615612030029e-02
4.572386341599907755e-01,4.790835942469806596e-01,4.593053078917423981e-01,1.891450006667916902e-03,-8.806400612663237452e-04,3.319367797447482331e-03,2.196453884243965149e-02
4.606927484133861439e-01,4.748948258852019877e-01,4.617052703202250141e-01,5.784218649558567999e-04,4.826724011799296793e-04,1.156405466013261723e-03,1.393049675971269608e-02
4.661788584275768921e-01,4.746498379069710727e-01,4.619377704137547780e-01,2.977469833975997585e-03,3.153168163901400619e-04,1.169603413447173595e-03,1.251673512160778046e-02
3.968407090738588772e-01,5.138418239591182601e-01,4.688136754326017730e-01,-4.782629422485530982e-03,-1.023778139600516751e-02,-6.038800892187046881e-03,1.045988053083419800e-01
4.452020846903768647e-01,4.409884045768001637e-01,5.031835088775902243e-01,-2.131399855427659664e-03,2.765491728971292314e-03,2.060116472351936935e-03,6.060709804296493530e-02
5.016494842180238001e-01,4.296126184679080473e-01,4.394621745185318118e-01,-1.834905522960491491e-03,-1.160990437071948060e-03,-4.676531131436426243e-03,6.823889166116714478e-02
4.873406082250854032e-01,4.861155567973785563e-01,3.986258499844170800e-01,-1.551116644641467764e-02,5.474151544946554565e-02,4.706359069663101219e-02,1.553053855895996094e-01
4.810412843510816217e-01,5.137216393469794529e-01,3.997058995820919058e-01,-5.314459040214465982e-03,3.117503372220687546e-02,1.262305138588183488e-02,1.175581663846969604e-01
4.981599799047087274e-01,4.499589313462890594e-01,4.175505662362685166e-01,-1.077053566573021523e-02,-7.861996085748888460e-03,-5.470506254390469607e-03,7.455860823392868042e-02
4.129986580713795319e-01,4.922029504083429985e-01,4.693474276307811333e-01,-5.303370631897690382e-03,-7.519610549023689715e-03,-1.267890382645671561e-02,7.564201205968856812e-02
5.100294023289384526e-01,4.413077859033563977e-01,4.054449027602938793e-01,-1.672468461670590734e-03,-3.695837247543836551e-03,-1.832579820508072749e-02,9.762293100357055664e-02
4.966555160494022791e-01,4.432962520359544634e-01,4.304501448534786001e-01,-7.636063475678425694e-03,-1.682675182637069760e-03,-4.939153961616334250e-03,6.288322806358337402e-02
2.947414418856575402e-01,4.933479978897590268e-01,6.554894301423856984e-01,-2.065159342087249938e-01,-1.051006214930228222e-01,-5.786500160246155211e-02,5.187164545059204102e-01
5.056417952544142169e-01,4.385348384926192611e-01,4.339810351555089540e-01,1.440085933012974408e-03,2.708967528865378525e-04,-2.463413554915570760e-03,6.967294961214065552e-02
5.152460953210664663e-01,4.137707846629311570e-01,4.530983097893531153e-01,-7.202638143571760306e-03,5.870627104325608706e-03,-1.941895437638752053e-02,9.614278376102447510e-02
4.978921419774053891e-01,4.175470783091913551e-01,4.388420125116956338e-01,-5.922560625835585936e-03,-8.208003943738452143e-03,-1.517430901446851881e-02,7.871457189321517944e-02
4.582912586508742780e-01,4.979316364201762934e-01,4.538619010567502832e-01,-4.470690849262875448e-04,2.633297992909839139e-03,4.070103920612833624e-04,4.229018092155456543e-02
4.236898570112829221e-01,5.039339757434622147e-01,4.860970525089728378e-01,-2.690716607914795007e-03,6.827409979123220431e-03,9.868438349931623818e-03,7.602424174547195435e-02
5.007046434376932753e-01,4.295177452118125183e-01,4.513492788338038242e-01,-1.333379400532092073e-03,-3.336417960535726420e-03,-3.927259545049724757e-03,6.383627653121948242e-02
4.569802765901352370e-01,4.999553650623209111e-01,4.538881230160924374e-01,-1.231692565285716454e-04,2.303752958624914315e-03,8.975829171481906855e-04,4.480724781751632690e-02
4.268225662119047858e-01,4.541439216874767482e-01,5.045656574696906205e-01,-2.301976492274577374e-02,2.386274875601342594e-03,6.544979372683581292e-03,8.001074939966201782e-02
5.059205414440466342e-01,4.296157415751472586e-01,4.401706838854166914e-01,6.470082616303497866e-04,1.799750769887907467e-03,-9.138763280373324652e-03,7.341635227203369141e-02
1.934105294185107793e-01,7.213123208340389558e-01,5.412676047491946640e-01,-2.233993595388976058e-03,-1.050401800291832499e-01,9.150213636944269646e-02,5.237209796905517578e-01
3.783947906242866033e-01,5.527411436810480971e-01,3.925580119451588801e-01,-1.539317684035884648e-01,-2.283602823523322445e-01,-1.413110046857447843e-01,5.617513656616210938e-01
3.688348903288994896e-01,4.746697755981704736e-01,5.206072244662798276e-01,-2.116243906105426745e-02,-9.859029643399273152e-03,-7.983218712277757867e-03,1.414192318916320801e-01
4.629795722469788877e-01,4.675288532496549299e-01,4.708910883371257849e-01,-1.545404248488925188e-03,2.017628502401826781e-03,3.785625335401342911e-03,1.047217752784490585e-02
4.637527603485397387e-01,4.668053873181791102e-01,4.696095870527464688e-01,-4.667081333073013621e-03,4.826862557151346232e-03,5.524478110289575417e-03,1.589158736169338226e-02
4.636957272113084172e-01,4.671029855484720716e-01,4.700753596874331364e-01,-4.115154873039112565e-03,4.454511653752157851e-03,5.120031039638869158e-03,1.481714379042387009e-02
4.672390501685454445e-01,4.674119921163757407e-01,4.656980367544223398e-01,-2.026021857905568879e-03,1.010005190383883155e-03,2.224227888285783966e-03,5.734747741371393204e-03
4.661551717544467066e-01,4.665642014960037498e-01,4.683613732729460799e-01,-1.455341431431405761e-03,3.575153932933637321e-04,4.748834618021295227e-04,3.397981636226177216e-03
4.677346203450942763e-01,4.681707880132147115e-01,4.684984608902448278e-01,1.787920643504911405e-07,7.019100668948176271e-04,8.257273607576432178e-04,1.990990247577428818e-03
4.643985776631948670e-01,4.658454057056046760e-01,4.707453913531750023e-01,-5.229043901272665716e-04,1.264624693305940219e-03,2.125303629027742482e-03,7.236122619360685349e-03
4.662847354992145643e-01,4.681358207548102501e-01,4.691431286837166037e-01,-8.320242066574690251e-04,3.422784469197184148e-04,-8.789322757000770622e-08,2.955343574285507202e-03
4.392138856372725386e-01,4.886147738981242994e-01,4.745144771062992928e-01,2.217687892693190072e-03,-5.662989263356633593e-03,1.282661856839133023e-02,5.047007277607917786e-02
3.556807324307836859e-01,5.605855217855582051e-01,5.763880326584583935e-01,5.336623895081659547e-02,2.345390297685326692e-05,2.623292822350839146e-02,2.368165254592895508e-01
4.816373593421321431e-01,4.133321994257604937e-01,5.082056731382640358e-01,8.748609901001385553e-03,3.292730486528424542e-03,4.256460655586127156e-03,8.661822229623794556e-02
5.222797000909674692e-01,5.059118480696698228e-01,3.934109414574976649e-01,3.216562814501002301e-03,-1.390847124461721271e-03,1.939681276554856143e-02,1.262192875146865845e-01
4.579035633005903438e-01,4.616776401547383335e-01,4.877045798388237041e-01,6.045983366389968711e-04,-4.540985701753778880e-04,3.670581630704536358e-03,2.884454280138015747e-02
5.114834503232660312e-01,5.302746246261503815e-01,3.744951446996974687e-01,9.717909098867213297e-03,6.147799393287441475e-03,-1.227936834003313894e-03,1.486415117979049683e-01
5.355578604450340618e-01,5.369006168175612936e-01,3.566819181156632435e-01,1.233671236647537750e-02,1.299177978684928209e-02,2.410110311142680227e-03,1.822606921195983887e-01
4.327809534194920760e-01,4.850572481412049886e-01,4.957694924864292640e-01,1.015180910312067815e-02,-4.692660751451329521e-03,1.258588017655763204e-02,6.525345891714096069e-02
4.688767040411788711e-01,4.421242489585924806e-01,4.875036450898879159e-01,7.911046955839702230e-03,-1.018044246862558934e-02,9.371714314179780889e-03,4.819894582033157349e-02
4.296753786872740677e-01,4.850430155618468131e-01,5.027751647621382380e-01,1.335811083491465073e-02,-3.551224703958002962e-03,1.618071345941179615e-02,7.563325017690658569e-02
3.223773921045202107e-01,5.747127925215027577e-01,5.536793433581305157e-01,3.404757754201201067e-03,-5.063750074199396822e-02,1.781213854889412626e-02,2.597828805446624756e-01
4.191819998415036164e-01,4.888744126767721188e-01,5.033379140372555849e-01,6.069010389776089559e-03,-3.259135237792908004e-03,8.650619450198094099e-03,8.025637269020080566e-02
4.418130008414887233e-01,4.686404202017021015e-01,4.955283540183179070e-01,3.983296299029534526e-03,-2.118193068398502125e-03,7.013914436564534956e-03,4.870985820889472961e-02
4.696358853431840674e-01,4.626004145606052997e-01,5.143315937886715483e-01,4.075534694651148510e-02,-6.207003064821195286e-03,1.326806050694781178e-02,8.937761932611465454e-02
5.257672040935388313e-01,3.669778124548969678e-01,5.302556722581884818e-01,7.449153056040774823e-02,1.845118991091525620e-02,2.657853050037144865e-02,2.138562500476837158e-01
3.594853256481919113e-01,4.477261335298561296e-01,5.248402683226114362e-01,-7.946428029725996489e-02,2.030197934555883973e-02,1.461144556564924514e-02,2.033675312995910645e-01
4.094501418539214788e-01,4.522060322519484976e-01,5.095647448716231764e-01,-1.240695219539903089e-02,-1.433957400222020374e-04,3.352388541902322043e-03,8.981139212846755981e-02
5.276703488956727695e-01,3.623204637298816921e-01,5.538656669853270209e-01,7.350865987897906018e-02,1.152953897424266287e-02,2.154646141472808113e-02,2.244109660387039185e-01
4.733845434097211924e-01,3.930251453198013722e-01,4.933222483053490426e-01,-1.635914936388270860e-02,-1.417145057553578259e-02,-7.491379919359253924e-03,1.001551002264022827e-01
4.389075071738768874e-01,4.909888830782550007e-01,4.492925521703924896e-01,-1.119488824854247312e-02,-1.783272489535616886e-02,-1.341261461800035207e-02,6.441382318735122681e-02
5.086767907478526585e-01,2.198942120345811213e-01,5.537110927462389753e-01,1.172933581426520572e-01,1.807899867775662750e-02,-1.025204469669801360e-02,3.754965364933013916e-01
3.959617635976630523e-01,4.693527854840952029e-01,5.142086869790385428e-01,-1.025993825991479771e-02,-5.830606520202537627e-03,-6.302310832771302641e-03,1.059587597846984863e-01
4.546577489748357959e-01,4.251453533340909807e-01,5.113002338535934665e-01,-4.894015383867147094e-03,4.225775778566124956e-03,2.650007564559106509e-04,7.665927708148956299e-02
4.940371832316675649e-01,4.925933563763583156e-01,4.413632388334426393e-01,-9.577744157814744794e-03,2.157086656014184367e-02,3.117225372038068959e-02,8.536282181739807129e-02
3.643094531589636809e-01,5.167222891174495514e-01,4.961703228884774552e-01,-8.795381191119566039e-03,-1.368426948160089175e-02,-4.206311343063441274e-03,1.461732089519500732e-01
4.045890024830266496e-01,4.689775390872885086e-01,4.915977739890364240e-01,-8.033782793243446352e-03,-6.759401264454741910e-03,-1.090213625096660838e-02,8.247002959251403809e-02
4.577774664940376104e-01,5.010313593259779763e-01,4.546886273077165308e-01,2.198783337664118615e-03,1.916472546677901959e-03,5.451815285354597799e-05,4.516166448593139648e-02
3.955855410573553832e-01,4.682652118830762933e-01,5.079487471920215436e-01,-1.023814790493557218e-02,-6.126702104893774585e-03,-2.868192975566405314e-03,1.009606420993804932e-01
4.390498090388926800e-01,4.396330374230590921e-01,5.045991916020069468e-01,-1.071836508454054003e-02,-1.669208655249609713e-03,-2.455707170637629576e-03,6.804360449314117432e-02
4.979555275996562780e-01,4.589450348245441291e-01,4.492239532908619548e-01,5.734875797435283994e-03,-7.488961340211791173e-04,6.585949511349430477e-03,4.718066751956939697e-02
4.451113844295652155e-01,4.451130064886116844e-01,4.963776482582504257e-01,-2.162802411737851081e-04,-5.935330678369857548e-05,1.254063507275999991e-03,5.131291970610618591e-02
5.245931672817881752e-01,3.939803478930362091e-01,5.042635305812809277e-01,1.763201469473911617e-03,1.084651185824937053e-02,2.262412039342773240e-02,1.292884796857833862e-01
5.560158077506412999e-01,4.837153503526400722e-01,4.330147780408464264e-01,2.032819788043098777e-02,2.454595776422532211e-02,5.975648596550515307e-02,1.588184833526611328e-01
4.609859091383259333e-01,4.717716272076345474e-01,4.899315436409682478e-01,1.590047872840124471e-02,1.121386000597344654e-02,-7.958086736630421223e-03,4.435880109667778015e-02
5.652971249605476256e-01,4.555004411974325484e-01,4.666347370685222651e-01,1.100911165045030844e-02,1.196939645098180419e-02,6.998246684511165439e-02,1.626124680042266846e-01
5.135029564546546021e-01,4.939848144758935966e-01,3.963821261646469640e-01,1.560236713941811834e-02,-9.096997847324669526e-03,2.272662114759949406e-02,1.197511255741119385e-01
5.037749554838748534e-01,4.127845600327181286e-01,4.890775755516195700e-01,8.107040900131584973e-03,-9.630851266263827995e-03,1.470974246463615208e-02,9.100827574729919434e-02
5.152931239947389219e-01,3.997065106370072951e-01,4.682974016450587862e-01,-4.891008248953213370e-04,1.131119748172126210e-02,6.045100277445031312e-02,1.465752571821212769e-01
4.498510246648874111e-01,5.073038031804356640e-01,4.066189224780755729e-01,-2.613961515594616630e-03,-1.337395418199548852e-02,-1.139261911661337921e-03,9.063454717397689819e-02
5.316763252542922036e-01,3.897389030630976636e-01,4.937182213116385054e-01,2.921141495174252659e-02,1.725550148855594865e-02,-4.470662876668064778e-02,1.601517945528030396e-01
3.483436575941442626e-01,5.181653405664066181e-01,5.240343584525593013e-01,-8.866599379451936200e-03,-1.060053265273654425e-03,6.797287827521733376e-03,1.739205718040466309e-01
5.286019726305372091e-01,3.500032783306897821e-01,4.825391481819493733e-01,-3.227653516388560156e-02,-1.502247583449100969e-02,-6.115760309249721610e-02,2.020287662744522095e-01
3.495962710328858192e-01,5.289280073884631284e-01,5.127814922636123596e-01,-4.461710903245791338e-03,-1.897691354554308443e-02,8.145673521648909808e-04,1.751201897859573364e-01
4.618356321733562142e-01,4.595871862501615390e-01,4.812617453748647134e-01,1.079343965545067913e-03,4.061324977366872167e-03,-1.207940699046870531e-03,2.198779955506324768e-02
5.684443800354407328e-01,3.299511468838964290e-01,5.221656816740113394e-01,4.701467910625831657e-03,-1.105836032566392306e-03,-4.131409977075584106e-02,2.305951565504074097e-01
2.400029719057260591e-01,6.206990861598199460e-01,7.181081442410426341e-01,-1.272433506172464535e-01,-1.444763924442757884e-02,3.558372820780055651e-02,4.944681227207183838e-01
6.582460094261212147e-01,2.778512683907611303e-01,4.876840207281348261e-01,1.150699279321433510e-02,-2.700535365851231689e-02,-1.515191940675197635e-01,4.246998429298400879e-01
4.409539804155240272e-01,4.670795035888126168e-01,5.034424516177994358e-01,3.914225978274676020e-03,1.502563147609961905e-04,4.868677647740073458e-03,5.542518571019172668e-02
4.499425310994504268e-01,5.232478562182629744e-01,5.154014939580002785e-01,-4.241130471777929123e-02,7.764723772963878778e-02,5.804914031754538489e-02,1.960933506488800049e-01
3.911726622822885302e-01,5.132920774752354198e-01,4.963896817649501303e-01,-4.537500212759939741e-03,1.799303908108959571e-02,1.351654998540348894e-02,1.213088557124137878e-01
4.713790503335591464e-01,4.425215583085064797e-01,5.006153279089928798e-01,5.579817007948243562e-03,6.803477672972184538e-03,-6.061711011213503008e-04,5.257915705442428589e-02
3.918105413008487470e-01,5.462775362031048187e-01,4.912055393621034272e-01,1.243478474429090923e-02,4.384207711083466796e-02,-2.905988997310949510e-03,1.569769382476806641e-01
4.029813199103492449e-01,4.939903641287092251e-01,5.232378415307799013e-01,4.053740509721473484e-02,1.872986487676849346e-02,-1.946798497613932977e-02,1.375467926263809204e-01
4.781944909110286135e-01,5.024400893385874145e-01,4.298611545358868025e-01,2.105564833944952377e-02,2.724039932152816715e-02,-1.786007565526624360e-02,9.278424829244613647e-02
5.729775289490935952e-01,2.572766557250295572e-01,5.201364041515359471e-01,1.117551247757331973e-01,1.572249626085491306e-02,-1.527920153283653937e-01,4.404800236225128174e-01
4.531329159170617848e-01,4.568000205659504265e-01,4.986128902026268350e-01,1.484621450414854923e-03,-2.921084623046521500e-04,9.618668550357514259e-04,4.387185722589492798e-02
4.412807039823415933e-01,4.687811740008566708e-01,4.996176125272346891e-01,3.176914471766607417e-03,-8.084191349397837388e-04,6.081520693546538757e-03,5.194585770368576050e-02
4.598219335427825571e-01,4.599591459942470872e-01,4.970973493785021402e-01,9.852000063030738261e-03,-3.278851128972007280e-03,4.744060375791653468e-03,4.213451594114303589e-02
4.570405460730270764e-01,4.481403296286823323e-01,5.003012354394008598e-01,7.347855018567408386e-03,5.334981284254631043e-03,-1.402443713880169134e-03,5.088211968541145325e-02
3.977956383817357056e-01,4.875985973814420116e-01,4.944417559818102825e-01,3.419652325253289601e-03,-5.117775200236391459e-03,1.245030228527384264e-02,9.646047651767730713e-02
4.532352035730730089e-01,4.556360617963824411e-01,4.970796269499167530e-01,4.689176771222109373e-03,2.225140041774727791e-03,-2.028863965113208209e-03,4.377214983105659485e-02
4.430075108551978502e-01,5.101535266820979020e-01,4.766942093466743913e-01,4.831612808319249441e-02,4.725384837710262798e-02,-9.304428224761695371e-03,1.316939443349838257e-01
4.532935031733332232e-01,4.583475235701737760e-01,5.005046148241282244e-01,1.705659483125322728e-03,-1.104517079263627471e-05,2.538786631378215242e-03,4.520941153168678284e-02
4.706136159842575495e-01,5.345727927233742127e-01,4.726140028683862848e-01,4.085606226508939343e-02,7.548255106186745056e-02,-7.447490846688043648e-03,1.619683057069778442e-01
5.380127598145640899e-01,6.467174192113572806e-01,2.860844393935993990e-01,8.137577853472896527e-02,1.001964352789612434e-01,-3.944179245515841425e-02,3.966375589370727539e-01
3.706344315685069501e-01,6.381692408432152464e-01,5.924121848191833406e-01,1.265693280110137889e-02,1.710474011703840280e-01,1.307427818915842532e-01,4.482858777046203613e-01
4.417877003225019195e-01,4.703743677259838996e-01,4.931708435811483215e-01,3.876975571668636426e-03,-2.260603551025165518e-03,7.301374344581872816e-03,4.699900001287460327e-02
4.595817653544182479e-01,4.818051427124805386e-01,4.608312097497356263e-01,-1.443283284276567413e-03,8.447691068789585801e-04,3.776866621016563078e-03,2.277843281626701355e-02
1.067787551136072932e-01,5.569253020766116169e-01,5.560636968965682048e-01,8.417043722801512140e-02,-5.128647450336301650e-02,3.437088237924028344e-02,4.846996665000915527e-01
3.229309503297809747e-01,5.346848392438294795e-01,5.526551675982780409e-01,7.580682504948502327e-03,-5.226555996416925448e-02,2.212231536461992804e-02,2.424945086240768433e-01
4.252399235678962497e-01,4.605603059494982054e-01,5.152098793386453712e-01,1.620624794951375930e-02,-1.849093306512644913e-03,8.905464625414551832e-03,8.485549688339233398e-02
4.385270686740110890e-01,4.293321020060381632e-01,5.042055212849708701e-01,-9.506911730654273029e-03,-1.694866969400899565e-03,-6.710421024276480182e-04,7.268583029508590698e-02
4.581759838211273972e-01,4.930696729793590527e-01,4.558988521765471313e-01,-1.485314399753760208e-03,1.858037628735556557e-03,1.225737610686252399e-03,3.638261929154396057e-02
5.094642626200114321e-01,4.198655084745918642e-01,4.528644385094963698e-01,2.746527996325013460e-02,1.777000707952977598e-02,-3.421935475928102044e-02,1.135052442550659180e-01
4.507156018442883827e-01,4.680391292328278108e-01,5.061594321656665008e-01,2.137186834998619847e-02,1.489530650231567395e-02,-4.257795486668106838e-03,6.711115688085556030e-02
4.503255060436109902e-01,4.522162851039386866e-01,4.623030045477161121e-01,-1.048081839795161115e-03,-2.525870932186154161e-03,-4.692301282995728698e-03,1.459031458944082260e-02
2.965216650709887602e-01,5.191985327315896681e-01,5.933307337725963748e-01,-5.444225900850779148e-02,-1.546210952941723740e-02,1.685110740610149677e-03,2.849661707878112793e-01
4.880762812185742705e-01,5.428600020596130449e-01,2.083883299490665864e-01,-3.467461438550804159e-02,-1.262652752310840787e-01,-9.331554734517948091e-02,4.172625839710235596e-01
4.981305842722771882e-01,5.812129760297060077e-01,3.312261514355223091e-01,8.373897696661899981e-03,-7.995092631076626544e-02,-1.843115710957653197e-02,2.627404332160949707e-01
3.873588363004033530e-01,4.937839695616217384e-01,4.940000474442290401e-01,-8.927760431144526193e-03,-9.495257805627179554e-03,-9.227692853397903572e-03,1.100654229521751404e-01
4.544368167087189381e-01,4.582267805509726011e-01,4.964808244921010694e-01,1.468136505592319407e-03,3.461947280684813982e-04,2.899140751962491110e-03,4.067871719598770142e-02
2.930358242639011790e-01,3.969003321853084021e-01,5.637801832006333891e-01,-1.965757465472617871e-01,-9.602068206146562035e-02,-6.305466996562915372e-02,4.598731100559234619e-01
5.210905927805530302e-01,6.755859131634325276e-01,2.037361069726720264e-01,-3.262988748988497612e-02,-1.344094487461346410e-01,-7.051410898795978932e-02,4.959042370319366455e-01
5.770198320554003057e-01,6.444811746583999357e-01,2.558384480887339052e-01,5.810565551369449577e-02,6.383927199066734282e-02,-4.993036982789031408e-02,3.990114331245422363e-01
3.362031375112847220e-01,5.206209989137325911e-01,5.175685475522224799e-01,-8.729989022385191422e-03,-9.452939773065350063e-03,8.317361821124351785e-04,1.842691749334335327e-01
5.174346919537916589e-01,5.661480622519110550e-01,3.359289131401904105e-01,1.056005430155453929e-02,4.949727792007992122e-02,2.153608728164432481e-02,2.307270914316177368e-01
5.188545787865459502e-01,5.280938113518499621e-01,3.502484477001041041e-01,7.595840108230970597e-03,-1.522908321861076233e-02,-2.766552800694218207e-03,1.759630888700485229e-01
4.394312619272885967e-01,4.706298286065740410e-01,5.066335048789921691e-01,5.742796592450411658e-02,2.465394240529808143e-02,-4.111301085630757191e-03,1.231298148632049561e-01
4.712435870991673603e-01,4.456091064901950838e-01,4.931821096598393850e-01,3.461956674466184700e-03,7.405268697647479290e-03,-9.313088979747867003e-04,4.363346844911575317e-02
5.095256732822772694e-01,5.430606003365711087e-01,3.488511782523147642e-01,5.746997545364162033e-03,-2.435117287379826717e-02,6.069225917084819684e-03,1.852501630783081055e-01
4.197442164444641910e-01,4.759206613381871676e-01,5.018710743946489528e-01,-6.371693037904431652e-03,9.200376009202883157e-04,1.098735278695366080e-02,7.598368078470230103e-02
4.659633830045111780e-01,4.874507885020630815e-01,4.401519091487179347e-01,-5.678041726812802642e-03,9.975346545353456357e-03,3.830372090212688305e-03,4.606322571635246277e-02
4.798960543686079383e-01,4.353548712814296340e-01,4.939126595759876226e-01,-2.808538875016155026e-02,1.551314723495638738e-02,2.170562539135971122e-02,8.547772467136383057e-02
2.661632833606266124e-01,7.184327406375345948e-01,7.165467573857351447e-01,8.557553985799556950e-02,1.104188019952119654e-01,4.889792876210120182e-02,5.190546512603759766e-01
4.422385919638424645e-01,3.646491972874303378e-01,5.068202013279534679e-01,-1.294267869404967242e-01,1.154398735118957325e-01,1.226226233488120487e-01,3.879995346069335938e-01
4.815800450953017231e-01,4.080592832790917446e-01,5.133515020005583462e-01,9.021373351052906428e-03,6.367106149015358194e-03,-1.418345776252516802e-03,9.551125764846801758e-02
4.129639273327572746e-01,4.282095404457605947e-01,5.192216869184321792e-01,6.635547524077868575e-02,1.810012946216163834e-02,-2.216023443515341765e-03,1.552736312150955200e-01
4.347296121707132643e-01,4.001519174214477892e-01,5.384612513170892178e-01,-4.946751029012506906e-02,6.561276658987010360e-03,2.738756998387392901e-03,1.517742723226547241e-01
3.374194609204831385e-01,5.242255622927134429e-01,5.197133821942329091e-01,-4.076008296777513043e-03,-8.791493745395822373e-03,5.737573515828786087e-03,1.856191009283065796e-01
1.916736723187818514e-01,5.730347196504872453e-01,5.844661176086057841e-01,8.704876316712624462e-02,-1.396015190014243956e-01,1.100037010355633428e-02,4.811316430568695068e-01
4.759418516989024628e-01,4.970650085986845768e-01,4.245629757126150317e-01,1.642347733146851813e-02,1.276040889938657302e-02,-6.180474373750443826e-03,7.472303509712219238e-02
4.557373633664343893e-01,4.533666563348052736e-01,5.004531051461367230e-01,2.140665265160038386e-03,2.128885519791007177e-03,4.504698441130517952e-05,4.624365642666816711e-02
4.250574545955152495e-01,4.699682466447516749e-01,5.029318139257211717e-01,9.808450193128563296e-03,-3.355706728278941460e-03,8.429078004198052934e-03,7.155098766088485718e-02
5.823782644904846872e-01,6.567007701498133176e-01,1.899379174841193674e-01,5.548750669312334238e-02,5.041824125988729477e-02,-7.485900616278218234e-02,4.715661108493804932e-01
4.454424436536368881e-01,6.718514257393488620e-01,3.909327889168532910e-01,1.144017035152815193e-01,1.582882580377932280e-01,-8.741068673995624344e-03,4.257132709026336670e-01
4.588494705470955171e-01,4.534364965136814529e-01,4.985841263959875924e-01,2.491888016992644100e-03,1.553746751178700135e-03,2.662273057223044710e-04,4.300359636545181274e-02
4.199042869988996451e-01,5.141435911617320276e-01,4.839658691637013233e-01,3.614647022665724244e-03,8.886374391561167874e-03,3.707214651398857723e-04,8.499603718519210815e-02
4.586454151645524280e-01,4.542237961396952683e-01,4.930399022132341269e-01,1.575490726012199931e-03,3.211966741454133027e-03,-6.929711048316150850e-04,3.734230995178222656e-02
5.211278737227612590e-01,5.693761657763138917e-01,3.922627324578628061e-01,-3.060555478528943080e-02,1.144612071263237246e-01,7.430688908728577680e-02,2.895347774028778076e-01
4.659688202677998992e-01,4.598121848460360317e-01,4.820209627569199684e-01,1.530345105699207646e-03,1.817603818751736214e-03,-1.271055903708377330e-03,2.040064521133899689e-02
4.057208306207690240e-01,5.196073265958529586e-01,4.595069644163582434e-01,4.867116861410176153e-04,5.279815510207514634e-02,5.794008740817841764e-03,1.349145174026489258e-01
4.366181582976616515e-01,4.392134080503202198e-01,5.053391422101646269e-01,-2.829488127319835459e-03,-6.073611092780404480e-04,6.202306466188830473e-04,6.765530258417129517e-02
5.248305563862951661e-01,5.192357359818478013e-01,3.486780897757075781e-01,9.885355175262865168e-03,1.328218008109341257e-02,-5.821927193755288034e-03,1.760668754577636719e-01
4.240631705020656561e-01,4.536282132817263113e-01,5.053734686239285123e-01,-5.704012193312369208e-03,-9.992589574476361952e-04,2.122784349838531797e-03,7.208075374364852905e-02
3.200962790490161636e-01,5.781441192553647968e-01,5.718612101465987418e-01,3.738343390338938563e-03,4.333284901911238496e-02,2.611467190533351204e-02,2.696811556816101074e-01
4.626795198594799152e-01,5.179622801952721289e-01,4.551672107968112169e-01,2.453596310073160799e-02,8.433983398928139585e-02,-8.012459802201173098e-03,1.639090627431869507e-01
4.530193835879754438e-01,4.978497795290157679e-01,4.569693734870945434e-01,2.029472009082214628e-04,1.573540130663491320e-03,1.071124661151884013e-03,4.311937838792800903e-02
4.012942692502411424e-01,4.940699998578604868e-01,5.105261193935879405e-01,-8.583110381008281914e-03,4.086510518098953292e-03,1.016223924252885116e-02,1.048131212592124939e-01
4.035927806794659678e-01,4.726670031482009815e-01,5.099487834215733484e-01,-1.000547684027926730e-02,-8.357128619885724908e-04,4.826859532815930449e-03,9.543955326080322266e-02
4.688731427419826625e-01,4.999876929104522527e-01,4.433588289839553442e-01,-1.706563453030439251e-03,5.200010391490355460e-03,6.408574394456890326e-04,5.004049837589263916e-02
4.676447961945240372e-01,4.960043098772617398e-01,4.546799615659053440e-01,-5.616334240047818338e-02,7.902309383000090393e-02,5.322615248445501657e-02,1.950282156467437744e-01
3.000978534607484094e-01,6.526998644051278387e-01,6.166688995788234262e-01,1.001459450074384944e-01,2.030772426288726951e-01,1.070633702676687948e-01,5.487424135208129883e-01
5.053833826854339240e-01,5.083128924819004801e-01,4.008404674466967688e-01,4.024056318684520860e-04,3.952537408146931941e-02,2.863957803746548791e-02,1.356170773506164551e-01
4.457500446620584755e-01,4.674615021680867955e-01,4.487226842811524730e-01,-7.724655775214360996e-03,-2.859376634436599889e-03,-4.188701114411443396e-03,2.592022903263568878e-02
4.710630110861191988e-01,4.545393941989873121e-01,4.790851454535219323e-01,2.552137163631980690e-03,8.891915639264664009e-03,-2.811014796383160940e-03,2.739312499761581421e-02
4.578982333273929894e-01,4.557687899093538775e-01,4.516928171298346673e-01,-4.005418847948890963e-03,-2.115335729118740949e-03,-2.293572157444386753e-03,1.035196240991353989e-02
4.207781370707815993e-01,5.050288677307243068e-01,4.860087782071682017e-01,3.547832777375562824e-05,7.445653414062075419e-03,8.547442643832512191e-03,7.901257276535034180e-02
4.235811579015962836e-01,5.009993508861065870e-01,4.742775833961591081e-01,1.923322181116244927e-03,-6.415917417838597203e-03,9.778250275973544847e-03,7.113585621118545532e-02
4.537385265348728991e-01,4.629491655402828698e-01,4.493886739407139119e-01,-4.356665094809199570e-03,-8.076618880446855215e-04,-2.190731801763456856e-03,1.473494060337543488e-02
3.721966517020784959e-01,4.930794376187845329e-01,5.195099453316373017e-01,-1.366758617720004523e-02,-2.104002922721180929e-03,5.579405159758899641e-03,1.384676545858383179e-01
4.540366799004168508e-01,4.643915397108528409e-01,4.481349231273601963e-01,-6.208650414499873246e-03,-2.240190084728634675e-03,-2.359646156183725207e-03,1.872343197464942932e-02
4.561577990995505649e-01,4.710269421896188247e-01,4.397553752822601636e-01,-1.903229807319918934e-02,-1.583772366858122310e-02,-1.172695603021886926e-02,5.464220792055130005e-02
5.099075852839806133e-01,3.979168471428649601e-01,4.966430916105225579e-01,2.109645084938914245e-03,1.076667037835609721e-02,-7.552470643567038566e-03,1.084647700190544128e-01
3.808073554065826150e-01,4.973779541139729532e-01,4.724276267773039883e-01,-8.897540398599671288e-03,-1.844017202985654552e-02,-1.390824382216112980e-02,1.146328300237655640e-01
5.139992707568463715e-01,4.918065776849696036e-01,4.027758511548134579e-01,-5.438269068103779476e-03,1.154171975633480271e-02,2.050116701434986921e-02,1.102001294493675232e-01
5.129119994698305707e-01,4.901188800564977299e-01,3.686324724862968250e-01,-5.255129126721153413e-03,3.482938214281034589e-02,3.945597405103649924e-02,1.626036763191223145e-01
3.470694724218641447e-01,5.091121211078667441e-01,5.227469340876171877e-01,-1.960292407193165126e-04,-1.110342202911293727e-03,5.450133960599997350e-03,1.695466786623001099e-01
2.549021483450262249e-01,6.396745469675015894e-01,6.296400565109816494e-01,1.870233704608520175e-01,4.442814348181130246e-02,1.119382200440973973e-01,5.410497188568115234e-01
4.437731842881293409e-01,4.671171983603756850e-01,5.010416581940727587e-01,4.894996741083692225e-03,1.472222358685886358e-03,2.945414003767638476e-03,5.091322585940361023e-02
4.617831617249785192e-01,4.607604967267783236e-01,4.801911257025711643e-01,1.783392469404794728e-03,4.400948895933612902e-03,-1.894370354270349640e-03,2.090781182050704956e-02
4.179457741238298829e-01,4.829145110356807824e-01,5.171394747882963605e-01,1.119556801288803562e-02,3.178955864009711235e-03,3.261205571310623144e-04,8.956839144229888916e-02
4.861119641226718802e-01,4.965568378220299173e-01,4.211195841984010091e-01,1.308007423762628553e-02,4.666322240522572870e-03,-2.466026148709184792e-03,7.489175349473953247e-02
4.832559968978465403e-01,5.026625837013040110e-01,4.098160660931177146e-01,-7.710260608310382131e-03,2.301580909536593209e-02,4.229602742763534547e-03,9.495500475168228149e-02
5.031466938506836684e-01,5.219182050130380945e-01,3.927225979824204849e-01,1.697285613010001554e-02,3.126360587048333112e-02,2.580341694435869804e-03,1.357760131359100342e-01
5.118104125039425467e-01,3.694097972141471287e-01,5.791036473168071907e-01,-7.225418359213781061e-02,2.420457097847339770e-02,3.916551991315578296e-02,2.375085502862930298e-01
5.134124730287885630e-01,5.178653206499400641e-01,3.742122892964830361e-01,-6.742471179656616504e-04,1.574183838373912833e-02,1.570921193606001146e-02,1.466338038444519043e-01
3.287554130170615152e-01,5.338456131959415929e-01,5.236210060604148397e-01,1.084418710945937205e-02,3.223076435724513827e-02,5.831220742278902212e-03,2.089038789272308350e-01
5.618361738066083300e-01,5.560128687124057389e-01,3.910092913723329233e-01,1.596447787893928369e-02,2.673642297695981787e-02,6.808889445077967451e-02,2.122224122285842896e-01
4.610657220844981974e-01,4.498997800094091115e-01,4.929633396334557882e-01,5.566197461953688135e-03,5.640362915026056120e-03,-1.809447145265633125e-03,4.118876531720161438e-02
5.251408615542855207e-01,5.168740779680887076e-01,3.155288180104624529e-01,-4.481595111494358560e-03,-1.487822277448252149e-02,-2.301760777322115273e-02,2.111551612615585327e-01
4.909048145088188986e-01,2.823058177545173519e-01,5.666711124767744856e-01,-1.123723204627882222e-01,4.601122249872834080e-02,7.311879310390559383e-02,3.540220856666564941e-01
4.135886640566608929e-01,4.877904015266835147e-01,5.755941602591557738e-01,1.497191571859808334e-01,7.831934614242462567e-02,-7.439251469778290771e-02,3.492600321769714355e-01
4.492434766848174554e-01,4.519191471167823271e-01,4.924295376700356108e-01,-7.676011156363159778e-04,1.620904810791944702e-03,3.839143639799698620e-03,4.255009070038795471e-02
4.634833908074559305e-01,4.261304767999120058e-01,4.912197365877638555e-01,-9.571315765943709877e-03,1.532214840490556985e-02,1.092605999772383076e-02,6.736356019973754883e-02
5.073877190805261561e-01,5.228796975983212025e-01,3.732444297324835070e-01,3.544503492789728358e-03,9.105590975810632162e-03,4.185741975458784694e-03,1.437064856290817261e-01
5.172535715480930385e-01,5.156716618968971710e-01,4.011862660268208924e-01,7.912935460442295683e-04,2.685958528055796060e-02,1.242970673136134345e-02,1.261752694845199585e-01
5.275652943145947571e-01,5.369371658497811284e-01,3.509312704766120450e-01,1.220260788458740406e-02,1.192418225981899289e-02,4.521980737146837591e-03,1.840581893920898438e-01
4.384768093864243599e-01,4.541818195732084118e-01,5.018465708001706993e-01,-4.663671678846653679e-03,3.255016172967702451e-04,7.800281305855768718e-03,5.928955972194671631e-02
4.993959834668181830e-01,5.354928720638667539e-01,3.943068503962485205e-01,5.058796110317740485e-02,-3.957517927849219658e-02,5.243456974532419157e-02,1.917400956153869629e-01
4.501954651982535971e-01,4.608426265075818984e-01,4.865139008687576205e-01,-3.335418279419869771e-03,2.039838666675898061e-03,9.114921134304111022e-03,3.661701455712318420e-02
4.479578756725233202e-01,4.898072173764911330e-01,3.256507606831211543e-01,9.382493492168091087e-02,-1.186117753093696714e-01,1.461273059092461357e-01,3.930700421333312988e-01
4.287162839648211432e-01,4.953438746064673381e-01,4.863726646400566844e-01,-3.152466362667065685e-03,7.002336218432626651e-03,1.053006145927757285e-02,6.656986474990844727e-02
5.097714280406848708e-01,5.696610906481658354e-01,3.521091215222106330e-01,7.136004550019565094e-03,-7.027917167756951577e-02,2.069824473295327899e-02,2.326843887567520142e-01
3.772785228373094490e-01,5.190685836476139903e-01,5.129345087527877878e-01,-3.631093022836132458e-03,4.034160824377542101e-03,8.682850106224170722e-03,1.399530321359634399e-01
4.210450793326184216e-01,5.140456371276931336e-01,4.822088838286682222e-01,1.878636206359124601e-03,8.269743878087197977e-03,6.129053275813871500e-03,8.384685963392257690e-02
5.052559795115132424e-01,5.204747020546874881e-01,3.507699505871800794e-01,2.265598859231837334e-02,-3.959008161419584615e-02,2.355674776748481469e-02,1.853520721197128296e-01
4.444667695943173014e-01,5.050767976952537097e-01,4.508221093605047081e-01,-7.619904799322105510e-04,2.218914625313769817e-02,3.879219485025881594e-03,6.966154277324676514e-02
5.084059019087299180e-01,5.101436092130229305e-01,4.054963472677791669e-01,3.693792728164374279e-03,7.454523338895490021e-03,5.763510207272858066e-03,1.052592918276786804e-01
2.948448539552637193e-01,5.022287149502737691e-01,7.097537504144659781e-01,-2.057473353394429216e-01,-1.085549947185472826e-02,3.825486771510590994e-02,5.107365250587463379e-01
5.773980558363636106e-01,3.046919458192920982e-01,5.204505513181336696e-01,5.513360098140571847e-02,2.081604251221307739e-02,1.333336442691786805e-01,3.547313809394836426e-01
4.011427056895867649e-01,4.959915844859086875e-01,5.058969067672917097e-01,-8.153201659019025660e-03,5.067844372658887424e-03,1.141979405445901589e-02,1.034487411379814148e-01
5.379609699006777657e-01,2.234406959578376373e-01,5.812459746127126570e-01,-1.973920733535426963e-01,8.057385455952645326e-02,-1.345838151576216404e-02,5.013195872306823730e-01
7.142175233416774294e-01,2.543680943892241419e-01,5.179493191139644681e-01,1.105329019023161032e-02,2.547126463781353850e-02,1.153135707781565711e-01,4.493700265884399414e-01
5.485928399438161351e-01,4.755603141440746251e-01,4.505062902186485196e-01,1.834787980961387257e-03,1.599180304306743391e-02,7.902127656525945176e-02,1.652319878339767456e-01
3.949338080073632185e-01,5.034975506353946972e-01,5.097805161293671450e-01,6.944926085458804667e-03,7.251650014461163279e-03,6.941758015644149951e-05,1.131818592548370361e-01
4.498216262441445124e-01,4.935910660015318530e-01,4.647832533708061709e-01,2.403804105293795221e-03,4.614404931543894008e-03,-2.093307462577963761e-03,3.973802924156188965e-02
5.229118681478417408e-01,5.197585202803940430e-01,4.163406835787961668e-01,5.343511948695224556e-02,-1.399299083651122516e-02,7.450517841646499273e-02,1.919315457344055176e-01
4.597761706189736342e-01,4.427514374138968867e-01,4.964747087768203726e-01,-3.545301255222930732e-03,7.180790865438099052e-03,2.445980734034514971e-03,4.971674084663391113e-02
5.567019212593827815e-01,3.634769409517655259e-01,5.537434432520180749e-01,2.038327498317011720e-03,3.890679935590642124e-02,8.300310301465023410e-02,2.489883899688720703e-01
6.302295071409815819e-01,4.368827804996957553e-01,6.059243094721322720e-01,-4.557195242854349126e-02,1.318345536492663284e-01,2.207068067976513948e-01,4.876272380352020264e-01
4.439398228682779890e-01,4.669155677430293361e-01,4.864970321920442653e-01,-3.418988442493625483e-03,3.535691101095662751e-03,1.062551871336211290e-02,4.210099950432777405e-02
5.445142462875394163e-01,3.724898774157373582e-01,4.412513583160633801e-01,5.840079473142559263e-02,-1.564316867042342407e-02,1.551921685443490573e-01,3.251335024833679199e-01
4.459968432839106489e-01,4.605110137776027845e-01,4.890031797325538054e-01,1.949699101324289113e-02,-1.517612706071412403e-02,1.155944049988937017e-02,6.056574359536170959e-02
4.191124219353751235e-01,3.370102223184576751e-01,4.857879408461022175e-01,-1.422065983953970658e-01,1.074959314189412735e-01,1.310767551445106149e-01,4.043985903263092041e-01
4.680506782156041434e-01,4.666904764194195754e-01,4.674963160163948528e-01,9.055853432851872339e-05,2.724666178800111156e-04,-4.447005190950328217e-04,1.498003490269184113e-03
4.736220123838469354e-01,4.547764620037121897e-01,4.815413223457790659e-01,1.964694690197699243e-03,6.586622017225295285e-03,-2.246773883443181977e-03,2.690703980624675751e-02
4.443955421539504402e-01,4.750005989846199927e-01,4.829904001870161112e-01,-1.719359577878747380e-01,1.276555024813622596e-01,1.020469525917187120e-01,4.123826920986175537e-01
5.856688253337366534e-01,4.176358632074116395e-01,5.586923391279532414e-01,-2.314870278401442646e-02,1.818119042001282437e-01,2.053028480868503425e-01,5.016492009162902832e-01
4.619861113464675539e-01,4.569821311973581435e-01,4.875264833020249156e-01,8.238988858052657179e-04,3.736491135881696291e-03,-5.739386148712894830e-04,2.915583364665508270e-02
4.842244513157099584e-01,4.289049324489794812e-01,5.141794824039221945e-01,9.049686352113046547e-03,1.017453569274435338e-02,-1.389477700756134443e-02,8.215899020433425903e-02
4.523213062539392371e-01,4.675018463318935114e-01,4.954295453831915053e-01,4.177879995739612953e-03,2.884754505626435043e-03,-4.440730314707061130e-03,3.963398188352584839e-02
4.539526188713178256e-01,4.504988517579248120e-01,4.902222808122336795e-01,1.462579676401589909e-02,9.284422112471121466e-03,-6.713249587076296557e-03,4.988216236233711243e-02
5.084784711439763738e-01,4.936037506954217280e-01,4.385619970878533169e-01,-2.502890046850140410e-02,2.599947257428019895e-02,6.261884514220911191e-02,1.404998153448104858e-01
4.633177583767649210e-01,4.657741175900843023e-01,4.756206377289022846e-01,1.894204729517864113e-03,2.094454377072911024e-03,-4.015324720477736302e-03,1.412327867001295090e-02
4.565944343869278166e-01,4.671288462975847766e-01,4.820616469510846103e-01,2.932626367354529417e-03,2.339792995057655891e-03,-3.793312484619391130e-03,2.401380985975265503e-02
5.566021755101511204e-01,3.942497239665985198e-01,4.082840920090021752e-01,-4.555675615100181902e-02,9.678974965886071036e-02,1.524893248286658953e-01,3.582831025123596191e-01
5.321448757952197406e-01,5.356747174279725687e-01,3.390123920604926622e-01,2.437512172986390155e-03,-3.514769745557067959e-03,-7.239224444373043403e-03,1.954647004604339600e-01
4.623072893394550298e-01,4.776487218627047393e-01,4.674851296540873391e-01,-5.324040215961645638e-03,4.366007096770770091e-03,4.247444409462801732e-03,1.946994476020336151e-02
5.221370660037698563e-01,4.983389567962221989e-01,3.466892206906030394e-01,1.763295405432054389e-02,2.713407265011663280e-02,-4.479786447259801602e-02,1.906175613403320312e-01
4.534698843754834119e-01,4.928241041013317059e-01,4.639940333638791214e-01,-2.118841296222560584e-03,2.260287248988140148e-03,6.074578144266614896e-03,3.721342980861663818e-02
4.450883417323487912e-01,4.581319867618147690e-01,4.915208959880963402e-01,-4.274484909781452700e-03,3.540705822185027853e-03,7.617360620086334813e-03,4.457538574934005737e-02
4.562263900203294420e-01,4.564054958626970748e-01,4.815017025599891420e-01,-3.507890804403673499e-03,6.661255799560065333e-03,3.555752829423337435e-03,2.902257069945335388e-02
4.287584630441193534e-01,4.964753421446647663e-01,4.860493922991663829e-01,-2.879973247582699649e-03,7.088480091884370206e-03,1.015457670244964555e-02,6.688222289085388184e-02
4.498358553562193385e-01,4.782837994241312396e-01,4.704509209409348247e-01,-1.819268305236029781e-03,2.588022267973747945e-03,1.003836980941410009e-02,3.130718320608139038e-02
5.555842548560692151e-01,5.132895166772789564e-01,2.805891084919992506e-01,-2.397813075316817394e-02,-1.143697001666237750e-01,-2.096179350003860298e-01,4.884316623210906982e-01
4.582275245835688016e-01,4.670987449360158861e-01,4.723756902934002078e-01,-1.419745979099550385e-03,1.887248711055992088e-03,7.350531033211587552e-03,1.822582632303237915e-02
4.825529565154315637e-01,4.608887891557151839e-01,4.629440020525371069e-01,-4.421734058338800885e-03,1.942122495048248824e-03,3.443184598584666817e-03,2.312083169817924500e-02
7.190382302004620918e-01,5.187958698724856044e-01,1.786353897166488847e-01,7.126011006038418527e-02,-1.135266744732595957e-02,-1.310421814879006441e-01,5.394974350929260254e-01
4.622127114820228089e-01,4.463177703342935954e-01,5.116316271402058247e-01,-7.994312882221793481e-02,3.797699572072690127e-02,4.106166530638169498e-02,1.789917200803756714e-01
5.796942778386849904e-01,4.940377363958634582e-01,1.609101934183883031e-01,-7.028187357522480347e-03,-4.344519376129720584e-02,-1.455321209496038271e-01,4.649677276611328125e-01
4.390855176876131694e-01,5.051137213448160246e-01,4.676797255649271512e-01,1.015133046415230084e-05,5.216284905328794422e-03,3.757611141244990207e-03,5.842359364032745361e-02
4.196869472281165026e-01,4.978497813882917788e-01,4.833608848222971655e-01,6.881039125545543832e-03,8.831013851450960489e-03,-2.641614161282248869e-03,7.472486048936843872e-02
4.858308002421106164e-01,4.812237224979316053e-01,4.226022899408667932e-01,3.700530945981291703e-02,5.024125680033099395e-02,-4.038533622178636789e-02,1.424830853939056396e-01
4.561027094509785274e-01,5.051512411564360594e-01,4.496649645994015843e-01,2.926613646561577065e-03,8.835579638140182712e-03,2.381725625567912043e-03,5.513511225581169128e-02
5.459863514396716688e-01,4.955298239527586857e-01,4.107420362523664381e-01,7.445244391352855151e-02,8.535786630385387708e-02,-6.717152290212780041e-02,2.569754123687744141e-01
4.324623924238157890e-01,3.464992162614127791e-01,5.364475826824524063e-01,-9.354598916232002848e-02,8.299044812567529100e-03,2.645366444240056757e-03,2.315635085105895996e-01
5.040730888253853736e-01,3.617635500735602028e-01,5.288708942599887886e-01,-2.037849654704502675e-02,1.274658907038361995e-02,1.001258098523423110e-02,1.625728458166122437e-01
5.019161356460548618e-01,3.567143270414691036e-01,5.293043652666526988e-01,-3.744882125582043447e-02,1.240293760809319315e-02,3.221398111576041084e-02,1.832824647426605225e-01
4.389439437160964075e-01,4.995971655535486611e-01,4.700916197875918412e-01,-1.260194614846946431e-03,4.624120265725942779e-03,5.187403678624851779e-03,5.393907055258750916e-02
4.583351162518792821e-01,4.973697872862448688e-01,4.552915463583514510e-01,-1.343305682514874845e-03,1.780989722689720533e-03,8.501149610521934602e-04,4.085181653499603271e-02
4.783780876915200708e-01,5.103628253625167588e-01,3.965349558225537696e-01,-6.447737736151339365e-04,3.374055724430898712e-02,8.008706237791082816e-03,1.181016266345977783e-01
4.439044786988830538e-01,5.073371910891767422e-01,4.650773036513843883e-01,3.025905614859170697e-03,3.240853046175779049e-03,8.888255085301577504e-04,5.648270249366760254e-02
4.684799104015783255e-01,5.069242212679851978e-01,4.408890763355545195e-01,5.241819705089206631e-03,5.419171447563904745e-03,-1.065195384707465220e-03,5.893951281905174255e-02
4.988296682581666586e-01,3.566044024024069836e-01,5.037151615290449413e-01,-3.752738847170435793e-02,1.416042370018642631e-02,2.692595188931844880e-02,1.671772152185440063e-01
4.501496351738424884e-01,4.984816940215269221e-01,4.668827934168649496e-01,3.549141742020668448e-03,4.158848177222824669e-03,-5.297135310024872652e-03,4.450948908925056458e-02
4.194064292528585369e-01,5.069555451643287247e-01,4.818710580112450792e-01,3.919438220142732084e-03,8.830861350807425389e-03,4.679634540103287839e-03,8.027260005474090576e-02
5.027116721445776815e-01,4.234190396008882251e-01,4.680476014755098335e-01,-7.857188841391207768e-03,1.138319988379880507e-02,1.268108035498844918e-02,7.613594084978103638e-02
4.619201102186484276e-01,4.852174465630716971e-01,4.573084375637459509e-01,3.627255607634229627e-03,1.234529678276389533e-03,-7.856105845388880590e-04,2.678372152149677277e-02
4.737528441407154456e-01,4.794432038933090778e-01,4.425637780959024159e-01,1.103452178522019989e-02,6.192230333126826428e-03,-4.039161403170363727e-03,4.137478396296501160e-02
4.605039661390084027e-01,4.599534348507657855e-01,4.815195363105029824e-01,1.514114678100630766e-03,3.565439908905022534e-03,-3.862993646189341514e-03,2.330900914967060089e-02
5.190044683088070876e-01,4.180364230040383711e-01,4.045688232148632046e-01,-1.192772236533585833e-03,-2.768169628985741541e-03,-5.424054298240320315e-02,1.434889733791351318e-01
4.433234844345727010e-01,5.554665221383445761e-01,4.519084744152075950e-01,6.098399338395173175e-02,8.775314785317873956e-02,-1.633364043007401803e-02,2.162090837955474854e-01
4.656767628098311129e-01,4.636991244342531515e-01,4.711960609215400941e-01,5.849607983564334085e-04,3.054046120309184421e-03,-9.459932691776558669e-04,8.773922920227050781e-03
5.136013885080623620e-01,5.260956083600452082e-01,3.452225130199220171e-01,-1.684036219397579397e-03,-1.925818703940120058e-02,-1.128912826294089025e-02,1.792059987783432007e-01
4.844283958902033671e-01,5.297315151740309425e-01,3.475941599197063248e-01,-3.181422599502083809e-02,-6.663398115172990133e-02,-7.970057793363888310e-02,2.497763782739639282e-01
4.511044212229327610e-01,6.088535703142916589e-01,2.615225834748350908e-01,-7.690296162641699351e-02,-1.787370985266133749e-01,-1.458667959156830785e-01,5.178290009498596191e-01
4.579273946961337494e-01,4.813326285342012789e-01,4.665115907000778606e-01,2.696309925874643045e-03,2.347378597869426067e-03,-4.744037957392795678e-03,2.294421009719371796e-02
4.567501981119512222e-01,4.692358901501421098e-01,4.833559480796136287e-01,2.441378995067632150e-03,2.626182047661974103e-03,-5.350787654336743721e-03,2.561311237514019012e-02
4.742149980899158512e-01,4.634109451705639704e-01,4.603153544178708589e-01,4.376158322605625157e-03,1.622361313029390068e-03,-2.899403155103699899e-03,1.582160592079162598e-02
5.210656911514781608e-01,5.530663479359190227e-01,2.181543625479335502e-01,-2.526496014714036883e-02,-1.040073224087531278e-01,-9.794212894106898992e-02,4.069621264934539795e-01
5.729083512292514335e-01,5.710648206047532760e-01,5.007083178208027174e-02,3.396402698576591467e-02,-3.145459784204045900e-02,5.413940294208349768e-02,5.363028049468994141e-01
4.970323078483702695e-01,4.602618853281365552e-01,4.366647436336728583e-01,8.516979832193063635e-03,8.304758903706955381e-03,-2.262200364616020337e-02,6.882118433713912964e-02
5.221794526018470606e-01,5.122307217294320703e-01,2.579091995539861126e-01,-3.646834381291230720e-02,-9.684005797519014413e-02,-1.184655997075229755e-01,3.762109875679016113e-01
4.629963765572388534e-01,4.690222603163133330e-01,4.718215128749913556e-01,1.646304408668539890e-03,1.876727423318408881e-03,-4.031571389928771849e-03,1.133459433913230896e-02
4.585430965495201905e-01,4.719632246831531597e-01,4.744641408969689222e-01,-1.484897704891094709e-03,1.910683619108256457e-03,4.157010863233655609e-03,1.700958982110023499e-02
4.582611163061554027e-01,4.972711518503021288e-01,4.511516100731235435e-01,-3.497062625680984454e-03,5.871992319382753241e-03,1.814737101700317082e-03,4.471777006983757019e-02
4.631383793061322751e-01,4.717736946257266584e-01,4.652468053617880850e-01,-7.650548374520830868e-04,5.478151929897008251e-04,3.028468127703865583e-03,9.538254700601100922e-03
4.607251834056773632e-01,4.717501776110756828e-01,4.671066375160176087e-01,-1.413615258531006726e-03,2.389767445647564097e-03,4.297796827383394865e-03,1.305599603801965714e-02
4.576430399221020351e-01,4.600120589593299503e-01,4.798976633024019667e-01,-5.837543548112292474e-04,2.203760769721133540e-03,3.493505901592748857e-03,2.236883156001567841e-02
4.545822140275883605e-01,4.506780749151835241e-01,4.855847535071513565e-01,-6.471098945184414024e-03,5.174287802327376916e-03,1.934113011076646002e-03,3.625749051570892334e-02
4.663297837631787401e-01,4.732148071906587261e-01,4.657515307947633354e-01,-7.331302884075846212e-04,1.580640879095358050e-03,1.399257510044782989e-03,8.167048916220664978e-03
5.379948249815097450e-01,3.564032988436323657e-01,7.186957424375652881e-01,-1.461863390380287175e-01,9.726169686865718256e-02,1.177499903826159239e-01,4.822116792201995850e-01
5.367837111614166545e-01,5.596283570861010359e-01,3.125356670805434778e-01,-1.199339489253850111e-03,2.985055179570312786e-02,-1.230985539591654973e-03,2.421031892299652100e-01
5.269738487839030761e-01,5.187236989721182301e-01,3.539947183128989705e-01,7.899257786027902295e-03,9.750758001363584587e-03,-3.352590067562030100e-03,1.704960018396377563e-01
5.641465157941514263e-01,5.583943585151843747e-01,3.093903196157174462e-01,-1.193261422810855486e-03,-3.339362271237131252e-02,-4.599043928546175247e-02,2.704874277114868164e-01
4.581141205106358805e-01,4.893275846277786445e-01,4.555413547517936368e-01,-4.056417661300195689e-03,5.618282576794130304e-03,2.651167296169377064e-03,3.501927107572555542e-02
2.865454619713440620e-01,3.806994895942290569e-01,5.786232453477001547e-01,-2.026807813845201145e-01,3.955375632904086641e-02,3.951165565196499557e-02,4.464186728000640869e-01
4.584976454028184545e-01,4.900183879377530971e-01,4.611379486618940038e-01,-1.093885733704437436e-03,7.134583515429615552e-04,3.496579738398352104e-03,3.096932545304298401e-02
3.881882615914995505e-01,3.909593440197048353e-01,5.389732078765692158e-01,-9.984486157430481901e-02,1.343113979891163642e-02,1.003413083176936220e-02,2.303826510906219482e-01
3.395378464470759083e-01,5.176615445765645473e-01,5.691554567143983778e-01,-2.025762710029098412e-02,4.847417497720988427e-02,4.465489753928326977e-02,2.404464483261108398e-01
4.554232165817892475e-01,4.926224539064256724e-01,4.568573211060219519e-01,-7.018762085603640066e-04,1.626675247376005483e-03,3.112205919253567196e-03,3.702655807137489319e-02
4.682796800687270555e-01,4.677929731094248034e-01,4.711372222996905723e-01,-2.371138444279923246e-03,2.299664801748339035e-03,3.764241770281694533e-03,9.221389889717102051e-03
4.278169365475263386e-01,4.947140260227748110e-01,4.693878897903603353e-01,-4.138296758292817935e-03,4.020801768497983195e-03,7.923166336830227488e-03,6.091465801000595093e-02
2.888903081841094345e-01,5.093587087921377377e-01,5.747466175893645168e-01,-1.970455374757389966e-01,3.327919697848819025e-02,3.303800767477416828e-02,4.363206923007965088e-01
4.586703135074900461e-01,4.326358065853290191e-01,5.131660470889901626e-01,-2.362496957989155405e-02,7.420621443400207684e-03,6.423550588213339241e-03,8.384361118078231812e-02
3.513500413860197735e-01,4.645615907859956817e-01,5.464131621375698522e-01,-1.066996968458435169e-01,-5.444784890230992477e-03,-2.667651981509035555e-02,2.552673220634460449e-01
4.597906790472016669e-01,4.816308766862321677e-01,4.655210572778420985e-01,-1.368943216670604488e-03,1.753940156661575045e-03,1.704914208104240086e-03,2.020519785583019257e-02
3.996252527922217190e-01,4.687889320007794236e-01,5.181991716326991293e-01,-8.552925187226863638e-03,-2.034390798537663960e-04,-7.043053999540217379e-04,1.042278781533241272e-01
4.531381764090381958e-01,4.996862996612626007e-01,4.577126990722834576e-01,-1.989774729218406343e-04,1.717800578449494697e-03,-1.121812872751893161e-04,4.453905671834945679e-02
3.721515089959692157e-01,4.970109256731033431e-01,5.280376580228789418e-01,-3.530650412991677423e-02,3.132112998092916045e-02,1.543908397661465128e-02,1.668061614036560059e-01
4.437075629324866433e-01,5.003395449433105657e-01,4.676995621604315145e-01,1.369740023575110547e-03,2.563778562675417174e-03,2.892947616334722288e-03,4.974472522735595703e-02
4.677603367132241452e-01,4.978215324100520589e-01,4.254013193344998722e-01,1.112796368086290018e-02,1.223742869183842147e-02,-4.248039634356985672e-03,6.961480528116226196e-02
4.758333167001114750e-01,5.067805626319635826e-01,4.792103740384348054e-01,6.432854542162781686e-02,6.821977943352681983e-02,-4.582861416334896298e-02,1.831439584493637085e-01
4.535272813542121084e-01,5.003414292310033318e-01,4.575683487746625699e-01,8.535863532310349533e-04,1.524199262410863174e-03,-7.074931790595982142e-04,4.504855722188949585e-02
4.073181309185762156e-01,5.058231841112114102e-01,4.840260894213324061e-01,-1.327718597906374885e-02,5.104493690229167102e-02,2.849861059023066703e-02,1.371617913246154785e-01
4.581729543243601710e-01,4.937616573045032209e-01,4.605913780788010170e-01,1.959467550133128615e-03,1.519805304333805059e-03,-2.780616422384558396e-03,3.504253923892974854e-02
4.579706593444957674e-01,4.925884238047870123e-01,4.574413888098569636e-01,2.208127005851085508e-03,7.953193757909781487e-04,-8.000283158991166980e-04,3.514878451824188232e-02
1.604830988212110898e-01,5.826419097213089149e-01,5.828227161254523336e-01,-1.165616428247896741e-02,1.057747711539939670e-02,4.090577145549360860e-02,4.290192425251007080e-01
4.989315419139488950e-01,4.600956482599772301e-01,4.436828076202952165e-01,-3.587461289263827423e-03,5.488929714669348037e-03,7.944008251221650052e-03,5.228127539157867432e-02
4.747609590352615538e-01,4.550915134096362724e-01,4.727418721955533587e-01,4.729821880519769774e-04,7.941525075759349808e-03,2.135540492164390413e-03,2.355431392788887024e-02
4.580783681093565929e-01,4.812802797145491751e-01,4.698428447050809753e-01,2.648139256030371258e-03,1.550495858645407204e-03,-6.245948551606079688e-03,2.343200705945491791e-02
4.659163087533546022e-01,4.837758612058653540e-01,4.523458713478518689e-01,6.867445476210979304e-03,4.786492736686294262e-03,-2.879179568313743227e-03,3.131402656435966492e-02
4.689321791605202683e-01,5.133357290377170701e-01,4.253127567240200801e-01,-4.711222651941410731e-03,1.674504411992628478e-02,-5.578921886323602109e-04,8.197497576475143433e-02
4.789607833019593475e-01,4.431745436329797005e-01,4.752104741238346586e-01,-4.080700573035340138e-03,1.162957308186500852e-02,5.708741330223230520e-03,4.140020161867141724e-02
4.627628853460793446e-01,4.814313351554482812e-01,4.640625336160714154e-01,1.646763491081153262e-03,6.084111662014201390e-04,-2.899400967148204299e-03,1.898428983986377716e-02
4.751000389826456338e-01,4.613452370376029954e-01,4.644893767096106019e-01,-4.497855163045364792e-03,4.573508798003416385e-03,4.839500970417553657e-03,1.869595050811767578e-02
4.668453270283162704e-01,4.668287732037821325e-01,4.718923269960227374e-01,4.932647217833492203e-04,1.372218588080354514e-03,-1.987477332339172755e-03,6.617031991481781006e-03
4.704154321531341942e-01,4.643349812754125616e-01,4.637931083127631027e-01,4.992254333889659633e-03,2.135673853154391576e-03,-1.111679118025352695e-03,1.152037084102630615e-02
4.730607262135090307e-01,4.549349206500394316e-01,4.775625471926586152e-01,-8.551724577717233558e-03,1.058455282326350305e-02,1.250794294217297264e-02,3.814774751663208008e-02
4.612628144573401867e-01,4.592648973447899796e-01,4.815216059005510418e-01,1.340723007207719492e-03,2.821560181401096701e-03,-2.958250645150664170e-03,2.259238064289093018e-02
4.887867140743146765e-01,4.537784751290185326e-01,4.691681138853099342e-01,-5.882440627668692260e-03,1.067756309671535203e-02,1.452837483090903617e-02,4.475170373916625977e-02
4.666174378299012826e-01,4.685399837962341274e-01,4.679357779561930109e-01,1.152606589792737465e-03,1.026763486066382437e-03,-2.210376268738476358e-03,4.970428533852100372e-03
4.671636162910358658e-01,4.683662079473617235e-01,4.666025464589934613e-01,8.457995088036055278e-04,7.899044674651896228e-04,-1.445531735540550458e-03,3.566851140931248665e-03
5.118694510349905968e-01,4.960339578556242079e-01,3.888568090392950927e-01,1.254768893873137343e-02,2.850169566230350421e-03,-7.421959066100369644e-03,1.187302321195602417e-01
5.062845978425672966e-01,4.975648045865569413e-01,3.886318677824761592e-01,1.064218002262320474e-02,3.758697458814039792e-03,-7.701962885120310076e-03,1.159844994544982910e-01
3.356974683561976258e-01,5.440221254984548560e-01,5.638988500100676760e-01,3.727681703427089543e-02,1.357659371599369627e-02,3.985325880490077355e-02,2.396279573440551758e-01
5.588685703555466011e-01,4.787793580937101945e-01,3.486697414289964825e-01,4.823771604904284610e-02,5.454176423406935370e-02,-9.569337827418530895e-02,2.777406871318817139e-01
5.223511644367110351e-01,5.220079222350276771e-01,3.394739848981523922e-01,7.129720699462012597e-03,-3.721711849743341172e-03,-8.828987722855292930e-03,1.838730871677398682e-01
4.688062738981482735e-01,3.590034054206829861e-01,5.011999103692431623e-01,-6.868990396624743977e-02,-4.076690945949885958e-02,-4.042301297821624534e-02,2.017565965652465820e-01
6.036910857077478765e-01,5.209776065949938140e-01,2.968323697310988885e-01,-6.283898934697230987e-02,-1.135429513063563323e-01,-1.914679639871012529e-01,4.859265387058258057e-01
5.180043841175338004e-01,5.215053625884138455e-01,3.622083495608989789e-01,2.529857743113069716e-03,1.325602195422376792e-03,2.166143980265617091e-03,1.576979607343673706e-01
4.928399173052594451e-01,4.634378757385315684e-01,4.374601412405659806e-01,-9.649415451009217548e-03,2.173597097437663869e-02,2.340219014219900237e-02,7.511857151985168457e-02
4.623808241052788093e-01,4.613612344165694545e-01,4.813292403297900202e-01,2.841395939887504229e-04,1.932292577438613152e-03,-7.738592369952459159e-04,1.981518790125846863e-02
4.174911561644753522e-01,4.832506587304695178e-01,5.082346027482759210e-01,1.115151713319732785e-02,2.313081350654392927e-03,4.298378664747888947e-03,8.388080447912216187e-02
4.576204566165461562e-01,4.971293436495574092e-01,4.550020093682954347e-01,3.433101507217384881e-03,1.299716024190915135e-03,5.315787422559468088e-04,4.138277843594551086e-02
4.106844577036692923e-01,5.541485657472087212e-01,2.603207113963855734e-01,8.863234764427928292e-03,-1.979076249970030676e-01,8.693878108466288404e-03,4.274666309356689453e-01
6.090165521506630819e-01,5.270153437270203023e-01,4.814852100285851311e-01,1.980251123056709917e-01,1.703790799484028451e-01,-1.261542250874386484e-01,5.147857069969177246e-01
3.618258683768276751e-01,5.106047770587699430e-01,5.180198050351921824e-01,3.176950422042219314e-03,-7.651393955302290655e-03,1.188820326063789665e-02,1.546714156866073608e-01
7.083390716103499241e-01,4.456890539875086321e-01,5.639835489030521343e-01,3.023815376477212435e-02,1.029244759707006462e-01,2.484541649860080303e-01,5.211721062660217285e-01
4.404078458609414493e-01,4.831165919475909343e-01,4.955329335646130318e-01,7.031457838229054381e-03,4.273725314844590423e-03,-3.396982754001492966e-03,5.240444466471672058e-02
5.085626457120415722e-01,4.676148418683312435e-01,4.301154438635960142e-01,-3.022336084202147458e-03,5.805555255747983125e-03,1.211664794939821058e-02,7.202362269163131714e-02
3.445705655829561787e-01,5.248014486315366600e-01,5.334229756435578951e-01,-2.514419858311816420e-04,2.100133585924969065e-05,1.055507560516937525e-02,1.855957657098770142e-01
4.712566194137595699e-01,4.456570327567992429e-01,4.941629854707094149e-01,3.468346578043586710e-03,6.947229056081260373e-03,-6.963830680268341287e-04,4.414486512541770935e-02
5.258169275320407898e-01,4.899265402031506844e-01,3.604944779257195919e-01,-8.057198554251658248e-03,-1.005538025386014736e-02,-6.303290539398269388e-02,1.873597502708435059e-01
4.471662283680101768e-01,4.809155684593890423e-01,4.834182776476376731e-01,5.011281866873770058e-03,4.841727576127023355e-03,-6.518609657680331064e-03,3.876711055636405945e-02
2.525493076762178046e-01,6.551263411759078448e-01,7.171504545698429434e-01,-5.020609961951298661e-02,9.711228585133208080e-02,5.861827374669343477e-02,4.868751168251037598e-01
3.486613070956225968e-01,5.212849523837442822e-01,5.256917665972665743e-01,-7.721862525455032260e-03,-1.640035368409158839e-03,4.517367212742025816e-03,1.755768656730651855e-01
5.102711577431302548e-01,4.949707866185042437e-01,3.676022489684384054e-01,-5.962663607455002089e-03,-8.178394763632419739e-03,-1.224907065289342935e-02,1.384307444095611572e-01
4.653257551483367949e-01,5.712233318123620673e-01,3.819435011666809654e-01,-1.154002207242568467e-01,-1.924143488604098118e-01,-1.314356389168079842e-01,4.794208407402038574e-01
5.167482876522665469e-01,4.514027309894309559e-01,4.720571060746189818e-01,2.569989786516648639e-03,7.733375593464470940e-03,2.974662772762317123e-02,7.874508947134017944e-02
5.105088009322500398e-01,4.428217859974408199e-01,4.039820231584809185e-01,2.504824835973526193e-03,-1.414424088335661115e-03,-1.919136443271623679e-02,9.924089908599853516e-02
3.312329923757483252e-01,6.562411779355095121e-01,6.796518221422399586e-01,1.796158061909359227e-01,-3.485868064081999035e-02,9.990077401172751947e-02,4.941239058971405029e-01
5.184126133605605480e-01,4.194254329951243587e-01,5.059590212880196169e-01,-1.312527549177203330e-02,5.251192856773605200e-02,8.462561389327047379e-02,1.974705457687377930e-01
4.793437450402384115e-01,4.607703376301977016e-01,4.568541863063600439e-01,4.538904391230656234e-03,3.950900894623384299e-03,-4.946611180813006124e-03,2.480090036988258362e-02
3.360369273692570546e-01,5.161545858582433643e-01,5.195009983550007426e-01,-9.234187319189067142e-03,-9.683102408582536583e-03,2.049592464956422142e-03,1.833194494247436523e-01
4.564458464053384179e-01,3.911390535503279642e-01,5.097570746471153935e-01,-6.084144823079899733e-02,4.018563452479253367e-02,3.879484171421459376e-02,1.762199550867080688e-01
4.618948836626928789e-01,4.588121042174784781e-01,4.881201986304510299e-01,1.206711210375585944e-03,4.609700805119220854e-03,-2.320159414071488058e-03,2.936636656522750854e-02
4.746505908493666159e-01,4.871405373008756423e-01,4.372466864988929780e-01,9.707890354156164733e-03,-3.644020188736308685e-03,4.074478873373415556e-03,4.893458634614944458e-02
4.546912712299531756e-01,4.249969193759038366e-01,4.956335079736985394e-01,-1.391954187452980156e-02,9.013602973697323190e-03,4.241793937222329038e-03,6.821106374263763428e-02
4.709440650381910842e-01,4.190433846773180537e-01,5.022420470730566411e-01,-7.797970380002876810e-03,6.938470557746908088e-03,2.248305276914756672e-03,7.509759068489074707e-02
4.538261074115954585e-01,4.600877875931358441e-01,4.857419800954850819e-01,-2.322403799299913377e-03,1.326669388767762062e-03,9.473324114634587394e-04,2.970080263912677765e-02
5.073877575441435583e-01,3.814617217447776043e-01,5.104054081869777715e-01,-7.655422345890399924e-03,1.476030339778992492e-02,4.453712897596220736e-03,1.309022456407546997e-01
5.427757549010205906e-01,2.854481014607104239e-01,4.947948079386993436e-01,9.031278509152539102e-02,-1.297670287844657211e-02,1.372718466564027129e-01,3.710497617721557617e-01
4.092161377578047987e-01,4.500836445041040967e-01,5.178370191781385135e-01,-1.387106457609171492e-02,4.275766194711815319e-04,-3.060420068730372416e-03,9.816033393144607544e-02
5.016930357775077898e-01,4.474592715346793481e-01,4.408203452812540779e-01,4.293694099318497680e-03,2.160556159420548919e-03,-8.471144001830287554e-03,6.024967133998870850e-02
5.157415763055093194e-01,4.846532341548039358e-01,4.296041436085144549e-01,5.051987070733797262e-03,-3.322389372137989723e-04,7.398052370042684442e-03,7.713212817907333374e-02
5.810898405941117284e-01,1.318243223831569999e-01,5.813753051718965059e-01,-9.171793380270840124e-02,3.193918678108391418e-02,-7.492151776200328683e-03,4.800344705581665039e-01
5.367749742681154901e-01,3.493888065050231861e-01,5.267086529040472254e-01,7.202895780856979728e-03,3.822185224672771785e-03,-6.621486463185969826e-03,1.834655851125717163e-01
5.660526193483528257e-01,5.326576961996465354e-01,3.186544062937636257e-01,-3.256055991473946754e-02,4.950209038199623879e-02,1.492435094580601418e-01,3.625080287456512451e-01
5.011338400008727989e-01,4.540685482797180428e-01,4.235514169118672068e-01,8.996520899447702987e-03,2.078737608161163996e-03,-1.105454460122370572e-02,7.214651256799697876e-02
4.987124350295062403e-01,4.923482695746687066e-01,3.782026702274128294e-01,-1.870807382813162098e-02,-3.780749479473061170e-02,-4.325488283204961121e-02,1.573127806186676025e-01
5.038548867434301526e-01,4.350104654989684350e-01,4.467526427534138644e-01,2.013255780074676548e-03,5.980603897904804463e-03,-8.083346162371640373e-03,6.621581315994262695e-02
6.645983578271372760e-01,2.534945820863555577e-01,7.020606772900269688e-01,-6.626277441951877734e-02,9.930258072225987831e-02,9.560270316816527059e-02,5.059501528739929199e-01
4.323157316840952058e-01,4.926111884314792189e-01,4.860866873413720035e-01,-3.770716170182358135e-03,5.515704297319089233e-03,1.012127147828812378e-02,6.104062497615814209e-02
5.138038884639584136e-01,4.582027213178929137e-01,4.384105607873090005e-01,1.010423987842318586e-02,7.961441661333583039e-03,-2.347696564312821629e-02,8.205870538949966431e-02
5.242173923645249145e-01,3.620171288931193221e-01,5.097745758516839532e-01,-1.214322353047891413e-02,6.592162080294525738e-03,4.477714677363319774e-03,1.575048714876174927e-01
5.676726750763526619e-01,5.586823731754801958e-01,3.396497466608835447e-01,9.284789497049035500e-03,4.479927857472190689e-02,3.101770998369869983e-02,2.432922720909118652e-01
4.695943901811726606e-01,5.182230050361252838e-01,3.903061980668585118e-01,5.891186469810536473e-03,-1.165697700311881142e-02,-1.183185132713574948e-03,1.141183972358703613e-01
4.839735154059265354e-01,3.993224826168204622e-01,5.061217636669841369e-01,-1.851494550448867446e-02,1.088981549283972103e-02,1.457204855479784589e-03,1.045072153210639954e-01
5.888524752498656145e-01,1.842969345625192212e-01,5.230851559476246138e-01,-1.404761186276216531e-02,4.119599047441382250e-02,1.122970134570071832e-01,4.299990534782409668e-01
4.558303515446845422e-01,4.717628838720004381e-01,4.719440357123764751e-01,1.360390788579682840e-03,-1.880940855609841006e-03,5.857469358244426008e-03,1.938711665570735931e-02
4.620607662861163645e-01,5.158003511346440639e-01,3.918743047111423183e-01,2.429674879006021165e-02,-5.912679261575466000e-02,3.424131574296016695e-02,1.654152572154998779e-01
4.939043784492206934e-01,3.687395012961604546e-01,5.250627877666710352e-01,-1.292230635223241657e-02,7.389500466500369819e-03,-1.785016541639998858e-03,1.456412076950073242e-01
4.656520656820485327e-01,4.614686394862468899e-01,4.803773106350615607e-01,-1.384648391015678320e-04,2.995392238658335649e-03,-6.338793597482290975e-04,1.800321973860263824e-02
4.954938731424254339e-01,4.403679357139750339e-01,4.374809353625614960e-01,7.737844520178959601e-03,6.692065061230751018e-03,-1.620055892693031754e-02,6.563307344913482666e-02
7.172386410750822838e-01,3.703970815233107450e-01,5.068163712140171251e-01,1.950204217051898503e-02,1.201601959100331990e-01,1.599466152281032449e-01,4.613009691238403320e-01
3.907762876281501985e-01,6.672997703340287634e-01,6.234002289066463698e-01,-5.880267296084803162e-03,1.868599317266444737e-01,1.010644968392556547e-01,4.491646587848663330e-01
3.962878170305244030e-01,5.145495292346569105e-01,5.212237584291442571e-01,-7.003877687544251933e-03,2.129435338340394598e-02,1.623818258029301187e-02,1.308366507291793823e-01
4.835150067298352727e-01,4.261332653935503423e-01,4.983703231755289287e-01,8.879001305402528868e-03,1.239521441685740785e-02,-4.135360707827825250e-03,7.151577621698379517e-02
5.497273864977588742e-01,3.187664213416765979e-01,5.736464330544953638e-01,-5.265452311067075203e-02,3.246010438146384319e-02,3.052784250352321219e-02,2.715027928352355957e-01
3.583686137651060366e-01,5.028291909197319942e-01,5.112898849798825918e-01,-2.906692239147265142e-02,4.568778733820617779e-04,7.684256056921768933e-03,1.577184349298477173e-01
3.751584651433574336e-01,5.611443509054365730e-01,4.338340975284882273e-01,-1.338724683055579102e-02,-1.167574579818457386e-01,-9.688736474427437099e-04,2.618360519409179688e-01
3.507046894983330554e-01,5.110639211106713375e-01,5.325544771080847894e-01,-1.178045426490243255e-02,1.708190552844822494e-03,3.128394782171277670e-04,1.733450889587402344e-01
2.464666898308315868e-01,7.110776796428919244e-01,6.392061908532712389e-01,7.661657610005119523e-02,2.005338907797615811e-01,6.579722155216179147e-02,5.821307897567749023e-01
4.604513847860397524e-01,4.656613969698074618e-01,4.355724380959987152e-01,-1.016324593743217486e-02,-7.411673906996789005e-03,-5.007977707453330554e-03,3.640932217240333557e-02
5.171895342738367374e-01,3.375844503417916864e-01,5.283115221651150106e-01,-1.475832447043107787e-01,5.003008270979587835e-02,1.478387467072377615e-01,4.156917333602905273e-01
4.625090191348228408e-01,4.586605342372844785e-01,4.871430368024897151e-01,1.080902072710183265e-03,3.202594531182514220e-03,-1.237364760305164658e-03,2.748303860425949097e-02
3.362546476643561988e-01,5.267512145423528525e-01,5.416485623945822558e-01,-6.194753772766217054e-02,2.447761327946510607e-02,-1.222594293937946490e-03,2.294846475124359131e-01
1.821543093854545714e-01,5.619580268155163205e-01,5.731413112920434871e-01,-6.728686694034552440e-02,-2.125592467090543246e-05,1.765092660379600012e-02,4.039067029953002930e-01
4.341382962212785301e-01,4.324134442007632750e-01,4.839503603702112189e-01,-2.282505908855968560e-02,-1.666280348447629622e-02,-1.651723365423485995e-02,7.605583220720291138e-02
4.262345456660291965e-01,4.380038401418312466e-01,5.200059465260371550e-01,-6.564039985950788358e-02,-1.212285130013391297e-02,-6.353089343777418990e-03,1.459997594356536865e-01
3.915797788884718411e-01,4.999503901585777288e-01,5.258432549370659626e-01,-2.466741381457886531e-02,2.903282566902292555e-03,1.180387094436442276e-02,1.322474181652069092e-01
6.577490591735206671e-01,6.981681563667245793e-01,2.131636041491452027e-01,3.047414946443121123e-02,-1.163383749902767023e-01,-5.404509462342432097e-02,5.190492868423461914e-01
5.177054981227012798e-01,3.845565099242728713e-01,5.237715001580179885e-01,1.161774527169098965e-02,-5.593138491441129647e-04,1.153507247291960794e-03,1.377787292003631592e-01
3.605541637728720827e-01,4.967841334612372872e-01,5.285514317643733584e-01,-8.320645478109185700e-03,-3.872111255133654784e-03,9.360366462828824050e-03,1.562400460243225098e-01
5.023177218574583769e-01,4.708605970933666396e-01,4.471974565034423366e-01,2.214515001923208787e-03,1.011093498892579046e-02,2.785869817979273050e-02,7.031071186065673828e-02
3.343944231517632648e-01,5.344564107023574984e-01,4.818993467899737593e-01,1.851233171876941197e-02,-6.459755479552750645e-02,1.649723290912350968e-02,2.159525454044342041e-01
4.535197486545461953e-01,4.977722077333834316e-01,4.279353107504335063e-01,-1.095339931227009601e-02,-2.027248418327872240e-02,-1.014238966582024087e-02,7.514302432537078857e-02
3.746096985716868555e-01,5.361618199491565706e-01,5.287336595663619798e-01,1.386417748940716767e-02,1.087156046503015214e-02,4.121734222604261574e-03,1.610478609800338745e-01
3.643670769973412771e-01,4.809618072311908077e-01,5.100178470056488944e-01,7.910761491499156139e-02,-2.121424977147360127e-02,1.907381666601934422e-02,1.975904256105422974e-01
4.528591558009419926e-01,5.101324553913629822e-01,4.419173241223885995e-01,5.575668843998257337e-03,-2.038288693004272536e-03,4.720685484230950982e-03,6.480132788419723511e-02
5.094505456906295304e-01,4.048776688980703087e-01,4.876436838185980727e-01,1.069913773717185053e-02,-2.676586954244494082e-03,2.004321953103579967e-02,1.034442782402038574e-01
3.813547471941934330e-01,5.244984478857785959e-01,5.043932853663898319e-01,1.865241032149019332e-02,-2.565556165571900027e-02,1.208201250804382711e-02,1.465356498956680298e-01
4.401147764190460054e-01,3.961936093605316622e-01,6.004671416854028276e-01,1.066866028894379453e-01,-4.354093596997957866e-02,1.160222818973380698e-01,3.389717638492584229e-01
5.227599916976588545e-01,3.127929471923328597e-01,5.158154633799942879e-01,1.053990405222337279e-01,-1.140054297636532502e-02,9.302782225064878951e-02,3.199305832386016846e-01
4.557474113409590299e-01,4.970469003093228033e-01,4.549768141859924508e-01,4.985348187506153522e-03,1.054205589141417668e-02,-2.765398875956221695e-03,4.657225683331489563e-02
4.943664134646511554e-01,3.937816109877745330e-01,5.178860197295295231e-01,2.224263559279105254e-02,1.179744908649388736e-03,1.835567095570157879e-03,1.205598488450050354e-01
4.831883622414684387e-01,4.828996951049271402e-01,4.465037545754120818e-01,-6.169761213716612284e-03,5.103553909189220694e-03,4.847520694395810945e-03,3.997606784105300903e-02
3.845599777330351299e-01,4.922730554484314736e-01,5.091503629941315223e-01,2.171816410902915537e-02,-4.306664292295675489e-03,1.105875099021437491e-02,1.246692538261413574e-01
4.406020423032710465e-01,4.813390169146593012e-01,5.012603863574398577e-01,7.041513217318946805e-03,4.317596278722681154e-03,-5.210256176304091900e-03,5.616059526801109314e-02
3.947925194916837022e-01,5.104833767199170591e-01,5.003110108142401202e-01,5.346252435687143603e-03,5.126684054522749438e-03,1.224541705644094586e-03,1.117143481969833374e-01
4.630157255910846148e-01,4.716251396771762305e-01,4.696505712638653907e-01,1.137391551604925331e-03,1.445660689874073536e-03,-4.229392234492489015e-03,1.117296330630779266e-02
3.721681769232000891e-01,5.732681467956260990e-01,5.432271432813400303e-01,2.107641500627581779e-02,7.699392786180443704e-02,2.553222685484904733e-02,2.374340742826461792e-01
4.945870562413955951e-01,5.184460422228042153e-01,3.611848416336989609e-01,1.780747215497776150e-03,-1.384776803432325766e-02,-3.329710682898166015e-03,1.488835066556930542e-01
5.037200878482266386e-01,4.007573378977209999e-01,5.496185859585143163e-01,4.479888020917457969e-02,-1.336420442197128145e-03,1.559705069919175603e-02,1.555307507514953613e-01
4.128559589657313511e-01,4.898482440952021677e-01,4.686993199744027838e-01,-5.231280461677316647e-03,-7.543276939390986674e-03,-1.128449836933039310e-02,7.335943728685379028e-02
2.004691627386961383e-01,6.976797899608305764e-01,6.667701741030731544e-01,-2.597575304158105530e-02,-7.515951388350373963e-02,6.494511150150493461e-02,5.142275094985961914e-01
2.423049084799790420e-01,7.122321821312653789e-01,5.912621740015577831e-01,8.604678277362130812e-03,-1.568327902689139464e-01,5.866924833857785349e-02,5.127925872802734375e-01
1.832083304191918782e-01,5.642923032226676572e-01,5.563676691670833563e-01,-5.332338904791192324e-02,-1.142485072227764770e-01,-9.499066704316004627e-04,4.358426928520202637e-01
4.682084459692612555e-01,5.128640387743447215e-01,3.952685115766265689e-01,-4.781705293547594028e-03,-1.004673570545635414e-02,-3.203407781214645620e-03,1.047555357217788696e-01
3.924975274835439953e-01,5.139855574048703968e-01,5.054439382619850818e-01,-1.727861372313791999e-01,-1.638557811540270748e-01,-1.095883318158799996e-01,4.689719676971435547e-01
4.320069455431509442e-01,4.996496975224306025e-01,4.365407867328102154e-01,-2.486721992891442138e-03,-6.333163322978105358e-03,-6.429239816425318631e-03,6.747072935104370117e-02
4.466500994251126899e-01,3.972905238375818993e-01,6.229853746130882275e-01,1.739940787946197553e-01,-5.871609216161054884e-02,5.193397585965202345e-02,3.892175555229187012e-01
4.615509814712303038e-01,4.838683190178434401e-01,4.562770727996758868e-01,8.311141419063965141e-03,9.534902181360440168e-03,-7.091413952814280136e-03,3.569887951016426086e-02
3.521537169640855391e-01,5.310783732657222700e-01,5.237756394196603216e-01,-2.810017021946822988e-03,1.591956242502168273e-02,1.754656737879990366e-02,1.801897734403610229e-01
1.940412958309702951e-01,5.774988721173465178e-01,7.171233110187780202e-01,7.154040155552467140e-03,1.091457458521158386e-01,4.275770616854828593e-02,5.113230943679809570e-01
2.583680655017035477e-01,5.321666050828064431e-01,7.036732318730777314e-01,-2.025713388260743930e-01,-5.400209194787781303e-02,4.882954603773035154e-03,5.322256088256835938e-01
5.108909481681522813e-01,3.577910985637227648e-01,5.130578372346419336e-01,3.077470237363057887e-02,-8.354152116068271419e-03,2.826978563244038345e-02,1.709508001804351807e-01
5.270912589996441522e-01,4.043919326085845811e-01,4.983111209254058593e-01,1.041298590708149112e-02,-2.064188436455648753e-03,1.741561400761417258e-02,1.166194751858711243e-01
3.758525254531182025e-01,4.933595324581143138e-01,5.141024513048599864e-01,-1.027897395390732320e-02,-7.861359668034407361e-03,-1.891717144461841802e-03,1.311057358980178833e-01
3.761435773666199633e-01,4.940166807456100040e-01,5.184974039947032320e-01,-1.028703786537404387e-02,-7.680546345331579206e-03,-4.271145726890370441e-03,1.338960975408554077e-01
5.055340174521026908e-01,4.845144365275699250e-01,4.099061913493895482e-01,6.701613236172653844e-03,-3.206408732180023209e-03,7.801529804620576519e-03,8.902031928300857544e-02
4.457182191148958417e-01,4.616368419465436967e-01,5.100602565800015364e-01,3.090289138169068084e-02,3.238510951579517873e-03,1.947850300671903276e-02,8.604492992162704468e-02
5.267810792513357709e-01,5.277399069208503768e-01,3.378791937445365656e-01,8.659232015900309928e-03,-1.836329725203188993e-03,-5.213231034114155539e-03,1.902171522378921509e-01
5.324124568934215374e-01,3.510834561482318872e-01,5.338123144620257055e-01,1.452148030739681787e-02,9.081839792800996264e-03,3.594752007450379393e-03,1.845394968986511230e-01
4.694722103331229746e-01,4.972629704928163696e-01,4.037512926952598336e-01,-1.200539050407105519e-02,-7.894648074753965808e-03,-7.035468880178300487e-03,8.766902238130569458e-02
5.230074025419089168e-01,5.236444458899554011e-01,3.533566227469554510e-01,4.258410032033092991e-03,5.632669040319678673e-04,2.447646956855669288e-03,1.701857596635818481e-01
4.545633836839618191e-01,4.919687739596079745e-01,4.445564304656323684e-01,5.726213734674747216e-03,-5.021669405158118299e-03,3.789796961993114732e-03,4.572443664073944092e-02
6.570927613316837057e-01,6.835274194053676533e-01,2.301552133034223679e-01,4.527415030218397834e-02,-9.988264123184566190e-02,-5.797855021753380023e-02,4.903303086757659912e-01
4.939149968024412751e-01,4.929433606200726015e-01,3.904445248260485224e-01,-1.080746090869350376e-02,-7.509596398604604511e-03,-7.546611256203771684e-03,1.062872856855392456e-01
4.540708473367393028e-01,5.100291267985385124e-01,4.148907314698812021e-01,4.590309403388186126e-04,-1.794903609741876904e-02,-1.204974232465921488e-02,9.089327603578567505e-02
4.319735908017267589e-01,5.087914512399915878e-01,4.457778702780671454e-01,1.452028968441083576e-02,-3.502305421771457344e-02,9.099345519959564990e-03,9.793814271688461304e-02
4.518246207445320572e-01,4.854073948558633722e-01,4.530550293147876939e-01,7.671388459050505412e-04,3.750977474521406717e-04,8.014615309713494107e-04,3.304709866642951965e-02
5.061248038886596579e-01,4.826458054843407730e-01,4.118622672092299153e-01,-8.575134683818793572e-04,-1.007875059331378314e-05,8.902200729641502469e-03,8.639127761125564575e-02
4.373665520702742504e-01,5.053354838399813920e-01,4.402703318393803023e-01,2.060100096428981592e-03,-1.099654808554984507e-02,-2.014088516371950657e-03,6.941552460193634033e-02
3.072295064094520689e-01,6.580973297717958026e-01,5.042179346140037710e-01,-5.791048669790966469e-02,-1.930930726591071067e-01,-1.930560333057645267e-02,4.645746052265167236e-01
5.058779566995754706e-01,5.146788235405256318e-01,3.720593766991059370e-01,1.028753459971017310e-03,7.387670328341460618e-03,1.625027247150371158e-03,1.390590369701385498e-01
4.338896270682590095e-01,4.923610150272024755e-01,4.634265088448614733e-01,9.093828129102905430e-03,-1.418888487757011090e-02,1.140272552324536962e-02,6.169603765010833740e-02
4.416623323335184259e-01,4.868620374903281367e-01,4.656428328256974614e-01,2.857511598965390819e-03,-4.189931383225329112e-03,1.010041550106734881e-02,4.378794506192207336e-02
4.369282254915230479e-01,4.846570134646944750e-01,4.821394834173368116e-01,1.004929464595662528e-02,-8.376455571069285275e-03,1.168608759645418417e-02,5.556410923600196838e-02
5.499510133351521723e-01,5.464213331400971096e-01,4.585882528919073553e-01,2.027617183473158224e-01,-2.412085900505371930e-02,2.572382435130717293e-01,5.758767724037170410e-01
3.981551384201019728e-01,4.878654437890723172e-01,5.008210878972643165e-01,3.432652922937529799e-03,-7.415564751680150772e-03,9.320714167075335246e-03,9.919168800115585327e-02
6.319318565914813224e-01,7.119723218978348811e-01,3.482757829036619568e-01,6.429764189166527200e-02,1.961959139676969777e-01,5.718251568680349922e-02,4.972542524337768555e-01
4.745557425631297677e-01,4.711981709231536364e-01,4.699953449604844513e-01,6.276103853693260071e-03,-6.283353113045985969e-03,1.074098498227826250e-02,2.448417805135250092e-02
4.548782381271837538e-01,5.056219320018667807e-01,4.245172558405695962e-01,6.101821160907389303e-03,-4.350697682726654449e-03,-3.064395539215395130e-03,7.234634459018707275e-02
3.923406135139682060e-01,5.154459681540010108e-01,4.967131295904347876e-01,2.334811758716331086e-03,1.941860972839818192e-02,1.455455792665620021e-03,1.198068931698799133e-01
5.009598109897208662e-01,4.447068205923663808e-01,4.508580219471345352e-01,-5.418710357892713055e-03,7.541485978270946570e-03,2.004018032771276089e-02,6.572479009628295898e-02
3.719023652529347412e-01,5.196962565620513175e-01,5.123205155419698897e-01,-8.396649497553079419e-03,3.229935362343187323e-03,1.078401236815314072e-02,1.462841033935546875e-01
5.318566109837064015e-01,3.160344104735708370e-01,5.880979815663205379e-01,1.799267190510447922e-02,1.535639815718255717e-02,4.599391312491538097e-02,2.643963694572448730e-01
4.951081492391731231e-01,4.849393127892469568e-01,4.355442564491696644e-01,-4.180224242615773571e-03,5.948018200541368462e-03,6.062373834717144604e-03,5.757068470120429993e-02
5.016515164760917411e-01,4.460075196891172822e-01,4.674910804819780163e-01,-1.393941935848050633e-03,6.535547346554181243e-03,3.694340818379143482e-03,5.037142336368560791e-02
5.117878634992907294e-01,4.610538833898792932e-01,3.994606764808280031e-01,1.430657671487061550e-02,-7.006947009615994981e-03,5.003373634739857051e-02,1.332815736532211304e-01
5.016396203272512899e-01,4.478254956522209618e-01,4.572344664800125358e-01,6.495828270290490876e-04,3.010431904368868466e-03,7.848271406670827635e-03,5.187863856554031372e-02
5.115843557987153067e-01,3.901428093147907838e-01,5.034784142424152398e-01,-4.355495791424920417e-03,1.262264019380967238e-02,2.347265382563675298e-02,1.265589147806167603e-01
4.751822964853337772e-01,4.861121229179126146e-01,4.371159578376707655e-01,1.052730245672582436e-02,-4.437378913046027308e-03,3.215355099604778888e-03,4.906245693564414978e-02
4.832977465874599976e-01,4.431081609835303969e-01,4.461757131916735952e-01,-7.407519700706607750e-03,-7.020084160864425299e-03,-8.031202655882431138e-03,4.480277374386787415e-02
5.155532965148740265e-01,3.857009019634616842e-01,5.102585203959704163e-01,8.976686425959902113e-05,5.977827708185510028e-03,7.874372891694954996e-03,1.284343600273132324e-01
4.610742534435818274e-01,4.547526813970364512e-01,4.541929397066363228e-01,-6.317012077760251684e-03,-7.329993076458645763e-03,-4.588436656738941431e-03,1.969455741345882416e-02
4.951314952537098080e-01,4.776077294072219592e-01,4.570992988698626136e-01,4.243159833476480014e-02,-4.165943172527027810e-02,4.867093479600144434e-02,1.371185183525085449e-01
4.185675299855482479e-01,5.910978425921662449e-01,6.476817212124960088e-01,2.322205871425782886e-01,-6.232617204070806105e-02,1.476536956835767522e-01,5.306303501129150391e-01
4.753818438901420418e-01,4.438338762448351682e-01,4.442025501131940390e-01,-5.428942580086112794e-03,-2.306876917348841659e-03,-1.863299301168048518e-03,3.314483538269996643e-02
4.678580108515336677e-01,4.506736378425996725e-01,4.476686150721738144e-01,-3.939054759363280582e-03,-1.995106174059908376e-03,-1.148127769165401164e-03,2.045523561537265778e-02
4.837222219816630919e-01,5.014227418723897767e-01,4.335639450828716601e-01,-1.502300541126669331e-03,6.386975556305951422e-03,4.007697526759888482e-03,6.240452453494071960e-02
4.446759418757872950e-01,4.904360062041917545e-01,4.996704782117741273e-01,-3.979654196340155770e-02,8.714854168824483216e-02,2.814360390746454069e-02,1.803161501884460449e-01
4.760764420427994748e-01,4.454521891690458313e-01,4.444631307713531876e-01,-2.030615299507462172e-03,-2.099190805174720644e-03,-7.486549634982791991e-05,3.153916820883750916e-02
4.315155168717136891e-01,5.074712284276901020e-01,4.437860464472635491e-01,-2.511569326846543708e-03,-9.519050257619407832e-03,1.709968469967362631e-03,7.271417975425720215e-02
4.308842602182874071e-01,4.621938566300138884e-01,5.093325797690372303e-01,-2.341578812543012450e-02,1.877336960937512483e-02,2.457268351147012461e-02,9.587445110082626343e-02
4.851880080885884183e-01,4.953010817340370298e-01,4.333255800557291315e-01,-3.649943010359557507e-03,5.950547834994371864e-03,5.610811501949024283e-03,5.964152142405509949e-02
5.072030039577064553e-01,3.721366419345010224e-01,5.145200208091945671e-01,6.120889931166739219e-03,1.436285197730328457e-03,2.160537335844162077e-02,1.442348957061767578e-01
4.102782556154724869e-01,5.286191997686102706e-01,6.281864806389905187e-01,-2.002395793192150372e-02,2.161720537206180681e-01,8.678666024143459612e-02,4.468677937984466553e-01
5.071456064256871787e-01,4.290592953159496070e-01,4.506507260253286296e-01,-1.474714343551139376e-03,-1.327330799915178846e-03,-4.186491800903715393e-03,7.029975950717926025e-02
5.381750732153713912e-01,4.336454143081880375e-01,4.305531507969187488e-01,-2.104975611283973688e-02,-1.944939363443820221e-02,-5.980720175286684953e-02,1.563779413700103760e-01
4.677448083131081624e-01,4.595523857592679340e-01,4.483541790964696849e-01,-1.183514069160340916e-02,-9.264884871601765728e-03,-1.081644932302637009e-02,3.623491153120994568e-02
5.142594145964527463e-01,4.954877862148394096e-01,3.699752162525727917e-01,-5.373811226493244338e-03,-8.689038692094279079e-03,-1.496037288300124460e-02,1.394504308700561523e-01
4.593461061555472735e-01,4.596900744645853187e-01,4.867067757521657545e-01,6.951663392500502438e-04,2.216626235522798499e-03,-3.927453527760463824e-03,2.831568568944931030e-02
5.106965986132384616e-01,3.859136293887948099e-01,5.022676295728890628e-01,7.600995778898804976e-03,1.434950134474814731e-02,-7.318995912136167827e-03,1.246667504310607910e-01
5.636206400175757247e-01,5.394481129432551203e-01,3.233222010339364405e-01,1.705797202097474388e-03,3.711384336665023154e-02,9.770694896983615763e-03,2.386346012353897095e-01
3.056396989469124525e-01,5.676506935366950612e-01,5.378727493823630690e-01,1.811142062271361292e-02,1.137816438950776249e-01,4.110019349317450832e-02,3.265346586704254150e-01
4.227090479497008779e-01,4.866931141299236097e-01,5.130865463798376380e-01,1.100626033006882332e-02,1.823537619128764390e-03,4.250378383851019515e-03,8.310788124799728394e-02
4.858337419672861812e-01,4.496643681852000585e-01,4.603791772788914938e-01,1.634001118801984686e-03,6.373121288347022295e-03,-1.041559395013791486e-03,3.418475016951560974e-02
4.610820098704951908e-01,4.396754271207059528e-01,3.928133051863469394e-01,-6.145859226980359552e-02,-7.830116078962584547e-02,-8.560330548155731245e-02,2.352996468544006348e-01
4.832442544948473695e-01,3.867148587169010332e-01,4.942904140489752796e-01,2.663712147559920904e-02,1.598080011935445674e-02,-6.492574406163994019e-03,1.163075566291809082e-01
6.392838211185476460e-01,4.117798678304651072e-01,3.811205434310031004e-01,-6.398492886876019914e-02,-6.780511758645769993e-02,-2.077720907349439872e-01,4.639565646648406982e-01
4.908042806075462172e-01,4.028629122769111781e-01,4.718991496748272674e-01,-6.051694034359407504e-03,-1.225147133216417800e-02,-7.745927141162213536e-03,8.466822654008865356e-02
5.618551282830481775e-01,4.776512603574869509e-01,2.634962032801403398e-01,-3.453162439422462898e-02,-6.871770012129910232e-02,-1.393197158659973123e-01,3.833522796630859375e-01
4.434474838123737550e-01,5.024577604922964014e-01,4.437027775399365881e-01,1.498370132058155163e-03,2.276610314118269682e-02,1.228255322825464206e-03,7.094617933034896851e-02
4.485664081285183347e-01,4.824604945970920045e-01,4.822996614588793696e-01,5.089934022877656318e-03,4.250171188946083242e-03,-5.564442485553765770e-03,3.698901087045669556e-02
5.281592531355400189e-01,3.310626039606993087e-01,5.284513101078215369e-01,-4.723744866647869994e-03,8.805933273213509271e-03,-4.044206135777527085e-03,1.981246620416641235e-01
5.090396030375979874e-01,2.747045875656162761e-01,5.895390624825052051e-01,-2.035395240159704466e-01,1.556005064316814783e-02,-4.215252890952591452e-02,4.589104056358337402e-01
6.280222129509235307e-01,5.565092576989184581e-01,2.413794194300141749e-01,-2.667721379256180955e-02,-1.001451860124951826e-01,-2.012710932328610203e-01,5.298199057579040527e-01
5.016570508646200910e-01,4.228508977026708693e-01,4.579443363759765906e-01,2.189147723329222701e-03,7.483322252880525265e-03,-1.206785979535426878e-02,7.277126610279083252e-02
7.465881453203857543e-01,5.052714803990080439e-01,3.836313237713002700e-01,9.589714810229843511e-02,1.131768995896577645e-01,-1.872844813833840771e-01,5.230928063392639160e-01
4.912266931902936618e-01,3.474814506861252372e-01,4.471912460187419947e-01,1.312515484303711510e-01,1.010133597193246524e-01,-1.216380591172778747e-01,3.780891299247741699e-01
4.755845218697793420e-01,4.538245536312984774e-01,4.581103432248583296e-01,8.865643304978829825e-03,8.905224472365101673e-03,-1.212341869559960608e-02,3.623872622847557068e-02
4.653659144707097406e-01,5.046112625510338345e-01,4.411878951526781445e-01,1.008598961183687854e-03,4.011995016829338241e-03,2.150582583134632002e-03,5.602556467056274414e-02
4.512499078314950451e-01,5.049278692053571493e-01,4.081069778816319715e-01,-6.117841952800857040e-03,-1.339738568607500013e-02,-4.140231167077160560e-03,8.809448778629302979e-02
4.852313244564506745e-01,4.554879912696400690e-01,4.485543522806651473e-01,5.291224654230750057e-03,2.420347572029091406e-03,-4.237623759482054761e-03,3.597788885235786438e-02
4.621942092671347257e-01,4.538927496380553150e-01,4.877544251269104736e-01,6.603034736441051183e-03,6.275181661560368454e-03,-3.310902720436167002e-03,3.487471863627433777e-02
6.598552945665699943e-01,3.823062126093387247e-01,5.933446393867193303e-01,1.822293774420642443e-01,1.196275761978187330e-01,-8.781728710500205648e-02,4.782130420207977295e-01
4.464708980673252059e-01,5.034059287546996941e-01,4.664746828631313180e-01,1.651781029513865208e-04,4.027383539785930194e-03,1.314164186731041047e-03,5.056436732411384583e-02
5.015294650638872920e-01,4.471594837113887499e-01,4.370700933623758999e-01,4.453025617918313084e-03,1.737387219992457587e-03,-4.623223291891203138e-03,6.114831939339637756e-02
3.704898910133570533e-01,5.120341592017897403e-01,4.952826266446180847e-01,-7.890015352142579208e-03,-1.059923718379339984e-02,-5.184106864448719161e-03,1.361936926841735840e-01
4.635831419798292496e-01,4.151717503443782542e-01,5.119961218592921082e-01,5.145630882509738546e-02,2.466507652430153727e-02,-2.355819031141009878e-02,1.358842849731445312e-01
4.493499390145259120e-01,4.716092140201292859e-01,4.839285715814753974e-01,5.056026495284610123e-03,2.219464485921293206e-03,-4.573918876719747749e-03,3.279775008559226990e-02
6.977184299290972724e-01,3.037008368466378450e-01,5.017712143373448397e-01,-4.189264305972268537e-02,2.517571952923874923e-02,-2.160026255029770248e-01,5.133968591690063477e-01
4.729357779207459256e-01,4.032642708977731694e-01,5.008138865042520704e-01,-1.067830797987404795e-02,9.375295725831084975e-03,-5.331411460118190603e-04,9.044466912746429443e-02
4.575353898613856996e-01,4.613165142546595265e-01,4.964960430398137614e-01,6.989939646052513271e-03,-3.786607898732368901e-03,6.184681362850724326e-03,4.110058397054672241e-02
5.226837450689344466e-01,3.407099355808616559e-01,4.955915738380688440e-01,-3.551326638170980952e-03,3.687451764149613821e-03,-3.428212102531639355e-02,1.803408116102218628e-01
5.043471027748789304e-01,4.409531420998529239e-01,4.309967075375473189e-01,8.624564726640524806e-04,-1.573202327952751218e-03,-9.407220312427971506e-03,7.088191807270050049e-02
7.116114755546082415e-01,2.939827099682063016e-01,5.115784781180386931e-01,-5.035433607791758859e-02,8.637848069835047521e-03,-1.903896866248645514e-01,4.974561929702758789e-01
4.372276135185762524e-01,4.978305270246774494e-01,4.401039809845646023e-01,-1.353774057292936100e-03,-1.167016864425420887e-03,-2.358097363126564813e-03,5.943850800395011902e-02
4.314528852694505257e-01,3.777596596906154236e-01,5.381514406966717567e-01,-1.043717241171897570e-01,-4.063712948005736292e-02,-2.491438127645390424e-02,2.439123094081878662e-01
5.335464210647720140e-01,3.435769610691039588e-01,5.302678330417910368e-01,-5.348437116304923661e-02,6.049136118754107339e-03,3.262877901847741069e-02,2.176275104284286499e-01
7.210335850384663736e-01,1.930501748497460701e-01,6.832633549321569522e-01,2.569145732285631895e-02,6.504772666286308402e-02,-9.562368711388805065e-02,5.498694777488708496e-01
4.852090470558709234e-01,5.020718588105715918e-01,4.909858579526292233e-01,-4.692672858113671602e-02,7.146760281627508038e-02,8.153190151567496491e-02,2.051630467176437378e-01
4.819288918867645211e-01,5.031056708611686412e-01,4.065741203092653189e-01,-5.587334223696278739e-03,2.109013608286196273e-02,6.766471658386403153e-03,9.637406468391418457e-02
4.500323311009961080e-01,4.992965281339516448e-01,4.561023211967000224e-01,-6.023017009118053131e-05,6.279421623801415345e-03,3.720364233581185519e-03,4.821410775184631348e-02
4.681591835715943617e-01,5.064378241163173255e-01,4.311959997084857110e-01,-1.893552817240203631e-03,1.284822017332443514e-02,6.627933348300265280e-03,6.988710165023803711e-02
4.135643610281798388e-01,4.518872579093320963e-01,5.040884612131325548e-01,-1.130807729193267740e-02,3.320422484192252222e-03,6.497339466381678481e-03,8.208198100328445435e-02
5.322995278837848732e-01,3.108090600857053021e-01,5.253288741691020114e-01,-1.862955745888982342e-02,2.039273227740436185e-03,-3.914833698082317154e-02,2.306818515062332153e-01
4.890369680736778579e-01,2.554776529150254438e-01,6.855514002710010324e-01,-1.219480994493736259e-01,2.387499064402649057e-02,4.362366951276151761e-02,4.371484816074371338e-01
3.576940235601247520e-01,6.592082531983711746e-01,6.295918992946785142e-01,-8.093691033616436104e-02,1.809326348212504099e-01,1.098810265569776790e-01,4.867668151855468750e-01
5.093357662923022611e-01,2.216420756320798824e-01,6.550344992869503447e-01,-1.289513381338860676e-01,-2.092630399389882462e-02,-1.031659949747772836e-01,4.785824120044708252e-01
4.921388965976661867e-01,4.917009892837838625e-01,3.958775992995953175e-01,-1.206289837430539989e-02,-8.830121126409285620e-03,-8.161699552226564514e-03,1.004717350006103516e-01
4.373255687190860108e-01,4.417742872767289053e-01,4.982111163994534797e-01,-1.201443913807343812e-02,-8.237540883332160682e-03,-6.748329063183090663e-03,6.503237038850784302e-02
5.073053458116868475e-01,4.667537935239173263e-01,4.499050860572470500e-01,-4.027764509487517797e-03,9.064252953114458958e-03,2.487238424995075192e-02,6.901163607835769653e-02
5.240970459452335417e-01,3.585478155050637605e-01,5.423569576034057427e-01,-1.434079022613814680e-03,1.107360056298889277e-02,1.463466801482174104e-02,1.782679110765457153e-01
4.661381311538710381e-01,5.035918149585437709e-01,4.220333413716564896e-01,3.338514228054982938e-05,1.363552943359901126e-02,4.521819473377469006e-03,7.496015727519989014e-02
5.220195763703170400e-01,2.748871722937231143e-01,6.589310668367061030e-01,-1.753726938819983872e-01,-1.666589069056538877e-02,-7.404769235914090975e-02,4.724443256855010986e-01
5.854732534926696541e-01,1.001161677537829031e-01,5.805220553554559793e-01,6.848757815243430511e-03,2.109839151435785598e-02,-3.101684383326696118e-02,4.873963296413421631e-01
3.865379481640833781e-01,5.077751208183480802e-01,5.103133920763351927e-01,-1.378385421228502800e-02,5.140976209903094264e-03,1.167027277435251850e-02,1.267694234848022461e-01
4.498615265364545035e-01,4.852702464799710791e-01,6.714040466889844572e-01,-1.574064593966059411e-01,1.379287334497200646e-01,1.265923795462906565e-01,4.711375534534454346e-01
4.865158765211638481e-01,4.662647640603068688e-01,4.533070859372130279e-01,7.738294752271886005e-03,-2.311436608740652984e-03,4.926734561431401691e-03,3.330024704337120056e-02
4.367139466519141533e-01,4.429272729154591914e-01,5.032879706689110666e-01,-3.246802287899632541e-03,-8.497784478203645932e-04,-1.582039529709644457e-04,6.396035104990005493e-02
4.485707629908805005e-01,4.737074888750167356e-01,4.839809031048016297e-01,4.499003320021075294e-03,3.512386301780517830e-03,-5.913315043605847816e-03,3.461608663201332092e-02
5.315349343618869238e-01,5.379386021301160170e-01,3.579877013270547081e-01,1.463051417830976524e-02,2.173725864916908890e-02,6.608694252277769014e-03,1.829253733158111572e-01
4.505045731982045831e-01,4.673389197300226727e-01,4.864071576082834580e-01,-1.779624242423418845e-03,2.126627051954096698e-03,6.165121411760339336e-03,3.324288129806518555e-02
3.370278995980646730e-01,5.219993038857745349e-01,5.160256392498397959e-01,-4.091995214282935327e-03,-8.786776803684040807e-03,8.575213317284148540e-03,1.834328323602676392e-01
4.877987263227602233e-01,4.574410053806226562e-01,4.629598295963974208e-01,2.082086680745888832e-03,-5.667439534897160229e-03,4.238893232527077976e-03,3.078602254390716553e-02
4.669662933818373163e-01,4.590207915443205167e-01,4.803316110880497258e-01,3.158110120170263060e-03,5.667147082946669481e-03,-2.393731217189784023e-03,2.216793596744537354e-02
4.671777774298457309e-01,4.654577866671584796e-01,4.682353491028195536e-01,-7.182890980639944183e-04,1.670621107934842225e-03,3.148383064227967603e-04,4.014218691736459732e-03
4.818449571235040030e-01,4.658111440597957342e-01,4.555444674595494070e-01,6.233432994227464802e-03,-2.475045042635429411e-03,5.478572145626635879e-03,2.742427028715610504e-02
5.191783494103746621e-01,5.353908129119825388e-01,3.382192363302476412e-01,2.602829546489694723e-03,-8.824495387652026707e-03,-7.316048109656933182e-03,1.906760334968566895e-01
4.490175497859304476e-01,5.079424579049746091e-01,4.263117565211151927e-01,-1.287118062777567939e-03,-4.367495760005346735e-03,1.242519829970142452e-04,7.340215146541595459e-02
5.190041976239787580e-01,5.175825849374803278e-01,3.431586165938950161e-01,2.239323146525230412e-03,-9.208726908368028777e-03,-1.203787853571486148e-02,1.771380305290222168e-01
4.718072295522419135e-01,4.657117570527693484e-01,4.762329598213744242e-01,1.111407888755874124e-02,-7.664721833211795773e-03,8.355959697850183499e-03,2.898270450532436371e-02
4.732052399012146027e-01,6.131932288361968686e-01,3.308876277155590184e-01,-8.696079525654054621e-02,-2.103178496432900058e-01,-1.248665023710205796e-01,5.117967724800109863e-01
4.628369266772863200e-01,4.622817524084723573e-01,4.465586822785598264e-01,-4.786146868869036418e-03,-2.172217584760621593e-03,-2.122237730614868860e-03,1.877873949706554413e-02
2.799235116104399346e-01,5.751458232801104353e-01,5.702515069126432579e-01,-1.841626092390360320e-02,-3.461048163700940206e-02,8.366981900291926844e-03,3.009259104728698730e-01
4.773586957243525219e-01,5.541961178658393328e-01,4.401444948153712677e-01,5.957572310611534971e-02,9.905195080351449077e-02,-1.113397836851576228e-02,2.249486446380615234e-01
4.862506303417720166e-01,4.588192513032599562e-01,4.528136594802283366e-01,1.090207271649096428e-02,-9.615747703563447962e-03,1.310177377258985726e-02,4.584988579154014587e-02
5.007863949293059891e-01,5.298336477247200804e-01,3.913670580199692384e-01,6.763635339718922744e-03,2.061723951898158588e-02,3.235917957085600490e-03,1.320550292730331421e-01
4.155646121046721042e-01,3.925997296843085627e-01,5.867770329422020703e-01,1.793733723821876180e-01,-3.605379565483721183e-02,7.903281249612378358e-04,3.663316369056701660e-01
3.231052931228904912e-01,6.240747375309956269e-01,6.317716580488855760e-01,1.698181387963052513e-01,-8.839281663166113218e-03,1.429299564916406695e-01,4.909116923809051514e-01
4.771226531303545682e-01,4.661166780090141848e-01,4.598454904509124974e-01,5.459510202255051133e-03,-3.475995675324763078e-03,3.930992736923250193e-03,2.003757283091545105e-02
4.611454164841434777e-01,4.574739590825930846e-01,4.903683980745587312e-01,8.168062493150890155e-03,6.045641115913445544e-03,-3.687652171240215614e-03,3.640536591410636902e-02
3.539481581591275017e-01,5.593334515293891807e-01,3.049520046624910607e-01,-5.558671760326881761e-02,-2.113816614393598525e-01,-6.592125169999432654e-02,4.593472778797149658e-01
3.680804155203582506e-01,5.093213037477530847e-01,4.983137594862353525e-01,2.008841332277976326e-03,-2.357635919462430785e-02,7.678434243924616223e-03,1.427303552627563477e-01
4.126476054552246087e-01,5.636077312678197115e-01,5.169585814284733960e-01,7.363580647993925310e-02,-6.309250177645329971e-02,6.130386130052559168e-02,2.395957410335540771e-01
4.991061977621916168e-01,4.597436091889645082e-01,3.776234600634424399e-01,-1.445092748031537137e-02,-1.081187697172444721e-02,-2.390624978150996532e-02,1.192363128066062927e-01
3.034009126746970431e-01,7.259608390688768731e-01,5.430197085963544001e-01,9.381560128181533342e-02,-1.827876929615237789e-01,1.033316063618828912e-01,5.416558980941772461e-01
4.313453222699740186e-01,5.087033036828507715e-01,4.532648057117086293e-01,4.435112057049070931e-03,-4.964719815479475863e-03,4.823079591870989800e-03,7.051111012697219849e-02
5.721777481673041565e-01,3.847255823848163558e-01,6.413547076970300687e-01,2.112944224785849312e-01,1.354214636597186328e-01,-5.578870861801289716e-02,5.011798143386840820e-01
6.137139521041248269e-01,4.972793986714364456e-01,5.114904556734765073e-01,1.872014996190753955e-01,1.931536388739675258e-01,-1.107908614421236060e-01,5.157386064529418945e-01
5.061476493291718892e-01,4.400286744281814433e-01,4.311782861675318990e-01,-5.677676091565377232e-03,-3.715875405651000631e-03,-2.224115995313285729e-02,8.159267902374267578e-02
4.883532456572162173e-01,4.911519505608352154e-01,3.843299410092755330e-01,-1.364679679523413992e-02,-2.049661627188223423e-02,-1.904569677833287469e-02,1.184359118342399597e-01
5.040036893398235351e-01,4.304440930485231021e-01,4.558743016217260413e-01,2.621523649330455893e-03,4.728199464125151276e-03,-5.480616384302900920e-03,6.606716662645339966e-02
5.010908901078124922e-01,4.747281776641741335e-01,3.865943698978818177e-01,-1.338880937242338358e-02,-1.568504636903310726e-02,-2.115263498451832105e-02,1.157763004302978516e-01
2.938207582144146679e-01,6.483813379561613743e-01,6.718703613234834338e-01,1.996353881094507510e-01,6.425398240242703903e-03,9.378003413851210279e-02,5.297773480415344238e-01
4.735568800394467370e-01,4.339294887222299724e-01,4.852266982593650968e-01,8.516080648859012184e-03,1.463363751218383843e-02,-7.642575875994100584e-03,5.660554021596908569e-02
4.581260567953377438e-01,4.670866707203313872e-01,4.755434802407590977e-01,3.889817032584652265e-03,-1.620715520823309613e-03,6.147759582710254217e-03,1.985561475157737732e-02
5.176423269019353457e-01,3.542458577257088237e-01,5.571503880626575977e-01,4.144146887347439911e-02,1.094785468053786903e-02,-1.657001882283036173e-02,2.026085406541824341e-01
4.608852921875771780e-01,4.671284667977136373e-01,5.453108908560676538e-01,9.170358939777058238e-02,-2.044991335328032178e-02,5.147309699916195053e-02,2.026604413986206055e-01
5.659687016427853434e-01,1.714957096801126291e-01,5.715737104116862533e-01,4.248791057965085188e-02,2.322488535641398580e-02,-3.864501827789407987e-03,4.061158001422882080e-01
4.643383809672068097e-01,4.777180143175790983e-01,4.443855036660684377e-01,1.151368890446359712e-02,-8.854728680494824630e-03,5.539372241548721869e-03,3.961138427257537842e-02
4.123619901600839022e-01,5.201496566384143927e-01,4.604311783146236570e-01,3.623933619951566487e-02,-5.855467913545846226e-02,2.525406556114068862e-02,1.577551513910293579e-01
5.113515963673777032e-01,5.101335670276774259e-01,3.781052226461593668e-01,8.374589374595712080e-03,-2.545774828057719395e-03,6.286255157889115118e-03,1.339484155178070068e-01
4.921417010435106265e-01,4.635243901106938513e-01,4.281617711629294720e-01,1.457062389714035115e-02,9.708377176032217254e-03,-8.860013172388428102e-03,6.508928537368774414e-02
5.008782756794801783e-01,4.657040268155543394e-01,4.436057262290811765e-01,3.741119834916151621e-03,-1.523695764135685540e-03,3.905880026597883213e-03,5.096640437841415405e-02
4.896971820162060451e-01,4.413284970332188029e-01,4.426762197570430768e-01,7.110571240020575022e-03,8.418826044347295715e-03,-1.838315471198184378e-02,6.045072525739669800e-02
5.158921047458926434e-01,4.147684825807495534e-01,4.670786438241846805e-01,-5.244629677492291218e-03,-5.008784631872536999e-04,-2.172057792227043843e-02,9.576621651649475098e-02
6.638147713128689231e-01,5.800418642346545361e-01,4.634060632186685069e-01,1.452108501446567890e-01,-1.575880684516595825e-02,2.413630011093759742e-01,5.188107490539550781e-01
4.813491278790445471e-01,4.372601034280458876e-01,4.610450449847998677e-01,-1.160076250074570069e-02,-1.202173305904094200e-02,-1.582294693635899127e-02,5.522052943706512451e-02
3.743290536488664277e-01,5.350319575358006841e-01,4.763714982098861128e-01,-2.853498726999958643e-02,-1.155777282503674258e-01,4.577600570189670898e-03,2.498395442962646484e-01
4.799371634183641211e-01,4.979260291260869109e-01,4.274664223439887389e-01,1.842790284358019129e-02,-1.988473442821522136e-02,1.753835654362220775e-02,8.454832434654235840e-02
5.132959490526478596e-01,3.763382618114273770e-01,5.082862853404990222e-01,-5.321001847666670913e-03,1.052336375963459046e-02,6.244445723056621898e-03,1.364937126636505127e-01
4.908255315346505832e-01,4.008705756611772308e-01,4.320502650077395201e-01,-9.809178341832631987e-02,-7.562069625705371279e-02,-1.018416462227033359e-01,2.887835204601287842e-01
4.971304005546111071e-01,4.554864269646715091e-01,4.673522153978611482e-01,2.631235145009499631e-03,-4.348392402584717702e-03,3.340452660871957684e-03,3.862448036670684814e-02
5.174891634901132020e-01,5.593683300451609552e-01,5.602087751404424276e-01,-9.355120711523270960e-02,1.908207558219205957e-01,1.891970393542084239e-01,4.946407675743103027e-01
5.068316995074643172e-01,4.155617177241014426e-01,4.657836203069046221e-01,-5.660749535855815959e-03,-6.488777093386929526e-03,-2.007093335550174523e-02,8.774776011705398560e-02
4.842964011331176155e-01,4.524031883685608046e-01,4.217756386869447316e-01,-1.172222705799325602e-02,-6.591076624719150942e-03,-9.544119923957020482e-03,6.121980026364326477e-02
4.059637381089293284e-01,5.127572960094508581e-01,4.501855409559497589e-01,-1.526168463446109453e-03,5.889280367485157097e-02,5.503273921923668849e-03,1.383501440286636353e-01
6.731100628809891795e-01,6.474513810892008614e-01,3.139237103574255006e-01,7.174779350488763585e-02,-1.500840148309803661e-02,1.737135850514973379e-01,4.765555262565612793e-01
5.268627174762494647e-01,4.269931767366518249e-01,4.138742040259152377e-01,-1.565631771481238235e-02,-1.642270868502665113e-02,-4.601254468245582346e-02,1.391120404005050659e-01
5.050346491987520725e-01,4.958569337160860790e-01,3.956386840577829078e-01,1.089034583632823676e-02,3.286582669600857966e-03,-8.969100756293662061e-03,1.080612838268280029e-01
4.681203850766564312e-01,4.002473815665535395e-01,5.119259610200858068e-01,-9.554803507427708092e-03,-7.699698884039081134e-03,-4.259193388112540897e-03,1.000252440571784973e-01
5.324899708391516162e-01,5.256422092035917260e-01,3.558236810288054608e-01,5.602390871118818200e-03,-1.472679735784612016e-03,-1.793243017131345568e-02,1.763901412487030029e-01
4.590936484672955564e-01,4.529349168593332919e-01,4.521627738835027888e-01,-3.178145607348971738e-03,-4.715719479331117493e-03,-3.756156072637349339e-03,1.351382955908775330e-02
4.752435791351937167e-01,4.431772959486518504e-01,4.487351691196668213e-01,-3.551512148511500565e-03,-6.220507900526696735e-03,-8.730895516585562540e-04,3.220445290207862854e-02
4.581912758766530924e-01,5.418678392052568293e-01,4.184076842281221342e-01,5.678738477790923160e-03,4.653900373560646703e-02,1.597816739114753942e-02,1.388299018144607544e-01
5.026143681826003018e-01,5.249063111121358149e-01,3.958612624584315620e-01,7.054820625606954103e-03,4.583762573911769056e-02,3.054457955649790557e-02,1.533765941858291626e-01
5.236872252320916576e-01,4.441933756401216793e-01,3.492004901951854534e-01,-3.311095234978727458e-02,-3.896176892663304886e-02,-8.276536743740611768e-02,2.264677733182907104e-01
5.211099644975946132e-01,5.034688527379763689e-01,3.605034955072121683e-01,1.907337070434065099e-02,1.788273376749348331e-02,-1.903333291656260015e-02,1.625113189220428467e-01
4.805754420296181051e-01,4.380908524650156677e-01,4.410723820984253640e-01,-3.495302901971615063e-03,-8.050666931944425869e-03,-4.734071969062018416e-03,4.455879703164100647e-02
4.095846416072255192e-01,5.145644767766440753e-01,5.119234475602614243e-01,-1.605793152358103437e-01,1.058688267340118366e-01,1.402708837358763172e-01,4.251588284969329834e-01
5.779873838030058497e-01,5.078674956471024293e-01,1.594750957977060235e-01,2.231618662523241273e-02,4.384194375578188974e-02,-1.270000677761430885e-01,4.542804658412933350e-01
5.169159127161027101e-01,6.838651653577614287e-01,3.550459117071179671e-01,8.665393750349115187e-02,1.276820524769660403e-01,5.194079698287765818e-04,3.905555903911590576e-01
5.054521654309054313e-01,4.488186750003678727e-01,4.708321399229178916e-01,-1.403682265159693875e-02,9.317347908625945446e-03,1.997409021164716497e-02,6.703487783670425415e-02
5.405388164394933082e-01,5.661230721011056843e-01,5.323049748675026116e-01,1.628497564246183804e-01,1.789319891393679196e-01,-1.682864573244206505e-02,4.211801588535308838e-01
4.567642813455703998e-01,5.024237580720495311e-01,4.581855587214603842e-01,6.483222775389848105e-03,1.188443451898594551e-02,-5.761130535699699167e-04,5.072203278541564941e-02
4.863358795320142924e-01,5.157504562568907547e-01,4.131649566176387456e-01,4.984168867381824110e-03,8.549007567344847278e-03,1.656968419436253941e-03,9.313169121742248535e-02
4.020305645671715666e-01,5.190929417694498671e-01,4.987058694256620850e-01,8.962079286956666294e-03,2.452154068734765241e-02,3.613648773682164028e-03,1.175445616245269775e-01
4.572482107012897368e-01,4.570560904032395233e-01,5.002297731255805902e-01,9.484659707004922807e-03,-7.382748014104251362e-04,5.966761209281985952e-03,4.726549983024597168e-02
1.450360210869998112e-01,5.591911375524291072e-01,5.799289656802066872e-01,4.407972903908815437e-02,-6.158012477109667780e-03,3.150761934014524590e-02,4.352748692035675049e-01
5.743872968738442664e-01,6.125042298882811265e-01,5.108151525294157835e-01,1.394683391414126006e-01,2.102410170350590413e-01,-7.252816387675650733e-02,4.633104801177978516e-01
4.841174284725662802e-01,4.451812225479133689e-01,4.411554237040071769e-01,-6.365656700176708198e-03,-7.086896623513206858e-03,-9.014323762163099427e-03,4.695738106966018677e-02
3.399326985045023064e-01,5.263443230306420473e-01,5.006769211159974864e-01,8.976117956530627745e-03,3.863275493567973340e-02,9.416403541441248012e-03,1.887023895978927612e-01
5.160357003857042324e-01,4.876673179443292705e-01,3.983051649002301575e-01,1.064637428837018202e-01,1.152990594352869547e-01,-1.317548840881553607e-01,3.705248534679412842e-01
4.677361221838082228e-01,5.155707677450180881e-01,4.225892966223008251e-01,4.431351124134659189e-03,1.393491639573399277e-02,4.724325707654589146e-03,8.481972664594650269e-02
5.063946440841583518e-01,6.705164145848997448e-01,4.722910068876647882e-01,1.084308828879927827e-01,2.636335545762528709e-01,-3.245633502966209418e-03,5.267897844314575195e-01
4.905142040239111045e-01,4.333335937267597804e-01,4.402310048967313372e-01,-4.228259204563290623e-03,-6.262869530964075560e-03,-7.397249275282157151e-03,5.708118155598640442e-02
4.718105983741751053e-01,4.431973198752679477e-01,4.899223992745475043e-01,8.766213758909078071e-03,-7.497797990542667476e-03,7.811086965601662067e-03,4.740490019321441650e-02
4.745034141871543598e-01,5.057039607661800718e-01,4.180099268706059523e-01,1.162280990317960706e-02,-8.689959196496531424e-03,1.796333854326313904e-03,8.105005323886871338e-02
4.597227820639947504e-01,4.660938554482128016e-01,4.818198534540173439e-01,1.621277280648711263e-03,-1.193034369200422339e-03,1.926168166386426142e-03,2.028238214552402496e-02
6.407534545137865134e-01,3.378511526300108647e-01,7.022361383468236351e-01,2.011370811178782025e-01,4.711859651030043949e-02,1.104658450838408024e-01,5.280058383941650391e-01
6.557902566114562903e-01,3.321376367186357204e-01,5.559875142863565101e-01,1.756566457528555003e-01,1.305355038426835868e-01,-5.140372145256020403e-02,4.837577342987060547e-01
3.407246509670238677e-01,4.903749389807248726e-01,4.517736497032188714e-01,1.560649625101671878e-01,-1.147399177430366707e-01,1.151487122612824821e-01,4.128569066524505615e-01
3.807847666235723572e-01,5.154061413396378022e-01,4.926752484025166967e-01,1.127576203857739469e-02,-1.092211674778580631e-02,1.254192139914928929e-02,1.295791268348693848e-01
5.697508371395606508e-01,3.468149038765992453e-01,4.439239021931091767e-01,1.254824454566054737e-01,1.066270951948565526e-01,-1.246883164174253100e-01,4.067782759666442871e-01
4.530686387413402905e-01,4.337930265621172121e-01,4.862602082731554698e-01,-3.547429744514154701e-03,-9.002326977046106946e-03,-2.490813174989495258e-03,4.911728948354721069e-02
4.126682796843048062e-01,4.668268242189303474e-01,4.931150753644261142e-01,-7.526903297267808178e-03,-4.389199991176257268e-03,-1.320205120524986508e-02,7.614850252866744995e-02
4.829315393828823577e-01,4.386302333032656708e-01,4.900985182461600753e-01,5.446614670919991234e-03,-6.988087080102588222e-03,8.326377457546094152e-03,5.267789214849472046e-02
5.302970455777057390e-01,5.186151087796561088e-01,3.316059744845589741e-01,-6.640068382896886778e-02,-1.996065366162648735e-01,-9.301604198570430360e-02,4.427244365215301514e-01
4.657240337096739125e-01,5.180314728303350158e-01,3.641414766622134702e-01,1.184868287978144141e-02,-6.203275694909012733e-02,1.178104483745409659e-02,1.753577739000320435e-01
3.276333093073262592e-01,5.808134885711557782e-01,3.930636621032314038e-01,-7.532863897971303971e-03,-1.580174582974069042e-01,9.340634231589527506e-03,3.565896749496459961e-01
4.594946928418771614e-01,4.614822597530821024e-01,4.814896742325426859e-01,9.584945204605767105e-04,-1.175123142174982430e-03,4.193069093302340469e-03,2.244231477379798889e-02
4.628897789677029473e-01,4.696081670625458226e-01,4.709053522058324059e-01,1.494746274450547497e-03,-1.269589526515262599e-03,3.924012476714327895e-03,1.064266916364431381e-02
4.169896466673241875e-01,5.974648664657076225e-01,2.797161055241774719e-01,3.512443444144563304e-02,-1.685174214877786514e-01,2.047060293938311737e-02,4.078510403633117676e-01
7.285078320259099627e-01,2.139214654927960035e-01,7.013993683247981004e-01,1.825165319548591267e-03,8.602269590546759992e-02,9.790415996321462366e-02,5.500451922416687012e-01
7.138326029002276529e-01,2.426015477873929016e-01,7.097241995232526079e-01,9.315085787591173561e-02,5.722392832000139373e-02,8.045739193128667588e-02,5.247997045516967773e-01
4.932873381882880714e-01,5.870578917492335069e-01,2.436530336157597398e-01,2.257471570562812752e-02,-1.237566792453736186e-01,1.548815342696850499e-02,3.777753412723541260e-01
5.275855201492778423e-01,3.436944999420617486e-01,5.212228589799704492e-01,7.171175659465901277e-04,7.387522036075227540e-03,3.169013181748554070e-04,1.812510043382644653e-01
5.272596468314919571e-01,2.966451365399130902e-01,5.274316930337428211e-01,-3.487708184575038367e-02,-1.308338334892374805e-02,-5.534796085132318022e-02,2.580226957798004150e-01
6.415566537381425238e-01,2.413027390275594986e-01,6.613701402396867657e-01,-1.216821510238718096e-01,-8.290133049966208131e-04,-9.464810646599720878e-02,4.897169470787048340e-01
4.823865571911007399e-01,4.611727729605984427e-01,4.631189321647703472e-01,2.696257500533739970e-03,-4.314483688797771457e-03,2.627457338603048087e-03,2.260290086269378662e-02
4.534984075614272858e-01,5.311774050223013743e-01,4.403105462084317412e-01,3.388568670281170980e-02,-4.962276461018443746e-02,4.255352229975473827e-02,1.532864868640899658e-01
5.170680892517182103e-01,4.516008117166274149e-01,4.755792439784497505e-01,-7.823382494159432377e-04,1.116912472283263999e-02,2.808721931000860220e-02,7.767809927463531494e-02
5.380395003810889420e-01,3.601815989722336742e-01,5.605774867194953659e-01,5.193147792048107003e-02,3.063089418949010208e-03,3.247857767021091607e-02,2.177919000387191772e-01
5.245194822196774798e-01,3.417824866880647683e-01,5.195550924242972046e-01,-2.968941373433199409e-03,7.717768813596398436e-03,-1.018391125741343120e-02,1.817320734262466431e-01
3.561152813729735467e-01,5.461105965787703687e-01,4.794728512835511047e-01,2.218892851606947547e-02,-4.703315318133776540e-02,1.957684787276647853e-02,1.927202790975570679e-01
3.092806106142155231e-01,5.257954047900115224e-01,5.035586354222787442e-01,-3.266912816856942792e-02,-6.220974019957338508e-02,7.644877418352251939e-04,2.395250797271728516e-01
5.051199735405442759e-01,4.650454639590941852e-01,4.231243102955113411e-01,3.068765558229437276e-03,-3.333678832806888739e-04,1.361596113243798006e-02,7.502058148384094238e-02
3.811125773267295402e-01,5.202877818912270413e-01,4.928206351845819677e-01,9.492756486144236392e-04,-1.093145256865247529e-02,5.358887478183304263e-03,1.294170916080474854e-01
6.818015244465650548e-01,2.889052628426856950e-01,6.747047206037402045e-01,1.284884103002797151e-01,4.535958510912686120e-02,1.046314371671944188e-01,4.900745153427124023e-01
4.937295165583902579e-01,2.439406302038762964e-01,6.537286378778517371e-01,-1.490617824066288177e-01,-3.904152917764740910e-02,-8.882645744682531042e-02,4.720821976661682129e-01
5.216797097672627448e-01,3.011817200890251622e-01,5.548278181808246057e-01,1.096003938997881927e-01,-3.260630318237267740e-03,8.418041431377044914e-02,3.381640315055847168e-01
4.031462782019362701e-01,5.067286573422992157e-01,4.749410089167257487e-01,-3.597403843655480105e-04,-6.964692842831466703e-03,1.469997428769699924e-02,9.613168239593505859e-02
4.926494856748313000e-01,4.675794540466434723e-01,4.366584537258964005e-01,7.481836364356758695e-03,-2.044073525263648966e-03,2.908234158035250677e-03,5.065221711993217468e-02
3.478872057938254825e-01,5.276339226944523064e-01,5.142036961112340654e-01,-1.016406037753008786e-02,1.298125738166226555e-02,1.034167628367093673e-02,1.766678541898727417e-01
4.073845522790685014e-01,5.109474060947983842e-01,4.918057692588804208e-01,1.932275694755211659e-02,4.250467872081679227e-02,2.098756032754587036e-03,1.251501888036727905e-01
4.657689472206268388e-01,4.699049528306282197e-01,4.725207511049631659e-01,2.954230163360757611e-03,-4.504099586246116012e-03,4.818083575996865570e-03,1.383664924651384354e-02
3.694681370251284291e-01,5.702839189339047321e-01,4.572048493182612749e-01,-2.216084192193017166e-02,1.491499010634839417e-01,7.499285031369122556e-02,3.398351967334747314e-01
5.101824455732211216e-01,4.184038301442335461e-01,4.803707187976588577e-01,2.920350241391150847e-02,2.343445770317422600e-02,-3.403235326041598868e-02,1.194011420011520386e-01
4.435722699207363950e-01,4.959066741896985264e-01,4.452620429370134914e-01,-6.789405937926226578e-04,9.654539697521281145e-04,1.739532779671663617e-03,5.163883417844772339e-02
4.533285749891804439e-01,4.703210643136219171e-01,4.718992591462747854e-01,-5.562071999654570956e-03,3.838414523307396176e-03,1.335363017033046849e-02,3.146460652351379395e-02
4.501150379450261085e-01,4.567663674083181635e-01,5.062762929423079150e-01,7.041413134543449137e-03,1.872031179321250740e-04,9.683014662119693913e-04,5.455677956342697144e-02
4.402880890329314290e-01,4.968257274052400030e-01,4.444779931352526581e-01,1.517136067248551871e-03,-6.175687522527067638e-03,5.262641818283919984e-03,5.640550702810287476e-02
4.049440536841848459e-01,5.072563372408118720e-01,4.787846539897828158e-01,2.525773878313256147e-03,-1.028052417791007825e-02,1.271576582823485610e-02,9.584735333919525146e-02
4.846944139730353651e-01,4.331270325862330850e-01,4.331154316170232055e-01,-1.215076549825857069e-02,-1.121586941898911061e-02,-1.786383965190126502e-02,6.661421805620193481e-02
4.995580693456938559e-01,4.791681223340135132e-01,4.181418921654996290e-01,1.618814894908355423e-02,2.544145058143992486e-02,-3.340511363528093219e-02,1.070511490106582642e-01
4.814988401098586057e-01,5.171214429429215054e-01,4.142962054820051310e-01,7.307604011814178638e-03,-3.333492327691191248e-02,1.137118953437962939e-02,1.098219603300094604e-01
4.901615091267711999e-01,4.441942931073586398e-01,4.389330782460855174e-01,-2.054680117301691932e-03,-2.001511669395609778e-03,-2.458875101232130874e-03,4.924764111638069153e-02
3.871223420931534376e-01,5.201786333334388335e-01,4.720227893133184249e-01,2.950723479291373231e-03,-2.512465538688639019e-02,5.307073017605083882e-03,1.249795332551002502e-01
4.616673791766319201e-01,4.681802618779704050e-01,4.775460005326255808e-01,6.126868624009709947e-03,-4.870983937720250144e-03,6.154497742974079921e-03,2.210342139005661011e-02
5.199723824030181296e-01,6.327470200559113245e-01,5.292615088504682985e-01,1.783347268400519436e-01,-9.834382350415690754e-02,2.055753478764182629e-01,5.128009915351867676e-01
4.301290028978090874e-01,4.710834257050663387e-01,4.936905506187332926e-01,1.263800177021662599e-02,-3.605262667683641585e-03,1.221862928104986215e-02,6.387679278850555420e-02
3.529703359153841813e-01,5.052380337687842893e-01,5.076953319792698593e-01,4.685906777890785913e-02,3.550990548494082494e-02,-8.305107304380245775e-03,1.847775876522064209e-01
4.466211458031249526e-01,4.598432995945828661e-01,4.905572493112242416e-01,1.016700984832356880e-02,5.207226515799144410e-03,-9.013562578842566897e-03,4.646998271346092224e-02
4.793605828680416181e-01,3.917294351824058829e-01,6.442022654607472143e-01,1.478765732296537239e-01,2.566236817731094161e-02,-1.235280189954558738e-02,3.425392806529998779e-01
5.070678688698873060e-01,3.678217186105319225e-01,5.145960095041218763e-01,3.331787825724696634e-03,2.998127711960680468e-04,-4.652416209671512287e-03,1.435023844242095947e-01
3.943768455649467874e-01,5.143379721022297568e-01,4.694626126547807865e-01,-1.227550359624545936e-02,-4.431162795847264774e-02,2.648921862239887823e-04,1.317725628614425659e-01
4.971699541782971243e-01,3.423296671515397849e-01,5.229036679450751457e-01,-2.543581573845199104e-02,-9.481383226995378569e-03,-6.142308650872417564e-03,1.759152412414550781e-01
5.083493393311955266e-01,3.524884390624052344e-01,5.247607731872085957e-01,-1.849473847143119978e-02,7.604148740513558269e-03,-1.631960053240039989e-03,1.683076918125152588e-01
4.211303274584914380e-01,4.398179876303883740e-01,5.104955279761479447e-01,-6.120921451526114415e-02,3.597790374155677984e-02,4.145643372278626920e-02,1.641468256711959839e-01
3.430177536122462900e-01,5.221571462175691458e-01,5.225359018402833122e-01,-5.975642916057106882e-04,-2.301813825393855470e-03,6.091260034013569122e-03,1.796863675117492676e-01
4.368323290488755339e-01,4.974772213861912706e-01,4.423628767113647053e-01,3.488953867330239680e-03,-3.493597418937948330e-03,2.795583351988062317e-03,5.890306085348129272e-02
4.729657908238738551e-01,3.920947048495406762e-01,5.252710524774958367e-01,-5.039226138871223670e-02,-1.359347033197223515e-03,-1.350434048502124028e-02,1.472302377223968506e-01
5.052015513340639696e-01,4.702626989388153378e-01,4.389716539447628407e-01,4.313254536461859183e-03,-1.715462853743985510e-03,2.750111772296108190e-02,7.501134276390075684e-02
5.076355310789087971e-01,5.192677487248432699e-01,3.827115462106632227e-01,1.443466654145984579e-03,8.645370572710713367e-03,2.386404720107452443e-02,1.383235752582550049e-01
4.648142217351650674e-01,4.860609571718397803e-01,4.763043855298598750e-01,-1.119984004639288690e-02,3.974136944218412820e-02,3.087704581446922003e-02,9.118077158927917480e-02
6.319845749682895253e-01,5.056525970480704180e-01,2.614038630606310143e-01,-1.003212795400604783e-02,-9.688889338403759710e-02,-1.350601680605837684e-01,4.355016648769378662e-01
4.456071063501471086e-01,4.961779724113677403e-01,4.509231846369442520e-01,4.962035835447901454e-04,-2.292303934752305383e-03,3.799574148808798624e-04,4.830911010503768921e-02
4.611990463234573734e-01,4.634295914254628057e-01,4.756932100883510817e-01,3.000610780260201411e-03,-4.188185800509999952e-03,2.080046874796584455e-03,1.659336313605308533e-02
4.831370213456627760e-01,4.826652549399476633e-01,4.464895867011621222e-01,-6.301380603061294133e-03,5.111098224585182599e-03,4.888302969288670780e-03,3.993928804993629456e-02
4.885995918501260249e-01,4.370800610050298851e-01,4.745559089200721559e-01,-5.869100448181860906e-03,1.434963521654888940e-02,8.319594785922989483e-03,5.528729781508445740e-02
4.926738213400430055e-01,5.283231955932122803e-01,3.356484877680677714e-01,-4.187415547173341246e-02,1.364929788639263342e-01,9.811623125178468852e-02,3.486508429050445557e-01
3.196112013837325572e-01,5.456704600372355163e-01,6.734243802292618764e-01,-1.659569137059447308e-01,8.277683478470565515e-02,9.433669008429150515e-02,4.755871593952178955e-01
3.571239490622077906e-01,6.698414044696286984e-01,4.243185207477260801e-01,1.141473599556627194e-01,-1.676671063152015972e-01,4.436031872023989131e-02,4.589374065399169922e-01
5.775431257140555275e-01,3.749337437094764636e-01,5.598174950051607590e-01,2.101074561794632686e-02,2.913985345693360582e-02,7.252674341089461463e-02,2.396362125873565674e-01
5.813676354741877939e-01,2.853930423814600159e-01,5.822868920234456347e-01,-2.132218421068001260e-02,2.545549767748973499e-02,-5.874733748551528092e-03,3.021345138549804688e-01
3.319097318592797996e-01,6.667339171345832982e-01,5.973115338411958408e-01,-3.755144177150178397e-02,2.091505903550545664e-01,1.143084338980622366e-01,5.180191993713378906e-01
5.514559046527415243e-01,5.497004631426755106e-01,2.901034344844948265e-01,1.421630201881549788e-02,7.518091504178334161e-02,1.126306542350258982e-01,3.513818681240081787e-01
5.063502183829619030e-01,4.692506196502599924e-01,4.001438929881613316e-01,-6.544013705443739448e-03,-4.897207003305293314e-03,-9.348879999596972079e-03,9.580488502979278564e-02
7.413373797744537974e-01,3.745370268275100556e-01,3.409885047568936844e-01,-5.548676299818752940e-03,1.101161648969716661e-02,-1.969545268810388994e-01,5.145901441574096680e-01
4.834440252428972018e-01,5.185409400426617132e-01,4.163253877032461192e-01,6.513526469515050488e-03,9.367713068592664269e-03,1.251811460791302927e-03,9.212818741798400879e-02
5.443448555253407317e-01,6.738506362031513319e-01,2.778549996323360638e-01,-2.484115012907974623e-02,-1.690180124826280161e-01,-7.629422425036568034e-02,4.767761528491973877e-01
3.962446659123740056e-01,3.977158489818071185e-01,5.357140182359501068e-01,-1.015826111253834152e-01,-1.100941237485742906e-03,7.635621712955976796e-04,2.240784317255020142e-01
5.167833502489964648e-01,1.682854221704958020e-01,5.791775008404916880e-01,-1.016156024354327725e-01,1.111055329507113290e-02,-1.657796034875003502e-02,4.233911633491516113e-01
4.579413292390602797e-01,4.856809103977586806e-01,4.617878996750612863e-01,2.636838848491623605e-03,2.590854955655039552e-03,-5.452473366672735793e-03,2.842117100954055786e-02
4.669535556030598444e-01,3.567564402284194025e-01,5.202808280392635654e-01,-4.723234921177408424e-02,-1.287713041542238104e-02,-1.997385110209688383e-02,1.710284352302551270e-01
5.775302287515232669e-01,3.505181336541594028e-01,5.582468505862283603e-01,1.303739757063448849e-02,1.708023743092077634e-02,5.686965075218421845e-02,2.421081960201263428e-01
4.710332364323605026e-01,4.610937858910414411e-01,4.752408837661641350e-01,1.506531379266266152e-02,-1.252916038122847860e-02,1.138955313371137375e-02,4.122274741530418396e-02
4.186420756921688247e-01,6.773477293673024757e-01,5.839944839093794693e-01,-3.705271617902590204e-03,2.356791188451827501e-01,1.378353964751720118e-01,5.245601534843444824e-01
5.052385604228414318e-01,4.397675922889757727e-01,4.293313667506119535e-01,-6.999349745509156990e-05,-8.485120285811134384e-04,-8.059371014093456506e-03,7.263378798961639404e-02
6.445003217711962051e-01,2.075792089983289346e-01,5.803989388772059499e-01,9.827910013415436241e-02,-2.898467128178953967e-02,-2.089121251705069321e-02,4.469986557960510254e-01
3.879259864856720030e-01,5.264312153451121690e-01,4.966271071286947891e-01,-1.707685727852837915e-03,4.566569310693864570e-02,1.259956560813260337e-02,1.506154686212539673e-01
6.190784088717202760e-01,2.293236282417467353e-01,6.509763242609244438e-01,-1.265163893629886460e-01,-1.712529951050063837e-02,-9.722606864361639512e-02,4.925610423088073730e-01
6.294642882296743736e-01,2.714727391464600847e-01,5.178491006399806862e-01,-9.766427354332253563e-02,-3.662915545757364916e-02,-1.992871155320711241e-01,5.024387240409851074e-01
5.454289897775985718e-01,3.595788801304502513e-01,3.922849003447920757e-01,-1.390179008649682912e-01,-1.403230133667238977e-01,-1.728985585512425316e-01,4.860687553882598877e-01
4.778332955887091837e-01,3.811239289156813093e-01,5.111827070303456289e-01,-2.305998628435913106e-02,-7.022002122367673564e-03,-5.812798434585137938e-03,1.246381402015686035e-01
3.770437179797533345e-01,6.224170727850854012e-01,6.850712546458086472e-01,1.886579270909028161e-01,6.651023059273705740e-02,6.338171831052552552e-02,4.600057601928710938e-01
4.329817835270441950e-01,5.105804780719758185e-01,5.400355417921739454e-01,8.298386699004718647e-02,3.666366719445528222e-02,-7.637789418825586922e-03,1.845033317804336548e-01
4.883269235806199093e-01,4.665509086267854433e-01,4.633278801486179210e-01,7.683261599238593031e-03,-5.862518792653681129e-03,4.980508722770600125e-03,3.015607409179210663e-02
3.013866208361555277e-01,4.576081176327543298e-01,4.920093573378787055e-01,1.595797494794185811e-01,1.067577792697340933e-01,-5.026554271127100376e-02,3.861754238605499268e-01
2.949840640621742560e-01,3.717132097484735498e-01,5.643569143987046122e-01,-2.054300995815641073e-01,5.064308797524926659e-02,5.282793422706080766e-02,4.477180540561676025e-01
3.801313931459455731e-01,4.936200751273709941e-01,5.259731840893624444e-01,-1.148222437672321086e-02,1.358188852581602643e-02,1.455627228627876142e-02,1.385016143321990967e-01
4.709478768636395363e-01,4.164247839734128709e-01,4.914107933403371598e-01,-6.947323085231777405e-03,-1.182886862923377726e-02,-5.455735142386751446e-03,7.184050232172012329e-02
5.566944453831713657e-01,4.844099229364544623e-01,6.154860983775674033e-01,2.006837894560045688e-01,1.362707140460870381e-01,-4.733813554290761116e-02,4.429277777671813965e-01
3.291293896335284463e-01,5.489039486025294456e-01,5.650471034465927023e-01,-5.034599993171008647e-02,3.860065871434958940e-02,4.036387703313592396e-02,2.628140747547149658e-01
4.318534244074359041e-01,4.924334013538924082e-01,5.038626372836285672e-01,-2.226222434193900895e-02,2.332439933906737400e-02,2.399735741544872444e-02,9.664091467857360840e-02
4.139088577021275972e-01,4.861151118427665674e-01,4.952920908603305472e-01,-3.181226460082827584e-02,1.181721450584303015e-02,1.802841746964419997e-02,1.019346192479133606e-01
4.520741284236396984e-01,4.992253151684850621e-01,4.458135026303780002e-01,4.767166339607494668e-03,-1.199428005441483631e-03,9.486385237841629811e-04,5.131100490689277649e-02
5.690646065885769378e-01,7.295475513712690319e-01,2.825454115053832038e-01,6.505280908893944225e-02,-1.586602911398254656e-01,4.076839334568595208e-02,4.970216453075408936e-01
5.411539938118764548e-01,6.979821804565641274e-01,3.131374341395839478e-01,1.032473600510837863e-01,-1.679266181318774531e-01,8.225675307519710044e-02,4.992220699787139893e-01
4.101911681575767243e-01,4.810858534262679731e-01,4.917921401380094260e-01,-1.117331679825593962e-02,1.430525650750809688e-02,1.858686278588068258e-02,8.902002125978469849e-02
5.010366848314296018e-01,4.593378106152011253e-01,4.555213300687417366e-01,3.832533447934441222e-03,-1.227899036574631522e-03,1.165244217778269725e-02,4.866652935743331909e-02
4.886611723495751791e-01,4.691881074875905444e-01,4.337128166866157097e-01,1.198745510554623944e-02,-4.464990342622847039e-03,1.149659495321710134e-02,5.670917034149169922e-02
4.987703382102648408e-01,4.541007446324031305e-01,4.567202052836781823e-01,8.483787068720926531e-04,-1.385686711065641386e-04,1.935510188496605572e-03,4.357383772730827332e-02
5.336539598640638316e-01,4.875489113359983695e-01,4.105786753799102184e-01,1.175752807763358852e-02,-5.553671761017749293e-03,5.841225746624281040e-02,1.494725197553634644e-01
5.132929332184743565e-01,4.925968023981668886e-01,3.894934292107439799e-01,1.522806002699411167e-02,-1.682269883579821934e-02,3.619764454605472331e-02,1.366308033466339111e-01
4.988374942633604925e-01,4.601118016307564340e-01,4.580489815299585432e-01,7.608859392617542579e-03,-2.155405267080211674e-03,8.344475747269207086e-03,4.450090974569320679e-02
5.171990229693427255e-01,4.167792025305058212e-01,4.843789913264280877e-01,-2.229687709179281867e-03,5.470714866183742572e-03,6.395204429986155875e-03,8.996059745550155640e-02
5.147796699197401127e-01,4.849310979746084826e-01,4.119302344012652495e-01,7.130619689989210232e-03,1.656112697369103385e-03,8.181588572804614559e-03,9.359815716743469238e-02
5.719508726122279896e-01,3.165049806453644754e-01,5.616385898695736012e-01,4.781415907222363870e-02,2.752663242321136058e-02,-1.358627042425063734e-02,2.690914571285247803e-01
5.368445609479411962e-01,4.002621337584933436e-01,5.132549586233587924e-01,2.111556281406416075e-02,-6.170572790685674956e-03,4.021303414229316503e-02,1.493063867092132568e-01
4.690701366242770454e-01,5.024361984973211293e-01,4.441202989000023194e-01,9.044976302794499254e-03,2.326749736432088059e-02,1.523102841343056558e-03,6.666925549507141113e-02
4.487779665659730188e-01,4.915324301138677687e-01,4.508767464870714337e-01,2.352934795583941710e-03,-7.234618008130233200e-04,3.368513845719860525e-03,4.236551001667976379e-02
4.813891825634987187e-01,4.544405582225393148e-01,4.643730478877372558e-01,-3.128892241094745168e-03,7.777025892155163024e-03,4.781469118870710147e-03,2.892437390983104706e-02
7.135122960702739991e-01,1.970573682093863521e-01,5.715619689068140996e-01,-7.426669266064722663e-03,3.155954521356538200e-02,-1.915253117340915204e-02,4.667103886604309082e-01
5.388803267418804666e-01,4.630073016688727172e-01,3.565212395636362941e-01,-4.529848766023125521e-03,3.177663208812273044e-02,1.572703773669006655e-01,3.201064765453338623e-01
4.626090042233453326e-01,4.554556444022969108e-01,4.929123827892467613e-01,6.204024791597249596e-04,3.829235813625467624e-03,-1.067978644563165238e-03,3.513974696397781372e-02
6.948156671016042507e-01,6.913261421741118129e-01,2.633426407215836984e-01,8.822675281436534456e-02,1.145354422075541001e-01,1.417044371233986411e-01,5.546376705169677734e-01
7.224374896233268784e-01,6.605757289356644080e-01,3.171976689281081896e-01,1.032282915660128891e-01,3.627213397298397618e-02,1.826420064682613142e-01,5.281731486320495605e-01
5.850571839011281527e-01,2.579822305336055832e-01,7.280963938401624480e-01,-1.438153419113964437e-01,5.779107985997936070e-02,1.887964528114523949e-02,4.973530769348144531e-01
4.976224777121890930e-01,2.105273171173113744e-01,5.547161652343155502e-01,-1.666177860474335193e-01,-1.560975226748268982e-02,-4.147801427728542434e-02,4.373229742050170898e-01
6.640019685419805695e-01,4.475964068993658618e-01,5.574700162885183330e-01,-3.343933001907915120e-02,1.340706710665836299e-01,2.063618406252643034e-01,4.692135453224182129e-01
5.658520085392534371e-01,3.204482868762048575e-01,5.534852601140940465e-01,4.056597305746868082e-02,1.850204553684341863e-02,-3.332304059040745725e-02,2.581397294998168945e-01
5.378878568442586605e-01,3.885540856985084668e-01,4.742163637783358143e-01,-5.180024219598714300e-03,-1.670481345806528730e-03,-4.780035475254158089e-02,1.542394906282424927e-01
5.397866536161912698e-01,5.009275121390327490e-01,5.982132688096548634e-01,2.203388891018787377e-01,1.521244655517469124e-01,-5.724063570499825920e-02,4.817642867565155029e-01
5.092849952663343061e-01,4.682531988078627028e-01,3.976067938012560199e-01,3.922365379071888060e-04,-2.112696896385031151e-03,-1.037270212560982216e-02,9.954849630594253540e-02
5.198298374018042178e-01,3.994917483764509059e-01,4.677078320836541847e-01,-2.902353204585652550e-03,1.725534098717886869e-03,-1.065245984497366002e-02,1.063029840588569641e-01
5.706147404266481704e-01,2.361484254092388047e-01,5.403589540028681526e-01,-1.931192753890135366e-02,-2.101634733299173954e-02,-1.699587055942810843e-01,4.379102587699890137e-01
5.884618287125521485e-01,2.271409032466804034e-01,6.738923228952937716e-01,8.137671506927547649e-02,8.611832302943879525e-02,-6.033270295399795202e-02,4.709084033966064453e-01
4.565532532451463954e-01,5.021624850435917331e-01,4.509028073450006002e-01,6.542273805542776939e-03,7.042653253685682117e-03,-2.608217895694571378e-03,5.164737626910209656e-02
5.529756202772661000e-01,6.265646821831027946e-01,4.767695192274566951e-01,1.484984270223327629e-01,2.118023042400812017e-01,-6.630003417967376966e-02,4.803683459758758545e-01
3.336354527898878208e-01,5.263469434589783669e-01,5.982858385216963670e-01,1.303537067583267206e-01,5.051915066063562831e-02,-4.346442906471685574e-02,3.470974862575531006e-01
6.312361047636808609e-01,6.393982791423766798e-01,3.348007201420041823e-01,1.134083069607787209e-01,1.862752793610947255e-01,-9.269013893009991900e-02,5.087379217147827148e-01
4.615130299824536375e-01,4.871332323744950732e-01,4.528521297952400326e-01,5.945013370533543812e-03,5.515421923659167766e-03,-1.335639367676171854e-03,3.399913012981414795e-02
5.070693774144016119e-01,4.246720652512012695e-01,4.482451514873692644e-01,-2.460187943894561868e-03,-4.708060817233890825e-03,-6.389587590508425535e-03,7.489848881959915161e-02
3.390325565257669149e-01,4.720597731379473916e-01,5.182160291619466452e-01,-7.242386863785399420e-02,-2.211219443220147421e-02,-1.508780288556213836e-02,2.094089388847351074e-01
5.137033276242145563e-01,5.084351351190230517e-01,3.611185499798096332e-01,3.408175704483063298e-03,-7.983571216458724929e-04,2.893224986974252122e-03,1.502261459827423096e-01
4.586555189044190795e-01,4.915331800109380977e-01,4.600947697166034023e-01,1.536294607664775167e-03,2.127939684088895039e-03,-8.266044626138654983e-04,3.253317624330520630e-02
4.698181176623106858e-01,4.851898179040615156e-01,4.339559292052648232e-01,1.256553532102206057e-02,1.070732507222379656e-02,-5.550111546634472863e-03,5.462305620312690735e-02
4.687234942499823309e-01,4.946234471139807631e-01,4.310613366252363243e-01,1.207663050951384223e-02,8.670975466660782102e-03,-5.437090038993816314e-03,6.177760288119316101e-02
4.695554881563003824e-01,4.615680138996282600e-01,4.759632031181417200e-01,2.863874039805510644e-03,-5.490111916036240561e-03,1.425653623976398145e-03,1.664832606911659241e-02
5.138750300062420173e-01,4.864297258070153229e-01,3.852802739114866148e-01,1.963534035371974906e-02,1.011942113163171418e-02,-2.133397326472902603e-02,1.288013905286788940e-01
4.695726315193015643e-01,4.743421891363741594e-01,4.584665557053838048e-01,5.563052829061523180e-03,3.163170647443019640e-03,-3.170331510460130519e-03,1.876372285187244415e-02
4.634175267732228987e-01,4.660524770816805717e-01,4.613180607868466176e-01,7.850471505460593011e-03,9.966191647285085886e-03,-5.531913081649420146e-03,2.432187274098396301e-02
4.970680540299418082e-01,4.408607478439204308e-01,4.600976675788214232e-01,1.721428660345133499e-03,3.920444817814935055e-03,-4.924103111818621190e-03,5.075238645076751709e-02
4.507659553898226146e-01,5.160079257706273737e-01,4.169171177550020646e-01,1.570973594525280556e-02,5.180471501092702435e-02,-1.456398161213200669e-02,1.305316984653472900e-01
5.374084672323270473e-01,5.344315697828828648e-01,3.091435343219806064e-01,6.682119648124862192e-03,3.956106807612064062e-03,8.258161181303536394e-03,2.276394367218017578e-01
6.129044973763615456e-01,6.804709672792751407e-01,3.440640530508242145e-01,1.091563540352457132e-02,2.124503867676277302e-01,1.080619690235344460e-01,5.155580639839172363e-01
4.521613271086498131e-01,4.808844780126303453e-01,4.726783281411805482e-01,4.269182101921928200e-03,5.538295997203296003e-03,-7.782051885478959152e-03,3.138519823551177979e-02
3.604867897431119905e-01,4.964691600759903456e-01,5.182409274335290084e-01,-8.303393624806537296e-03,2.150516378057381120e-02,7.859477234962409034e-03,1.539654582738876343e-01
3.215119676755722189e-01,6.273024952317720615e-01,6.574122821755856716e-01,8.715119589447453685e-02,1.364670583094991785e-01,8.734068700903058202e-02,4.529488682746887207e-01
2.471629509852653339e-01,6.123048027804627313e-01,5.270931381356884771e-01,-7.601660056595783976e-02,8.611558689544430989e-02,2.585361763818245021e-02,3.886691927909851074e-01
4.628180162723122826e-01,4.921686747925460015e-01,4.556460022560684942e-01,4.194349266392395116e-03,2.355835106964291399e-04,-3.957348720323929266e-04,3.430475667119026184e-02
4.973523737191234417e-01,4.497331709009196321e-01,4.279878147131688237e-01,-7.636465237197030513e-03,-1.783953844413762452e-03,-3.723072723348501770e-03,6.326154619455337524e-02
3.815583793719314887e-01,4.870074223928318458e-01,4.087428070802548441e-01,-1.338685654932675606e-01,-2.221183454714878436e-01,-1.301174750418238324e-01,5.114251375198364258e-01
4.609111649957930434e-01,4.583836009513353460e-01,4.876158833357957523e-01,3.346852996907840119e-03,-3.986704742064047131e-03,2.456367415580681078e-03,2.977272868156433105e-02
4.444574581135131153e-01,4.700788895175724291e-01,4.828765433198351498e-01,2.867602553559789498e-03,-4.843107012245292595e-03,1.021872704290639929e-02,3.945168480277061462e-02
4.826463710970377297e-01,5.247627749572230105e-01,2.595110413327490484e-01,-4.552196826081264525e-02,-1.473499242894518446e-01,-1.146975265764164365e-01,4.144636690616607666e-01
4.780870424270367569e-01,5.179074212206365990e-01,3.870250261518920487e-01,-7.739055854884102637e-03,-1.882136697170796319e-02,-1.410211549217785069e-02,1.238672584295272827e-01
4.953464866460404736e-01,5.162996616854924614e-01,3.741299660884584433e-01,-6.544624605328419088e-03,-1.107553342225188302e-02,-1.872565560299358639e-02,1.386391073465347290e-01
6.394233691905436556e-01,4.957732803563266177e-01,2.254093402560711223e-01,-4.195148104026071023e-02,-8.191280084521723737e-02,-1.057829943397121802e-01,4.376629292964935303e-01
5.129354057547125256e-01,3.967278785449003253e-01,4.695116636234452634e-01,-4.191283371559398341e-03,-7.520082255099126700e-03,-1.015006087928463710e-02,1.042836084961891174e-01
4.043620156497026441e-01,5.260567040899116753e-01,3.183295826819709795e-01,-7.632983515005134501e-02,-1.764126951528988130e-01,-9.538848200271174416e-02,4.133047461509704590e-01
5.320990317144169701e-01,5.370129087187850425e-01,3.081217984199472459e-01,-2.199127487146847974e-03,-4.081715931636336475e-02,-7.595599623018250458e-03,2.376473248004913330e-01
4.859239815644021410e-01,5.283792838804348690e-01,3.771362577968893071e-01,4.714933832214854900e-04,-1.954430305835399076e-02,-2.169132436312718425e-03,1.393433064222335815e-01
5.020525779499044328e-01,4.925908682491587642e-01,3.855175993994562345e-01,-1.749284574629024827e-02,-1.488460608389400447e-02,-2.002496459812213095e-02,1.239070445299148560e-01
4.698204608837258101e-01,5.063499238194170138e-01,4.249160590297826889e-01,6.841806005688120737e-03,1.218444819063349387e-02,-2.595807932071769481e-03,7.481423020362854004e-02
5.067399475104275020e-01,4.761142243016445730e-01,4.169324764937646921e-01,1.250699988637122249e-02,2.297884247712245285e-03,-8.051611077102373282e-03,8.326163142919540405e-02
7.298898714534968191e-01,3.668836497836254762e-01,4.130477456137993109e-01,3.081534440193583330e-02,2.329933061287991006e-02,-2.209838132672549971e-01,5.178084969520568848e-01
4.764145589021854255e-01,4.561284238012229819e-01,4.685058434191895493e-01,1.020059709526695974e-02,8.900556922433590021e-03,-1.039943248272605196e-02,3.446590527892112732e-02
4.373446198452021760e-01,4.910075989414577347e-01,4.685050979528019299e-01,4.454193313560388980e-03,1.065893307516709888e-02,-7.895175884435898586e-03,5.259169265627861023e-02
4.849775709823934133e-01,5.190782981087093129e-01,4.263617199686375869e-01,5.133596380118122561e-03,1.911802312529504999e-02,1.929244058574973745e-04,8.816570043563842773e-02
5.277354989112745809e-01,4.102436076187524483e-01,4.618179954475856164e-01,1.939105077228905558e-02,2.788881687844650681e-02,-8.753029732005321306e-02,1.919654756784439087e-01
6.781710053855316556e-01,2.694634579978742450e-01,5.363971688565856155e-01,-6.751269670456926109e-02,-1.050165081788452699e-02,-1.679590340719847863e-01,4.773186445236206055e-01
4.571666937541128961e-01,5.006607222442253091e-01,4.516492085432826653e-01,-1.310466595065364970e-03,7.065164383843349112e-03,3.020687752973829319e-03,4.841927438974380493e-02
4.335741770461346567e-01,4.898553179092957621e-01,4.747355320274579404e-01,1.118974585341851041e-02,-1.763520696265356499e-02,1.201514151333595362e-02,6.547472625970840454e-02
5.213134367532707980e-01,5.264594370677190271e-01,3.079549774009791574e-01,8.254586986261785303e-03,-4.273438971424273897e-02,-6.417235967131292018e-03,2.290259748697280884e-01
4.663449919308957359e-01,5.056456461484418741e-01,4.243318259009859483e-01,6.673647451216212396e-04,1.541192829627365674e-02,1.255993125668895382e-03,7.536208629608154297e-02
5.698228457092971988e-01,5.703176348631369130e-01,3.236517926996000938e-01,1.598092952663217672e-02,-1.495444543609278192e-02,-4.269671092489522868e-02,2.600544989109039307e-01
5.015832796792754067e-01,5.106829415668540095e-01,3.847274207266090928e-01,-6.842457711874619722e-03,6.229954450941140032e-02,4.094152789136129567e-02,1.778039038181304932e-01
4.307425450718455062e-01,4.965785684596208949e-01,4.381912876341971241e-01,-3.805974868389549234e-03,-6.174894876911822018e-03,-4.047941479603122186e-03,6.408175826072692871e-02
4.971183879955320406e-01,5.280085366882720788e-01,3.582946828039498266e-01,3.952677086503013013e-03,-1.127024629709726805e-02,-4.635605887027997168e-03,1.581356972455978394e-01
6.104577223979767986e-01,5.713941723695610264e-01,4.867632938207987481e-01,1.578067920858903794e-01,-6.128575504736680224e-02,2.263435805744597462e-01,5.016626119613647461e-01
5.080862057515772578e-01,5.169366647192085162e-01,3.901562493203609705e-01,1.254228168304843787e-02,2.615788618874114249e-02,-4.575599102823009294e-03,1.327289640903472900e-01
4.434759137299377207e-01,4.747171904949008536e-01,4.800098315470216481e-01,4.572462664778461673e-03,-4.038417206485157840e-03,1.148164813531719376e-02,4.094522818922996521e-02
5.135143384716982506e-01,5.197700308581848505e-01,3.160976532080419510e-01,-5.310887442486172949e-02,-1.536877338261998238e-01,-1.772144916160730554e-01,4.623675942420959473e-01
7.480507654157182440e-01,6.272970685658291190e-01,2.135008178583853722e-01,7.268178318479973088e-02,4.418101238163747724e-02,-7.970069330798290608e-02,5.258675217628479004e-01
5.200142126555636901e-01,5.234867176634372399e-01,3.450815015729681301e-01,1.163889998895695048e-02,-6.085929681144740776e-03,1.405039358267006280e-02,1.798074394464492798e-01
6.816304693251165059e-01,6.911271970368682016e-01,2.322102362471439863e-01,6.605712939338106993e-02,3.663504667920212954e-02,9.594448593981866336e-02,5.010686516761779785e-01
5.639042972156560474e-01,3.047097298278443889e-01,5.408431086058476112e-01,-4.667183747158319684e-02,8.860822866195917913e-03,-6.193331141336930190e-02,2.828671634197235107e-01
5.502819917878039035e-01,5.273759680009103556e-01,2.926963693415995937e-01,6.931843650824423900e-03,2.425954308399263723e-02,-3.981865800397040717e-02,2.600789964199066162e-01
4.542325167068450020e-01,4.895694081430088662e-01,4.733501189352584682e-01,-8.632190329519449576e-03,1.264661032225978740e-02,1.427914617635635958e-02,4.747271165251731873e-02
4.652608004061008495e-01,5.334073292569347924e-01,4.746922913897246854e-01,-9.612401043092085040e-03,9.965522874077857585e-02,2.594408881377562384e-02,1.902108192443847656e-01
5.553898024604426720e-01,3.601568986516350268e-01,5.430664292658011760e-01,-2.142218664976647952e-02,2.383207391716174114e-02,7.157136036215412667e-02,2.330447137355804443e-01
5.665233489761426489e-01,3.753602395109627565e-01,4.949515678670137753e-01,-2.090688419719228825e-03,2.332965907786945653e-02,4.128854644486176090e-02,1.863977909088134766e-01
5.296280310125202062e-01,6.248888296416966748e-01,3.223059677519850563e-01,-5.223934659345905868e-02,-1.880333131986219874e-01,-9.888189700705936336e-02,4.641077816486358643e-01
4.966251181601086251e-01,5.059943829307871344e-01,4.074144908640273677e-01,1.051103613519993769e-02,-7.106517652276246599e-03,3.060176871714074143e-03,9.691854566335678101e-02
5.196931572805313371e-01,2.973312455896278683e-01,5.122819948593522188e-01,-6.649081420664332276e-02,6.338544049591879337e-02,1.276401627469817279e-01,3.493480384349822998e-01
4.856635331452235915e-01,4.482722502446260804e-01,4.688973015317588477e-01,-5.672589968195776433e-02,7.385706478849975165e-02,4.125176007001812861e-02,1.793753206729888916e-01
5.824694881716818706e-01,2.975298072355867518e-01,4.123639072872303801e-01,3.096845665713611473e-02,1.111691817825369126e-02,1.791590516179194237e-01,4.014953076839447021e-01
5.591161482524840132e-01,4.179201582514938118e-01,5.893322226341956016e-01,-1.941107762963705310e-02,8.501940103804357662e-02,2.470478518893391151e-01,4.806546568870544434e-01
4.562675859881774598e-01,4.294464707153173855e-01,4.628553599370552885e-01,-2.486407611416152283e-02,-2.526422843609620050e-02,-2.142357076968417345e-02,7.801205664873123169e-02
5.343926440426439717e-01,3.195460484433086390e-01,5.136906089473627368e-01,9.713237222192864367e-03,1.580919948147931076e-02,-4.101252489370979526e-02,2.195877730846405029e-01
6.811167996524737367e-01,6.448985518307408515e-01,3.198863408166402467e-01,8.125094249240311095e-02,5.906585909290139325e-02,1.659971434686795255e-01,4.813031256198883057e-01
7.443918109034675101e-01,4.939258778389725157e-01,3.184170859904473794e-01,1.201248584739493530e-01,3.483245423203228802e-02,1.676251080110630620e-01,5.183819532394409180e-01
3.484462482049108800e-01,5.331770314288657442e-01,5.347990408749623281e-01,-2.809302586173961867e-03,6.459910601303529669e-03,6.484123471691547423e-03,1.862866878509521484e-01
3.493148530708821142e-01,5.281588733358887344e-01,5.332527201228992597e-01,-1.002039992607441435e-02,9.754584375044349914e-03,9.163590934544578112e-03,1.837409287691116333e-01
4.351960728128390077e-01,4.705560507137800386e-01,4.968556885165784087e-01,9.208392797201940885e-03,3.839556965722585279e-03,-2.989511830921987284e-03,5.654533952474594116e-02
3.504260512348724710e-01,5.807152007713913822e-01,5.319866942770490326e-01,2.944998098965615624e-02,2.892675120112730980e-02,6.668726594595031018e-03,2.223319709300994873e-01
2.911442752084723029e-01,7.038993590386546373e-01,5.877403820278624957e-01,5.674687621814882704e-02,-1.610697458410706995e-01,8.718205849308929833e-02,4.961931109428405762e-01
4.353524414090810257e-01,4.879205483499676754e-01,4.695024614644938699e-01,6.030987072543658387e-03,-1.090698704017636390e-02,1.511494697586790795e-02,5.732205510139465332e-02
3.434268419631042457e-01,5.388675752638494298e-01,5.193547399996508718e-01,-5.468683252433605060e-04,-1.053762714985147925e-02,9.201921737534339216e-03,1.880220025777816772e-01
3.990635998976373444e-01,3.704686038203439669e-01,5.473238819414654177e-01,1.511905009062548821e-01,-1.205259111427602059e-02,4.370306358117139606e-02,3.190292418003082275e-01
5.697982983742415630e-01,6.901302771690077664e-01,1.784137404595256826e-01,3.846490606578265026e-02,-2.493158560071055685e-02,8.209398455031768904e-02,4.912019968032836914e-01
2.777879833507791996e-01,5.310406124465141264e-01,5.287413795289930274e-01,-5.357387435118805483e-03,-2.354310129231544299e-02,7.664503205135551368e-03,2.559005022048950195e-01
3.373317870375500127e-01,5.214867036411675594e-01,4.916267462123827259e-01,-2.564693329191070504e-03,-5.469058143160600294e-02,1.271539327100398506e-02,1.969358921051025391e-01
4.703364104629819686e-01,5.253342839668468933e-01,3.662644046455583169e-01,-9.369081842907455229e-03,-5.578955934467828143e-02,-2.285525440448045106e-02,1.753491908311843872e-01
4.600815569464824506e-01,4.086287479057264527e-01,5.757765384135627995e-01,-1.012464108675611429e-01,-2.467948961054201515e-02,-3.185815338293443433e-02,2.400210797786712646e-01
3.606456823805351819e-01,5.230419925876108600e-01,5.299373639924130908e-01,5.195204594884774178e-04,1.013939821972455885e-02,7.439207513773332670e-03,1.673772633075714111e-01
3.695294362945380495e-01,5.213762181238448257e-01,5.301255359799534883e-01,1.339249492839363412e-02,1.068836784332064839e-02,1.011653031880479191e-02,1.601573675870895386e-01
3.590115472667664287e-01,5.270547387068408307e-01,5.304891502724332630e-01,3.836871148826673933e-02,2.662766027917445183e-02,1.274389268466902779e-02,1.893626898527145386e-01
3.442516620369527880e-01,5.444395879002146277e-01,5.304812223799000304e-01,1.307480514432410659e-02,3.038026479602416730e-02,1.445856217942685304e-02,2.034321278333663940e-01
3.506051058048330615e-01,5.199920974876146573e-01,5.231040649687397348e-01,1.307324404848705067e-02,2.229933737916939274e-03,1.104325020187961644e-02,1.735576838254928589e-01
5.452946597587505773e-01,6.320275467735380071e-01,5.031574575147133022e-01,1.937480555633095680e-01,-1.023003961499141523e-01,1.869742937959378293e-01,5.117050409317016602e-01
4.200130006617449063e-01,4.870077059793111451e-01,5.260380852832353682e-01,1.035087285046732038e-02,1.860785397989236228e-02,1.118960120316397737e-02,1.017953306436538696e-01
4.658940810143878952e-01,4.615489258271844308e-01,4.785616285852200558e-01,5.740852271041990348e-03,7.088267536169767964e-03,-4.345766788167389899e-03,2.325186878442764282e-02
4.234920143950003379e-01,4.874338280416132818e-01,4.940024154917918020e-01,5.177533036160081661e-03,-4.025377296999396552e-03,1.104116132048806216e-02,7.103845477104187012e-02
4.495555106642400989e-01,4.729314833754718062e-01,5.021678056495894049e-01,2.370083272334911478e-02,7.973213888207993094e-03,-3.662203819511140965e-03,6.325160712003707886e-02
4.162710983902203621e-01,5.080147336845817208e-01,4.671645419105617814e-01,-3.537413898356763539e-04,-6.387222620743801538e-03,3.167255383871490589e-04,8.038005977869033813e-02
4.470948381097050728e-01,4.520277145621849901e-01,4.677534053377713774e-01,-2.045415730130431455e-03,-2.400390538060585312e-03,-5.127112561316446090e-03,2.139864861965179443e-02
4.488068243246945976e-01,4.506027259218239878e-01,4.674238480226103887e-01,-1.331412508504872024e-03,-1.954607835654558704e-03,-4.063577045099922569e-03,1.956276781857013702e-02
4.442304230520624508e-01,4.447577715012098754e-01,4.760622694766076801e-01,-1.955780217716873454e-03,-3.948869130914409338e-03,-2.072777211887253442e-03,3.267878666520118713e-02
4.326787915070818280e-01,4.888786532608445090e-01,5.191008519743217642e-01,2.521601520754791770e-02,5.740593812962831166e-03,1.411974459912131684e-02,9.151390939950942993e-02
5.124232821526263360e-01,3.254085800910754278e-01,5.885948551715622923e-01,1.782824358873670301e-01,-7.075215472490052615e-02,8.850199010555408197e-02,4.346160292625427246e-01
4.920569343498159554e-01,4.599483275841516616e-01,4.544884945042167446e-01,-3.280237946305452159e-04,2.470533822608812682e-03,3.426922017569614381e-03,3.591580316424369812e-02
5.321554149035444548e-01,5.377810814673386064e-01,6.184868750742438248e-01,2.083867009824991456e-01,-5.415037582968146995e-02,1.507846098642507959e-01,4.629027247428894043e-01
4.500716420195268741e-01,4.450106809432901045e-01,4.759424255762410572e-01,-1.803249416591534747e-03,-1.301710242306221288e-03,-2.078803564933401869e-03,2.921719662845134735e-02
3.503272154971014407e-01,5.177277212700289732e-01,5.073342453471012536e-01,-7.193861729411735184e-03,-1.870125721123387999e-02,-3.620356343771070993e-03,1.662373840808868408e-01
4.334448597787744495e-01,4.980213290077112331e-01,4.306035269968787604e-01,-1.174611917442089891e-02,-1.614799845439369996e-02,-1.285530152258416818e-02,7.780514657497406006e-02
4.234609598941125319e-01,4.861445602336053606e-01,4.947060851618206856e-01,5.390221768823927860e-03,-4.146755126205622574e-03,1.076787308636802977e-02,7.089281827211380005e-02
4.588476981836046575e-01,4.572277631983516777e-01,4.954966276252079638e-01,-4.392389025528516368e-08,1.224202819835464029e-03,1.336262411667391101e-03,3.761635348200798035e-02
4.853503544374527245e-01,6.843990728830253722e-01,2.903182244976347803e-01,1.193376775792405198e-01,-1.456173576155861404e-01,5.334026893912566236e-02,4.809907078742980957e-01
4.371423438362909697e-01,4.861535457941262850e-01,4.791325687880269024e-01,3.437502057113189010e-03,-4.816555465082714670e-03,1.164598474246573111e-02,5.117831006646156311e-02
3.952913757923465776e-01,5.253823282673595330e-01,4.741280993784973696e-01,-1.318652022027188078e-02,-4.362340065827827185e-02,-6.788982509231449372e-03,1.387511044740676880e-01
3.388280283410367577e-01,5.382658567611589007e-01,5.027135435012969333e-01,-3.693146193785825943e-03,-5.377597991966048124e-02,-6.070706523454905872e-04,2.065587788820266724e-01
3.831117153283281618e-01,7.072026773827440049e-01,5.378036889992966474e-01,1.318165948620682593e-01,-1.529364938798172258e-01,1.329721652045120772e-01,5.041533708572387695e-01
4.825196824110503657e-01,4.466657078248934543e-01,4.823834076105197877e-01,4.922959458610508265e-03,-6.843009980386649191e-03,4.650725886847237658e-03,3.948056325316429138e-02
4.605829035753108425e-01,5.154006875854160175e-01,4.143007389619984826e-01,-3.794786807276959162e-02,-6.374399709417345739e-02,-3.261000694415085860e-02,1.654822230339050293e-01
4.886687241601728737e-01,4.247763223756884088e-01,4.887378142972642059e-01,1.242528182166469444e-02,-8.488432730296261580e-03,1.105904228365302451e-02,7.164417952299118042e-02
6.571171250761767002e-01,6.252180392110049389e-01,3.796898988749423109e-01,1.175368287463695316e-01,-5.220048151339567316e-02,1.859744770638679656e-01,4.717124700546264648e-01
3.634690559788161246e-01,5.174396954066592391e-01,5.074840342248315705e-01,7.420868839741819219e-03,-1.749137293877442434e-02,7.674921894494737308e-03,1.534045636653900146e-01
4.946532217828092381e-01,3.827157290293067837e-01,5.293581252923115210e-01,-8.506673240115749518e-03,1.375557993110610236e-02,8.803892406945628898e-03,1.365154832601547241e-01
3.517219257031666269e-01,4.836836756617547972e-01,5.215263395737815832e-01,-6.366673125382792120e-02,-7.368544085984142511e-02,-3.247637566869560066e-02,2.354843765497207642e-01
3.105911930948034305e-01,5.300124005080718570e-01,5.316474799538113416e-01,-3.775712296037303517e-02,-5.802599340226483743e-02,-1.646739977773889821e-02,2.523855865001678467e-01
4.717305225948021374e-01,4.594265075891219574e-01,4.742541369917847582e-01,9.378010403191677086e-03,-7.031193911128566509e-03,1.147681115077944097e-02,3.156127035617828369e-02
4.725479153375908292e-01,4.634402833544055689e-01,4.724886569271207204e-01,1.491555846169408074e-03,-3.267963021248022903e-03,1.080350641025584063e-03,1.116365566849708557e-02
4.105762716051195582e-01,5.064902448362390563e-01,5.064512415505273424e-01,-1.907449912351756038e-01,-1.670548088898464734e-01,-1.265509821896534659e-01,5.001140832901000977e-01
4.064904255360179408e-01,4.779770262088547383e-01,5.696894560018913589e-01,-9.405338624589497376e-02,3.549520048982475473e-02,3.554200031070740839e-02,2.327772825956344604e-01
4.721120138935760435e-01,4.663768754325014476e-01,4.670417344165295193e-01,1.136599419911529015e-03,-5.658220124731676856e-04,6.654032399481780383e-04,5.973701830953359604e-03
6.964858141996815855e-01,4.175652820389078590e-01,5.865317979269921711e-01,5.431757333123608117e-02,6.826314531773140792e-02,2.038926594543933601e-01,4.547147750854492188e-01
4.945885507543752446e-01,3.735249957787957764e-01,5.191041821974131665e-01,-1.092815930403000409e-02,8.619817077866999411e-03,-9.007020466155292232e-04,1.371457725763320923e-01
5.253085060258555483e-01,3.258732182977873704e-01,5.101160135531930262e-01,-5.879475605752345485e-02,-3.383672357019298915e-02,-1.103885025747313731e-01,2.955290675163269043e-01
4.893987788916286941e-01,4.708597033240141672e-01,4.503246125035642589e-01,9.341252590172809470e-03,-1.880614475348505420e-03,3.181663543952681014e-03,3.806369751691818237e-02
4.889040722691965768e-01,4.643021897642423124e-01,4.577059514277560526e-01,6.024761931611125922e-03,-3.934567119446440511e-03,6.697594115097254067e-03,3.318059444427490234e-02
4.538667723879641347e-01,4.906023972112940612e-01,4.624040660671394631e-01,-1.433513430525452503e-03,4.038006830249222037e-03,6.611089920856947667e-03,3.598568588495254517e-02
5.897345755277917378e-01,4.533195660547266193e-01,5.767384580363166258e-01,-6.373537594044116628e-02,1.371667243590858898e-01,1.883798707512046589e-01,4.382884204387664795e-01
4.577699382680699980e-01,4.847430374900210670e-01,4.570931821973306386e-01,7.435633908030689354e-03,-6.273527593168842266e-03,6.044564271190583545e-03,3.376104310154914856e-02
4.921034800415897692e-01,4.666040318041752011e-01,4.519327670896316484e-01,-2.898125165619238035e-03,2.915406788981126686e-03,4.037447108142072118e-03,3.659475594758987427e-02
5.193820633591460512e-01,3.360701277431675793e-01,5.189381868758311533e-01,-1.006801360008438735e-02,1.099033095608309375e-03,-9.267089989307048664e-03,1.846278756856918335e-01
5.792309634593324486e-01,1.849731122625297153e-01,6.266827457929051715e-01,4.512805324749576824e-02,-3.375031670418300600e-02,3.692548042869406300e-02,4.359088242053985596e-01
4.820507237325397654e-01,4.620634150541822471e-01,4.640620868676074706e-01,2.545237240177569346e-03,-4.053540304759958813e-04,2.217503145849736811e-03,1.995541900396347046e-02
4.794734669939613170e-01,4.657520312319591849e-01,4.641169768517495187e-01,3.237240984616062897e-03,-2.761174299278888050e-03,-1.397082064326715308e-06,1.636147685348987579e-02
5.486192766752372441e-01,4.010722649478214996e-01,5.261056235497553191e-01,8.155437006471034922e-02,-7.742791036228281742e-02,1.446481176118488698e-01,3.459233939647674561e-01
6.876436940039113432e-01,2.951778105440903133e-01,6.963845329887088376e-01,1.426545359928684531e-01,3.909610719635673443e-02,6.829689798837698667e-02,4.869971573352813721e-01
5.768343436918469402e-01,3.114028595191838944e-01,5.266780784184998954e-01,1.079039152503555744e-03,1.953939027483391454e-03,2.505401415088524819e-02,2.481018453836441040e-01
5.309265873309565453e-01,3.446429183118113193e-01,5.277266734672584336e-01,-2.686967433089884009e-03,5.774318550759218252e-03,-1.060573412432561828e-03,1.850427389144897461e-01
5.217420988633545420e-01,3.749563824227261088e-01,4.764585913239709480e-01,1.612185363810174354e-02,9.923266519524225754e-03,-3.713221475388595039e-02,1.488664895296096802e-01
7.504302392182511383e-01,2.761226923943903566e-01,5.428613727559011837e-01,6.337418464632177395e-02,7.147455402221415677e-02,-1.610172757589080073e-01,5.241711735725402832e-01
7.223399615297360077e-01,4.886212306999317412e-01,3.812739342913447071e-01,1.174650551502493395e-01,9.623491149879996598e-02,-1.907231584236943056e-01,5.191729068756103516e-01
5.362650997418595411e-01,2.581640644676558849e-01,4.708779130458302653e-01,-1.099917852661154716e-01,-6.216953150202379069e-02,-1.612230878636170261e-01,4.350859820842742920e-01
5.189971887900026726e-01,4.575353039732908411e-01,4.512382588451918641e-01,3.071530756904488485e-02,3.342045561368137824e-02,-4.304195312025629883e-02,1.262661665678024292e-01
4.731559788859081572e-01,2.766981388460087454e-01,5.124365440084748258e-01,-1.540623004457310485e-01,-6.286910606124475331e-02,-1.205988205126927865e-01,4.177930057048797607e-01
6.279612332537121144e-01,3.569073874047704598e-01,6.831757921586425475e-01,1.671563514153909802e-01,1.009032624029044117e-01,-3.354571642471469717e-02,4.574156105518341064e-01
4.687825925462677512e-01,4.419931965135814322e-01,4.457254443084812112e-01,-1.164781123170990570e-02,-1.133895031754967968e-02,-1.293455762939693665e-02,4.388912022113800049e-02
6.977516381180000060e-01,1.870078143120590952e-01,6.940359964892849343e-01,-4.526265961610028560e-02,4.825369707778619927e-02,-8.330790349628180991e-02,5.412275791168212891e-01
4.836177149311348122e-01,4.290604097729470712e-01,4.977842555214470055e-01,6.899888139249287303e-03,1.016093187394000001e-02,-2.880920825665218409e-03,6.653974205255508423e-02
5.457311035843334102e-01,3.601740697847014561e-01,5.562570216427999981e-01,4.127400690522420312e-02,2.863013306898936142e-02,4.114592893409827618e-02,2.216844856739044189e-01
5.098007286942692895e-01,3.835199656079392172e-01,5.132226192006991150e-01,5.818175323123316381e-03,1.309081886443542661e-02,-6.577408046389367907e-03,1.309049576520919800e-01
5.404017668499614402e-01,4.070685758787439545e-01,4.121288069443962976e-01,-4.176349244591045433e-04,1.078415207469215521e-02,-8.092032158519285590e-02,1.926716417074203491e-01
4.933032929165464542e-01,4.216640538810271788e-01,4.427781738570312209e-01,1.854242153039005123e-02,1.807409685655324630e-02,-4.354176110182107068e-02,1.084643974900245667e-01
5.759486387629437765e-01,2.343790078946630384e-01,3.820055404188483772e-01,-1.151350342309476193e-02,-1.886087752980685622e-02,-2.169342229323114879e-01,4.802967011928558350e-01
5.401140193969541370e-01,2.999916082647959836e-01,4.922306966945453333e-01,-9.615363229236259524e-02,-7.249276144374577902e-02,-1.904537575213640366e-01,4.480778872966766357e-01
5.495699471536205083e-01,3.029289429944687084e-01,3.747786882430284017e-01,-8.905445097897643492e-02,-6.842147023597948408e-02,-1.939186189240255098e-01,4.460077881813049316e-01
3.361323977496378790e-01,5.216559782900780373e-01,4.765532511438291263e-01,-2.212261192195737712e-03,-5.263250112954408894e-02,1.157034602895619380e-02,1.918657720088958740e-01
7.429491873400181357e-01,2.289564995843809680e-01,7.011777167337547301e-01,5.877112266924231637e-02,8.340539439117025666e-02,-4.540085296394270192e-02,5.309221744537353516e-01
4.950971106502392582e-01,4.327840330055134910e-01,3.630541400923381623e-01,1.044393036829808497e-01,1.408216177440684835e-01,-1.324312543531454556e-01,3.973905742168426514e-01
7.395133842728285334e-01,2.683832558830741011e-01,5.680042660999051751e-01,2.610507792690418966e-02,5.494423076442511017e-02,-1.426257174782613324e-01,4.926491379737854004e-01
4.765875307893436830e-01,4.622179338165944285e-01,4.596538454987976197e-01,6.461164026420980130e-03,6.900258939555085035e-03,-5.844035965455829026e-03,2.490870654582977295e-02
4.778555632651747542e-01,5.112588536649206317e-01,3.772195887797499814e-01,-7.405668754979060839e-03,-2.073875798436365658e-02,-5.093412999473191996e-03,1.270338594913482666e-01
4.925645808689422256e-01,4.469822323325604585e-01,4.516602805796212650e-01,5.111838170463452874e-03,5.177663109962796564e-03,-2.305430238345257832e-03,4.540000483393669128e-02
6.066790854417131174e-01,5.426849994472083827e-01,3.646480975850332484e-01,1.828589401529932823e-01,-4.158139447382851878e-02,1.728947267858994830e-01,4.923034310340881348e-01
4.795958429078401863e-01,5.182686817818147329e-01,3.859111913021919804e-01,9.009743495209809536e-03,-1.651488885902191450e-02,9.009221455617230992e-03,1.232911348342895508e-01
5.741845420072630990e-01,7.027116318373245463e-01,2.613003199808345278e-01,8.273302218548583831e-02,-1.566704290396483679e-01,3.661102586798348907e-02,5.028141736984252930e-01
5.755756581482754930e-01,6.956602977193806492e-01,3.051147108282546427e-01,8.491658604206435423e-02,-1.600205508868156046e-01,5.864282294919616334e-02,4.783479869365692139e-01
4.267355788249536652e-01,4.672063880231552280e-01,5.097621820210660459e-01,1.658383277709778864e-02,2.955583564266342327e-03,-3.122010630416062384e-03,7.779246568679809570e-02
4.868325485392904772e-01,4.618919458387108490e-01,4.572221087630729541e-01,-4.008498724827526220e-03,2.314361166265209522e-03,2.611611042562020975e-03,2.906964346766471863e-02
3.786516297892545957e-01,5.610746278861510339e-01,4.772156472318184184e-01,-1.863352029815877955e-02,-1.091033811954061211e-01,-2.069898887727870604e-02,2.510981559753417969e-01
5.326445116083117215e-01,5.442647839320821079e-01,5.538693097296054635e-01,-6.871536407827315285e-02,1.723384864282821172e-01,1.998380304776112004e-01,4.726644456386566162e-01
4.724877903884652786e-01,4.028831340253634097e-01,5.234933752899958437e-01,-3.457079538519389900e-02,2.110902771780484230e-02,1.952412622199582726e-02,1.306230127811431885e-01
3.817139469162565413e-01,4.935077380351524656e-01,3.896896561734921605e-01,-1.359201536791568021e-01,-2.320634903025713958e-01,-9.671668883369667624e-02,5.066709518432617188e-01
3.457806899630377906e-01,5.280433877851370417e-01,5.151529409266282222e-01,-4.680139017529528329e-04,1.900301749383826941e-02,1.130068915043971715e-02,1.802873462438583374e-01
4.644168670437887059e-01,4.228918523931397555e-01,5.183769164558177378e-01,-2.285040179047482037e-02,7.612273626325364966e-03,8.313424939385312407e-03,9.393778443336486816e-02
4.668021499347191905e-01,4.433708301407223717e-01,4.856209588654310516e-01,-6.447461396737416174e-03,9.533340844594494559e-03,2.698441197336665445e-03,4.199204221367835999e-02
5.005896978607713432e-01,4.669662829690136574e-01,4.422796356171734278e-01,-7.684387483277588943e-04,4.506711827732745785e-04,4.725370499559117601e-03,5.137491598725318909e-02
5.574204808078906392e-01,2.956065721819838288e-01,5.892454002357143672e-01,7.829186654537877155e-03,4.955243008411137212e-02,-7.580104887558255025e-03,2.925989627838134766e-01
4.488393674165800928e-01,3.902245089552467960e-01,5.399069788912685963e-01,-1.141820249525885150e-01,-3.905404462148693353e-03,-7.324407503301477544e-03,2.374578416347503662e-01
4.288973109073047074e-01,4.334867170468404418e-01,5.048586368683944947e-01,-2.234976930538479928e-02,4.207510516488810297e-03,3.797076173865339150e-03,8.388961851596832275e-02
4.215921810719032159e-01,3.625904726835621483e-01,6.330743034344473719e-01,-2.169783144964445021e-01,-4.540391733824825776e-02,-7.383751174827943298e-02,4.737752079963684082e-01
4.955273866985877573e-01,4.358449385468272652e-01,4.634257518625036210e-01,-1.539589541564324003e-02,1.197634624529379105e-02,2.710803005016099165e-02,7.760503143072128296e-02
5.927987177934134211e-01,2.568944517958148266e-01,6.663034447662525839e-01,-1.350873665977473936e-01,6.403425533417181001e-03,-8.249365264390425001e-02,4.671290814876556396e-01
5.051064659899886511e-01,3.435282533927634385e-01,5.189200054217916191e-01,-1.738215604746619000e-02,-3.330738499039104933e-03,-7.580389644402828718e-03,1.721696406602859497e-01
5.047046392169253215e-01,3.612511507343773021e-01,4.975474568194526714e-01,-1.850047901679032977e-02,-1.444857613386779302e-02,-1.629339490944027927e-02,1.485022455453872681e-01
3.443147400434166672e-01,5.188490523724091918e-01,5.136668301920914725e-01,-1.812557239992807212e-01,-1.426121036667355735e-01,-7.964253932153887716e-02,4.562772810459136963e-01
4.785325566752817172e-01,5.274273774388561487e-01,3.566398555939380710e-01,2.091518925985420938e-04,-5.223654928172804385e-02,-8.651429272155834738e-03,1.778175979852676392e-01
5.215403881292307586e-01,4.312268552258711196e-01,5.372083115070586112e-01,-4.067324576526823443e-02,6.420768358288587996e-02,7.136742596095345392e-02,2.059800773859024048e-01
4.805398335704650359e-01,6.468618362995330884e-01,5.582400227595232245e-01,-5.404690500325789321e-02,2.100866276463003446e-01,1.387038566494196157e-01,4.686851203441619873e-01
4.869028180384726290e-01,5.075861180248827376e-01,4.043932766664131706e-01,1.781407223815804908e-02,3.516350940815909931e-02,-1.235744332014842260e-02,1.185822635889053345e-01
4.464812629960884793e-01,4.479512809676239882e-01,4.979030478719562169e-01,-4.023016002914585158e-03,4.805872597842710328e-03,6.006495645447286480e-03,5.288522690534591675e-02
4.574463977783106428e-01,5.202883877028726678e-01,4.119731589923006920e-01,5.614987269634682740e-03,4.625102382200289852e-02,5.033340498387896787e-03,1.243487820029258728e-01
4.581316518414522143e-01,4.551965973259391451e-01,4.925123282547893555e-01,-8.726770553788929657e-03,1.390240808472646174e-02,1.316992956464068179e-02,5.118785053491592407e-02
5.058310411408923901e-01,4.256702234642655847e-01,4.356928742633963125e-01,-9.690422017693182608e-03,2.060318191121438686e-02,5.927062815745492291e-02,1.334803104400634766e-01
4.980814529017616454e-01,4.530635856240505244e-01,4.587710526229850094e-01,1.380723501629491892e-04,1.092783949468489023e-03,1.912607732374191436e-03,4.262463375926017761e-02
5.139932597483974908e-01,4.351386055789265850e-01,5.182074366824602762e-01,-5.420714096027895793e-03,3.127496646827205434e-02,7.873861524927606992e-02,1.678986400365829468e-01
4.757779255641124139e-01,5.577487318850474773e-01,4.644822191552449575e-01,-6.620064289950004701e-04,7.522832638595304544e-02,8.666282882178258373e-03,1.580419391393661499e-01
5.258219586120463918e-01,2.998047376946971765e-01,7.421245570358511179e-01,-1.599789117837493724e-01,7.308269972733386077e-02,5.193174131926012876e-02,4.976468980312347412e-01
4.148613126460094502e-01,4.557299751522091436e-01,5.043999529190840159e-01,-1.409057438566018762e-02,6.070083617144842597e-03,1.071287891227860542e-02,8.413417637348175049e-02
3.404501883769764925e-01,5.015710197807949910e-01,5.038692052215558714e-01,-3.499353058091066171e-02,3.530480747819628867e-02,1.951927740371106959e-02,1.867924630641937256e-01
6.897793511360049701e-01,2.151138435972806406e-01,6.576693889605229604e-01,-1.784705574335004180e-02,7.411756055998336423e-02,1.924608251926995528e-01,5.828003287315368652e-01
6.780099839904893955e-01,2.535873295615230227e-01,7.122434312689189806e-01,-6.174987196083812913e-02,6.207378118215847035e-02,7.352347388385854776e-02,4.848212897777557373e-01
3.681202201514284233e-01,5.595407527007080217e-01,5.666089984334573559e-01,1.751942427228429452e-02,2.060525980230177856e-01,8.007042224672937178e-03,4.080820083618164062e-01
5.659560918018046172e-01,2.454502249018956916e-01,6.581264519809345570e-01,3.134177824135006563e-02,6.560463260838164667e-02,2.014660714413120113e-01,5.276221036911010742e-01
6.825139064903746888e-01,3.350978187112709228e-01,6.406510591049496828e-01,1.262368314685705650e-01,4.434099925490986999e-02,1.547213959559280982e-01,4.831441938877105713e-01
5.807188279638594297e-01,4.126581999601668937e-01,6.950713131653254440e-01,1.991440275419215644e-01,3.515259406293105848e-02,7.047284298815773007e-02,4.451072216033935547e-01
7.116910528590031371e-01,2.192706814504024049e-01,6.848250666976823942e-01,-1.309769936461534310e-03,6.107104942151526245e-02,1.049511790129532655e-02,4.914212524890899658e-01
5.045386305258239279e-01,3.658548585335127945e-01,4.798765035376397203e-01,-1.942550265553671940e-02,-1.543960886479458887e-02,-1.735573343182025136e-02,1.384631097316741943e-01
7.461744857807622866e-01,2.236458901157711288e-01,6.710915293254448022e-01,7.110895590277319100e-02,8.920384081316540259e-02,-6.616900401059284953e-02,5.400157570838928223e-01
5.492740751491895779e-01,5.347233686782496553e-01,4.639491352050885697e-01,8.106301988701516970e-02,2.661978261734460616e-01,-2.372344781310652129e-02,4.901391863822937012e-01
4.862289690358043148e-01,4.509311440959695161e-01,4.578018130416003362e-01,2.227480697153463429e-03,5.452696109833771350e-03,-1.749180805640569583e-03,3.411572054028511047e-02
4.822117805435853222e-01,4.813714982782281160e-01,4.324746975581715835e-01,-8.700182300404500635e-03,4.613315381544838903e-03,3.469393231235330666e-03,5.253311246633529663e-02
4.858060930682304157e-01,4.526038023448911707e-01,4.594101337531882878e-01,1.409304104766819898e-03,5.922069835521636110e-04,-3.310451442468455383e-03,3.102612309157848358e-02
3.968130888685889035e-01,4.714527742175209646e-01,5.072440916497398256e-01,-2.427448920788246797e-02,2.643972961433773815e-03,1.592434479766956928e-02,1.098773479461669922e-01
4.350395191414531681e-01,5.403342846397825028e-01,5.144908391482063692e-01,4.199361204614088239e-02,8.935816585880104745e-02,5.343749067796100399e-03,1.958683133125305176e-01
3.613829753507407094e-01,5.180866769658042381e-01,5.118434187779374867e-01,-2.496805548464384097e-03,6.731117073095287638e-04,1.369599993485886603e-02,1.555618494749069214e-01
4.389399197942602249e-01,4.298546030997603129e-01,5.027232198170276112e-01,-7.529801783019480881e-03,-2.966089284537846288e-03,-1.450432566968300630e-03,7.023632526397705078e-02
3.408103268476421754e-01,5.154861073218089951e-01,4.883528160134939511e-01,2.001974287043885650e-02,4.737773246971507118e-02,-2.055714946548873288e-03,1.856268048286437988e-01
3.826131177879191769e-01,6.597169450471054297e-01,6.181537193628581228e-01,5.480119817507509046e-03,1.880154040373179791e-01,8.262746461307513002e-02,4.400205314159393311e-01
2.253717352568861410e-01,6.758430225032954208e-01,6.155221403111625911e-01,1.674580109559781899e-02,-1.123472823567777945e-01,1.361112587630390336e-01,5.231404900550842285e-01
4.339407149188267421e-01,4.361784746581928163e-01,4.789956916735415571e-01,-1.932132963410890247e-02,-1.206575195839914953e-02,-1.192937828415196848e-02,6.259196996688842773e-02
3.379930573068329891e-01,5.174782751665426561e-01,5.164177734257134889e-01,-9.215529465598077535e-03,-7.848831041523320062e-03,7.939586410486635781e-04,1.801865845918655396e-01
3.615351116900694106e-01,5.194098482429093666e-01,5.180561000305586861e-01,-7.848932768022983189e-03,6.246772478614256129e-03,1.020919739468867382e-02,1.591449379920959473e-01
2.106828506074131524e-01,5.355069967555089461e-01,6.726667488883837365e-01,-5.153340105523395581e-02,-1.141821246130144407e-01,1.565348923751566299e-02,4.655009806156158447e-01
2.396028749179636153e-01,4.810914752491718405e-01,5.780555116461005838e-01,-1.602223895410473664e-01,-4.064716166258023483e-02,-1.544631375050945811e-02,4.169178009033203125e-01
3.088801048286347051e-01,5.054715332657961913e-01,5.381555155016233272e-01,-2.068250596224879279e-01,-1.628080280552522685e-01,-1.153545330509251066e-01,5.421355962753295898e-01
4.468721412064563525e-01,4.487721455403819171e-01,4.800846601254969426e-01,-7.622342929238249548e-03,-7.719669853054976667e-03,-7.353145547742871192e-03,3.948245197534561157e-02
4.301383532741261950e-01,4.354666970076645494e-01,4.977632727336919749e-01,-8.396111455597923476e-03,-2.135489936661045998e-03,-5.406056269378855389e-03,6.748358160257339478e-02
4.463632886330820004e-01,4.382518069152805396e-01,4.841363925403495139e-01,-4.951248142948447457e-03,-6.898550464302105265e-03,-2.900424174625044864e-03,4.517246037721633911e-02
4.447287407002809556e-01,4.391539804365778288e-01,4.905987244110226464e-01,-1.313965226568093551e-03,-4.241786387284148321e-03,-2.227852576159611124e-03,4.964771121740341187e-02
3.947467804503667077e-01,5.128122123860614501e-01,5.037393142496036091e-01,1.977507163048419433e-02,-1.126914598904470502e-02,1.602914838912926701e-02,1.235941350460052490e-01
4.367613210051604078e-01,4.391085295681533829e-01,4.980990921661834214e-01,-1.023730307132448203e-03,-1.168985144416122062e-03,-3.301006178932898438e-03,6.052926927804946899e-02
2.889870545521250889e-01,5.302012303660131876e-01,5.484147334655736783e-01,-1.065826683639785853e-02,2.761940994030423133e-03,8.345684003653040459e-03,2.519563436508178711e-01
2.832850498503189374e-01,6.725251176231690220e-01,6.752891584765974287e-01,1.383561748654375811e-01,-1.283373153396658722e-02,8.797517852886097001e-02,4.834580123424530029e-01
3.929315678479234908e-01,5.006291203628613351e-01,5.244059328237141715e-01,2.453799009220157187e-02,5.724021528252034273e-03,7.218806318465596263e-03,1.295599043369293213e-01
4.805091886399345813e-01,4.604559899108927601e-01,4.580136743433974034e-01,3.469941796114791536e-03,1.515179981008654914e-03,-1.441159527035737551e-03,2.250136807560920715e-02
7.345363156843172092e-01,3.856787998396582484e-01,3.975451705460177898e-01,6.014645785845051246e-03,3.381990641644781661e-03,-2.219954965979139827e-01,5.154527425765991211e-01
4.401216978185260587e-01,4.389202234784532752e-01,4.900998937353218121e-01,-8.093000038393257690e-04,-1.878300528374408310e-03,-2.268086501436500282e-03,5.086543783545494080e-02
4.978863166507151994e-01,4.527297153982721700e-01,4.362894452048492466e-01,3.862947293296081254e-03,8.827210328750515790e-04,-4.164996962285841958e-03,5.613318085670471191e-02
4.385771501878484302e-01,4.603973465322576120e-01,4.438974711082477320e-01,-1.921999029329100883e-02,-1.369458544362570952e-02,-1.564559870462218019e-02,5.285394564270973206e-02
5.450966588175935046e-01,4.997264072320105055e-01,3.865286076239693447e-01,1.625975946498220137e-01,1.033330370792224229e-01,-1.777838093339822456e-01,4.755800068378448486e-01
4.578830705165089499e-01,4.755397571032601300e-01,4.639961102339818511e-01,-2.536820502055223744e-03,4.861889551046023362e-03,6.290419614993904111e-03,2.121603675186634064e-02
4.777933213915067645e-01,4.638870960554927203e-01,4.651496251922048741e-01,-2.058592419625398812e-03,2.391336911718357477e-03,1.256454393679487828e-03,1.456107757985591888e-02
4.496215665473243805e-01,4.677440044466181779e-01,4.433520583714823937e-01,-6.460898767666706753e-03,-4.072569647888922041e-03,-2.469012586703971893e-03,2.597351372241973877e-02
5.061267232186914544e-01,4.164460505840321125e-01,4.404744850099444053e-01,-5.397748732581560474e-03,-4.582932710419980286e-03,-1.559316500258588895e-02,8.570273965597152710e-02
4.509157283367973834e-01,4.651779295867881081e-01,4.486834786781218054e-01,-1.059306094180961257e-02,-8.636782366507446754e-03,-9.876128064331879744e-03,3.306455165147781372e-02
4.824829750018875263e-01,4.596061214113020266e-01,4.678432897257640000e-01,2.866237035319288504e-03,-5.971396530961813054e-03,3.547371647710211538e-03,2.391926199197769165e-02
4.476788278339230986e-01,4.654193053639844591e-01,4.511337209180455998e-01,-5.214522841492110448e-03,-7.172391920137958198e-03,-5.730237261913559421e-03,2.449039742350578308e-02
4.490485817898779985e-01,4.680485631848832484e-01,4.503232518156669029e-01,-1.520261038520345732e-03,-1.206886843026346978e-03,-3.423883773549099736e-03,1.961829885840415955e-02
4.720048745906337273e-01,4.620567999018664884e-01,4.705335224042286324e-01,1.112122326373181196e-03,6.600814010341174952e-03,-5.211178150885505600e-04,1.489057857543230057e-02
4.502715223492481655e-01,4.765511813950149556e-01,4.438041823379167972e-01,-1.581396694943814404e-03,-2.600113367843650321e-03,-2.494269034453345472e-03,3.080348670482635498e-02
4.442408123954231791e-01,4.834127095111901418e-01,4.399531951141679165e-01,-3.982872516115169848e-03,-9.291923487762044406e-04,-6.390182398941940140e-04,4.209727048873901367e-02
3.861708929881549901e-01,5.220511322178232883e-01,6.252553538765368568e-01,1.492881212786111855e-01,1.253502643164532485e-02,8.673390791785941939e-04,3.323739469051361084e-01
3.879082066602430601e-01,5.035482458353516266e-01,4.974345183552811855e-01,-3.243859948818943184e-02,-3.073787091451444034e-02,-1.344617505626172910e-02,1.386962234973907471e-01
4.818830886824934101e-01,4.716191892649689854e-01,4.507891866844948026e-01,7.521273899016958295e-03,-1.837812661277757028e-03,2.115543166789143371e-03,3.076201491057872772e-02
4.297653522513226187e-01,4.643050649965069776e-01,5.047137882590645441e-01,1.387542500062854609e-02,9.199963571673980961e-03,-5.878404456706327538e-03,7.181037217378616333e-02
4.497732677773652599e-01,4.682072026632689288e-01,4.923515490276429984e-01,4.175654597022616238e-03,2.193078432755157011e-03,-5.223562854536454789e-03,3.894134983420372009e-02
4.730028137610933769e-01,4.504859251776241469e-01,4.971229231027201045e-01,1.449436001936736662e-02,1.156040267147385829e-02,-4.620577278455841562e-03,5.222199857234954834e-02
4.589623141130485529e-01,4.593135309581348746e-01,5.029630804313629522e-01,2.508191928905808069e-02,9.650387500524848852e-03,1.487319733621719113e-03,6.398493051528930664e-02
4.961781478582786287e-01,4.206212987485456467e-01,4.776181694009236089e-01,2.422382115168949038e-02,1.763916640571021668e-02,-2.131758449162975133e-02,9.331718087196350098e-02
5.218602845408636393e-01,3.180256075121185022e-01,5.192667935176981109e-01,1.423396775128718886e-02,1.256353406900019391e-02,-4.200052814507772292e-02,2.177157253026962280e-01
4.959759199882444181e-01,3.738216674041248133e-01,4.418176057234668996e-01,1.468960938794424409e-01,1.165471599875483877e-01,-1.264198445075776778e-01,4.057956933975219727e-01
3.568964953083481051e-01,6.538044311562425381e-01,4.141091352647386370e-01,-1.857390755598078980e-02,-2.263275213839066047e-01,-1.847084192015578663e-02,4.797620773315429688e-01
4.852878718746631015e-01,4.593897402245425421e-01,4.462218086609766599e-01,6.107896791833605440e-03,2.011236757685714530e-03,-2.788552386704014428e-03,3.650362789630889893e-02
4.530933273970382813e-01,4.502203079693576915e-01,4.961862152739370813e-01,1.358563100821900092e-02,9.138304607866949356e-03,-5.107652954288796274e-03,5.358690395951271057e-02
4.138888330053578923e-01,4.377753007690330933e-01,4.836147821282156256e-01,-7.151360217566303523e-02,-5.141628834102784928e-02,-3.909375054911165548e-02,1.778348088264465332e-01
3.389988919157196912e-01,5.532091067837481280e-01,5.223087978209527416e-01,4.658850966346333305e-02,-3.708748507238358860e-02,7.575079456924295679e-04,2.255245447158813477e-01
4.829481409811596793e-01,4.333989532377470200e-01,4.964136448855903105e-01,6.294760078654117880e-03,-5.036113055927318380e-03,3.653590079665320310e-03,5.948657169938087463e-02
4.895049202493425566e-01,4.376312312369626811e-01,4.833726463457729827e-01,9.771872997375814773e-03,-8.291616028434428340e-03,5.895772558019205141e-03,5.483960360288619995e-02
3.762142208997400483e-01,5.169918693436535984e-01,4.772522003252523404e-01,2.086127719553817258e-04,-2.510941060738127242e-02,4.096720671978922035e-03,1.332105845212936401e-01
2.724289538281982059e-01,5.493612044186986232e-01,5.564137873926471300e-01,-3.327304745719492345e-03,-2.699183934677952187e-02,-1.268966533202044167e-02,2.853003144264221191e-01
3.296476750073115136e-01,5.810144551158462622e-01,5.780683831342895429e-01,3.433206434042155447e-02,2.263336992521116503e-02,2.176710166755023088e-02,2.625789344310760498e-01
1.755948384371828208e-01,5.781036588210969329e-01,5.804322933279928431e-01,2.046163455753735247e-03,-2.095191891314330396e-02,1.783463112917629129e-02,4.064969718456268311e-01
4.638953790563579149e-01,4.837786032315761764e-01,4.629946643476060553e-01,6.319474227585264274e-03,5.885672824088919279e-03,-4.302346308938795848e-03,2.633105032145977020e-02
2.113990980574936285e-01,6.081880081086719070e-01,6.723576421419986682e-01,-2.914973188481525396e-02,-6.642807659127704378e-02,7.267312441734413708e-02,4.676027297973632812e-01
4.963288995195636044e-01,5.083971314375241857e-01,4.075292242969750789e-01,1.149130726764350727e-02,-7.105570661765236648e-03,3.075248193959679958e-03,9.838022291660308838e-02
3.961389547426846791e-01,5.134848623759873387e-01,4.945892255262184234e-01,2.503925268516261904e-03,2.190714501272151421e-02,2.013783552397117958e-03,1.156742200255393982e-01
4.488878260368328599e-01,5.061183679774126087e-01,4.249393079281700292e-01,-4.668316097797697503e-03,-7.569837879518920634e-03,-1.332471108732729854e-03,7.390579581260681152e-02
1.888281104464783200e-01,5.854903238464190807e-01,4.982117404984426345e-01,-3.013023244423419442e-02,-1.357933927145669739e-01,1.120794206895093549e-02,4.344631433486938477e-01
3.159532505577121730e-01,5.624681851611986749e-01,5.515017617460635790e-01,-1.162042029042186300e-02,-3.410516353808348139e-02,2.570178879800870050e-02,2.531063556671142578e-01
4.743247002395645229e-01,4.630273526610470536e-01,4.598324083345222690e-01,9.121514030034746012e-04,6.094347045890983897e-04,1.139207997849931526e-03,1.346981059759855270e-02
4.737622134142079888e-01,4.633026206863513630e-01,4.666290175340241930e-01,9.233033137694414113e-04,3.461002384524422201e-03,1.038311879773018203e-03,1.128727570176124573e-02
4.667823360451553993e-01,4.732480043169055572e-01,4.599656592112827957e-01,4.825447615007938743e-03,3.262237957405547499e-03,-2.242725403617749132e-03,1.578661426901817322e-02
4.680129372292533563e-01,4.706226558822357298e-01,4.634050218057291781e-01,4.364041453353373866e-03,2.155313504342428778e-03,-1.755042810178286282e-03,1.097178645431995392e-02
5.093576774736818802e-01,4.514346908142299886e-01,4.634755784436679349e-01,3.495729693410393191e-02,-1.089911280800514963e-02,7.474337279345738549e-02,1.535732299089431763e-01
4.746578392500392374e-01,4.729349013403701396e-01,4.448700344820944452e-01,1.060014065349912729e-02,7.397933356640664683e-03,-3.797508745408115227e-03,3.719542548060417175e-02
4.722283487443692529e-01,4.733947690192490398e-01,4.580285762948688166e-01,7.608822884210642533e-03,2.492014095248820411e-03,-8.529075426583319778e-04,2.034827508032321930e-02
4.670606616916677112e-01,4.626529010923066676e-01,4.678344707603256936e-01,1.662569110791069270e-03,2.674545161004637100e-03,-3.132370895206909676e-03,9.089835919439792633e-03
4.806493400103028502e-01,4.635263122077182274e-01,4.567816839088161274e-01,5.326150797546102926e-03,2.387057703466118844e-03,-2.049682912453902519e-03,2.385325916111469269e-02
4.547573608373829401e-01,4.554335059107699202e-01,4.568674308077827484e-01,-9.456167152909600694e-05,-8.728172915632337499e-04,-1.424666079320644721e-04,2.419917378574609756e-03
4.742930719563250297e-01,4.649288737380407044e-01,4.610853746828504351e-01,3.857908640024003150e-03,1.931481789836785468e-03,-1.729626901743856076e-04,1.394216530025005341e-02
4.712808299164769066e-01,4.615647995976814855e-01,4.700650384857784636e-01,-2.206985625773235597e-03,4.608835592438776350e-03,2.724007671371502307e-03,1.358910743147134781e-02
4.819507294309284262e-01,2.963252927570314554e-01,4.830868747559023402e-01,-1.410156719135794157e-01,-7.746628107676961639e-02,-1.403455464656448992e-01,4.140277206897735596e-01
4.562405447735924380e-01,4.656679850802948328e-01,4.895636048685587105e-01,3.079552112303982677e-03,3.107963027308423363e-03,-8.258024933329418185e-03,3.386984020471572876e-02
4.679760693121507442e-01,4.661342287694875131e-01,4.705333349362531004e-01,5.336022883570217369e-04,1.907403553644725558e-03,1.397543042688497708e-04,5.144843365997076035e-03
4.781173054588326865e-01,3.734787105168865806e-01,4.048950258125234569e-01,-1.327258113081624669e-01,-1.112028165322257456e-01,-1.750343065134250253e-01,4.364705085754394531e-01
4.661308308756808572e-01,3.565625385746603593e-01,5.522873009101954000e-01,-9.524938435113691759e-02,-1.374157962833885520e-02,-6.693010331904858390e-02,2.647468745708465576e-01
5.353979996906090832e-01,3.646827024409401430e-01,6.057671037912195633e-01,1.945130538815428300e-01,1.808634951938426494e-01,-2.518359592883135517e-02,5.095606446266174316e-01
4.706275673096229073e-01,3.865126006500422817e-01,5.212886139089628612e-01,-3.395347738053042935e-02,-1.203280730758958875e-02,-1.056815291068128465e-02,1.346520036458969116e-01
4.625766563858458857e-01,4.819430229487298156e-01,4.634820119522630733e-01,1.983577973067944620e-03,1.096279723620202304e-03,-8.856983216218636658e-04,1.939342729747295380e-02
4.751273392860262401e-01,4.792983376970887388e-01,4.336119483242190653e-01,1.258547044533754426e-02,7.662873188121702844e-03,-9.024490531292731627e-03,5.300708487629890442e-02
4.748024513199098906e-01,4.783856773824464725e-01,4.439121406093642919e-01,1.051685588376455663e-02,7.205800987222192068e-03,-3.471990835823389552e-03,4.001856222748756409e-02
3.809496980048630577e-01,4.765473903672126643e-01,5.115283247526433152e-01,-1.956042132447485815e-02,-6.122311851602973108e-03,-8.112496185836461093e-03,1.231438070535659790e-01
4.636046676432512004e-01,4.825047747233373596e-01,4.557488058338104442e-01,1.058176331898847376e-02,1.032949074430401619e-02,-8.043970650207551976e-03,3.765020519495010376e-02
4.609714900781189395e-01,4.769185748363144461e-01,4.646818160390871477e-01,2.591788484246358541e-03,2.298933713650218313e-03,-3.747048477970362727e-03,1.694212667644023895e-02
4.652642537902064723e-01,4.810199686589861634e-01,4.613002178585290936e-01,3.075280685941886305e-03,4.337097353611801018e-04,-7.524403900049666345e-04,1.889569312334060669e-02
2.166108061709703381e-01,5.765214221539526340e-01,4.350556061327864876e-01,7.073807734391795304e-03,-1.852210477072306072e-01,1.388624762037654267e-02,4.497580230236053467e-01
5.552794126225656379e-01,3.645176713800553081e-01,4.872520099374949010e-01,4.942836763006296097e-02,3.179121311131574701e-02,-5.666164077687444595e-02,2.191663831472396851e-01
4.224000871590331552e-01,5.361777971761201300e-01,3.732880777858322841e-01,-7.894956988668945335e-05,-1.014169706582156300e-01,-7.827380498349393104e-03,2.280027121305465698e-01
5.363227909782287695e-01,3.382192330782729517e-01,5.312136907685556242e-01,-9.959643395365603332e-04,5.505158342965281622e-03,-1.192344790098541149e-02,1.969248354434967041e-01
4.303580386387033108e-01,5.148934311226898153e-01,4.293662646637651514e-01,1.526599126564512788e-03,-2.181180431776025969e-02,2.732805934851498340e-03,9.320792555809020996e-02
4.557625694500032631e-01,4.541996491594412211e-01,4.515064000846356618e-01,-4.897484955800977119e-03,-1.549136611594252241e-03,-1.390483432422862792e-03,9.942913427948951721e-03
4.494425263344576926e-01,4.425232704663329963e-01,4.761712620225113102e-01,-2.256474857371677627e-03,-6.549097813361960500e-03,-3.691266274416085680e-03,3.364621475338935852e-02
3.976254074055107779e-01,4.440427523344184224e-01,5.677949503793370267e-01,-1.168641467664359584e-01,-3.234976302458900110e-02,-3.342929870712430668e-02,2.658518254756927490e-01
4.672443041888761361e-01,4.633165342630604644e-01,4.714588382699914648e-01,-1.148966105973042153e-03,3.390996857391391246e-03,1.952456147469493197e-03,9.981812909245491028e-03
5.312661709232383567e-01,3.326360743440152645e-01,4.874555777088074304e-01,-2.866640553127293694e-03,1.668248945043979701e-03,-5.838594486648141652e-02,2.071978300809860229e-01
5.142177097040635525e-01,3.744362691344161886e-01,4.834765219399287939e-01,-7.677946423112895144e-03,-1.559483177152662554e-02,-2.895484412024769069e-02,1.400300711393356323e-01
5.343605102318247368e-01,4.017539890389258406e-01,4.782022100949454013e-01,-6.939707291220743521e-03,-3.010407277288375955e-03,-4.911017275557567202e-02,1.438693255186080933e-01
5.108163906991124437e-01,3.725627539716053205e-01,4.943792558743367316e-01,1.928322755246167711e-02,1.953004514115932663e-02,-3.106983841132770346e-02,1.492231786251068115e-01
4.689697482360367653e-01,4.426258061621757833e-01,5.053456715067028426e-01,6.139958974916889453e-03,5.738601462937973838e-03,4.388322961425518355e-04,5.646207556128501892e-02
4.685929743279643733e-01,4.378500852009149513e-01,5.015691671417731312e-01,8.193851032389105546e-03,2.581253079966541134e-03,2.716499900505990345e-03,5.735749378800392151e-02
1.227350309051752908e-01,6.338541550213943054e-01,5.790744077370829634e-01,3.231599951563429718e-02,-3.976563135336863043e-03,-1.553069043147297518e-02,4.900496006011962891e-01
5.277181410323840138e-01,3.007231590099447849e-01,5.217222396361204106e-01,-2.856421218658088471e-02,-1.276335774931911145e-03,-4.493996069925297598e-02,2.423077821731567383e-01
3.875360198708239223e-01,5.179943863112431712e-01,4.756745248425291450e-01,2.025290290633694271e-02,-4.154364100993849368e-02,6.807341632426925672e-03,1.408423185348510742e-01
4.540783352376462356e-01,4.467721143970404540e-01,4.925106176773851874e-01,-4.919002436612101084e-03,5.099602660785163520e-03,2.879409007050295986e-03,4.457237571477890015e-02
4.386581173512157927e-01,4.607947966203928547e-01,4.984717273040115693e-01,-3.049981054668883789e-03,1.194227611765946023e-03,6.283817534110420523e-03,5.379842594265937805e-02
2.826202228343528411e-01,6.606146430213994947e-01,5.471118032290018807e-01,6.989333029234445771e-02,-1.680004970754593319e-01,1.398332874047370222e-01,5.204296708106994629e-01
4.560739387714624615e-01,4.577692208798458950e-01,5.020844308758994901e-01,9.822828561015855761e-03,9.575694995007447141e-04,3.734722577532040635e-03,4.874318093061447144e-02
2.018357167031972210e-01,5.842587518894699627e-01,5.020388560676041223e-01,-6.520420128181582398e-03,-1.419619549457894758e-01,1.874640535391218499e-02,4.280258417129516602e-01
4.518305815689577787e-01,4.505479422956529811e-01,4.629423337791706561e-01,6.162677693394546510e-04,-1.200796014633088646e-03,-1.196750215368584625e-03,1.221189182251691818e-02
1.785383640861497589e-01,5.622175415737959980e-01,5.515480746635345044e-01,2.269162523168855028e-02,-6.538520587809050488e-02,2.973029114299674883e-02,4.003148376941680908e-01
2.850935561745390201e-01,5.866087553409382593e-01,4.213298495236812991e-01,2.918853565240850031e-02,-1.632565988000870827e-01,4.847255862377163743e-02,3.974383771419525146e-01
5.188998044064239146e-01,4.901911294171738542e-01,4.758831702022142673e-01,8.045799150664229016e-02,8.791848470035032448e-02,-5.610243375020804862e-02,2.312824279069900513e-01
5.050028052683529500e-01,5.046382132382417618e-01,4.176111049848869605e-01,2.155258279133402677e-02,2.666593821338066397e-02,-1.897091963894322747e-02,1.105080321431159973e-01
5.194603943496005627e-01,5.141124438489683701e-01,4.660923945334741747e-01,6.508168343576400949e-02,9.135046228807112978e-02,-4.834809834466395617e-02,2.175903171300888062e-01
5.151910760586686511e-01,4.691560659168050873e-01,3.699086616052966181e-01,1.944248202497721525e-02,2.308588328842343593e-02,-5.832666731788703485e-02,1.716887503862380981e-01
5.004590847397811793e-01,4.885609541665201783e-01,4.139586119875922066e-01,1.637552690124722404e-02,1.604195570196450052e-02,-1.286768232335270233e-02,9.310178458690643311e-02
5.168188339621707650e-01,4.847981016330089599e-01,4.061343060700985386e-01,1.815386874070006734e-02,1.889524752664343762e-02,-3.381925215675411767e-02,1.233823224902153015e-01
4.837226829196591971e-01,5.289278195453827047e-01,3.993725278173456683e-01,-1.218070461365834689e-02,5.142795547866275963e-02,2.754775859313826278e-02,1.537132561206817627e-01
3.321707958958313167e-01,6.780986348204812719e-01,6.824358030448454127e-01,1.349439386075284297e-01,1.195296683876432842e-01,4.277777375939409432e-02,4.734624326229095459e-01
3.432303139940571790e-01,5.239916339228019027e-01,5.239595696790088075e-01,-6.436646160515920728e-04,-2.335725723852273561e-03,7.643369393901497041e-03,1.812780499458312988e-01
4.243402242392670942e-01,4.861960838218821190e-01,5.034706840307264786e-01,7.864192555684511310e-03,4.440862898230204039e-03,-1.230530712245921175e-03,7.377219945192337036e-02
4.519946317856173845e-01,4.549888294356719265e-01,4.624735924585661184e-01,9.188604720404699392e-04,-1.155608631374952563e-03,-3.026007257109579983e-03,1.101849041879177094e-02
4.472630175915570661e-01,4.669026342983499389e-01,5.014429339221032622e-01,4.001304553220328721e-03,4.408176484776468729e-03,-1.940846799379280846e-03,4.873123392462730408e-02
5.243798821920886422e-01,4.938086541822013786e-01,3.583343227298938505e-01,3.457263169385277855e-03,-6.268355413539145613e-04,-1.491206601367154640e-02,1.553501039743423462e-01
3.117182011361334659e-01,7.397180931008661142e-01,5.258925461446943839e-01,6.413863908793296376e-02,1.646690184729114048e-01,1.312917679022685691e-01,5.317795872688293457e-01
4.244532389925120275e-01,4.491955228978024017e-01,5.019744504913704608e-01,4.641062939542221766e-02,2.123255429076325099e-02,-1.400354224999889388e-02,1.144826114177703857e-01
4.543995449746467408e-01,4.868199089230146326e-01,4.576560620273897873e-01,2.235256393185246649e-03,5.752372334798291041e-03,-4.640845222400737796e-03,3.368943929672241211e-02
4.542866817935431456e-01,4.922189944251834093e-01,4.467541153143823607e-01,5.673406417939081542e-03,-3.315688665120053447e-03,2.694803915409403183e-03,4.396200180053710938e-02
3.013337803499200329e-01,5.608217886139135189e-01,5.301840775540418438e-01,-2.892791806047836922e-02,-2.789291706119336953e-02,1.367467296717688949e-02,2.563748955726623535e-01
4.721070366465162649e-01,4.250813545258275705e-01,5.047600736233660568e-01,1.388334916534191520e-02,7.727428106772785653e-03,-1.292724427267245542e-03,7.466968894004821777e-02
4.611830918013468117e-01,4.548308266149336809e-01,4.501263673962357936e-01,-1.097349247763503288e-01,-1.113807642663015990e-01,-1.080851228625315935e-01,3.293658196926116943e-01
4.404324289890312327e-01,4.531233932976174716e-01,4.742804089178873639e-01,-3.243889582304141771e-03,-2.987855368198126700e-03,-1.058366094414500691e-02,3.565914556384086609e-02
4.982560196152961973e-01,4.499185597628648225e-01,4.255529913104977857e-01,-2.418055848153978504e-02,-2.508896432098124338e-02,-4.638133746056242318e-02,1.191810071468353271e-01
4.190391213081074429e-01,6.292582271144331330e-01,3.886080644604602563e-01,-6.829229805584279001e-02,-2.135979672432889998e-01,-8.304769109107552894e-02,4.723027050495147705e-01
4.716532883997527348e-01,4.722260654470387675e-01,4.157903517249757486e-01,-1.328918697336638026e-02,-5.768172300853037157e-03,-5.670389043489799941e-03,6.228222697973251343e-02
5.001785314222303436e-01,3.898004404307788828e-01,4.786339473576358694e-01,-2.365254031940004255e-03,-8.559946873127711325e-03,-1.641056806622258335e-02,1.063671186566352844e-01
4.085968517297962066e-01,5.131212163258790371e-01,4.437453054983354628e-01,-9.670198854493415120e-04,-1.677401837606484758e-02,-6.059396991580113905e-03,9.717995673418045044e-02
5.378228363821276892e-01,6.106239675887372709e-01,3.124884386629332989e-01,1.165216908865749105e-03,8.144603225097225840e-02,8.971175475681458789e-02,3.413637876510620117e-01
4.748373997605663255e-01,5.008883741757870212e-01,4.292577772695860827e-01,1.410613927587926926e-02,-6.499347579937819058e-03,5.825890633342212244e-03,6.905827671289443970e-02
4.700346481347855709e-01,4.700678870835947043e-01,4.631990603465090395e-01,-5.249769614826809740e-03,1.708316120705764916e-03,1.556564090149912356e-03,1.206886582076549530e-02
4.671236247094929794e-01,4.696649015528908122e-01,4.657731195007299152e-01,-3.104677992380637866e-03,2.077708415542822533e-03,1.249123735935667428e-03,7.632993161678314209e-03
4.462127255087592892e-01,4.047071187124447467e-01,5.116759978574010326e-01,-1.903632020051834739e-02,1.746806308740264310e-03,-8.094568012404488363e-04,9.911363571882247925e-02
6.165550790338895082e-01,4.991556847511695594e-01,4.255028341111677936e-01,6.753140760187915925e-02,2.144153685240504370e-01,-2.728870157695901730e-02,4.262528717517852783e-01
5.097450628856092791e-01,5.085908503849395634e-01,3.977613544730379536e-01,1.581431490921320765e-02,2.466392603262027375e-02,-1.113172750042506348e-02,1.239329725503921509e-01
5.028509398992725421e-01,5.140843013538605177e-01,3.985304912461953286e-01,3.811776764931077907e-03,1.971670006926226973e-02,2.327712930654022606e-03,1.157881766557693481e-01
4.555279670919673563e-01,4.538875496863455927e-01,4.585219714320543649e-01,-9.152550780001133309e-04,-1.796504744539635439e-03,-2.266986947709156888e-04,5.377358756959438324e-03
4.698554407338861871e-01,4.855490796362071371e-01,4.497054076783964516e-01,1.603671590383995080e-02,2.003421850159393947e-02,-1.040006098908859665e-02,5.717222765088081360e-02
1.825117662532393104e-01,5.205262313609712033e-01,5.583604385149294469e-01,-1.152607467169168703e-01,5.233218519746654640e-02,4.614325108526490249e-02,4.277059733867645264e-01
3.178684164253292588e-01,5.445712640378072011e-01,3.811655637270454644e-01,3.973442200421666709e-02,1.709292994412660027e-01,-7.832191730369357507e-03,3.655434846878051758e-01
4.420808802561588813e-01,4.239452068657425521e-01,4.881096600233140181e-01,-6.313950207041030271e-02,5.654564430155976235e-02,5.773032802909162930e-02,1.866352260112762451e-01
3.826317821051721801e-01,7.133002404180078804e-01,4.300756472397261887e-01,6.584044235628086321e-03,1.809163028142898866e-01,2.113887949830904056e-01,5.729591846466064453e-01
4.492802711329020315e-01,4.445690348724488095e-01,4.665727557763260647e-01,-2.833775859658380688e-03,-6.205939918871832515e-03,-3.551593191884459735e-03,2.408668026328086853e-02
4.610501617538746433e-01,5.062983135207057561e-01,4.357259795172712669e-01,-1.303977000293606893e-02,2.827705962314172594e-02,1.789783178721360973e-02,8.777506649494171143e-02
4.312597778897961920e-01,4.993462681923631075e-01,4.769002729088646642e-01,-2.742661940915983032e-02,5.694189619547110337e-02,3.657029434736137202e-02,1.400260031223297119e-01
4.946084893055879284e-01,5.433968324437367103e-01,4.602664492320502898e-01,-9.989729828855847815e-03,9.188407099390949462e-02,5.450499833965023744e-02,1.994366645812988281e-01
4.497802351479002758e-01,4.522374986209130032e-01,4.610598783626764785e-01,-1.315200712458161137e-03,-4.087330219435326810e-03,-1.931123527154364949e-03,1.311667729169130325e-02
4.497896860197244107e-01,4.474859275912775880e-01,4.662420567941335525e-01,-6.214968106186429843e-04,-3.385175387952576130e-03,-1.821006295139301684e-03,1.895719580352306366e-02
5.488636598297713665e-01,4.362011587217349273e-01,4.349065849263689665e-01,3.880872889808244242e-02,5.043631208040394442e-02,-1.149140693970592819e-01,2.541769444942474365e-01
5.074661551152319650e-01,4.465098386952260356e-01,4.366991203726288129e-01,2.170371221540520670e-03,4.453204246525540970e-03,-2.693422456062325235e-02,8.160839229822158813e-02
4.722936462870420682e-01,4.719954628439321787e-01,4.609048213010827344e-01,6.493313978582323370e-03,1.383339556778762341e-03,-1.793471154631150102e-04,1.608493179082870483e-02
4.654417490479617059e-01,4.648634858452075358e-01,4.720070708611427412e-01,0.000000000000000000e+00,1.411209885902044072e-03,-1.446333271749534067e-03,7.712619844824075699e-03
4.126386314035372371e-01,5.239562785052731542e-01,4.900375344944961076e-01,1.442433872836720310e-01,1.304406841187652766e-01,-5.444816314542346575e-02,3.634871840476989746e-01
5.305670370875539277e-01,4.802117476480272651e-01,3.516981500182724263e-01,1.294406571871372681e-02,7.446678881485850436e-03,-6.264987802323494781e-02,1.948506236076354980e-01
4.556605713846720862e-01,4.525659544783569577e-01,4.631691210973861716e-01,-2.586114787000926268e-03,-4.042668848075310303e-04,-2.339411902255619184e-03,1.123226899653673172e-02
4.703737553335359811e-01,4.572100366337856214e-01,5.008381317458359128e-01,1.759695335180620768e-02,1.631145491590540661e-02,-1.371561102683292559e-02,6.159455329179763794e-02
4.260885146271393142e-01,5.069458863552500638e-01,4.503499280974403995e-01,-4.563526921432698412e-03,-2.821476739479968771e-02,-3.562455734630526078e-03,8.748477697372436523e-02
4.205475091694701462e-01,5.112862504983821665e-01,4.477880792633857632e-01,-1.139238412168945775e-03,-7.155879445852459525e-03,1.240759025282910880e-03,8.164511620998382568e-02
4.205191505367394389e-01,5.052222913015466110e-01,4.526172744333948339e-01,-2.157023467547468723e-03,-7.979676994304569018e-03,1.795706323902737309e-03,7.550335675477981567e-02
3.180275940544601831e-01,7.310799466471237240e-01,5.041827787714777687e-01,1.033883988679093618e-01,-1.813437946788160338e-01,1.044880766401131422e-01,5.402329564094543457e-01
4.970528384700804159e-01,4.448549599872579363e-01,4.866689555814711077e-01,6.419048576080318980e-02,2.788575040190004531e-02,-5.649206843770145786e-02,1.629680544137954712e-01
3.475747038186593474e-01,5.255905626802125363e-01,5.432197302005070672e-01,-4.938375566572377612e-02,1.295363086475021831e-02,3.409097681325387597e-02,2.155108898878097534e-01
4.359929539882458904e-01,5.032217531687924739e-01,4.432129948506168260e-01,-1.312014855847463014e-03,-3.601796499275897959e-03,-1.318237175105043681e-04,6.426959484815597534e-02
5.345380622526216818e-01,3.620527481923884738e-01,4.938393095320431914e-01,1.443094625858247493e-02,7.816713238872893127e-03,-2.029363564085005789e-02,1.625767201185226440e-01
4.294303046758041198e-01,5.050675238584961813e-01,4.379522277471059599e-01,-5.935881831060790554e-04,-6.995112300518041386e-03,-4.434069011171356418e-06,7.277972996234893799e-02
4.061610185363194736e-01,5.116075490421277960e-01,4.766164034999012533e-01,-2.464352511333065248e-03,-1.727531513848927849e-02,6.305324813891897626e-03,9.841979295015335083e-02
4.576942791948844791e-01,4.715060383740219407e-01,4.700423126298917120e-01,2.261604224883090840e-03,2.042770913897833888e-03,-4.869114610454119453e-03,1.648267917335033417e-02
5.068721888004613652e-01,4.289096116280037840e-01,4.346370452682320473e-01,4.159532480225247228e-03,4.315359438134030307e-03,-1.907381939236895557e-02,8.284711837768554688e-02
5.250261790851232790e-01,3.529079500832145166e-01,5.146410366661340330e-01,1.216642247823055030e-02,1.620957633312050325e-02,-4.808994120456311187e-03,1.710168421268463135e-01
4.532262475167704863e-01,5.136175372526907701e-01,4.061069286008322510e-01,-6.925076181933838282e-03,-1.246561324392803094e-02,-2.277177054840129854e-03,9.663610160350799561e-02
4.643391948630938293e-01,4.610681738169872257e-01,4.757881704207544415e-01,2.396266940223194634e-03,3.877754888857567160e-03,-1.934774125198242397e-03,1.589955203235149384e-02
5.100949128364056229e-01,3.910456279763342979e-01,4.952879951521294011e-01,5.443373719332647749e-03,1.057440698687392606e-02,-6.171996705657458587e-03,1.147512495517730713e-01
5.085779071112198624e-01,4.111839363734648978e-01,4.778763623755244438e-01,1.421748707552753996e-02,1.156335979748215025e-02,-1.629171500121151528e-02,9.613443166017532349e-02
4.605797161065157130e-01,4.872745513444791676e-01,4.599978134757026771e-01,6.159533925417869744e-04,7.195386577875415935e-04,-2.311507381434210577e-03,2.733509242534637451e-02
4.722390441865945698e-01,4.390821375921112879e-01,4.584078050087674883e-01,2.022625885553519520e-02,1.980200966145565997e-02,-2.253737975649610509e-02,6.898946315050125122e-02
4.615681218779182915e-01,4.732514858100640431e-01,4.653789945508235437e-01,2.075594458031230181e-03,3.045672546370712264e-03,-4.144242967236959167e-03,1.409882307052612305e-02
4.667041432549748348e-01,4.609011637561141739e-01,4.721128630508135693e-01,3.068321440370153259e-03,5.743701387571149147e-03,-2.630455728516219865e-03,1.556558720767498016e-02
4.299232777323244159e-01,5.078417647477718733e-01,4.390995166558614993e-01,-1.822171501515594278e-03,-6.376234750785457830e-03,-1.690905938106622257e-03,7.470610737800598145e-02
4.492378027790166484e-01,4.716145778268515665e-01,4.815172270671163046e-01,5.144985561926182158e-03,3.170980863479114925e-04,-5.683586424447164068e-03,3.157523646950721741e-02
4.623361269494087322e-01,4.615866206797744620e-01,4.798555829982031340e-01,3.239342616453161610e-03,4.177923899945338790e-03,-3.794348539490536784e-03,2.115798741579055786e-02
4.751177397071618680e-01,4.954340912089560400e-01,4.138184092727700825e-01,1.554438450468937846e-02,-1.410494534552201619e-02,1.053613103612602298e-02,8.408628404140472412e-02
4.679873231943331713e-01,4.718651407057229963e-01,4.621543266800838823e-01,4.079968445382615126e-03,1.723845160399935413e-03,-1.384523281400273443e-03,1.167410332709550858e-02
4.636057365850344558e-01,4.616690273371483744e-01,4.785282149630212811e-01,2.769374809008814595e-03,3.375582678720869239e-03,-4.199848198081616163e-03,1.911648176610469818e-02
4.644220233899588046e-01,4.703563620307666948e-01,4.646602321086036325e-01,1.786566407949304611e-03,3.943773956851128956e-03,-2.558872784248853154e-03,1.047561503946781158e-02
4.636356351704482570e-01,4.766028637255078082e-01,4.599755418700958720e-01,5.029072810823482891e-03,3.354452335565361477e-03,-2.097422364802515714e-03,1.875728927552700043e-02
4.917901627037370438e-01,4.669514187049272347e-01,4.548139404705176525e-01,-3.890132290188093311e-03,3.075082307776060096e-03,1.131960352258700288e-03,3.381380066275596619e-02
4.665991657164239026e-01,5.317281783860384747e-01,3.620833601630667475e-01,1.238218354796791036e-02,-5.952184807683748302e-02,1.192761849105926884e-02,1.829963475465774536e-01
5.662464003295146764e-01,3.911229758339876961e-01,4.764502197208895229e-01,-5.706246438798688592e-02,-3.495707320909878513e-02,-1.087818072182750034e-01,2.682181298732757568e-01
4.735692129958151142e-01,5.070520176312948157e-01,3.314474981325009617e-01,-2.323205032603947034e-02,-7.868095362196586562e-02,-3.479595329554104749e-02,2.233872264623641968e-01
4.955846173184219050e-01,4.671783842129049180e-01,4.416169976136352648e-01,-5.643360647562930404e-03,3.976846465836048582e-03,1.579385103307500912e-02,5.547726526856422424e-02
5.762898338179163193e-01,3.974089016316830758e-01,3.787416338346438205e-01,-1.819975713292628500e-02,-7.038858577782861059e-02,-2.060621157882184529e-01,4.229990541934967041e-01
4.913993059883576819e-01,4.574522309481975912e-01,4.543402163756338763e-01,-1.777400401422919805e-03,2.320699047939695468e-03,2.762221474871143743e-03,3.628024831414222717e-02
4.977608819341477475e-01,4.650546538448367406e-01,4.487876235770117406e-01,-5.120641592290075053e-03,6.336820472051452567e-03,3.189290092597552462e-03,4.578198865056037903e-02
4.867383774859443957e-01,4.563493648279064452e-01,4.620730006444886406e-01,-6.255320231680722382e-05,3.993855944456699628e-03,1.866264048206751815e-03,2.899361401796340942e-02
4.463588175462163687e-01,5.163573820465041653e-01,4.046905007074659277e-01,4.140596387850721885e-03,-5.467694188282060802e-02,-1.078803028515808865e-02,1.375574469566345215e-01
4.051934460692036000e-01,5.185575664570278853e-01,4.694258903594059062e-01,-5.820977015742940554e-03,-1.192649285371485610e-02,4.280129890688805401e-03,1.013849601149559021e-01
4.626309292077527835e-01,4.973364220130949698e-01,4.319851256811301221e-01,1.319051692565184966e-02,-9.224958907765298810e-03,6.175015400407476984e-03,6.402245908975601196e-02
4.752606025608963058e-01,5.075733375497044619e-01,4.206022139439536955e-01,1.298756018585371999e-02,-6.704366003053058472e-03,2.874863083048697331e-03,8.039580285549163818e-02
4.899198643720968360e-01,5.934923285176902930e-01,3.753321662958451488e-01,1.498188337540268603e-02,-1.073295011624786216e-01,6.754371228906008197e-03,2.666361331939697266e-01
4.100371814536715731e-01,6.559480568783034871e-01,3.164174767307809111e-01,1.785194189922658173e-02,-1.939648830088714082e-01,-4.993759316615080379e-02,4.621292054653167725e-01
4.681195555580854317e-01,4.162917432253821493e-01,4.915436197769920690e-01,-6.600390857788866229e-03,-1.057622425395786728e-02,-5.431251855399912148e-03,7.073604315519332886e-02
4.917439103659528299e-01,3.380326993635551225e-01,5.217390465125005816e-01,-7.396560413925395983e-02,-5.482264303960802422e-03,-2.456518033695963971e-02,2.178317606449127197e-01
4.699520304380028768e-01,4.952554022932944000e-01,4.460320488267161543e-01,9.485677873857522452e-03,1.321252040634134052e-03,-2.909892572903167909e-03,4.602451622486114502e-02
4.437780531705272646e-01,5.094487985735046687e-01,4.718657801817855435e-01,1.847310540589822830e-02,2.700385303365192627e-02,2.827587728944284170e-03,8.057544380426406860e-02
2.269305735329213425e-01,6.188002237711612841e-01,7.246791092039741589e-01,-8.817865679921717270e-02,1.565255305199568514e-02,5.731795035648773462e-02,4.900819957256317139e-01
3.592664280110324793e-01,7.113645936585067941e-01,5.622658214208999805e-01,5.909195627294178826e-02,2.426115590432943725e-01,6.404343785124595734e-02,5.413571000099182129e-01
3.726949123134796760e-01,5.282511549781239157e-01,5.132893688474445826e-01,-1.671631464895564781e-03,4.395012706449872783e-03,8.754007328854921874e-03,1.496343165636062622e-01
4.290406219843018176e-01,5.112999783507257145e-01,5.178128995508268773e-01,7.678954139495963727e-02,1.265895388917652161e-03,3.105190514519148848e-02,1.671291142702102661e-01
3.855963503115436564e-01,5.095704781551663176e-01,5.239502455082178933e-01,5.112401502264016760e-03,-1.668488658559365225e-04,8.650045832285799610e-03,1.328986287117004395e-01
4.156378734594777802e-01,5.009663794182417362e-01,5.036244078517619904e-01,8.028786324411953459e-03,9.450820310075673872e-03,-2.843071987284727896e-03,8.944502472877502441e-02
5.233588967136560965e-01,3.793957354840594709e-01,3.834274404896225730e-01,-4.277907091198430295e-02,-3.922244243725232088e-02,-1.094430927895959499e-01,2.572934925556182861e-01
4.525703080089513719e-01,4.620908398480029211e-01,4.497477431780539936e-01,-1.719926092592883758e-03,-2.178983671279543458e-03,-4.342404100621469719e-03,1.432366855442523956e-02
4.549648195485771485e-01,4.639519755390498212e-01,4.511392312868918175e-01,-1.060624483854849445e-03,-9.199725429702045173e-04,-1.443524055772132204e-03,1.191429235041141510e-02
4.539577662599765806e-01,4.593234087630379547e-01,4.553382574790997839e-01,-4.130085071540183527e-04,-1.031498914924606613e-03,-2.428013117946253591e-03,6.684167310595512390e-03
4.613780674964338968e-01,4.505461392316045810e-01,4.508139952770066072e-01,-4.093538220020780105e-03,-1.702312294261577007e-03,-1.255149159408697505e-03,1.334885694086551666e-02
5.092215863457285607e-01,4.167584418014715908e-01,4.392067569627930990e-01,-4.477811228943168187e-03,-2.752642044177029679e-03,-1.538243856891132258e-02,8.815021067857742310e-02
4.619224468315798471e-01,4.514140850605305455e-01,4.551753401342893968e-01,-1.347332357819844631e-03,-3.213798600121372216e-03,-2.495165239054006985e-04,1.103024370968341827e-02
4.691359170766967734e-01,4.432514596321009970e-01,4.578028804214650527e-01,-3.386295980107701699e-03,-9.177835204664632970e-03,-2.897133175760247155e-03,2.858972735702991486e-02
4.460570963288236213e-01,4.445910545301032801e-01,4.687760065126996833e-01,-5.729626585824427847e-03,-7.759114232376317088e-03,-2.710069442610496277e-03,2.920164167881011963e-02
4.581106579051240080e-01,4.408804236643116825e-01,4.652667681387441800e-01,-2.794489003742620624e-03,-8.813107808037849017e-03,-1.907375025898309104e-03,2.717989496886730194e-02
4.880846754875426408e-01,4.207793586099924932e-01,4.442595325847638055e-01,-6.797188515774396644e-02,-5.726782568791759925e-02,-8.772271834211058106e-02,2.242457419633865356e-01
4.633698206456173252e-01,4.512723075317264243e-01,4.503196756810236012e-01,-1.165911956556781644e-03,-1.643707578299472656e-03,2.956718943926918614e-04,1.308539044111967087e-02
5.293905629927579959e-01,5.077348241666499451e-01,3.757394676053199545e-01,2.927111005935471334e-03,-4.965298913096112543e-03,-2.083057267603396698e-02,1.488341540098190308e-01
4.979471608057200460e-01,4.415629260482133445e-01,4.470084215267615679e-01,1.483803750202990993e-03,4.888473913198261751e-03,-6.620779543958297056e-03,5.578168109059333801e-02
6.017627252475197253e-01,3.722120024204303990e-01,3.844460486389860154e-01,-3.841677357242335913e-03,3.190480223578975871e-02,-2.157311637934552495e-01,4.390361011028289795e-01
4.787753753111007593e-01,4.581573091981986923e-01,4.389969864187691084e-01,-1.238690813845698749e-02,-1.286726144665231199e-02,-1.528290656057102598e-02,5.333834141492843628e-02
5.035958866355116914e-01,4.414056886381989564e-01,4.272531649990988223e-01,-4.495605961072171239e-03,-2.927782909090138538e-03,-1.043512394948971009e-02,7.321943342685699463e-02
5.064597034837404754e-01,4.672258994308103874e-01,4.100517592906098296e-01,-6.061320256929017374e-03,-2.791599843319165445e-03,-8.526886188655454987e-03,8.604100346565246582e-02
4.755750086244345254e-01,4.417792165940147564e-01,4.593113328727607692e-01,-3.102992214448203716e-03,-6.922261988609469327e-03,-2.583449185020652260e-03,3.239877149462699890e-02
7.338196472867023479e-01,1.844480039741944744e-01,6.138227972874448213e-01,3.380371729605405329e-02,6.828572556522294335e-02,-1.141164155675667424e-01,5.538683533668518066e-01
4.609729230096901720e-01,4.601633687431784803e-01,4.812428290080761895e-01,4.047063606901380763e-03,-4.003348483474620904e-03,2.662067725799676602e-03,2.337542362511157990e-02
4.686462443524200272e-01,5.275504150111702817e-01,3.741380421295558145e-01,-1.023049216388946699e-02,-2.014568980220478311e-02,-3.897453705654553395e-03,1.398053467273712158e-01
5.136395028328816226e-01,5.005424018916261319e-01,3.925015327875737148e-01,9.578437226848320052e-03,-2.174351025628282197e-03,2.007346979181350022e-02,1.214810311794281006e-01
5.222469503155311443e-01,4.924536173444685749e-01,3.995970504151841740e-01,-6.459574852234136605e-03,-1.022978971089577929e-02,5.592712965635675965e-02,1.486578136682510376e-01
4.813900121250724862e-01,4.833521397075214998e-01,4.372833188450525599e-01,1.210808400259336115e-02,-4.401870341697109411e-03,3.197559516880360986e-03,5.064003169536590576e-02
4.715686140621664912e-01,4.722887099748739881e-01,4.591636614563079921e-01,6.638093685879660651e-03,-9.752354640411541042e-04,1.458328654996686935e-03,1.745738834142684937e-02
5.181364905548653255e-01,5.104576882960507600e-01,3.785291539637531955e-01,1.170574038472348838e-02,-3.682542674840515954e-03,6.254073015854203117e-03,1.380081623792648315e-01
5.345205448198668829e-01,5.401183942576612829e-01,3.307655441381553429e-01,-1.163807852721203753e-02,6.184740507789137330e-03,5.421852108708183349e-02,2.280966043472290039e-01
5.091534163292625870e-01,4.714135125154227945e-01,4.437131987332220140e-01,1.583119483870019245e-02,-6.448393950230723280e-03,2.754988325315963632e-02,7.994140684604644775e-02
4.934204244353019853e-01,4.552694332894211549e-01,4.663950024121341631e-01,1.733738698855962976e-03,-2.214514092867562057e-03,3.536791328978958291e-03,3.487235680222511292e-02
4.868098248219482338e-01,4.653346601859878473e-01,4.534144938067284358e-01,7.974619574743097364e-03,-3.555239387339527608e-03,6.266389639250215075e-03,3.472414612770080566e-02
2.391098245523686494e-01,6.592104470636817037e-01,5.313820496128185411e-01,-5.797222075997676694e-02,8.835904913259430560e-02,7.310222089745099794e-02,4.343500137329101562e-01
4.224755840864171663e-01,3.783394206033869889e-01,6.640369211386587533e-01,-2.177352279366014942e-01,-4.688786366697333952e-02,-4.437026066190444956e-02,4.750672876834869385e-01
4.086972186675943974e-01,4.728427678442695403e-01,5.082543990813617185e-01,-7.443384801589168244e-03,4.597644377409422847e-03,1.089689148157999866e-02,9.069722890853881836e-02
4.252047921998293178e-01,4.503926267163651520e-01,5.010317840498967890e-01,-5.386799667978462748e-03,-2.591670529164316009e-03,-2.555154072253245073e-03,6.783090531826019287e-02
4.266516910831209541e-01,4.477160781721794547e-01,4.907384255802360595e-01,-5.038069820704710843e-03,-3.849803103495499229e-03,-7.787929449947671862e-03,5.918982252478599548e-02
4.525677409354894043e-01,4.317779640710858180e-01,4.802935115498626617e-01,-3.922709142595315335e-02,-3.057969172701533248e-02,-3.691015404639515218e-02,1.152652204036712646e-01
5.415797758448241961e-01,4.843948883249430959e-01,2.775425711754591074e-01,-5.380764464733581859e-02,-9.505397292946003718e-02,-1.355047554156382505e-01,3.856980502605438232e-01
1.980618811944300783e-01,4.905120586863536691e-01,5.915278897063567243e-01,-1.387701848935748161e-01,-3.668981563920805516e-02,1.378772849411511402e-04,4.325313568115234375e-01
4.234174592809520909e-01,4.538518579899921135e-01,4.969159823816920452e-01,-2.282659504861347249e-02,-9.292415139332507387e-03,-9.529095977318539912e-03,7.865125685930252075e-02
4.261894566272316220e-01,4.228492576366441602e-01,5.029943769737446058e-01,-2.375989606615789423e-02,-6.432938290830316451e-03,-8.195350686382014277e-03,9.047614783048629761e-02
3.894811460721204766e-01,4.752938662932165714e-01,4.990076581107974474e-01,-1.284372505831742062e-02,-6.845724790180814090e-03,-1.551474382737936045e-02,1.063894256949424744e-01
4.331210632339008160e-01,4.806591614329797646e-01,4.525107680922469955e-01,-3.441833601568738965e-02,-4.225210902332719037e-02,-2.791002054456814818e-02,1.138445287942886353e-01
3.032115313937654433e-01,4.758355014943453365e-01,5.535039872558933371e-01,-2.098399959645036728e-01,-6.896782854041062782e-02,-6.717738253200082610e-02,4.573242068290710449e-01
4.564923480830526681e-01,4.349857804474756007e-01,5.046713320579734319e-01,-3.856943207181299290e-03,2.792857199695193693e-03,7.097215151263780398e-04,6.236546114087104797e-02
4.693433314934225553e-01,3.993649862374361592e-01,5.168388675053752213e-01,-1.030412264333349301e-02,9.501174337890031310e-03,3.811957270405101020e-03,1.054010838270187378e-01
4.755285131511199359e-01,3.860173341780945844e-01,4.811004283045771657e-01,-4.650176888169748474e-02,-3.173093915207282623e-02,-3.731653521319710370e-02,1.490886211395263672e-01
4.948449763999442919e-01,3.793049983513671064e-01,5.194105428604515184e-01,-9.956889739849887969e-03,1.238555021701490989e-02,9.918711642163735576e-03,1.335815340280532837e-01
5.790909176690089977e-01,3.899541706767055693e-01,3.055603768749959315e-01,-2.692410674082180641e-02,-4.937374692101746676e-02,-1.913260371464474141e-01,4.220923781394958496e-01
5.493814752556451797e-01,2.372748353840889168e-01,4.591739990721231401e-01,7.291775931018819323e-02,5.301963121155112146e-02,-1.810022358958999766e-01,4.472843110561370850e-01
7.226699030837880899e-01,2.106153202432333171e-01,5.513490032337799995e-01,4.075782662983636756e-02,3.904743848157057190e-02,-1.106625381350800214e-01,5.001213550567626953e-01
5.800054255401946302e-01,3.508638970848275696e-01,5.749175954561756008e-01,6.948837767915705399e-02,2.660860144318395043e-02,2.513970591907165736e-02,2.643328607082366943e-01
4.981823498135126704e-01,3.713905816230164136e-01,5.571204389604117457e-01,4.490496071666799649e-02,1.329927786103439133e-02,2.165801251810289471e-02,1.871093362569808960e-01
3.840126494534226720e-01,5.163915854841811814e-01,5.235505189200614362e-01,5.223568117481580675e-02,-1.869933253105230189e-02,1.563704226227479203e-03,1.666287928819656372e-01
6.070656225653117133e-01,3.547375156787538897e-01,4.794437145981819137e-01,1.653674656684881589e-02,1.769745717491818041e-02,-1.012747351413225833e-01,2.833442091941833496e-01
5.611925777997597287e-01,2.994477525572931675e-01,5.544655866478305217e-01,-6.265800005665013439e-02,2.281918580501411230e-03,-5.845656801963279581e-02,2.980605065822601318e-01
4.926770461664669032e-01,4.040483826153343783e-01,4.652049484549367064e-01,1.050581933554759761e-01,-5.786770310147272556e-02,1.417444496551157618e-01,3.310696184635162354e-01
5.325878044954134305e-01,3.143615062660196635e-01,5.261991163756163381e-01,-1.571120382175203445e-02,1.834420939989610255e-02,2.368373961700799210e-02,2.229398339986801147e-01
4.718588606775936389e-01,4.293354456791284024e-01,5.139275096621300776e-01,1.585445545255085784e-02,6.650922279876606349e-03,6.269036844627121248e-03,7.982238382101058960e-02
2.435832267048957389e-01,5.905057731749808747e-01,5.831521517788111897e-01,-1.412046747404381852e-01,-1.618708018489522227e-01,-5.406152952941910977e-02,5.148289799690246582e-01
3.645865462570960225e-01,5.505519360815988028e-01,5.441490211424175882e-01,-2.079085351921504052e-02,7.119801473058587349e-02,3.158635568315915770e-02,2.300668358802795410e-01
3.829400545843398840e-01,4.780208975077847589e-01,4.997991881626656085e-01,-1.723140012457815770e-02,-1.288568697984099343e-02,-1.537597213993686582e-02,1.169765219092369080e-01
4.627598631452876088e-01,4.693040009613769215e-01,4.670852603706373007e-01,-1.367876107255584697e-03,2.755990042834289330e-03,3.890461987262513934e-03,1.034580077975988388e-02
3.640844024771181520e-01,5.133394224858010002e-01,4.957048491120235600e-01,-9.060378530533368113e-03,-1.366860757816747846e-02,-2.384261353444616822e-03,1.441520303487777710e-01
3.488339749482951002e-01,5.045333574439452295e-01,5.176869656499123451e-01,-2.072187768993314846e-02,-7.453350851584497443e-03,-4.062751895603445434e-03,1.672354191541671753e-01
3.808579358047497476e-01,4.755091436822975748e-01,5.138246152861617455e-01,-1.879624925163142501e-02,-6.450625054300671360e-03,-7.285190970554318753e-03,1.240865960717201233e-01
2.847136321396736003e-01,4.105036607730737086e-01,6.263870131617603754e-01,-2.054322607059040351e-01,-1.064624402049197532e-01,-1.257204640360518044e-01,5.455379486083984375e-01
5.175533717365962127e-01,4.715775613261380950e-01,4.157337521337129416e-01,-4.940963534106328908e-02,-6.747550410984232139e-02,-1.022833996401480150e-01,2.452921122312545776e-01
3.725105849338319342e-01,4.935315463827255056e-01,5.243936521491012748e-01,-1.358719719181310584e-02,-3.118281689812405204e-03,3.066205362430184621e-03,1.412257701158523560e-01
5.125679120716160053e-01,3.566367400580920388e-01,5.352548442082942781e-01,3.958121536755204728e-03,1.254119426521769012e-02,1.333463995072144484e-02,1.715199947357177734e-01
4.531439408394248303e-01,4.562477266108880269e-01,5.022742384015062012e-01,1.230413856270384104e-02,1.231569888032640328e-03,1.292297195544076785e-03,5.229403078556060791e-02
4.565114145989506711e-01,4.562554361836100303e-01,4.968323927048530209e-01,1.463050648601218768e-03,-2.393648768069825145e-03,1.265818826198313258e-03,4.079932719469070435e-02
4.975728926858573042e-01,3.165730073930408950e-01,5.561566336827290513e-01,1.301689804369804970e-01,2.019039264816661038e-03,7.064387365828680987e-02,3.355777859687805176e-01
5.266825473293819115e-01,3.929974401314191290e-01,5.607498546934022166e-01,7.474988350971303874e-02,1.475112632392188046e-02,5.118392631453506057e-05,2.024895399808883667e-01
4.506422561386759229e-01,4.617693420017746631e-01,4.931955228664750557e-01,6.567398709184175259e-03,-2.551464345811145593e-03,6.896865098003878737e-03,4.186551272869110107e-02
4.511864657954248181e-01,4.586571467250428746e-01,4.990200133512013858e-01,2.149760615360534356e-03,-9.880606759788315816e-05,1.273523433760937688e-03,4.478023573756217957e-02
4.590889457360714521e-01,4.523873275136075511e-01,4.967793084289719996e-01,4.962647225478303281e-03,-3.397425426671584273e-03,1.728213205262317488e-03,4.284311830997467041e-02
5.047797951407942962e-01,2.701868572455213280e-01,7.153905599399368320e-01,1.150724559382990259e-01,3.941564970344259983e-02,6.995375414050973573e-02,4.559220373630523682e-01
4.709563201163067814e-01,4.701012241132863090e-01,4.283387215895665401e-01,-1.401872973652996783e-02,-5.546831922225214928e-03,-6.565475006775488460e-03,5.090915039181709290e-02
4.695605810728688545e-01,6.656715997354298864e-01,3.097827335115563852e-01,-2.708973017948386464e-02,-2.203947870258209374e-01,-5.063086658930986833e-02,5.009354352951049805e-01
4.657057618577063463e-01,4.927703910579084301e-01,4.077815618219735594e-01,-1.226585315303992813e-02,-9.006569105922894447e-03,-6.269947037844634218e-03,8.042418211698532104e-02
4.401884913453326109e-01,4.906490669372127189e-01,4.363258302777693887e-01,-3.804412514781170453e-03,-2.156267371929695715e-03,-2.218640182055091076e-03,5.318118259310722351e-02
4.589827175287266581e-01,4.406694546605485763e-01,4.630906079320750157e-01,-1.918840283414461386e-03,-9.035795791899907739e-03,-6.868836479435246837e-04,2.617016062140464783e-02
5.010395089052093187e-01,3.657170648178049710e-01,4.941378884759385914e-01,-1.574676961526606106e-02,-1.164932189936744751e-02,-1.003317501724546035e-02,1.374003142118453979e-01
3.650906407121161656e-01,5.382667078558320828e-01,4.179750095608752436e-01,-1.064977842593969465e-01,-1.878521689623756374e-01,-1.378471145255571739e-01,4.696003794670104980e-01
4.711760579563648021e-01,4.210534558737718536e-01,4.766206704772554814e-01,-2.743718275854458571e-02,-1.814536924087830141e-02,-2.365788742264829034e-02,8.797763288021087646e-02
4.540283528598448859e-01,5.079032225564682479e-01,4.199796197114550877e-01,-2.014391793015929324e-03,-2.746880081742053212e-02,-3.782056193500314516e-03,9.063597023487091064e-02
3.995339631651195211e-01,4.756590037410989846e-01,5.002376515646104194e-01,-3.773389024845499179e-02,-2.373637287486065131e-02,-1.366851113504394775e-02,1.216242238879203796e-01
4.685004633995468737e-01,5.702320420402602341e-01,4.014375300937571001e-01,-2.478011085045057557e-02,-1.098357774101704626e-01,-3.107752707350108778e-02,2.502008378505706787e-01
5.213819007622916279e-01,4.288510483124700623e-01,4.346027612551690567e-01,3.079494437489407876e-03,2.619144602417592272e-03,-1.812080692381658545e-02,9.537793695926666260e-02
5.918418704238155303e-01,5.408129169656580304e-01,2.982957273699672340e-01,-5.361332181858447649e-02,-1.359606730834327926e-01,-1.864581142612368458e-01,4.921106696128845215e-01
5.817649940969685796e-01,5.882316032743091228e-01,2.754958758097859617e-01,2.345952663252486720e-02,-1.796213136540257549e-02,-9.974443524474326320e-03,3.142300844192504883e-01
4.690058585536930891e-01,4.448134056320141028e-01,4.622584965796532885e-01,-1.353192295707940362e-02,-1.546400705811765315e-02,-1.210345469334320363e-02,4.662394896149635315e-02
4.584295400213203586e-01,4.527719919323225373e-01,4.553721672383849173e-01,-1.277323990684864352e-03,-3.564565532779410875e-03,-1.958518315440164678e-03,8.864455856382846832e-03
3.680385195950659494e-01,4.963327056598898501e-01,4.957787805143930027e-01,-1.985918439618217582e-02,-1.206654492220523948e-02,-1.341002177809912273e-02,1.361913830041885376e-01
4.302999502412690469e-01,5.154018992246884867e-01,4.497997754244250079e-01,1.193121960889880146e-03,-2.572175109469067647e-02,1.884421450316247238e-03,8.923486620187759399e-02
5.138330642203351450e-01,4.757639107943500978e-01,3.982324390722856711e-01,8.458136001338985993e-03,-2.148886458498197767e-03,-1.234378673569122564e-02,1.053448021411895752e-01
5.136358017991983216e-01,4.115001848680649998e-01,4.233132935271026187e-01,-1.178192224143363442e-01,-7.649663348771525151e-02,-1.817421135684868794e-01,4.094564616680145264e-01
4.907775048353756331e-01,4.426518239904384533e-01,4.467855788568427244e-01,1.071856575348744713e-03,3.729960533937913027e-03,-7.242418131132799530e-03,4.834016412496566772e-02
5.307681137104540703e-01,5.209424776211160069e-01,3.547555138577428435e-01,3.085530192086942056e-02,7.179351934074201802e-02,-4.699467204269094402e-03,2.184785455465316772e-01
4.560297075723593885e-01,4.981361564054086477e-01,4.541530017399553198e-01,8.300569074677597052e-04,1.490052590422970237e-03,-8.674827439649890738e-05,4.317692294716835022e-02
4.498591952088011880e-01,5.009288482419373967e-01,4.558627764336045662e-01,1.552682184856850475e-04,5.754651411991808241e-03,2.926865586925376204e-03,4.962531104683876038e-02
4.868451284372131149e-01,5.122166006571237107e-01,4.102562070445569531e-01,1.113518891602844132e-02,8.182904045186336836e-03,-2.378512138507636077e-03,9.509246796369552612e-02
4.535258757831839849e-01,5.011737666697488880e-01,4.579053438007702481e-01,9.121254086904718311e-04,1.647755334151663250e-03,1.322041077897573953e-03,4.578988254070281982e-02
4.312635776551542732e-01,4.924322604943224824e-01,5.108416752318983844e-01,6.917708811935061042e-02,1.030826764445429977e-01,-3.188201628352828332e-02,2.334320098161697388e-01
3.459890088071179148e-01,5.587663187489957384e-01,3.858025497221885258e-01,1.342155467303311756e-02,1.714639829754817102e-01,-9.929600640268838180e-03,3.569646775722503662e-01
4.590661153200462641e-01,5.005569637242328618e-01,4.544097801818910987e-01,3.332153305952696796e-03,1.809725614115479915e-03,1.683692546681235308e-04,4.449255391955375671e-02
4.792964997277662231e-01,4.138169462184938530e-01,4.830985768911281730e-01,-3.340372056921987048e-02,-2.285333398383508283e-02,-3.155906188865175571e-02,1.115937232971191406e-01
5.999730393925410965e-01,4.409308105773266373e-01,3.887341760004063840e-01,-8.963732749620925699e-02,-9.955598961520248369e-02,-2.172382727848135575e-01,4.813902080059051514e-01
5.573147271600847885e-01,4.979328530675810049e-01,3.705109775973517983e-01,1.976703443212236844e-02,2.095131475373869859e-02,-6.296883671056406617e-02,2.042385786771774292e-01
5.239240091187937765e-01,4.538161096165596597e-01,4.059951422044137948e-01,2.421662895364726578e-02,1.263953492504733128e-02,-4.469111404840773322e-02,1.370586901903152466e-01
5.899857049453578473e-01,4.388390593463318279e-01,4.151739942132078309e-01,-1.114263922673413426e-02,-1.554800720339096463e-02,-1.363175164929960881e-01,2.895295023918151855e-01
4.439451501817819334e-01,4.656847965182622229e-01,4.589985503791830235e-01,-9.565462287042881054e-03,-1.589396709670548927e-02,-1.364093530433421221e-02,4.430051520466804504e-02
5.149878316856615346e-01,4.244828722803722920e-01,4.549557122022868105e-01,-7.430870906041432862e-03,-1.530394283938247288e-03,-2.739822940840030280e-02,9.373615682125091553e-02
4.520728577654006819e-01,4.650610442217820717e-01,4.926123099815156725e-01,4.725371443837973230e-03,2.248482426549148431e-03,-2.030574724352485379e-03,3.715010732412338257e-02
6.386687663933618975e-01,1.973607438517177015e-01,5.274397669628456686e-01,-1.233718777281874596e-01,6.839827671133840055e-03,-1.558439037746361666e-01,5.260252952575683594e-01
4.597015879251265535e-01,4.607214690579666261e-01,4.819295092331608577e-01,4.628865013718389508e-03,2.496556464461362201e-03,-3.484649425189582581e-03,2.432810515165328979e-02
5.077150909024580328e-01,4.046301207259297983e-01,4.710260786572205149e-01,5.952217159192340831e-03,1.189213947138666877e-02,-9.735233977746591411e-03,9.489672631025314331e-02
5.075781358738823412e-01,4.172309953327394960e-01,4.549581688357803855e-01,5.984518761098488356e-03,1.053171814004401699e-02,-2.172661930662348265e-02,8.963111042976379395e-02
5.115198236029129264e-01,4.473099253023614663e-01,4.482039280677301840e-01,3.953693614768635789e-02,2.764766947468901698e-02,-3.353499543775729369e-02,1.200948953628540039e-01
4.859834742807800922e-01,4.543328568051250849e-01,4.494311306898212122e-01,5.741323591619726732e-03,2.017352173626185512e-03,-4.101964439481260889e-03,3.664023801684379578e-02
4.199454206383127497e-01,5.036586124951291099e-01,4.825736088620713460e-01,5.661053201197519674e-03,8.612086280463332813e-03,-4.973161093150065167e-03,7.797580957412719727e-02
4.111618500955883104e-01,4.940392367042191202e-01,5.004391328256420080e-01,1.945728553281188961e-02,2.966375264852282728e-03,-3.566162688355350475e-03,9.295340627431869507e-02
3.446884100884460844e-01,5.148469884722004508e-01,5.230386312538209959e-01,3.564234719083109876e-02,8.799063842433545862e-03,6.340715743873177705e-03,1.859541237354278564e-01
4.995964840886574221e-01,4.389601712525998956e-01,4.375660529969626067e-01,5.018334441509612193e-02,6.412752765340709593e-02,-9.738290817561065515e-02,2.282666265964508057e-01
4.720092352001541425e-01,4.699803177957848077e-01,4.592206030948643991e-01,-6.086064052253320998e-03,2.685304710154723124e-03,2.368145608045694409e-03,1.706739515066146851e-02
5.275903415884464209e-01,4.785926180829614407e-01,4.041070327747903201e-01,1.513612385477880636e-02,1.154654901501126450e-02,-3.726642351969403077e-02,1.298157870769500732e-01
4.547821893447969166e-01,4.561419632124952828e-01,4.923742228457734793e-01,5.715132986456142837e-03,2.028831223939921765e-03,-2.492003044991309736e-03,3.863754868507385254e-02
5.355541265758210212e-01,2.150835621395905117e-01,5.121451251426847318e-01,7.389723496731000207e-02,5.087735874443798101e-02,-1.086682579287535644e-01,3.941088318824768066e-01
4.780329248822057231e-01,5.003870327753440206e-01,4.497633979972927576e-01,1.447317506501254875e-02,1.848698570221493989e-02,-1.329325487865688424e-02,6.414568424224853516e-02
3.843098355751379258e-01,4.813812262387314744e-01,4.668300831873084533e-01,1.444550316539181811e-01,1.295810326049607053e-01,-4.939933325481354193e-02,3.584947288036346436e-01
5.775976853639055442e-01,4.216783631736149007e-01,4.612790484613402131e-01,4.098934510669857006e-02,2.727403130944131004e-02,-8.849447362580374621e-02,2.246560752391815186e-01
3.923605399153793916e-01,4.872059840433409783e-01,5.013956706750435366e-01,3.241333026673583195e-02,3.219869439898488672e-02,-6.498149989186042044e-03,1.301216781139373779e-01
4.203411692985820625e-01,5.133004842672878043e-01,4.821467403729320367e-01,1.218056053379697927e-03,7.967184273548314627e-03,5.778241634663072897e-03,8.373173326253890991e-02
5.663589134175632811e-01,5.461769562760162566e-01,2.968183625884476817e-01,2.382351231767991864e-02,2.865439231695886615e-02,-3.445978857725628258e-02,2.744957208633422852e-01
4.633756213412311142e-01,4.774088688910184675e-01,4.642408947061885671e-01,-2.555046680260348972e-03,7.386172605026914730e-04,1.052260218029542728e-03,1.449418347328901291e-02
5.275999346039756954e-01,5.221678383224774844e-01,3.410517411305737379e-01,4.635663020583478434e-03,-6.120906870409090900e-03,-7.792824887622520035e-03,1.848659962415695190e-01
5.226862105268614833e-01,5.113730364171726883e-01,3.673522583352943349e-01,4.735861288596956292e-03,-5.580309172901274338e-03,4.532547526072057062e-03,1.507369875907897949e-01
5.836512306442551701e-01,5.806294373636009531e-01,1.127310289422105982e-01,3.048751239942876917e-02,-2.225258956231556100e-03,-9.045926020280529133e-04,4.723957180976867676e-01
5.709047156613094032e-01,5.945541133299507841e-01,3.353947843946860630e-01,6.824035413679610529e-02,2.218438833342159799e-01,1.053707141371868633e-01,5.064752697944641113e-01
5.059633443117064200e-01,5.076468507091603799e-01,3.986051680704799649e-01,1.536241618481008243e-02,-1.123487923052106027e-02,1.808932597025249278e-02,1.173784509301185608e-01
3.607296896180774981e-01,5.666581481527350750e-01,3.637733380491450230e-01,8.391408471753758480e-02,-1.607554843794632982e-01,8.411086562552622103e-02,4.020754098892211914e-01
4.290874338059146309e-01,5.063646822068688103e-01,4.625112667897129382e-01,2.567246366532866149e-03,1.321535912389167934e-02,-2.292779896256282295e-03,7.117235660552978516e-02
4.490331488739188193e-01,5.173283832705738439e-01,4.473063379283251373e-01,6.409231074197712687e-03,2.288358023304026129e-02,-1.003293604699886585e-02,8.234890550374984741e-02
4.493231638187934474e-01,5.002157071941683020e-01,4.591728320562747379e-01,1.437434734499010679e-03,5.648635915559008756e-03,7.982519395562327671e-04,4.785001277923583984e-02
4.488696241289360511e-01,5.015192456363894991e-01,4.441287220533984836e-01,5.548110196398738612e-03,2.174976726510740449e-02,5.142020762407166013e-04,6.750081479549407959e-02
4.872284400055366116e-01,4.599224574008221045e-01,4.584258708104108626e-01,-2.156971714319150853e-03,2.396836171144714131e-03,1.741343960534855228e-03,2.879255264997482300e-02
5.941573871103751348e-01,5.072212948974925695e-01,5.638468017856395065e-01,-4.079221899484055530e-02,1.735474427915663920e-01,2.147935187953271541e-01,4.894879460334777832e-01
4.833881923840716577e-01,4.599347251727268771e-01,4.623095873274307710e-01,-1.987258773095284831e-03,1.992895419338848971e-03,1.591976102714349984e-03,2.305150777101516724e-02
4.767593691223816488e-01,4.632060198499770021e-01,4.646505864672929587e-01,-2.237528869722427236e-03,8.209905818511298433e-04,3.766646058474378890e-04,1.355244033038616180e-02
5.551814860489876491e-01,4.235353002646849996e-01,5.160393626073852547e-01,-7.323667821357494022e-03,3.353386867054971437e-02,8.049397057032928182e-02,1.915260255336761475e-01
4.825217124834255134e-01,4.664194411972859000e-01,4.516727949576346823e-01,-6.472163873627193552e-03,5.978231046528891500e-03,4.538140823826848289e-03,3.176271170377731323e-02
4.896854931977586145e-01,4.827982541691063778e-01,4.383653483444453491e-01,-7.750054264006617927e-03,7.615909174979445563e-03,6.068297954941635590e-03,5.284322425723075867e-02
5.001818386687622020e-01,3.531208086879539243e-01,5.573826984824383768e-01,7.156136004680713203e-02,-6.279019885533225790e-04,4.521158565628737025e-02,2.341098785400390625e-01
4.489263820588977882e-01,4.661315407796327026e-01,4.872922548163961531e-01,2.125004829309904905e-02,-1.294421471022892851e-02,1.441329259198714102e-02,5.990365147590637207e-02
4.564930991456494502e-01,4.768116770731293252e-01,4.376182210386015958e-01,2.227084636341262677e-02,-2.800031219132518429e-02,2.149758839610808880e-02,7.986913621425628662e-02
4.370129837691944519e-01,4.869175133067673578e-01,4.757043863744597756e-01,3.429215745507442452e-03,-4.779293217714683517e-03,1.042162224064783690e-02,4.986225441098213196e-02
4.340521545517580515e-01,5.020329912087888591e-01,4.618572691334064673e-01,2.172670701247300488e-03,-4.682198846065293608e-03,8.691647744698681455e-03,6.173222884535789490e-02
5.548368309060577319e-01,5.389146214626658882e-01,2.952488597796925074e-01,6.956664610365546897e-02,-1.419745246545823028e-02,1.620551523144675987e-01,3.967556953430175781e-01
4.493257424457026139e-01,4.877541147177841818e-01,3.542784673712234822e-01,9.682652450163030389e-02,-1.255572838780451284e-01,1.408848966097581146e-01,3.861721456050872803e-01
5.215491557683061830e-01,3.953947186863522312e-01,5.060753552688621593e-01,1.480949637607198270e-02,1.210107856386360026e-03,5.635593872269672663e-03,1.223107874393463135e-01
4.189667054404622726e-01,5.083904097183168380e-01,4.493907285679010211e-01,-2.895695009893277817e-03,-5.495141368027018844e-03,-1.661508426950557716e-03,7.953375577926635742e-02
4.503192039865823171e-01,4.826549099313753310e-01,4.474103671458815601e-01,1.121342780235060066e-02,-1.456817215032344889e-02,9.682953544973145824e-03,4.942990094423294067e-02
4.717604783413482106e-01,4.715327858891724677e-01,4.632529145858182429e-01,-7.267534718332344969e-03,1.381125255965093106e-02,1.153466935032378821e-02,3.464595973491668701e-02
5.065812165946685930e-01,4.880119302144403926e-01,4.037224846095129882e-01,1.263901676063559736e-02,2.357984231327162322e-03,-1.481253368120987422e-02,1.008408218622207642e-01
5.047182282616617943e-01,5.097390710113554047e-01,3.484832701179205738e-01,2.047148230874955288e-02,3.651213261105604874e-02,-3.430321330374979522e-02,1.844065785408020020e-01
4.970079736763664546e-01,4.591664949084924841e-01,4.436499702496256581e-01,8.268457498317038565e-03,2.712392292240653653e-03,-3.583887228060359670e-03,5.025549232959747314e-02
5.156997313081447265e-01,4.974715486401442566e-01,3.791666625127184664e-01,1.526125692098607642e-02,5.170287917719398711e-03,-1.156954465889306616e-02,1.329107731580734253e-01
5.179146387837079146e-01,4.703815795321804050e-01,4.016161549443540424e-01,5.007752321633362168e-03,1.246128613906976462e-03,-1.053625887082897290e-02,1.032939329743385315e-01
4.657645669259807830e-01,4.766391290516944212e-01,4.620568223298063271e-01,2.896960788939652396e-03,7.714987389494562227e-04,-9.239920907142886190e-04,1.420730911195278168e-02
4.626036082654859660e-01,4.817357814578732134e-01,4.602701152279223273e-01,1.565212317136377125e-03,-6.494175432030784988e-05,-1.303020607479559714e-03,2.070231735706329346e-02
4.523567527599109961e-01,4.954645158126620430e-01,5.124973948758141384e-01,5.497176072260369362e-02,2.804949188711113039e-02,-2.464623994318427755e-02,1.270077377557754517e-01
4.883867834056185853e-01,4.198685550761059870e-01,5.018510412677200661e-01,1.131470867135785097e-02,-5.392055091957060654e-03,5.483568368681602037e-03,7.975011318922042847e-02
5.018189387393431344e-01,4.004844405934098184e-01,5.134918913310780875e-01,2.153551700086847251e-02,1.064085319820605793e-02,2.068784545121673656e-03,1.154628470540046692e-01
5.310408739631391484e-01,3.680664061911329554e-01,5.165415224808492800e-01,7.346259717432764187e-03,3.097178626249823610e-03,1.096465932298840151e-02,1.579849272966384888e-01
4.699331677021563736e-01,4.595211716829057935e-01,4.716321560632604770e-01,2.914357991141043602e-03,-6.448613910172554253e-03,2.874745991100450138e-03,1.743596605956554413e-02
5.264445961337109736e-01,3.538067965888661015e-01,5.266569808334218283e-01,1.205325066378164570e-02,1.080350783832227483e-02,-4.148190490628249349e-03,1.751517355442047119e-01
5.232476170123289139e-01,3.562076423780130563e-01,5.113611373712180219e-01,-1.090481047154563590e-03,8.652526021714060031e-03,1.769055846684021091e-02,1.650004833936691284e-01
6.852681917492930985e-01,4.155579647533761412e-01,6.060431122914142765e-01,1.192003707410381613e-01,3.976345275192173095e-02,2.346755541429972058e-01,5.198459625244140625e-01
5.022158849263806957e-01,3.990623792488149357e-01,5.144657891918102965e-01,2.160868206536886715e-02,4.327029887219080787e-03,1.951475442081275491e-02,1.210527941584587097e-01
5.154069676348569384e-01,3.975068395978418323e-01,4.979734798814960950e-01,1.230079599732547286e-03,4.302407164383448973e-03,2.302569198834137493e-02,1.174715906381607056e-01
5.935412096049026420e-01,1.725079177306992895e-01,6.331132890611860242e-01,8.763885122288200824e-02,7.598443698522154566e-02,-9.917356054185813563e-02,5.151358246803283691e-01
5.298204988301514762e-01,2.881227662697019576e-01,5.398692092780571494e-01,1.383779793625642025e-02,1.054519410976249329e-02,1.234328395925704536e-02,2.496250122785568237e-01
5.130738178886561363e-01,3.808013193567180710e-01,4.742893642517299058e-01,-5.543191175458647875e-03,-8.794203910535002000e-03,-2.366141368907714523e-02,1.259917169809341431e-01
5.299179989194449103e-01,3.702367894930072012e-01,4.922096780527728810e-01,-2.487834151686574291e-03,6.793129291822676448e-03,-1.552388155337102588e-02,1.475760042667388916e-01
5.429161395162851456e-01,2.766145903857618604e-01,6.515960006517380609e-01,-1.641476635413735841e-01,-2.949172926752428175e-02,-8.977325915825777602e-02,4.682838916778564453e-01
5.587075667902952070e-01,2.389668304459521275e-01,4.865107474663015741e-01,-5.059376508564839697e-02,-1.534268685650540427e-02,-1.546086556074972307e-01,4.055356383323669434e-01
4.601934961661990342e-01,4.880884559714104842e-01,3.931255044465586934e-01,1.026380700062458767e-01,9.333675826407361598e-02,-1.159138452646944900e-01,3.243364393711090088e-01
5.090551751123244539e-01,3.328771172959759106e-01,4.155240169541425388e-01,-1.030744456571671963e-01,-8.246955633810230946e-02,-1.660539384650464578e-01,3.978782296180725098e-01
4.522150152232056741e-01,4.455258149569178983e-01,4.980245474299609953e-01,-9.890620359601679738e-04,3.974668565743572426e-03,1.097691284453448674e-03,5.003629997372627258e-02
4.461788240939889016e-01,4.404508552778985120e-01,5.031818288199276790e-01,-1.153483580247288351e-02,3.249315497885208338e-03,2.587103513644067269e-03,6.371478736400604248e-02
4.450016867917483965e-01,4.518958183250252336e-01,4.966126759123025702e-01,-3.177431883660557146e-03,4.854534354684349683e-04,6.985794362725982962e-04,4.886583238840103149e-02
4.274373952287650047e-01,4.718136663544515441e-01,4.258847936327627148e-01,-4.405356120913973828e-02,-6.233695955426726831e-02,-4.573292707829836740e-02,1.606079190969467163e-01
4.802772350652149136e-01,4.799295009032763515e-01,4.199831670375573367e-01,-1.674381020137536216e-02,-2.366433397548623266e-02,-2.067084989867282521e-02,8.612461388111114502e-02
4.618934747317441913e-01,4.882018612010050052e-01,4.147515427585139469e-01,-1.913092068317694128e-02,-2.206338899784683616e-02,-1.205730918690925586e-02,8.455301821231842041e-02
5.013296238440514418e-01,4.348173835022725031e-01,4.401884187619914957e-01,1.751347871943850993e-03,2.203842210553945500e-03,-8.316043650228130413e-03,6.577787548303604126e-02
5.589677302921040036e-01,4.820445819046814684e-01,3.496747078892188942e-01,4.136051511995478963e-03,-3.659225741571423690e-02,-8.352680599615615320e-02,2.421151399612426758e-01
4.845236850943795970e-01,4.512855880806707631e-01,4.301304932397052583e-01,-1.800932621995671168e-02,-1.665536627099309386e-02,-2.210941247049393044e-02,7.434482872486114502e-02
4.664808525849536425e-01,4.584495954677859642e-01,4.338552648179240800e-01,-1.242834406954575546e-02,-4.549965059911702768e-03,-6.678246925425557028e-03,3.906661272048950195e-02
4.681370160093470956e-01,5.426182858204995352e-01,2.708581053812754158e-01,-3.594696090580765807e-02,-1.683864020725677202e-01,-1.041872981312609303e-01,4.250452816486358643e-01
5.414969869450967366e-01,4.749258583176472759e-01,3.959404623598197781e-01,6.299361699449969147e-03,-8.013703213821754632e-04,-4.226216093842857097e-02,1.463140398263931274e-01
4.910732352695745262e-01,5.115664341029139139e-01,3.869341303272970101e-01,2.851708881433879031e-02,-4.784034036935588818e-02,1.540838421112049501e-02,1.530264317989349365e-01
4.559080677841716445e-01,5.005969222095920657e-01,4.532509891963936166e-01,-1.068580358767372762e-03,1.412326887677230886e-02,6.272264299478657636e-03,5.331740155816078186e-02
5.791528623097104145e-01,5.565674891482400577e-01,3.370956090680348183e-01,-3.679428110966706522e-02,1.053577173177638882e-01,1.387848825307368972e-01,3.857211470603942871e-01
6.972373193716053796e-01,7.019428241431158177e-01,2.585279697692087764e-01,6.324655169498526186e-02,1.133726915718433897e-01,9.679093895417764659e-02,5.227028727531433105e-01
5.058617189783199963e-01,4.584433791162622063e-01,4.565905360750104336e-01,3.915823928158834212e-03,4.118814732781397783e-04,9.661490923067221626e-03,5.163655430078506470e-02
4.329453138154147340e-01,3.964306291327425735e-01,5.260161036541366464e-01,-7.543570361636575683e-02,2.858227755882855603e-02,5.042949952736931751e-02,2.013599425554275513e-01
5.226600697433064768e-01,5.093523116791972560e-01,3.524040621877370105e-01,7.442238808537723210e-03,-1.347438084913026816e-04,3.991719180200696722e-03,1.646587252616882324e-01
4.923035912200655062e-01,5.377198477929054921e-01,3.834177869679792905e-01,4.576085972584516964e-03,5.888340724123444780e-02,-1.093797955987182123e-02,1.723004579544067383e-01
4.404186663694235060e-01,5.088318183237416914e-01,4.775788922047489171e-01,-1.407590366594449124e-02,3.123890520266560736e-02,2.052382988887413787e-02,9.113000333309173584e-02
4.476736028788133037e-01,4.606203549376558515e-01,4.840632399203879110e-01,-8.772152817018040102e-03,5.615051603702728676e-03,1.031426117873651856e-02,4.080792516469955444e-02
5.059530597940872232e-01,4.655076641525712211e-01,4.219889484919086553e-01,1.029833142960669959e-03,1.004868365955228051e-03,1.419427340202638992e-02,7.681460678577423096e-02
4.964911182376389176e-01,5.227341826366134203e-01,4.000807421146136966e-01,-9.452880397952574676e-02,1.003859242602185980e-01,1.587342693623142453e-01,3.809757828712463379e-01
2.612984954075711075e-01,5.516390653712905934e-01,4.256901475410166391e-01,-6.878108788119967343e-02,-1.820475470829608922e-01,-4.705341499839921227e-02,4.287787377834320068e-01
4.075496476905817733e-01,5.648236269515591879e-01,5.096058169183833586e-01,9.802939154118937848e-02,-1.375044408777397198e-01,1.878470489537646393e-01,4.588147997856140137e-01
3.936420347445245826e-01,5.173013026893352739e-01,5.580002718597801836e-01,6.167535949265517264e-02,3.218123013227332935e-02,3.767253617785293329e-02,2.018834501504898071e-01
4.909794584058723710e-01,5.292033330353981269e-01,3.617674458903061829e-01,-4.525755663509218457e-02,-5.680994495352195695e-02,-5.961144574833146526e-02,2.226728945970535278e-01
4.602090493801110349e-01,4.857059416175417144e-01,4.410540499694008965e-01,6.028698568242264744e-03,-4.489473763244820545e-03,1.602505687459664444e-03,4.101955890655517578e-02
4.242498852259599662e-01,5.222568691173222755e-01,5.939763654377854252e-01,1.879548827653082788e-01,-1.119452795319385470e-02,1.679902986550007027e-01,4.612996280193328857e-01
4.025626593991950553e-01,4.750961631233711069e-01,4.751493362530352371e-01,-1.279525564094954708e-02,-1.275447672846426531e-02,-1.729950805133072603e-02,8.451019972562789917e-02
3.948669022356923741e-01,4.753512640250817656e-01,4.927132947830675236e-01,-1.331565040173742984e-02,-6.645371409687607367e-03,-1.583735439360102124e-02,9.794596582651138306e-02
5.097055290418617268e-01,5.270318060587926290e-01,3.375996838372816722e-01,6.610037440535436286e-03,-6.856021139787173146e-02,-5.706456776823159126e-03,2.173312008380889893e-01
4.009495556376719283e-01,5.123763001843111287e-01,4.666191770773204239e-01,-4.364397025656242650e-03,-1.037328985289730221e-02,-3.158245346574782824e-03,9.910070151090621948e-02
4.080832119148682380e-01,5.475836124126496340e-01,4.758991143322930939e-01,3.055419290702994853e-02,-6.563601432687987680e-02,1.155269429304200089e-02,1.752836108207702637e-01
4.498278992818147137e-01,4.544068309985569432e-01,4.618660000594175252e-01,-3.224733723313770450e-03,-3.038995959678821284e-03,-6.688095529917007648e-03,1.743146404623985291e-02
4.430038034525882185e-01,4.435016137434893979e-01,4.982379460901404378e-01,-2.399147768482282495e-03,3.909576547611824486e-03,1.020668196979401072e-03,5.558605492115020752e-02
4.493520334660616178e-01,4.524136143563171064e-01,4.930839145796007128e-01,-1.641324626066841159e-03,2.485976291199400081e-03,3.828264319092209312e-03,4.311091452836990356e-02
4.388212406294838552e-01,4.466360783422522185e-01,4.973684340020327332e-01,-7.161615101659064495e-03,8.008788023023293750e-04,3.309713127353060974e-03,5.674470588564872742e-02
4.513984533719442860e-01,4.438420868945034958e-01,4.966978706053175041e-01,-3.565663024847648410e-03,7.326590655983921492e-04,7.607019546822320517e-04,4.992917925119400024e-02
4.415853359254816035e-01,4.424197244164406739e-01,5.082570056907503853e-01,-9.503687890011373873e-03,2.268485370928943583e-03,2.081761197968997647e-03,6.848048418760299683e-02
4.435248918836701137e-01,4.441621947245208979e-01,4.924679328649437249e-01,-7.238365453563766483e-03,4.276054511614643498e-03,2.704717821328295885e-03,5.097664147615432739e-02
4.356148132375768367e-01,4.395581809211779878e-01,5.046636034738292143e-01,-1.386337808448175665e-03,7.780597696989959377e-06,3.296378289740432475e-04,6.720931828022003174e-02
4.279370287377807780e-01,4.740982724574632767e-01,4.573457961402435101e-01,-3.974625572912962590e-03,-5.972481105441427261e-03,-1.211521599767059060e-02,4.725389555096626282e-02
4.207477464800943312e-01,4.509144721127604782e-01,4.703643019784660151e-01,-2.897541860944524011e-02,-1.667122707630694714e-02,-2.145585405042092428e-02,8.129354566335678101e-02
5.219281046946443459e-01,5.221367806724698246e-01,3.431077700267623487e-01,3.155168618767034000e-03,-7.097845476065893500e-03,-9.031598062453585762e-03,1.801104843616485596e-01
4.907044851214734660e-01,4.569629678383842486e-01,4.215065976452194718e-01,-1.060449916447045796e-02,-5.004786946214716606e-03,-6.058515405182243220e-03,6.414532661437988281e-02
4.986720678374264026e-01,4.292599303896875163e-01,4.440024028476526885e-01,-8.239060448499492539e-02,-8.584338905607398484e-02,-1.181640611005865260e-01,2.972746491432189941e-01
4.588194308038076596e-01,4.656300616894623046e-01,4.421763068583561274e-01,-9.027631801231532013e-03,-4.002434789230610579e-03,-4.664073027248619510e-03,2.818762138485908508e-02
4.518457656685193613e-01,4.919137712952049157e-01,4.307209752947888104e-01,-9.827222636355040231e-02,-1.251224101970377089e-01,-9.447696552193186881e-02,3.249845504760742188e-01
4.608549137022324160e-01,4.349757725778789497e-01,4.766838266272066527e-01,-1.595287830781732391e-02,-1.397726405638302118e-02,-1.320535886802031919e-02,5.659189447760581970e-02
4.473197785859109321e-01,4.201606735807430493e-01,5.156941745544091349e-01,-1.050349356924887845e-01,-7.114464383759561139e-02,-8.932785506709146894e-02,2.819392681121826172e-01
4.458560295256277506e-01,4.986400937775709585e-01,4.157339285500299964e-01,-1.890299616262846802e-02,-2.946849906000925320e-02,-1.743763924761723011e-02,9.936209768056869507e-02
4.915823880175801963e-01,4.153424287340197751e-01,4.547470464090311859e-01,-4.971158096816605775e-03,-1.227758453507311366e-02,-7.649482651658347926e-03,7.115438580513000488e-02
4.990000655983469202e-01,3.975413484356374871e-01,4.690906528030792666e-01,-5.408245773869652280e-03,-1.312620316820825583e-02,-8.779410039407983465e-03,9.481427818536758423e-02
5.176192714797057670e-01,3.798659318054105061e-01,4.746211366244972307e-01,-1.655984702594103311e-02,-4.750233443179080646e-03,-4.069811801050594174e-02,1.440870463848114014e-01
4.440750477958639308e-01,4.894678478671619648e-01,4.384852031473974177e-01,-1.787615994795412272e-03,-2.884036996362400983e-03,-2.006727502956810131e-03,4.890922084450721741e-02
5.880692049721045755e-01,3.975696720611731072e-01,4.168847132828581992e-01,-1.873528385845716487e-02,-1.621684994036818109e-02,-1.337711019743554330e-01,2.975058853626251221e-01
4.689327021679048912e-01,4.625460832328501803e-01,5.386681972489062442e-01,7.086919741077125912e-02,2.826916801825412121e-02,-1.256131962811258412e-02,1.526018679141998291e-01
4.724674043307190430e-01,4.673101239927944239e-01,4.705107731617961808e-01,-4.484970585474958894e-03,5.388205162208784677e-03,5.174779051536463476e-03,1.575160957872867584e-02
3.613426714311626653e-01,5.128166889663811068e-01,5.837439066048535352e-01,-8.360864998065802023e-02,1.064753820538724347e-02,2.631359295142187901e-02,2.492132037878036499e-01
4.415720684840044874e-01,4.367260983418422282e-01,5.075660756277451391e-01,-6.813240092182036231e-03,2.488462292938158852e-03,3.097282388345010476e-03,6.989359855651855469e-02
3.740947485877726408e-01,2.972006326516583030e-01,5.870415706462257521e-01,-2.020290096196379892e-01,-2.871289412643755930e-03,-1.904877647372246047e-02,4.372572302818298340e-01
4.473739906980853109e-01,4.766546398496749326e-01,4.747523293815535395e-01,-3.897461681388691632e-03,6.065088160258969019e-03,1.118005457956722237e-02,3.655381873250007629e-02
3.977364398884288832e-01,4.772161408254443904e-01,4.896001091472962363e-01,-6.939344955002579862e-02,-6.490430432587972198e-02,-5.496275880524460061e-02,2.088095545768737793e-01
4.511526826138398394e-01,4.252242912247474194e-01,4.745324598252670945e-01,-2.947570037155601563e-02,-2.420551435231087928e-02,-2.301340887091040885e-02,8.819364011287689209e-02
4.337598256074594594e-01,4.399624423584866384e-01,5.027991680663931318e-01,-8.907996214821327016e-03,1.690650436333292770e-03,2.525090130432513548e-03,6.813544780015945435e-02
4.129236298282283890e-01,4.480487524940058308e-01,5.007751840653426045e-01,-1.635423054057022138e-02,-8.015836015509659671e-03,-8.221289356043720228e-03,8.404632657766342163e-02
3.636086890268918070e-01,5.133357973190271206e-01,5.041886703722273655e-01,-4.386392250046979024e-02,-3.632594778297736082e-02,-6.276197764272621604e-03,1.760151386260986328e-01
4.953663641011176733e-01,3.739425011382497277e-01,5.034629998595026024e-01,-7.895451302972734953e-03,-8.840547688809272456e-03,-1.006200624077272301e-02,1.285209953784942627e-01
5.105777863499647573e-01,3.891161604647461192e-01,4.752767331966820663e-01,7.361082908858814292e-03,1.052760474630190513e-02,-1.832526567772617410e-02,1.149515658617019653e-01
4.409717195819996549e-01,5.733616350943634421e-01,6.685884795695553606e-01,2.067681059140785704e-01,-9.197178315288104949e-03,1.147067495729460901e-01,4.551792442798614502e-01
4.821798605582504615e-01,4.174745218506206168e-01,5.169292768025746110e-01,3.110685899007526942e-02,1.751283599577493216e-02,-4.694006269001370357e-03,1.073866114020347595e-01
4.906804277990242102e-01,4.182464206565897347e-01,5.237725739904924849e-01,2.897938612129307215e-02,1.021397295414659505e-02,-2.327941986687938423e-03,1.076448783278465271e-01
4.585120411622585768e-01,4.570685719745199993e-01,4.922658152507723983e-01,1.748298208033620838e-03,2.477097731661573494e-03,-1.061499626377097145e-03,3.494397550821304321e-02
4.844167167176409161e-01,4.161705183664914376e-01,5.131511878939972737e-01,5.753516628137348744e-03,5.301833879930570835e-03,1.859650710094050202e-03,8.739704638719558716e-02
5.207329482492460970e-01,4.258860216508044694e-01,4.516851363146819898e-01,8.917617606295010369e-04,2.837167503091139308e-03,-2.158406887088511542e-02,9.294470399618148804e-02
4.587213781745019814e-01,4.649144454981372632e-01,4.671464206896545068e-01,-7.601554365884058244e-03,8.034779736814986334e-03,7.766859755401257261e-03,2.459989488124847412e-02
4.645194870261770692e-01,4.661002215177831864e-01,5.565765593950422474e-01,7.337801244597395856e-02,1.377103486133964688e-02,1.800547889825756739e-02,1.613257527351379395e-01
3.741012455273924897e-01,5.320345109303830089e-01,5.278037385469521725e-01,6.683642073095606706e-02,-6.481558043763881172e-02,3.535764182869107625e-02,2.324814498424530029e-01
5.249782701050620393e-01,3.846938122712504349e-01,5.468236176654814873e-01,3.908410420089910436e-02,2.141288221640361839e-02,-4.235563022650854631e-02,1.859079003334045410e-01
4.474770841454058234e-01,4.696422574831011776e-01,5.156844144157982646e-01,2.573387600333088346e-02,6.559059396276037054e-03,1.259301888761611612e-03,7.584343105554580688e-02
4.690680017150902770e-01,4.289506641188015612e-01,5.006402097900569670e-01,1.198076979050499528e-02,-5.656001513623833479e-03,4.525727456865693069e-03,6.678946316242218018e-02
4.552569030821205787e-01,4.295459560977090696e-01,5.055579146287363379e-01,1.685217175715045257e-02,2.161265304224080711e-03,2.878214364306986087e-03,7.331700623035430908e-02
4.639040368575502171e-01,4.386349026272144402e-01,4.966866410914894114e-01,9.812811569464207836e-03,-6.122921705343787636e-03,4.157554302446134047e-03,5.472491681575775146e-02
4.464834467900415937e-01,4.502565338806872042e-01,4.684636827538881665e-01,-7.396047081429843982e-03,-7.472608007305473442e-03,-7.832639175789614383e-03,3.049767948687076569e-02
4.592753543524667470e-01,4.278394094444030737e-01,4.970178502144852462e-01,1.682998091115240485e-02,1.689666419644718365e-02,-6.950845811403372210e-03,7.382658869028091431e-02
4.669234537213203251e-01,4.363366351837378865e-01,4.982822699213977358e-01,2.406659505799063625e-02,1.326514252310951984e-02,-1.091151643152625528e-02,7.416719943284988403e-02
4.584952215636234341e-01,4.149559405920438260e-01,5.165215351020595591e-01,1.497858676446376103e-01,-4.740802633298787233e-02,9.953630930000852139e-02,3.340083062648773193e-01
7.134902717193873922e-01,5.700782666690975553e-01,2.499933259990916867e-01,5.401993003070263560e-02,8.658018208279775335e-03,-1.797901627151872184e-01,5.242882966995239258e-01
5.135107705042684101e-01,4.743024940214503604e-01,4.153417092236012520e-01,1.015936506884532360e-02,5.530573976007785442e-03,-1.706433627810170772e-02,9.273827821016311646e-02
4.861545953389863062e-01,4.786486820992151836e-01,4.396532553327756054e-01,1.133735670289734605e-02,3.012581428312368498e-03,-3.176182101199611241e-03,4.809133708477020264e-02
5.152755727575072386e-01,4.692181427533292926e-01,3.967420603682875191e-01,6.120292045078303336e-03,-1.487432372718302306e-03,-9.630508585362967597e-03,1.054010540246963501e-01
5.376205271776736128e-01,3.885176954633939861e-01,4.615486299379725765e-01,8.313719364747416962e-03,8.578061676795888102e-03,-4.720748587140654456e-02,1.542394161224365234e-01
4.861854658906784588e-01,4.960017202940233405e-01,4.253499705831866873e-01,1.160001134901876216e-02,5.456014190735099072e-03,-5.658978045897725996e-03,7.059426605701446533e-02
5.492613209944103847e-01,4.473940400894971248e-01,4.078703985230341389e-01,5.420270259165489712e-02,1.075180451201045578e-01,-1.392720184711996878e-01,3.430007398128509521e-01
4.964879808476439504e-01,5.050598409027133862e-01,3.854969998714491974e-01,2.303304901009122635e-02,3.274641537958153381e-02,-2.974166446310167605e-02,1.442432701587677002e-01
6.278990104371471315e-01,2.877345114255797087e-01,4.754338979405650645e-01,-1.114067976658361485e-02,6.839924362330354612e-02,-2.353273600637972585e-01,5.173382759094238281e-01
5.355531347814344034e-01,3.753744790791505026e-01,4.326578689826279800e-01,2.170927157235125540e-02,2.335651121615232861e-02,-9.189581097772536733e-02,2.194264978170394897e-01
5.142562644804670180e-01,4.004746231914417809e-01,4.674071795611243751e-01,-1.211236959430239549e-03,-3.319828900526756391e-03,-9.621157697019237440e-03,1.006265282630920410e-01
5.599991594013805640e-01,4.340936834522680643e-01,4.492426246282923974e-01,1.589703251594590944e-02,1.570073276910843169e-02,-1.126065406355016008e-01,2.317600697278976440e-01
4.528560740990585920e-01,4.772507237934458524e-01,2.516739361112065865e-01,-1.076891057530766499e-01,-1.739591382614993353e-01,-1.578095296729642161e-01,4.962507784366607666e-01
4.520625278491938182e-01,5.115402306950238565e-01,4.692399622761647682e-01,-1.412762626653681769e-03,3.202510346514721162e-02,1.164012810156441792e-02,7.937426865100860596e-02
5.214931379130235412e-01,4.467787522082733997e-01,4.375339262305019683e-01,2.619455705631431458e-03,1.731801465994410203e-03,-2.657001204303279657e-02,9.222747385501861572e-02
4.956759912349538166e-01,4.375918917062457392e-01,4.990350231304458428e-01,2.961025304097321398e-02,1.995439846430466929e-02,-2.120636355968888442e-02,9.356343746185302734e-02
4.932973180135266644e-01,4.233481797981976102e-01,4.744296185655680342e-01,1.053842911754584478e-02,1.284033095081089579e-02,-7.041751257382260210e-03,7.004033774137496948e-02
4.723172379361838535e-01,4.459088984264960587e-01,4.717506351928743569e-01,7.340699512255162776e-03,1.052275388748214607e-02,-5.557587775719157429e-03,3.562669456005096436e-02
5.405400131479535242e-01,4.300264855263847275e-01,4.041094596729852273e-01,7.611633329468047056e-03,-1.190468873685623496e-03,-5.152091521541395797e-02,1.545651704072952271e-01
5.128822389148146588e-01,5.161809070406664368e-01,3.596724188826314061e-01,-5.443312051443363088e-03,-2.388011980138681281e-02,-1.935758037638100545e-02,1.640528440475463867e-01
5.280429130163193374e-01,5.106744997831391686e-01,3.509320439907356315e-01,2.479266102598555455e-03,-6.075309987713577685e-03,-1.633726051862703296e-02,1.718245446681976318e-01
5.125353048842102854e-01,3.793170145355855838e-01,4.784023688826289922e-01,-4.620487242463959011e-03,-8.195828058840561384e-03,-1.868218442887760455e-02,1.252105087041854858e-01
5.805189042833175384e-01,3.768581678587188954e-01,4.230234005894403793e-01,-6.062496245106649938e-03,-3.060767200640285637e-02,-1.175005572548219607e-01,2.802619636058807373e-01
5.177224522659669148e-01,4.741261376889636669e-01,3.816933036482178521e-01,2.044920523090188336e-03,7.299534116745165068e-04,-2.452433373858708618e-02,1.276427507400512695e-01
5.224437883617694123e-01,5.105371539199085040e-01,3.484901835748013266e-01,4.579176329016375682e-03,-2.667894964440757806e-03,-1.722521242429071037e-02,1.711864620447158813e-01
7.210832480308470016e-01,5.270682582360255442e-01,1.933762298784599820e-01,1.740895678258473980e-02,3.308294134476195969e-02,-1.032597550399811104e-01,4.999138116836547852e-01
5.820057925285762046e-01,6.993059418622173951e-01,1.606616349569418012e-01,4.873733935966502451e-02,-5.747606051512284958e-02,-9.917576669566466330e-02,5.359644889831542969e-01
6.047934775056069689e-01,5.026401770828663462e-01,2.647846079874462966e-01,-1.715104514541196043e-02,-8.603974317603912264e-03,-1.362419215257286709e-01,3.848356008529663086e-01
5.615203494555388586e-01,4.341804600070440223e-01,4.109580152049102653e-01,4.932540041752437460e-02,4.280321213906599503e-02,-7.152670866757725177e-02,2.187588065862655640e-01
5.228248547255944789e-01,4.399784494962755144e-01,3.483261341907974429e-01,-2.789780686557173997e-02,-4.073545557484949814e-02,-8.521852586612664593e-02,2.279393076896667480e-01
4.978786994118631348e-01,4.474311942167653600e-01,4.413124515441386175e-01,3.750176536688834897e-03,9.427719956384727259e-04,-7.624397901137079658e-03,5.577021837234497070e-02
5.648355668775033589e-01,4.828509125605321972e-01,3.589729950285791560e-01,3.286252571668186323e-02,6.595952236835464499e-02,-1.029139839960609981e-01,2.833531200885772705e-01
6.674168426352272698e-01,3.532083757946434810e-01,4.448816162963266652e-01,9.490881293026321363e-04,8.775072449224768922e-02,-1.831692939195337100e-01,4.495360553264617920e-01
5.408875592882631533e-01,5.389618085592569052e-01,3.266282866798119189e-01,1.988084291774027887e-02,-5.535193039851222380e-02,-3.240753071775829414e-02,2.429529428482055664e-01
4.947868739155883433e-01,4.330695632729922306e-01,3.895431361291520900e-01,-1.108510446122531884e-01,-1.221424220392403059e-01,-2.291253017283435833e-01,4.974990487098693848e-01
4.960024217807005864e-01,4.885825442784042516e-01,4.152382451230787197e-01,1.808027182403265307e-02,1.259970547090685962e-02,-9.772897490903483669e-03,8.787560462951660156e-02
4.957458989565249885e-01,4.760201092446300075e-01,4.238004414476199688e-01,1.600175803951065304e-02,1.185430639982589136e-02,-6.935870760758053137e-03,7.402794063091278076e-02
5.144079268708929842e-01,6.494427357716060500e-01,3.046020558122977118e-01,1.670744751128398209e-01,1.340314915930615469e-01,-8.958117109600523265e-02,5.022881031036376953e-01
5.101017073863234330e-01,4.515791261269433421e-01,4.361408937143249065e-01,6.662094726051018267e-03,4.796280296202644865e-03,-2.034784302520268109e-02,7.753054052591323853e-02
5.208046337259231162e-01,3.752644263486189513e-01,4.959884464069302390e-01,9.797901237258684407e-03,1.326350667741165584e-02,-9.592597177854834609e-03,1.388447135686874390e-01
5.027005224763658742e-01,4.369674297127647544e-01,4.513769252776998475e-01,6.518335463454962009e-03,7.617700782738245566e-03,-1.082826425897615193e-02,6.507381051778793335e-02
5.055015601107155643e-01,4.460337006321327680e-01,4.273275389065287477e-01,3.565362626000944096e-03,1.652991156832278640e-03,-1.002914252585444810e-02,7.312212884426116943e-02
4.718928979325777151e-01,4.735364522672588228e-01,4.017461970181207542e-01,-1.789014577219564042e-02,-1.544363062612841113e-02,-1.264509179042010850e-02,8.481706678867340088e-02
4.726993444639960851e-01,4.912208231201612985e-01,3.983871921344636635e-01,-1.527069748625446005e-02,-1.432410868877925444e-02,-7.472220592304105839e-03,9.340415894985198975e-02
4.331614092931667104e-01,4.919211386643221329e-01,4.490266499842375802e-01,-2.838488722097186421e-03,-5.089059412054646424e-03,-8.632314644416307081e-03,5.565601214766502380e-02
4.416750451491714968e-01,4.815800125916334662e-01,4.440432004376076436e-01,-3.128182598529223547e-04,-8.147954040884770833e-04,-4.009450031762437638e-03,3.942113369703292847e-02
4.542273733483200848e-01,4.613652979771627471e-01,4.400065897533144699e-01,-1.523183332191848337e-02,-1.405004066260348052e-02,-1.527900441842689958e-02,4.840731993317604065e-02
4.831122451982258759e-01,4.440273784683659852e-01,4.415568689695595350e-01,-4.146196968320680146e-03,-1.167785297404225556e-03,-8.590030657958597562e-04,4.108731448650360107e-02
5.127983272281821936e-01,4.060425973504185326e-01,4.492186650968914008e-01,-1.263704466867918933e-03,-4.168640383160057868e-03,-1.517801822406193539e-02,9.695208072662353516e-02
4.973728759056084692e-01,4.425458991214640814e-01,4.323045593860718738e-01,-6.767904750575769873e-03,-2.528064176624435569e-03,-6.471391744399425730e-03,6.288567185401916504e-02
5.082814978104467363e-01,3.076654770511226267e-01,5.562173138528054839e-01,-7.765421730510729814e-02,-1.328475738893042032e-02,-4.009415662863351562e-03,2.661381959915161133e-01
4.832379882229042578e-01,4.389486862936454736e-01,4.456366604105811979e-01,-2.897199723433619041e-03,-7.249908297164206657e-03,-4.852771211684891485e-03,4.431228339672088623e-02
4.611288864868137161e-01,4.663305928250650600e-01,4.529012216996836648e-01,-1.006733569934480273e-02,-5.338619705068482942e-03,-8.328533700070844120e-03,2.711456827819347382e-02
4.386520995920188959e-01,5.082629464425664212e-01,4.463214843373726204e-01,3.580482074023043186e-03,-8.599474722904584464e-03,3.056001820815019716e-03,6.825648248195648193e-02
3.940755026072934042e-01,5.149275228314723618e-01,4.303999787714878900e-01,-1.279029189166648942e-02,-5.171154354801271030e-02,-1.356928180600104963e-02,1.435276716947555542e-01
4.742643682128981908e-01,4.684418108784467183e-01,4.658248212768007490e-01,5.180481823180684876e-03,-3.320743863736380728e-03,2.838844126720010876e-03,1.391975861042737961e-02
4.708526779474189738e-01,4.797081949075719942e-01,4.797175984422113459e-01,3.148480208693719279e-02,-1.592007921169175805e-02,2.036573328208394693e-02,7.111271470785140991e-02
4.528058569529919697e-01,4.933730597626893588e-01,4.465875856326683713e-01,5.755955949982077477e-03,-7.776714215514762829e-03,6.722928995873036356e-03,4.850815236568450928e-02
4.524780652100378053e-01,4.990096126881360949e-01,4.395869270954840258e-01,5.613476696051080544e-03,-6.531234406724665577e-03,1.398814510434183162e-03,5.621019005775451660e-02
5.439651689899654974e-01,2.692678614230072931e-01,4.565367030923657699e-01,-8.568812567169770134e-02,-6.707903993932236297e-02,-1.464467304414359405e-01,3.986879289150238037e-01
4.060463464310555270e-01,3.575066685107120001e-01,4.955580167365662425e-01,-1.844710315020360036e-01,-9.847990400839154446e-02,-1.181124950348719505e-01,4.332996010780334473e-01
4.695620471092639692e-01,4.187445228083762072e-01,4.803334815131959923e-01,-5.496206175290978789e-03,-1.439887094265233404e-02,-9.095755966870804413e-03,6.485851854085922241e-02
4.322901905925975452e-01,4.301157232714160061e-01,5.099903278853333832e-01,-2.072057704625938912e-02,-6.031137613362602679e-03,-1.459468025516451372e-03,8.726131170988082886e-02
4.982742345506653847e-01,3.824478509230034295e-01,5.288575984633522298e-01,-9.776802355375124876e-02,-4.323632117018035709e-02,-8.072254774508107189e-02,2.678166031837463379e-01
4.674284402577293940e-01,3.986198330006174850e-01,4.923668917539389955e-01,-6.899223102087598258e-02,-4.703862568057834426e-02,-6.031925866842082623e-02,1.972446441650390625e-01
3.988234404935334099e-01,5.354205147429728084e-01,4.081149720327267305e-01,-1.544794177666864443e-01,-1.859807261497384290e-01,-9.937749446036775458e-02,4.716584682464599609e-01
3.782982345588102313e-01,5.159977135741053988e-01,4.758066770267030954e-01,-6.943009356070759886e-04,-2.501078250871452760e-02,2.617706655940500726e-03,1.301568299531936646e-01
4.535033906960326266e-01,4.597769163802369885e-01,5.050982763356947070e-01,1.186906018904410054e-02,8.518995122781298926e-04,4.186056179154520711e-03,5.343292653560638428e-02
5.263595421598825652e-01,5.259337513298990574e-01,4.528444826922736755e-01,5.615872479649156035e-02,8.984824396591224727e-02,-4.399012905501437781e-02,2.117976993322372437e-01
4.442577359418288241e-01,4.676462015345848044e-01,4.894526125817881823e-01,8.225512287243890927e-03,6.677827109677230734e-03,-9.265354338852374930e-03,4.611784964799880981e-02
4.553204748279596759e-01,4.674188626813287062e-01,4.901976170644985475e-01,3.564923950184479499e-03,1.962847552169732449e-03,-5.076650985471193624e-03,3.267767280340194702e-02
6.372878987231038739e-01,3.472892089082832978e-01,6.532156615983755188e-01,1.829995703560081677e-01,1.081757370778900773e-01,-5.137545997881122484e-02,4.821439385414123535e-01
4.567237500714123044e-01,4.503408191210803713e-01,4.857673716982232603e-01,1.479297125749312949e-02,9.295857746048496670e-03,-7.372688317505610850e-03,4.635149985551834106e-02
4.473636309324783844e-01,4.629361337290355261e-01,4.857619918018559746e-01,2.615804990542282618e-02,2.084274684827184740e-02,-1.770830051576512826e-02,7.359158247709274292e-02
4.959421518507574067e-01,4.321952578983651594e-01,4.656126769624647777e-01,1.189121771724015002e-02,1.280361278328934899e-02,-1.382899751421422414e-02,6.737846881151199341e-02
4.959207220472243716e-01,4.855021185089557489e-01,3.989535974113909700e-01,2.586495979609558168e-02,3.497527184082922097e-02,-4.247945898305233864e-02,1.399686336517333984e-01
4.795798530716355867e-01,4.549892857415072100e-01,3.469986536027024893e-01,-4.789305252638517002e-02,-6.684915115922068773e-02,-7.569809312467898343e-02,2.289115339517593384e-01
4.812195040900568155e-01,4.459825967023725579e-01,4.374167949206235195e-01,-7.293881450962603520e-03,-2.853266668426831815e-03,-2.726143541178395815e-03,4.269854724407196045e-02
4.756906007423245542e-01,4.459076909692710755e-01,4.495345923203691862e-01,-1.819672211289235716e-03,-1.610407152398263828e-03,-8.355058553377252934e-04,2.849499136209487915e-02
5.647748130053691362e-01,3.156804036347861109e-01,4.775809934970255410e-01,-5.464221899140892652e-02,-3.345409204337185943e-02,-1.110647708920916299e-01,3.118529915809631348e-01
4.941412675701655766e-01,4.636521836276591424e-01,3.920899032819237795e-01,-3.753398748705235460e-02,-8.981072100018228088e-02,-9.173635835723489840e-02,2.488043159246444702e-01
4.195089534594462211e-01,4.330800568121354055e-01,4.465148337633086939e-01,-7.582572444219851104e-02,-7.521509332963594030e-02,-6.525733935027321075e-02,2.180438190698623657e-01
4.962878933444871410e-01,4.377601951195294605e-01,4.637329101884749560e-01,4.197153025790276507e-03,-5.499312401349837169e-03,1.119349015086989856e-02,5.567232891917228699e-02
3.351988155100661393e-01,4.670082446233664863e-01,4.836364829487246331e-01,1.619067996218598038e-01,-1.107578899978564207e-01,1.125961533608839521e-01,4.163160324096679688e-01
4.127666249104224305e-01,4.887622925554284126e-01,5.084095658351693858e-01,5.044402380741275227e-03,3.046436980540294381e-03,1.107793625788384105e-02,9.014880657196044922e-02
4.132898435394594117e-01,5.120183262248131362e-01,4.831133341280487992e-01,1.300045414028459800e-02,-1.239936925413222084e-02,1.588785306700007255e-02,9.723480045795440674e-02
4.501854649905231431e-01,4.861623167315579641e-01,4.564072422863377776e-01,1.795869455292344041e-03,-1.957046744964069211e-03,5.679168147955333812e-03,3.503039851784706116e-02
4.721345418861956356e-01,4.394403017441660397e-01,5.006762106373178201e-01,2.506245892930004590e-02,-6.388363324631293402e-03,6.701304455380889188e-03,7.041466236114501953e-02
5.034411362197430684e-01,3.919031019435159635e-01,5.105796684114984885e-01,4.616556998365429348e-02,1.765001204549806601e-04,3.268225129139212815e-02,1.512817591428756714e-01
4.811565582750375047e-01,4.398352665296911823e-01,4.880433595441627248e-01,5.553294888794559937e-03,-8.746738910649582213e-03,9.221326023785413051e-03,5.115252360701560974e-02
5.684682846307809179e-01,5.598347410901168830e-01,5.336834476346521416e-01,2.151287368933124944e-01,-6.460727720676263941e-02,2.280854804292374860e-01,5.553526878356933594e-01
5.844708148078465726e-01,3.643458508201642410e-01,5.198185743670425962e-01,2.091578897202990839e-01,1.042955627024134968e-02,-1.255504581346491948e-02,4.128481745719909668e-01
5.622515403518115740e-01,4.423562084404107919e-01,4.455345907940231331e-01,4.963544341163702439e-02,4.236133722982022426e-02,-9.637960341807104425e-02,2.337637394666671753e-01
6.188464843424904549e-01,3.248002522591292296e-01,5.234914790980430555e-01,7.612872123577332784e-02,-4.327041335738003591e-02,1.043689531084378425e-01,3.509976565837860107e-01
5.935041184891749477e-01,1.556363012640126220e-01,5.360060613660304618e-01,-7.140933925186905736e-03,2.595095654207876454e-02,-1.074374049354261257e-01,4.545980989933013916e-01
5.176289779064358054e-01,3.705131727588920620e-01,4.959024463709993946e-01,4.912657859064045729e-02,3.852869353453145657e-02,-4.307266271364178917e-02,1.902056634426116943e-01
5.132514770212985855e-01,3.944026586467058726e-01,5.316018464169370850e-01,2.467876627546355950e-02,1.663917649767145124e-02,3.054309540303264212e-03,1.390265971422195435e-01
5.044142417464512196e-01,4.213575406620462260e-01,4.901860406119941116e-01,2.210890741649768759e-02,2.747198232283114272e-02,-2.480612764370734857e-02,1.072179228067398071e-01
3.866526205703880725e-01,4.973452154519226731e-01,5.076315220057228128e-01,-1.055294453440492296e-02,4.018181194336653550e-03,1.147894728934070047e-02,1.194784790277481079e-01
4.131559919639187228e-01,5.103136394402121301e-01,4.858837293816782865e-01,-1.659566289387615339e-03,8.496930381674172930e-03,7.824155632170131519e-03,8.984088152647018433e-02
4.230433440543643342e-01,5.197925893199550895e-01,4.875583893547845715e-01,6.294730967972663079e-03,1.305786933159781144e-02,6.992239330235168991e-03,8.976577967405319214e-02
3.404073478387044105e-01,5.329890779386329269e-01,5.240298711701344425e-01,-2.572821152970535853e-03,-2.044696831673391973e-03,7.304959697400274440e-03,1.887726038694381714e-01
2.902977308600342976e-01,4.777754037401307774e-01,5.120784555769346547e-01,-1.320477546804253999e-01,-1.029245488983644014e-01,-5.316806129471026571e-02,3.678673505783081055e-01
4.571963862623229513e-01,4.914197711729726969e-01,4.553348836199103689e-01,-2.083864044763145389e-03,1.893679515603045828e-03,1.762616451291059046e-03,3.565835207700729370e-02
2.681795778302768496e-01,5.690901055566170985e-01,7.308333539065809958e-01,-1.892247062604117680e-01,6.746236539936566190e-02,9.523164979164641664e-02,5.600508451461791992e-01
3.376072261358050719e-01,5.191405547001535226e-01,5.233959809002816099e-01,-7.528603600442219414e-03,-3.182343553745713149e-03,5.106435248231546743e-03,1.844548881053924561e-01
4.766806180889481825e-01,4.495383571143522494e-01,4.716341016872431791e-01,3.181558729854798689e-03,7.092265805473139950e-03,-1.624155879322828266e-03,2.853729389607906342e-02
4.737991453386991569e-01,4.263903998487069691e-01,5.070432259282307008e-01,2.630641889921388199e-02,2.340859218030668168e-02,-1.591715329493085737e-02,9.699925035238265991e-02
4.861705799683505025e-01,4.326360760589972876e-01,4.836148995397416273e-01,4.536786612325521134e-03,1.439953001989967805e-02,-5.835397795336246494e-03,5.934306979179382324e-02
6.757325560999696279e-01,2.574171323231977948e-01,5.294762479273094069e-01,2.415957596305173469e-02,1.041938707771328937e-01,-1.441254491274698013e-01,4.814914464950561523e-01
4.712359898921457679e-01,4.433560503116784624e-01,4.962069947248760604e-01,4.894138915684575174e-03,8.389040830720541353e-03,-8.156255148584896615e-04,4.880587756633758545e-02
4.715637949909585180e-01,4.321488680881854783e-01,4.962898583053559909e-01,1.030563209673182774e-02,1.178430594109069682e-02,-3.449919330761358916e-03,6.253338605165481567e-02
5.160570265037502935e-01,4.878968092042347271e-01,4.879475004390843584e-01,8.330067913537550495e-02,8.744037714756636159e-02,-5.737106264563661406e-02,2.332817167043685913e-01
4.472632853157692545e-01,4.432622300570365215e-01,5.044899954961084010e-01,2.170320569262575508e-02,2.388098426408448872e-04,4.359653770004534752e-03,7.064099609851837158e-02
4.373587810125158515e-01,4.436672193599967562e-01,4.843653074679871717e-01,-5.496489085825492782e-03,-3.170304913564634189e-03,-7.068743486699473853e-03,4.715464264154434204e-02
5.100955962401334531e-01,4.287339256684753463e-01,4.042704046549097097e-01,4.875442869857580727e-03,5.085209735593339102e-03,-5.080372300549532150e-02,1.307689547538757324e-01
4.446469156498542574e-01,4.222951724395607176e-01,4.831144405400580877e-01,-3.765793893166920203e-02,-2.962589925837558896e-02,-2.705572776508875094e-02,1.091908738017082214e-01
4.989112669600400118e-01,4.409108557432755982e-01,4.363154488114240337e-01,-7.146413535191605340e-03,-8.773312562885077215e-03,-1.369256202186919583e-02,6.781066954135894775e-02
5.198012840606900387e-01,4.918556323996304824e-01,3.945489615030965957e-01,1.156271314570913276e-02,8.386985867059616392e-03,-4.248722793710250911e-02,1.378276199102401733e-01
5.959853407160358163e-01,3.707341358023883426e-01,2.411976074706465856e-01,8.535887285035447750e-04,2.469264516682767412e-03,-2.109169911401527486e-01,4.797650277614593506e-01
4.924696122360504580e-01,3.772499073829905236e-01,4.978522830504677477e-01,-1.161598476161646541e-02,-1.374828832322550452e-02,-1.629987937059754546e-02,1.252742707729339600e-01
5.189127799109130024e-01,3.626401100703479097e-01,4.920397538746755228e-01,-7.814038737534558313e-03,-4.322543816491121113e-03,-1.209979187162158777e-02,1.470450013875961304e-01
4.704894238179291865e-01,4.181192805636003151e-01,4.760825280513137914e-01,-6.377086844651030234e-03,-1.452666865045991462e-02,-9.192945658750032931e-03,6.383910030126571655e-02
5.166146534957245517e-01,3.518711827345913368e-01,5.190125961469322924e-01,4.193827442518704290e-02,8.710637826905686526e-03,-1.785604594693863609e-02,1.843957751989364624e-01
4.761803966578579961e-01,4.114047806264404805e-01,4.717610990250135639e-01,-1.244188528478964995e-02,-1.448819032250984844e-02,-6.734579092912756568e-03,7.182852178812026978e-02
4.886338724395378197e-01,3.343822170695435192e-01,5.268364554605543537e-01,-6.933363396923018784e-02,-9.329051465181389599e-03,-1.300546496927663942e-02,2.152575254440307617e-01
5.092366545132777089e-01,4.987863924955679429e-01,3.689801773895725057e-01,2.183388221613980287e-02,2.676978205197055177e-02,-6.179299313347508260e-02,1.826212257146835327e-01
4.460768406832252841e-01,4.400373065188019628e-01,4.755264094902302840e-01,-5.230347677705025553e-03,-7.549716435846762046e-03,-3.377984346601730064e-03,3.699880093336105347e-02
5.105052475392184430e-01,4.701199750923695242e-01,4.011595533010650638e-01,1.167436348802005155e-02,9.008779192207001796e-03,-1.055482394212586654e-02,1.007871776819229126e-01
5.038239907979705778e-01,4.528674023866473553e-01,4.341981500862676091e-01,2.585805843827350056e-03,1.660454576431031606e-03,-3.516730540450272672e-03,6.294337660074234009e-02
5.127922120229142511e-01,5.080333240622287860e-01,3.607717437451845033e-01,1.796565166853465734e-02,1.161022122038844751e-02,-1.894597500443737093e-02,1.576672345399856567e-01
5.008247849971841914e-01,4.962497735046815794e-01,4.023310614043424938e-01,1.859786662247661301e-02,1.901081588493882743e-02,-5.158431285908158040e-03,1.071122661232948303e-01
5.177599715354970211e-01,4.737505781287212336e-01,3.764944027280309746e-01,2.814800423152908227e-03,-2.326375921813648301e-03,-2.366120432960470282e-02,1.318913847208023071e-01
4.699139466018748545e-01,3.972548889838679598e-01,5.318121335602397082e-01,-2.082309986861084067e-02,1.274595501828659425e-02,1.573399549874272482e-02,1.270395517349243164e-01
4.641272635409158243e-01,4.487762326029602344e-01,4.924732414042153339e-01,-1.608711555780534611e-02,1.266664811729435736e-02,1.284248380443639079e-02,5.680488049983978271e-02
4.709276985061320864e-01,4.102270338983730613e-01,5.127960724665824310e-01,-9.158515942392250059e-03,8.706501777516502741e-03,3.601282527718287392e-03,9.217874705791473389e-02
1.737142680777757353e-01,4.833625524669318274e-01,5.527688422553592718e-01,-1.671418344801424150e-01,-9.847907487611923250e-02,-3.706838619367855414e-02,4.890977442264556885e-01
3.109336211190875110e-01,5.725024271057764791e-01,5.574007836864603993e-01,-7.474565601025749684e-02,1.616322813370997535e-01,7.432143497270537677e-03,3.999970257282257080e-01
4.058409613708217623e-01,3.506267933991493169e-01,5.658129656746540004e-01,-1.492032965362569408e-01,9.008848143185256563e-02,8.260370548146722669e-02,3.861025273799896240e-01
5.047038476324872125e-01,3.906136305183613988e-01,5.042307117351839674e-01,-3.461562605243762285e-03,1.768842380984747553e-02,2.077734970807219167e-02,1.234200298786163330e-01
4.452559617292974892e-01,4.500417884950967395e-01,4.685540321148893295e-01,-3.660524305288571402e-03,-3.298958525368854595e-03,-7.871885138635558235e-03,2.670114487409591675e-02
5.096715216604978949e-01,4.871927530270294127e-01,4.143601086359875452e-01,1.175590628011525564e-02,-4.226777629060895526e-03,5.995928573323881100e-02,1.367502361536026001e-01
5.176292446586310270e-01,4.155690585802979120e-01,4.808182380708159176e-01,5.008747476234136353e-03,5.722376670551188732e-03,1.024129679182103105e-02,9.220924973487854004e-02
4.635309041182457124e-01,4.563940136263429093e-01,4.799116524298303044e-01,-3.123759406310384901e-03,4.454944424976637826e-03,2.585969841470675285e-03,2.334623411297798157e-02
5.099847305094403760e-01,3.215089864593467794e-01,5.653838597820505241e-01,-6.393242843722053703e-02,1.516384231611814064e-02,-2.698129170302039290e-02,2.533168494701385498e-01
5.012086448145974815e-01,4.548478687033711831e-01,4.172662321546460329e-01,-1.181666271496904612e-02,2.043858705318706698e-02,4.746020691465518970e-02,1.171901747584342957e-01
5.197103970710749143e-01,4.314030636151203746e-01,4.554792658159230179e-01,-3.043980753971494563e-02,6.405367771452691317e-02,7.358080078783126032e-02,1.938620954751968384e-01
5.107459654799609838e-01,4.779426919481647995e-01,4.082714635111110435e-01,1.188088414315512098e-02,1.738506800756539974e-02,-3.458125955304384991e-02,1.146008595824241638e-01
5.490508215861927832e-01,3.730578473666656958e-01,3.528692042926121486e-01,9.117604066451191758e-02,8.550012481213210835e-02,-1.699334383862416142e-01,4.104099273681640625e-01
5.571952906949464435e-01,4.674524811714372285e-01,3.690645011323696600e-01,1.378914341829348689e-02,2.055365862548309483e-02,-5.990726910066348360e-02,1.979090720415115356e-01
5.269448127540294902e-01,4.785394504339334221e-01,4.015937059243641083e-01,9.511792964210719764e-03,5.175009489586421263e-03,-3.829412509037777301e-02,1.293808221817016602e-01
5.100682550805949456e-01,4.758992128333544014e-01,3.851959729671634025e-01,1.219633343293314957e-02,9.239469092706963788e-03,-2.105024942447079189e-02,1.205219402909278870e-01
5.018731127661335556e-01,4.236182495425824257e-01,4.620032901162501315e-01,8.941780357472933934e-04,9.796008824533413914e-03,-1.401066040684914409e-02,7.397701591253280640e-02
4.873279967187558737e-01,4.434765285966475457e-01,4.530342869158853203e-01,6.275018626210555894e-03,9.538890637688347829e-03,-7.312642110821028843e-03,4.633253067731857300e-02
5.563304403212209204e-01,4.822393264941102764e-01,3.350045047351299377e-01,1.651100763433433274e-02,1.463231991388774453e-02,-9.346681045324245485e-02,2.564072310924530029e-01
4.916722233751787408e-01,4.712977708933881460e-01,3.996200080569237145e-01,-1.582171403765025158e-02,-7.986772407332908344e-03,-1.588064034259115825e-02,9.333886951208114624e-02
4.753780117893779411e-01,4.571546088264112351e-01,4.332051835047640020e-01,-1.138655271279587558e-02,-1.128373174054680961e-02,-1.020446292764920840e-02,4.924864694476127625e-02
4.757347862998892452e-01,4.384161621779470441e-01,4.601544568107630573e-01,-1.461831863659298660e-02,-1.293135839104883958e-02,-1.647795168443478772e-02,5.487535148859024048e-02
4.237375320702828629e-01,4.496692716434067538e-01,5.025343837253818391e-01,-5.978517730696084054e-02,-4.294096260910539725e-02,-3.167987692668861044e-02,1.552529633045196533e-01
5.019478786395097369e-01,4.381182644459683528e-01,4.300457321370214636e-01,-3.030395716600732710e-03,-2.086328871466674572e-03,-6.913721228296207735e-03,6.956046819686889648e-02
5.134762479063538221e-01,4.684164959782137760e-01,3.984447473039167131e-01,-4.300661183193390906e-03,-3.688310780946304785e-03,-8.966478703679415033e-03,1.020628586411476135e-01
4.970629408156989615e-01,4.327403812992035581e-01,4.414573312617683376e-01,-2.628314283788141942e-03,-6.581245624385297262e-03,-5.988529090230449228e-03,6.253743171691894531e-02
5.096510328196761641e-01,4.950847795449656585e-01,3.711501801057156547e-01,-1.068190016856473100e-02,-1.143308299451499532e-02,-9.947194045139060373e-03,1.356779932975769043e-01
5.215457861017265273e-01,5.409150160532774088e-01,3.238687280641658894e-01,8.333981176946064426e-03,-1.068414439867688796e-02,1.112505171852344382e-04,2.093587666749954224e-01
5.844432766449946248e-01,3.545987140174100549e-01,3.102196308352366261e-01,-4.817509434772777877e-02,-5.094228207472856901e-02,-2.244094448844628220e-01,4.804424941539764404e-01
4.884588787030387236e-01,4.452088435816867751e-01,4.563563273764695283e-01,1.745935289362092122e-02,1.855166885003989991e-02,-2.403962001249250469e-02,7.206519693136215210e-02
4.756941374531069022e-01,4.940391620673708628e-01,4.328584534835023812e-01,1.100584813444928194e-02,7.932461831450682635e-03,-3.488008272853724331e-03,5.954757705330848694e-02
4.682186244979492651e-01,4.986160131870957524e-01,4.426725613041863627e-01,8.422689972656738702e-03,3.982912786432993291e-03,-1.511434184424548200e-03,5.118989571928977966e-02
4.103960072166925599e-01,5.058961921535770623e-01,4.666804760796075535e-01,2.449368913194484298e-02,4.770863381147891907e-02,-1.199668347058466429e-02,1.263842284679412842e-01
4.684076340803087768e-01,5.008770958163478726e-01,4.405968345473821879e-01,2.433477568936186219e-03,5.431412981030750604e-03,-1.209478096452745906e-03,5.330443754792213440e-02
4.519599528114577325e-01,5.018621589241523129e-01,4.593904947844111297e-01,2.888802515642616923e-03,5.806507950955891971e-03,1.578785442862041611e-03,4.804479703307151794e-02
4.373082963336266671e-01,4.896929338297594247e-01,4.678623800116119003e-01,1.157703821235971965e-02,7.088923064562389735e-03,-7.026249589932108408e-03,5.270753428339958191e-02
4.613835368902525769e-01,4.927814456674592392e-01,4.517176861769502949e-01,6.849752451671449992e-03,5.388089789054089848e-03,-2.275013704766002710e-03,4.032522439956665039e-02
2.855029121564862660e-01,5.931004393534786701e-01,5.337178840745047115e-01,1.001534162681153861e-01,1.087959104118491754e-01,1.376790948127202922e-02,3.821610212326049805e-01
4.009325379347117302e-01,4.954787295415675752e-01,4.413018403582284477e-01,1.267303206228548307e-01,1.413586853050873282e-01,-6.332010613672245380e-02,3.562425673007965088e-01
2.718354915186503851e-01,6.490875035519062530e-01,7.068491856160245002e-01,1.611419931093565905e-01,7.162604380109863222e-02,7.341226210174929545e-02,5.262179970741271973e-01
4.553354371351621133e-01,4.529460805312943150e-01,4.530149012706344291e-01,-2.329491401076410739e-03,-5.575135263846772715e-03,-2.812516575386966953e-03,1.178159844130277634e-02
3.878003727084877172e-01,5.146654014541511835e-01,5.019601543980662939e-01,2.826816531255433793e-02,3.373552676048913873e-02,-1.665679862812156995e-03,1.430529803037643433e-01
4.488099247853331031e-01,5.056137110370134691e-01,4.587308215398733791e-01,1.989167820490710548e-03,7.612671379464674634e-03,1.280128731531797329e-03,5.433410406112670898e-02
3.983064087224154060e-01,5.076785220283793754e-01,4.947592626866842980e-01,4.718826402930962650e-03,2.114775023346680480e-02,9.800470210738487786e-04,1.101250424981117249e-01
3.481069536824082378e-01,5.247195754208482388e-01,5.231129177293037946e-01,2.053933071350596846e-03,-8.657553063096979371e-04,6.247512536405374316e-03,1.761897951364517212e-01
5.354823109592146135e-01,3.414280279737508805e-01,5.207582362211486959e-01,-1.256156739323375767e-03,1.108512361090315933e-03,-9.168510718511100818e-03,1.878222525119781494e-01
5.011820051757861494e-01,3.931035260986265323e-01,5.133336804340159487e-01,2.160291099072078960e-02,1.612720665770202982e-02,-5.678750827320566859e-03,1.241733357310295105e-01
5.094633756383885048e-01,3.845982191073434864e-01,5.000311791354085100e-01,5.630407389967438149e-03,1.464932100239632259e-02,-1.266763526679092269e-02,1.253907531499862671e-01
5.628681759961756681e-01,1.982355469179998830e-01,5.559410080289989287e-01,1.043068277433710916e-01,3.392626005929671312e-02,-2.026160851917291339e-02,4.096381068229675293e-01
5.238628816141838174e-01,3.653412591634882522e-01,5.199688649455943557e-01,1.288494215061122480e-02,1.258685904092500009e-02,-1.581669921595330736e-02,1.620211005210876465e-01
5.023221404849461669e-01,3.955194077054352553e-01,5.174840507204103712e-01,4.575712324397254727e-02,4.595323672308493715e-04,6.018497108597677982e-03,1.401659101247787476e-01
4.704410654935603509e-01,4.400779641431862843e-01,5.039756043624947779e-01,2.925077835603863419e-02,-3.342392859430823836e-03,1.974448436223159506e-02,8.267144858837127686e-02
5.345578459281025152e-01,2.606372940089589640e-01,4.444358740237354666e-01,1.173154199170821088e-01,7.051477295031498282e-02,-1.565682704072611231e-01,4.338372647762298584e-01
5.089463218492826790e-01,3.590392684911445365e-01,5.277535901505681082e-01,-1.744119751796983572e-02,5.822081295661956507e-03,4.107117087754194942e-03,1.634321361780166626e-01
5.582203015540830870e-01,3.342134065254862563e-01,5.351381073314636083e-01,4.600244357283247987e-02,-1.816821509346761097e-03,1.569800333816918437e-03,2.278316766023635864e-01
5.710559270080688421e-01,1.490978001409746789e-01,5.485672704598603122e-01,1.613318798415960473e-02,1.661580603636588632e-02,8.205706006858201618e-02,4.368916451930999756e-01
4.507244009376664140e-01,4.744304471557235225e-01,4.814146028014941736e-01,-1.073901429260412828e-02,9.597642939943763427e-03,7.314649689962345394e-03,3.948616981506347656e-02
4.609807695411315409e-01,4.599127719491290511e-01,4.740704402676640394e-01,-7.687884953873575043e-04,1.086339818248245387e-03,3.794421964774415384e-03,1.532860938459634781e-02
4.662517329308045189e-01,4.410791026900659495e-01,4.860197557757121589e-01,-3.675687739443528074e-03,1.028451130866990700e-02,2.593469893339357072e-03,4.358982667326927185e-02
4.722486755968249295e-01,4.456233742343183035e-01,4.757181228271065709e-01,-4.086096111627625545e-03,1.141437595249234459e-02,7.015301441941033077e-03,3.744215145707130432e-02
4.527144330548468210e-01,4.571966070083531286e-01,4.761246174003165299e-01,-1.357793515483894653e-02,7.570533035403639172e-03,9.174218912183141131e-03,3.795677796006202698e-02
4.561567573694679800e-01,4.764201511827763635e-01,4.726714654421579342e-01,-1.668856661876505455e-03,2.217078501345036597e-03,8.031591017976614372e-03,2.377640828490257263e-02
4.612941811091728628e-01,4.658977929218488523e-01,4.751448949362027663e-01,-1.847105976017241998e-03,1.233286938137819703e-03,5.569537514379113577e-04,1.284527871757745743e-02
4.672557760180403585e-01,4.640200384925777799e-01,4.707811045335437150e-01,-1.159223417415885518e-03,2.650750914091147721e-03,1.241481136421867517e-03,8.002476766705513000e-03
4.633255150947953593e-01,4.731851247086866219e-01,4.680675164752597928e-01,-1.023893642930412363e-03,1.102622451633743141e-03,1.090702980909773146e-03,9.127184748649597168e-03
4.666212379448663738e-01,4.524778516608661816e-01,4.815181926675298762e-01,-2.736052288444311940e-03,7.819350096243762177e-03,2.399900830254099796e-03,2.925425209105014801e-02
5.216086977063121299e-01,4.550235377517349855e-01,4.741848906028927613e-01,5.756970387310584442e-02,-4.368577003414582383e-02,7.063947214189308932e-02,1.848319172859191895e-01
4.088125279563939451e-01,5.112689924599171931e-01,4.311094267730455898e-01,4.218464626193628962e-03,-4.576449310662061148e-02,5.325208025563917848e-03,1.230107471346855164e-01
3.870196618177050851e-01,5.129285754451891055e-01,3.880817632082096402e-01,1.220552946303097297e-01,-1.355574920919107584e-01,1.176303401329652776e-01,3.962967693805694580e-01
3.781299914892723990e-01,5.253997915546047004e-01,5.206311393275036004e-01,1.110771670266595262e-01,-1.442409452695617988e-01,1.521469501417921366e-01,4.357587695121765137e-01
4.118074445039811571e-01,5.816000472561033696e-01,5.433631808695532639e-01,2.385059362323659060e-01,-4.035224719371025698e-02,1.853481688287508533e-01,5.499101877212524414e-01
3.433556080749516903e-01,5.755773091022147181e-01,5.177508497961608169e-01,7.900767685140909491e-02,-1.597018969827194990e-01,1.211121680925584670e-01,4.278872013092041016e-01
3.839474652628311890e-01,5.109740974705648808e-01,4.470045544173801289e-01,6.051798100947613709e-03,-4.350669719905314592e-02,1.182449876557714261e-02,1.353139281272888184e-01
4.668037625373946953e-01,4.696401394645268734e-01,5.345147360310004148e-01,8.289760597102584228e-02,-3.646853244985687192e-02,5.130984138055726118e-02,1.921061426401138306e-01
5.066942611173621547e-01,4.896849791703318799e-01,4.230509556919720415e-01,1.801285978400199092e-02,-1.767687740893816514e-02,2.224932431957780954e-02,9.622218459844589233e-02
4.850261139008200661e-01,3.932430273138265986e-01,4.988185141361414776e-01,1.214137637206470360e-01,-4.009259819289096721e-02,1.238874279243226822e-01,3.239918351173400879e-01
4.611086887050299121e-01,4.410367930841126438e-01,4.635822901983125965e-01,-1.212644516468927222e-02,-1.109162496005097059e-02,-1.316037192117912487e-02,4.229018837213516235e-02
5.133908712304562361e-01,3.903718030094509572e-01,4.924696644874119178e-01,-4.583671225506520674e-03,1.218167102305851499e-02,1.947368787103681900e-02,1.210105940699577332e-01
4.824304714722236209e-01,4.512318728980464488e-01,4.683159935363154780e-01,4.225935588121214163e-03,-7.314075071453045480e-03,6.143174226524725570e-03,3.254992514848709106e-02
4.947277017717975900e-01,3.956629591530315126e-01,5.141781446728448390e-01,2.317093619778999233e-02,9.448033658958903281e-04,2.266870848262405452e-03,1.172508746385574341e-01
5.081582409871446826e-01,4.157881095147676342e-01,4.640672001484775766e-01,1.536332101849332762e-02,-6.456065318558585307e-03,4.610004510433839825e-02,1.166719570755958557e-01
5.809998710839124891e-01,2.260665141508943488e-01,5.350946791926309842e-01,-3.608449575605138238e-02,4.367173027491453446e-02,1.271158545395082717e-01,4.121831357479095459e-01
4.527657316292715284e-01,4.622429677523319791e-01,4.548172642153611722e-01,-1.601120084004976300e-03,-1.461756828621724495e-04,-3.009250694708138444e-03,1.046449039131402969e-02
4.554997166209343584e-01,4.636339591324379339e-01,4.515962393283315390e-01,-8.934686367938211426e-04,-1.627596247843324890e-03,-2.111836658611904779e-03,1.169942319393157959e-02
4.500826881828345338e-01,4.681806582602806577e-01,4.472071416927902443e-01,-3.695124509756488908e-03,-6.978687245336653031e-04,-7.846195036686788842e-04,2.078741416335105896e-02
4.715443212026963482e-01,3.987003495601653680e-01,5.118484726362133586e-01,-1.125523541944271760e-01,-7.095690442262812814e-02,-8.011185118338959299e-02,2.867560982704162598e-01
4.405769174865303839e-01,4.622042438368722528e-01,4.578025892068037228e-01,-1.783535641922870743e-02,-1.861412766735014851e-02,-1.984158299313810644e-02,5.972220748662948608e-02
4.674119246147791507e-01,4.445208714696128882e-01,4.495092590442325009e-01,-4.096055300058099383e-03,-5.923259426295444420e-03,-2.116885099623687112e-03,2.457084693014621735e-02
4.667143693003152904e-01,4.582374265733754060e-01,4.419535268909590142e-01,-8.942627988624154631e-03,-1.357794196974050193e-03,-2.784133556534992403e-03,2.727193571627140045e-02
4.025548595178665701e-01,4.762152583006006301e-01,4.818683811790584470e-01,-6.779506494988636611e-02,-4.357413175747671535e-02,-3.223216644900211286e-02,1.687471121549606323e-01
4.571142578647738319e-01,4.343234298676141303e-01,4.572588603760465165e-01,-7.445965788931281117e-03,-1.275927895743319933e-02,-6.815837412499562223e-03,3.628815338015556335e-02
4.594629877389987405e-01,4.463167881296473682e-01,4.596499300817333822e-01,-1.259483670673948973e-02,-1.093778488091813085e-02,-1.234441583686105189e-02,3.830488398671150208e-02
4.397895139467983827e-01,4.752879584105387245e-01,4.459385851831572656e-01,-4.058776956251922315e-03,-6.272298447395306502e-03,-7.442672263246972834e-03,3.759380802512168884e-02
4.833246718862210245e-01,5.045081463358322971e-01,3.550753255735808467e-01,-3.966669888903258390e-02,-8.026892496761932339e-02,-9.311979315021430559e-02,2.639638781547546387e-01
6.551579378829714972e-01,2.879595680303366212e-01,3.776622608266446690e-01,-7.880111646802873127e-02,-8.131203889648810912e-02,-1.868498778868527832e-01,5.031351447105407715e-01
5.113973988099338452e-01,4.973706250088108516e-01,2.752355752728256055e-01,-6.309371484159279064e-02,-1.265748005806498211e-01,-1.227233633380319378e-01,3.972979187965393066e-01
4.969428602023687191e-01,4.843198723814992057e-01,4.115553281546716624e-01,-1.277714299496560124e-02,-2.263598201447012889e-02,-3.152270596248440970e-02,1.066794097423553467e-01
5.026142703208538176e-01,3.916075038024568467e-01,3.976790874562204925e-01,-1.735977098778797301e-01,-1.349515781595566899e-01,-1.721022342483743417e-01,4.955675601959228516e-01
4.812065975630038239e-01,3.443666948939386185e-01,4.973090664779152292e-01,-1.365822194167627679e-01,-7.363718998971968688e-02,-1.732318208341104282e-01,4.283072650432586670e-01
5.333260870618956595e-01,4.162105238628936443e-01,3.042448549045074779e-01,-6.843234522950462917e-02,-1.101213913124494542e-01,-1.738942566798427902e-01,4.248670935630798340e-01
6.243784001928635030e-01,5.158889252144613913e-01,1.837381635830656057e-01,1.360169164591704810e-02,-6.128476738402872243e-02,-2.474320827837298009e-01,5.946590304374694824e-01
4.370368099809031626e-01,4.578089157321418856e-01,4.657120116330049076e-01,-7.826520684693426960e-03,-1.103631650337440033e-02,-9.795008030519853151e-03,3.866644576191902161e-02
5.816387986852676883e-01,1.860462529505240159e-01,5.111218036951972188e-01,-4.112556203829199897e-02,6.292839247033626786e-03,-1.344369682896984219e-01,4.392980039119720459e-01
5.218080385530368126e-01,3.773931966526020143e-01,5.206179965557753420e-01,-8.936867530742829968e-02,-4.277369479855593765e-02,-8.830107809989351519e-02,2.711558341979980469e-01
4.027766075847315497e-01,4.698864956811485416e-01,5.160010438475916006e-01,-9.144613237995282556e-03,8.444794602442893790e-04,3.637969306445760706e-03,1.000886932015419006e-01
4.812897608412576855e-01,4.355498144342579980e-01,4.524507869732729004e-01,-3.274816173043871431e-02,-2.969436057522813893e-02,-3.887716206520092088e-02,1.095519438385963440e-01
5.034149095208712010e-01,4.329297462032060673e-01,4.395640190024786009e-01,-3.061553480061851660e-03,-4.289400667707501773e-03,-5.896120446730750836e-03,6.879071891307830811e-02
4.131160510949523634e-01,3.664565746229994647e-01,3.907813182444698219e-01,-1.580853730582923999e-01,-1.422487915046385665e-01,-1.727429071669184801e-01,4.762680530548095703e-01
4.818737702689346869e-01,3.927601222401990166e-01,3.952316839044985874e-01,-9.714690910159692883e-02,-1.072099356854236268e-01,-1.629755383684504677e-01,3.875624537467956543e-01
3.195446041814328231e-01,5.105521989694455920e-01,4.869639549827937675e-01,-1.610034967121079241e-01,-1.306120033332952568e-01,-1.181274665446454541e-01,4.509344995021820068e-01
4.613000954544928534e-01,4.796275325346254781e-01,3.771342736219424618e-01,-1.017166122313345328e-01,-1.966143026171711106e-01,-1.616374315289492714e-01,4.840998351573944092e-01
4.645401211227232485e-01,3.126172816251950870e-01,4.777413985450058576e-01,-1.413203693956648632e-01,-7.997452269461331753e-02,-1.355574933587708475e-01,3.993619978427886963e-01
5.166579088843443746e-01,1.872215603983489463e-01,5.588841848348997665e-01,-1.341989137422076594e-01,-1.131999485298488574e-02,-5.413852132932013561e-02,4.329291582107543945e-01
4.488122513979856953e-01,4.620675113544476242e-01,4.528718355647613492e-01,-2.929172990156492674e-03,-3.310437656690009937e-03,-5.886332127515952854e-03,1.734748296439647675e-02
4.529331495921670170e-01,4.299026299354605785e-01,4.903082542847694847e-01,-5.258040216524740261e-03,-7.965564341114382899e-03,-3.501282138191333469e-03,5.566093698143959045e-02
4.394537621104864789e-01,4.319253213719168039e-01,4.979851005935646002e-01,-5.801001802707525523e-03,-7.261977588682580302e-03,-2.931358616619520428e-03,6.487054377794265747e-02
3.824934476370218661e-01,3.840654677657583949e-01,5.123489105083833817e-01,-1.427613461075773471e-01,-5.548388214452843609e-02,-7.165320566885352571e-02,3.200642168521881104e-01
4.547316094429029731e-01,4.555217433514351932e-01,4.536900988856172878e-01,-5.288253681214247041e-03,-4.749675445790620641e-03,-5.587590001410993636e-03,1.574073173105716705e-02
4.755509644778910250e-01,2.549755366965983372e-01,5.238342491929954825e-01,-1.441990161624967792e-01,-5.382449254762262936e-02,-1.144670181564316769e-01,4.147460460662841797e-01
5.269197593876316921e-01,3.011106606756603910e-01,5.225535823190777807e-01,-2.821041530813373638e-02,-1.637760558583057236e-03,-4.409224213179170626e-02,2.413520216941833496e-01
4.113614144029607012e-01,5.587812202299421438e-01,5.259745868427742055e-01,-1.284026955281697413e-02,6.739792549725939774e-02,3.648148405279025980e-02,1.899665296077728271e-01
4.954191385493275090e-01,3.412541435660036426e-01,5.178993375518223807e-01,-2.449059732897465244e-02,-6.720588954613955154e-03,-7.905441530422734411e-03,1.728010922670364380e-01
5.180415800481221744e-01,3.505087932603514478e-01,5.168980684509035806e-01,-9.242325276841736187e-03,-3.203898516451900939e-03,-1.686920265014732120e-02,1.703459173440933228e-01
5.081908455717775164e-01,3.452341878332642056e-01,5.381067185114907225e-01,-2.165549168932616106e-02,3.938150236886183916e-03,-6.991687250090494439e-04,1.837925314903259277e-01
4.663318256129666550e-01,3.627643010812170998e-01,5.476134877528766598e-01,-9.193921091731195594e-02,-2.267638593884545046e-03,-4.072797173861317233e-02,2.368570566177368164e-01
5.258681618357299303e-01,3.011660837846411032e-01,5.391349683308888086e-01,-7.334219761165819418e-02,-1.630473563002269449e-02,-4.941649573941585445e-03,2.658122181892395020e-01
4.689277083744111119e-01,3.754154119649697474e-01,5.193981497507081935e-01,-2.776151859969544500e-02,2.698267511880746410e-03,-2.532375599717676031e-03,1.355160772800445557e-01
2.970668722465106271e-01,3.641293511531427107e-01,5.557762797541858646e-01,-2.096299664456915679e-01,-6.976413055332029989e-02,-5.838795209980300605e-02,4.590653181076049805e-01
3.508067114313679902e-01,4.679613252934310963e-01,5.777004006122955504e-01,-6.115095377917403874e-02,8.872760375153035742e-04,1.542862091868539998e-03,2.232758998870849609e-01
4.746106064931560065e-01,3.772884308135895370e-01,5.139739892739019211e-01,-5.758462228393230325e-02,-2.830879691470711973e-02,-3.275626532674591473e-02,1.744220703840255737e-01
3.561346106218851726e-01,5.087651056523966320e-01,5.074738474610428485e-01,-1.523001817105955509e-02,-1.785211407700525166e-02,-4.901025202962384572e-03,1.575584411621093750e-01
3.551356861553815469e-01,5.224054752148851177e-01,5.120700821951214010e-01,-1.386729087968188896e-02,3.260328189095131751e-03,7.823369669283620001e-03,1.647713929414749146e-01
4.012539371015521050e-01,4.685660213869631274e-01,5.142299447565720216e-01,-8.268557810375295677e-03,-2.434982122254545928e-03,-2.691992050158812256e-03,9.967185556888580322e-02
2.260305940558560711e-01,4.867088271149950796e-01,5.562888972639021823e-01,-1.420859010383360432e-01,4.270603540411665316e-02,3.611122241197954608e-02,4.011000096797943115e-01
3.732897980169697649e-01,5.130440982806712125e-01,4.698785361207419853e-01,-6.871807906825814702e-03,-2.432668847481817692e-02,-8.915528564970704589e-03,1.323534846305847168e-01
4.139914385423696941e-01,4.581329187912244194e-01,5.080063631172963001e-01,-1.030407001302512983e-02,4.369328576479196424e-03,1.126498108756920045e-02,8.598727732896804810e-02
5.245596048729337380e-01,3.481384934016221733e-01,5.109435758559373042e-01,-2.358409830783454730e-03,5.617145603367979315e-03,-1.981488371175128133e-02,1.737724989652633667e-01
5.026295956165800494e-01,4.065862637084898812e-01,4.450184117480036061e-01,-3.915476096723124501e-03,-9.851937495369873440e-03,-1.495919770485576450e-02,8.954723924398422241e-02
4.941044959611910481e-01,4.925656794223708945e-01,3.600979335702467754e-01,-2.953181472137830776e-02,-6.974807151008670381e-02,-6.992291781072640378e-02,2.227831333875656128e-01
5.445354747457732403e-01,3.699747990655312679e-01,5.413489186011486431e-01,4.571200477192248479e-02,2.831608155804811455e-02,-6.046411537079619813e-02,2.226369827985763550e-01
4.147842504409748332e-01,4.005473263822806884e-01,5.079947730075273782e-01,-1.972945918482135741e-01,-1.525574251240810475e-01,-1.041918578215757368e-01,4.789389669895172119e-01
2.050648714146199869e-01,5.533874837686045822e-01,5.656277457136698050e-01,-8.557633943333781135e-02,-1.004032929157541026e-01,-1.896037260139303224e-02,4.231227934360504150e-01
4.256634145204220010e-01,4.545302766310141407e-01,5.077229718126038405e-01,-2.350074231721965140e-02,-2.790023270354930699e-03,1.029168836273247059e-03,8.295571058988571167e-02
3.871581634553001861e-01,4.655826371729758217e-01,5.255764682805926791e-01,-2.444873277767867920e-02,1.458819905761560634e-02,1.230549875656037837e-02,1.316836625337600708e-01
3.939812947099403662e-01,4.729704786360669488e-01,3.596371826861090026e-01,-1.319509338066400805e-01,-1.670367527064656188e-01,-1.548023605138718894e-01,4.668617844581604004e-01
4.860807793009058742e-01,4.848421175742216316e-01,3.510138103487144279e-01,-3.271019194768006594e-02,-6.157355024465916565e-02,-6.065342139889363937e-02,2.090397328138351440e-01
4.949752280335338872e-01,3.933708656867375697e-01,4.598362284159956959e-01,-5.648746409205498975e-02,-7.449317152844739387e-02,-9.992632097200361552e-02,2.533060014247894287e-01
4.936587072257504483e-01,4.748421252799713277e-01,3.975311948802793260e-01,-1.270186010836736948e-02,-6.702032176334163545e-03,-1.238527069788597848e-02,9.415263682603836060e-02
2.523300046639336824e-01,5.282302013684542219e-01,5.363438361750455519e-01,-9.974406043930549026e-02,-1.133420905126389933e-01,-4.704751082063526879e-02,3.917290270328521729e-01
3.279937871276400463e-01,5.733850659979171649e-01,5.051534743780707881e-01,1.581160721127225065e-03,-4.685943523270524186e-02,9.116788062982217333e-03,2.344637662172317505e-01
4.706619884678412968e-01,4.774612707185446614e-01,4.146631909251853876e-01,-1.529354978397306011e-02,-6.650419327573448697e-03,-1.044249839481847970e-02,6.873388588428497314e-02
4.405215352522549588e-01,4.416841555304633071e-01,4.670615012199442750e-01,-1.168131580634325199e-02,-1.150049163234400339e-02,-1.061125730356109360e-02,4.264745488762855530e-02
4.058604553479776555e-01,4.340404883431942529e-01,4.902669399415238716e-01,-7.681839980385875288e-02,-7.221345420582137020e-02,-6.209405286801091689e-02,2.246209084987640381e-01
4.656441292267195498e-01,5.016476053218984488e-01,3.995927740069691314e-01,-1.226189822904754159e-02,-8.970796404133790300e-03,-8.121845386385660379e-03,9.448540210723876953e-02
4.820532581046741427e-01,4.929084255302057516e-01,3.987363306653671224e-01,-1.291264887979774907e-02,-1.376956749191829248e-02,-6.562676342337235742e-03,9.571929275989532471e-02
4.126046105430374311e-01,4.955146072966805648e-01,4.853288674648931211e-01,-1.357120020208186194e-02,8.446353552251586669e-03,1.372468447174997504e-02,8.640007674694061279e-02
5.408630300272082581e-01,5.256684428752774751e-01,3.163177016761639648e-01,6.422691508925782930e-03,1.319902800964345979e-01,1.070577831522481899e-01,3.660761713981628418e-01
4.889613670398048617e-01,4.602260654125944761e-01,4.638689843241557420e-01,-2.211277656845590106e-02,3.667357199789850891e-02,2.375328535150550077e-02,8.904347568750381470e-02
4.303775983960657636e-01,5.075795893004759751e-01,4.294167159283787671e-01,3.535342505670179686e-03,-2.104025960974096818e-02,1.983361748363136976e-03,8.609661459922790527e-02
4.114850969545508219e-01,4.877112777533235688e-01,4.813919864190848164e-01,2.866476099169790615e-03,-1.675044229952496466e-02,1.362609807681014473e-02,8.241397142410278320e-02
4.336441714625398625e-01,4.956365972176275392e-01,4.791795852661279720e-01,1.538801460813960312e-02,-1.997972630131028896e-02,1.459009501467335192e-02,7.510151714086532593e-02
4.664591069645286359e-01,4.659249984501947495e-01,4.759749086055939937e-01,4.179060094411069307e-03,6.390238191757303086e-03,-3.954613285906255320e-03,1.782510057091712952e-02
4.753881847083796797e-01,4.663754722773391648e-01,4.537700842640198795e-01,-1.128209537910649166e-02,7.029181551642694863e-03,8.511280431356607959e-03,3.318349644541740417e-02
4.387848287830235505e-01,4.749017120088351862e-01,4.846323973701855969e-01,6.093050850152118003e-03,-4.350362165160225753e-03,1.339271658907520424e-02,4.956616461277008057e-02
4.670211867858207189e-01,4.746783737062894581e-01,4.940829420212410339e-01,3.602506201060988456e-02,-2.076438147303943937e-02,2.741556254140223650e-02,8.958508074283599854e-02
4.600687037599113793e-01,5.467960426859177492e-01,3.278776178808588959e-01,9.001143825589640046e-02,-1.264089033161971687e-01,1.184887314664169050e-01,3.883596956729888916e-01
4.731531933816054969e-01,5.053771081944381516e-01,4.116627667685333059e-01,1.926011072009430752e-02,-4.795365945510032812e-02,2.056369450747411870e-02,1.268109977245330811e-01
2.297602494181221477e-01,6.716996945159967591e-01,5.362235618145378968e-01,1.529701853177019288e-02,-1.730887090911864268e-01,1.175165006719864208e-01,5.346059203147888184e-01
3.766622212425816407e-01,6.008053441345995171e-01,4.035854895782506335e-01,1.859507183166810365e-02,-2.027326860243063855e-01,1.214464272977161807e-01,4.620789885520935059e-01
5.664433283147675136e-01,3.234432115279538555e-01,4.886952129123927069e-01,-3.272861945328903871e-03,-8.923190285951164771e-03,-6.273871828018331986e-02,2.414134889841079712e-01
3.605000869680000108e-01,5.049275810315771995e-01,5.239599594968433749e-01,-1.282989844713453703e-02,7.059018054717958049e-04,7.839914362810625204e-03,1.570032984018325806e-01
5.476788103780088068e-01,4.363832582891994383e-01,4.636661872464777345e-01,-4.004912848024208549e-02,4.844796361336016488e-02,7.967184487408970894e-02,2.024618834257125854e-01
4.163488756617408360e-01,4.457703431386916826e-01,5.078257816755653575e-01,-3.856814292280974499e-02,1.057742594712895133e-02,1.542042195963281778e-02,1.097897142171859741e-01
4.081750558102472670e-01,2.576166456378391478e-01,5.543215565721641980e-01,-1.979104443859657503e-01,-4.214050488167250114e-02,-7.223756351620985727e-02,4.522368013858795166e-01
4.014820451684198432e-01,2.551905336634646693e-01,5.540464869458301411e-01,-2.021642695197533035e-01,-6.055149295853982233e-02,-9.404523080637740284e-02,4.765922129154205322e-01
4.793318931765139235e-01,4.078587917527469187e-01,5.147557976073545705e-01,-1.799779414779636641e-02,8.400776657813491602e-03,1.027648214958719677e-02,1.019578948616981506e-01
5.155399078593088102e-01,5.180633490765947924e-01,3.998669190921233518e-01,6.497891331059172694e-03,2.700056928081482916e-03,2.302378741355173494e-02,1.241665184497833252e-01
4.957754988134687180e-01,3.086604653871183324e-01,5.245225935603883283e-01,-5.453247370008671574e-02,7.603897323786236624e-03,-6.602077176937676999e-04,2.243068963289260864e-01
4.698523321577671163e-01,4.810253035407102695e-01,4.567964217748430311e-01,7.589851264003096183e-03,2.413546366745342349e-03,-7.601890435280058344e-04,2.516331151127815247e-02
4.642113011335191053e-01,4.732704713778558836e-01,4.631791914389782883e-01,1.456755370247306454e-03,8.709271282101780070e-04,-2.859025251451354811e-03,1.120927743613719940e-02
4.647425880695805755e-01,4.683445719393079520e-01,4.733812843557510530e-01,4.682316199404729443e-03,3.412302668332400143e-03,-6.266192832335209725e-03,1.658264547586441040e-02
4.723690475985667936e-01,4.297813264906449326e-01,4.589090510396051648e-01,-3.985074964644438021e-03,-1.232463157540706310e-02,-5.596928776886185737e-03,4.493288323283195496e-02
4.605924369457701228e-01,4.542360366220823398e-01,4.432306748754388792e-01,-6.436578800204904166e-03,-6.083703972850444501e-03,-3.840241043019219144e-03,2.260623127222061157e-02
4.807358092922574544e-01,4.483376318581129838e-01,4.371246494822851325e-01,-7.849312082183231357e-03,-3.582758359428179183e-03,-4.890341002253062626e-03,4.282222315669059753e-02
4.828834840377139725e-01,4.428467254676486387e-01,4.372400052195306586e-01,-7.337879558939434943e-03,-2.648067621278741169e-03,-5.510385220030201980e-03,4.617916792631149292e-02
4.689574708904215572e-01,4.338279281402983023e-01,4.594202152331041678e-01,-5.903751245037575784e-03,-1.211581431912088329e-02,-7.021414554475950524e-03,4.102252051234245300e-02
5.064411424037341680e-01,4.052312607122425803e-01,4.488769340959377074e-01,-3.656761695893302744e-03,-6.011775932206180756e-03,-1.544955018580030683e-02,9.271255135536193848e-02
4.859615258046838804e-01,4.391720901618012540e-01,4.423143719529329942e-01,-3.813062541395488645e-03,-6.733832212846868961e-03,-5.451934821041124271e-03,4.817594960331916809e-02
4.761261470673384677e-01,4.197637025730521776e-01,4.584352749532373816e-01,-1.050326467567817140e-02,-1.237274197606392373e-02,-7.466942174538465996e-03,5.873727053403854370e-02
4.618946348531676183e-01,4.979209573178740578e-01,4.502572129662628653e-01,7.427853057984741027e-03,4.759166597865279423e-03,-2.715438061492467074e-04,4.567568376660346985e-02
4.551257435073145508e-01,5.001334696968535720e-01,4.473705085903772471e-01,3.710299955546559648e-03,9.758655123272176948e-03,5.536382122588879536e-06,5.255356803536415100e-02
4.550552489165364256e-01,5.034818884991550947e-01,4.587285007040111662e-01,2.166409482702432061e-03,1.074760122026006091e-02,5.008347955004507999e-04,5.041938275098800659e-02
4.296699065052078659e-01,5.026781406479039482e-01,4.625002876304395438e-01,3.276520462401988007e-03,1.350036621003419118e-02,-1.904247476841929628e-03,6.783076375722885132e-02
4.545171079506183376e-01,5.007825404826102833e-01,4.475043226311999911e-01,2.132676187525631758e-03,8.803002800058412625e-03,3.025649577706497487e-04,5.254062265157699585e-02
1.846120189328166461e-01,6.259799624519867267e-01,5.896764237165643685e-01,-1.375497316716300378e-01,-8.733320444205827648e-02,3.933585950911112905e-02,5.141822099685668945e-01
4.777871118982092158e-01,3.779897263769617100e-01,5.151333705003130481e-01,-2.235452673235735835e-02,-6.176392814733729433e-03,-6.350649144414845411e-03,1.296762526035308838e-01
3.740176926068409791e-01,5.671047048815254232e-01,4.949157540042760650e-01,-3.942079021473906403e-02,-1.009568789519209725e-01,-1.987348728451264132e-02,2.549094557762145996e-01
4.225832898016105288e-01,5.081177375221518355e-01,4.477499083141330272e-01,-2.278064322075800275e-03,-4.857670439537916177e-03,-3.149317218571633017e-03,7.689604908227920532e-02
4.123634296314387937e-01,5.068233058266701230e-01,4.449671819217039803e-01,3.797607263135627156e-04,-1.828019544444212455e-02,1.776662392612134893e-03,8.898497372865676880e-02
4.685616437651197175e-01,4.504495209297720848e-01,4.859695214010947839e-01,2.376638019988449452e-02,-1.497488378731810961e-02,2.203330133874593227e-02,6.906547397375106812e-02
4.197559721500921381e-01,5.129333463789984560e-01,4.696062410131162657e-01,4.764067468179045313e-03,-1.751176052452456736e-02,1.082421714115023963e-02,8.866634219884872437e-02
2.911854940404218217e-01,5.676589918693488723e-01,6.004658564007288035e-01,-5.425327371216984856e-02,-1.707147859137247634e-02,2.008588067785086265e-02,3.122482895851135254e-01
3.375656887197108214e-01,5.016480786093133748e-01,5.230361640581262517e-01,-3.614683836166435182e-02,2.545689114936341979e-02,1.343835465206334387e-02,1.931206881999969482e-01
4.327119576778588605e-01,5.010641700333599013e-01,4.617345543073194669e-01,1.451559237811599415e-02,-3.134936911865256887e-02,2.467502770912568394e-02,9.453890472650527954e-02
4.590417541827857550e-01,4.490749004400018674e-01,3.409877248619360146e-01,1.203317228453125720e-01,-1.256819093747345295e-01,1.712891948760604244e-01,4.378429353237152100e-01
4.972882120119174187e-01,5.004126648055391424e-01,3.604546185534717728e-01,2.274412432834138978e-02,-3.328109746933589214e-02,3.212255468389594443e-02,1.647151410579681396e-01
4.774303348262536884e-01,5.066076696447627814e-01,3.935840152619446419e-01,1.197542446644513266e-02,-1.609043272178500503e-02,1.630913301926440991e-03,1.074376702308654785e-01
4.752749073366135391e-01,4.976143135396263184e-01,4.291037945626257621e-01,1.351169281448234318e-02,-6.339182699017324556e-03,5.756671388265403866e-03,6.655769795179367065e-02
4.300753317348847693e-01,4.825740996933023941e-01,4.983086765000267482e-01,-2.779294894571555929e-02,2.947142857472644095e-02,1.307521531159169109e-02,9.625833481550216675e-02
4.900607350687670727e-01,4.836928338521809811e-01,4.374962699356695905e-01,1.313888949813331493e-02,-1.804455999018550558e-03,3.884609222021074507e-03,5.515231564640998840e-02
5.098712133065410601e-01,3.529971166342519284e-01,5.064686796313664363e-01,-1.529307319184761149e-01,7.364574544790229715e-02,1.111877507864846154e-01,3.842003941535949707e-01
5.501737543496426630e-01,5.318317105871060990e-01,3.242173058468154068e-01,-3.720161426829210471e-03,8.699558006697896695e-02,1.546663019932267846e-01,3.765095770359039307e-01
5.052908470146117992e-01,3.285807478759664169e-01,5.106177197759648179e-01,-8.848381323062044779e-02,8.005645052488906399e-02,1.296829035256599760e-01,3.540683090686798096e-01
5.880625292688496097e-01,6.850929362465625339e-01,4.611525031413412079e-01,-7.760497170131464570e-04,2.605148071925076914e-01,1.701296798152528156e-01,5.729513168334960938e-01
3.597612334258221689e-01,4.522330454976187797e-01,5.306891470951182743e-01,-6.923537457740777668e-02,1.893131060838353086e-02,1.948160197479165134e-02,1.963562220335006714e-01
4.676139325653757561e-01,4.931191382440109905e-01,4.479855021548528327e-01,-3.537006076916878773e-03,4.043230885584181596e-03,2.300864510435792279e-03,4.048301279544830322e-02
2.250372080324968826e-01,6.172670756741507336e-01,5.782633338451256266e-01,-8.464952903237706050e-02,4.404240695202863570e-02,4.303662518968887074e-02,4.158598482608795166e-01
3.468617117889148949e-01,5.059203789141869523e-01,5.164872621915393980e-01,-2.067205081397635938e-02,-6.889305119271989936e-03,-2.120361428255522485e-03,1.689081043004989624e-01
3.475076278308972810e-01,4.794468881275313898e-01,4.752890746314778481e-01,-6.237248765072701123e-02,-6.632790687529753482e-02,-4.514432390926321342e-02,2.187689691781997681e-01
3.429822502248634497e-01,5.331318043656131378e-01,5.271981624926592724e-01,-2.647463313165759544e-02,2.138288240471758125e-02,-1.910944351210135551e-03,1.963393390178680420e-01
4.937194715609498075e-01,5.328793119949747359e-01,3.776443214508859447e-01,7.499027920251800927e-02,1.464764409066981465e-01,-4.539667969054590746e-02,3.270652294158935547e-01
3.145255058572368756e-01,5.355543507035860351e-01,5.715777743580231496e-01,-3.863263741723216987e-02,2.738885850022586624e-02,2.002782911503869084e-02,2.569919824600219727e-01
4.705039035096770239e-01,4.949374950707781662e-01,4.375224605750810958e-01,-5.304081126778189929e-03,7.558089440381279660e-03,4.842183177820639194e-03,5.307301878929138184e-02
3.147340007249075922e-01,5.376351385036306496e-01,5.525988441344577007e-01,-1.623566770956927086e-01,1.332442260529136113e-01,2.188223588744754589e-02,4.324602782726287842e-01
2.180438442836944990e-01,5.191357149476578670e-01,7.247671332948880663e-01,-1.149357246471068156e-01,1.556099678310248965e-02,6.020123701576833575e-02,4.960687458515167236e-01
2.392674602993856148e-01,5.907396661470788457e-01,7.208229441302509422e-01,-1.790253800485780700e-01,3.529658542399284962e-03,6.114999998352269039e-02,5.418308377265930176e-01
4.022843571115377048e-01,4.694820553961817078e-01,5.042149968074680633e-01,-9.084648632725228837e-03,7.537919871054215432e-03,1.066572115375840138e-02,9.388934075832366943e-02
4.715413788797487848e-01,3.841574567947083629e-01,5.489211037679792016e-01,-1.149334257208732279e-01,-1.727906222312431544e-02,-3.310449088738778856e-02,2.533728778362274170e-01
3.366216794152217529e-01,5.113807556995901837e-01,5.149481406006771733e-01,4.423501374003298292e-02,-3.309891831240651533e-02,2.447661260813644227e-02,2.052584588527679443e-01
3.779592641146802823e-01,4.681077158484459044e-01,5.190865201557604003e-01,-2.460406472168221240e-02,-1.602513029814221042e-03,3.536017809165509576e-03,1.310821771621704102e-01
3.229864216199520577e-01,5.204624192286850803e-01,5.366404551960783920e-01,-8.969929586596495086e-03,4.649041751543984621e-03,5.829666212694091347e-03,2.070300579071044922e-01
3.471317845978245664e-01,5.224530465129095802e-01,5.562277100767013538e-01,-9.633916441153816956e-02,-7.436957989394835100e-02,-2.582606414525555685e-02,2.902358472347259521e-01
2.031364900937895901e-01,6.389424737282882738e-01,6.451878531623342905e-01,-1.224953333589080123e-01,-1.086863148585452271e-01,7.461310729832143149e-03,5.227887630462646484e-01
4.798209409478115806e-01,5.122422220222557776e-01,3.914658325983564890e-01,1.802124682150517410e-02,-1.854775272857179386e-02,2.363767224434825016e-03,1.172410622239112854e-01
4.708950355398833776e-01,5.260615060196325299e-01,3.854469643498872333e-01,8.114802725308501580e-03,-4.286778768975428588e-02,6.701564948842820418e-03,1.445814818143844604e-01
6.169045946260608426e-01,7.221402618280867713e-01,1.858369191653619912e-01,6.332607815456568756e-02,-1.501962185024937890e-01,4.673496387135676021e-03,5.674772262573242188e-01
4.444144909370221774e-01,5.338481549889870781e-01,3.646474749173335139e-01,1.795509008396151129e-02,-8.454218396412090109e-02,2.310046862872431814e-02,2.133194953203201294e-01
5.177764363235639600e-01,5.292673812144683687e-01,3.582962043046054035e-01,1.405837584724387024e-02,-5.516789226037006194e-03,1.053395362522669375e-02,1.685695052146911621e-01
4.949123747279955410e-01,5.268231602115207579e-01,3.642374628232202260e-01,-2.217853310450052916e-03,-1.248769585312323009e-02,-8.209347937322555161e-03,1.514890640974044800e-01
4.056991262121208419e-01,5.880876110113710808e-01,2.604385040993112410e-01,1.717347005403926929e-02,-1.994109449410961798e-01,8.074478145607225446e-03,4.485918283462524414e-01
4.458619323087756880e-01,4.672069683144346453e-01,4.963502126817603832e-01,3.750955256134303698e-03,-7.507864865511753574e-04,7.868619143635062485e-03,4.643972963094711304e-02
4.735106040746416278e-01,4.641091242893247704e-01,4.848473595224323529e-01,1.739712121413440962e-02,-1.131895773914515929e-02,1.753668875112057712e-02,5.038287863135337830e-02
3.939129101266888311e-01,5.189255542022666035e-01,5.527479001489146171e-01,-5.606245327267556783e-02,4.909364989842571192e-02,4.244725205685460218e-02,2.075215578079223633e-01
4.634939022138889197e-01,4.552474701384847666e-01,5.178653815994761489e-01,7.708588706456384609e-02,1.977959744878548740e-02,4.932022517591327319e-04,1.499125063419342041e-01
4.831549535105004733e-01,4.211846045919950265e-01,4.967415582980036493e-01,1.024360709531393909e-02,-6.418091746542356479e-03,1.090791960024763488e-02,7.524762302637100220e-02
4.957771653784922572e-01,3.442996671741013759e-01,5.667901933881893672e-01,7.934070873963963710e-02,3.010827388726337352e-03,2.940783029782715816e-02,2.454621344804763794e-01
4.192387362798005723e-01,3.108506973134754769e-01,5.735308518416751822e-01,-2.160221801952541265e-01,-3.296840366610543499e-02,-1.302730529284762961e-01,4.964354336261749268e-01
3.193148191934889191e-01,4.816661710722091594e-01,5.469288235864999681e-01,-1.569251784689280060e-01,-1.552702666601533388e-01,-9.043632008627464081e-02,4.603823721408843994e-01
4.808999659154074013e-01,3.860175885848083910e-01,5.168015162728490930e-01,-2.260873508893630410e-02,1.111058682378388701e-02,3.265831218449677907e-03,1.250352263450622559e-01
4.403594365061894167e-01,4.223872833529777604e-01,5.082441667515467110e-01,-1.649664937268642204e-02,4.428485794630260264e-03,2.271515756544882289e-03,8.391723036766052246e-02
4.169351434498753117e-01,2.868672644547413664e-01,7.255269607971316370e-01,-1.708929002625469151e-01,3.177947644460504123e-02,5.136341601047060557e-02,5.008413195610046387e-01
5.450237093001103483e-01,1.416017387336046540e-01,5.733594905980068379e-01,-8.983306760036005589e-02,1.533060686542841305e-02,-2.798126908394916665e-02,4.497191905975341797e-01
5.058426696078753837e-01,3.501434781784088512e-01,5.259093635788993915e-01,-1.178510097300096947e-02,7.875262882117690585e-03,-1.059883508795829866e-03,1.684499084949493408e-01
3.810082577612178278e-01,5.053553676688757879e-01,5.303636333329148078e-01,5.655460812350233957e-02,3.699817495417727451e-03,-1.269201737180184440e-02,1.712218523025512695e-01
3.964319197285250396e-01,5.052078386252863984e-01,5.197295377078154921e-01,6.293893291243650781e-03,1.559828193393836791e-02,1.701682891600095121e-03,1.203334406018257141e-01
4.164296607597331445e-01,4.876891151479475495e-01,5.032032462625930513e-01,1.421484869401387283e-02,8.786902053680899216e-03,-9.184631001606359535e-03,8.668918162584304810e-02
3.463963017678229339e-01,5.012280666993150779e-01,5.048440438425632060e-01,3.626052984469661095e-02,3.975880320971988263e-02,-3.247422571950447749e-03,1.823848187923431396e-01
3.546072088098450314e-01,5.214335844974572476e-01,5.229638955815932855e-01,1.533101464244646453e-02,-1.062142499787024344e-03,9.720639353679607839e-03,1.705305129289627075e-01
4.754123207385225758e-01,4.710569397355200971e-01,4.643005687140331350e-01,-8.229773047474445505e-03,1.041072054508583242e-02,1.504827862455932440e-02,3.607954084873199463e-02
2.487965338897668299e-01,5.702797113026168985e-01,5.760369407915888473e-01,-4.116955821381618197e-02,2.046158822589463563e-02,2.587454184518057920e-02,3.370233476161956787e-01
4.579212645415473015e-01,4.601734297187218270e-01,4.926563228302302533e-01,1.790765354427730372e-03,1.942800171488978135e-03,-2.302906779933438976e-03,3.420849889516830444e-02
4.569314761005925374e-01,4.483866890993629672e-01,4.970597244325301034e-01,7.453865172628166592e-03,5.686765570891295918e-03,-8.383307357512402927e-04,4.787466675043106079e-02
4.577610341082167245e-01,4.608259410508056542e-01,4.876185813848987749e-01,4.104589248163890980e-03,2.360710065938051265e-03,-4.177615942071257783e-03,3.047909773886203766e-02
4.498347084799820816e-01,4.653678515144621941e-01,5.023323063221686313e-01,4.253187807294140678e-03,3.304376045452721809e-03,-9.355167741507588574e-04,4.765998944640159607e-02
4.577482995533900811e-01,4.571512596406231976e-01,4.919957616251957599e-01,1.462620812604282453e-03,2.004060516827945240e-03,-6.146751117504909876e-04,3.483234345912933350e-02
4.588155659900362004e-01,4.539043580197469896e-01,4.973089537076527678e-01,1.469764325018716941e-03,3.055492776869346994e-03,3.231423193344111857e-04,4.158980399370193481e-02
4.423446332888610888e-01,4.809643229934957853e-01,4.899562188866057877e-01,6.149885367208088489e-03,6.428986852848016416e-03,-8.276477660956765847e-03,4.860615357756614685e-02
4.549716489626395854e-01,4.627640815861259749e-01,5.233730617843146415e-01,3.037277473173095529e-02,1.094250476875083776e-02,4.008153132138879242e-03,8.591501414775848389e-02
4.925943438546922515e-01,4.806493566088942959e-01,4.188533869901981399e-01,1.741766767183647660e-02,1.123612678190941475e-02,-9.227688650544685345e-03,7.901837676763534546e-02
4.770280302249083060e-01,4.734927840188742909e-01,4.559023126714600305e-01,1.024364358777082179e-02,1.263753139825826363e-02,-5.242247183420607054e-03,3.550311177968978882e-02
4.936118766235998989e-01,4.847274698544937754e-01,4.160437896851399975e-01,1.504553085978825415e-02,1.633597351522467558e-02,-2.687702540283107289e-02,9.514942765235900879e-02
4.514556634160021842e-01,5.218328402659807574e-01,4.733761545614034727e-01,9.583751856967120258e-03,2.892307223735757563e-02,-6.782060912239794520e-05,8.170644938945770264e-02
5.046134277658325118e-01,4.756857233984196354e-01,4.009065485170938414e-01,1.277174631151273450e-02,2.872137443231042881e-03,-2.014332520042797642e-02,1.016035825014114380e-01
4.924313866848916699e-01,4.752829825537670527e-01,4.256829443735097862e-01,1.439524703226005391e-02,9.394815943283507664e-03,-6.440477755916126576e-03,6.793886423110961914e-02
4.670211714213524656e-01,4.734875153610050291e-01,4.653992943063272048e-01,4.825079321411133298e-03,4.067720239742577716e-03,-3.555424633511600555e-03,1.457182411104440689e-02
4.538671183937998399e-01,4.794262551279414031e-01,4.590048840618444204e-01,1.846275556703628681e-02,2.435010239543768454e-02,-1.677513662670469113e-02,6.476084887981414795e-02
4.348006458972589194e-01,5.335353771754292040e-01,4.490604550627450564e-01,-1.854787037752728823e-02,7.458719528612169081e-02,2.120412371664146325e-02,1.661764532327651978e-01
4.069651381465949624e-01,5.088557367051507185e-01,4.948984033740297384e-01,2.845892833795461360e-02,3.649986618514592523e-02,4.928295179811748462e-04,1.248261258006095886e-01
4.440237007765823196e-01,4.537491712026919810e-01,4.928811323419549639e-01,-7.782716639707791366e-03,4.180022659143749382e-03,5.210014353356247699e-03,4.818749427795410156e-02
4.809972237877968571e-01,4.977567886481614745e-01,5.076949821172933586e-01,6.334431546670925284e-02,7.922270536159593812e-02,-4.046711034288215381e-02,1.905916780233383179e-01
1.489481739076666256e-01,5.615450078997540340e-01,5.418332413840575290e-01,6.640164510078770677e-02,-8.988196528525377316e-02,3.702093376944636666e-02,4.517379403114318848e-01
5.158343416576300910e-01,3.304438923875461231e-01,5.288068581025070491e-01,3.822605778244671931e-02,1.588812660640979285e-02,6.810223274301641094e-03,2.054823935031890869e-01
3.743253579378768015e-01,5.130580895345951964e-01,5.173034786477647140e-01,5.448804893196037766e-03,-3.285583488415782984e-03,9.631625452711374893e-03,1.423148810863494873e-01
4.573594145900699570e-01,4.562100694748444374e-01,4.973470633949285125e-01,8.455209387225966558e-03,5.666309083810123354e-03,-1.812758303030596310e-03,4.435024037957191467e-02
4.568931321004948698e-01,4.565611778219257899e-01,5.025501663623561655e-01,1.032805237971391558e-02,6.814990997589702622e-03,1.116051431089858754e-03,5.062515288591384888e-02
4.955560047242386079e-01,4.065912533467435641e-01,4.972639136581800123e-01,1.297514115559089513e-02,1.427702169471177160e-02,-6.577474328107152379e-03,9.651912003755569458e-02
4.434206542109267457e-01,4.649285890354331041e-01,4.898915782919368578e-01,1.024808087483266433e-02,3.880806847567896175e-03,-7.360174387433404512e-03,4.631859809160232544e-02
4.792570737526022362e-01,4.750949453401741573e-01,4.530496304042991862e-01,1.560297425126575856e-02,1.379308195382365938e-02,-9.571348630070523889e-03,4.659412428736686707e-02
4.968755816109452494e-01,4.562807079128309296e-01,4.487651870566466417e-01,5.399870359805936104e-03,-2.387950950037989479e-03,7.509747217902451068e-03,4.778378456830978394e-02
5.148658961108583121e-01,4.430475621800951114e-01,4.814989184233595121e-01,4.485003567795278062e-02,-1.228525463126718849e-02,4.254491147572196652e-02,1.256679594516754150e-01
4.975136440328906118e-01,4.680136914319117936e-01,4.418515908654655489e-01,8.385592777908202136e-03,2.583454750249051905e-03,3.737203763789160964e-03,5.098392441868782043e-02
4.961656764109919071e-01,4.855081018329516218e-01,4.136536166046317353e-01,1.573156734657500666e-02,-1.324670002248395755e-02,7.202700051136790363e-03,8.641153573989868164e-02
4.826029380110462008e-01,4.862377607674480129e-01,4.136249157795769960e-01,1.605977480660529880e-02,-1.395064023166286277e-02,1.155924499742301374e-02,8.234294503927230835e-02
5.177892317571216596e-01,4.632228539027192227e-01,4.099776539213651483e-01,2.360866770611006610e-02,-1.762513143240338614e-02,4.440327247076347045e-02,1.312894970178604126e-01
4.970707265315159606e-01,4.863711190582102883e-01,4.128527713036524993e-01,1.488926359150920427e-02,-7.098239138950450215e-03,9.564472126909204577e-03,8.600412309169769287e-02
5.074285228351120836e-01,6.664308912519475436e-01,2.873048495457415363e-01,1.655619126697860655e-01,-1.476298127009433026e-01,4.743772764310032197e-02,5.129359960556030273e-01
5.384455272728854158e-01,4.051396440126533993e-01,4.504333575029236814e-01,1.002151562734171913e-01,-3.680657324413045411e-02,1.386124817662111319e-01,3.249888122081756592e-01
5.999125739338835306e-01,5.206609330077410780e-01,3.292048518451659578e-01,1.560575395244711248e-02,-9.775573109053392606e-02,1.436926827459949207e-01,3.865894377231597900e-01
6.113421522663240459e-01,5.848243403951803865e-01,4.157097727328613046e-01,1.239375708269441767e-01,7.449637429155431083e-03,1.771122067360126617e-01,4.173029363155364990e-01
5.430496525069193892e-01,3.655681117893023746e-01,3.711307757858512968e-01,-1.669342423794858022e-03,2.167773284370939565e-02,1.667502442657802508e-01,3.396740257740020752e-01
4.462942908978151935e-01,5.052838230537634034e-01,4.114557071012920897e-01,2.025023987006162665e-02,-4.204347026642284157e-02,2.179407629855879824e-02,1.212712898850440979e-01
4.568688354907626259e-01,4.843453707529284391e-01,4.344724252971726153e-01,-1.710648358382433135e-02,4.025807746262927839e-02,2.232382564161682764e-02,9.543075412511825562e-02
6.618480487540377988e-01,2.989153726305078251e-01,5.681444077533325254e-01,5.953720260742290842e-04,1.716852144580763850e-01,1.645514078262209356e-01,5.255020260810852051e-01
5.149654336061509907e-01,4.728583934862499172e-01,4.398589075452779551e-01,9.627402536864388197e-03,-1.278758476261172220e-04,2.838418511136954481e-02,8.334611356258392334e-02
4.814893514271610941e-01,4.910580687408979128e-01,4.221320682258223322e-01,1.681287277955095458e-02,-1.798725344826647768e-02,2.321463379089769297e-02,8.728241920471191406e-02
3.116890485149588219e-01,5.628655608218242623e-01,5.667858484918812945e-01,-3.337990496088867609e-02,-7.627766282182197113e-03,6.845267912842854623e-03,2.602834403514862061e-01
3.415844927514860019e-01,5.324402469575227892e-01,5.374411299788139917e-01,-2.765041323478300336e-03,-3.990265039336848667e-03,7.702765979235207984e-03,1.940465867519378662e-01
2.206559019571112112e-01,7.049403805598690731e-01,6.039668700550892000e-01,1.195427608043020916e-02,-1.361407916303865318e-01,6.620010073595594680e-02,5.147875547409057617e-01
4.303570048677952675e-01,4.404184339038699769e-01,5.051655926584288636e-01,-9.132413597617289672e-03,-4.361806996882951920e-04,9.944171933125266205e-04,7.210142910480499268e-02
4.366055677134921820e-01,5.112503287295023791e-01,5.084874129812282373e-01,7.683620709149573125e-02,-2.040889608724363521e-02,3.046010870722547226e-02,1.646744310855865479e-01
3.864270851565221321e-01,5.148060861292556023e-01,4.733951142119054989e-01,1.031624954824413888e-02,-2.426103004849587338e-02,1.022646743971398521e-02,1.236064210534095764e-01
4.952569059402733287e-01,3.897059647562454154e-01,4.816480094480253826e-01,-7.085467065808663881e-03,-1.527320030038229089e-02,-1.378126241298842890e-02,1.063483133912086487e-01
4.868168172062208865e-01,4.011982953532488017e-01,4.778384054571098716e-01,-1.138438048595098381e-02,-2.103356254712880277e-02,-1.752872605039091855e-02,9.633399546146392822e-02
4.863035544260448928e-01,4.162460993155399636e-01,4.688882944407129494e-01,-9.769223257754092865e-03,-1.575860433608385763e-02,-7.057597399665866029e-03,7.191670686006546021e-02
4.845434621805770337e-01,4.221255975890805257e-01,4.760102624208706334e-01,-2.285416792784444873e-02,-2.357467960168817267e-02,-2.743562664648838481e-02,9.449104219675064087e-02
4.786086115236999339e-01,3.857144299260129583e-01,4.698792782669745094e-01,-4.098311116136835186e-02,-2.803941863566956905e-02,-4.304987839920655646e-02,1.444021314382553101e-01
5.196838284664224705e-01,3.340199964401733279e-01,4.952074644177559826e-01,-3.624734649760331245e-02,-3.719727418392437118e-02,-8.915957437195989876e-02,2.499331682920455933e-01
4.675640561457716227e-01,3.852631329706264207e-01,5.058967438623207524e-01,-4.419355154994465684e-02,-1.184400872077393842e-02,-2.791567270816039392e-02,1.414763480424880981e-01
4.369428893895553889e-01,4.589198214021720790e-01,4.409512555226068331e-01,-5.730791682148628219e-02,-4.963685283503340567e-02,-5.470127075156239194e-02,1.631921976804733276e-01
4.354100189411191923e-01,5.050376729107819429e-01,4.299053596112435427e-01,-2.663507961402307878e-03,-7.171057985681344484e-03,-2.822144734681564238e-04,7.373860478401184082e-02
4.727455891358844919e-01,5.558464741272296505e-01,3.534909579312702221e-01,2.893865162715115666e-02,-6.390115800753788655e-02,1.608693044306639536e-02,2.158155888319015503e-01
2.703949382668604517e-01,6.232898038447868272e-01,4.202511425647780241e-01,-1.094322609058171053e-01,-1.920037238639162036e-01,-4.094797341009602520e-02,4.956419467926025391e-01
3.803860782921297257e-01,4.975757625080924895e-01,4.749580176784473085e-01,-1.285629219942978525e-02,-1.462097236011503446e-02,-1.522928266260974509e-02,1.158765852451324463e-01
3.790440603960135713e-01,5.118080772464728145e-01,4.742262600811241180e-01,-7.310163039502938845e-03,-1.994580408644224326e-02,-6.849818493378320543e-03,1.246745586395263672e-01
3.937086658705293285e-01,5.261245568610188883e-01,4.350644683025507442e-01,-9.054884126745532669e-02,-1.376018761828076697e-01,-9.070997296622310135e-02,3.461980819702148438e-01
4.295010242163490588e-01,5.581558899394349904e-01,2.920093805023866174e-01,-4.807747051609048694e-02,-1.688917560230439319e-01,-8.618623256801177801e-02,4.098009169101715088e-01
4.418045314397474055e-01,4.972839518522232938e-01,4.173099170958625148e-01,-2.147756460958982414e-02,-3.215977110886044515e-02,-2.052111463374981307e-02,1.038597971200942993e-01
3.231534917354667025e-01,6.353468080445928701e-01,4.160869288714459380e-01,1.633560247492947884e-02,-1.857876375630137522e-01,-3.269678460134759629e-02,4.297057390213012695e-01
3.634480434010497474e-01,6.412035952447245890e-01,4.775074854345319753e-01,1.053495359656020647e-01,-1.814339789130138825e-01,5.654529127190708465e-02,4.473473131656646729e-01
4.125228660409066550e-01,4.965727465182506739e-01,4.429659275071962665e-01,-2.136240527323720467e-02,-3.652511216836552138e-02,-2.126323015397917071e-02,1.102728918194770813e-01
4.494446426472604728e-01,4.415387547105852351e-01,4.674470952168937599e-01,-7.919163747451354873e-02,-5.245653047211749215e-02,-5.064753600466255501e-02,1.878654956817626953e-01
4.301992808662832291e-01,4.968917185795648783e-01,4.276618350494684195e-01,-9.475669444442304939e-03,-2.038214113447988154e-02,-7.856125323497992544e-03,7.952587306499481201e-02
4.039911383603658201e-01,4.978836654219638835e-01,4.667343486429784138e-01,-7.399167380392925389e-03,-7.689840754425057885e-03,-1.133140582025614872e-02,8.711053431034088135e-02
4.518200672149947361e-01,4.897308183836480144e-01,4.171512264837539119e-01,-1.222407654105309507e-02,-9.147328429609651382e-03,-5.279554803085854432e-03,6.882151961326599121e-02
4.448406748185179671e-01,4.841918393507179119e-01,4.380031319846158233e-01,-7.514331249747888998e-03,-3.876995682150006454e-03,-2.701397114499280196e-03,4.583353549242019653e-02
3.689041856145178766e-01,5.049799481127785761e-01,4.950332894537936013e-01,-5.013299323205026685e-03,-8.507015011027962981e-03,-1.276015934804501303e-02,1.343243122100830078e-01
3.894910414747908001e-01,5.097405114603988929e-01,5.237447348680545067e-01,5.805682909935002724e-03,-1.891944225869989166e-03,7.912734289526386633e-03,1.289951354265213013e-01
3.627531857480702504e-01,5.246493576928967784e-01,5.183800305375342310e-01,1.874229658967878137e-03,-6.540468591357997963e-03,6.142337881284047792e-03,1.596457064151763916e-01
3.745994429561206873e-01,4.965119719261942288e-01,4.992569136814622444e-01,-3.465863842993236604e-02,2.495298493695405351e-02,1.229429154483718811e-02,1.453613042831420898e-01
4.250977665089348823e-01,4.582011142119503111e-01,5.014935821699331164e-01,-8.909199343857797729e-03,1.735354546987654539e-03,9.237213811514377593e-03,7.004519551992416382e-02
4.331247601814303128e-01,4.830146370141639722e-01,4.861019642761498227e-01,-5.119565397262998072e-03,5.491143500906964757e-03,1.366939400231048131e-02,5.815670639276504517e-02
3.956613443768722260e-01,4.755978790721312466e-01,5.080615021064086578e-01,-1.297457184844021637e-02,8.759248870117747679e-03,1.581330119630199385e-02,1.073505431413650513e-01
2.827387414666141519e-01,5.158488898758797347e-01,5.444333024082271821e-01,-1.054916791897200362e-01,-1.673531379634656535e-01,-8.412622894761549730e-02,4.477265775203704834e-01
4.263005925050128986e-01,5.046960680289114265e-01,4.699795215826587103e-01,-1.413752318718534311e-03,1.059054567126378743e-02,5.330757423498062343e-03,7.111395895481109619e-02
4.576664851992652272e-01,5.012433908403217675e-01,4.615548636189679699e-01,1.199417833942564160e-04,1.057832468743555993e-02,1.791434889892020105e-04,4.561211541295051575e-02
4.570384557369074896e-01,5.009539958204507482e-01,4.541879971498660740e-01,6.866006945414769493e-04,1.879237424914147452e-03,4.186054286815635078e-04,4.554573073983192444e-02
4.353148309805147664e-01,5.010714672496191513e-01,4.699768194610933203e-01,2.325311410252653508e-03,3.621765536938222931e-03,7.446628843335306377e-03,5.889025703072547913e-02
4.313543573192346048e-01,5.100310313019998931e-01,4.692318206208979658e-01,1.137118315623106106e-02,5.962183083346687257e-02,-2.571065118226371904e-02,1.329660117626190186e-01
4.515013395564344556e-01,4.968965986819701142e-01,4.550633831811387031e-01,2.305346620287052842e-03,5.221294197712121436e-03,-2.703305753556791650e-03,4.507073387503623962e-02
4.099011096385957176e-01,4.750843362569968642e-01,4.949548510975463333e-01,-1.434423146678337653e-02,1.127815988753846227e-02,1.732290767381674743e-02,8.853262662887573242e-02
4.081712547812713088e-01,5.319776482607433410e-01,3.406558782078369374e-01,-3.176679685303773759e-02,1.865111401118692558e-01,8.813006084507044036e-02,3.986634016036987305e-01
4.461008195080369276e-01,5.194954950545445094e-01,4.765112070740015193e-01,5.433969405705610031e-03,3.787908062130426051e-02,8.745208999373019210e-03,9.328506886959075928e-02
4.380763909051763605e-01,4.892481195258860938e-01,4.680953719456378836e-01,-7.580502223440203219e-03,9.232856124106320062e-03,1.145119751396569616e-02,5.296301096677780151e-02
5.260346583624400107e-01,5.506308890396118816e-01,4.115935905022886088e-01,3.999858815896335101e-02,6.872078662013701711e-02,-2.066881831194426755e-02,1.917431950569152832e-01
5.472186516037986781e-01,5.476399996393256364e-01,3.940184000884462412e-01,2.733261266906718973e-02,1.971633909059781198e-01,-6.615391125384944594e-03,3.775284886360168457e-01
3.860100506498671535e-01,5.494916636973261603e-01,4.307368295958231008e-01,-7.465974849544265712e-02,-1.480224822833670628e-01,-4.991172951446077449e-02,3.336801826953887939e-01
4.691506540650898782e-01,4.511806059124434110e-01,3.417747461294666778e-01,-1.144794477939448801e-01,-1.519991720257661549e-01,-1.531475343098882280e-01,4.396009147167205811e-01
3.990865216180642383e-01,4.014616593947611389e-01,3.852792300427574368e-01,-1.725517561795263388e-01,-1.700007160342459911e-01,-1.707549985356502653e-01,5.135405659675598145e-01
3.787083378969513525e-01,3.989817953488277724e-01,4.638438993729938620e-01,-1.826640829798534260e-01,-1.372129176773402293e-01,-1.572434863176040976e-01,4.865082502365112305e-01
3.225652972761168247e-01,5.927989576572846309e-01,5.116042141314590674e-01,-2.868502851142370330e-03,-5.312903971971670580e-02,2.049065975884301061e-02,2.596721649169921875e-01
4.144028587957440113e-01,4.538058551624971626e-01,5.207925588079226342e-01,-2.742094813192298350e-02,-2.328786979765990351e-03,-1.482360780266679450e-03,1.046798825263977051e-01
4.574503007513482378e-01,4.817954619742105815e-01,4.502138103057737317e-01,-5.605982450374404763e-02,-7.008371920590338033e-02,-5.609072757261305414e-02,1.855344474315643311e-01
3.811031675128834229e-01,4.750526748024808676e-01,5.210058272653360634e-01,-4.368846193151626478e-02,-1.464628129863807318e-02,-6.949881120346875461e-03,1.475464850664138794e-01
4.323683253403771132e-01,4.203846867862259251e-01,4.756653037833029063e-01,-1.420708930259640401e-01,-9.278789549815867621e-02,-9.824823335597487883e-02,3.433313667774200439e-01
4.907961263855263323e-01,4.394881944250121908e-01,4.362183739263635340e-01,-3.756484517514071132e-03,-2.311150532172715280e-03,-1.902240415975446934e-03,5.366727709770202637e-02
4.804091850122584884e-01,4.427589814848859051e-01,4.443381115157550854e-01,-9.314908156201231852e-04,-4.149224300263472907e-03,-1.224532628141428593e-03,3.767395019531250000e-02
4.896861740615959802e-01,4.410499094425866518e-01,4.446382337714711586e-01,-2.300238264325636921e-03,-1.759642202146217147e-03,-2.763599863742566450e-03,4.745433852076530457e-02
4.854637190987553530e-01,4.254426677095519138e-01,4.534474315186764470e-01,-8.664187835036052734e-03,-1.258054457461432393e-02,-1.087919344892721366e-02,6.132702156901359558e-02
4.939464958022304897e-01,4.116697260580670092e-01,4.524532876807449422e-01,-6.339753490851283285e-03,-1.074929906668076370e-02,-1.426456744182727152e-02,7.845304161310195923e-02
5.170250805479882361e-01,4.623778599238647091e-01,3.781146428113149605e-01,-1.078287283384660698e-02,-5.090234734038401147e-03,-2.581530491463900068e-02,1.308326870203018188e-01
4.841084929327706954e-01,4.334616621546672488e-01,4.551315372838625195e-01,-1.371486873861615767e-02,-1.346266701366547261e-02,-2.040552960006326161e-02,6.553132086992263794e-02
5.042696934882395787e-01,4.288404355020290493e-01,4.134284301868582090e-01,-1.988336414181362394e-02,-1.416041762749389171e-02,-4.434267428772441927e-02,1.215567141771316528e-01
4.566010643489565313e-01,4.389040333136022820e-01,5.120321044275093492e-01,-2.473958745487065194e-02,9.389887737363796297e-03,9.291892596929895651e-03,8.201474696397781372e-02
4.967369011616924457e-01,4.044340325736160979e-01,5.141961112743548279e-01,-9.755570271617932873e-03,9.542966965547933222e-03,1.368651355630438708e-02,1.075028330087661743e-01
5.035018783291362876e-01,2.650986937643978747e-01,5.569825307336515596e-01,-1.701067330570326941e-01,-8.973823377408536583e-02,-9.337822970082527985e-02,4.577908515930175781e-01
5.019430055223378373e-01,3.503929764726227969e-01,5.434444526541031273e-01,-9.740199798495684236e-02,-3.390189950160379245e-02,-6.599466565811555607e-02,2.755987644195556641e-01
4.827216491665016207e-01,2.224261058790452383e-01,5.847769802916444881e-01,-1.348509193932060091e-01,-7.723502384761203078e-03,-2.511865110256168709e-02,4.016960561275482178e-01
4.469601720363475250e-01,2.689429744302810343e-01,6.681131400144058041e-01,-1.751331806919944611e-01,3.153027411458166757e-02,-7.284057552061362628e-02,4.805022478103637695e-01
4.964900975980252040e-01,2.330074126075074303e-01,5.526670274165186303e-01,-1.264515127307096476e-01,-4.051651826484822111e-02,-1.232540115201958275e-01,4.311032295227050781e-01
4.338281634881462345e-01,4.992036769785582195e-01,4.547413559456953691e-01,-1.313173055857798713e-02,-1.921351875616767249e-02,-1.254060860723777565e-02,7.376119494438171387e-02
4.268836655266564084e-01,4.971746551628501432e-01,4.489395256051938454e-01,-3.544484492553238737e-03,-3.568418335141176380e-03,-7.053841731959148605e-03,6.404776871204376221e-02
4.185378470138477192e-01,4.915304443151770619e-01,4.526484107178955774e-01,-5.309712458802006221e-03,-1.051961311009721317e-02,-1.127194529679216052e-02,6.927746534347534180e-02
4.876981338473233563e-01,3.637374214645825998e-01,4.457950166050480556e-01,-6.977486291546694530e-02,-5.574859486653148399e-02,-8.557688202334275129e-02,2.404730916023254395e-01
4.511474795948602901e-01,4.757517059993874309e-01,4.469570990691436041e-01,-1.484388751133239055e-03,-2.186528739727635132e-03,-2.172228405847772496e-03,2.758871205151081085e-02
4.515256357095964179e-01,4.969554907274955635e-01,4.104008278222160966e-01,-1.148225160610721017e-02,-1.079687076741150074e-02,-6.835895086803003839e-03,8.067742735147476196e-02
4.355212718932806593e-01,4.785835098905606988e-01,4.352188661055823027e-01,-9.505523332782523857e-03,-1.809651974177490727e-02,-1.108167554952353001e-02,5.907112360000610352e-02
4.568497609127131764e-01,4.578250037865383981e-01,4.869599994657846098e-01,5.023105671558580378e-03,3.077555614626849897e-03,-3.370004340911822872e-03,3.188090771436691284e-02
4.290456880913785520e-01,5.087219680320864690e-01,5.058015695481070662e-01,8.158868881372850768e-02,5.359961111846325843e-02,-4.754847540592234585e-03,1.864963173866271973e-01
4.585775442667539559e-01,4.552016005947089328e-01,4.915321856293851654e-01,9.001129321823817182e-05,1.347386243623664324e-03,-1.233208023493143806e-03,3.490976244211196899e-02
4.900011035405081317e-01,4.100095538842591925e-01,4.831751721406871702e-01,1.511196109234648130e-02,1.885952313197531566e-02,-1.353350125800834372e-02,9.055854380130767822e-02
4.352084147164599903e-01,4.733729136127958759e-01,4.951673638471097982e-01,1.087109888166095349e-02,4.556029547399034589e-03,-4.518975610370906323e-03,5.693311244249343872e-02
5.033413913908117987e-01,4.304468076084926320e-01,4.352507975224181314e-01,3.438550156897280611e-03,4.114854425294124825e-03,-2.019454809510417767e-02,7.934884727001190186e-02
5.166358730495089757e-01,3.880101063888874435e-01,4.798073196298494603e-01,1.708728702061878537e-03,5.556825876895100415e-03,-1.343146127499724937e-02,1.175007894635200500e-01
5.440751089999700252e-01,3.857775468961182064e-01,4.194525699930334861e-01,1.073478102910772058e-01,8.066694831228816975e-02,-1.378881752593723586e-01,3.633084297180175781e-01
4.749154697488091048e-01,4.584722615685840053e-01,4.865979011615619299e-01,1.114442077404393175e-02,1.402554764863305110e-02,-1.092246608237248083e-02,4.381321743130683899e-02
4.289009962652752805e-01,4.538322841028225030e-01,5.046814769754238705e-01,-3.470168862538709331e-03,3.451840113671376855e-03,6.618863325957881349e-03,6.839770078659057617e-02
4.392056621531464367e-01,4.604679619787997447e-01,5.090058129466513703e-01,-1.982858160479999271e-02,7.350692089263082853e-03,1.092980361725486016e-02,7.443139702081680298e-02
4.314716028370855772e-01,4.408381941851555186e-01,5.075174501321412235e-01,-8.497305289517058033e-03,-1.957853190080267782e-03,1.653394629208860286e-04,7.339351624250411987e-02
4.399338462859810894e-01,4.360135813801826465e-01,5.113749966226319721e-01,-1.882389508038599321e-02,1.103143380415142275e-02,8.946363716532372209e-03,8.406831324100494385e-02
4.474922996247939766e-01,4.500867693994791141e-01,4.962934467791603188e-01,-9.212199114543897713e-03,4.996150944134578227e-03,5.175812391275368129e-03,5.168670788407325745e-02
4.492097021753050368e-01,4.343319627457611354e-01,5.023271862771219176e-01,-1.870430987058772357e-03,-4.845678800811359897e-03,-3.179310073880721281e-03,6.280401349067687988e-02
4.373324642854495292e-01,4.823168311226160299e-01,4.911585112621292271e-01,6.682386337414087350e-03,6.583286933933049645e-03,-7.405836222894053751e-03,5.411124601960182190e-02
5.379550975583582417e-01,4.164582359696351599e-01,4.528110292641477908e-01,1.082446748032196530e-02,1.227089201776070983e-02,-6.370595559590015722e-02,1.569867581129074097e-01
4.296182492251078289e-01,5.053332913995294273e-01,4.839971421225609527e-01,8.157067313697150338e-03,8.489737586625793753e-03,-9.320716887339934760e-04,7.064685225486755371e-02
4.374047070173103791e-01,4.988290953264739591e-01,4.642149868709479210e-01,4.851443804291971987e-03,9.285892266703706446e-03,-4.621900034447390219e-03,5.690624192357063293e-02
3.819505156581793903e-01,5.131884221038944816e-01,5.073724995803634563e-01,3.212242151798228029e-02,5.572862418109977151e-02,-1.504779420716363322e-02,1.720053553581237793e-01
4.849252214374903391e-01,5.002576410756472969e-01,4.806638183847817269e-01,5.398956797177301842e-02,5.866623144893321623e-02,-1.178219764923677144e-02,1.407296806573867798e-01
3.024871503578955290e-01,5.780087423648077039e-01,4.605871394316694012e-01,4.214878283881384052e-02,1.700214487263492502e-01,2.096790634696086425e-02,3.882244229316711426e-01
4.823008647283144601e-01,5.307567601535287949e-01,4.200222801219917201e-01,4.766666207485436429e-02,8.692912008353941011e-02,-3.171014381307070418e-02,2.043215781450271606e-01
4.044513844392619850e-01,4.756886714271804095e-01,5.054023562135193659e-01,-1.362253610973905571e-02,4.158429079021755230e-03,1.496277870925900519e-02,9.671933203935623169e-02
3.721813461008570689e-01,3.852401651296371576e-01,6.993124197200331071e-01,-1.725933668138784627e-01,1.909840582314004109e-02,1.438713936786114311e-01,5.054402947425842285e-01
4.555917238319124873e-01,4.918503066735977480e-01,4.610818466288216233e-01,-4.867369553659788559e-04,2.586227753042922694e-03,1.524280349375455685e-03,3.425651788711547852e-02
4.244041805337626094e-01,4.431783763613608151e-01,5.416406998291275476e-01,-5.975347241870006959e-02,1.417610172512625243e-02,1.136405319834212641e-02,1.536150872707366943e-01
3.994769078032252563e-01,2.920632500436184387e-01,6.754637457396859279e-01,-1.843754080370039183e-01,-5.675259678887948495e-02,-2.196346228228273148e-02,4.800456464290618896e-01
4.184818041052870696e-01,4.382533326885493241e-01,4.958906846844013949e-01,-6.021257160723415824e-02,4.278004387818630516e-02,3.747683237338868961e-02,1.594777554273605347e-01
5.297114286120810922e-01,5.512287992091461364e-01,4.116020409991874573e-01,3.452535236465378160e-02,7.019550255792804394e-02,-2.026749868016717096e-02,1.911668628454208374e-01
5.682162521776144004e-01,4.983951618509751547e-01,3.671572384654741561e-01,1.361079146962214381e-02,1.843319682450056743e-02,-5.762392024943163715e-02,2.068772763013839722e-01
5.267651226689804567e-01,4.977845743243854981e-01,3.798345664489115592e-01,6.872621780759357972e-03,7.407903128620232057e-03,-1.150113292181573904e-02,1.373808234930038452e-01
5.703717368899045015e-01,5.340572671296113239e-01,2.488739673954728227e-01,2.501975861502635581e-02,5.493438432398175392e-02,-6.902581355185231915e-02,3.438452482223510742e-01
4.938797110329283813e-01,4.917403197089913469e-01,3.711516782178705953e-01,-1.505984957426854780e-02,-1.272206645985479202e-02,-1.828111109785643396e-02,1.302794367074966431e-01
5.865702447360836569e-01,5.835075341843997121e-01,3.060884217644441185e-01,3.384674925223844083e-02,1.999844365067728058e-02,-1.339775266449607857e-02,2.880894243717193604e-01
5.046314116352257351e-01,4.821958879594153702e-01,3.109815533769328955e-01,-1.261948733916788412e-01,-1.193668839161397682e-01,-1.747951759935149063e-01,4.645856618881225586e-01
4.759906592336919373e-01,5.284672695183374458e-01,3.462286988157632361e-01,-1.120026414664795564e-02,-1.197914045727900972e-01,-7.739996752452969753e-02,2.963106036186218262e-01
4.784835353256314816e-01,5.027785299500326932e-01,3.931810747601223732e-01,-1.353562380509833532e-02,-3.592892807080184242e-02,-3.430377686696813033e-02,1.337599754333496094e-01
6.426549059089121663e-01,4.029521333542707140e-01,3.076435936928563764e-01,-7.316497750243639020e-02,-4.957882603349947348e-02,-1.923111793605703779e-01,4.730445444583892822e-01
5.136505711420765730e-01,4.621835705380485382e-01,3.753739253954319066e-01,-8.195910497632279829e-03,-7.997020331210902971e-03,-2.414264532773418431e-02,1.295938938856124878e-01
5.247942267954017748e-01,4.741567231635354651e-01,3.918829111114344732e-01,-3.905658360585575074e-03,-7.929021514093437598e-03,-4.567779221326674632e-02,1.413967162370681763e-01
5.276249488963110634e-01,4.979493083181191770e-01,3.583192530219973526e-01,-1.935598107137927182e-03,4.278459317412535573e-03,-8.289394357694931242e-03,1.574582606554031372e-01
4.470982255043295939e-01,4.438818018052006487e-01,4.846956156834927865e-01,-8.260740507374533803e-03,-6.464266592152257546e-03,-7.180950548489199552e-03,4.505126178264617920e-02
4.443595554577344231e-01,4.438474298628023451e-01,4.762495359648379889e-01,-3.385244119935282010e-04,-2.044505055157884183e-03,-1.843256783687336527e-03,3.250602260231971741e-02
4.497557140016040789e-01,4.440645111138017409e-01,4.758020060236503035e-01,-5.339586781824406112e-04,-4.331846917003007690e-03,-1.864692360823295330e-03,3.044035285711288452e-02
4.208068661567067048e-01,4.523792952075411100e-01,4.797625048807999670e-01,-8.927583090821143361e-03,-5.557396106001670152e-03,-1.156374346248386330e-02,5.782847478985786438e-02
4.284539639564656222e-01,4.577742346386980965e-01,4.739973884769869139e-01,-6.872540578243896241e-03,-4.122662622751010510e-03,-1.179703753664743636e-02,4.699713736772537231e-02
4.467045971691431805e-01,4.312229084328748629e-01,4.792042261870811393e-01,-8.542871427811228602e-02,-6.465779596932902384e-02,-6.045666063481597990e-02,2.172559946775436401e-01
4.596329741691502213e-01,4.341056235753631976e-01,4.632070081005175144e-01,-6.811873132912943211e-03,-1.204219099930530293e-02,-5.503418856284968651e-03,3.769304603338241577e-02
5.380274985441680924e-01,4.032634659780701680e-01,4.833054971617591900e-01,1.101377977332013286e-01,1.544095557494526427e-01,-1.597528742561462045e-01,4.452663958072662354e-01
5.203195249869083661e-01,3.885798287190059819e-01,4.824309335290737910e-01,8.417082009346139523e-03,1.029740885600931646e-02,-2.110257981793887266e-02,1.251641660928726196e-01
6.232479215549180385e-01,3.418497864103535178e-01,5.969433115045778004e-01,1.652483491721991882e-01,1.364769112059712741e-01,-1.260241960776677106e-02,4.590753018856048584e-01
5.902580343738839108e-01,4.481321615685395221e-01,2.999970148602616460e-01,4.984157799245113318e-02,3.760074391823530621e-02,-1.962098774308036475e-01,4.363330900669097900e-01
5.493930797197149607e-01,3.471198708555807699e-01,5.428438538335850216e-01,3.842392034295567110e-02,3.561739516049024223e-02,-1.872180568496964806e-02,2.211766690015792847e-01
5.503396953037132944e-01,3.680387508453694667e-01,5.354681258227660390e-01,3.621961645267076507e-02,3.776969348589107045e-02,-5.674251321371696910e-02,2.204950451850891113e-01
4.950161779304345089e-01,4.116548395971286745e-01,4.813537539589468617e-01,1.338578438540176038e-02,1.616089545918834858e-02,-1.159860008348865060e-02,8.787206560373306274e-02
5.825371198552559138e-01,2.242823940171207453e-01,4.229883253487504713e-01,-1.384424358447396836e-02,8.926709083952219861e-03,-1.920031376578406890e-01,4.561280608177185059e-01
5.908757560563465683e-01,4.333989467134408136e-01,3.669866856316046366e-01,3.956622922235491363e-02,4.994038744382698486e-02,-1.104008256752713329e-01,2.973407804965972900e-01
5.974507718750289298e-01,4.375368732479376077e-01,2.714540298986758970e-01,6.115014108962187056e-02,1.187581630058377330e-01,-1.600277584867838276e-01,4.583340287208557129e-01
5.254156973315377011e-01,3.987455641113930027e-01,3.704414102562968991e-01,1.216412411693210682e-01,1.211634092363344239e-01,-1.477233219311094858e-01,4.175281524658203125e-01
5.116612943969786054e-01,4.417980668059056093e-01,4.616319776320903512e-01,1.214098417504746834e-02,1.038421104597102296e-02,-2.037840366513447854e-02,7.681235671043395996e-02
4.932419489039970295e-01,3.896244625120389715e-01,5.611819371697341907e-01,1.439968978494776120e-01,5.426100956107490075e-02,-1.623073965330312091e-02,3.069537281990051270e-01
4.830012800934943562e-01,4.453277385964329316e-01,4.622616025181726651e-01,6.727390260546309286e-02,5.848824845407148143e-02,-5.076154055850470859e-02,1.806606054306030273e-01
4.519129527685071257e-01,4.733101230777730373e-01,5.012840631553094894e-01,2.270900601058081780e-02,1.031971264873092139e-02,-5.362334008838977144e-03,6.157753989100456238e-02
4.869485500536131495e-01,4.319395653569909066e-01,4.856813639108763514e-01,5.219515610696810054e-03,1.338436994117796208e-02,-6.811238611453120616e-03,6.096081063151359558e-02
4.948176666560680781e-01,3.731827084217654855e-01,6.128085425673748254e-01,1.335808753718752684e-01,1.269775778904734531e-01,-6.891929775964673877e-02,3.990235626697540283e-01
4.714137662839166798e-01,4.408344445085794483e-01,4.981783400766219838e-01,2.116334220787380316e-02,1.057825390685443630e-02,-3.584632546314651426e-03,6.471312046051025391e-02
3.532515894369985809e-01,3.945085378419083133e-01,5.398222119979430023e-01,1.543562418022668414e-01,5.209590732293406523e-02,-2.365294633128747076e-02,3.318302035331726074e-01
5.479881506509675093e-01,3.812895826369008812e-01,4.792951707529989891e-01,7.230293948580746033e-02,7.129526253921086854e-02,-9.196255850220920458e-02,2.781360149383544922e-01
4.930017039737583651e-01,4.303219108878014731e-01,4.568619404788336613e-01,1.004061511753931435e-02,1.306806982672912079e-02,-1.099759377998917216e-02,6.439885497093200684e-02
5.254692967370936385e-01,5.228800790606437099e-01,3.251449377377489403e-01,1.232207532810280018e-02,2.486222794655121998e-02,-2.505794597814902866e-02,2.093118876218795776e-01
4.693866460991685807e-01,4.689135286648645207e-01,4.667409193423767699e-01,4.119803308331181774e-03,2.581816791261664495e-03,-1.691340207229987888e-03,9.244973771274089813e-03
4.596546630350117901e-01,4.772065107745248613e-01,4.672916229667269383e-01,-1.339945179524294674e-03,2.359291616522768073e-03,4.387552697016475212e-03,1.766875013709068298e-02
4.827740259952869040e-01,4.702092476735057480e-01,4.495276234254281800e-01,-7.633145263868702964e-03,4.560027134641044325e-03,6.437179134094458098e-03,3.474120423197746277e-02
4.443518123938000053e-01,4.782100227698200534e-01,4.743969762444578131e-01,-2.430390829706044909e-03,4.555621176554744932e-03,1.085493309379986955e-02,3.827904164791107178e-02
4.505508125893143978e-01,4.929856258012644266e-01,4.710892317139723229e-01,-2.477727971632678492e-04,2.316666240854219593e-03,8.829520026496465168e-03,4.001452773809432983e-02
4.589826302598021268e-01,4.260340456062953196e-01,5.769375032478539778e-01,-9.236378500935953084e-02,5.415021237605955468e-02,4.216353482509480749e-02,2.420922219753265381e-01
4.720185456462475115e-01,4.734431131304182583e-01,4.625510019481939294e-01,-8.274639251411017304e-03,8.925564615318921230e-03,1.021584106795334068e-02,2.937085740268230438e-02
4.601014276063627451e-01,4.818119956622688438e-01,4.613388685389078203e-01,-2.682549088934554817e-03,1.123612267166971233e-03,1.947716648835395728e-03,2.197205089032649994e-02
4.331358879523397043e-01,4.850072502915212524e-01,4.343666008477339857e-01,-1.156300652692786660e-02,-1.581792831523672407e-02,-1.217967614461739831e-02,6.500059366226196289e-02
3.454179794247657087e-01,5.166737860329323473e-01,4.605604661180573989e-01,-3.044203878689399206e-02,-8.058478465497265208e-02,-2.247513041769771264e-02,2.159740626811981201e-01
3.950649325700990033e-01,4.901871206811038162e-01,5.124421035496840027e-01,5.181583539374538111e-02,1.345638562691196631e-02,3.936871922583070477e-03,1.424949765205383301e-01
4.343160338149446575e-01,4.708217412486052633e-01,5.015961172347725983e-01,9.211604185297430150e-03,4.350359300426893255e-03,-3.743844793750986891e-03,6.129075214266777039e-02
4.392783889854174340e-01,4.406948291729921308e-01,4.956559296669073578e-01,-1.721532305689968401e-02,6.930966373272366352e-03,7.111471645806138019e-03,6.546384096145629883e-02
3.670583293727067153e-01,5.102624322170268290e-01,4.977961470207456496e-01,3.098067083257399594e-03,-2.529081306176358609e-02,1.241838523408898658e-02,1.459037959575653076e-01
4.687407787868008158e-01,4.447217286210670140e-01,4.982785069185350357e-01,2.846680037774941465e-03,7.190400189675292403e-03,-2.220767436840865141e-04,4.835725948214530945e-02
4.065900329832415894e-01,4.931778125085006237e-01,4.942607182854150683e-01,1.018715157230329175e-02,-7.935026188876493844e-03,1.477633951475895713e-02,9.352876991033554077e-02
4.878591497924965048e-01,4.383947383529819830e-01,4.474287297445487810e-01,2.280282050563943799e-02,-1.727135804966486651e-02,3.418509415882175356e-02,8.967801928520202637e-02
4.485368960371608482e-01,4.569458979574299584e-01,5.002694990243413686e-01,6.319350404182169992e-03,-9.635395438450790155e-04,4.402462330467256206e-03,4.992681369185447693e-02
4.269543349940798649e-01,4.934038434180939570e-01,5.024361114405960782e-01,2.004783912337233451e-02,-6.094269230798380656e-03,1.410329935876173182e-02,8.373282104730606079e-02
3.453761199543474714e-01,4.991772724565773922e-01,5.245061919023640273e-01,2.935730480986636221e-02,-3.722062384533582000e-03,1.036353599599982613e-02,1.764689534902572632e-01
4.431354089324546774e-01,4.680801557715779659e-01,5.067116550170966960e-01,5.243561007340557731e-03,3.862006962254749997e-05,2.730965827180602355e-03,5.641940981149673462e-02
4.506900945971927808e-01,4.688652705398207443e-01,4.857207669785724713e-01,3.320956571707537469e-02,-1.352433886482222285e-02,2.231248698386560300e-02,7.919397950172424316e-02
5.095464899362810440e-01,4.656515245945896386e-01,4.123756734954233116e-01,2.645409630179414509e-02,-1.491599424717432454e-02,4.405988018507610987e-02,1.252771466970443726e-01
5.186096016859852442e-01,4.321487622897940417e-01,4.956331783686683257e-01,4.554458894358645246e-03,6.416543540685017838e-03,3.049298999954198550e-02,9.482639282941818237e-02
5.075264190982573531e-01,4.573812528527513299e-01,4.577870168976820309e-01,1.378208808436842984e-03,4.028011832399104250e-03,1.196174396749410604e-02,5.457085371017456055e-02
5.516691736790327871e-01,5.663101709569591247e-01,2.548354179738977487e-01,-2.427206472455665717e-02,-1.663412562696182095e-01,-3.036218428316882212e-02,4.245136082172393799e-01
5.276780280428171599e-01,2.796835498839438383e-01,5.520819795487598158e-01,1.006166085417593004e-01,-7.491987134802010999e-03,1.298591053135988438e-01,3.863657712936401367e-01
5.013319815326986451e-01,4.649419966531870285e-01,4.432041400841510437e-01,-1.084394351177867845e-03,1.612590948849408233e-03,5.155389462467417465e-03,5.175779014825820923e-02
4.985940359304068537e-01,4.909859732301825597e-01,3.937207011546298707e-01,1.872273058590315231e-02,-1.299936959310649641e-02,1.666819528700670683e-02,1.124743297696113586e-01
4.992023091830202208e-01,5.078468865006715571e-01,3.920358799919238524e-01,1.514345778732087595e-02,-1.310909437563573428e-02,6.515860486568676030e-03,1.175443232059478760e-01
4.927732160246277582e-01,4.899563673454607748e-01,4.491165791066294988e-01,-1.633565269111766222e-02,8.404195654035193086e-02,5.555538213712277879e-02,1.817684620618820190e-01
4.825905619470081676e-01,4.629232399125988717e-01,4.600374110998977639e-01,1.917046888757014322e-03,-1.168969177611898017e-03,-6.702356877021205196e-05,2.161078900098800659e-02
4.984346778848543491e-01,4.645590682728778509e-01,4.493632822697559148e-01,9.184117268590445346e-03,-1.959840567020313101e-03,8.476354256341351104e-03,4.871702194213867188e-02
5.130426001917571810e-01,4.232287616246146467e-01,4.716110891518546233e-01,1.016747821394211899e-03,-1.494675343230915908e-03,1.350248587615854833e-02,8.135556429624557495e-02
4.971207085465493281e-01,4.541366207365557517e-01,4.572688677737878349e-01,4.631667137232706329e-04,-9.737361589069040224e-04,1.871252530831429926e-03,4.167491942644119263e-02
4.930158877233963288e-01,4.548037172774356818e-01,4.571216706961959142e-01,1.726650090860823135e-03,-1.154472400501150176e-03,2.030215591284465545e-03,3.744698315858840942e-02
4.875251390974765231e-01,4.408272498751779622e-01,4.692729844719000232e-01,8.588010546093328632e-03,-1.070393544896225055e-02,7.036390807021926722e-03,4.873411357402801514e-02
5.239831013567085582e-01,5.283780927422913054e-01,4.094939783406765788e-01,4.854891550336423722e-02,-3.374600234993900549e-02,9.625783228284796877e-02,2.278471738100051880e-01
5.006767572940213906e-01,4.566498379593657564e-01,4.470612977787096765e-01,4.334132891802501726e-03,-1.289885030610925633e-03,6.943055123392200163e-03,5.155993625521659851e-02
4.820596459277248780e-01,4.662512601691850000e-01,4.603173810279411193e-01,3.648602946122586014e-03,-1.262706336749825232e-03,6.307447178045313399e-04,2.061151899397373199e-02
4.416345417765676351e-01,4.401682136126700562e-01,5.076458975063559143e-01,-1.258619794224024972e-02,2.350169648935325224e-03,2.595058692261115098e-03,7.048726081848144531e-02
1.929692274643091676e-01,4.764425326316049092e-01,5.362342453263748698e-01,-1.733558717038722607e-01,-1.206516051465696682e-01,-4.922755507933634922e-02,4.919133782386779785e-01
2.974872538269906497e-01,5.678836889991351056e-01,5.380958657457238781e-01,-5.771913124548702645e-02,-1.023180717184669908e-02,1.810184316569966173e-02,2.779183685779571533e-01
2.533335613717484502e-01,7.126727841700439825e-01,5.993525347271562165e-01,6.752943283479540156e-03,-1.651063455680286396e-01,6.019522496923437188e-02,5.143628120422363281e-01
3.443429002423684659e-01,4.778217701772711212e-01,5.511903479094409919e-01,-1.015705994791480798e-01,-7.491239668946163277e-02,-1.103177404945536628e-02,2.848564088344573975e-01
2.923463476560019259e-01,5.312794907707432124e-01,5.244151849201204030e-01,1.671101331506008592e-02,-2.456359375318573068e-02,1.464551733014081598e-02,2.424611598253250122e-01
1.967154961549159586e-01,5.897679164373927918e-01,6.179949837107137078e-01,-1.004173869595052226e-01,4.019255603146749956e-02,-1.868281064998389418e-02,4.500290155410766602e-01
2.238796618946203576e-01,6.150240234867551115e-01,4.967633703456606487e-01,-1.650588101803245934e-04,-1.736386779799691249e-01,-3.548261199335558946e-02,4.636278748512268066e-01
2.991546610571244047e-01,5.430405539129885550e-01,5.299575705395669356e-01,4.087013106821216386e-03,-1.831701143137517626e-02,6.313832033295759504e-03,2.400770336389541626e-01
4.679383218184286486e-01,4.680828977041724404e-01,4.680015088447064264e-01,3.622752994511573614e-07,1.128679101681126029e-03,1.040425429332583578e-03,2.661759732291102409e-03
4.678984778774945563e-01,4.660690069171830041e-01,4.690975615437636970e-01,-1.070441442139389654e-03,-1.778669494192941872e-07,5.384124384275684955e-04,3.359412541612982750e-03
4.632645921668413491e-01,4.734585177776006182e-01,4.648037503721737518e-01,-3.562964912313726145e-04,4.441485212132354035e-05,2.138650127548153649e-03,1.023246254771947861e-02
4.634794572876699270e-01,4.726435925202208121e-01,4.646894207665466237e-01,-2.597827392329816239e-03,8.340513341614844405e-04,1.557785330678500106e-03,1.019658055156469345e-02
4.647036404330832648e-01,4.618816484833098146e-01,4.750528299345281869e-01,-1.982611089431574568e-03,2.346491756363562576e-04,1.277486868505080990e-03,1.269362121820449829e-02
4.575239067529581760e-01,4.608630804961609262e-01,4.813837301563371751e-01,-1.255199303141735050e-03,1.196864818863066287e-03,3.678276136900894989e-03,2.346022799611091614e-02
3.820800063357069343e-01,5.129149964927935956e-01,4.707459938646612052e-01,9.312135436170404512e-03,-3.798545574891612486e-02,1.864452824541537254e-02,1.378786563873291016e-01
4.495472819108964901e-01,4.113281816488881804e-01,5.053050729202074320e-01,-2.110090992585620523e-02,-7.149173705311782923e-03,-4.737588372708761465e-03,9.086833894252777100e-02
3.649804162035981125e-01,5.298917542311090134e-01,5.140019933963769772e-01,1.151066311627086357e-02,-1.693143771961153413e-02,4.422262615284486276e-03,1.616910845041275024e-01
3.580945662736843005e-01,5.168323508443929404e-01,4.971623379634653173e-01,1.932083210597954764e-02,-7.022861282866826350e-03,1.064366771237762119e-02,1.551448553800582886e-01
3.975724981747345010e-01,5.066774792923636195e-01,4.868702252315222356e-01,3.136636684964342996e-03,-2.740799348819917321e-03,1.791391189083442470e-02,1.055932268500328064e-01
4.346106703427669027e-01,4.929399334416842415e-01,4.919180472172306473e-01,1.817418590780374085e-02,-1.683691176899951986e-02,2.025057008375302781e-02,8.009585738182067871e-02
4.545763558709060570e-01,4.529606858092865562e-01,5.006589704615678205e-01,7.176912844267984218e-03,-3.095891851418036255e-03,4.153174812259703870e-03,4.935277625918388367e-02
4.532202853750460503e-01,4.474604029430143681e-01,5.013737717434904040e-01,1.018761573088032210e-02,8.736461435235265362e-05,1.014161765958392384e-03,5.425646528601646423e-02
3.284346702564769904e-01,5.827459073162847281e-01,5.804687123820606587e-01,3.517582620601140964e-02,9.961497357321809007e-03,1.372911603087964907e-02,2.620600163936614990e-01
4.228742142687968997e-01,4.580588986257105311e-01,5.076003395906438787e-01,1.960868239182193482e-02,1.727096455135266944e-03,2.089103481397584262e-03,8.130780607461929321e-02
5.054084851320188587e-01,4.358648388471538793e-01,5.535247626344236282e-01,7.792452511883588007e-02,3.882200316092630776e-02,-1.665911662861209452e-02,1.845762580633163452e-01
3.821296934854900851e-01,4.549374373162574647e-01,5.209978787073967776e-01,-6.244727494796910999e-02,3.690008167591334737e-02,2.338643196600431740e-02,1.786036640405654907e-01
4.437062483227659504e-01,4.419890124731010173e-01,5.016075031352698055e-01,-1.018657684783779924e-02,4.079858573624159900e-03,-2.941887309724083854e-04,6.177725270390510559e-02
3.889252063901263989e-01,5.145407582787706602e-01,5.435943815281831792e-01,-7.339887390537992717e-02,7.313536824476225828e-02,4.940776770894680925e-02,2.445503622293472290e-01
4.357607540707192917e-01,4.867203025391692583e-01,4.778425863580855193e-01,-6.345790486237696398e-03,9.518838315525947336e-03,1.628926515460280347e-02,5.841179192066192627e-02
4.833062068727713156e-01,5.007047220200432358e-01,4.166789753403182250e-01,-5.732204685206812589e-03,1.670900438394635340e-02,7.212732997254612567e-03,8.362612128257751465e-02
4.541009074594168360e-01,4.460307543152102205e-01,5.263003997850180804e-01,-3.880409481247167058e-02,2.424119187433799311e-02,3.168071926745075900e-02,1.230923980474472046e-01
4.271063347232401108e-01,4.751554580875884670e-01,4.857334101515243807e-01,5.309065120803992122e-02,-4.536543842435484392e-02,4.882057809307797230e-02,1.571914106607437134e-01
4.558007775657346716e-01,4.872317404567391708e-01,4.528741509327377512e-01,8.454543336518745289e-03,-7.102248847590110319e-03,1.020359848431603295e-02,4.203047975897789001e-02
4.628825503660595198e-01,4.768584056012507566e-01,4.663122777424734133e-01,8.387797669033516743e-03,-6.039247227090744838e-03,7.821284220858773506e-03,2.575178816914558411e-02
4.424765045394266072e-01,4.918935145090335137e-01,4.554679294317847682e-01,6.207921474564197760e-03,-5.115679035040531820e-03,1.242802935433561483e-02,5.124757438898086548e-02
5.014887589325717210e-01,4.481853972603184744e-01,4.466375348777668064e-01,-1.448245561672869153e-03,8.105591650279710819e-03,2.239570945286272624e-02,6.807531416416168213e-02
4.653709678371571457e-01,4.659981484986698841e-01,4.718713341427923091e-01,1.401993638605311893e-03,-3.321521147501838456e-03,1.950831318070356604e-03,9.433064609766006470e-03
4.594212106420407227e-01,4.807095182369417463e-01,5.258336205291492815e-01,9.108505207958514371e-02,-4.403146549822757605e-02,5.941229361565208283e-02,2.115306705236434937e-01
4.360848342051596438e-01,4.828612924018256813e-01,4.821636217324390961e-01,2.450076352150127798e-02,-9.962260352701245505e-03,1.098884746260863320e-02,6.794670969247817993e-02
4.105395028918061850e-01,4.922215883547410020e-01,4.823248388691009914e-01,7.544188858937169069e-03,-1.246253162104902883e-02,1.598347042627739495e-02,8.581738919019699097e-02
4.271988713926667680e-01,4.918719152102912218e-01,4.741028859306389287e-01,6.906399841885202742e-03,-5.516232446390593146e-03,1.271955242053917669e-02,6.378798186779022217e-02
4.758040253109550033e-01,4.615423368163898976e-01,4.628693625481021257e-01,1.737309458613717130e-03,-3.473327182409678953e-03,3.078925972281687171e-03,1.612194813787937164e-02
4.770788356919209994e-01,4.685587844387264500e-01,4.632169970029970107e-01,4.498830195235853195e-03,-3.461003893670598283e-03,3.267613307163749672e-03,1.659289747476577759e-02
4.868146042506399929e-01,4.578852063796692851e-01,4.599907920492430913e-01,2.633030738746276137e-03,-4.012292527926755031e-03,2.561971482316800774e-03,2.948245778679847717e-02
4.877852032320539877e-01,4.567556984951931520e-01,4.670082362159507783e-01,1.492640137986558100e-03,-5.373369695413811840e-03,2.766920843756110089e-03,2.942931093275547028e-02
4.855462921119301778e-01,4.620604524999193385e-01,4.559553093938210622e-01,4.050784329123686620e-03,-1.650851261335030493e-03,1.637966378181024288e-03,2.824346162378787994e-02
4.761274256330654264e-01,4.731597149009258430e-01,4.441129530618119214e-01,1.192489995288383182e-02,-6.801553180392240321e-03,7.736939639237653231e-03,4.103288799524307251e-02
4.811396092514871881e-01,4.731449465903434515e-01,4.406445224397828597e-01,1.085704766411159719e-02,-4.872577275050198227e-03,6.199877252180880684e-03,4.381997138261795044e-02
4.871182193656257708e-01,4.715123549146038595e-01,4.436780472663438002e-01,1.077713940222763123e-02,-7.551213911445271883e-03,3.717149990962771797e-03,4.487342759966850281e-02
4.472394146981499841e-01,4.062308709949776775e-01,5.104397646900662444e-01,-1.687298336195507120e-02,2.445747691801490944e-03,-1.509863761427169973e-03,9.563793987035751343e-02
4.793550474465936295e-01,4.730989384534227682e-01,4.414061298147957668e-01,1.108616689426505236e-02,-3.995040957505749217e-03,6.790079265666042196e-03,4.238811880350112915e-02
4.870794249321395153e-01,4.541133849504943587e-01,4.677875843259288735e-01,3.282483606414277836e-03,-5.667613595675383316e-03,3.233622872022560730e-03,3.135311603546142578e-02
5.528219688174816904e-01,5.404939657973379941e-01,2.811541551428933250e-01,3.146075290851019224e-02,-1.488847768860974696e-01,1.053465859549711087e-01,4.163764417171478271e-01
4.818945106761928221e-01,5.604356063532293097e-01,4.806256241620586178e-01,1.378208848617188120e-01,-6.492575000947674313e-02,2.328183178849965729e-01,4.883778691291809082e-01
4.152648075230255253e-01,5.837631068165246573e-01,2.687751106617868313e-01,3.181500226912181012e-02,-1.723886536467909292e-01,9.236949156392506091e-03,4.086321890354156494e-01
3.512606924564667943e-01,5.571237925886534104e-01,3.325882367557591035e-01,-1.837843462200484251e-02,-1.891191540820571781e-01,-3.276227958914993549e-02,3.976227045059204102e-01
5.073410578911788926e-01,4.634085802853999958e-01,4.347468708523056780e-01,-3.240657164683397647e-03,6.187441495510833007e-03,1.165256843709118126e-02,6.756065785884857178e-02
4.876466980417448194e-01,4.245360846105964980e-01,4.888914362457736917e-01,1.189146776675511358e-02,-7.932571447901059364e-03,1.160009614458620483e-02,7.127229124307632446e-02
4.810967100801923912e-01,4.605871523322034866e-01,4.617931697405192604e-01,3.290774277240786101e-03,-4.817867378074149227e-03,1.919558248655375615e-03,2.259510569274425507e-02
4.782350519842688552e-01,4.699455534791873168e-01,4.183708914011688984e-01,-1.281623151434668414e-02,-7.794599897287954153e-03,-5.462971934039234471e-03,6.261594593524932861e-02
5.430581061880799254e-01,3.068254012833946387e-01,4.695676953803034626e-01,-7.259677363829465657e-02,-1.771733109369754214e-02,-9.343704270918995469e-02,2.946012914180755615e-01
4.964588890847727032e-01,4.334045880608139445e-01,4.053870211365098730e-01,-2.349084719672866681e-02,-2.254928034801884432e-02,-4.495283798850830542e-02,1.255810558795928955e-01
4.818910747660652971e-01,4.611264802586692024e-01,4.649905725595372963e-01,1.940385858274474087e-02,2.596388726905263927e-02,-2.732490872538569440e-02,7.587960362434387207e-02
6.532990706164252259e-01,5.932881372097016381e-01,1.357637795636652545e-01,-5.195982637023460055e-03,4.532800779159943533e-02,-1.603378865810096716e-03,4.966275393962860107e-01
4.048981966547945954e-01,4.666745538519490033e-01,4.986804270031612862e-01,-6.649291034650273852e-03,-5.922565201266336357e-03,-1.227641655625000099e-02,8.664814382791519165e-02
4.330284413911538732e-01,4.014079388820766536e-01,5.155028721632118893e-01,-4.751510884520994404e-02,-2.163411173721340591e-02,-2.489547974321133783e-02,1.429905146360397339e-01
3.846570337820619523e-01,5.024132509375618394e-01,5.219090245795700023e-01,-8.663686608436237113e-02,-6.609920695756138498e-02,-3.961577526662812127e-02,2.384863644838333130e-01
4.429157285659949816e-01,4.356728147028357534e-01,5.008817320107924465e-01,-5.194216325132933361e-03,3.593897631256128943e-03,3.404153671624394594e-03,6.314121186733245850e-02
4.353576353361121032e-01,3.933037512269425551e-01,5.380705576919176947e-01,-5.197225163023073968e-02,4.087350426304654782e-03,-3.714106811932232390e-03,1.575842648744583130e-01
3.879258912035797313e-01,4.805254482514556558e-01,5.243305688118914398e-01,-1.829526047877422582e-02,5.128920466937509845e-03,5.692202198011648250e-03,1.254199892282485962e-01
3.951948074347250150e-01,4.372170377872450220e-01,5.380535449892158706e-01,-8.154024713160390458e-02,-1.188388677751520128e-02,-1.035977755825640565e-03,1.911663711071014404e-01
2.894611297445449649e-01,4.547680451137295354e-01,5.556941070680863071e-01,-1.549454858639569832e-01,-7.084523689324405404e-02,-5.276499452979963034e-02,3.868205249309539795e-01
4.782967858086742408e-01,4.096575807933728886e-01,5.002380441529188371e-01,-3.658546516987697117e-02,-1.672108193028218337e-02,-2.863037350559713076e-02,1.183729544281959534e-01
4.449384403234591390e-01,4.832854884193678036e-01,4.868305972921542768e-01,2.633654209172182903e-02,2.142133452501229773e-02,-1.456015977596848698e-02,7.558084279298782349e-02
4.697519598711165645e-01,4.661799673879075678e-01,4.995313867343511571e-01,4.931608299154149194e-02,3.814898498439354968e-02,-1.920780450944351014e-02,1.173670664429664612e-01
3.784631283858855277e-01,4.177791407213206076e-01,5.431160660516693994e-01,1.461111036037750777e-01,7.614996837583223876e-02,-3.380663408457015157e-02,3.271900415420532227e-01
5.042673408734227314e-01,4.351462749600814028e-01,4.416769396490410893e-01,2.336394660063444324e-03,1.248184360794746348e-03,-9.453919358828536193e-03,6.825060397386550903e-02
5.018491264471762747e-01,4.336754072850500519e-01,4.512041180494378301e-01,4.230243014270613187e-03,7.744910599118702381e-03,-1.084715309828403716e-02,6.592823565006256104e-02
5.070075201436070600e-01,4.464568556299545188e-01,4.394451315075728060e-01,1.288100998432845220e-03,5.339276029143781577e-03,-1.525842225104345751e-02,7.020734250545501709e-02
5.058487818994800156e-01,4.374751521127720477e-01,4.345189782924600563e-01,-2.228548643598094424e-03,-2.924519126523699927e-03,-1.301620884617722684e-02,7.372000813484191895e-02
3.070032988571830268e-01,5.267308982799780992e-01,5.086021288119981776e-01,7.259704979629182098e-02,1.306934659628041506e-01,-5.103476046391935278e-02,3.456768095493316650e-01
3.501727430384702910e-01,5.698994778977591880e-01,5.067569416029201745e-01,4.483359917040538600e-02,6.274657410238324018e-02,-9.400436460389075682e-03,2.376959621906280518e-01
4.632065933755840081e-01,5.075761011520217858e-01,4.184892814664557537e-01,1.378710492123969011e-02,5.570973762101397858e-02,-1.475541060580108817e-02,1.283998489379882812e-01
3.649911750177982639e-01,5.155261937732541488e-01,5.187255432674620081e-01,1.837011079845625450e-02,1.710355745225672353e-02,2.481040975502688071e-03,1.583069413900375366e-01
3.959448387548909487e-01,5.191343403686895508e-01,4.856794490360528127e-01,1.382275960713776758e-02,1.447482092985762948e-02,3.738216415196264891e-03,1.158329918980598450e-01
3.652407843826384060e-01,5.621373375736923306e-01,5.308024230440853142e-01,-1.033314637838262696e-02,6.808402959083732775e-02,3.025934670205765453e-02,2.248419523239135742e-01
4.873209150213693719e-01,4.866746476754846285e-01,4.323795172577603041e-01,1.335101048986819978e-02,-5.425573453921537885e-03,5.056280677236640701e-03,6.068957969546318054e-02
4.959111375074011230e-01,4.933909323408430803e-01,4.093383288366996275e-01,1.523570420883224412e-02,-6.590757212495452697e-03,1.128689534986305164e-02,9.215149283409118652e-02
4.959965083977062039e-01,5.054463214817046524e-01,4.875706022667083972e-01,7.493216281858072758e-02,-4.482687969375274278e-02,7.315320797927947483e-02,1.979063600301742554e-01
4.887734127429975151e-01,4.536269710850913683e-01,4.516724346883292385e-01,8.878200976159537905e-03,-6.253155922422055230e-03,1.353281660664048744e-02,4.702097550034523010e-02
4.922568178082815660e-01,4.907591251915671138e-01,4.131954435084798094e-01,2.299781883636039734e-02,-3.509232198279670784e-02,3.171373051992963654e-02,1.201371252536773682e-01
5.188958039110834752e-01,5.219820760476785448e-01,3.539137331545958998e-01,8.390232594498529470e-03,-1.600928679604039090e-02,-2.299518065180152903e-03,1.695102751255035400e-01
4.878888678267876422e-01,5.333653413377166252e-01,4.155186729351481034e-01,4.255664843149750687e-02,5.332652049731462229e-02,-2.479675323112753502e-02,1.624982804059982300e-01
4.422091480221531090e-01,4.955689750113930758e-01,4.362255666801880816e-01,-7.386261265883792282e-03,-1.136254428857135651e-02,-7.612330814032481664e-03,6.266731768846511841e-02
4.559317690856983796e-01,5.176272965618953226e-01,3.323066270769591268e-01,-1.919583399003672863e-02,-8.344114268091219755e-02,-2.727910306989895714e-02,2.257028818130493164e-01
4.380133474234131352e-01,4.887391887128169077e-01,4.407577620649072436e-01,-4.054147215281057870e-03,-5.652261165017204332e-03,-7.028970840909107808e-03,5.229533463716506958e-02
3.706322935606761182e-01,5.429369710898288570e-01,3.063061357068425083e-01,-8.375988380272761380e-02,-2.047157570438171981e-01,-8.582124647351956070e-02,4.623624980449676514e-01
5.177685725427575436e-01,5.395392527374609504e-01,3.086542592512375172e-01,-5.455069826407114159e-02,-2.084562926422333373e-01,-7.684735190693017803e-02,4.536091685295104980e-01
4.540711397654376147e-01,4.612927875361585439e-01,2.596326942898752876e-01,-1.078564058843318046e-01,-1.773510382430855681e-01,-1.524565300226899678e-01,4.881094098091125488e-01
3.824685088447902226e-01,2.703369631959414709e-01,5.817700456377904450e-01,-2.054186081606669823e-01,2.307567861802367962e-02,1.856791572913793834e-02,4.515138566493988037e-01
4.979749979009178151e-01,2.703201995787473111e-01,5.599147019016101900e-01,-1.100978284612470354e-01,4.569967630787988289e-02,6.414863061969755531e-02,3.531844019889831543e-01
4.797541824914449693e-01,4.036795742004383181e-01,5.126544179404097790e-01,-3.922809458057822246e-02,1.167173743907217419e-02,9.846395088079594807e-03,1.211970150470733643e-01
4.980659469643724524e-01,4.504745376684498592e-01,4.602942479429601441e-01,-1.034126309690811202e-03,4.963183197229536006e-03,4.761106647393834046e-03,4.515691846609115601e-02
5.078972328261095459e-01,4.358577215208902511e-01,4.915531975197072745e-01,2.061194501594394018e-02,-6.877440627496602711e-03,3.113608506836972739e-02,9.275895357131958008e-02
4.548534361029417106e-01,4.321260860367069911e-01,5.077281039577449251e-01,-4.764305962660914454e-03,4.352646699372875530e-03,1.952138198678415697e-03,6.819332391023635864e-02
4.830057870401275877e-01,3.942027663889963174e-01,5.125339181922884402e-01,-1.547113404847899436e-02,1.140231642265537686e-02,5.545620250569305125e-03,1.121625676751136780e-01
4.440134310381431137e-01,3.614845774089027186e-01,5.858629599361556695e-01,-2.023910172639386273e-01,1.169806035034212655e-01,3.423864362289960606e-02,4.539775252342224121e-01
4.619274212456851991e-01,3.245658398878049078e-01,4.853630438095963284e-01,-1.316706765385259603e-01,1.006156882098470096e-01,1.342315683267045201e-01,3.988395333290100098e-01
3.288710416905138989e-01,4.893395453717507282e-01,4.722832254385283535e-01,1.743431026429917707e-01,-1.113438684527338490e-01,8.590703142233173384e-02,4.169209003448486328e-01
3.687207929842184484e-01,6.700809201587548669e-01,5.178991153054236518e-01,9.739490283024868078e-02,-1.348470760469736851e-01,1.610427865371363565e-01,4.784647822380065918e-01
4.085021416740804989e-01,4.732214383958937565e-01,4.416274573405514769e-01,1.386682350750942927e-01,-1.053915415210052026e-01,1.163137817778406996e-01,3.670660555362701416e-01
4.303218255091533773e-01,5.072574110858143470e-01,5.587316619202890022e-01,7.959055168467940589e-02,1.114968853137515009e-02,2.716618102863260081e-02,1.847154647111892700e-01
2.948371219812890853e-01,4.961050298967318861e-01,6.956158581033267119e-01,1.167724422622403307e-01,-2.335966128969834202e-02,1.232038641091686426e-01,4.566732645034790039e-01
3.708141850642946991e-01,5.214253948917169090e-01,5.177588748451438239e-01,3.808659605465977704e-02,-4.541907213793928283e-02,4.810639987021846434e-03,1.809829622507095337e-01
3.857601422206896058e-01,5.598774887393905830e-01,4.417874483316751588e-01,7.347201990809981709e-02,-9.394707634641469296e-02,6.958125843858671555e-02,2.844254076480865479e-01
3.630515362096596310e-01,5.443597899886624125e-01,5.058959195430861033e-01,1.861908251114631485e-01,-1.422784118161332101e-01,5.919514613516248247e-02,4.501344561576843262e-01
5.005386624532486284e-01,3.519569385083709534e-01,5.554776340324862893e-01,1.482334250492220451e-01,-3.184029694285560319e-02,9.135281597903718853e-02,3.567276597023010254e-01
4.855470924834934254e-01,4.111507394021570727e-01,5.787505836530684178e-01,-9.241905702329422656e-02,4.089433409424514387e-02,3.302874933931580076e-02,2.346684634685516357e-01
4.756620792772685014e-01,4.072010212192028744e-01,4.902324489237149807e-01,-1.789908337582015244e-02,1.828861947205344049e-02,1.268012369605435279e-02,9.134344011545181274e-02
4.675483185099368333e-01,4.453698014863521903e-01,4.808105426177838315e-01,-6.030563716844286257e-03,9.691436224135355562e-03,4.538981302953913784e-03,3.761105611920356750e-02
4.674218777126576407e-01,4.695629371670274610e-01,4.673397056935170712e-01,-3.024291247377876128e-03,4.155750364987953645e-03,3.840893987972488280e-03,1.132581196725368500e-02
4.473118488921354885e-01,4.116650182965785332e-01,5.067657826365397078e-01,-1.747686056704874161e-02,2.934379177111081857e-03,4.915998647076304847e-04,8.869999647140502930e-02
4.416645007992570648e-01,4.497150416793033179e-01,4.981938209035828846e-01,-3.778959363032618861e-03,1.491327769896174781e-03,5.701025695264213579e-03,5.433509498834609985e-02
4.475109860785348448e-01,4.467432317499321348e-01,4.961810959279155941e-01,-4.966821038615292991e-03,4.969445946347879686e-03,3.560369953514778280e-03,5.092011764645576477e-02
4.534497610579038551e-01,4.518398295587608970e-01,4.859279429745679280e-01,-1.414663410024009785e-03,1.386942813184931450e-03,4.660762895175012827e-03,3.444785252213478088e-02
4.297043343844072494e-01,5.213782653351323182e-01,5.268248915334233784e-01,1.089536172248753015e-01,-4.101081263418783485e-02,7.102935877735404302e-02,2.544148862361907959e-01
4.499734909620729528e-01,4.858358977437537973e-01,4.411699365325885136e-01,4.714537230613982666e-02,-4.803760800547834248e-02,4.491442389554377301e-02,1.460210382938385010e-01
4.169412124931783370e-01,4.771136841682004359e-01,5.167627550543342219e-01,4.472830797901536370e-02,-1.099819208971339161e-02,2.816161945787747090e-02,1.277596652507781982e-01
4.333043262414260632e-01,5.098600861692823560e-01,4.767161049180407839e-01,1.811865123318995643e-02,5.162528528593472027e-02,-3.725696216316618826e-03,1.159480661153793335e-01
3.943580630291160238e-01,4.912650331469479714e-01,5.039826968536756935e-01,1.465410722281332810e-02,-9.971444432557491008e-03,1.620165937363014091e-02,1.118710413575172424e-01
4.083555510274960443e-01,4.911599996100978749e-01,4.746015905329795670e-01,2.034477709086229824e-02,-7.053928646721027533e-03,1.368985032036846780e-02,8.782304823398590088e-02
4.583118421031158185e-01,4.559273974847271593e-01,5.073937261388027364e-01,2.238480616746265153e-02,9.393710255000580541e-04,1.338469147104775180e-02,6.763938069343566895e-02
4.485091104074524493e-01,4.551373996952805534e-01,4.994021903674719653e-01,1.424882155258795982e-02,-5.046929374720701862e-03,1.007929111580143679e-02,5.733221769332885742e-02
4.796214740592057435e-01,4.096406238449612491e-01,5.087537489932268953e-01,4.505651929409284356e-02,-1.059829443380732629e-02,3.540386476912893432e-02,1.340606361627578735e-01
3.642494392376939838e-01,4.955301434463473265e-01,4.186794085607093430e-01,-1.169275924215771867e-01,-1.714624451242387493e-01,-9.132466676364660307e-02,4.090067446231842041e-01
4.293699496260426351e-01,5.050974490967233832e-01,3.909252931776624473e-01,-2.040128312843297181e-02,-4.912648845995148256e-02,-1.954634053653769507e-02,1.405667662620544434e-01
3.238709648622843384e-01,5.380786701420030571e-01,4.973480236452426095e-01,-1.166694644574996359e-01,-2.033871170052405086e-01,-1.276166061217233645e-02,4.519313275814056396e-01
3.125335704026155348e-01,4.656064231117392760e-01,4.796665369102202092e-01,-1.302197226426900500e-01,-1.399420078457424277e-01,-9.477953675667549760e-02,4.029311537742614746e-01
4.426804376932099716e-01,4.777499142448537461e-01,4.431864812860030756e-01,-1.088376292709554959e-02,-1.396541138984694862e-02,-1.386684744975063589e-02,5.224665626883506775e-02
4.056485192650477467e-01,5.060694490799156897e-01,4.273123450101186660e-01,-2.345721611412986130e-02,-5.212979523013389072e-02,-2.084030689400655570e-02,1.395865529775619507e-01
4.773229657512092494e-01,4.805681924741537769e-01,4.569077441212076596e-01,1.203070264157054398e-02,1.254994047987684734e-02,-1.110350207247354226e-02,4.207308590412139893e-02
4.002397820643180393e-01,4.963690332561896956e-01,4.683775506426143265e-01,-1.074884433159130175e-02,-8.592938990574471025e-03,-1.272913643785050786e-02,9.158480912446975708e-02
4.809344788198701703e-01,4.986242464344791125e-01,3.931190675646775712e-01,-1.292142554443042289e-02,-4.316774915194220019e-02,-2.669520834230953987e-02,1.334431171417236328e-01
4.314469618055258859e-01,5.067168602093545804e-01,4.499594432825634871e-01,2.291753729696874645e-03,-2.657758652192902110e-02,9.384247462485209709e-04,8.217261731624603271e-02
3.835413621246029914e-01,5.173403375246825586e-01,4.822898427185478565e-01,-1.502257491663687959e-02,-5.100706540839902714e-02,-3.663209595859618761e-03,1.515369117259979248e-01
4.558278221998190993e-01,5.155912878775579244e-01,4.268367455655804332e-01,9.422518743362278369e-04,-2.467248233801683233e-02,2.816841393268416146e-03,8.942831307649612427e-02
4.926035457569591935e-01,4.509221970975427207e-01,4.253762824557855149e-01,1.780549405219684564e-02,1.655338052985255368e-02,-3.371253185508910066e-02,9.293799847364425659e-02
4.857690160181202255e-01,4.796264083839570369e-01,4.296247397385139499e-01,1.364681427354122283e-02,4.703879231779524613e-03,-9.079590953309974594e-03,6.097083166241645813e-02
2.174026795650656485e-01,5.566016563751230439e-01,5.256792800708471880e-01,-1.848746590626604638e-02,8.251214482584535992e-02,3.276401844092757115e-02,3.608238697052001953e-01
2.327352554112048777e-01,5.137899890279644666e-01,5.773486403486280949e-01,-1.029192225427867369e-01,3.415354836610020456e-02,2.255844726891076402e-02,3.710769116878509521e-01
4.452262695788255509e-01,5.036743080774549464e-01,4.403974340209393934e-01,-6.972317456206547160e-04,2.206266340713518986e-02,4.357303186868296749e-03,7.239079475402832031e-02
3.955923975588994113e-01,4.957311983353994700e-01,5.162450759056128602e-01,-5.065163166405899087e-02,5.909269532589445095e-02,1.526061720912922672e-02,1.771273463964462280e-01
3.629334831857755073e-01,3.539568613662609775e-01,5.513456147038452437e-01,-1.820368436369074749e-01,7.561251355432931087e-02,7.749895503420216325e-02,4.145518839359283447e-01
4.030519453547367625e-01,4.761833690457499269e-01,4.946983893294149559e-01,-1.447624559271366157e-02,1.805160877567340422e-02,1.685254362097001260e-02,9.748503565788269043e-02
3.984816978826941636e-01,4.965163952171693929e-01,4.951575318608621989e-01,-8.815611794586159997e-03,1.764893903956770566e-02,1.811716812055260556e-02,1.078504920005798340e-01
4.610696249543283498e-01,4.802460386043470586e-01,4.631089731480474425e-01,-3.678350550107912717e-03,6.874319435220131898e-03,7.080315159480206171e-03,2.579803392291069031e-02
4.011939208935876300e-01,3.820515300633937072e-01,5.060412699501284362e-01,-1.490760753895114255e-01,1.129362650230111287e-01,1.194302253268633707e-01,4.013626575469970703e-01
4.750284831741789504e-01,4.616665853417611931e-01,4.636199038959046281e-01,-7.941156251224865126e-03,1.091194296103194065e-02,1.003115424114105897e-02,3.169424831867218018e-02
4.776020500888993880e-01,4.866113061430339948e-01,4.469584805877543920e-01,1.200470931744021877e-02,1.921636348618314602e-02,-7.929510267645665036e-03,5.500042811036109924e-02
5.082571387562794252e-01,5.131630683738019894e-01,3.951541820394111060e-01,1.335276910610409123e-02,2.707561171708607398e-02,-3.698009745537282449e-03,1.270685046911239624e-01
4.197081967495769339e-01,5.075218742949326733e-01,4.837114609853135905e-01,2.941850347850749701e-03,8.208878537332911854e-03,-1.978728787385416327e-03,8.016959577798843384e-02
4.951028190822304165e-01,4.804335492789723050e-01,4.029072032106807977e-01,1.918285863478409736e-02,1.781393500855683876e-02,-3.072444277580433508e-02,1.106829047203063965e-01
4.982087612862718951e-01,5.024343488539101399e-01,4.271034900582936222e-01,2.686904076109912498e-02,3.502724209046823023e-02,-1.931799880312082968e-02,1.110873147845268250e-01
5.172706219632484670e-01,4.009957669534306435e-01,4.880574007269136150e-01,3.103737453361084947e-02,2.110977743641733947e-02,-3.982127311611874387e-02,1.412816941738128662e-01
4.736716824089723388e-01,4.243457184069635568e-01,4.823568937645693055e-01,2.653873869064949514e-02,2.094881042426389312e-02,-2.123358047086961256e-02,8.785759657621383667e-02
4.860619455464681993e-01,4.879353401915771937e-01,4.273050530727279250e-01,1.351889541983704660e-02,4.490892685202694731e-03,-8.652960015463831075e-03,6.632769852876663208e-02
2.735845242935701638e-01,5.028453467796732967e-01,5.148588351565065446e-01,-1.309781439398948200e-01,-1.416627432803261588e-01,-5.791266024906930460e-02,4.209412336349487305e-01
2.375660620792914013e-01,5.110287585193127313e-01,5.786866911092301002e-01,-1.285849467334745089e-01,-1.647090339761169975e-01,-8.554165137703988175e-02,5.008022785186767578e-01
4.987873889410655570e-01,4.675466397707255251e-01,3.310358665232497333e-01,-5.376411327328611128e-02,-1.008688726241829814e-01,-9.478533542733223738e-02,3.000399768352508545e-01
5.167314347178818545e-01,5.079845643673657207e-01,3.502125665530739784e-01,-2.435928221685393098e-03,-7.886561835950963231e-03,-2.044006737710147084e-02,1.667522341012954712e-01
4.403083462954507921e-01,5.155410451508602998e-01,4.067027938469182091e-01,-8.008787547278042873e-02,-9.520189139378935905e-02,-8.959454112825722405e-02,2.825446426868438721e-01
4.811284526418408980e-01,4.546095001636885069e-01,3.755144849771491211e-01,-5.669405662660099293e-02,-7.266037993737183009e-02,-9.759453725107018751e-02,2.512212395668029785e-01
4.098561852700891017e-01,5.457041419638843927e-01,3.264718649725978361e-01,-7.443165596414809404e-02,-1.673307512194715241e-01,-8.405942079283849899e-02,3.981860280036926270e-01
5.087455894488223107e-01,4.861177860853957422e-01,3.736545438786676998e-01,-1.474305904993019889e-01,-1.826985599255232795e-01,-1.154437244706178062e-01,4.701384603977203369e-01
3.984737497908238391e-01,6.262876642166191887e-01,3.109491496963764368e-01,-6.285541627227518580e-02,-1.835370171606545697e-01,-1.009795640398337968e-01,4.722283184528350830e-01
4.511123006767231436e-01,5.002893931096764613e-01,4.256354044337193332e-01,-9.613494887125682148e-03,-2.271428595794337466e-02,-7.555179016676826127e-03,7.947738468647003174e-02
5.042148976777609537e-01,5.014653405907644190e-01,4.181929254979243060e-01,-1.250250471951468200e-03,1.942584108842901336e-02,7.516843961544732340e-03,9.207119792699813843e-02
4.671510956223223765e-01,5.049792753615233165e-01,4.185912010555815632e-01,7.022237541658857274e-03,1.524517842530532033e-02,-1.066120790315488662e-03,8.046463876962661743e-02
5.032164003006619479e-01,5.123221660129653188e-01,4.094384229630108618e-01,4.966170992286422087e-04,1.636158850522007394e-02,9.278382613511979016e-03,1.038905903697013855e-01
5.064043795786395963e-01,5.198220804820345986e-01,3.815493818397199255e-01,1.054430978647854025e-03,7.382787216512349746e-03,1.374686646112638008e-02,1.348252743482589722e-01
6.707543752479739885e-01,6.526265032912135222e-01,2.361013025582782143e-01,1.187859112184129623e-01,9.742119424907288994e-02,1.686052957041101197e-01,5.809119939804077148e-01
4.976109257899443139e-01,5.110954087591126349e-01,4.019864609992180315e-01,5.953074448519815945e-03,2.135219051996217060e-02,-1.186904094694573274e-02,1.118570715188980103e-01
5.261954527846031127e-01,3.055650810938514983e-01,5.855012009036916210e-01,-2.549463666739995582e-02,1.207344338722090606e-02,2.897909927838600644e-02,2.649267315864562988e-01
4.460557648956537391e-01,4.729808851804035985e-01,4.895606426847395887e-01,3.920502499506988564e-02,-2.072093350145386495e-02,1.831740596576595867e-02,9.138937294483184814e-02
4.972746183749188753e-01,4.662963432822779808e-01,4.336608463218837861e-01,-5.213840763342018035e-03,9.250362992994679359e-03,1.321653759796995349e-02,6.243405491113662720e-02
4.468720400680121774e-01,3.899483852767277048e-01,5.184603177756991199e-01,6.282434863411370807e-02,2.345134145575045181e-02,-1.076505152382555008e-02,1.621064543724060059e-01
5.024939209606297252e-01,4.258258439536173334e-01,4.831462034129417327e-01,6.021379896531046765e-03,-4.444185596179264612e-03,8.701121433504144936e-03,7.186186313629150391e-02
5.045878428026985274e-01,5.472989030536412614e-01,4.207089448144933908e-01,4.361657181445584286e-02,-5.426544916677187441e-02,8.155467103272082130e-02,2.166503816843032837e-01
5.021869851396039142e-01,4.302980467481812288e-01,4.669183093441033883e-01,4.827912195820923888e-03,-7.315527756917840525e-03,1.248140214311598516e-02,6.763360649347305298e-02
4.117682240609520372e-01,4.531146761551415048e-01,5.521833833067051334e-01,5.181528827735382842e-02,1.986448863693431044e-03,1.211337379501004757e-02,1.553280055522918701e-01
4.923122361954340720e-01,4.372248368126708806e-01,4.935412893901698350e-01,2.767007496361201246e-02,-1.603528953289685283e-02,2.896691124004863518e-02,9.321681410074234009e-02
5.509382408608958226e-01,4.901169204093626108e-01,4.107174011552994219e-01,1.959901979351506146e-02,-4.983918029377526829e-03,5.707073006953690408e-02,1.607195883989334106e-01
5.525893556818977093e-01,4.749784011723007238e-01,4.231949571545707278e-01,1.228495773344801499e-02,3.088241496729870333e-02,1.049715235881958919e-01,2.215737849473953247e-01
4.934877045946701735e-01,4.541842515301704464e-01,4.577501232415557841e-01,2.649724670523411971e-03,-2.853478488190153237e-03,4.681656221771102536e-03,3.909692540764808655e-02
4.885640793679105198e-01,4.564198363438803918e-01,4.574613986676123734e-01,2.954760993257669541e-03,-3.839381346781048972e-03,5.008668097141257686e-03,3.386047482490539551e-02
5.035161993973091832e-01,5.184023442327516662e-01,4.229181611279609898e-01,5.320207193447920591e-02,-4.922478248669351353e-02,7.694995103403128034e-02,2.035729289054870605e-01
6.211265110313404225e-01,6.825162238704268747e-01,2.182826354810982750e-01,1.007014761079701032e-01,5.438739979669440089e-02,9.063413261043908042e-02,5.047002434730529785e-01
5.844467075482249196e-01,5.741163995386331376e-01,2.221376566575887224e-01,1.537676425374534354e-02,-2.531001098375109878e-02,-3.029408996832648124e-02,3.647137582302093506e-01
4.833044182708237102e-01,4.609764420066676527e-01,4.591604856785463928e-01,-3.333798434991354365e-03,3.317374609775889174e-03,2.579702543464466261e-03,2.507399022579193115e-02
5.386201479028218664e-01,5.241679102777306865e-01,3.470153618754819314e-01,7.886513856938812822e-03,8.676482186962835089e-03,3.854972591650579570e-04,1.859167069196701050e-01
4.653919440950359254e-01,4.721749462329973834e-01,4.622545974108516753e-01,-4.371668139855295308e-03,2.956356143663937345e-03,2.503429278012718907e-03,1.339734066277742386e-02
5.010824837319729497e-01,5.036631109819555974e-01,4.046966351975572751e-01,-2.737457014374276507e-03,8.930801524261884269e-03,7.057047804716510761e-03,9.978372603654861450e-02
4.159754774586417181e-01,4.520528223616989694e-01,5.132571178686018420e-01,5.035034102299714570e-02,-3.551061926637559540e-03,1.808081648969323343e-02,1.260145902633666992e-01
4.895134205754874124e-01,5.596978326548476268e-01,3.716869185674641085e-01,1.498246962857570537e-02,-1.088778930784579935e-01,1.464537923783815719e-02,2.529003620147705078e-01
5.244890116925207124e-01,5.367921911637482113e-01,4.437464949981548834e-01,5.230125801959098486e-02,-4.663611577857829787e-02,8.065391105307405384e-02,2.047200947999954224e-01
4.906215028290825675e-01,5.297225724982068673e-01,3.997567842315992159e-01,1.608188230255207796e-01,-1.574396612066788215e-01,1.037567566849871836e-01,4.445046782493591309e-01
4.638404387138553298e-01,4.818500385165700450e-01,3.127953521295671613e-01,1.072657079775102412e-01,-1.257933182957891860e-01,1.599043877150457815e-01,4.296011328697204590e-01
5.067372892833976739e-01,6.068385373503979441e-01,3.328009157273020269e-01,3.756576841508074693e-02,-1.236130815730358545e-01,1.181637768146423101e-01,3.868430554866790771e-01
2.881687683285668600e-01,5.325661365538786329e-01,4.834417073699066036e-01,1.316119334218553705e-01,-1.236465890027332731e-01,8.784616262556427246e-02,4.136650562286376953e-01
4.647703377998744778e-01,6.114184211418610682e-01,2.525059801265573389e-01,-4.290487848986609953e-02,-2.126393560022823426e-01,5.235941545938577364e-04,4.887328147888183594e-01
5.361617442236793485e-01,6.395121248122882518e-01,2.770874129753078119e-01,1.194029487389316607e-01,-1.640809258511960467e-01,3.875461164824185734e-02,4.823078215122222900e-01
1.645455756399711866e-01,5.979650847060388186e-01,6.321817352716915250e-01,2.300820001215955757e-02,2.018267483348337721e-02,-1.564359840774394092e-02,4.554094076156616211e-01
3.780260349290658906e-01,4.994764509788960360e-01,4.552010698546042344e-01,7.066174454883117351e-02,-8.827025731139345743e-02,5.787911489016216854e-02,2.444123327732086182e-01
3.350504582731889114e-01,6.775740855379900340e-01,6.617127336053851838e-01,1.363771928398864741e-01,1.297582945208753669e-01,4.618456991447492804e-02,4.741814434528350830e-01
4.561135435951053085e-01,4.586441137977045335e-01,4.932882216872324088e-01,1.399335733619712970e-03,-7.071094212297310364e-04,2.806327830460406559e-03,3.640450909733772278e-02
3.540114622816141754e-01,5.626394587189487151e-01,5.434568541933417762e-01,-1.117420256050793981e-02,3.150462499569869207e-02,2.137079667117456477e-02,2.112201005220413208e-01
3.429190215999611824e-01,5.292572614628163752e-01,5.422702774106984425e-01,8.346824117859549461e-03,3.447014930358197754e-02,1.897292582091062926e-02,2.053523808717727661e-01
3.512204419498127228e-01,5.446798161795159965e-01,4.914496969848517471e-01,5.718173621952864216e-02,5.210539970489682510e-02,9.631673810266869543e-03,2.195326536893844604e-01
4.094306225203464544e-01,5.252068028598330107e-01,4.945374058297459796e-01,-3.755766771949202269e-03,6.800413213764032461e-02,-7.351066420078850895e-03,1.577088087797164917e-01
5.498875947696346689e-01,5.005775559613452330e-01,4.711155640241188047e-01,-7.850442894387425763e-02,2.342773235907861795e-01,8.471269863200310557e-02,4.576323926448822021e-01
5.168424149717469884e-01,5.000280546975008900e-01,5.614135161412833197e-01,-2.617641093281456582e-02,1.869303783727290502e-01,2.143626069695915848e-01,4.977521896362304688e-01
4.982337677216803762e-01,3.256731735432821795e-01,5.149264029783549024e-01,-9.470139570027086284e-02,6.940099521985890196e-02,1.192635985025543993e-01,3.419974744319915771e-01
5.365024158097924101e-01,4.414235199467656523e-01,5.077030529428731009e-01,-3.088552122842825806e-02,5.749015837524366901e-02,7.806658346760754486e-02,1.954263597726821899e-01
6.993207415424926854e-01,4.119068504398287756e-01,6.223651068684930010e-01,1.785164854868994538e-02,1.066165497667994067e-01,2.116375738981736976e-01,4.856330752372741699e-01
5.731186948488471433e-01,5.143775772449018513e-01,3.190251906406754712e-01,3.039203379538393812e-02,9.600269992573150224e-03,-4.187520020857633113e-02,2.477829903364181519e-01
4.666910112228257468e-01,4.674236004548372736e-01,4.675750204074119454e-01,5.533349795275813859e-04,-1.219716944593811402e-03,4.054861780027981975e-04,2.558411099016666412e-03
4.652122085573296428e-01,4.685289317528420483e-01,4.726018106007389141e-01,6.541549860969133245e-04,-7.677312102953644680e-04,1.140291430389903929e-03,6.931839045137166977e-03
4.641150484126505549e-01,4.644812646022049019e-01,4.750897566529091454e-01,1.099705111121166388e-03,-2.411104590051929043e-03,7.726600858693710673e-04,1.180756371468305588e-02
4.448941751556582114e-01,4.911309613949934039e-01,4.440485864449016384e-01,2.577886076596479312e-03,-5.470015965112779571e-03,3.704503931521295913e-03,4.825476557016372681e-02
4.698075120360620249e-01,4.525009462790660075e-01,4.755912246390159859e-01,6.881377003954721253e-03,-8.645486247577396921e-03,4.559043122003282079e-03,2.935494296252727509e-02
4.543251201463603950e-01,4.801744650935168002e-01,4.549979055094001690e-01,4.732732023232391616e-03,-5.004163024107946382e-03,1.974059146582978191e-03,2.837714180350303650e-02
4.654495363381359052e-01,4.637146039357599170e-01,4.752233267407268702e-01,1.550648858313568180e-03,-3.666913765860263172e-03,1.362294761073843492e-03,1.298513263463973999e-02
4.731560385407950764e-01,4.660112421207460165e-01,4.635192788467681346e-01,1.665392181763345391e-03,-3.952219449279347429e-04,-2.246087648068150486e-04,9.165320545434951782e-03
4.889849860553286409e-01,4.546921271506884632e-01,4.765083595677237494e-01,-9.098790545057322890e-03,1.406778852978535915e-02,1.381451352967393194e-02,4.814978316426277161e-02
3.505929259398219422e-01,5.066378487471403513e-01,4.536499392101671635e-01,-7.535566584642715282e-02,1.703500508236586719e-01,1.061749885836161117e-01,3.959816694259643555e-01
4.534527508149661656e-01,5.047488564300841585e-01,4.137808477446168753e-01,2.500174464327907173e-02,4.572795164420145886e-02,-2.352343240353898732e-02,1.266831457614898682e-01
4.534383696732781632e-01,4.982541737088349576e-01,4.576643614393757775e-01,1.347980820977067503e-03,1.569942920975407000e-03,2.040582925893471905e-04,4.301039874553680420e-02
4.499801042529973372e-01,4.906599654770087970e-01,4.461514631443251333e-01,1.034283562348980480e-02,1.784713713403544497e-02,-7.503837759061503070e-03,5.718972533941268921e-02
4.338681290383535338e-01,5.138027707213106421e-01,4.669014794649504752e-01,-1.832951267595031835e-03,2.666013288996121888e-02,1.592709829037589758e-03,8.360751718282699585e-02
4.226980047763811976e-01,4.656459033237846379e-01,5.713151249671311049e-01,-1.022036656159862611e-01,4.245195321194782101e-02,4.586330631399609253e-02,2.461754977703094482e-01
5.692745755945911590e-01,6.749376168202596560e-01,4.162824708796560302e-01,7.781586034842838395e-02,2.087135735348090160e-01,3.178586005892435756e-02,4.501309692859649658e-01
5.627411844904606220e-01,5.422340448322886530e-01,2.520563157683413102e-01,2.592407818910299339e-02,4.747104050866697567e-02,-7.711898174184246557e-02,3.423347175121307373e-01
5.181046087560923219e-01,6.888196711608581824e-01,2.415841052162856495e-01,-6.191959041632285644e-03,1.172859412885866870e-01,7.345683368548340531e-02,4.586765170097351074e-01
5.154231414020937763e-01,4.671324265175618717e-01,4.252750329991258349e-01,7.540857952046728548e-03,5.080060672797400215e-03,1.553943040248921027e-02,8.412963151931762695e-02
4.467743960366378220e-01,5.012065294231257129e-01,4.963927221395378897e-01,-3.607287720500385736e-02,5.535343894356076211e-02,7.995315058876020786e-02,1.870756298303604126e-01
2.953162238153159702e-01,4.907969222123739206e-01,5.396095314821380828e-01,-1.164912550859915075e-01,8.159921205813933098e-02,5.672078287207039937e-02,3.470950424671173096e-01
4.562040752267592647e-01,4.617819517573458210e-01,4.919285387591157410e-01,1.751236865829472120e-03,-5.416979583937807331e-04,1.987816049628962287e-03,3.361574560403823853e-02
3.376762433075605196e-01,5.356034673238808663e-01,5.690219073724849252e-01,-6.175247196178593884e-02,2.064487022472254185e-02,1.542729842898199998e-02,2.456402629613876343e-01
4.368080029007911369e-01,5.080702694378592676e-01,5.011847748845328354e-01,-1.657531784257560911e-02,3.299837096753883287e-02,2.236534961208250585e-02,1.011265143752098083e-01
4.267725313629924799e-01,5.043451969112087152e-01,4.699166700179637779e-01,-7.075013018216814997e-04,1.284074808929351955e-02,5.236816921771893230e-03,7.148816436529159546e-02
3.282258751775146699e-01,5.412448920623191828e-01,5.298470177072431841e-01,3.255716314876211555e-03,-7.351599303594867456e-03,9.995996793245786813e-03,2.087408602237701416e-01
3.519321600657115967e-01,5.183051462372668672e-01,5.236246410609842750e-01,-7.976296105593885105e-03,1.244637573031498988e-02,1.368048425155075562e-02,1.726567596197128296e-01
3.589690020769625844e-01,5.057500681858403402e-01,5.240631268976387869e-01,-1.933344912194645548e-02,1.548221060508498358e-02,1.383736007011780907e-02,1.642647832632064819e-01
4.069360865933170923e-01,4.958183862530529118e-01,4.931001278670041899e-01,-7.208690186161969757e-03,1.398890196782231685e-02,1.467447579415184951e-02,9.515687823295593262e-02
4.287408138404172897e-01,5.031538152959665888e-01,4.700594099509875501e-01,-3.638228613385478989e-03,1.016566474292309591e-02,6.151429041690591876e-03,6.806711852550506592e-02
3.931692337209517496e-01,5.121094371894923114e-01,4.945444668111513842e-01,4.729969477189161983e-03,1.978275870365196754e-02,4.818463466239407585e-03,1.169485449790954590e-01
4.710891732771704810e-01,4.484775911283202521e-01,4.862643415316797446e-01,2.666167143279620042e-03,9.016788380744440723e-03,-2.311291607161119598e-03,3.695893660187721252e-02
4.952349087071183376e-01,4.115654034365689995e-01,4.804788040428834561e-01,1.288720015372335666e-02,1.586272962789110272e-02,-1.213241261494212193e-02,8.762646466493606567e-02
4.725295887877400958e-01,4.499843713549950275e-01,4.863674161083129110e-01,1.452387534547035924e-02,1.178843959378633732e-02,-6.715366918154309916e-03,4.686969518661499023e-02
4.691189066934232654e-01,4.627282319171703295e-01,4.604426332392144716e-01,6.830370494505058100e-03,5.633852885318794794e-03,-6.781153820370876967e-03,2.082801237702369690e-02
4.596173361805945823e-01,4.544619278040685773e-01,4.775187758991089604e-01,1.182882084906615103e-02,1.088008105465914678e-02,-8.037497878109450822e-03,3.752365335822105408e-02
5.767668318094391067e-01,3.220315875883340562e-01,5.234753259286581972e-01,-1.826878268652290180e-02,9.866003483578538250e-03,-8.946152550698734107e-02,2.818832397460937500e-01
6.337757916351329790e-01,2.747175262858347899e-01,4.882190048116191172e-01,-9.524620808645435643e-02,-1.092953745875731991e-02,-1.534177270683133865e-01,4.427540302276611328e-01
4.382147452403684085e-01,4.747702919097941399e-01,4.931812936341044562e-01,2.204608376299026576e-02,-1.989744209208616638e-02,2.040484368582408045e-02,7.901382446289062500e-02
4.405760456456878082e-01,4.603559616432368884e-01,4.949293018379469222e-01,1.836404878159681939e-02,-1.104031669243758437e-02,1.157265135897051801e-02,6.363629549741744995e-02
4.459673983871732528e-01,4.542140698230932028e-01,4.930208903408671572e-01,-4.482899442762874366e-03,3.111831271868043935e-03,5.082461859343150382e-03,4.539645090699195862e-02
4.343243249765179059e-01,4.389301126662539798e-01,5.234164782244652425e-01,-6.297071636052851973e-02,1.161978332097452458e-02,5.874184371398930883e-03,1.412543654441833496e-01
4.891222078323232969e-01,4.518654532270922619e-01,4.876541324927969878e-01,2.706113612464354154e-02,-9.893251549129839298e-03,2.316227232721967261e-02,7.372613251209259033e-02
5.001337729604204974e-01,4.921003526448377574e-01,4.067853541856046862e-01,-8.201730605989495521e-03,2.088193647922308160e-02,3.604770532744085154e-02,1.159173771739006042e-01
4.669408318378158174e-01,4.514330075340752813e-01,4.859325407716848511e-01,-2.918436585610804587e-03,5.683557372134924110e-03,1.851027142510267140e-03,3.206925094127655029e-02
4.610443117022537396e-01,4.430916772190319763e-01,4.924711818047994294e-01,-3.832863008262284675e-03,8.301715992022789745e-03,3.048765226359695032e-03,4.639884829521179199e-02
4.645223006718884884e-01,4.775672868207843091e-01,4.613919977149139595e-01,-3.602871464367409654e-03,2.251161101528116430e-03,2.628045886176508771e-03,1.719506643712520599e-02
4.646620650470515423e-01,4.644952318327135732e-01,4.714099022344024892e-01,-4.413726605156869471e-04,2.050170513474281787e-03,1.310901231059840265e-03,8.064509369432926178e-03
4.771914343378380607e-01,4.554960668092907783e-01,4.472738166062909526e-01,-1.863329854524993154e-02,2.399137900018862360e-02,3.144620693597267869e-02,8.032203465700149536e-02
4.318203047912462789e-01,5.767738570656484320e-01,3.583059261431752462e-01,-2.531966300744874915e-02,1.810413268765359573e-01,5.487107959042351879e-02,3.825646638870239258e-01
5.652110146949976821e-01,1.794063744839141106e-01,5.614860358498720005e-01,4.689750899901706793e-02,1.948036343413475993e-02,2.080788071946153284e-02,3.955470621585845947e-01
5.152698181137125300e-01,3.938404997164500765e-01,4.907967266184082300e-01,2.115365161247838234e-04,6.366472623245028259e-03,2.514257764097623318e-02,1.199601516127586365e-01
5.255683793746481758e-01,3.502537683596205209e-01,5.336571237910768817e-01,1.657225104267595617e-02,9.400593107451938463e-03,3.632440930068323373e-03,1.826125234365463257e-01
5.091388102779084157e-01,3.751954406310428203e-01,5.220647032131738863e-01,3.134172161778386867e-03,3.912785720924436689e-03,4.718055156675578406e-03,1.413556635379791260e-01
5.249252512188814501e-01,2.995242724790279087e-01,5.327528104755839822e-01,1.074567988687206294e-02,8.333430481840820025e-03,7.752785161637881783e-03,2.310114204883575439e-01
5.046992634619789087e-01,4.450374091755697203e-01,4.374419901312839309e-01,3.368373497351297759e-03,-4.048594983991592720e-04,-2.200417810663844297e-03,6.418285518884658813e-02
5.029932058695666397e-01,4.385727920492764609e-01,4.370514242254550097e-01,-4.129400161616612972e-04,-5.330728307934511729e-05,-7.075040496945503082e-04,6.520991772413253784e-02
5.057676786471230201e-01,4.328630312498968902e-01,4.404006228596191730e-01,1.468775049026249929e-03,1.097823833210595512e-03,-3.688169575306285940e-03,6.980883330106735229e-02
4.610007822641063457e-01,4.624433093644934045e-01,4.880166240288686952e-01,9.066017010627234335e-03,-3.891373344469391000e-03,7.542510102288660714e-03,3.399470821022987366e-02
5.181666887707857549e-01,4.496766591273753666e-01,4.451835033873383085e-01,2.860345783730266003e-02,2.325060152678383452e-02,-4.383692183114097640e-02,1.219019293785095215e-01
4.801888040407991110e-01,4.593763459348594869e-01,4.370150055369597109e-01,2.013834121675434768e-02,2.143464331487584390e-02,-2.403283535861621203e-02,7.567234337329864502e-02
5.073997621859321905e-01,4.665340080857527938e-01,4.213175374321647126e-01,6.661226827779678263e-03,-1.637641815737108514e-03,1.486925005564525282e-02,7.979216426610946655e-02
4.336038901040566440e-01,5.096704826838901470e-01,4.672267989963037049e-01,-1.545084876162642652e-02,2.516496998266937873e-02,2.482674708472765515e-02,9.393700957298278809e-02
4.831046780652119566e-01,4.906469483301316159e-01,4.376822093973342098e-01,-7.283951441418948583e-03,6.014527658375777922e-03,6.782708104883973174e-03,5.355727672576904297e-02
5.028384538442127738e-01,4.658187767274926117e-01,4.434469986453266066e-01,-1.365919558879287801e-02,1.467587581315644811e-02,2.642211108097835409e-02,7.745578140020370483e-02
5.010884998815690050e-01,4.686293178579633567e-01,4.440998003884177314e-01,6.523159156597866347e-03,-3.951261951291386342e-04,4.172687747397522788e-03,5.130166560411453247e-02
4.710598648942426747e-01,4.669956535686921040e-01,4.682267072347119918e-01,-1.244606896597560096e-02,1.037210559431972837e-02,6.650824839650011470e-03,3.054809384047985077e-02
4.635811482230611791e-01,4.774854632751457384e-01,4.622716256333436191e-01,-3.329709978236889203e-03,1.200678785679615496e-03,2.857506801903781767e-03,1.659321226179599762e-02
4.600327429768640286e-01,4.811583406941377650e-01,4.648754436711045601e-01,-2.657114718273529113e-03,6.304125054377889177e-03,9.492800788587515623e-03,2.789595350623130798e-02
4.661358246620608825e-01,4.726029408833568590e-01,4.691604485946934133e-01,-7.987241347400282979e-03,1.056925840480634968e-02,1.217832480014511588e-02,3.166799619793891907e-02
4.648827690159613168e-01,4.696461678067967993e-01,4.677611771518550565e-01,-4.506080787664218986e-04,4.351724755561145615e-04,2.215635310893220543e-03,5.759217310696840286e-03
4.623901682025657878e-01,4.697950091162333974e-01,4.697244804176171629e-01,-1.711078724522502748e-03,2.513474758465067144e-03,5.014837472386055907e-03,1.254974957555532455e-02
4.791146090246595768e-01,4.674072971687131539e-01,4.448684834651872588e-01,1.006381725219163657e-02,4.545280291951696826e-03,-6.585526899310334935e-03,3.748140484094619751e-02
4.858769199648201864e-01,4.421641601220606677e-01,4.641354184639812086e-01,3.025585089009114222e-03,1.064743119713455928e-02,-5.505220291471255023e-03,4.349258914589881897e-02
4.856706207514746021e-01,4.615321104671292751e-01,4.538834802518508793e-01,4.409436687155058633e-03,1.547056879158381941e-03,9.306585639912458557e-04,2.989822253584861755e-02
4.905345986244083467e-01,4.493220659551651064e-01,4.508282982849081688e-01,1.934451410965500138e-03,3.364765045974065730e-03,-1.438231010926338711e-03,4.111037030816078186e-02
4.856976994602546505e-01,4.550103520419557235e-01,4.508853933096240718e-01,1.533132813598674310e-03,6.178476212608735108e-04,1.289903728338447509e-03,3.314363956451416016e-02
4.978522143916723208e-01,4.532972216826666179e-01,4.449499891805651641e-01,4.530675483635026625e-03,9.555294354024594129e-04,-1.423031186058543521e-03,4.997128993272781372e-02
4.757054731528888025e-01,4.535484934695293568e-01,4.663705162445885288e-01,8.492908086556786446e-03,9.102289535801626544e-03,-1.240049796113277744e-02,3.602081537246704102e-02
4.969300242728813544e-01,4.450504887175717461e-01,4.445126655693042439e-01,3.026266266818916141e-04,1.114410174749209167e-03,6.347805395492445201e-04,5.220044776797294617e-02
5.015433801750226461e-01,4.450193513149515723e-01,4.397826955516203618e-01,3.233747092842739496e-03,1.181079212524859283e-03,-2.266389642490736558e-03,5.974404513835906982e-02
4.652316329083936997e-01,4.704361655744462301e-01,4.672168802210521221e-01,3.412631001119053806e-03,1.203775794227735473e-03,-3.272405535454940735e-03,9.597258642315864563e-03
5.069876146453212717e-01,3.527592399875664197e-01,5.289928592505215299e-01,4.432681469221958978e-03,-1.137364157458520784e-02,6.483727796565526280e-02,2.017996460199356079e-01
4.936096313280498582e-01,4.211234963776706031e-01,4.581342166435602437e-01,-9.712188076002995635e-03,1.475819712579410845e-02,1.909986750431603986e-02,7.727921009063720703e-02
4.585487971768243409e-01,4.027142223709729851e-01,5.214693556791787366e-01,-3.626990498168752158e-02,2.583832392522085464e-02,1.991776765394723259e-02,1.331509202718734741e-01
4.925557979871196257e-01,4.529510615603343782e-01,4.621878981781925022e-01,-2.623403412173770655e-03,5.093167850995848449e-03,2.317288131029541197e-03,3.745142370462417603e-02
4.916338564788857446e-01,3.848047999662329577e-01,4.872198117465405542e-01,-4.311580519177745513e-02,2.317135701618166718e-02,3.966006451439908764e-02,1.512177139520645142e-01
4.819834741616555451e-01,4.201495232072381403e-01,5.009081698641475455e-01,-2.213898672176675339e-02,1.861606911970638961e-02,1.849485936353317816e-02,9.427633881568908691e-02
4.560021026338044736e-01,3.622012100953145852e-01,5.450866440373474120e-01,-7.074699050035189452e-02,6.097661955492255509e-03,1.365172579359586087e-02,2.019329965114593506e-01
5.193730457338142648e-01,2.218474034956625374e-01,5.551771115229563458e-01,-9.715705783913820837e-02,2.786547647764178737e-02,7.531810491970118704e-02,3.848668038845062256e-01
4.483743440507989009e-01,4.618403533361482571e-01,4.994265841369910364e-01,7.138945738555049422e-03,-1.568020993229017959e-03,7.261007712348225424e-03,4.917958006262779236e-02
5.236989841094540354e-01,5.233539354513634390e-01,4.525584173358509488e-01,2.119897031301807011e-01,-7.679193148756956189e-02,1.279532763199505985e-01,4.546015560626983643e-01
3.885031992275652102e-01,5.029301137585217019e-01,4.608477039283802035e-01,2.113332740163149231e-02,-4.263297163188634747e-02,2.101520615984354273e-02,1.347834169864654541e-01
5.576381365338496376e-01,3.920812174530252103e-01,5.204865407470538052e-01,5.818615517909330598e-02,3.789680563450410159e-03,3.989370717862859850e-02,1.939410418272018433e-01
5.017304876101279509e-01,4.078419429844322708e-01,5.184617034529166446e-01,4.839733712101743079e-02,8.166035955792391721e-03,3.282495139955161206e-02,1.453452855348587036e-01
4.937435382523582272e-01,4.490976302712677004e-01,5.194028702127055919e-01,9.571007513389910570e-02,-2.656523691819395738e-02,5.968894686503923436e-02,2.099617719650268555e-01
4.900919332733140177e-01,4.357469681842229825e-01,4.824826339941634679e-01,2.891914039506129214e-02,-1.057435353090177728e-02,2.537279829388596267e-02,8.586901426315307617e-02
5.381551383898408591e-01,3.943260145502239800e-01,4.752692957167826693e-01,4.085269900331713749e-02,-2.552544716026990818e-02,6.199634094048513122e-02,1.846313774585723877e-01
4.603156153313990306e-01,4.669594704106416194e-01,4.743323434597043198e-01,-2.124289869288508109e-04,1.472817373274491791e-03,4.626998499964860533e-03,1.477682869881391525e-02
4.402924350120157038e-01,4.436797219525673297e-01,4.907977373803582566e-01,-1.899070521906846831e-02,6.554169903654713872e-03,8.136481104251238813e-03,6.164902448654174805e-02
4.657860778955229542e-01,4.723648026341814576e-01,4.674131061982058633e-01,-4.259203010479067734e-03,4.292030609791603994e-03,4.300208197862785860e-03,1.415575668215751648e-02
4.578008649139764796e-01,4.718658794056053707e-01,4.621277216213657280e-01,-8.263258824062699043e-03,1.027464094813357147e-02,8.048525765200523555e-03,2.952243946492671967e-02
4.700195650096175015e-01,4.723601129685160438e-01,4.605964815890349340e-01,-5.792519551625825193e-03,2.209225284143091859e-03,1.873791831596710415e-03,1.556158717721700668e-02
4.697892979869729979e-01,4.699849310008438197e-01,4.534183448207951828e-01,-8.515137683081566017e-03,6.425665469063108343e-03,5.644126188097585428e-03,2.661217376589775085e-02
4.598480130876650418e-01,4.759526187815352749e-01,4.639115591557486096e-01,-2.089977977265621099e-03,3.290445660041306682e-03,6.296868724413902732e-03,1.936403103172779083e-02
4.445112664106059541e-01,4.696547951158124290e-01,4.959325401123576560e-01,-1.280685548511134586e-02,1.177844600167916173e-02,1.420419202244264066e-02,5.913502722978591919e-02
4.694520824624525135e-01,4.508687564123315950e-01,4.810164503651264134e-01,-1.189215289978148155e-02,9.339127520427301099e-03,7.309030349793520752e-03,3.924503177404403687e-02
4.881135796523907167e-01,4.394104835268778375e-01,4.803934576172512183e-01,8.517241230240210625e-03,-9.142249361220707721e-03,6.268067341251811961e-03,5.139879882335662842e-02
5.182636929206529963e-01,3.271909185361985273e-01,4.954401783178152829e-01,-1.100867533118039532e-01,-1.139646281433430997e-01,-1.582425026506466270e-01,4.279157817363739014e-01
5.524999895374109737e-01,2.624999005782373551e-01,3.999576825062536867e-01,-9.370212177884676419e-02,-5.962590172463996807e-02,-2.032409262096523672e-01,4.733482301235198975e-01
4.623040797991666007e-01,4.658111781073052682e-01,4.828634928224936340e-01,6.147051958564431554e-03,-6.605114530306997571e-03,7.786286969309016634e-03,2.808924205601215363e-02
5.046174309197271057e-01,4.972943238156327106e-01,4.003802510118350533e-01,2.307595988312576007e-02,2.125043230919491238e-02,-6.315008249097075858e-03,1.150111183524131775e-01
6.192662378686666358e-01,2.317445827216617626e-01,5.563828362120045723e-01,-1.245276649931250923e-01,-9.895214282219563090e-03,-1.139229295942942727e-01,4.642296135425567627e-01
5.066579411060000426e-01,3.621252507971735590e-01,4.833851927342993626e-01,-3.499508618889432543e-02,-8.773072099860453055e-03,-3.714670046661408542e-02,1.615925282239913940e-01
5.492566234085264343e-01,2.988889942068611028e-01,4.835710033519635687e-01,-7.684742054084184315e-02,-2.877871418097339290e-02,-7.628462971276847582e-02,2.970054745674133301e-01
5.280761098097224160e-01,4.020943838712723317e-01,4.716164106258311506e-01,-6.988909182339267390e-02,-5.080541408144127746e-02,-1.077749534185083319e-01,2.630390524864196777e-01
4.825293722055851720e-01,4.626869762375627193e-01,4.546836136122310856e-01,1.150173312626089593e-02,-1.146480655851841134e-02,1.017791243929597883e-02,4.145533964037895203e-02
5.090972013443455513e-01,4.206265445592706764e-01,4.838849638822737553e-01,1.338729225171433369e-02,-4.399617265837387024e-04,7.167307541897534155e-03,8.321370929479598999e-02
5.115117796663267713e-01,5.062117280823951182e-01,3.737101009272557062e-01,1.381281798850651429e-02,3.470493428704206958e-03,-1.879146402902632379e-02,1.412618458271026611e-01
5.155111135107451892e-01,4.712000252265631239e-01,4.407486215252542361e-01,1.819321345912130669e-02,-4.552469339783865934e-03,3.003345024842227554e-02,8.944983780384063721e-02
5.042232789895023659e-01,4.193559705984172270e-01,4.886559428633726054e-01,4.813299801421240184e-03,-2.948559022367686164e-03,1.651309861400063889e-02,8.388847857713699341e-02
4.902379109587307604e-01,4.506283061329138806e-01,4.858879012813435150e-01,2.188760240832251028e-02,-9.679928469744386588e-03,2.860775443535872042e-02,7.475998997688293457e-02
4.895023728854066558e-01,4.706149346270526723e-01,4.450462188809032327e-01,-6.649457652263005870e-03,8.137540451367539229e-03,1.179457649964223490e-02,4.735042527318000793e-02
5.182640286487689707e-01,4.750160710589244606e-01,3.670255804311743364e-01,-2.688253235368291694e-02,1.384895501349391878e-01,1.500883994423089507e-01,3.814293742179870605e-01
4.856646298146717333e-01,4.967614182176554594e-01,4.167661444219527556e-01,1.568192994679006719e-02,8.223135089188968183e-03,-3.892200498719699392e-03,8.136810362339019775e-02
4.713753489534645014e-01,4.581443144664023026e-01,4.641523809882822094e-01,-9.417996325637671001e-03,8.856899967775010846e-03,1.220388386750282175e-02,3.286181017756462097e-02
4.571176100207333115e-01,4.769517799960849014e-01,4.758475543570043764e-01,-8.471395644464139660e-03,9.878091117867748849e-03,1.076078458960626726e-02,3.504453226923942566e-02
4.816808340908615982e-01,4.892071609034104873e-01,4.134393501089807521e-01,-9.071778367616743430e-03,1.934055567354585337e-02,9.616353975924070083e-03,8.290741592645645142e-02
4.740294802828582399e-01,4.562467306000844158e-01,4.724075182561948139e-01,-2.817808546343917794e-03,8.372677422958071589e-03,2.227285088032414113e-03,2.321684174239635468e-02
4.868509861148100915e-01,4.583198575277601106e-01,4.615973549647882090e-01,2.812159497678610618e-04,2.749847271470822526e-03,5.469578247508169455e-04,2.747865207493305206e-02
4.766148093918080586e-01,4.604751456554105338e-01,4.660477382441158278e-01,5.216169166739596406e-04,3.935331612564342378e-03,6.817553769676717394e-04,1.582004688680171967e-02
4.814560072528485390e-01,4.597137266836585079e-01,4.662218232406350471e-01,-9.236973031154372803e-04,2.057938626710097921e-03,2.279720253714788165e-03,2.011063322424888611e-02
4.593706028765163207e-01,4.358334636775054172e-01,5.027855899979172261e-01,-1.662445882551413442e-02,3.118420969745348045e-03,1.159485465158721987e-02,6.871925294399261475e-02
4.809237208817856990e-01,4.562779776157280254e-01,4.790534778887569067e-01,-3.919622020890260738e-02,3.592324179402880957e-02,4.472152994619386229e-02,1.226594150066375732e-01
4.898616350136967834e-01,4.665864401849781906e-01,4.536201784819061111e-01,-3.976821623191884557e-03,2.667112247887605536e-03,2.967632343506127618e-03,3.326946496963500977e-02
5.135913356115767714e-01,5.027905021474196046e-01,3.818296310305719365e-01,1.438529974851676316e-02,5.489262367524215536e-02,-6.043279657131878091e-02,1.914979070425033569e-01
3.194127314903659198e-01,6.348262808027338444e-01,5.641268683543203544e-01,6.120292840423478820e-02,1.468906881338064296e-01,-2.316114794120225848e-02,3.997022509574890137e-01
3.943906985503317086e-01,5.262351879749630479e-01,4.969326919006095133e-01,2.181233645036041377e-03,1.892197810789337034e-02,1.460933278646600261e-02,1.269130706787109375e-01
4.336525975910789366e-01,4.979094791149872856e-01,4.692433942811267689e-01,4.081020556566986382e-03,1.057360592377351236e-02,-5.857579552060619352e-03,5.997499078512191772e-02
2.929625805339608480e-01,5.185398601300649224e-01,5.488059152948648878e-01,-5.181804819654983740e-02,-2.292184524042480132e-02,1.197861197625828440e-02,2.620887160301208496e-01
3.774283358044259740e-01,4.935967257802426067e-01,5.016855682561640606e-01,-9.327314927222676855e-03,-1.207043296071694076e-02,-9.752499857494194985e-03,1.244331449270248413e-01
3.942797420497205496e-01,4.916317981617113753e-01,4.736531494410596843e-01,-6.993123211212928618e-03,-1.633119355375195481e-02,-1.481488507317629821e-02,9.826328605413436890e-02
3.516699198095807333e-01,5.166398786637839136e-01,5.154231235361060870e-01,-7.112651265205927748e-03,-1.969891113228692744e-02,-1.283395775421020688e-03,1.683350652456283569e-01
3.627088642448516587e-01,5.291055866767040428e-01,4.960492213281066931e-01,-5.010465476548243112e-03,-1.153031693329288274e-02,5.236164763236044427e-04,1.541269123554229736e-01
3.773473917549936552e-01,5.292118572745281302e-01,4.781702445872101914e-01,-2.598554576774164335e-03,-2.437352102144586807e-02,1.626730607104270778e-03,1.404530405998229980e-01
4.897769259295023936e-01,4.431231091058209226e-01,4.322008945348383979e-01,-2.701167347541890210e-02,-4.677863677009082288e-02,-5.180281588911746921e-02,1.400344371795654297e-01
5.114283553126118820e-01,4.199973121203051107e-01,4.497557822498842173e-01,1.322085816317621586e-02,8.149868947318922308e-03,-3.450785875738235364e-02,1.040209829807281494e-01
5.135577656320051698e-01,4.555907970027361364e-01,4.237579584210639516e-01,-6.906274797109967015e-03,-8.697139561141879055e-03,-2.777092397880435992e-02,9.435272216796875000e-02
5.292244696865061604e-01,4.383271558592796713e-01,4.483197490281060071e-01,1.362206340547987560e-02,1.260092413183797055e-02,-4.704840845875808697e-02,1.229941621422767639e-01
5.095852277743333492e-01,3.948458564815097160e-01,4.798528040762551350e-01,5.409431258958646328e-03,1.665518184399065668e-02,-1.620008296873922185e-02,1.111078783869743347e-01
4.967839877493081535e-01,4.310883343052142602e-01,4.521737993706276826e-01,-1.312722879613775068e-02,-1.131790856356387764e-02,-2.332040378498203073e-02,7.686399668455123901e-02
5.192382778053680203e-01,3.781552638391747490e-01,4.754205874267079523e-01,-1.647399066990354365e-03,3.799184769824136883e-03,-2.512333889257060970e-02,1.326177418231964111e-01
2.845456051859422963e-01,5.931022553720574075e-01,4.923181018884339455e-01,-1.538522177965518378e-01,-1.381044443872374572e-01,-4.692961760690920331e-02,4.572791457176208496e-01
3.352331421968977598e-01,5.429791833657151567e-01,4.864328890663840443e-01,-1.712453272183472874e-02,-8.238367864773590843e-02,-2.482140070876226803e-02,2.402038723230361938e-01
3.592964160815632635e-01,5.667344873091278989e-01,4.842902638642689883e-01,-4.017317042270991678e-02,-9.010447370653301702e-02,-1.935508645355850724e-02,2.510925829410552979e-01
3.049137944154535207e-01,5.212520642220581646e-01,5.230287448393282634e-01,-5.539967187786840053e-02,-6.302661201351411613e-02,-3.123420708695535258e-02,2.669099569320678711e-01
3.494985642137797832e-01,5.128408768415377850e-01,5.356901256965761471e-01,-6.617898101070947281e-02,-6.674705137293984736e-02,-2.525141306275618860e-03,2.397053539752960205e-01
3.373505126624318229e-01,5.273275206760130729e-01,5.197675915902969512e-01,-4.394512159952985476e-03,-8.052392056731040235e-03,3.970605888489084703e-03,1.871148347854614258e-01
2.894093436968956379e-01,5.950112080519512903e-01,5.612398822335755710e-01,-3.268225152698440300e-02,-3.922942291739556914e-02,2.617765408892496273e-02,3.067400455474853516e-01
2.160073738490895234e-01,5.327480894621936525e-01,6.749463220573814759e-01,-6.615002651436890924e-02,-5.480920447041660176e-02,-2.056979766022459105e-02,4.347343444824218750e-01
2.092044899795909574e-01,5.599372601601523280e-01,5.882260960787257797e-01,-7.420673942709915538e-02,-4.316605568326459252e-02,1.335111772239475775e-02,3.954493105411529541e-01
5.269675271056353250e-01,5.062343301861097489e-01,3.435742591155306336e-01,1.089037341467004143e-02,1.754858047758145120e-02,-4.108038030666790602e-02,1.913193166255950928e-01
4.835653489754617729e-01,5.114183770906357562e-01,4.369390611784281786e-01,8.542102016372025628e-05,9.908754403784206244e-03,1.390765704883079046e-02,7.157741487026214600e-02
4.818234003451138947e-01,4.611853642323429647e-01,4.482651738474703884e-01,-1.455733532844694783e-02,2.410488214352517200e-02,2.499859018349143494e-02,7.150650024414062500e-02
