sxx,syy,szz,sxy,sxz,syz,smises
1.121828304914402469e-01,-1.667412382215894412e-02,1.409416793312294816e-02,-1.422581134215548850e-03,-2.593913800145558612e-02,1.447150951741182088e-03,1.249678581953048706e-01
8.919114119819565589e-02,1.568419152618637236e-02,-1.255700999020761821e-02,6.960552736523696257e-03,-5.499935725270913012e-02,4.531815972213889057e-03,1.325085312128067017e-01
1.497820584513109288e-01,9.373893326119459024e-03,-6.854818609150839515e-04,-7.956429546127997748e-04,-1.682862831827569919e-02,2.496860402736417834e-04,1.485925912857055664e-01
1.145478876330954798e-01,-3.446529369088541239e-02,-6.555284244990862430e-03,7.722483007719202486e-03,-3.841510461841705915e-02,2.678395934612830265e-02,1.599473357200622559e-01
1.840815654227498099e-01,-1.135188699551110958e-02,2.338940287407276220e-03,1.334094063065539154e-02,-4.947387159062312939e-02,-8.886757653826000622e-03,2.093319892883300781e-01
1.804433611904658896e-01,-5.530575351798279471e-02,2.430734905936086931e-03,-1.273069480611975675e-02,-5.734028870709009795e-02,-2.469336099107572249e-02,2.397478818893432617e-01
3.717844233559072231e-01,-2.317209646236276233e-02,-2.866752414502379831e-02,2.522173111430609156e-04,-2.293874812717578565e-04,7.409002980177443153e-03,3.979401290416717529e-01
3.561390430900485127e-01,-1.422979650416814068e-02,-2.356107823687861313e-02,-2.104541273121119174e-04,-1.226670662785574921e-03,1.419459333553178652e-02,3.759325444698333740e-01
3.606294838525151425e-01,-1.070837868325741349e-02,-2.713504167866229166e-02,5.762655713739287065e-04,9.779553716630789723e-04,6.295626659355529724e-03,3.799792826175689697e-01
3.666562781854109110e-01,-1.504765144157149681e-02,-1.569815779509620146e-02,-2.529727315747067658e-03,4.353000122970751735e-03,1.107223979927751678e-02,3.826100528240203857e-01
3.570220838122398765e-01,-1.497720901401961013e-02,-1.788842685630698259e-02,-5.259673621090307956e-03,-1.255553381874520468e-03,9.361352003449032594e-03,3.739325404167175293e-01
3.573543876849034628e-01,-2.101344030768007021e-02,-1.815337509450729025e-02,1.581622079322705932e-03,3.846972394985901018e-04,4.326889514038609851e-03,3.770309686660766602e-01
3.515844775860474947e-01,-1.060546275858473275e-02,-1.914462859951884810e-02,-1.408918917129004574e-03,-8.281105654149842940e-05,4.339240747940267297e-03,3.666193187236785889e-01
3.452800862139782656e-01,-2.621532516722757666e-02,-2.747226325233373401e-02,7.312944506960593338e-03,7.964257616093094378e-05,2.451593387982962230e-04,3.723412454128265381e-01
3.484882133332640741e-01,-2.776280074825651645e-02,-3.935772534364551101e-02,9.118237572527867086e-04,-3.572736032457548769e-03,3.353154239259995614e-03,3.822779059410095215e-01
3.359839300650586669e-01,-2.121476180549619617e-02,-2.495975710300821215e-02,7.833485198830853966e-03,5.718539047828051329e-03,1.696903842930674519e-03,3.594905734062194824e-01
3.476677745152575993e-01,-1.831621162736338237e-02,-2.682268741289375868e-02,1.357208742159150480e-02,-6.732608467070218391e-04,2.319162358090039004e-03,3.710794746875762939e-01
3.261594289330341234e-01,-2.507490139464002565e-02,-2.429529048368023192e-02,-3.193147120231014727e-03,3.163362466153541298e-04,5.961481294485166966e-04,3.508907258510589600e-01
3.416136840092722782e-01,-2.454474412713125719e-02,-2.640374466648767737e-02,6.971915733903745471e-03,2.276627212693493711e-03,-1.532482480403876777e-03,3.673207759857177734e-01
3.675814124926995996e-01,-2.677015748299257925e-02,-3.180804241190668402e-02,3.367500407692007591e-02,2.388368588103383441e-02,3.142752060480522025e-03,4.033214449882507324e-01
3.484626439156616184e-01,-3.528593401293336762e-02,-2.925833653492385111e-02,1.587677836948726481e-04,1.273611634384352572e-03,-2.250926788461714203e-03,3.807969987392425537e-01
3.362859105920543157e-01,-2.459669562121610809e-02,-2.379435290272668979e-02,7.783480375788931829e-03,5.346240516753975047e-03,-1.766404043992199921e-03,3.608659207820892334e-01
3.012695230876208941e-01,-2.359922770713018814e-02,-2.731860074497929891e-02,1.621990435610548521e-03,4.589431971199656873e-02,1.287782891634915976e-03,3.362938761711120605e-01
3.463304965605542018e-01,-2.590918569294559104e-02,-2.712881493256680265e-02,2.553594799657114573e-03,-1.385661035707602727e-03,-7.682896013290735739e-04,3.728873133659362793e-01
3.591545563505795791e-01,-2.219666887998791860e-02,-2.046269627062025087e-02,1.361917246425007385e-03,-1.341241320534343169e-03,1.076972063244483260e-02,3.809585571289062500e-01
3.431020640149484713e-01,-2.460766897469862657e-02,-2.835520341488861895e-02,1.038280728780559443e-02,1.015543276699161328e-02,-2.786352602839852876e-04,3.704531490802764893e-01
3.468868182874228490e-01,-2.616486462236874977e-02,-2.514691749321801284e-02,2.305557336236667594e-03,4.363266018462044586e-03,5.352552468245421391e-04,3.726429641246795654e-01
3.588713471980290448e-01,-2.011751981806764178e-02,-1.969467816571285335e-02,-2.972776094650318615e-04,-1.046723589978817157e-03,7.283443527863747192e-03,3.789923191070556641e-01
3.630198566195173004e-01,-1.773835115147379127e-02,-2.991422436726484668e-02,-3.138065321345580999e-03,5.072804326428948310e-03,3.006057214667014546e-03,3.871627449989318848e-01
3.397859063294008664e-01,-2.028751235684020382e-02,-3.493074755007199994e-02,-7.883890165077532975e-04,3.465359027097555944e-02,3.533066299966028216e-03,3.725343644618988037e-01
3.062716736849246946e-01,-2.760959132276621930e-02,-2.144191431545026949e-02,-2.474681810340350219e-03,3.812470372386319445e-02,-1.133901477020269081e-03,3.373991250991821289e-01
2.963389884398589524e-01,-1.523630906200279522e-02,-3.434514240487313019e-02,-1.023559306712482292e-03,2.110034586803194792e-02,2.178688296331904566e-03,3.236529231071472168e-01
2.919702689051827393e-01,-2.803468209298645708e-02,-9.110188405485400431e-03,7.200769355858560161e-04,2.021116255316997518e-04,4.206132561995402919e-03,3.110629022121429443e-01
2.752338309379613324e-01,-6.443393649212064700e-03,-2.089085402336095243e-02,1.801056036621141547e-03,2.461178790262953317e-02,4.211439346253060927e-03,2.924046218395233154e-01
2.838906847482489115e-01,-1.479163273095489284e-02,-3.258342390302981784e-02,-7.992612094743433218e-03,5.743892964135163814e-02,2.467698312639926474e-03,3.239589035511016846e-01
3.325725420752900785e-01,-2.643291081609883131e-02,-1.618425831294206807e-02,2.624797125650140794e-03,1.929295354181471273e-02,2.938503340480925867e-03,3.556316196918487549e-01
2.469441574561418440e-01,-1.000988121358870053e-02,-2.194121211278469985e-02,-3.152892382253491468e-03,4.220442427189029927e-02,-2.640792327187530854e-03,2.731811106204986572e-01
3.182863941394142304e-01,-2.530205727774864632e-02,-2.769205498634316753e-02,2.850021532835048978e-03,7.032480433675862563e-02,-2.885357779384514244e-04,3.657065331935882568e-01
3.510203185107912960e-01,-1.295917478223135300e-02,-1.118041570492933623e-02,3.439111481110261777e-04,-9.182625964541616531e-04,-8.064497528579324739e-03,3.633659183979034424e-01
3.506666988277731822e-01,-1.688384063808226476e-02,-1.312522379794620053e-02,-5.592653898870233618e-04,-4.187965118218693172e-04,-2.393719358300332861e-03,3.657112121582031250e-01
3.536850918992863746e-01,-2.105863472666488767e-02,-9.491977349934982433e-03,-1.226458457445668733e-03,1.810594992478641811e-03,-4.286059469891849438e-03,3.691904246807098389e-01
2.654736628969748269e-01,-2.278200824620146836e-02,-1.867904080550177037e-02,-5.492381200865023572e-02,-2.360922779735799906e-02,-7.535586504384268226e-03,3.046602606773376465e-01
3.638251158951750219e-01,-4.546326650187740293e-02,2.479151190355730061e-02,-2.216180840241447486e-03,8.611833833087130692e-04,-4.831321956091466814e-03,3.791902363300323486e-01
3.095398149995026160e-01,-3.797438865796234908e-02,-3.045460586371248612e-02,-6.214588505426640874e-02,1.342267168003018684e-03,1.281131523189437760e-03,3.602861464023590088e-01
3.450326177026576957e-01,-2.639689509432063819e-02,-3.869539880457414927e-02,-5.654285978524579504e-04,-4.032314958295524806e-04,-2.644488991520622511e-03,3.777586519718170166e-01
1.690118024377034733e-01,1.259655497071950764e-02,-4.675086045056719986e-02,-7.085736120857852316e-02,-3.685369629495115207e-02,2.546872632632735632e-04,2.375031858682632446e-01
2.265775780925469440e-01,-6.732072088657697906e-03,-1.949743831658397319e-02,-8.080785956502811729e-02,-7.917427384756717257e-03,8.825044134787605327e-03,2.785427570343017578e-01
3.861146641653231404e-01,3.052786253643635650e-03,-3.813258045452924683e-02,-9.586451109175027699e-03,7.247144620358454345e-03,2.129654309209135649e-02,4.074347317218780518e-01
3.567831915728993941e-01,-3.033362059185085169e-03,-2.159397968911180854e-02,2.257782397725057594e-03,1.649719365240173187e-03,1.711952811909050326e-02,3.706663846969604492e-01
3.721900735318011688e-01,-1.155367511052082796e-02,-2.274399169846708091e-02,-4.446317468678488358e-03,-6.669311201143477558e-03,2.391677708723291204e-02,3.919023871421813965e-01
3.695244110103885760e-01,-9.594986989029830049e-03,-3.352980120746121284e-02,2.244064093906562862e-02,1.361112900928372615e-02,8.369800881830563588e-03,3.945316672325134277e-01
3.744008577517649594e-01,-1.104903617549873873e-02,-3.459389886428299032e-02,1.207860694157879560e-04,2.285146174778419654e-03,7.015851724675957295e-03,3.979506492614746094e-01
3.699661961539699728e-01,-6.147238274928606971e-03,-2.551582500790325336e-02,-4.860966146339610987e-03,-8.500101014965205648e-03,1.454002756123154091e-02,3.873540163040161133e-01
3.693793057238377586e-01,-6.440417038621332191e-03,-2.172459169624813002e-02,-5.829910313311680633e-04,2.555500534373059303e-03,1.697501713527294412e-02,3.848418295383453369e-01
3.533000869454026582e-01,-2.716747862538326785e-02,-1.122467842830382478e-02,-9.260512009562178130e-04,5.420724226973821711e-03,5.636865241953941709e-03,3.730014264583587646e-01
3.672318481843083182e-01,-2.465010842240719646e-02,-1.388747256981229250e-02,1.562515419884732233e-03,8.235533686731941888e-03,8.925485124978723914e-03,3.871942758560180664e-01
3.682654048812001313e-01,-2.692342126819188830e-02,-1.851705905671305330e-02,3.243607121986962763e-04,8.344307387197505421e-03,1.548324805287234172e-02,3.922386467456817627e-01
3.733118843982588531e-01,-2.709664141990156261e-02,4.943046035966597307e-03,6.253617233900063757e-03,7.117195812749305128e-03,2.717278171367508086e-02,3.885986804962158203e-01
3.598141255888742673e-01,3.331407998524826830e-03,-3.657273525616713816e-02,1.005200355982937242e-02,1.929111927395123650e-03,-4.293404395654268693e-03,3.785062730312347412e-01
3.540932053653867428e-01,-3.068306862713687799e-02,-1.441321279576382453e-02,-4.309662726745283764e-04,4.955795739614480590e-03,1.064888405530109439e-02,3.774541914463043213e-01
3.531051577853546175e-01,-3.427554709822167034e-02,-3.407398722198140550e-03,1.136721185188174603e-02,1.460070589033316685e-02,1.107325916924351353e-02,3.747718930244445801e-01
3.348749385834071113e-01,-2.433582761364158631e-02,-3.158957598010070367e-02,-1.357475644782286722e-03,1.039496506946502134e-02,6.534414343793724933e-03,3.635222315788269043e-01
3.544287023235909162e-01,-1.607002967298043483e-03,-3.044035195028310659e-02,-3.218241185468685706e-04,1.847519402213494439e-03,-1.295002897010491191e-02,3.719840645790100098e-01
3.492457389083145625e-01,-2.503984501794190298e-02,-3.127500913258590698e-02,-2.518870028958520788e-03,1.698569572310059533e-02,5.328761253960651555e-03,3.787242770195007324e-01
3.207423442733140506e-01,-2.705760898586967445e-02,-1.718741367934373265e-02,-2.082689704365422306e-03,1.849352748770724184e-02,-3.553662731017627908e-03,3.445378243923187256e-01
3.654463485353295904e-01,-2.816198425755281343e-02,-2.603325621919291843e-02,2.757778511291618211e-03,-5.968292061606683989e-04,6.532266462647830587e-05,3.925787210464477539e-01
3.421966350311171357e-01,-2.882739115886556736e-02,-2.373166298922463335e-02,-4.547767273998958373e-03,5.307205086288059766e-03,1.086509067607485625e-03,3.687061667442321777e-01
3.501465718267763316e-01,-2.794214625962504472e-02,-3.185254971384771094e-02,-1.022439622628280691e-02,1.488737980170196443e-02,3.692545661897723465e-03,3.813977837562561035e-01
3.314877081646784851e-01,-2.723259447348116979e-02,-2.109710922641058750e-02,-1.992679314798623952e-02,1.048964577933753431e-02,-7.092143636163283048e-03,3.580352067947387695e-01
2.617492282560377470e-01,-2.281191778882930843e-02,-2.087646837131443278e-02,4.962452990723611318e-02,3.910121930829344936e-03,-4.410412202556193337e-04,2.964157164096832275e-01
3.205947035778842213e-01,-2.933703530618056443e-02,-2.397795917835388035e-02,5.129866752353650500e-02,-1.566136496847818013e-02,5.834027507609981268e-03,3.596362471580505371e-01
3.538945106237097460e-01,-2.596663461941128848e-02,-2.272141736780133869e-02,-4.593054922910796674e-04,9.935980587664099747e-04,1.342492630018687428e-03,3.782608807086944580e-01
3.559921793064934614e-01,-3.581762107908750825e-02,-2.676957283363665119e-02,2.302841551601620546e-02,4.205370386220950996e-03,4.024286741872120017e-04,3.894818723201751709e-01
3.442418006692231081e-01,-3.765894480853274051e-02,-2.240012794510989891e-02,2.892906776857805118e-02,-8.505494958839319303e-03,3.309480656593870047e-03,3.781722187995910645e-01
2.986595044711664038e-01,-2.965548691746150434e-02,-1.576615591312449660e-02,1.991232544812596150e-02,-2.353408869037181168e-03,1.403444167208302111e-03,3.234742581844329834e-01
2.976449413820082546e-01,-2.818678332131752118e-02,-1.143120761585185441e-02,1.923263525193675411e-02,-3.188787953047072469e-03,4.238539258809366668e-03,3.196586370468139648e-01
2.944668445001847878e-01,-3.575474108426077158e-02,-1.101668875342000364e-02,4.021226466997868121e-02,-1.716687737493971001e-03,2.662445836157380577e-03,3.261447846889495850e-01
3.009828826561221637e-01,-2.989924958919173981e-02,-1.702951346016863543e-02,1.874338461462304525e-02,-6.444216060821919556e-03,4.272312493017831319e-04,3.264495730400085449e-01
3.657382992818708489e-01,-3.062983690957901683e-02,-1.454575465862859018e-02,-7.914894223052887584e-04,1.405149276045563429e-03,-8.150123179864413731e-03,3.888421952724456787e-01
3.524632795881956215e-01,-1.988210529710349173e-02,-1.073188045312506445e-02,1.237839554014665000e-03,-9.637986979791435347e-04,-7.469853127779486034e-03,3.680931329727172852e-01
3.543275622576577688e-01,-1.974545687495415924e-02,-1.226695585145212708e-02,-7.833430504151339658e-05,1.121369580460943949e-03,-1.061757321999911782e-02,3.708517849445343018e-01
3.733158902836221649e-01,-1.242497483876991993e-02,-1.636956582454021647e-02,-3.563949393106347020e-04,-7.822763763708678918e-04,-2.203041667302644072e-02,3.896041512489318848e-01
3.634783606880198081e-01,-2.379660146877496385e-02,-2.442716908633701944e-02,-2.296046934942085494e-03,4.256719390509255095e-03,-3.303375193242455345e-03,3.877233564853668213e-01
3.606709473652494613e-01,-1.906294048284443154e-02,-2.324257895819861752e-02,-1.189802036576747060e-03,2.463772280760051416e-03,-9.548467350489567643e-03,3.822282254695892334e-01
3.449232225230378646e-01,-2.252704483456174911e-02,-4.172894785933750628e-02,-5.221056046997979688e-04,3.687295747404688534e-04,-2.254761144823523057e-03,3.774395883083343506e-01
3.635096214017518035e-01,-1.411646688270462580e-02,-1.756103846645876154e-02,4.196870279890266460e-03,-2.905304098932731411e-03,-1.598532966413223830e-02,3.804718554019927979e-01
3.698711586504632720e-01,-4.670770142935523617e-02,-6.635858303564529104e-03,9.061434147002295474e-04,-5.341538165753305888e-03,-1.039720085627924293e-03,3.981732130050659180e-01
3.590638338012791531e-01,-4.430675930612970603e-02,1.101554460038017824e-02,9.498559389048524468e-03,-1.059455469446115607e-03,-1.143384940917311667e-02,3.796303868293762207e-01
3.805157086545363221e-01,-3.380999519192917635e-02,-1.720879751585435713e-02,2.514662577499472262e-03,-2.326248898688142511e-02,-6.469112896481664897e-03,4.084495604038238525e-01
3.546964423652050336e-01,-3.007878484063924995e-02,-3.137599449965422505e-02,-4.225675690263812389e-04,-1.466678031876058556e-03,9.013677873084326728e-04,3.854376971721649170e-01
3.597257708229378848e-01,-3.264968717234431606e-02,-1.548054251457725572e-02,2.288282062431739455e-03,-2.610631940030776199e-02,-7.599261010283154920e-03,3.869755864143371582e-01
3.550450582415067835e-01,-2.653886929824797458e-02,-1.572577620923376607e-02,1.735160601040755708e-03,-8.130824671410500151e-03,-6.860714081393630946e-03,3.767567873001098633e-01
3.581277828714489742e-01,-3.754256393261087843e-02,8.552094397726278663e-03,5.997898854353753964e-04,-6.196476911565749340e-03,-1.153844105933091689e-02,3.754425644874572754e-01
3.372330652488073621e-01,-3.247730112351482346e-02,-9.307127624611388761e-03,7.780334682255382259e-03,1.956872539459111882e-02,3.588420678343586748e-03,3.605903387069702148e-01
3.046544655409456070e-01,-2.256423049424785554e-02,-1.836717491208954278e-02,8.616787956753982347e-03,3.662177263436965785e-02,-3.264970784579534872e-04,3.316064774990081787e-01
3.414676195149071725e-01,-2.907779941425145398e-02,-3.370368899621165037e-02,6.702602866821102956e-03,1.619283215902736495e-02,-3.257674845862194423e-03,3.741559088230133057e-01
3.660298739166381043e-01,-3.316204610422013310e-02,-2.738896651640732038e-02,3.062395715408322734e-03,8.450009705133671584e-03,2.453093492527793447e-04,3.966427445411682129e-01
3.448650394280672882e-01,-2.274454803977116191e-02,-3.700492279857126032e-02,-2.745247941480816623e-03,2.162646119925685367e-02,-3.709888810058275827e-03,3.768944442272186279e-01
3.527906693958059448e-01,-2.808578136744352416e-02,-2.776550668072286232e-02,-2.669654409070949461e-03,3.881616306136801732e-03,2.093064870710014454e-03,3.808211088180541992e-01
3.438230559847241796e-01,-2.757931441388822291e-02,-2.468051305670507234e-02,-3.819677470679457704e-03,2.847524455553820943e-03,7.771814421315894218e-04,3.700559437274932861e-01
3.449117312919108280e-01,-2.724584685665384920e-02,-3.164976041597622469e-02,-4.002577025838397612e-03,1.417831661983542458e-03,2.182511549047422370e-03,3.744702935218811035e-01
3.395310063844018678e-01,-2.619690883073694243e-02,-3.129556941023733940e-02,1.249486107454286744e-03,2.952329131619120615e-03,2.668436209767545506e-03,3.683745563030242920e-01
3.595974318901330458e-01,2.650004167271818867e-03,-3.071787996466907034e-02,1.244120564891851646e-03,-1.160539753799414223e-02,-2.295223453427761018e-02,3.773918151855468750e-01
3.405588718088443101e-01,-2.548495274083725781e-02,-3.223365921577395210e-02,-6.152809673094054854e-03,6.528249339778862889e-03,8.720778661032686048e-04,3.697940707206726074e-01
3.677802629410364954e-01,-2.998580296516853427e-02,-1.320963234082181414e-02,-1.759987663702045329e-03,-1.321737055082530463e-03,6.048665603177438496e-03,3.898083865642547607e-01
3.563259457054117063e-01,-2.674216705382090331e-02,-1.706381339535445463e-02,1.370001859781863575e-03,4.274440756304423612e-03,4.113916131794058753e-03,3.784687519073486328e-01
3.684309544403502890e-01,-2.195517998668700121e-02,-1.734934033105087203e-02,-1.883660504799460587e-03,5.021679007770601250e-03,9.858642422075005948e-03,3.885902166366577148e-01
3.592871838631516712e-01,-3.246405123441326035e-02,-9.053039621447961371e-03,-4.400314955977372572e-03,-4.959222295957495599e-03,6.630150708945415847e-03,3.809324800968170166e-01
3.656370644589920782e-01,-2.907021306319876319e-02,-2.401967199222074245e-02,-1.033509355660317507e-02,-3.497814681748574739e-02,2.221235226425886510e-03,3.972801566123962402e-01
3.571782924755114164e-01,-2.718165936989169751e-02,-2.573456690750353104e-02,5.339318292356213256e-04,5.737372993388567717e-03,3.573088652963877392e-04,3.837687373161315918e-01
3.585635491466627744e-01,-3.123469390157695980e-02,-1.611987947451970493e-02,5.073286659450395968e-04,-7.434781596726136718e-04,3.344530821194275413e-03,3.825119435787200928e-01
3.562923122186199554e-01,-3.107214595511034738e-02,-1.699597665686283787e-02,3.114328391201286617e-03,3.721342115790510739e-03,5.909206291513362241e-03,3.807520866394042969e-01
3.430837057208521723e-01,-3.814406904571360224e-02,-2.261520213128248580e-02,3.764362824215498633e-04,-6.772951001969352344e-04,2.471262179302320932e-03,3.737323284149169922e-01
2.953334855794651492e-01,-2.573639393753111848e-02,-2.530061593112457874e-02,4.456981137832746048e-02,-3.334287710829725825e-03,2.883888803993580729e-03,3.300967216491699219e-01
3.259251657483526743e-01,-2.800966799133516871e-02,-2.006735324818564870e-02,1.493804908390988784e-02,3.537558963836880642e-03,-2.772863882590687577e-03,3.510725498199462891e-01
3.360608657413960976e-01,-3.819477707604460037e-02,-2.039613716258550924e-02,1.195774730654298491e-02,4.556818306091482695e-03,-1.089667346513651649e-03,3.663572669029235840e-01
3.380723410558906239e-01,-2.674891251340827392e-02,-2.347013993416599553e-02,8.376781481700066798e-03,-1.715830450594409227e-03,1.957479301845262143e-03,3.635106086730957031e-01
3.306794951034613961e-01,-2.982992334013545577e-02,-2.576030844715035406e-02,1.561841658670622135e-02,2.271698247476093384e-03,6.064223249226202922e-04,3.595342338085174561e-01
3.271630057952754078e-01,-3.695943330450746078e-02,-2.154554052082788274e-02,9.994810566849025857e-03,-6.306209087860829843e-03,1.853019657063813101e-03,3.572666943073272705e-01
3.595214849877314545e-01,-3.746689038593506438e-02,-3.521775294365925291e-03,1.456886150914948191e-03,-8.027586289104672243e-03,1.031845938889451933e-02,3.818315565586090088e-01
3.585213083019697100e-01,-9.227004348695722058e-03,-3.366575276346700507e-02,-3.940878644438498314e-03,-1.232638645681273732e-03,-3.118402136139231226e-04,3.806242644786834717e-01
3.727861930956941072e-01,-3.032716702815949072e-02,1.091556832368556496e-03,-5.003341788607315425e-03,1.073645712448102925e-03,-2.204725619001018933e-02,3.903319239616394043e-01
3.542371209043233549e-01,-1.616673811643060121e-02,-1.152554215102874480e-02,3.064484085922118402e-04,-6.592476557610673672e-04,-1.225733314249842845e-02,3.687190711498260498e-01
3.640951780458273057e-01,-2.513844610746815422e-02,-2.461383416178761219e-02,3.785268644655724254e-03,-2.930365879256547224e-03,-6.702222271483282770e-03,3.892330825328826904e-01
3.594277358462291683e-01,-1.817168742514796431e-02,-4.937021675909786245e-03,-3.729609654488288267e-03,2.722836882390881029e-03,-1.253276626068677672e-02,3.718793690204620361e-01
3.626061777583574619e-01,-2.708794323577018437e-02,-1.150520622256778758e-02,4.567402337303134996e-03,6.779390023932941288e-04,-9.481879994449812776e-03,3.825774490833282471e-01
3.535929464175458503e-01,-1.899857869981885772e-02,-1.029136984539189004e-02,-8.018420680890368454e-03,3.693562396540796787e-03,-1.588117639601405173e-02,3.696572482585906982e-01
3.394212562546857215e-01,-3.647010697074296037e-02,1.028512139883484833e-02,-8.353076247616107383e-03,-3.528066581219173325e-02,1.869716691795600752e-02,3.617979288101196289e-01
3.548181583700436570e-01,-1.321750948608013676e-02,-9.214048345630776460e-03,1.351000270885066318e-03,-5.074842923392858252e-03,-1.943961765885371049e-02,3.677081763744354248e-01
3.305543679610603025e-01,-2.193296266125363547e-02,-3.388613817175073484e-02,-2.546387686599135402e-03,-9.631903561857236770e-03,-4.041992962277939083e-03,3.590965270996093750e-01
3.274030513656496777e-01,-2.512724345396968872e-02,-3.134737284577729377e-02,-1.877811487948828975e-03,-5.400503003954584130e-03,-5.517342378548517785e-03,3.559472858905792236e-01
3.939454325825052505e-01,8.242105496690549371e-03,-6.921522076949837565e-02,-6.111141231843143784e-02,4.854467748420553813e-02,-2.792502769606151902e-02,4.530510306358337402e-01
3.529688234176124317e-01,-3.043859024201772678e-02,-2.851969583931404650e-02,2.405699075561171761e-03,1.308690511234279459e-03,-2.123104663572928600e-03,3.824986815452575684e-01
3.496885132341991387e-01,-3.264379297579231287e-02,-3.064156232749931652e-02,-1.085008847580706077e-03,4.927639099836219954e-04,-3.038300795356303242e-03,3.813770413398742676e-01
3.504937392762189630e-01,-2.894842980545322964e-02,-2.979998220155491429e-02,4.014604405144994552e-03,6.139704227160771265e-04,-1.752848694495774901e-03,3.799459040164947510e-01
4.531577797966421239e-01,-6.700526211164070656e-03,-1.094487454806372662e-02,3.924256166265317758e-02,3.369968103435717205e-02,4.275567301517797791e-02,4.763932824134826660e-01
3.555233501716781319e-01,-2.650686464668627895e-02,-2.470445573438598275e-02,-1.290234615428198766e-03,-1.930761513107508761e-03,5.935909522996523973e-04,3.811548054218292236e-01
3.525326684821200596e-01,-2.794503673476234074e-02,-2.447460576571255930e-02,-6.147619172310358256e-04,5.717386883466846854e-04,-1.772531891616519644e-04,3.787573277950286865e-01
3.449990052362340576e-01,-2.309535426405504022e-02,-3.825281222534898662e-02,-6.005654348550643453e-04,2.824586439689785364e-04,-1.157936927314305890e-03,3.759094774723052979e-01
3.548213876908244413e-01,-3.007298100773556082e-02,-2.942439826044510043e-02,1.574978666726542130e-03,1.584602471366062778e-03,-3.918542259621578261e-03,3.846498429775238037e-01
3.561615318607317948e-01,-2.824969401700697103e-02,-2.907201070103429541e-02,1.630535476532217996e-03,8.444629158203395200e-04,-2.454634894531947456e-03,3.848596811294555664e-01
3.542675505977705974e-01,-2.874511675563071189e-02,-2.902082736925049034e-02,-5.782758290197207666e-04,1.558633480835428138e-03,-2.319316358591566683e-03,3.831824660301208496e-01
3.500358847815921437e-01,-2.908866280634123114e-02,-3.072462267639028410e-02,2.623480220353606104e-03,4.061929859266409475e-03,-2.676432371066663797e-03,3.800657391548156738e-01
3.537681324163486352e-01,-2.966146745106482130e-02,-3.065719372069067306e-02,6.319746667210505379e-04,1.587956480678306363e-03,-2.843820347706391399e-03,3.839714527130126953e-01
3.544968579958417410e-01,-2.945805518327027084e-02,-2.995178577048981938e-02,1.772576665076230733e-03,1.004250406963179453e-03,1.574171440396926090e-04,3.842183053493499756e-01
3.530399582588428786e-01,-2.907198405158997745e-02,-2.953675533185118329e-02,-7.849342144268750630e-04,1.033566095707704868e-03,-1.565931123688478737e-03,3.823607563972473145e-01
3.537401363163705792e-01,-3.241817039918706844e-02,-3.021951968536035205e-02,7.460973492109660614e-04,5.165033610029538466e-04,-3.618453880598177484e-03,3.851178884506225586e-01
3.744246376469428372e-01,-2.130894366079574831e-02,-1.754376373070709594e-02,-3.329255364050712034e-03,-1.006715601171752610e-03,1.599590393967543350e-02,3.948836922645568848e-01
3.534665634265475309e-01,-1.767963758953569609e-02,-3.696942339184786097e-02,2.776083180608669015e-02,-3.300614385627417130e-02,-4.369785082942196676e-03,3.884822130203247070e-01
3.459470211138360174e-01,-2.740039543735045546e-02,-3.026783860512541335e-02,1.255115525700988867e-02,-1.649914071665884233e-02,3.520340761532182641e-03,3.765547871589660645e-01
3.414925216738112779e-01,-3.250327393181354219e-02,-2.568484114027266840e-02,1.114900253284837814e-02,-1.144168007684294094e-02,4.462781144135177618e-03,3.717454373836517334e-01
3.356313835318174288e-01,-3.806260274060385695e-02,-2.361443435706472860e-02,2.164182215626827416e-02,-8.189854807853804569e-03,6.908101708217750762e-03,3.690612912178039551e-01
3.172531298518653231e-01,-1.675297617364365776e-02,-2.630169709694302194e-02,2.836981670103062847e-02,-4.870836756859606154e-03,-4.220513388599932136e-03,3.426072597503662109e-01
3.510439594538112829e-01,-3.199351967470268066e-02,-2.593814987034159802e-02,-9.174371878271836075e-03,1.476844989152194601e-02,7.037925643446299277e-03,3.814319968223571777e-01
3.517433152130574614e-01,-3.049349177273349976e-02,-2.818953098830581649e-02,-2.012322194057631491e-02,8.353672975555566371e-03,5.575941703952938533e-03,3.830758333206176758e-01
3.544251673550548598e-01,-3.463900937384928325e-02,-2.940647336323778949e-02,-1.794159925641364284e-02,7.931841958536233264e-03,2.156060195016445708e-03,3.879831433296203613e-01
2.525114342793673416e-01,-2.267767241609749962e-02,-1.519471090244817191e-02,-4.013253853075311739e-02,3.297586462465386392e-02,4.179868430596082873e-03,2.861333787441253662e-01
3.534902368259747463e-01,-3.363894294495894943e-02,-2.604235364706378175e-02,-1.890762565586160890e-02,5.389602397588923871e-03,4.250534167355062357e-03,3.849671185016632080e-01
2.953373603805342640e-01,-3.758951433175375390e-02,-1.760936807014029659e-02,-5.334450408504907981e-02,8.930480247550390965e-03,-4.075554107570676654e-03,3.367693424224853516e-01
3.232421995824727445e-01,-3.016251350274640197e-02,-1.973441718452761950e-02,-2.522035454133729829e-02,2.049901646163221694e-02,5.096046427727564214e-03,3.529377281665802002e-01
3.618323450831072430e-01,8.706671949585575998e-03,-2.836314171748330337e-02,5.060076593546015272e-02,4.616403255368019265e-02,3.274343895888452011e-02,3.955417573451995850e-01
2.850086410300566864e-01,-2.087003630710493329e-02,-1.860768240618856928e-02,-4.161883970220008055e-02,1.660232602448643430e-02,-2.544561300458441202e-04,3.144811093807220459e-01
3.970890196156746099e-01,-2.872968705456402372e-02,-9.948550034283548671e-03,-1.847264437848061564e-03,-1.267958284192632901e-02,1.996005021709774258e-02,4.187656939029693604e-01
4.118148421235131029e-01,-3.792934518600094007e-02,-4.261302277944439831e-03,-9.232686800578171829e-03,2.050662107319462316e-03,2.287960519088454159e-02,4.360047578811645508e-01
3.695578244238666987e-01,-2.847434153261899081e-02,-4.374408346753816401e-03,-1.159544999720079489e-03,5.039282124724185153e-04,1.300202405983540491e-02,3.872077167034149170e-01
3.675529161652280608e-01,-2.114707938343809990e-02,5.026116153544618603e-03,-2.083723232727575491e-03,-4.429959677515092013e-04,2.166315980501951066e-02,3.781807720661163330e-01
3.817137922723180532e-01,-2.863649279280888749e-02,3.525707936286398558e-03,-1.736946917158035779e-03,1.844518724651373481e-03,1.806154483140298347e-02,3.965121805667877197e-01
3.700103180428208627e-01,-2.425667080981694368e-02,-5.483313743192497203e-03,3.908123309493477179e-04,-8.627953838092125918e-03,2.868772120144564425e-02,3.887028694152832031e-01
3.883157981867060293e-01,-3.043037442930746073e-02,2.409378309616350133e-03,8.868190005234864379e-03,-1.526650748005352158e-03,1.498574616732259446e-02,4.044649899005889893e-01
3.879824424481290723e-01,-3.787157630991519475e-02,-4.093550243597060545e-03,4.012079776448505310e-03,7.244777822526814876e-03,2.523660457324337913e-02,4.125827252864837646e-01
3.604103972963443314e-01,-2.471042655651617403e-02,-2.444897462173029057e-02,1.930244767657729715e-03,-6.415770625602693024e-05,-3.646068106949171012e-03,3.850564956665039062e-01
3.516031655026667924e-01,-1.884375055162862411e-02,-2.681551308996707461e-02,-3.432579356233671740e-03,-4.959478047386311692e-03,-6.048780101348745497e-03,3.747885823249816895e-01
3.578355981332510538e-01,-2.865404532220369727e-02,-2.788259737654216752e-02,-3.939731364214411370e-03,4.308684975536732249e-03,1.905071256121115353e-03,3.862510025501251221e-01
3.524973471144109416e-01,-3.130477805104656119e-02,-2.810831284480605485e-02,4.543048337298862286e-04,1.269489200671264926e-03,2.440365141875918027e-03,3.822444081306457520e-01
3.578562931801533842e-01,-2.756945721353529222e-02,-2.899201854625410579e-02,-4.304186508704001442e-03,3.870298555730420330e-03,2.175113040643697829e-03,3.862875103950500488e-01
3.394357925551176325e-01,-3.165819785745307979e-02,-2.046345268797500339e-02,-1.491475728248158397e-02,2.627390608014526160e-03,-4.516680927198393064e-04,3.665657341480255127e-01
3.394623515865162755e-01,-2.248004267090344954e-02,-3.785818399066379070e-02,-1.658726894209782191e-04,4.984991475471912958e-03,-2.960407095086171111e-03,3.700077235698699951e-01
3.450904260617822517e-01,-2.488753615019451138e-02,-3.859679405272803399e-02,7.750057271925959047e-04,3.609772767966761388e-04,2.045718005136300862e-03,3.770391345024108887e-01
3.659004918893686842e-01,-2.966569508168154234e-02,-2.781888754076974890e-02,-9.119174557242900117e-03,9.319327869949238161e-03,-1.284110707328735713e-03,3.952979445457458496e-01
3.528944522036398523e-01,-3.147914025004081018e-02,-3.001904741367722451e-02,1.265696106683878580e-02,-1.678978063436562668e-02,3.658861470037156564e-03,3.854223787784576416e-01
3.314964260019203079e-01,-2.743545918042275544e-02,-2.525062066027405905e-02,6.037370951372906906e-03,-2.169939396564010692e-02,5.846269603088320027e-04,3.599661588668823242e-01
3.531976056837085598e-01,-2.796424784397391616e-02,-2.772243437847451974e-02,3.463556480499238935e-03,-1.953386070985518516e-02,-1.382787765115103449e-04,3.825872540473937988e-01
3.545025757777170994e-01,-2.823563177513349620e-02,-2.700656799627623728e-02,3.564411078042129151e-03,-5.645310937711141112e-03,8.784336896472187510e-04,3.823031187057495117e-01
3.548518084830282748e-01,-3.231860304168002185e-02,-3.009400414838783733e-02,5.289596229552422785e-03,-7.424265229659077550e-03,5.080030867692512594e-03,3.864858150482177734e-01
3.001932833046079829e-01,-1.694773747707171985e-02,-3.475566007153169101e-02,-1.234476683811963453e-02,-4.014720917480692902e-02,-7.285359591118033794e-03,3.346565067768096924e-01
2.891058687040269359e-01,-1.430605671206690299e-02,-2.664630673345161349e-02,-2.266968160275460286e-03,-1.695013253314231472e-02,-2.466333431475154891e-03,3.112086951732635498e-01
3.253506915235091501e-01,-3.980635623029263326e-02,-1.271497648103712963e-02,-1.562034520841382168e-02,-2.619801781717185502e-02,1.092287934428282266e-02,3.568331897258758545e-01
2.492387886952633913e-01,-2.054664022167011772e-02,-1.880460109432684213e-02,-5.055372122670225357e-03,-4.371334354283796381e-02,-4.576835119662550286e-03,2.796235382556915283e-01
2.542937112684213741e-01,-1.396360074176050681e-02,-2.538320065646565427e-02,-1.467786115181309720e-02,-5.070391070742643475e-02,-4.493587291585690764e-03,2.890940010547637939e-01
3.486299833948955373e-01,-2.872668231315433918e-02,-3.752694292111807828e-02,-1.907981462089512054e-03,-2.322726426384356946e-02,-4.161757033669025337e-03,3.840282857418060303e-01
3.257353543444677091e-01,-2.812621620633654063e-02,-2.791476555000896309e-02,-9.121389848237418385e-03,-3.005732191844311119e-02,-5.896540535281466315e-03,3.580606877803802490e-01
3.481463271316233565e-01,-2.166881396884146049e-02,-3.658875362436256329e-02,-6.712951544277485916e-03,-2.431503795979720120e-02,-4.017562817301974058e-04,3.800168335437774658e-01
3.697917429606682460e-01,-4.403934754646721128e-02,2.175211919505945501e-02,1.772374803444897590e-03,5.724379232726255727e-03,1.432201551551048196e-02,3.861103653907775879e-01
3.589268051781299151e-01,-2.186838765592791223e-02,-3.020151197593518022e-02,-1.221576905282950251e-02,-1.451444037663121404e-03,2.238512128917125466e-03,3.856379985809326172e-01
3.617481686037896105e-01,-2.634058338754030615e-02,-2.509721352949256801e-02,-4.911166787499531526e-03,-1.200347550312376096e-02,3.093523672599934882e-03,3.881561756134033203e-01
3.506733709861343251e-01,-2.518490117564750608e-02,-1.880805794663897856e-02,7.010402002552505295e-04,-2.621833844862500769e-03,4.118892964005850706e-03,3.728086650371551514e-01
3.549228906591652133e-01,-3.032177342315722779e-02,-2.388721315314590310e-02,-8.504927555635101097e-03,-1.120329360761410792e-02,1.474409247577322018e-03,3.828524947166442871e-01
3.509469179783356041e-01,-2.729323053080959238e-02,-1.730672134526575756e-02,-1.276741155002873458e-03,-1.896333330512996358e-03,1.829128303385408987e-03,3.733815252780914307e-01
3.962428637652394836e-01,2.749040883315456707e-03,-3.838039191189457355e-02,8.571053400916746334e-03,-1.148871610900497296e-02,2.962620984649617581e-02,4.194790720939636230e-01
3.764853987668222435e-01,-1.232116456187865028e-02,-1.695730859366151311e-02,-8.474166349565588272e-03,-4.031180149744992974e-03,2.300975399821373474e-02,3.935061991214752197e-01
3.566367600874958410e-01,-1.668657493204586673e-02,-3.614212226181895415e-02,-1.590954545237808354e-02,-5.243595249912754754e-03,-3.128088307119330624e-03,3.845558762550354004e-01
3.616272813048108659e-01,-1.418152917812370850e-02,-2.054711527109670532e-02,-9.812409498801927081e-04,1.075835905491033528e-03,8.327544926534261732e-03,3.793144226074218750e-01
3.546411790651598506e-01,-1.496120004329304365e-03,-2.423014576855286872e-02,-6.142194945614936306e-03,-1.440728172314998702e-03,1.190533227916796589e-02,3.687704801559448242e-01
3.580440831807750746e-01,-1.698115929210541886e-03,-2.479717375216231035e-02,-7.141508060383865847e-03,-3.276945313875438410e-04,1.217484307858295381e-02,3.726335167884826660e-01
3.557133988360702270e-01,-1.456639849369478767e-02,-1.754683476870111392e-02,-1.047084844195216762e-03,1.966340214793768724e-04,1.122207808633765395e-02,3.722912967205047607e-01
3.703278389590490272e-01,-9.181604653434261021e-03,-1.013503059759859881e-02,9.386269328023595735e-04,-1.071826135028731964e-04,2.911060990485873565e-02,3.833211660385131836e-01
3.722597043155926322e-01,-1.365847110914336637e-02,-1.943423147292094866e-02,6.757138810417454705e-03,2.835337861522588352e-03,1.902843865346166494e-02,3.904388546943664551e-01
3.529521897025235111e-01,-1.440026456086701545e-02,-1.900621585459399965e-02,2.971157147624157351e-04,3.596843814888073428e-03,8.771431094728785252e-03,3.700418174266815186e-01
3.647475126480058116e-01,-2.610455733378505561e-02,-2.921507488621175042e-02,-1.132844616555957890e-02,8.397893910397238523e-03,-2.755435944284756813e-04,3.931762576103210449e-01
3.680480573615437789e-01,3.605824085603503981e-03,-2.728872448705493836e-02,1.193911406312716215e-02,-1.047399625041246438e-02,1.246444533428850768e-02,3.824326395988464355e-01
3.699958929029890653e-01,-1.659247165401797619e-02,-1.697391245416532413e-02,-2.258496355298008924e-03,-1.446863717056225216e-03,2.053552017141099459e-02,3.884390294551849365e-01
3.733272049070154863e-01,-1.914135072775316471e-02,-1.705442544114149639e-02,3.835398285855566060e-03,4.188574645354473450e-03,1.460931805845775908e-02,3.923696279525756836e-01
3.724070672065385446e-01,-1.292198652870435449e-02,-2.667321082323256820e-02,1.041002603799405686e-02,-9.618246226148447625e-03,3.370515947443433746e-02,3.974632918834686279e-01
3.806907652217049187e-01,-1.258382080560313532e-02,-9.603139547050332236e-03,6.964290645856624842e-03,1.028521568899396811e-02,2.725816683691240777e-02,3.952131569385528564e-01
4.095986681910246396e-01,-6.782065356295802205e-03,-3.270013622920733831e-02,1.100474882445823081e-02,6.411799120019535253e-03,3.292922560256867498e-02,4.342534840106964111e-01
3.938664653066377697e-01,-8.426980589682914191e-03,-2.802827928916629130e-02,5.357400026912493077e-03,-1.730821547907466715e-02,2.592528650403564533e-02,4.160659611225128174e-01
3.560935642891904784e-01,-2.643908745268191973e-02,-3.015930250483503383e-02,-6.893347962890709196e-03,1.316314677035398603e-02,1.609272756292367624e-03,3.852769136428833008e-01
3.376238279407554610e-01,-2.829622377473484107e-02,-2.973702330948238548e-02,-1.999255502782593032e-03,1.007282484507939814e-02,1.553393340979325314e-04,3.670738637447357178e-01
3.298702328763339353e-01,-3.678011853789833752e-02,-2.211714134369102691e-02,-9.493486264793160254e-03,-4.475454086312770753e-04,-9.570419142845888478e-04,3.599236309528350830e-01
3.558858781845136154e-01,-2.566542118891329549e-02,-2.514659775658564800e-02,-1.112824260376788161e-03,2.501576034577881504e-03,-1.753308741164636905e-03,3.813337385654449463e-01
3.501848091154291520e-01,-3.155892344220856405e-02,-2.973878314759290098e-02,-1.177741652642554744e-03,4.068162411362038350e-03,4.946546139617738827e-03,3.810039162635803223e-01
3.521491337828233092e-01,-2.917944628180282884e-02,-3.174460351193120200e-02,8.308166003845439017e-04,-9.776196505195415467e-04,2.458355462873504024e-03,3.826477527618408203e-01
3.748506011840534446e-01,-1.285146250844038107e-02,-3.405445619423427828e-02,-4.279484629993202810e-02,-5.331605535433904357e-03,-6.574304417558285039e-04,4.056644737720489502e-01
3.541311114545070970e-01,-2.765877430477525767e-02,-3.133436853622453833e-02,-4.036641021741710529e-03,6.350912668573518820e-03,2.547367164838598100e-03,3.838875889778137207e-01
3.452078483331517123e-01,-2.173906121612967368e-02,-4.117821028496632119e-02,6.788552256250687767e-04,2.151837153948002110e-03,-1.229546222212482120e-03,3.770687878131866455e-01
3.535584108422689664e-01,-2.453706767253346910e-02,-1.526302323239009384e-02,2.342437797453426809e-03,-3.641963136741661194e-03,-1.647375368497330100e-02,3.747080564498901367e-01
3.541310895943075576e-01,-2.185783550340031356e-02,-1.466906058440495264e-02,-9.840094482333734769e-04,-7.263925619215095440e-06,-7.686720362526556702e-03,3.726883530616760254e-01
3.569824293884358846e-01,-2.695244861893758559e-02,-1.484817423836867767e-02,-2.936053991132412354e-03,2.469111758725219333e-03,-7.450860224398737561e-03,3.783066868782043457e-01
3.674523049862069568e-01,-2.302879563678980612e-02,-8.017193764935259814e-03,-1.334549851017423610e-03,-4.060873496409306456e-03,-9.213372262000451771e-03,3.835994899272918701e-01
3.601291846264188523e-01,-2.928089896313967877e-02,-7.285392019369951733e-03,-7.082397260065280767e-03,1.073532270527194528e-02,-8.390712612482465610e-03,3.798238635063171387e-01
3.619137527346839578e-01,-2.819414029330058469e-02,-8.214217014897995384e-04,4.380329491164528834e-03,-5.094012290624826481e-03,-1.149330017928631292e-02,3.778714239597320557e-01
2.405837026093722575e-01,-9.353523679924147238e-04,-2.704114794842359115e-02,6.023843801101548025e-03,-3.402211570409796604e-02,-4.463042070671540199e-03,2.626007199287414551e-01
2.088587172050188623e-01,-2.563405067285418060e-04,-5.040855935235316609e-03,-1.121596881980473775e-02,-1.504044581829118432e-02,-1.513846784265740139e-03,2.140453904867172241e-01
1.768597200563595817e-01,1.696283193978201376e-03,3.550031824773189348e-03,3.963238164028996986e-03,-3.694037951253737601e-02,3.267716022050437801e-03,1.858329623937606812e-01
1.622566242421189242e-01,-1.660525828296607886e-03,-1.282496436343948110e-03,1.760419225957182005e-02,-8.707944793521410487e-02,-3.769909635271588913e-03,2.247840315103530884e-01
1.378514296897406233e-01,4.301050825507440889e-03,1.947057754368339971e-02,-2.119177605508554968e-02,-8.175726192442657470e-02,1.119981476042005049e-02,1.944640129804611206e-01
1.739980726058153182e-01,1.583982547807907815e-03,4.360954206038575309e-03,-1.011965032296312759e-02,-3.807135836449509342e-02,-1.663842645872334143e-03,1.841720789670944214e-01
3.442562865948126105e-01,-2.462168254329155648e-02,-2.932205008003618829e-02,-2.840814970301120800e-03,2.570783166028564257e-03,1.917783867649637628e-03,3.713246285915374756e-01
3.448192654778516331e-01,-3.836234735814356145e-02,-3.108487886038402426e-02,-1.714791168666984431e-02,1.091504644863205281e-02,1.061951832139303165e-02,3.816679418087005615e-01
3.293097113007442678e-01,-2.668673983907801639e-02,-2.701093133383800082e-02,-7.325705135367030149e-03,1.925001347604444676e-02,7.965823831828183071e-03,3.582066893577575684e-01
4.092663481214698362e-01,-2.623180439254468865e-02,-1.290309255776711517e-02,-1.300892340289777974e-02,1.568201887376911179e-04,2.970235907345513543e-02,4.326501190662384033e-01
3.952716026487241296e-01,-3.295490719297075599e-02,-1.988035615734926043e-02,1.193456095255232205e-02,1.701262032942186392e-02,2.158461422554293352e-02,4.250215291976928711e-01
3.903926275326973228e-01,-4.166246173856469337e-02,1.052257591085653532e-03,-8.032424432813547836e-04,-4.485020201158117226e-04,1.468340900574524079e-02,4.131469130516052246e-01
3.429872001698319739e-01,-2.369827304608820850e-02,-3.977811162617006513e-02,-1.707390615211195391e-03,1.920130301235124879e-03,1.249263392382056557e-03,3.750167191028594971e-01
4.223487597233636093e-01,-4.401991738210850325e-02,3.866825164997977904e-03,2.343883636962454040e-02,1.581811167150610695e-02,3.163183767327235746e-02,4.504003822803497314e-01
3.753926898714619598e-01,6.201559247953430942e-03,-4.497563270538584845e-02,-1.774091861427019856e-02,5.182971999705692119e-04,5.199369200805458759e-03,3.985492289066314697e-01
3.176848684973089254e-01,-2.089906478524344857e-02,-3.176540675433001115e-02,4.939459293593673889e-03,7.044652996635907688e-03,-3.091893339082719006e-03,3.445099294185638428e-01
3.378681107156790708e-01,-2.164721227866558961e-02,-3.317789917421701262e-02,1.225348541029327044e-03,1.356931803143874085e-02,-3.895002753851399980e-03,3.662404716014862061e-01
3.177029350645950156e-01,-2.254298650999458919e-02,-3.055977801796355697e-02,2.292076460065224988e-02,1.905405727798202206e-02,-6.932645475868955652e-03,3.483800888061523438e-01
3.256320462716079112e-01,-2.642521110304243970e-02,-2.943309709437522126e-02,3.374776425580869495e-03,8.504710855127779745e-03,-6.554323040201948461e-03,3.541078269481658936e-01
3.483055303809595715e-01,-2.677947774119943114e-02,-3.070904102541202607e-02,2.311329451586593194e-03,6.740982574714898465e-03,-1.781530765007206482e-04,3.772672414779663086e-01
3.538700337265084928e-01,-3.081573421411093472e-02,-2.633817660674622751e-02,-8.539368057770924201e-04,-1.261013287471872977e-03,-1.089562160286332900e-03,3.824804127216339111e-01
3.312321824138382831e-01,-2.607335200024052391e-02,-2.990286262457861333e-02,7.939266693703067590e-03,1.066581616768852957e-02,-6.618026377550017235e-03,3.601554930210113525e-01
3.484537167970768179e-01,-2.773674852824251080e-02,-3.349397753222871366e-02,2.985430390413820051e-03,1.046943605086171278e-02,-5.251502435695722462e-03,3.796795010566711426e-01
3.528232466851521365e-01,-2.874179042772334602e-02,-3.045350455613615726e-02,-3.301702268671193041e-03,-7.152709020989417169e-04,4.314818682620968210e-03,3.825415372848510742e-01
3.387641150123560929e-01,-4.133711682526886033e-02,-1.967199166932312449e-02,1.082997010286472018e-04,-3.376769404730695090e-04,-7.262025572233556841e-04,3.697476685047149658e-01
3.518648515080531891e-01,-2.753227538484492865e-02,-2.447508058022615507e-02,-6.501837446527563083e-03,4.945899548581836336e-03,-6.186238972637416074e-04,3.781441450119018555e-01
3.521945096752897575e-01,-2.699977319182822466e-02,-2.843748608767587838e-02,-6.067016437314550620e-03,4.139052801218739627e-03,7.264040739210807836e-04,3.801301717758178711e-01
3.432107866952074371e-01,-2.741004630090249083e-02,-2.539514720715621565e-02,-1.375270822203187530e-03,4.075722177085025835e-03,-3.828704345338828871e-05,3.696925938129425049e-01
3.417372857032263678e-01,-3.956138681114970690e-02,-2.143839422135043749e-02,3.123673723213118286e-04,-2.832058216689000438e-04,-2.427341491807051533e-04,3.725688755512237549e-01
3.477145124898101680e-01,-3.746767542794976480e-02,-2.297652687059226206e-02,8.405418716757111566e-03,3.864744957310618616e-03,-2.142381925116149544e-03,3.785024583339691162e-01
3.439452591256262903e-01,-3.135009164229593526e-02,-2.186412931997006037e-02,1.904079761999646903e-03,-2.217383135133457338e-04,8.391751389357218153e-04,3.706611394882202148e-01
3.440045955605906536e-01,-3.048574230907244442e-02,-2.287672355187442275e-02,7.991964138017805573e-04,3.584024918700487211e-04,-1.333482774916901247e-03,3.707546889781951904e-01
3.472704630474369170e-01,-3.380603591502687189e-02,-2.542940072157109932e-02,1.516735479508721923e-02,-1.308346250086432627e-02,3.376464419717990426e-03,3.785963654518127441e-01
3.234302097832361111e-01,-2.883544109109204001e-02,-1.844330968224297540e-02,3.235075800010401431e-02,4.439402431071480006e-03,-1.076427638181606111e-03,3.517678380012512207e-01
3.328751714724580979e-01,-2.718189743110022150e-02,-2.373641787206945408e-02,1.286727434477418115e-02,-4.006956577819425873e-03,2.731583994845074911e-03,3.591373562812805176e-01
3.453523858776980093e-01,-2.486244300292222986e-02,-2.853894954866639799e-02,1.901931998850565995e-03,-4.150738565044119303e-03,4.648950365421748309e-04,3.721516132354736328e-01
3.506914777540860451e-01,-2.512857884283289933e-02,-2.230988682485315899e-02,1.748209250745024965e-02,-2.174472403548324481e-02,-5.839929959600532496e-03,3.776599168777465820e-01
3.507018434096506598e-01,-2.895215090317979079e-02,-2.866676945652765762e-02,7.317207681586905890e-03,-6.400287950779728549e-03,2.633718329376765182e-03,3.799121081829071045e-01
3.508369928508839886e-01,-2.712018817557040884e-02,-2.676197497490417909e-02,6.895613776422242344e-04,-1.901821846386380840e-03,4.402704852337486195e-04,3.777952194213867188e-01
3.496573746204270083e-01,-2.528042556336154711e-02,-2.661642038215145112e-02,-2.473319058318289732e-04,4.349690057917784090e-04,3.301038738220779490e-04,3.756090104579925537e-01
3.508246493741121186e-01,-3.129039678790043744e-02,-3.043331370458479679e-02,-3.126672851876062791e-03,-3.096057459781028070e-03,-5.950285440588943403e-03,3.819023966789245605e-01
3.535649771460939728e-01,-2.925447585384624571e-02,-2.839641339683116050e-02,-4.022089715695430397e-03,-3.369440904600121828e-03,-2.345242500986007873e-03,3.825206756591796875e-01
3.290620892177605339e-01,-3.715015554166695155e-02,-1.713608616730724621e-02,-9.055343528838563638e-03,2.854219274132832173e-04,-2.255390189647207952e-04,3.569719493389129639e-01
3.510364258785359515e-01,-3.086471667865434143e-02,-2.841814748483681430e-02,4.205569183959028279e-04,-3.393740895122425959e-04,-1.502252358642577369e-03,3.806937932968139648e-01
3.521340204100091298e-01,-3.343209873773150820e-02,-2.758358350238565571e-02,-3.815764920854676501e-03,-2.289106718614285652e-03,-2.842380285282952029e-03,3.827846348285675049e-01
3.519371767786520500e-01,-3.063098514078296808e-02,-3.233951355491970769e-02,-2.288944722372411242e-03,-1.491651280279597471e-04,-3.609283046757851953e-03,3.834968209266662598e-01
3.764260104469671075e-01,-1.172304559680245606e-02,-4.031289207603383495e-02,-1.023242572481516781e-03,7.092966618404306089e-03,-1.981913572009540506e-03,4.034105241298675537e-01
3.755477918788903136e-01,-9.640633373345003365e-03,-4.765537056699648000e-02,-6.832560711269477019e-03,1.096546886534963822e-03,-1.120875867889566981e-03,4.057160317897796631e-01
3.942670140369872733e-01,1.248497567162351607e-02,-4.710454057847945908e-02,6.846494276416374442e-04,4.045619125924993821e-03,-4.828654808731600717e-03,4.149446785449981689e-01
3.780045478589056929e-01,2.780224680992343655e-03,-4.495966024815201134e-02,1.429073176544112984e-04,6.144487268430687092e-03,-6.995811828660425218e-03,4.015541076660156250e-01
3.833016646712035791e-01,-4.566349958762316863e-02,9.435889306368072660e-03,-4.751301153031037804e-03,3.553911883383908260e-02,-1.002645379854068611e-02,4.093528389930725098e-01
3.498379594172133511e-01,-3.116740236796095020e-02,-2.257939910825232377e-02,-2.234597331896587529e-03,4.297974822701963737e-02,-6.339308360929548497e-04,3.840894699096679688e-01
3.613791089945603274e-01,-4.653069987440189292e-02,-1.106401419083988258e-02,-2.012373582459605140e-02,3.047499093672185327e-02,1.233142952260437783e-02,3.970369696617126465e-01
3.744005932128895431e-01,-4.213890200767850258e-02,-1.433664068807524727e-02,2.989002289430719127e-03,6.051648132726928156e-03,-9.732768767412788846e-04,4.035305380821228027e-01
3.576220636140756692e-01,-3.650990957018634964e-02,-1.873716943872910656e-02,7.759351215491590986e-03,4.300111247190040696e-03,2.040345418731153316e-03,3.858751952648162842e-01
3.524707568725379270e-01,-3.639323437736607936e-02,6.316871952549915625e-03,-2.281111289754229454e-03,2.476870815533055437e-02,-9.565525113368974000e-03,3.722385168075561523e-01
3.398084480256933770e-01,-2.421921682396438458e-02,-2.909980515524052125e-02,1.002939152036620186e-02,-8.060347361309427514e-03,-7.300135383197037600e-03,3.673869669437408447e-01
3.369506372008779782e-01,-2.273292319604497402e-02,-3.100245607639076639e-02,1.994514837140581864e-03,-1.247139891162438868e-02,1.468443992171115930e-03,3.645546138286590576e-01
3.368946610198529923e-01,-2.705637256172746530e-02,-2.594723965835912805e-02,2.318851703125468684e-03,-1.294352694196523879e-02,-1.452883956024258322e-03,3.641194701194763184e-01
3.340424736343486356e-01,-2.397233227083978013e-02,-2.486776397711767950e-02,6.759372321443312542e-03,-1.319784672761752792e-02,2.517156839717785751e-03,3.594086766242980957e-01
3.456340304108386774e-01,-2.555465265950163101e-02,-7.364836906458060994e-03,9.064284632983223705e-03,-2.269098889292014976e-02,-5.555596875057326398e-03,3.650257289409637451e-01
3.477368026728255290e-01,-2.356283552783827728e-02,-3.832758533900501585e-02,7.373554496779786407e-04,1.790729993989049074e-03,-1.347726878694748302e-03,3.789198696613311768e-01
3.564652164511156740e-01,-3.470330947349420381e-02,-1.050120221534453502e-02,1.289788776603590509e-02,-2.917381965208969835e-02,-3.172286984844707811e-03,3.836848139762878418e-01
3.316860875732951519e-01,-2.022872154510682585e-02,-3.734609707173311421e-02,-2.745813111583195101e-03,-1.160733908171019020e-02,-2.751595844060092345e-04,3.613695204257965088e-01
3.331293079009461922e-01,-2.041220061054746515e-02,-3.817407823448046300e-02,-2.640256334878174349e-03,-1.438254573051334084e-02,5.585942143635596029e-04,3.636331558227539062e-01
3.369570514355886837e-01,-2.832679079858566040e-02,-2.741012631790137877e-02,-1.219362398686672799e-04,-1.557441911151827632e-02,4.183840419302020382e-04,3.658230900764465332e-01
5.543609077849913636e-01,-7.260742682721477159e-03,-5.778380405737532088e-02,-1.621738977117202080e-02,1.252841542561404856e-02,-3.248489720516418988e-02,5.922600626945495605e-01
3.414954146542726332e-01,-2.716760266532333712e-02,-2.118111555964505288e-02,-1.097721983892095471e-03,-8.897323943397096938e-03,-9.481875679607296289e-04,3.660396933555603027e-01
3.326160802305990760e-01,-2.417900955718810252e-02,-3.267223712353090059e-02,-3.776208332880547427e-03,-1.257886672216017993e-02,-5.193568009722831016e-03,3.619441986083984375e-01
3.294660387315647143e-01,-1.982359995603494296e-02,-3.742024659153006527e-02,-1.130994281761271399e-03,-2.037444029476182580e-03,-3.385421594809131639e-03,3.584827780723571777e-01
3.680818883293778820e-01,-3.062973236957022838e-02,-5.863573185809489718e-04,3.680261090424732581e-03,-1.017362479945656435e-02,7.337877856419643130e-03,3.852370679378509521e-01
3.737368423320086008e-01,-3.510251844372108687e-02,3.290111127673023272e-03,-1.440261354971296903e-03,-2.246004653617078226e-03,8.021378254743093822e-03,3.913330733776092529e-01
3.657936084565246992e-01,-2.713019914879299943e-02,-3.467985583588648058e-02,5.881719091449306991e-03,6.447443815721444135e-03,1.910043323811838611e-03,3.970541357994079590e-01
3.551136378732132060e-01,-2.778485094775573483e-02,-2.501478015507305197e-02,-2.153863011818251023e-03,3.487817342164969796e-03,-1.106044720280080571e-04,3.815871179103851318e-01
3.591047495635180109e-01,-2.992129358526771088e-02,-2.505886625362527265e-02,1.132073531942716588e-03,3.220952006322636875e-03,-5.454324033514898950e-04,3.866641521453857422e-01
3.571269557085236523e-01,-1.881785559820076115e-02,-2.732362432629689697e-02,-1.754831365929373707e-02,9.858588960361087256e-03,-5.367075294244180034e-03,3.819769322872161865e-01
3.635810510858427658e-01,-3.282403488942930991e-02,-2.839836373201026776e-02,5.389970156753363766e-03,1.147206316182581252e-02,4.033101103784917166e-03,3.948835134506225586e-01
3.631084705189716599e-01,-7.745003290422852738e-03,-3.542216026596792244e-02,4.698268116981518458e-03,-1.177222692801340614e-04,-5.172225652418483734e-03,3.856280744075775146e-01
3.524185808466072656e-01,-1.365770837273960758e-02,-3.164973876063043035e-02,5.474838965558601056e-03,-5.174440485862808088e-03,1.767385381545461247e-03,3.756349682807922363e-01
3.398313968817905373e-01,-2.470512685233910988e-02,-2.771063336285475853e-02,5.856455057777137235e-03,-6.584609816487143469e-03,-5.654578508887281871e-04,3.663679063320159912e-01
3.316386753129610399e-01,-2.514226406656072665e-02,-2.794474227538887301e-02,2.773173657588268864e-02,-3.726817660963877487e-04,-7.074759595411494973e-04,3.613992631435394287e-01
3.621925273334295481e-01,-2.695714643337709937e-02,-3.035774484061470879e-02,1.262933350639198517e-02,-1.224168195076172534e-03,1.741311586328740061e-03,3.914900720119476318e-01
3.412275888435915006e-01,-3.892456685699541286e-02,-2.772049131665152433e-02,2.109175131845457407e-02,-2.935284464425572462e-03,7.571368104048864338e-03,3.767152130603790283e-01
3.370388088922012249e-01,-2.648870537763306499e-02,-2.964116728625340591e-02,8.145453150059383737e-03,-5.352673630772236159e-03,1.520017161441992830e-03,3.655135035514831543e-01
3.897335063040158198e-01,-2.533147668291410581e-02,-2.894759229878626772e-02,1.036118487143255877e-02,-6.884919462912931706e-03,-5.274034893738840241e-03,4.175412058830261230e-01
3.762962979162922106e-01,-2.366271058965177532e-02,-1.725511253470796147e-02,1.555305518397121119e-03,-2.775187437885115460e-02,-1.611262544450941386e-02,4.006770551204681396e-01
3.197446719450653396e-01,-1.573168398295191062e-02,-2.545594183388999454e-02,3.885907134351061602e-03,4.228737878925229246e-03,-1.129835483224897116e-02,3.411496877670288086e-01
3.747620755101490064e-01,-2.215448859734059361e-02,-2.383489494603471814e-02,3.674397567058612993e-03,-7.775372134164808616e-03,-1.112307001657977107e-02,3.985041975975036621e-01
3.580884753837259571e-01,-2.495412643554226206e-02,-2.704650044315198842e-02,9.186608100097920157e-03,1.936179776628401905e-05,5.164848930176101603e-04,3.844235539436340332e-01
3.594502134815468208e-01,-1.891560479005333084e-02,-3.265621307151614361e-02,2.208730477082672741e-03,-7.416576615312761925e-03,1.706987524006766017e-03,3.856641948223114014e-01
3.655550194236659167e-01,-6.571850116305455458e-03,-2.785372120440948729e-02,3.430994745467861630e-03,-6.006739844630248210e-03,-1.580575875405613312e-02,3.843747079372406006e-01
3.596699642876389769e-01,-1.890347275677115024e-02,-2.012278839660303076e-02,-1.817176199745392309e-03,2.921517160878852985e-03,-9.254197359983512214e-03,3.795699775218963623e-01
3.678182373888601031e-01,-1.919158656021410780e-02,-2.709605850860308252e-02,-1.704856015332057492e-03,-6.888176606097745971e-03,-7.043201093079227287e-03,3.914052546024322510e-01
3.412831394625731041e-01,-3.849346352495186530e-02,-2.037386163846288678e-02,1.248766773659069559e-02,3.134326308291429056e-03,-1.360875075886047334e-03,3.717257678508758545e-01
3.518066592081561250e-01,-2.188716781893160213e-02,-3.052440200164882600e-02,9.527038803923993174e-03,-2.076221645401359582e-03,-8.031946022403587543e-03,3.787190616130828857e-01
3.358576292815401709e-01,-3.946904399390316343e-02,-1.953438901664933391e-02,1.122347463820475531e-02,3.978220869390950917e-03,-3.596400516622015597e-03,3.664009869098663330e-01
3.409784638190574979e-01,-3.487839726881017399e-02,-2.734981949968479098e-02,2.544394957143375144e-02,4.250297541265964443e-03,-2.997251760821802082e-03,3.748582601547241211e-01
3.128210807108057212e-01,-2.697041340077674376e-02,-2.272238239985224784e-02,2.133645051509769699e-02,4.553253821391328726e-02,-5.819242454283246081e-03,3.488836884498596191e-01
2.600213135751418547e-01,-2.105148525179788288e-02,-8.304109634548639818e-03,3.360948093406782716e-02,9.562891865518025752e-03,-2.880178870766358923e-03,2.815483808517456055e-01
2.904135811200355133e-01,-2.835083718165920530e-02,-1.464370838748756121e-02,6.930018704044305089e-02,3.731266938052871934e-03,-3.828323571070230830e-03,3.345483243465423584e-01
3.502686669450605916e-01,-2.655276650747162570e-02,-3.677282764258904546e-02,1.010333307283164169e-03,1.618221596270508558e-02,-2.744724432317044828e-04,3.830650746822357178e-01
3.218944509908910900e-01,-2.802482174621379052e-02,-2.986329023239767122e-02,5.808778854432208871e-02,1.375839172463149546e-02,-1.283418008834489275e-03,3.657671213150024414e-01
2.964422885972057831e-01,-3.423710292265874644e-02,-1.424124900463759336e-02,3.451502700862201650e-02,-5.846813231758032220e-03,-3.799998334496937271e-03,3.268886804580688477e-01
3.571175250528835776e-01,-1.754226403422051717e-02,-1.568993977201041390e-02,-1.972911086895928322e-03,-2.979946218669853085e-04,-1.783903466477853444e-02,3.750280439853668213e-01
3.648279060373926241e-01,-1.845206315456457413e-02,-1.134939227073156198e-02,1.485293715752906626e-02,-1.672327663783544638e-02,-1.980487592802411545e-02,3.832873702049255371e-01
3.597339356469458904e-01,-3.300895207322473990e-02,-8.953453008929690426e-04,1.181213176596904342e-02,-1.368241916170198288e-02,-2.630581878248548083e-02,3.817355930805206299e-01
3.426038181645019720e-01,-4.175522677539178495e-02,-1.127001954659231919e-02,1.402415343416474249e-03,5.172497930486971013e-02,-1.688775951633833148e-04,3.807576298713684082e-01
3.691496713430408305e-01,-3.058124437943565699e-02,-7.811771508681425447e-03,-1.562957026555874401e-02,-1.020619773264832067e-02,-3.458813797305494708e-02,3.947606384754180908e-01
3.756723420178131323e-01,-1.956790151146642343e-02,-1.679934321370260553e-02,-6.580262195324133303e-04,1.090648861735348061e-03,-1.648141494785460362e-02,3.949025869369506836e-01
3.344031101058402844e-01,-4.067151960237511132e-02,-2.055223951255008563e-02,1.642869904996070024e-02,2.339581056193286001e-03,-1.765006176433716331e-03,3.665719628334045410e-01
3.421634016136889667e-01,-3.988733018067222580e-02,-2.135717119226268612e-02,-2.669471521386135196e-04,7.412890139035658091e-04,8.275875859681598072e-04,3.731361329555511475e-01
3.277944375479033279e-01,-2.608794008798712150e-02,-2.239159167815715779e-02,1.653191377470242945e-02,3.601963959640326314e-04,-1.184731223310048686e-03,3.532178401947021484e-01
3.488456677749774970e-01,-3.857533821978753608e-02,-2.243425970763548993e-02,1.239707351031191923e-02,-2.540480545180331655e-05,1.361198009148196185e-03,3.802220523357391357e-01
3.478229975842087041e-01,-2.471918538876807792e-02,-4.082616298238775365e-02,-1.206714011554391457e-04,4.008896534617029973e-03,-1.626332578010911297e-04,3.809146583080291748e-01
3.374632162629749299e-01,-2.712176150529294061e-02,-2.246635897237556079e-02,1.150616531844091996e-02,8.777913183080244142e-04,4.344074126463197188e-04,3.628314137458801270e-01
3.211406741592929270e-01,-3.188542434110694379e-02,-2.217765856070796904e-02,1.965853030917379812e-02,9.745482048640240896e-03,-2.900953792522282994e-03,3.503771126270294189e-01
3.579757319734463428e-01,-2.559524931610662746e-02,-1.519766390287594082e-02,5.082401040088288871e-03,6.997360018063842084e-04,6.731731902339602690e-03,3.787631392478942871e-01
3.544662006262996323e-01,-2.682941497881025095e-02,-3.278535786742375890e-02,5.704055623022847698e-04,-4.284707360375550377e-04,2.775819923945282595e-04,3.843104839324951172e-01
3.501810594049825642e-01,-2.892044455440445638e-02,-1.208771640345096543e-02,-3.127678782446547713e-03,2.359821649458149597e-04,3.683311896821824579e-03,3.710663020610809326e-01
3.610924266320155174e-01,-2.939379093005914378e-02,-4.537893672718590343e-03,-4.493567207196433148e-03,-2.757928908866104107e-03,1.005474163468643260e-02,3.791808485984802246e-01
3.621611958038734591e-01,-3.445743405722331842e-02,-5.144111756779701228e-03,9.479292641391807127e-04,-1.620732084980277057e-02,6.085660230594802482e-03,3.839807808399200439e-01
3.543511885422535590e-01,-2.572816460456375798e-02,-3.384760668644865023e-02,1.277590047778136371e-03,-1.198166741116488783e-03,3.031759863402431880e-04,3.842157721519470215e-01
3.593112443240273901e-01,-5.017693902938047401e-03,-2.690518682898940250e-02,-1.801859181782025469e-03,7.056165911021858089e-04,-2.862987139122637453e-03,3.757987618446350098e-01
4.025787319504309236e-01,-3.964579818247990217e-02,6.617129052840509118e-04,-6.524813828682056102e-03,-3.328547011910256044e-03,9.314390371366984556e-03,4.240088462829589844e-01
3.782111864755680619e-01,-3.084890093144337930e-02,-5.373162127022573786e-03,2.012273724473683054e-03,-4.067352886209727771e-03,1.090000278140231850e-02,3.974622786045074463e-01
3.352195516409703924e-01,-2.044833094197506806e-02,-3.698306008933649469e-02,-1.129919715169664220e-03,-2.768916625442945090e-02,-1.519864633559216268e-03,3.673754930496215820e-01
3.539444083153638343e-01,-3.156870877450096424e-02,-3.280886490407536327e-02,-9.804421832239735256e-04,2.702747332633529580e-04,-1.508731139686643030e-03,3.861475586891174316e-01
2.970907159418131327e-01,-1.446052388663751631e-02,-3.056552245871196893e-02,1.273925813633879859e-03,-3.480639237229282983e-04,1.046740664205574869e-03,3.199212253093719482e-01
3.477894434479640307e-01,-2.008426320319078862e-02,-3.640549840186005359e-02,-1.253444764015493144e-02,-2.148066267950604624e-02,-2.816108993474143989e-03,3.787888288497924805e-01
2.906235794696728769e-01,-1.956821898858418507e-02,-2.184854752749439133e-02,-2.651121489024605305e-03,-4.074052544471434140e-02,-2.071241488331202439e-03,3.192879855632781982e-01
3.050061200657901428e-01,-1.733338690095587165e-02,-3.022999015195043659e-02,-1.187409990262403361e-02,-1.836574660699938702e-02,-3.700420668984205110e-03,3.312131166458129883e-01
3.179717576825141778e-01,-2.139780019373094255e-02,-2.969984895331909125e-02,-1.502691786802854215e-02,-1.136220257605059271e-02,-6.653001397413886055e-03,3.453340232372283936e-01
5.380535730305666675e-01,-6.310686989106456535e-02,1.253350399289948625e-03,-9.764650281262821779e-03,2.758595662341527255e-02,-3.101370843594388263e-02,5.764545202255249023e-01
3.505546503690301630e-01,-2.479918679168294227e-02,-3.099013446627077450e-02,-7.422610376555999548e-03,-1.573394313600066236e-02,-7.578526714814624518e-03,3.799116909503936768e-01
3.059631172698665247e-01,-2.240245458810544155e-02,-2.806991648114370852e-02,-9.556344874982330984e-03,-1.464026925845550442e-02,-6.509680171025279335e-03,3.328080177307128906e-01
2.904581875186361128e-01,-1.914828806090081159e-02,-3.114951915103947311e-02,-3.562060741505504273e-03,-3.648124760691227875e-02,-5.974768125068730855e-04,3.220987915992736816e-01
3.188988042675697798e-01,-2.757226142902272081e-02,-2.125800133014127402e-02,-1.027642899317184229e-02,-3.099133788923918997e-02,2.431333767804554676e-03,3.480090498924255371e-01
3.301428874539312774e-01,-3.975542168582338332e-02,-1.986565100752543667e-02,-1.217540857100070199e-02,-1.993707391249756929e-03,-6.232973955394095810e-04,3.609999716281890869e-01
3.275887250885420876e-01,-3.697372857307620886e-02,-1.991148747857243717e-02,-9.053483788818882799e-03,-2.252481212165184047e-03,-2.493756781782268230e-04,3.567042946815490723e-01
3.329869274778101684e-01,-3.403328341860592521e-02,-2.001053157139134897e-02,-2.255455413758940264e-02,-5.043630696309295280e-03,-3.194409984809231610e-03,3.624733090400695801e-01
2.858488952631395019e-01,-1.901772904318657642e-02,-2.447884475531712789e-02,1.003879275724513069e-02,-4.497316971038147621e-02,6.496421144430566084e-03,3.180174529552459717e-01
3.595585557748759431e-01,-2.671701269066506512e-02,-2.493334925470772068e-02,5.677177904066334213e-03,-4.937816264765348788e-03,-4.657580590620555207e-04,3.856079578399658203e-01
3.473747155048227397e-01,-2.942766945034072656e-02,-2.498230510171214891e-02,1.249012861666717183e-02,-1.045201939858243952e-02,1.943793773646217268e-03,3.756752014160156250e-01
3.566666477605765495e-01,-2.856271036232321814e-02,-2.634491723297105459e-02,-1.096738478714808342e-03,-1.033662224351900548e-02,-2.151957357427184553e-03,3.845650255680084229e-01
3.067686253084018766e-01,-2.029138708325099738e-02,-3.209020094856313010e-02,3.126605725346368655e-03,-2.309533915915929631e-02,4.179493855228450828e-03,3.356311917304992676e-01
3.450226974628747834e-01,-2.199285547126869633e-02,-3.904125022507282106e-02,4.939507171279012773e-03,-1.409426441092857113e-02,2.541368652035305101e-03,3.767447471618652344e-01
3.299971945648462190e-01,-2.134243227585033709e-02,-3.782090699781379128e-02,4.908043131668954340e-03,-1.209964947399200415e-02,2.222695027549684548e-03,3.605924248695373535e-01
3.277177552705560215e-01,-2.124120850265115434e-02,-3.703892587261126135e-02,4.788893593884581933e-03,-8.455922677940876445e-03,2.955608802189367643e-03,3.575530648231506348e-01
3.714288683152007220e-01,-2.333029681277942746e-02,-1.173543288037934285e-02,-2.443115543756944788e-04,-2.045314506638710918e-03,-1.690728194302763832e-02,3.902080953121185303e-01
3.578373000246002911e-01,-2.076328932376053649e-02,-8.919897694967843238e-03,-6.107579351767546865e-04,-1.292138063523342586e-03,-4.655482368914891540e-03,3.729154169559478760e-01
3.590083455322128914e-01,-2.931489703416106929e-02,3.603401213677276393e-03,-5.168598433151583120e-04,3.656438811067529680e-03,-1.262511194671735691e-02,3.736505210399627686e-01
3.153516701613261475e-01,-2.006803935921611104e-02,-3.547985012963492113e-02,-2.148941730267246979e-03,1.208936952840877939e-02,5.111768593217505541e-03,3.441569805145263672e-01
3.519334096285784974e-01,-1.943547809281676031e-02,-2.215492026993387542e-02,5.371152647949244954e-04,9.310212302244557942e-04,1.223967742721944777e-03,3.727467358112335205e-01
3.577849319687413931e-01,-3.067015180405530117e-02,-2.398754529435109806e-03,2.736779704204485904e-03,-4.492492758327767391e-04,-5.498711157264391490e-03,3.752708733081817627e-01
3.549231084770997913e-01,-2.937678646793778769e-02,-2.241330366341137692e-03,-1.390226573788593944e-03,8.809019170590915489e-04,-5.888739296578799319e-03,3.716271519660949707e-01
3.613296169503735222e-01,-2.950417242478045599e-02,-7.248692514730842307e-03,1.100017083993512566e-04,-6.516319069876781028e-03,8.586446691736693282e-03,3.806530833244323730e-01
3.584489681277237549e-01,-2.910717756586134186e-02,-7.930638281181678906e-04,-2.690553085066530359e-04,9.638430170940907177e-04,7.382404346143295847e-03,3.744257688522338867e-01
3.465215020685569747e-01,8.691371601039790673e-03,-4.063594426378441815e-02,-3.367571266328586027e-02,-1.697698860163786207e-03,1.606012249255413943e-02,3.706901967525482178e-01
3.651144846506190200e-01,-1.915931322470967868e-02,-1.253668730985993407e-02,5.664323694177648277e-03,2.631724264292084527e-03,1.376436740769098124e-02,3.819040656089782715e-01
3.532255388426093767e-01,-2.030340059974486411e-02,-9.527077390172333793e-03,6.001899584994180694e-04,4.376810252956464227e-04,4.167145396201321454e-03,3.683320283889770508e-01
3.574340433058132427e-01,-2.150540155352687055e-02,-1.495755783609545309e-02,1.509458480629244771e-04,-4.200227692793778028e-03,8.591499952358468833e-03,3.760733604431152344e-01
3.525913701539847844e-01,-2.006271407737947321e-02,-1.588404232084281165e-02,3.189034264321312546e-03,2.406563525993217641e-04,-2.019535272946802133e-03,3.706403076648712158e-01
3.634645623603738884e-01,-1.032665727120848920e-02,-2.235830950215736412e-02,-3.958592626830112807e-04,1.851962009529162581e-03,1.569424169537213948e-02,3.809352219104766846e-01
3.575653935364582758e-01,-1.816017362650776401e-02,-1.444522371126946703e-02,-3.083454112629799380e-03,-3.682208579744012528e-03,1.318134747967037411e-02,3.746707141399383545e-01
3.562741885563862065e-01,-7.978796042255265064e-03,-1.380563069111209740e-02,-4.869515217328039720e-03,-2.222922363191174623e-03,8.278885833522738394e-03,3.675979077816009521e-01
3.579316488211544134e-01,-2.418273972424256346e-02,-2.584545468342522301e-02,4.323218778386865579e-03,3.233792103810111639e-03,1.196994155649597647e-03,3.830682039260864258e-01
3.529692130531818517e-01,-2.187995174501916607e-02,-2.065033429816257038e-02,2.513266031773558396e-04,-1.262941593285133975e-03,3.943399447019432097e-03,3.743048310279846191e-01
3.617801764427255318e-01,-2.854746458745233140e-02,-1.622071087492923946e-02,-6.023649014093961898e-05,1.145337209840424295e-03,3.938034936160302903e-03,3.843782246112823486e-01
3.430335168776748045e-01,-3.437094587706901461e-02,-2.233982595917841096e-02,-2.484866708539391553e-02,2.542789872811394066e-03,3.373916773248318915e-03,3.740911483764648438e-01
2.370920429625233417e-01,-2.028151916370479757e-02,-1.029922777193303940e-02,-4.426715579076027224e-02,-1.519255355542798065e-03,1.213942368594532256e-03,2.639350295066833496e-01
2.243068769949081720e-01,-1.087533713464242102e-02,-2.414068138021595311e-02,-9.202339592166915161e-02,1.174280284433174351e-02,-2.260700457754117199e-03,2.905862033367156982e-01
3.354654245112186906e-01,-2.051021011772516389e-02,-3.809991090546549497e-02,-3.344935552973329613e-04,5.953424522604207868e-03,3.643622908173589723e-03,3.652890026569366455e-01
2.934243073666096269e-01,-3.244547281911758230e-02,-1.127323379398856296e-02,-2.821798046050064818e-02,2.329176935475072482e-03,2.319972479488798499e-03,3.196265995502471924e-01
2.541051438515607996e-01,-2.499948164833655506e-02,-4.223514303207109855e-03,-4.864195179287840454e-02,7.762804380513384575e-03,4.578844941834176938e-03,2.826201617717742920e-01
2.611478223949995625e-01,-2.358585471311301640e-02,-1.269817189047800499e-02,-4.473775314165501921e-02,1.009851908020466260e-02,3.180138675870413344e-03,2.905725240707397461e-01
3.560342950944411777e-01,-1.642213003276538075e-02,-2.389921356263285945e-02,1.595269339950318183e-03,3.697970543078339320e-03,4.891527277305999892e-03,3.764107227325439453e-01
4.173789468417669069e-01,7.670956790321120655e-03,-7.795115838639896100e-02,-9.943759893125223015e-02,4.094340016759318024e-02,-4.187835597123350934e-02,5.002257823944091797e-01
3.562702758963828265e-01,-2.100908145631202872e-02,-2.225970179819475314e-02,3.131988887892722933e-03,3.513766676343029090e-03,2.370488601562662986e-03,3.780164420604705811e-01
3.653571036486866208e-01,-2.290304969684434089e-02,-3.369356029124520591e-02,-5.086376169520900447e-04,1.095251564757960714e-04,-3.607851604750450698e-03,3.938169181346893311e-01
3.570281617325926082e-01,-2.339576282375227523e-02,-2.479741256530038074e-02,1.409133874815890215e-03,-1.310234147491060942e-04,-2.550453662516476844e-04,3.811348080635070801e-01
3.224273608731459406e-01,-1.728359948206995012e-02,-3.946666878110041687e-02,-1.450541911972103156e-03,-9.519020402263440872e-04,6.378852990056590273e-04,3.513427078723907471e-01
3.564811933335874095e-01,-7.318069850085207051e-03,-1.652097682094702535e-02,4.804806668006767747e-04,1.672068648942072466e-03,1.414241852814710279e-02,3.693124949932098389e-01
3.551069888007856723e-01,-1.108281681427855658e-02,-2.249000067526810143e-02,-3.378234332463783858e-03,-1.758752030736981681e-03,8.634485020507558228e-03,3.723835051059722900e-01
3.564855166941344189e-01,-1.043652808291001266e-02,-2.712020630684211508e-02,-2.144052051815310139e-02,8.618220468235460174e-03,-1.345937388572029068e-02,3.783875107765197754e-01
3.352062220362143630e-01,-2.687903470299032871e-02,-2.145316365096699984e-02,-1.896965867093671626e-03,1.179838353330736785e-02,-3.758518322218998634e-03,3.600573837757110596e-01
3.706276472998137339e-01,-7.522468659912850963e-03,-2.186656203297845935e-02,6.997693565571215871e-03,-1.497476210194403305e-03,-1.098586458598023105e-02,3.861905932426452637e-01
3.537176416350543140e-01,-1.693807180920614552e-02,-2.189670351529612868e-02,-3.561946024504187604e-03,4.160391801373968315e-03,-6.547414960113562103e-03,3.734525144100189209e-01
3.480157692251116264e-01,-3.932819297640097189e-02,-2.150909836357325911e-02,3.923034281539259510e-03,-9.960724798426753325e-04,7.950329816986678191e-05,3.788138329982757568e-01
3.902400314766552025e-01,-1.508895398556334144e-02,-2.109325882098606053e-02,3.318592933922479265e-03,3.954797202963319241e-03,-2.276857446384993391e-02,4.103614687919616699e-01
3.902701729078290604e-01,-1.303111265535625285e-02,-2.213282395588109241e-02,4.017438703471425121e-03,4.719381439743864509e-03,-1.804006104520407619e-02,4.092640578746795654e-01
3.474334351953327071e-01,-2.161668318619944240e-02,-2.012412558682888375e-02,-1.019313450978141279e-02,1.056049796465443995e-02,-1.135467531204330249e-02,3.697058856487274170e-01
3.645842942575550638e-01,-3.405699768142955719e-02,-2.892847207644350105e-03,1.407108719395303714e-02,1.975212252167913782e-02,1.184557079245544993e-02,3.868438303470611572e-01
3.861937001639311196e-01,-3.892987655136290193e-02,5.269615523044474115e-03,1.218896801895122742e-02,9.081018013669020072e-04,1.806154606948610561e-02,4.065959155559539795e-01
3.664160335642206445e-01,-4.136399256012948666e-02,-5.832386867839711719e-03,1.240276199024833515e-03,3.937086035798344902e-02,5.548969692096337655e-03,3.972469568252563477e-01
3.546387575101589418e-01,-2.579449424775140387e-02,-3.259913231594341321e-02,5.072871691482687797e-04,7.669406867293719621e-03,3.258620080433404561e-03,3.841530382633209229e-01
3.521246861480579193e-01,-3.257918848242832843e-02,-4.800240686987117256e-03,-1.422758203785476220e-03,6.554579964382543054e-03,2.317939704242465756e-03,3.717972040176391602e-01
3.399292964645928006e-01,-3.267124582449415504e-02,-4.853882597422670697e-03,6.437850090757472020e-03,3.135601952138392795e-02,1.990077908485471999e-03,3.637664318084716797e-01
3.522372760874263875e-01,-2.656955534008209607e-02,-1.306574322689527112e-02,1.052947350063850127e-03,4.810852764112350660e-03,7.872690022050030101e-03,3.725860118865966797e-01
3.655718784237223518e-01,-4.215183458435611819e-02,-1.991004517971461940e-03,-1.161015555653860431e-03,6.976684112729149290e-03,6.565187029938768584e-03,3.895592093467712402e-01
3.781355473697836089e-01,-4.072468698144654509e-02,7.616268213448462721e-03,-5.867647909441833613e-03,-6.834562636791262705e-03,1.285825672557656604e-02,3.978342115879058838e-01
3.517336038923487562e-01,-2.825518311539487737e-02,-1.004045828018396147e-02,3.556429110936415276e-03,4.713570331332996022e-03,5.985440999597650170e-03,3.715022802352905273e-01
3.636118188084407343e-01,-3.083419115343999373e-02,-2.193137963624147702e-02,8.504798022376490463e-03,-6.984793060483624610e-03,-5.510921190935880176e-03,3.906529247760772705e-01
3.560815455661058837e-01,-9.264953932305669548e-03,-3.045673966297735014e-02,-4.469457362650740631e-03,-1.660144702611226694e-03,-1.041489527862919868e-03,3.764849901199340820e-01
3.561458054474364587e-01,-8.356260437558743481e-03,-3.042819522610118455e-02,4.152390556514786238e-03,9.661855037160699874e-04,-1.785609867893547462e-03,3.761093914508819580e-01
3.461109193826051311e-01,-3.277120845770456481e-02,-2.292396926110007449e-02,1.570370651288696337e-02,-1.009146156501265074e-02,-1.677435106660283269e-04,3.754505515098571777e-01
3.321849666257500333e-01,-2.807787112572232568e-02,-2.993877462922761579e-02,7.894340162330345037e-03,-1.187483100822988961e-02,3.303532295603334428e-03,3.620855212211608887e-01
3.705606892404061936e-01,-2.542025732119693182e-02,-2.404637319653810112e-02,2.601016811800733238e-03,-3.572819546657000217e-02,-1.026741513335244042e-02,4.005306959152221680e-01
3.546972402565866100e-01,-2.798681371607286694e-02,-3.005129948314269606e-02,8.226062029719274915e-03,-1.745571718247317539e-03,4.111518880067403271e-03,3.840628266334533691e-01
3.407117552492207602e-01,-2.560113969862343186e-02,-2.015111466508257010e-02,4.909153368606063508e-03,-4.286041633046304596e-03,-2.202839586528902976e-03,3.638136684894561768e-01
3.709053292946329350e-01,-2.630388821628168450e-02,-2.724838414949595777e-02,1.545905677477385151e-02,-1.840968044212177093e-02,-2.861838102835857073e-02,4.029167890548706055e-01
3.552108412673604665e-01,-3.328688595199175149e-02,-2.146980185142038922e-02,3.951845256273520818e-02,-4.466021077843901170e-03,-1.334464817624920162e-02,3.895618319511413574e-01
3.287226507986760748e-01,-3.736082174885951845e-02,-2.116933347920213482e-02,-1.073405607782632575e-02,-1.392440668183943069e-04,5.143610298630721563e-04,3.587455153465270996e-01
3.334930121459917518e-01,-2.520213187933156851e-02,-2.067521390040932827e-02,-1.153209886343941476e-02,-1.766739155281094650e-03,-1.051462506539274687e-03,3.570302128791809082e-01
3.401824450602352612e-01,-3.474348010473776727e-02,-3.184353876567933006e-02,-3.835114619826778676e-02,-1.503296825137372757e-04,3.146687631947090152e-03,3.793847560882568359e-01
3.298795067295677286e-01,-3.836995896248179827e-02,-2.122452734894680892e-02,-1.299936815454284106e-02,6.191624099763942506e-03,4.571702316278967830e-03,3.609328269958496094e-01
3.557057871923996473e-01,-1.829484606884748676e-02,-1.893830100640006564e-02,-9.206190085184302267e-04,-1.101603673829153760e-03,4.539147966516282259e-03,3.744135797023773193e-01
3.545265316953500334e-01,-2.440176027805435188e-02,-1.988647313498195790e-02,2.215296125007438707e-03,3.682272252781258921e-03,7.488394167549690264e-04,3.767667114734649658e-01
3.525621550062897902e-01,-2.629568624065628524e-02,-6.142373030807835033e-03,3.490186524989411475e-03,4.698594559624806079e-03,2.362586120408269579e-03,3.693557977676391602e-01
3.594599572070904525e-01,-2.972283227195055000e-02,-1.845695184071388661e-02,6.090014863032827859e-03,-1.284396764312302779e-04,1.062120915182517174e-02,3.842595815658569336e-01
3.553791864513679566e-01,-2.679791148915097732e-02,-3.689093082262034917e-03,4.877788463892706455e-04,1.402909817791909855e-03,3.959118588438619198e-03,3.712348639965057373e-01
3.566830179456121908e-01,-2.645446752291433223e-02,-1.601513914059890520e-02,-1.731289777236281471e-04,2.424869072204301635e-03,3.135610085060401044e-03,3.780884146690368652e-01
3.550296207629088929e-01,-1.777562476214528120e-02,-2.453485784183606633e-02,1.430952203978632037e-03,2.152665341460835522e-03,-6.460376873812064468e-04,3.762587010860443115e-01
3.458744627453431142e-01,-2.070050751581081760e-02,-3.879856275180096348e-02,-2.142142640976263911e-03,-1.298179433177687296e-02,-3.442023343314259834e-04,3.766413927078247070e-01
3.663952315668391191e-01,-3.008134749274532505e-02,-1.259788145283383121e-02,-6.279565124884739025e-04,2.802656561586279373e-03,4.186316930811059996e-03,3.881299793720245361e-01
3.558773115683765420e-01,-3.142119439789661794e-02,-2.152044894259844132e-02,-9.827133044354618985e-03,-1.253488358618336240e-02,-2.506849390893998173e-04,3.834382593631744385e-01
3.479926601435913147e-01,-2.260196876089981544e-02,-3.671648840334595931e-02,-2.230279897127388378e-03,1.662121386257355699e-02,-1.008138429243157080e-03,3.789685070514678955e-01
3.434254406852019215e-01,-2.751914501828237047e-02,-2.481041833681948972e-02,-2.150192091133150494e-03,-5.597388374609564739e-03,-2.326059421516463773e-03,3.697655200958251953e-01
3.468715072286236989e-01,-2.470020605917627732e-02,-3.338275257855943812e-02,-2.188648106642252823e-03,-1.120522822662338956e-02,-5.287063844620912972e-03,3.766191899776458740e-01
3.546493643595716172e-01,-2.943759686855323965e-02,-2.322284606286076358e-02,-8.500682372066080059e-03,-1.068139283636416505e-02,-4.391177775491286435e-04,3.817512989044189453e-01
3.436696717426374059e-01,-2.544639804623943791e-02,-2.842412251917503241e-02,-2.476126050194930612e-03,-5.285887105680973051e-03,-3.869271250761039619e-03,3.708123564720153809e-01
3.023750303386397165e-01,-2.100022780867119576e-02,-3.833928310784040505e-02,1.750185669945221716e-04,5.241803548920809241e-02,6.024214083334471226e-03,3.447189331054687500e-01
3.026863138205075909e-01,-2.066388520520759386e-02,-2.897864327539995122e-02,1.536318420126414619e-02,2.278188154120323883e-02,-8.286828823098064956e-03,3.313370048999786377e-01
2.999641136548904519e-01,-1.816510934063486626e-02,-2.308933383522490668e-02,1.449364587724721529e-02,1.251580055457679301e-02,-1.141773581809053459e-02,3.229368627071380615e-01
2.477716178377070144e-01,-1.931438178112218629e-02,-1.950911019031208171e-02,2.260255549888659857e-02,4.117991980055249468e-02,-9.399398266205572991e-03,2.797713577747344971e-01
3.198125749363902592e-01,-2.274254308874018582e-02,-2.443318992200524398e-02,2.365222808426225079e-02,9.392746501193437875e-03,-9.641292522552719069e-03,3.466234505176544189e-01
2.913326712399658680e-01,-2.251669527224958722e-02,-2.205004901501848857e-02,1.954180623885747384e-02,3.053550937039704177e-02,-9.464139398815157866e-03,3.202605247497558594e-01
2.517353856609076956e-01,-1.590700180527623853e-02,-1.819228259088513655e-02,1.637249278324475615e-02,4.657587168169325526e-02,-6.086733424077663164e-03,2.822632789611816406e-01
3.001399816546971855e-01,-2.163185824373912991e-02,-2.119892041449204789e-02,-4.107297728814202076e-02,-2.296596955099085638e-02,-8.192049764158517572e-03,3.320280015468597412e-01
3.313215952491984084e-01,-3.356013873468019493e-02,-2.395479309766812559e-02,-2.297429157635200517e-02,-1.242891836941299386e-02,-1.942237295766514231e-03,3.630211055278778076e-01
2.907577647015843758e-01,-2.005750134593793643e-02,-2.782629119672350160e-02,-7.745229284847598983e-02,-1.875766108178534078e-02,-2.927634866336882580e-03,3.437426090240478516e-01
2.212083318282873079e-01,-1.761786806482157353e-02,-1.474343599250756143e-02,-3.207076396312125849e-02,-3.238991099180030947e-02,-5.630471307948280331e-03,2.503752112388610840e-01
2.839675570331169907e-01,-4.634157665691007733e-02,3.267881611842475553e-02,4.158370964642169737e-02,-7.135825681596558168e-02,-2.217763396839208742e-02,3.334461748600006104e-01
4.202725687608590555e-01,-4.814749175761923183e-02,2.801088200960552554e-02,8.821023877711648906e-03,-6.244345743340884436e-02,-1.364520459952602406e-03,4.488651454448699951e-01
3.572274717220045859e-01,-4.693862015380470543e-02,1.512240086123249616e-02,8.914170115504997400e-04,-1.350909098370505976e-02,-1.741984409420835149e-03,3.777271807193756104e-01
3.647460393778435006e-01,-4.167787730587071970e-02,-4.465292417797778191e-03,5.439993769962025300e-03,-8.961599760799287065e-03,1.346178126439627823e-03,3.895846903324127197e-01
3.777603974399308950e-01,-4.437951414941154749e-02,-5.858463698856675173e-03,8.176749767447802006e-03,-2.258512562840686577e-02,-7.085780171912722629e-03,4.065786004066467285e-01
3.795750530732522332e-01,-4.593409847361742959e-02,-3.984585606199464447e-03,1.278875876899827381e-02,-4.001389198974433098e-02,-1.442139313785941596e-02,4.133833944797515869e-01
3.669588336018697050e-01,2.788245502777508822e-03,-3.395896929731531677e-02,2.702079160446130583e-04,6.816260582265385630e-04,1.400552138814597017e-02,3.846334815025329590e-01
3.612819126278650206e-01,-2.571482262009455733e-03,-2.977708549614038747e-02,1.432790014235224910e-02,-4.728673613800107932e-04,2.737424232548845912e-02,3.819592595100402832e-01
3.591004594052740195e-01,2.205280326960962212e-03,-2.977058080660460737e-02,-3.016429018351221309e-03,-1.021077133855403983e-03,1.498603524751388437e-02,3.748503923416137695e-01
3.380483911351890858e-01,-3.704012200702511137e-02,-2.104812300100644684e-02,-5.705344856387591264e-03,-1.268676782481043333e-03,-3.596878679934229113e-03,3.675459325313568115e-01
3.732891777042724457e-01,-2.021898175327219160e-03,-3.185100662426118556e-02,1.263433322139498327e-02,9.088527542309781174e-03,1.516369252559683460e-02,3.928865790367126465e-01
3.656445943650032948e-01,-1.901406709163230846e-02,-2.072918904144896435e-02,2.921613581972105043e-03,-5.353326705278787893e-03,1.196015208068519110e-02,3.862197399139404297e-01
4.268206403548284733e-01,-1.525896292265674359e-02,-1.060184344377390619e-02,5.158987674723986179e-03,-7.532109174099790513e-03,2.366337739832843901e-02,4.419583082199096680e-01
1.797547735086141574e-01,-5.280321776016463908e-03,2.081546215458446314e-04,-2.116201509013540191e-02,1.274439569779261226e-02,3.255521908966249860e-03,1.873902231454849243e-01
2.257850326876259250e-01,1.048192952794804733e-03,-2.081563352948498369e-03,5.762846723753532220e-03,1.443555232223277598e-02,-1.588631034047739742e-04,2.279137521982192993e-01
1.559846547389744931e-01,2.642891498231582370e-03,8.933393840240111405e-03,-1.408150555634557141e-02,-1.812378281447181872e-03,-1.977819170375214389e-03,1.523322910070419312e-01
1.841823436525017454e-01,2.637314138410534747e-03,-2.322447054139142875e-03,-1.238522001369506652e-02,1.507296729796444093e-02,3.375341328375090159e-03,1.872419863939285278e-01
3.501825057304080446e-01,-2.581381688141989872e-02,-1.239946147874829152e-02,1.079229682536886163e-02,2.000523743511005773e-02,1.216169618637670362e-02,3.721601963043212891e-01
3.550245206979428247e-01,-2.757807012922530721e-02,-3.341827522031376452e-02,1.539547419142263049e-02,9.212501195477373547e-03,-4.907392258973871865e-03,3.868995308876037598e-01
3.595143258211537240e-01,-2.558912827297191162e-02,-2.176519076998781332e-02,8.479167444447856250e-03,1.037788308736254002e-02,5.262363760212334859e-03,3.840163350105285645e-01
3.685657142129190045e-01,-4.868854205979689098e-02,3.508315601825046093e-03,1.013628326322169905e-02,2.836572500525702534e-02,1.083399618592362744e-02,3.976436555385589600e-01
3.475827332041285245e-01,-3.454639884905150171e-02,-1.521144770042573424e-02,2.295477174330589482e-02,2.571511591977319183e-02,-2.570483372860377699e-03,3.776141703128814697e-01
3.337714266312220568e-01,-1.847138588630864442e-02,-3.620344737943298474e-02,8.182857703031487170e-03,1.909314538966144434e-02,-5.398436484717982278e-03,3.633419573307037354e-01
3.365020022185566395e-01,-2.273232302007988093e-02,-2.833822116895454157e-02,-3.713141175532131896e-03,1.960275654757648311e-02,-4.397827003202487740e-03,3.637949228286743164e-01
4.098595502009385605e-01,-1.002915865727066480e-03,-4.020227956864130814e-02,-1.942907173553793873e-02,5.626960963657293147e-02,-4.716307270433237053e-02,4.513916671276092529e-01
4.110669883081357612e-01,-8.335671546683437461e-03,-1.941497747329382073e-02,-3.550738073186494870e-02,2.976782786060874070e-02,-3.800966334136058472e-02,4.375419020652770996e-01
4.124175584344445533e-01,-1.609264473664551165e-04,-4.555292368075697373e-02,3.540293846154022456e-02,-2.944608382273156827e-02,-2.492605246186252455e-02,4.463568627834320068e-01
4.463741164546308759e-01,-1.242043954930938110e-03,-4.211511187683672497e-02,1.893877476440103055e-02,2.121909295076424701e-02,-2.437311119883963859e-02,4.738514721393585205e-01
3.798265041509233386e-01,4.614390785821292917e-03,-3.082499039124117490e-02,-1.715796511831697499e-02,-7.614621454902045089e-03,-3.082846010074081003e-02,3.990559875965118408e-01
4.096738841965713029e-01,-8.775600982653258830e-03,-3.102096345791308107e-02,1.008754648076134845e-02,-7.629588800029915227e-03,-2.940746154601783444e-02,4.335639476776123047e-01
4.158062233305677702e-01,-1.240449991086278736e-02,-2.584569212343340583e-02,-7.766704086145815450e-03,3.497869024790284213e-03,-3.267389360666783649e-02,4.390001893043518066e-01
3.421265134348726589e-01,-2.798488301643725640e-02,-2.666791051577022120e-02,-3.676695405149920347e-03,-9.633561854140544004e-04,-1.845517504346090576e-03,3.695271313190460205e-01
3.419705719877499384e-01,-2.566323688164240391e-02,-2.515062917822358246e-02,-3.304274569650634662e-03,-4.156945407113117955e-03,1.897313757824534977e-03,3.675075769424438477e-01
3.535688518232768529e-01,-3.569377930252182196e-02,-2.779878244729905301e-02,-1.468853621232209770e-03,-2.601247077639878141e-03,-5.391733355405608705e-03,3.855236470699310303e-01
3.517389275951169902e-01,-3.145958226287234871e-02,-2.614041788464460669e-02,-1.749831835620250381e-02,1.848693367703832871e-03,-5.867086752521441517e-03,3.819203972816467285e-01
3.471176427889608451e-01,-3.363839099054688475e-02,-2.850460685524802695e-02,-2.857522872770100475e-03,-5.446384302983986285e-03,-5.225308687853555921e-03,3.784734904766082764e-01
3.404762824490959461e-01,-2.372722024990112089e-02,-3.448310533456952487e-02,5.732985290471765034e-03,-1.799523042588218463e-02,4.434307228331385228e-03,3.712227046489715576e-01
3.513378355039912804e-01,-2.881656844308883025e-02,-2.760409732978380548e-02,1.110298266257960138e-03,-1.173063398800565284e-03,-1.114950421820616166e-03,3.795648515224456787e-01
3.463291039552438000e-01,-2.262069513845793578e-02,-3.161962436695361922e-02,1.315307992756017431e-02,-9.209629721589682530e-03,6.686699865907128927e-03,3.747434914112091064e-01
3.547342711088832812e-01,-2.761744916478703349e-02,-2.525180382447458904e-02,5.145549403323006199e-03,-5.008177528550721361e-03,-3.323792260374843974e-03,3.814207017421722412e-01
3.546287236060468029e-01,-1.627745755011919537e-02,-2.342294295009342275e-02,9.185939871693422909e-03,-1.132346387651358803e-02,-1.141130141493316812e-02,3.759005367755889893e-01
3.594277810298117659e-01,-3.974181091411799205e-02,-9.593387098477623720e-03,2.143327408994006450e-02,-4.619914675353628195e-03,-1.514940644675065104e-02,3.877391517162322998e-01
3.772574452650720445e-01,-2.585955538219489314e-02,-2.481883186039410272e-02,5.432296740403273934e-03,-2.036015495118835561e-02,-3.255764277664173739e-03,4.042880237102508545e-01
2.671928200492783567e-01,-1.997341407679602276e-02,-1.811153014670668915e-02,-4.108486658378201345e-02,1.447295929960503227e-02,3.245989730860228580e-03,2.960695028305053711e-01
2.542492135329116887e-01,-1.350816340390412207e-02,-1.018234660731859309e-02,-2.356563373501010736e-02,2.495126496901096946e-03,1.772167654378438862e-03,2.692743539810180664e-01
2.320220181629613077e-01,-1.042220345296762662e-02,-5.005293643394650993e-03,-2.346067487566895135e-02,1.874708464690492959e-02,2.905715868319440343e-03,2.454101592302322388e-01
2.533919801532198424e-01,-1.773341948226299369e-02,-2.296099202733446754e-02,-3.846387339831760371e-02,3.356754632445597963e-02,5.247216744696573364e-03,2.878454327583312988e-01
2.295882941827368240e-01,-2.111124597792495006e-02,-1.062075520482651247e-02,-3.084713114760469915e-02,-5.174418518462672173e-03,2.791037181564133204e-03,2.515724003314971924e-01
3.481748560769447054e-01,-3.750253484502411028e-02,-2.316192540613462580e-02,-1.012122973582653407e-02,-5.689621785496165032e-04,-2.303622245543545961e-03,3.791385889053344727e-01
2.616398747242903999e-01,-2.316510580360758853e-02,-1.125005904336616458e-02,-3.797621993579057553e-02,2.538827972934688988e-03,1.916957074511532093e-03,2.867391109466552734e-01
2.860850920983234458e-01,-3.428763249181038253e-02,-1.256759509372865069e-02,2.907397697027026828e-02,-3.608963235343658378e-03,5.762818806194186343e-04,3.142099380493164062e-01
2.207737940040089275e-01,-6.004486601850780869e-02,-1.523434400972004110e-02,-2.013680155877490760e-02,-9.008039573762766095e-02,1.252501953715835607e-02,3.071058690547943115e-01
3.263297357284667410e-01,-2.835061433413202381e-02,-2.820916829041161811e-02,-9.238433610881500329e-05,-4.244045891909190330e-05,7.631156867626223521e-03,3.548559248447418213e-01
3.192107405326521929e-01,-3.639013453942799292e-02,-1.419661541852344777e-02,1.267566310539467757e-02,2.542891597942171828e-04,8.856367905268299531e-04,3.457413315773010254e-01
3.328993154756730855e-01,-3.459322117925139883e-02,-2.220871507187133220e-02,8.680402144025156641e-03,-5.439674464356863970e-04,-5.044487161041522408e-03,3.618787229061126709e-01
3.430798000572342077e-01,-4.129086949654525718e-02,-2.183550908655385037e-02,3.343074245920240033e-03,5.252717492311419505e-05,-1.843158125717974999e-03,3.750799596309661865e-01
3.344902904866385307e-01,-3.646108745816559193e-02,-2.163881195344050101e-02,6.805706581663682406e-03,3.372340002657402873e-04,-1.266967679384820456e-03,3.639648258686065674e-01
3.484597907778472781e-01,-3.955943205699591347e-02,-2.193327214740267705e-02,4.369926247878995647e-03,7.810099978272476299e-04,-7.573019063615882588e-04,3.795934021472930908e-01
3.334496072049022430e-01,-3.607173515612646653e-02,-2.250679402140731700e-02,6.058571674636089623e-03,4.529639786815651929e-03,-1.950960042418651988e-03,3.631812036037445068e-01
3.362630319143620206e-01,-3.939915960777301551e-02,-2.213725592332427272e-02,1.118358657419274947e-02,3.546331712226485043e-03,-3.823275108443903707e-03,3.679568171501159668e-01
3.413145014764104590e-01,-2.556816604574252416e-02,-3.711488333937157380e-02,3.539688018415213834e-03,3.592112247294863142e-03,-3.839057854703517916e-03,3.729517757892608643e-01
3.671342470900649801e-01,-5.228226365649002449e-02,-7.012007120348107136e-03,-6.984658272349624983e-03,-4.659805441921872210e-02,1.526054705796830915e-03,4.069889187812805176e-01
3.786346976058455605e-01,-3.137754081144372709e-02,9.432836339113598312e-03,-3.579564384004596707e-03,1.433657105173576432e-02,-1.893164391470834526e-02,3.934120535850524902e-01
3.784995395325907452e-01,-3.321159257771713613e-02,-4.973542834309147009e-03,6.166705330365460438e-03,-1.070064636070233721e-03,-1.525599488765182719e-02,3.993661105632781982e-01
3.582831070195844902e-01,-2.913108582531245827e-02,-2.211600996542772979e-03,7.936078244616937005e-03,1.066409256329389722e-03,-1.561415891117235583e-02,3.759111464023590088e-01
3.615337310680874494e-01,-3.521196239955620699e-02,2.637276508712371736e-04,-6.631699197076503351e-04,-1.270536238857822645e-02,-1.027827032284246191e-02,3.813048303127288818e-01
3.755491533812108651e-01,-3.461666096367244094e-02,1.115392322736158404e-02,-8.644129831499775679e-03,2.261491600949331986e-03,-1.887955466145964031e-02,3.909811079502105713e-01
1.989872335972270589e-01,-1.302161263833542804e-02,-7.259254987888305588e-03,2.171576447909143517e-02,5.429417529275906706e-02,6.166140155250499598e-03,2.326620817184448242e-01
2.380238386440917953e-01,-4.276242259574389304e-03,-1.110058896769064440e-02,2.572729879006232373e-02,2.078316234132957310e-02,-6.793138228966983175e-03,2.526447772979736328e-01
2.494669610975162599e-01,-9.317109151980404458e-03,-2.180800371476919464e-02,-9.018483230195144945e-03,3.779252200767444642e-02,-7.350378625092239982e-04,2.736569046974182129e-01
2.354431981719413425e-01,1.661179076373836550e-03,-1.442626914966391172e-02,-1.408032217635449626e-02,4.022520857492554308e-02,-7.210806474666040140e-04,2.532278001308441162e-01
2.076165344680884761e-01,-2.502989882724460102e-04,-6.165550958807983206e-03,-6.722686369887922878e-04,2.098289045388318855e-02,3.179519877232943954e-04,2.139993011951446533e-01
3.480433796502701571e-01,-2.598066642441715368e-02,-3.824924804810975187e-02,-7.922744408362538239e-04,1.921432016507269771e-03,-1.241989825100856546e-03,3.803299069404602051e-01
2.457841325053961301e-01,-3.971685814125117120e-03,-2.203184789754333850e-02,1.750665941536242234e-02,3.221752322859187251e-02,-3.082499592335127391e-03,2.669768333435058594e-01
3.541984303636292464e-01,-3.297971291941631522e-02,-3.107089834873461021e-02,1.439014859746466635e-04,-1.332640705319718545e-04,-9.121228293870959139e-04,3.862306475639343262e-01
3.891002490364275368e-01,-4.447010278856744492e-03,-4.853694474973885287e-02,3.257675241383308634e-02,8.100870918354737341e-03,7.384446173174078615e-03,4.215673506259918213e-01
3.522751150346193350e-01,-3.089398062786927190e-02,-2.897350824083713694e-02,5.287310572763274236e-03,5.386524025709917007e-03,4.640346904661180332e-04,3.824368417263031006e-01
3.786202477861767557e-01,3.736963686975403043e-03,-4.486271590152457467e-02,3.344456132719337248e-03,-2.920455323899602421e-04,-5.108462592943938119e-04,4.014389216899871826e-01
3.588219270925512849e-01,-2.146824653652149029e-02,-3.271371017976920648e-02,1.633505104791623322e-02,8.062705538516274847e-03,8.685174321601886113e-03,3.876150548458099365e-01
3.308916685838299565e-01,-3.444335455822872261e-02,-2.285721996683723334e-02,-5.827322304991851450e-03,9.371329084050937508e-03,6.621727643700139193e-03,3.603720068931579590e-01
3.393179370566266617e-01,-3.045340821499081807e-02,-3.124087284016904831e-02,-1.320592408083146735e-02,1.375757998681201646e-02,7.290112074663629080e-03,3.718509078025817871e-01
3.458490038346771489e-01,-3.178530976044685596e-02,-2.835638597110839987e-02,2.203647247668152030e-03,1.026862041834785983e-03,4.112424938561749961e-03,3.760226368904113770e-01
3.377044622114833694e-01,-3.020102997510837328e-02,-3.111767771642229286e-02,-1.453585438573075719e-02,1.505694857792458027e-02,7.155738039242982157e-03,3.703514039516448975e-01
3.186113425692570500e-01,-2.976574997971634384e-02,-2.223452124781075123e-02,-1.553839208807742886e-02,7.964128186470588108e-03,7.962511365106946654e-03,3.462721705436706543e-01
3.201330775459270139e-01,-2.975629127155068887e-02,-2.555830432942257646e-02,-1.572748947465670011e-02,7.667511409014862028e-03,7.402588928689700538e-03,3.493625521659851074e-01
3.506220322905992948e-01,-2.512278249418239962e-02,-3.607838922865985731e-02,-5.653388972323829600e-03,9.705368345996650409e-03,3.873410113068815903e-03,3.818955123424530029e-01
3.427415864084167874e-01,-2.705436077767384151e-02,-3.301805468357058015e-02,-5.990743727375798244e-03,5.483838180575987100e-04,3.148447010899313968e-03,3.729990124702453613e-01
3.491681003623598456e-01,-2.990006310114878829e-02,-2.434380211696610119e-02,-4.274836256127002160e-03,1.042353553459447572e-02,-6.064245125751737591e-04,3.768278360366821289e-01
3.860289427578223465e-01,-4.793900807568324263e-02,1.127641054485326033e-02,5.851557298215204553e-03,-3.394670027638661131e-02,-3.200001517721350877e-05,4.119428396224975586e-01
3.452307573422365716e-01,-2.720766278997002741e-02,-2.462325515996033332e-02,5.764052359427870040e-04,4.627253622276656861e-03,9.151699435967042100e-04,3.712442219257354736e-01
3.396975813928681531e-01,-2.821467262826801714e-02,-2.806661113226105453e-02,-9.895429031197763847e-03,1.731145965104445225e-02,3.471943441470527573e-03,3.695050179958343506e-01
3.196112467255087797e-01,-2.164325940131545112e-02,-3.470715834035195679e-02,-1.862683128036254215e-02,2.729830154417375171e-02,7.787985868965653646e-03,3.529048562049865723e-01
3.660833598949085332e-01,-2.636977820451466559e-02,-3.671688178233584177e-02,1.737833238271623351e-02,-3.725724385162676629e-03,5.755663407084346756e-04,3.989184498786926270e-01
3.764751411904852518e-01,-4.287850823558400637e-02,1.098331128572352378e-02,3.417911047283718430e-04,4.263478770617321056e-03,1.322020056589953783e-03,3.952613770961761475e-01
3.082425234108090439e-01,-1.475173694099535249e-02,-3.519987430223617264e-02,3.064814962298394868e-02,-2.368115777166805019e-02,-5.535615288529863870e-03,3.405000567436218262e-01
3.433541842224689389e-01,-3.031363038013068500e-02,-2.633918740185831053e-02,6.623517439600222099e-04,9.729126319291776445e-03,1.179029091628124200e-03,3.720856904983520508e-01
3.734933429502079738e-01,-3.668850281156763038e-02,-1.409338971061593893e-02,1.288233241859076126e-03,4.583485622047521121e-03,1.506765826641065032e-03,3.994576334953308105e-01
3.398573637807898451e-01,-2.200689962278487566e-02,-3.331780332782943721e-02,-3.417413749015406452e-04,2.742217393074489196e-02,8.404665875490723286e-04,3.707089126110076904e-01
3.394199512427881760e-01,-2.747477419091950979e-02,-3.502855273118657409e-02,6.363546406256842709e-03,3.231564584220480985e-02,-2.667806137159411863e-03,3.751212954521179199e-01
3.567590917885488100e-01,-3.064302380183911434e-02,-1.320883691533653037e-02,4.652551570911721973e-03,6.618345230877338385e-03,-4.496555849667233443e-03,3.793248236179351807e-01
3.828553274581262267e-01,-4.655306523782040684e-02,4.076136176120681576e-03,4.128498148485830813e-03,4.995827481279746518e-03,-7.531302630854083517e-03,4.068297445774078369e-01
3.292050069448980709e-01,-4.045808244118834218e-02,-1.504649467427454645e-02,1.452136715196360867e-02,2.059332460769309342e-02,-2.135246692674113746e-03,3.603073358535766602e-01
3.012884104765558568e-01,-2.836892263724474783e-02,-1.947156503067519473e-02,-2.074901225092513901e-02,-8.966923968666155875e-03,-7.254376015381493702e-03,3.278882503509521484e-01
3.388857508317517642e-01,-3.171846447133763736e-02,-2.578701136253983006e-02,-2.109645154509151577e-02,-5.074438938716981443e-03,-3.829705786998312961e-03,3.696496784687042236e-01
3.256217190257991168e-01,-2.757825711389383372e-02,-2.477913905274151118e-02,-3.717443264418759247e-02,-2.119945465501842791e-02,-1.048344553739087234e-03,3.595368862152099609e-01
3.422298087264201705e-01,-3.575381009085978889e-02,-1.985021465765404725e-02,-1.768053153845042247e-02,-1.123720575090702764e-02,-4.778384522367679597e-03,3.721536993980407715e-01
3.253448743188894210e-01,-2.538316687473798905e-02,-2.313675455828395622e-02,-1.247192291727206026e-02,-1.325618581199997786e-02,-5.849854315937117431e-03,3.511748909950256348e-01
3.279862395236172734e-01,-3.115616183440930720e-02,-2.217338466315715850e-02,-1.701154703842320051e-02,-6.437434691046294531e-03,-2.349826137820502578e-03,3.561557531356811523e-01
3.364437376868825713e-01,-2.624277058587490274e-02,-2.815397044518319625e-02,1.247270562741112712e-02,-3.202257016701624912e-03,1.822984228539300481e-04,3.643293678760528564e-01
3.258772923558590495e-01,-3.699025832770092004e-02,-1.665071393233610864e-02,9.990074203836558572e-03,-2.601747903430280846e-03,1.406409430428974755e-03,3.535981476306915283e-01
3.279326784452162302e-01,-3.631509877907679318e-02,-1.955624409135728325e-02,7.762065154022919702e-03,5.779607598232079299e-03,-6.000132720738262943e-04,3.565599024295806885e-01
3.554803295119524642e-01,-3.318171282105650266e-02,-3.191203316372495657e-02,2.806186198899759412e-04,-4.539400355360270365e-04,6.983740023629367560e-04,3.880317509174346924e-01
3.280498926578532259e-01,-3.783624883610581247e-02,-2.162151180976151776e-02,1.117673141380153695e-02,-1.374064092919502532e-03,1.700891252036167275e-03,3.585971891880035400e-01
3.542833884095116237e-01,-2.706259221493967360e-02,-1.405338540406314563e-02,8.622753822131973105e-04,-2.414821768619401787e-03,1.584922450514831280e-03,3.750469982624053955e-01
3.478965862106247475e-01,-2.167575000334423518e-02,-3.465011000313514278e-02,-1.448035997843832856e-02,-4.360070869297308360e-03,1.123699839543374455e-02,3.776398897171020508e-01
2.927659353208670878e-01,-2.413499832601039008e-02,-1.936027385079998331e-02,-2.572547440798636162e-02,-3.262595005317171087e-02,-8.090386599534213699e-03,3.229721486568450928e-01
3.065534788012517775e-01,-3.095125764966935589e-02,-2.325370284047076352e-02,-5.240839511969316161e-02,-2.149185830679252451e-02,-2.966308939000076444e-03,3.478832542896270752e-01
3.545748405952305338e-01,-1.919769876406013376e-02,-3.095664365321187939e-02,-1.758766807393460918e-02,-1.621020529055400630e-02,-7.925255171185341700e-04,3.820438981056213379e-01
3.495105630438102851e-01,-2.775487402541945703e-02,-3.665745526719760283e-02,-3.616012508237945698e-03,-1.581458371941553420e-02,-9.443502705829353401e-04,3.828306496143341064e-01
3.216566618899293073e-01,-2.788822081445874179e-02,-2.281985394040866866e-02,-2.449112071069059829e-02,-1.253907852587857717e-02,-6.161916720233264443e-03,3.504578769207000732e-01
3.176109731483724996e-01,-3.351804539587704967e-02,-2.350090205636667928e-02,-2.535145245989058049e-02,-1.156437306854770503e-02,-6.331531884489056267e-03,3.497487306594848633e-01
3.452257827291184689e-01,-2.851371647907163798e-02,-3.307882460492170273e-02,-2.493613837461213303e-02,-2.062377759702789526e-02,-4.502668928338451719e-03,3.802768588066101074e-01
3.445513845579611933e-01,-2.596472750019993003e-02,-3.548178269670732021e-02,-2.797495953904806593e-04,1.270426775546209348e-03,-6.885526782657017857e-04,3.753737807273864746e-01
3.537835389330497016e-01,-2.915582359873347684e-02,-2.875088282069296342e-02,-3.700989218239423943e-03,-7.526019786575256429e-03,-2.987804833112153637e-03,3.830475807189941406e-01
3.578583501514022713e-01,-2.470184994967672409e-02,-2.886487215346086876e-02,-3.900565291027680188e-03,-3.061874712568229701e-03,-2.109304809132894309e-04,3.847546577453613281e-01
3.469058990842415757e-01,-2.817515541045040317e-02,-3.328414053423814356e-02,-2.125783902024753515e-03,-1.185122082395669019e-02,-4.484915659977265455e-03,3.783165812492370605e-01
3.515730564332900099e-01,-1.794110446006857984e-02,-2.519837734982971478e-02,1.516995251126963557e-03,2.982107490204300229e-03,3.040768058025765733e-03,3.732778728008270264e-01
3.520499875682320257e-01,-2.725800829685506854e-02,-2.209464173156680533e-02,4.859920351955725193e-03,2.244913953171348130e-03,1.343629235099718766e-04,3.768669962882995605e-01
2.397904127489452752e-01,-4.706924536689513494e-02,-2.340955735160740736e-02,6.246920906154533604e-02,4.578964202584816928e-02,3.456933424691445433e-02,3.124798238277435303e-01
3.383263331323602685e-01,-2.414342833359639506e-02,-3.181797738573929890e-02,-1.739217669957994830e-02,-2.647771455546948580e-02,-4.502168789171553595e-03,3.705354332923889160e-01
3.411438526510088831e-01,-2.965056377341493410e-02,-2.052813136588191312e-02,-3.968004230382236527e-03,-8.495306844335089036e-03,-2.019602904175216151e-03,3.666948974132537842e-01
3.593342654085813770e-01,-3.373559607165213525e-02,-2.087841933281917028e-02,6.885627191506737835e-04,-1.457750512885922639e-02,1.811807188990713184e-03,3.876393139362335205e-01
3.715938025724615512e-01,-3.553127057280544565e-02,-1.394134230019913878e-02,-8.106818926150236157e-04,9.442097135417995384e-04,7.681854656613830261e-03,3.969997763633728027e-01
3.651526899582308028e-01,-1.779777583333899682e-02,-1.777518719999182650e-02,2.561967913049075646e-03,-5.436098251475366891e-03,-1.831142297402230112e-02,3.843913078308105469e-01
3.581695839750625443e-01,-4.492592473599371639e-03,-1.755344047450091427e-02,-2.614103753465954992e-03,3.443684391265550149e-03,-1.387093909695087321e-02,3.702220916748046875e-01
3.577602608428200326e-01,-1.605953569174270457e-02,-1.279546761330990767e-03,-2.917535481314690107e-03,1.837431478819512732e-03,-1.678146914554427480e-02,3.678520917892456055e-01
3.688560663114091032e-01,-3.776553403875412829e-02,3.560403447651599995e-03,-2.438867501608686390e-03,3.100672716701612184e-03,-4.105998103608798569e-05,3.876746594905853271e-01
3.540991502508425981e-01,-3.051309022616668920e-02,-2.843846286270546031e-02,-1.514318932039568745e-03,1.035753196402268731e-03,-1.204192488473184407e-03,3.835979700088500977e-01
3.681073035391689841e-01,-1.988651784199055306e-02,-2.743199292466982908e-02,-2.690797267651378905e-03,-1.045775273958208856e-03,3.807717726934305678e-03,3.919084668159484863e-01
3.658093298674975902e-01,-1.026835822197727510e-02,-2.102222640438081158e-02,-7.901855660100390311e-03,-2.198911191446036115e-03,1.986075582825490987e-02,3.833791017532348633e-01
3.629095855004230153e-01,-3.736592056043089305e-02,-9.177749561971954018e-03,-1.813251550522226429e-03,-9.154205137348766369e-03,6.492616182272835379e-04,3.872912824153900146e-01
3.621736899505172413e-01,-1.586306926077496460e-02,-1.440542344790185503e-02,2.903545910087197007e-03,5.688982877753565558e-03,6.835903361636024023e-03,3.776578307151794434e-01
3.915125197371974730e-01,4.281450061221880876e-03,-4.609012120611841179e-02,-7.172520872691549171e-03,3.114696299444061258e-03,-3.940920699129074611e-03,4.149947762489318848e-01
3.791811968739307592e-01,1.634028696234718359e-03,-3.816666760803488767e-02,4.401335610079855701e-03,-2.984072294986762387e-03,-7.794225616806888662e-03,3.992739319801330566e-01
3.669513560927816775e-01,6.836241863156788945e-03,-4.644519570940047748e-02,-4.064330987031315734e-02,-2.841381786288408543e-03,-1.063206696004315686e-02,3.962678909301757812e-01
3.699768377105824846e-01,6.241693818604676647e-04,-5.011515129754973152e-02,-2.902080082863300187e-02,1.830190383804852772e-02,-1.748412987970038648e-02,4.027221798896789551e-01
3.595167829241412982e-01,-1.058376687427259322e-02,-3.260006675864682291e-02,3.549866493655247368e-04,-5.084748244167363457e-03,-3.899033951099296208e-03,3.817472159862518311e-01
3.242056079101901522e-01,-1.281245312475821907e-02,-3.689485535083958379e-02,1.637114144180478164e-04,1.095675341531145673e-02,-2.996305995598347142e-03,3.502349257469177246e-01
3.474304063955276356e-01,-2.291049892886504180e-02,-3.836084315214255414e-02,3.180338403874539283e-03,1.304302521691165333e-02,-5.749074100049922408e-04,3.790180683135986328e-01
3.400128418932401031e-01,-2.244639132762180078e-02,-3.763295078729692045e-02,-2.076177821170071408e-03,1.772734348456516534e-02,-2.653964004433642231e-03,3.716028332710266113e-01
3.617617474808050293e-01,-3.801324031975394924e-02,6.151442242642579661e-03,-3.496428534593420089e-03,4.871143407447476453e-03,-3.724056406956872609e-03,3.798211216926574707e-01
3.898850775029683025e-01,-3.820949880096138895e-02,4.887545222453271165e-03,-2.087921609112533376e-03,1.461503455942563283e-03,1.004900880806797875e-02,4.086503982543945312e-01
4.045441509989189943e-01,-5.155487830865448928e-02,1.304519228262232544e-02,5.010653908954185685e-03,1.162504147593130914e-02,5.739145815580701249e-03,4.281530380249023438e-01
3.910726640777487662e-01,-4.990732065196790135e-02,7.724637408121431958e-03,-7.568853194558067526e-04,-3.961542110044658687e-04,1.604331760743891999e-02,4.161064922809600830e-01
3.548436667344234130e-01,-2.497163273838662323e-02,-2.855281728586905876e-02,1.190747905539281740e-02,8.167045817063832772e-03,-6.449249006690567585e-04,3.824387490749359131e-01
3.551264909348239018e-01,-3.132643631437279086e-02,-3.227992696985054755e-02,1.472508138896907841e-03,6.438853320887716163e-03,-6.033586025730586569e-03,3.872406780719757080e-01
3.494235017731569526e-01,-2.979071104692859739e-02,-2.691445735657427285e-02,5.277984616494857222e-03,1.975677150849944851e-03,-2.507079497899286202e-03,3.779353201389312744e-01
3.531509894021480078e-01,-2.422720115428941834e-02,-2.686444332796736334e-02,1.607541497440743419e-03,2.899804659864693127e-04,7.353113457975826196e-04,3.787164092063903809e-01
3.520771570322245303e-01,-2.406714348953808980e-02,-2.546689886785252765e-02,1.704138889988163902e-03,-3.206723757646452819e-03,-5.444600893862239829e-04,3.768998086452484131e-01
3.534783810519262492e-01,-1.887477123481923202e-02,-2.402202598737149253e-02,1.777121978358603871e-04,-7.547078191757716726e-04,1.831650410082185211e-03,3.749690949916839600e-01
3.516632312574309305e-01,-3.248509656067036233e-02,-3.129758279834624068e-02,8.566161021958211812e-04,1.638006655718251625e-04,2.774803770215648370e-03,3.835890293121337891e-01
3.518488829238944904e-01,-2.410116137155648985e-02,-2.588706800069387470e-02,-1.510023557372002379e-03,-1.848711196736259072e-03,2.741035726532110688e-03,3.768987655639648438e-01
3.475884177957044296e-01,-2.913698924347393748e-02,-2.888459416470176566e-02,1.463387880136502329e-03,2.766546293555464161e-03,-2.403035011700824751e-03,3.766612708568572998e-01
3.724800655010396810e-01,4.826033061401946433e-03,-3.985465639220844847e-02,1.287454237647293886e-02,1.110056212682637537e-02,2.003130503395002260e-02,3.945422470569610596e-01
3.684614188647521438e-01,-1.245700279598901949e-02,-3.152423287018127351e-02,6.196515882987375587e-03,6.740875892593678346e-04,4.775965493788448570e-03,3.910376429557800293e-01
3.436185170868396588e-01,-2.612219607670077104e-02,-2.404520457898925989e-02,-3.825390644410508480e-04,-4.332788828015147510e-03,1.436536110257092711e-03,3.687919676303863525e-01
3.515509578545619185e-01,-2.595889558156710963e-02,-1.956993988217783920e-02,-2.473606522250757227e-04,7.793447129040535423e-03,-8.113682655092935292e-03,3.748633265495300293e-01
3.558992992122499976e-01,-3.036993706331525544e-02,-2.154703754941761362e-02,3.730252658267750078e-03,2.455479414989765637e-03,7.086341795718916229e-04,3.820145130157470703e-01
3.539855126254622952e-01,-2.954321664632195144e-02,-1.090211291703654939e-02,-2.161391977269037316e-03,1.536289560727677889e-02,-2.449025680089607533e-03,3.755428493022918701e-01
3.387705590130392630e-01,-2.781666808829388882e-02,-3.584979428685436398e-02,-9.380901481252463744e-03,1.528406169816424326e-02,6.102282138161429885e-03,3.721183836460113525e-01
3.517725720766121666e-01,-2.833138704524243434e-02,-3.301339282034862488e-02,-2.408304721256261313e-03,1.305074400362667662e-02,7.707779685892928931e-03,3.833890855312347412e-01
3.534507645079807414e-01,-3.053076228959877847e-02,-1.608423375735784644e-02,-1.000941871542377314e-03,3.127676297997256018e-03,-5.722087436934270716e-03,3.771390914916992188e-01
3.605302652830952859e-01,-3.207391865597400415e-02,-3.294505267175001917e-02,-4.835347277115919877e-03,1.487088917710386454e-02,1.005178057768252412e-04,3.939726054668426514e-01
3.397034259879258000e-01,-2.530658589603571040e-02,-2.475485767439675189e-02,-7.387083652762927929e-03,1.096655056532730953e-02,-1.038718129151874415e-03,3.654572069644927979e-01
3.665618995343302156e-01,-3.718679562014634565e-02,-1.113563387067648125e-02,-5.302101734123271758e-03,1.537652255205498170e-02,-3.437180696256007025e-03,3.924317061901092529e-01
3.756677012768012691e-01,-5.311339722351787751e-03,-1.873810820247551190e-02,-2.802808352630074828e-03,-3.108209510243318749e-03,-1.257256069537149995e-02,3.885452151298522949e-01
3.569284635415562734e-01,-1.638032744810413721e-02,-6.719464632723715081e-04,-1.859915650501714306e-03,7.220389076952352060e-04,-1.681538828802850091e-02,3.668819069862365723e-01
3.544627264095696617e-01,-1.981710238313286188e-02,-1.750204111260894591e-02,-1.305903525948722693e-03,4.132016840828627068e-04,-9.819970127042257704e-04,3.731391131877899170e-01
3.585187546446377826e-01,-2.185954951160104520e-02,-4.393702413228284254e-03,-1.093645926340763668e-04,2.600053671653310833e-03,-4.095398108774754055e-03,3.720479905605316162e-01
3.548890205039201828e-01,-3.238831952867557429e-02,-3.236248807048058840e-02,-6.787868004954031613e-04,-9.168473441063328502e-05,-5.191450526527063500e-04,3.872672915458679199e-01
3.685557643993420118e-01,-2.534443782980955184e-02,-9.272580523969398136e-03,3.101286205304537667e-03,2.990246777844506043e-03,-9.518987892000778384e-03,3.865391016006469727e-01
3.574918211779251620e-01,-4.713413357850221308e-03,-1.772563695471246481e-02,5.183007903438984106e-03,-2.989983202932620671e-03,-1.418188081330899568e-02,3.698456883430480957e-01
3.520517136685656912e-01,-1.188878318611624740e-02,-1.812431559073995890e-02,2.294169921827896117e-03,6.103952686232616684e-04,-9.332617903821525951e-03,3.674767017364501953e-01
3.592668893786386541e-01,-2.243686431027375194e-02,-1.148823891163563982e-02,-5.902525336589712745e-04,-1.348164714003182319e-03,-8.490007528624190364e-03,3.766447007656097412e-01
3.546726116101721615e-01,-2.097300270543903111e-02,-1.885458097553788237e-02,-1.577115312669248809e-03,-1.648839416891838792e-03,-5.701313084911781986e-03,3.747418820858001709e-01
3.898919547545639519e-01,-4.210698979187074698e-02,2.200371866544922894e-02,-3.927676619337440445e-03,1.104393567576095019e-02,-6.963020484351178409e-03,4.044689834117889404e-01
3.682202545569224772e-01,-4.437570675224083994e-02,2.576866491788719349e-02,7.934196313686885191e-04,3.612555092805047434e-03,-1.748188063964543643e-03,3.824455440044403076e-01
3.696452296156647055e-01,-4.567714780567566635e-02,1.955926507203240017e-02,-2.433499576961342410e-03,-1.591155515711564295e-03,-5.949195277758994628e-03,3.870217800140380859e-01
3.624378615978780527e-01,-4.350749213067794940e-02,1.044416107023554696e-02,1.709816037833801483e-03,3.290091395920036969e-03,-7.751725382878987304e-03,3.821288943290710449e-01
3.496282608191781938e-01,-2.915064986739351882e-02,-2.780308544257698022e-02,3.482266798913342086e-03,-8.715721515068915529e-03,3.242000083980446819e-03,3.784978985786437988e-01
3.430802013888246127e-01,-3.992292608913003416e-02,-2.229692928633555948e-02,-9.347133843170534351e-04,-4.466495126824418819e-04,8.130300192354041359e-04,3.745082914829254150e-01
3.461854484993011627e-01,-2.821492588494314835e-02,-2.903273392936228658e-02,7.153912289408519837e-03,-2.797564195726358945e-03,3.869592958270961971e-03,3.751058876514434814e-01
3.544899938804905726e-01,-1.786027812423846006e-02,-2.614849875677532909e-02,-2.348178414480948505e-03,2.760540740497640332e-03,-1.566792714677498833e-03,3.766248822212219238e-01
3.541398140760645963e-01,-1.889899060512417739e-02,-2.213108633243068835e-02,-2.568478603542951634e-03,3.119276442736896877e-03,-6.232042233517183158e-03,3.748860955238342285e-01
3.629705549695712019e-01,-2.458303759081609252e-02,-2.205526630499263230e-02,-1.373704977592829718e-03,3.059295544048336833e-03,-7.106118225997376005e-03,3.865355849266052246e-01
3.543820482406828121e-01,-2.627605745692832007e-02,-2.354803555968021378e-02,5.416471597389678483e-03,-4.490079736679155296e-03,-1.218936079088261872e-03,3.795030117034912109e-01
3.536087221701382788e-01,-2.815088314036076622e-02,-3.015998784016019063e-02,5.409753600199790693e-04,-2.771155261284286280e-03,2.947466858837632670e-03,3.828333914279937744e-01
3.531956604752672368e-01,-2.599085856797991867e-02,-3.043439408967865689e-02,6.519703279843106977e-04,-2.235159474561958324e-03,9.256987014364873164e-04,3.814523816108703613e-01
3.611183314433650815e-01,-2.759119975067786390e-02,-1.588827096567144159e-02,-1.272231569430633041e-03,-4.282733608810387893e-03,-2.769973394249357779e-03,3.831003904342651367e-01
3.339845940752044773e-01,-2.247762236667061320e-02,-4.155071198943915967e-02,5.245136846930991987e-04,-1.093306158050032575e-02,1.435656232835941281e-03,3.668699264526367188e-01
3.747222940659425405e-01,-3.877981899970045498e-03,-3.134096224440202638e-02,1.513709300609142848e-03,-6.377489776121985981e-04,-1.258609995449144585e-02,3.936663568019866943e-01
3.555064212465516849e-01,-2.334955563759535946e-02,-1.957231082526525445e-02,3.867711086372915136e-03,-3.514125698716648663e-03,-3.721253995029904279e-03,3.771452605724334717e-01
3.548556418662927037e-01,-1.695981069902344207e-02,-2.044323848393517218e-02,3.331207839543245345e-03,-3.545662471039145829e-03,-3.260633085865456433e-03,3.737070560455322266e-01
3.552107797688591750e-01,-1.787395288164417284e-02,-2.219468916339076281e-02,3.643779636792093650e-03,-3.522272358817830386e-03,-5.913388998055628919e-03,3.755061030387878418e-01
3.533940940438554668e-01,-1.774322281495654963e-02,-1.954610959819957916e-02,-2.067509393296657755e-03,-1.082426269717383675e-03,-7.518467848089893484e-03,3.722918033599853516e-01
3.483109698774605190e-01,-3.514808971929017645e-02,-2.733228206687612905e-02,4.049828077051010645e-04,-6.721775870180732955e-04,2.326656281753134142e-03,3.796353340148925781e-01
3.580971785530416840e-01,-1.440022818298955509e-02,-1.523294764344684804e-02,2.396845222157240832e-03,-1.512126908338293175e-03,-5.314513760824841372e-03,3.730603456497192383e-01
3.677843840700142364e-01,-1.955881945807697031e-02,-1.900347124551371447e-02,-1.076497460456521567e-02,9.205821855616018456e-03,-1.348347548577617447e-02,3.885450661182403564e-01
3.568696657775001779e-01,-1.457163138079162201e-02,-5.808907989133305083e-03,2.445117446039150617e-03,-2.750992827055257894e-03,-1.456627559806602211e-02,3.680594563484191895e-01
3.203425379805774353e-01,-1.962056658702754364e-02,-3.386508248259620379e-02,2.887534661773687172e-02,-1.323028716916656300e-02,4.557518028321918581e-03,3.517232239246368408e-01
2.846723895109857794e-01,-2.989233582077846507e-02,-1.252823439526656868e-02,3.140017145775212543e-02,-5.219269621030418402e-03,-9.771681440860929303e-04,3.111797571182250977e-01
2.379800668463615820e-01,-1.819527783249942632e-02,-1.394671167205090156e-02,4.221020306958420815e-02,-7.846993880280166492e-03,2.507043621848216615e-03,2.647719085216522217e-01
2.682083721415542965e-01,-2.663261566711860873e-02,-5.816404894962559635e-03,2.151640333613193817e-02,6.788155675384666306e-03,-3.962898309566875027e-03,2.877520918846130371e-01
2.806451460965682654e-01,-2.624907796723399689e-02,-1.379609765968976831e-02,1.775334203031197350e-02,-9.538753140822782764e-03,-2.838048483216438350e-03,3.029192388057708740e-01
2.380021328579240703e-01,-1.942636168982332656e-02,-1.310747368529568968e-02,4.523845787136283186e-02,-1.474615677061169236e-02,3.773193185156094222e-03,2.674272060394287109e-01
3.040142675148709839e-01,-2.778488094449857448e-02,-1.603114334017492759e-02,1.599992014064519422e-02,-1.066177826661204170e-02,6.165878686852302101e-03,3.279512226581573486e-01
3.262232250354230589e-01,-3.583413970720461528e-02,-2.032007652309461565e-02,1.289899259578844264e-02,-5.343058693318917390e-03,3.746885663588833768e-03,3.554379642009735107e-01
3.439116171656647625e-01,-3.734172092452206493e-02,-2.064934609537694143e-02,1.670206095804344093e-02,3.237388880918347714e-03,3.066159869276703295e-03,3.743864893913269043e-01
3.070276546072987500e-01,-3.241394714053194570e-02,-1.989763393201367248e-02,2.036891959485535517e-02,-1.840826470071469864e-03,3.789925865621191891e-03,3.353008031845092773e-01
3.158259926486288727e-01,-3.218357444709291082e-02,-1.900498292131372335e-02,-2.730584064224492874e-02,2.789505376320384339e-02,1.741820509031720898e-03,3.482504785060882568e-01
3.598014142247800140e-01,-9.251199946212207426e-04,-3.497106937141336580e-02,-3.714764642412875240e-03,-2.390779248073391251e-03,-2.109641449264960510e-03,3.789933025836944580e-01
2.875826878377574225e-01,-2.149641462412191228e-02,-2.497015386409778825e-02,-1.676878719683217930e-02,2.820662637202760170e-02,9.210056595458914266e-03,3.163866400718688965e-01
3.211283596116342731e-01,-2.675141378863837849e-02,-1.879434163592244578e-02,-3.987486482332884552e-02,3.001267355852698521e-02,-2.503347598322184717e-03,3.546923100948333740e-01
2.622133549016728571e-01,-1.143817106091425673e-02,-2.909970893469615572e-02,9.661627383166894456e-02,-2.180470724530346807e-02,-3.118671820097482922e-02,3.352289795875549316e-01
3.531853033395475072e-01,-2.792800409970680464e-02,-2.798532168068351700e-02,7.263284876214844664e-05,1.136749764353211199e-03,-6.468527182408725451e-05,3.811470866203308105e-01
2.012497504331087206e-01,-1.485086700695928408e-02,-8.104428842266891975e-03,2.139033462453093087e-02,-4.470669216842684118e-02,-1.170176946458290242e-02,2.303618490695953369e-01
1.022114342387932528e-01,-8.395661908652679584e-04,3.774066271207895951e-04,1.035427117337211697e-02,-5.990302706726034765e-02,-6.601510464577365830e-03,1.473535597324371338e-01
3.548845284631458319e-01,-2.706376552961886617e-02,-2.750840385114017295e-02,8.230313700477714657e-06,-9.755660663557741506e-04,1.151838524328550493e-03,3.821797370910644531e-01
2.022533076534829000e-01,-5.368372334928171730e-02,1.128982691978084457e-02,3.636506837973223216e-02,-6.270087091906176302e-02,8.975595260376386525e-03,2.628675103187561035e-01
2.122494968403585702e-01,-1.902216946790381835e-02,-1.421900126039842005e-02,6.615687717232747456e-02,-6.266254503632896766e-02,-2.051095231472088026e-02,2.803049981594085693e-01
2.182170290650369826e-01,-2.942491571606226097e-03,-1.338631449738317269e-02,1.011487745589265130e-01,-4.742197963911595759e-02,-1.396318394350008416e-02,2.989231050014495850e-01
3.587755448584855622e-01,-2.746017393544405993e-02,-2.280808036560719176e-02,1.234055500198868831e-04,1.049120755146424645e-02,-3.949064708421247405e-03,3.844214975833892822e-01
3.548975547709472544e-01,-2.650667776009046905e-02,-1.625447568883717220e-02,-2.112961524050976231e-03,9.698695441764071737e-03,-1.334090251320053933e-02,3.774832189083099365e-01
3.529938387821064394e-01,-2.862858598284573342e-02,-2.333130914165326697e-02,-7.069180400818990406e-03,9.114564863592921479e-03,1.024521189322812878e-04,3.795278072357177734e-01
3.664272786070600918e-01,-2.648306386720689076e-02,-1.797151794910126221e-02,6.907924604033388594e-03,-2.529266753302770489e-03,-5.359801559541766194e-03,3.890440165996551514e-01
3.373623343942272479e-01,-2.847849561471932356e-02,-2.281867772641982262e-02,-1.043268634169756265e-02,7.818236193534066486e-03,-2.814456361757300287e-06,3.637455999851226807e-01
3.437057438857662461e-01,-2.674705705053573301e-02,-3.627687393765785528e-02,-1.528011709262924386e-02,2.453803372623057297e-02,5.067605995367607113e-03,3.787350952625274658e-01
3.742259353032514335e-01,-3.207250304960690412e-02,-2.298652910388668258e-02,-2.083637305490465899e-02,1.455227331371573493e-02,-5.119257915001275590e-03,4.043337106704711914e-01
3.669718937893138855e-01,7.369734526277871289e-03,-3.417910395721804329e-02,1.090718418421923047e-02,-3.532836158266564053e-03,-2.185376373300423891e-02,3.844582736492156982e-01
3.956948270272078183e-01,7.217694261890006402e-03,-3.811720500576323833e-02,1.475542582842772135e-02,-1.362033680989994553e-03,-2.104997267087238902e-02,4.154146611690521240e-01
3.535719546542901992e-01,-3.612928501663031922e-03,-2.023939336758528995e-02,-4.837843897836778973e-04,4.528208248945308741e-04,-1.334743962995806055e-02,3.665132820606231689e-01
3.951734462580059892e-01,2.683354427743839254e-03,-3.658947480532981356e-02,8.374221431763780379e-03,-8.454720329687633734e-03,-3.051055635705742300e-02,4.173997342586517334e-01
3.887824762906131881e-01,-1.264038143252377289e-02,-1.400344448946239106e-02,-1.518937113640611222e-02,1.047442844173783125e-02,-2.466380439907078087e-02,4.056298136711120605e-01
3.599532963305481781e-01,-7.474327105897793366e-03,-1.969458585521957628e-02,7.127268052364441747e-03,-2.361471794722650938e-03,-1.942327421566753323e-02,3.754242360591888428e-01
3.634270842090393527e-01,-3.160980650253644719e-02,-2.169475533121814625e-02,2.880159997930684806e-02,4.138360489632358918e-02,1.604075211010188434e-03,3.998371660709381104e-01
3.719400713907750622e-01,-3.154887220983218499e-02,-2.950259968634710850e-03,3.352097578617968272e-03,-3.435495357995952542e-03,1.466750523514695828e-02,3.908919394016265869e-01
3.233676567219332387e-01,-3.436021894865845527e-02,-2.308651866527292040e-02,-5.669689098096439284e-03,4.077866790714485684e-02,6.290185707454733037e-03,3.595375418663024902e-01
3.372832313272752791e-01,-3.066211070404503691e-02,-1.742048572692764252e-02,7.673627769549157610e-03,2.147460537359110327e-02,5.575009378862544980e-04,3.636591434478759766e-01
3.654367842202898009e-01,-2.933871881487740141e-02,-2.817377570122314712e-02,8.769167453972187554e-03,8.509715523328787584e-03,-1.125119259514280453e-03,3.947668969631195068e-01
3.551751280428835922e-01,-2.884967810510113972e-02,-1.055072097311954282e-02,1.832997295345371262e-03,1.251390343173253714e-03,5.377432533995819483e-03,3.753454089164733887e-01
3.552335690648253941e-01,-2.890039399129312736e-02,-2.745386557925774684e-02,8.758511332601565721e-04,5.766454561432805695e-04,-4.155022597523570413e-04,3.834177255630493164e-01
3.649748315647032837e-01,1.502628506509022521e-02,-3.975252253730740537e-02,-6.655069214103221265e-04,-2.424273532763567105e-04,5.154420444518198127e-03,3.804151415824890137e-01
3.686826137329702324e-01,3.509524977551470304e-03,-2.992847622356217818e-02,-2.878304463115788272e-03,1.517005047282485959e-03,1.062111750633536883e-02,3.834713995456695557e-01
3.559665848025219126e-01,4.406267570020466762e-03,-3.052187429112659944e-02,-1.530274536383442524e-03,1.252977665870169720e-03,5.223438049892798613e-03,3.703883886337280273e-01
3.530795411005765994e-01,-2.199427831569286673e-02,-2.225311320117456804e-02,1.282297491176967756e-03,1.177661044762466939e-03,-5.495951359582467620e-05,3.752154409885406494e-01
3.540392872040661332e-01,-3.351113311503303716e-02,-2.951290021309010969e-02,8.106348576736060367e-04,-2.422959278494347187e-04,-2.797281435167459779e-03,3.856000900268554688e-01
3.519429539138886898e-01,-2.637682108414199367e-02,-2.741776893041886209e-02,-1.636383545068671340e-03,-1.561655610676707237e-03,1.398250149333313697e-03,3.788693249225616455e-01
3.543273353973400708e-01,-2.627550941313447352e-02,-2.781850722696177503e-02,2.146840321688479360e-03,7.199029178290643986e-04,-1.120332684089919402e-03,3.814017772674560547e-01
3.520426028588080070e-01,-2.649912283301741889e-02,-2.521994037136435218e-02,-9.753055998003876213e-04,-2.386778602484609501e-03,-3.022549403759395084e-04,3.779305219650268555e-01
3.889340995694393621e-01,-2.570110004126802128e-02,3.489017654531578749e-05,-4.405242092204883671e-03,-1.597176261361498914e-03,3.515344422919624429e-02,4.070464372634887695e-01
3.544357566810719118e-01,-2.658040672201508747e-02,-6.714698196901153215e-03,3.899736031357337734e-03,1.687260647650749325e-03,3.029934746501329254e-03,3.715918660163879395e-01
3.625058216404889455e-01,-1.106025629244386521e-02,-2.066091058680968873e-02,1.095226300765778094e-03,4.020165367852459454e-03,8.955648908060560853e-03,3.788442313671112061e-01
3.535587242193327095e-01,-2.813094357122600253e-02,-2.662426422287664241e-02,-1.765492274663171780e-04,-1.308496214098970678e-03,3.074467664295822450e-04,3.809458017349243164e-01
3.759925979215147374e-01,-8.625244914184815315e-03,-1.962997066177912808e-02,1.462996006933963908e-02,2.124532010586438480e-02,2.731547463807079690e-02,3.956250846385955811e-01
3.962632843326146515e-01,-3.338936634104980317e-02,-1.177906618035273745e-02,1.342843355782299053e-03,-3.295446012934726557e-05,2.367543793719994322e-02,4.212724566459655762e-01
3.757595587042609764e-01,-2.751344073301226212e-02,-7.896235996560752035e-03,5.401491991760788529e-03,1.751594576529361992e-03,2.839305770017842498e-02,3.970114588737487793e-01
3.947895935112750165e-01,-1.294984254462583362e-02,-1.209814537303746662e-02,-3.454235405817981594e-03,5.387134103514995423e-04,2.086671155627529625e-02,4.089594483375549316e-01
3.536419135774249156e-01,-2.811506885583392457e-02,-2.391527138243085271e-02,3.514169287947132431e-03,7.336366946109113343e-03,6.549686878727200689e-04,3.799375295639038086e-01
3.465348151762675522e-01,-2.834985885416799190e-02,-3.162304866889442678e-02,1.838282690094916651e-03,7.362551150741747374e-03,-4.786085610639901310e-03,3.768524527549743652e-01
3.410274844503269343e-01,-2.767657548762170183e-02,-2.725689718244725390e-02,8.063889316705860622e-03,1.109709759970073546e-02,-5.738461667170194564e-04,3.692609071731567383e-01
3.421704873000102620e-01,-2.520997912853234491e-02,-2.884394502981954544e-02,4.759941204172416993e-03,8.601798449082004999e-03,-1.772987363662725975e-03,3.696160614490509033e-01
3.011655726579268166e-01,-2.345613221553359551e-02,-3.341091115302083359e-02,5.582070471060867137e-03,2.676531230110978585e-02,-5.516487086925460359e-03,3.332323729991912842e-01
3.368330338835663351e-01,-2.477978141945155754e-02,-3.542912857023799988e-02,8.268910138162343521e-03,1.059705461869802842e-02,-6.838977611055497424e-03,3.679816722869873047e-01
3.344186102100731306e-01,-2.374940031618785752e-02,-3.385019472541894725e-02,7.598324903403053804e-03,4.029896968779192977e-03,-3.736785149966269717e-03,3.636865913867950439e-01
3.286387464184654106e-01,-3.090802951010834798e-02,-2.856805015492441813e-02,1.373127846547103972e-02,3.283558013366646294e-02,1.845222597337554948e-03,3.636597394943237305e-01
2.588513663822665789e-01,-2.178121445069156059e-02,-1.114311975035828239e-02,5.105438414322423929e-02,-2.853742705600579438e-02,6.821639337410583849e-03,2.937428057193756104e-01
2.529562074202151845e-01,-2.303039886548864656e-02,-1.403000826602986140e-02,5.208100861825146893e-02,-1.413303470711094190e-02,7.364495821774853877e-04,2.872346937656402588e-01
2.609379632412125449e-01,-2.789691272861674620e-02,-1.017672316057206816e-02,4.291466201831522359e-02,-5.782690400842848387e-05,2.612006300504735295e-03,2.901152670383453369e-01
3.499928981286131724e-01,-2.596488885436434857e-02,-3.160912484155489754e-02,-5.392031116002423199e-04,-2.412109180549267332e-03,1.904496010248328975e-03,3.788499832153320312e-01
3.536862714776389249e-01,-2.821567538144120757e-02,-3.140947922955872329e-02,-6.492132378993145528e-04,-3.607506913047851642e-03,2.123369545538895259e-03,3.835790157318115234e-01
3.542942577728227516e-01,-3.588491348840913697e-02,-1.041731333284551253e-02,1.133748372731896307e-03,-6.312520719653302945e-04,2.466096218079953488e-03,3.781200349330902100e-01
3.635582099971930714e-01,-3.324681726810996274e-02,-1.653631672825520149e-02,-7.840112240421190978e-04,-6.910785765911944128e-04,4.736889061424742016e-04,3.887243270874023438e-01
3.725095657268673310e-01,-3.983080878881692377e-02,8.160054541014399865e-03,7.222379862510883153e-03,1.410399628466500526e-03,-1.019233156613198027e-04,3.907705545425415039e-01
3.714546332478652624e-01,-4.276500583924877641e-02,6.371450838232262104e-03,2.398380067087489079e-03,4.378674273481240192e-03,2.492631836911664463e-03,3.920872807502746582e-01
3.582193181087371392e-01,-3.603507843833167468e-02,6.761252842368795091e-03,-1.427046395133766809e-03,-4.255635571818634777e-03,2.080046617161443370e-03,3.747917115688323975e-01
3.628638619305449287e-01,-3.531777581462619553e-02,-6.422867329495540734e-04,2.486085014600946286e-04,-4.098400375338135011e-03,2.140733656872931181e-03,3.821101784706115723e-01
3.589655278697667096e-01,-3.565229398218483503e-02,-3.687030388573792061e-03,-8.781032911048089647e-04,4.725380709661599829e-03,2.791070353353431680e-03,3.797678351402282715e-01
3.570198559676986405e-01,-3.696462959519608571e-02,4.819143377509688131e-03,-3.735786431419683452e-04,-5.470482316393535091e-06,6.155029439660023461e-04,3.748453855514526367e-01
3.529195295689582235e-01,-5.604408398675098102e-03,-3.310621466086785536e-02,-2.844169620947057352e-03,-5.841176594077616968e-03,1.229121127903522312e-03,3.732117116451263428e-01
2.938163719889551606e-01,-1.863211082777199712e-02,-2.414792844115576376e-02,-2.893904568106839270e-02,-1.519341041618595123e-02,1.594369280010634682e-04,3.202856481075286865e-01
3.034655975274543893e-01,-2.081814433497479466e-02,-3.069436089853944116e-02,-3.100725293517339609e-02,-1.195584112664576856e-02,-2.930494670388130492e-03,3.343637585639953613e-01
3.584502742251998164e-01,-2.383949306575061655e-02,-3.335668232845045988e-02,-4.705143057902114179e-02,5.626703628682439701e-03,5.032134186594078469e-03,3.958368599414825439e-01
3.552565216091406186e-01,-3.218589679379593727e-02,-3.718891067605181733e-02,-4.094330545196757376e-02,-4.391798839305337612e-03,4.249197054501376199e-03,3.965049088001251221e-01
3.143113029803280001e-01,-1.609238413715144422e-02,-3.527336704403247203e-02,3.432570037267756828e-03,1.308395767335159346e-02,-4.649916021352863520e-03,3.413001000881195068e-01
3.021220422102341430e-01,-3.459414667335494742e-02,-1.600602400313146101e-02,2.639821155870010136e-02,5.309759556016444004e-02,-4.625369790832299655e-03,3.436236679553985596e-01
3.133291583322014295e-01,-1.498828025796224150e-02,-3.274616096628216177e-02,4.195291690372149719e-04,1.653206179570286885e-02,-3.225237188626530783e-03,3.388060927391052246e-01
2.891838868932761764e-01,-1.895880316171598412e-02,-2.460229529444464547e-02,7.656459519090481544e-03,1.194540380945996114e-02,-8.186983710591325472e-03,3.122943937778472900e-01
2.502141806003475022e-01,-1.206646513620675265e-02,-2.467703800227460942e-02,1.728924044219629780e-02,3.562162034538499111e-02,-4.097166638237615495e-04,2.774195969104766846e-01
2.331813811781615065e-01,-1.611895067844593132e-02,-9.082272278256670051e-03,3.000950721655901154e-02,2.952886723164097754e-02,-7.795602852837828570e-03,2.567991614341735840e-01
2.013358975029828912e-01,-1.985353705031124572e-02,-3.249854625400561137e-03,5.940246025473414071e-02,4.729565221061004382e-03,-5.778468591546319019e-03,2.372364252805709839e-01
2.367041859953786520e-01,-1.790943642395563529e-02,-8.445272692716679352e-03,4.602986538319930876e-02,-1.311062658249482517e-02,6.832537721249699360e-03,2.636663019657135010e-01
3.561026359074315195e-01,-2.632410673964255543e-02,-1.917191087872613386e-02,-4.435804260033206561e-03,-3.147616038970052661e-03,3.674678692961041212e-03,3.790718019008636475e-01
3.470545215249029591e-01,-2.616358215606190418e-02,-2.888672863460778339e-02,-4.460971770106221188e-03,-3.540958717014998890e-03,-1.421983868901166657e-03,3.747250735759735107e-01
3.479304579287013088e-01,-3.292010288906677129e-02,-2.812998151680740078e-02,-2.881453774473033413e-03,-3.895007316098355633e-03,-2.377672024622267278e-03,3.785936534404754639e-01
3.516531224055802762e-01,-2.042164980952573816e-02,-4.111231041609625381e-03,-7.984884559015321265e-03,-1.237802178147406201e-02,2.145698288047898430e-02,3.669728934764862061e-01
3.567674339119663585e-01,-2.442121342319997224e-02,-9.908591477522682434e-03,2.903091096964112525e-03,-6.554951060197214017e-04,1.062398371951340723e-02,3.746311962604522705e-01
3.705717470064593400e-01,-2.867300564034011567e-02,-1.488379116138410785e-02,-1.752163836293228836e-03,4.133117158472525421e-04,4.954339277821784987e-03,3.926379978656768799e-01
3.545379004333220618e-01,-2.948644841176917275e-02,-1.679440186312797234e-02,1.376780388885109853e-03,-3.439605595447378888e-04,1.060823217965225937e-04,3.778462707996368408e-01
3.376667218164982054e-01,-2.405384541036820201e-02,-3.327063950615882781e-02,-1.138820730846109132e-03,3.026606612364994911e-03,3.350935350237727473e-03,3.665046691894531250e-01
3.430381230752203581e-01,-2.956928635360159263e-02,-3.212675337772449846e-02,-4.939900443856313356e-03,2.390163270672452387e-04,5.134657002303736999e-03,3.740965425968170166e-01
3.084128715996685144e-01,-2.408796046971742322e-02,-2.573029364588302892e-02,-6.465338456852190788e-03,6.396236146582074192e-03,8.140868144695716235e-03,3.339948058128356934e-01
3.269973969091764521e-01,-2.412543996447469308e-02,-3.095121415688881217e-02,1.146717888577964903e-03,1.531237454420147567e-02,7.522928248167087481e-03,3.558197021484375000e-01
3.239973043924793683e-01,-3.092632038705253605e-02,-2.531893382582012242e-02,-3.581853867355880121e-03,5.662266738928224165e-03,6.458708522202825757e-03,3.525221347808837891e-01
3.210935812903152886e-01,-2.480771789772454050e-02,-2.257153954165230791e-02,1.442515974325005862e-02,-4.577571304144972125e-02,-4.186338067501892482e-03,3.547425568103790283e-01
3.582892162692500326e-01,-2.986909226253292582e-02,-1.755013050245818329e-02,-1.395842913501685540e-03,1.392747330494466945e-02,9.527200154615824259e-04,3.829195797443389893e-01
3.128155705787565299e-01,-2.161626627819832058e-02,-3.647328214482714603e-02,1.402204261627034917e-03,-1.798955403241688650e-02,6.066882081579878273e-03,3.436877131462097168e-01
3.331339342072046628e-01,-2.849322584623870114e-02,-3.701636629279150825e-02,1.117260274947554956e-02,-1.536376640663176391e-02,5.351861833850355375e-03,3.675562441349029541e-01
2.641094708646555267e-01,-1.281514182494378207e-02,-2.585684574622197640e-02,7.546894961491988629e-03,-6.475160760107392943e-02,5.616848018632787827e-03,3.054713010787963867e-01
3.560251714364117692e-01,-3.186326419049317904e-02,-3.095527457158001039e-02,-2.127445882111193062e-04,-5.733925656042357984e-04,5.094070356906879506e-04,3.874377012252807617e-01
3.137030774697381896e-01,-1.514318214492485493e-02,-3.519965035811067899e-02,6.951639151917392637e-03,-2.232974093292506776e-02,2.075304951846943316e-03,3.417475223541259766e-01
3.527215197653670309e-01,-2.732751630294635858e-02,-1.618483363749786963e-02,-8.059935818903686457e-04,-3.118673417968149432e-03,1.176774843666657591e-03,3.746491074562072754e-01
3.515884887114084090e-01,-2.704069240307430122e-02,-2.435489173376007010e-02,-1.022111952191322995e-03,1.286520337998267214e-04,1.382779939292077002e-04,3.772977590560913086e-01
3.486290321323956554e-01,-3.049570961021011439e-02,-3.011463458916463498e-02,1.540089960194059428e-04,-1.647620270755677891e-03,2.846114791692142681e-03,3.789772391319274902e-01
3.525602122251205173e-01,-2.864692114964428882e-02,-3.252214609918749333e-02,-5.825506235505945518e-04,-8.064960662958294739e-04,9.431140990053335504e-04,3.831667900085449219e-01
3.499527131255200652e-01,-3.040656192304197480e-02,-3.002096729054126723e-02,1.949974427486147761e-03,-2.259331667602408091e-03,1.688860718718946698e-03,3.802130222320556641e-01
3.515829007860807320e-01,-2.643280829785471520e-02,-2.477946769122646442e-02,-8.899567811022439899e-04,1.148137949948067882e-04,-2.755175962314486242e-04,3.771952688694000244e-01
3.541723098445876960e-01,-2.962581136310901697e-02,-3.211128145862984784e-02,-1.507654555103420352e-04,7.426618426849897507e-05,1.154252658419900992e-03,3.850521743297576904e-01
3.497005320034412557e-01,-1.517233040232621177e-02,-2.276962856827688397e-02,1.310909821146867028e-02,-9.691196597437433738e-03,-1.383035862793061815e-02,3.705848157405853271e-01
3.605652414022311736e-01,-2.593829797424704320e-02,-2.604642245487454044e-02,-1.027504072491291012e-03,-1.077445936650430966e-02,-3.953759909074754109e-03,3.870725035667419434e-01
3.169500092822676307e-01,-2.929009407522500941e-02,-2.536922595860727214e-02,1.223317309448590517e-02,-1.583506545786217759e-02,-2.908204332458450697e-03,3.460730910301208496e-01
3.439308981147948807e-01,-2.612573266460846422e-02,-2.684616537029482775e-02,6.797690859053878275e-04,-6.587485080962894937e-03,-3.376842717957980410e-04,3.705953955650329590e-01
3.448615288845258697e-01,-2.039901912073946444e-02,-2.871887264668257500e-02,9.671308094288245602e-03,-5.596548737027281020e-03,-4.930025949931286615e-03,3.700957894325256348e-01
3.522254784192420107e-01,-3.596299828823229516e-02,-2.554839520695492694e-02,1.650910358792964314e-02,-7.544098208681177323e-03,5.158002683257526151e-03,3.844790458679199219e-01
3.071168298935421648e-01,-3.280916290360122445e-02,-1.266765479665460381e-02,1.433144033764582187e-02,2.070085176243755855e-03,-3.596277279961105234e-03,3.313254714012145996e-01
3.436567127046017966e-01,-2.648413608539076924e-02,-3.532581010785809661e-02,-3.666186175678469916e-04,-2.103488033088678428e-04,-3.035522627643347585e-03,3.746775388717651367e-01
3.390715280367103124e-01,-2.447480767543927516e-02,-2.798315704012410698e-02,1.070445799145520148e-02,-8.848213028458389463e-04,-5.776700001333325441e-04,3.657879233360290527e-01
3.551562734672221722e-01,-2.417860532256399519e-02,-3.006680953228998976e-02,1.684491638719945103e-02,2.344644402755519802e-02,3.596816581975549425e-03,3.856196105480194092e-01
3.728690764477084474e-01,-2.046913095374586211e-02,-2.913421120561696109e-02,1.048273050909776308e-02,5.559298287687730253e-03,4.046108707875542554e-03,3.983338177204132080e-01
3.665807431358660828e-01,-2.661489917901835311e-02,9.367323735977595156e-04,6.928636546452105957e-03,8.227911521084487270e-03,1.496970464743494107e-02,3.815076947212219238e-01
3.619355276559061974e-01,-3.252082468304451357e-02,-2.685526867154061637e-02,1.116346268513206119e-02,1.011148635003025244e-02,-3.757773009369993773e-04,3.925227522850036621e-01
3.706807568869882052e-01,-3.263306930429979436e-02,-2.917411312715287308e-02,4.493964739126998786e-03,1.366986111620047128e-02,1.118804773004659350e-03,4.023728370666503906e-01
3.546118923600202200e-01,-2.157259305590791820e-02,-2.714290112990400128e-02,5.492990598648097786e-04,6.510919747986889435e-04,2.791907777835389570e-03,3.790340721607208252e-01
3.767487990514122864e-01,-3.083782120978581509e-02,-1.895712246580011362e-02,2.999195049810894631e-02,4.944048503385414448e-03,1.512443811396502191e-02,4.060587584972381592e-01
3.594573500193474214e-01,-2.563016143554050497e-02,-1.524192664101928218e-02,-3.514484782104200424e-03,1.500437722710243685e-02,2.829449943222691125e-02,3.840756714344024658e-01
3.618756402637033354e-01,-1.310759133636033025e-02,-1.474369052842863792e-02,1.094621233128602322e-02,1.266060600873988341e-02,2.333189470819170205e-02,3.790805637836456299e-01
3.522329898250812219e-01,-3.008109014736820574e-02,-1.644666421268164980e-02,2.192361178449827707e-03,8.019805295934453668e-03,4.530537974311649868e-03,3.760402500629425049e-01
2.639797951249153174e-01,-2.096077476102159443e-03,-2.412549342355947701e-02,5.325409197198804727e-03,1.762780146625284733e-02,-1.411192373807028432e-03,2.795826196670532227e-01
2.201161641431585436e-01,-1.980417689866023623e-03,-1.033964802139271388e-02,2.039093122963308441e-02,2.359465206184255259e-02,-6.732054051926419230e-03,2.330381572246551514e-01
2.577337950033318226e-01,-1.064741130449281536e-02,-1.191242012593853039e-02,1.398763655807366488e-02,1.865009663844631460e-02,-3.890146016271117408e-03,2.721128761768341064e-01
2.079988706129373699e-01,4.000813324878213506e-03,-6.863021351390746760e-03,6.458846929532875876e-03,1.430888094860115894e-02,-1.645630790778738421e-03,2.114164978265762329e-01
2.130614326342071263e-01,2.242081462462963692e-03,3.629898690298102859e-03,8.755812937576147820e-05,-5.907911866251951312e-03,-4.040179783814206436e-04,2.103791087865829468e-01
2.617350406002044716e-01,-2.464842742159689681e-03,-1.830135915503397492e-02,8.668350216617522978e-04,9.952147461484981902e-03,1.220795714998594887e-04,2.730124890804290771e-01
3.839461130764519892e-01,-3.497862846672192272e-02,-1.616616902389295118e-02,2.561379642965817653e-03,2.594472094102017595e-02,-2.552554626830005717e-03,4.123462736606597900e-01
3.372661950770814987e-01,-5.171856320698262066e-02,2.287968098439634168e-02,-8.394505644167679290e-03,6.745842359009195099e-02,9.370420945207522459e-03,3.768065869808197021e-01
3.041902949689189173e-01,-2.252860678759499580e-02,-1.649593668293460047e-02,9.340592379575244492e-03,3.714264770126870369e-02,7.346657985109383750e-04,3.304735124111175537e-01
1.668115743403173479e-01,-5.575053449341119127e-02,-2.748110314774152019e-02,9.210855995794509782e-03,-8.811933737878600847e-02,-5.506964091335801378e-03,2.601574659347534180e-01
3.589353351660484748e-01,-2.652836606338612735e-02,-2.778599301274853328e-02,-1.289771076529350018e-02,1.593601269179434430e-03,-7.877052871256989136e-03,3.869902193546295166e-01
3.754081683116955448e-01,-2.070628805848559462e-02,-3.074448444328259367e-02,-1.221736506820735512e-03,6.587442986401983525e-04,-9.728595997761648947e-03,4.015886187553405762e-01
3.595857229875328298e-01,-1.995988919927718652e-02,-2.143111576591127942e-02,-1.496195449979527414e-02,7.941934733652138492e-03,-1.395931136131890564e-02,3.821790516376495361e-01
3.586438825784656892e-01,-2.142264126467888219e-02,-1.934170947307312094e-02,-3.328763983594431458e-02,4.989456161254045979e-02,-1.257444968720932733e-02,3.936126828193664551e-01
3.264191675964453476e-01,-2.130094986858996342e-02,-2.851684738225168658e-02,-2.837698119961035853e-02,2.306839929422572349e-02,-5.894094181684744402e-03,3.571930825710296631e-01
3.532646125062210429e-01,-2.465009125735620477e-02,-2.947470716342007191e-02,-7.157409190824498557e-03,1.193802461377040623e-03,-1.691712715419939599e-03,3.805688321590423584e-01
3.530491055881052054e-01,-6.517930357039458666e-03,-2.653090917366801582e-02,-1.452414104151926108e-02,1.398783516534104349e-02,-1.815453522709091494e-02,3.729525208473205566e-01
2.181212819224466470e-01,-1.085458383967978502e-02,2.988340985941556616e-03,-2.260217701964965797e-02,6.287903769622471724e-03,2.454096063351877358e-03,2.260998338460922241e-01
3.645074422801362624e-01,-1.897460812093754168e-02,-3.169806774763689328e-02,-2.150035193937617061e-03,1.187267797466396747e-02,-5.195706465098771584e-03,3.906626701354980469e-01
3.520673745989136849e-01,-2.517974123502925154e-02,-2.629604431919690954e-02,1.492752020468883500e-03,-2.183976316489842379e-03,-6.667108055533462960e-04,3.778360486030578613e-01
2.854540210899559338e-01,-2.704630415248468478e-02,-1.112887014305614930e-02,-1.863259050650903706e-02,2.244824707775048504e-03,1.631373409663516632e-03,3.065945804119110107e-01
3.591898020525932655e-01,-1.493619447362432018e-02,-2.470526042432483194e-02,1.998641364222015614e-03,-2.039616638759534045e-04,-5.994749275777349479e-03,3.792630732059478760e-01
3.530779750898444536e-01,-2.304190057299299044e-02,-2.616618445827872952e-02,1.711747030443526180e-03,-2.018206212377743683e-03,-1.131320355092590643e-03,3.777246177196502686e-01
1.865712734492157021e-01,1.849142852632934542e-03,-8.295374359248292029e-03,-4.656927104854904215e-02,-6.308644031675159428e-03,4.573504906124461859e-03,2.068509906530380249e-01
3.562082558068473404e-01,-2.304817117807805849e-02,-2.000708195125891486e-02,-6.312369722829390276e-04,-1.037105163562706319e-03,-1.604409237760925531e-03,3.777611255645751953e-01
3.019322995857826042e-01,-3.675050928345910406e-02,-1.592426469015642554e-02,3.632825061887660911e-02,-1.260866831432640514e-02,4.934437082531242108e-04,3.354447484016418457e-01
3.172186202056818671e-01,-3.655508044618421826e-02,-1.998205011879106152e-02,3.352004651288326836e-02,1.424478999406925475e-02,-2.791957623309590433e-03,3.515256643295288086e-01
3.557756470605074606e-01,-3.103966605777222498e-02,-3.175730445715449490e-02,5.535593144566740417e-04,-9.802400825045660452e-06,3.241408356940491146e-04,3.871762156486511230e-01
3.326532308351444756e-01,-3.586543442728229447e-02,-2.086755336204682010e-02,6.768414637625555161e-03,-6.216962626474450580e-04,-1.322943307126937199e-03,3.614523410797119141e-01
3.324945685715638422e-01,-3.642394483658753512e-02,-1.786959233409274317e-02,6.731267284643177064e-03,8.782959035111529854e-05,9.574203822805050536e-04,3.601927161216735840e-01
3.281878752776569153e-01,-3.898720403247588062e-02,-1.802402569701166968e-02,1.242469792311790000e-02,5.323331833638466140e-03,-3.886080453587477564e-03,3.579850196838378906e-01
3.377108711651112261e-01,-2.622957490146912707e-02,-2.683166307358617053e-02,1.197941106136412789e-02,-1.370991354192384413e-03,-4.853232759412478940e-04,3.648410737514495850e-01
3.325750494337527119e-01,-4.069711074918677673e-02,-1.761617943155049937e-02,1.675775767829415161e-02,-9.259808872867559442e-05,-4.869305733470017132e-04,3.634454011917114258e-01
3.265073566190103693e-01,-3.023694005034779919e-02,-2.080531064673990516e-02,1.373528142853237474e-02,7.322363582349574731e-04,-7.113527300273630527e-04,3.529303967952728271e-01
3.528139214953773251e-01,-2.700981562376528200e-02,-1.315218912860111056e-02,-4.048693232997797723e-04,-3.778377770261608266e-03,-4.152600929151444367e-03,3.732153475284576416e-01
3.538093809514910593e-01,-1.937216572485794819e-02,-1.866219969904589493e-02,9.661442545327659018e-04,-2.202131205203323484e-03,-3.157651253334931626e-03,3.728904426097869873e-01
2.308730556302847348e-01,-4.912012217870853625e-04,-6.690537254751577345e-03,3.407234872824986094e-04,9.585511310196574708e-03,6.731048465662228017e-05,2.351130843162536621e-01
2.894924592762552207e-01,-1.137239076684999628e-02,-2.549325278568731479e-02,1.130520526364130023e-02,1.322752050684673081e-02,-6.540495442828410562e-03,3.098454177379608154e-01
2.625625386656993965e-01,-1.233147354580486910e-02,-2.351985470749567986e-02,4.655297769429787326e-03,2.006019229228820852e-02,-3.402221960103505357e-03,2.829743623733520508e-01
2.351481256741331238e-01,-8.278433280947433692e-03,-1.344050794094733825e-02,1.772829126424510168e-02,2.520263237749540211e-02,-7.935340440542764523e-03,2.521448433399200439e-01
3.559930497356221246e-01,-1.854040780987484260e-02,-2.362433337782113285e-02,1.905864045947196304e-03,-1.340640204553060835e-03,-4.908438997900969533e-03,3.772185444831848145e-01
3.549378315796363204e-01,-2.090890050443375281e-02,-1.793236511968110403e-02,-2.707736039470263513e-03,1.925860881217709205e-03,-3.753281867128882392e-03,3.744679987430572510e-01
3.531475006754618562e-01,-2.509855199792074276e-02,-2.688981743556323467e-02,-1.595107674833575427e-03,1.846625805370549940e-03,-2.467687346333047159e-05,3.791684210300445557e-01
3.390015948647561173e-01,-2.485964763666601018e-02,-2.643154173327874612e-02,5.731160268611247728e-03,-1.370389654493920609e-04,4.908001152556309976e-04,3.647858798503875732e-01
3.543453133660866006e-01,-2.254561839921867539e-02,-2.723217727032722912e-02,1.472718386601724622e-03,3.434110498728980840e-04,-6.225793106067860089e-04,3.792665004730224609e-01
3.093812688829864488e-01,-2.663730934625133107e-02,-2.548420297169462501e-02,3.070853196611980640e-02,1.535023252338747063e-02,-5.629053597046918163e-03,3.408127725124359131e-01
3.207870027887029241e-01,-2.753487643079965963e-02,-2.473465736319074848e-02,3.566958305397590484e-02,1.950473553113081168e-02,-4.481674774011670456e-03,3.540891408920288086e-01
2.718182695248266834e-01,-2.480002020254369610e-02,-1.480118675906005876e-02,4.025753097273414988e-02,2.005289315229486294e-02,-7.804607034822465955e-03,3.022708296775817871e-01
2.561024095509381038e-01,-2.126750724621270794e-02,-1.212938979013815366e-02,4.046600563495322822e-02,-4.336446769078235002e-03,-1.145965834417077191e-03,2.818790376186370850e-01
2.219101731970504754e-01,-1.121160355170405798e-02,-2.720582698372206454e-03,-2.364129396636962047e-02,-1.027604485496060732e-02,3.111909464954273159e-05,2.333065420389175415e-01
3.493295807598074121e-01,-3.430370066616636460e-02,-2.753523615080419318e-02,1.133937825909765371e-02,1.587680265246817516e-03,-6.084593479837436397e-03,3.809567987918853760e-01
3.536848854235357109e-01,-1.273353758117856671e-02,-2.888226319632211658e-02,9.220760625788684481e-03,6.235521834548385205e-03,6.612997954337636493e-03,3.754242062568664551e-01
3.064125708932853298e-01,-3.413818654409084274e-02,-1.776743291945455383e-02,2.835877649237777964e-02,2.246514472998771203e-02,-4.415140119397050096e-03,3.386043906211853027e-01
3.539234496824982812e-01,-3.145685143621670954e-02,-3.327000498518517535e-02,5.617725800061038966e-04,-6.131448725595524266e-04,1.814561759102882674e-03,3.863055408000946045e-01
3.232955422284905511e-01,-3.227613270426848979e-02,-2.614830734675316348e-02,1.483621852968699042e-02,6.182083967138396821e-03,-5.286548675747871143e-03,3.537636399269104004e-01
3.548143021956920995e-01,-1.764691553996267093e-02,-2.384100871873096050e-02,6.793678267252143202e-03,2.514000840353175243e-03,7.738048674831971528e-03,3.760449886322021484e-01
3.587131607713029968e-01,-2.205319457344839806e-02,-1.866412069165590548e-02,-2.097419956921145294e-03,7.790858268991268610e-04,2.162589059944263013e-03,3.791214823722839355e-01
1.233350865196888024e-01,1.882975959093356744e-02,-7.058455079737784021e-03,-6.442815116902680939e-02,1.658413695395478601e-02,-1.029433871784053364e-02,1.670119762420654297e-01
3.483961436332447814e-01,-2.697055105140314102e-02,-3.087265286109108775e-02,4.512448851737109294e-03,6.555743613516579714e-03,-6.947929267068386761e-03,3.777763247489929199e-01
3.440708785598172725e-01,-2.748072408960636204e-02,-2.954820500951468865e-02,-4.112640573438078144e-04,1.937733144895007614e-02,2.063738651571602519e-03,3.741159737110137939e-01
3.858887395463824754e-01,-3.375701824034949006e-02,-1.989252836700414195e-02,3.017096864839294984e-02,2.788126975769218696e-02,1.436132848724643897e-02,4.197121858596801758e-01
3.609978256217345471e-01,-2.583691325903084146e-02,-2.630022213737370773e-02,-6.387415015669266252e-04,2.593030220555463724e-03,2.054127434717871502e-04,3.870944082736968994e-01
3.518815444687844463e-01,-3.134673875797824860e-02,-3.100804779417928869e-02,6.639954130784673017e-03,5.120976701010242216e-03,-5.703269709471422109e-03,3.834615349769592285e-01
3.469183000758339630e-01,-3.388569186669421196e-02,-1.079288706227821137e-02,1.711288335482120254e-02,-2.575232946735672365e-02,-3.601149145317319913e-03,3.737086057662963867e-01
3.078582630387441399e-01,-2.050620589295562568e-02,-2.857182921037215717e-02,1.812616326435265157e-02,-4.365549876103860805e-02,-4.685629950774411641e-03,3.424991667270660400e-01
3.183869407623967085e-01,-2.647468657823418003e-02,-2.885321760314984996e-02,3.543473361950079392e-02,-4.362320027983181137e-02,2.419098140234807008e-03,3.595119416713714600e-01
1.824971121928433415e-01,-2.591275410412918756e-02,-1.881224236081915913e-02,-4.789360251033878899e-03,4.966336672239900912e-02,8.681964112773896472e-03,2.229339927434921265e-01
2.268098006888718265e-01,-1.909658514607061319e-02,-1.973357723357915816e-02,6.345334408642573643e-02,3.309498438310409102e-02,2.439704584618902338e-03,2.756985127925872803e-01
1.830951691526880587e-01,-1.343142680233707503e-02,-5.446432087979433123e-02,5.744786977815748152e-02,6.243914962902821775e-02,2.826827641147177869e-02,2.690064311027526855e-01
1.771980613198112786e-01,-2.477096514739655919e-02,-5.008478521453224586e-03,6.516021340983461918e-02,5.101223524497561224e-02,1.576049535090537357e-02,2.418266236782073975e-01
2.202130793949242937e-01,-4.456050553649967827e-02,1.910703143093948203e-02,4.570905328568930504e-02,9.053352839782041750e-02,1.311154739140266319e-02,2.977814078330993652e-01
2.144956562849044401e-01,-1.609361350471180674e-02,-5.780569411477157193e-03,6.497519873770656040e-02,4.924847943266068284e-02,1.170535753591158551e-02,2.669312655925750732e-01
1.802514699401362164e-01,-1.361961127505736946e-02,7.207093352712960754e-03,3.828962251488702423e-02,8.685964938103184207e-02,1.736809080374368802e-03,2.470287084579467773e-01
2.360985250265069113e-01,-2.217047636716451553e-02,-2.429440307523174358e-02,6.625430869048599958e-02,4.979341482805350882e-02,4.636694069493595832e-02,3.071036636829376221e-01
3.408600306204152552e-01,-2.351405070826170784e-02,-2.501660531408922417e-02,-9.050168493476231160e-03,4.089845705787804875e-03,-2.835586485245358401e-03,3.655656576156616211e-01
3.542367591868522680e-01,-2.285226196408401966e-02,-2.254604988503969287e-02,8.568832620959259240e-05,1.598259813768983066e-03,-2.435685605347243619e-03,3.769698143005371094e-01
3.455748017278535422e-01,-1.899366553231762733e-02,-1.555920070784014286e-02,-1.844484482637877634e-02,5.623432419246164951e-03,-1.761958103408186802e-02,3.656729757785797119e-01
3.642818483432248566e-01,-2.843206453636645814e-02,-2.090302388353310059e-02,-2.346904059340838150e-03,5.963839618944285874e-03,-2.084408287757400207e-03,3.891791403293609619e-01
3.513141542373673931e-01,-1.339323630806160681e-02,-1.282215463612493278e-02,1.198854975416821381e-03,-3.706649476646509491e-04,-7.321794614375615011e-03,3.646492660045623779e-01
3.521173509512672273e-01,-2.036798415137447416e-02,-1.239118111287465518e-02,-1.388844314759071644e-03,-1.074147508745675050e-03,-7.865818694526655053e-03,3.688259422779083252e-01
3.541522733250644372e-01,-3.121554813060262168e-02,-3.170266422703768572e-02,-4.146215167667656096e-04,2.248304349395535847e-04,-1.146148463838302448e-03,3.856175839900970459e-01
3.475442415485205383e-01,-1.465020301483715981e-02,-2.091189049529090793e-02,3.758085989516165388e-04,-1.213054720312670923e-03,-7.149460597942323969e-03,3.655819296836853027e-01
3.538703490568619325e-01,-1.752172546542238307e-02,-2.343046303201209990e-02,6.277186841171615572e-04,-2.140871962970082283e-04,-2.898002565917376112e-03,3.744168281555175781e-01
3.570761599908927608e-01,-1.270113834358121974e-02,-2.140061131949386186e-02,-5.639978131539173569e-04,-2.464468098844824402e-04,-7.958806898941062774e-03,3.744582235813140869e-01
3.520199747755217157e-01,-1.941647277322172682e-02,-1.991187055441895337e-02,2.285996854685948092e-03,-1.623849368349149268e-03,-2.198022728554301520e-03,3.717356324195861816e-01
2.924027922952890379e-01,-1.492776426329722739e-02,-3.008839593519796463e-02,-4.464992106496374312e-03,-4.841172324910713448e-02,-3.584276016071539887e-03,3.262984454631805420e-01
3.095861090367888480e-01,-3.193138257164185312e-02,-1.912425082971018486e-02,2.327591291666611731e-02,1.005019780756728244e-02,5.316886777477673222e-03,3.382861018180847168e-01
3.051802759956476208e-01,-2.880690992683493379e-02,-1.208852477913638368e-02,1.644790242139013148e-02,-3.689984837892279317e-03,3.281242624022124958e-03,3.273040950298309326e-01
2.936935888062823241e-01,-2.380298936284631905e-02,-1.660654745430832635e-02,4.059072466198198476e-02,1.331403379660112650e-02,-5.149460340107559105e-03,3.226843476295471191e-01
3.483435936039381287e-01,-2.851353491921362893e-02,-3.507013512942255828e-02,9.580021083797048490e-04,2.043932239679933927e-03,-3.658936729440885952e-03,3.802507519721984863e-01
3.210172371845705919e-01,-2.750290612702610549e-02,-2.735003833800167539e-02,1.491850031612564770e-02,-1.121663243147736667e-02,8.216074632975174305e-03,3.502294421195983887e-01
2.886580013219739449e-01,-3.441407855952721695e-02,-1.107761499695505969e-02,2.953431718930758787e-02,8.964363447708657406e-04,1.203062967026883668e-03,3.162346780300140381e-01
3.545674671590017812e-01,-3.738265183438890804e-02,-2.849964503111782066e-02,1.504769723298071682e-02,-8.073087541457975302e-03,2.681107097038839919e-03,3.887396156787872314e-01
3.515717518917799711e-01,-2.896360071799211622e-02,-2.899607822297486925e-02,5.219113205327003714e-03,-9.698650758459163163e-03,2.632109889981327448e-03,3.810566961765289307e-01
2.843449669288297121e-01,-1.929941793409110928e-02,-2.481845453047852590e-02,4.041852103674899860e-02,-2.862579895804545638e-02,6.533341736294321321e-03,3.184235095977783203e-01
3.528272546364276119e-01,-3.100223941238855474e-02,-3.285974983127623594e-02,-4.340102166331551809e-04,2.919557877864837714e-04,1.508118508919911987e-03,3.847715556621551514e-01
3.528237526220674436e-01,-2.690146464057827091e-02,-3.427230530311117795e-02,5.858301900225034060e-03,1.661359047127886762e-02,-6.403392786533479777e-03,3.848356306552886963e-01
3.001100975508289026e-01,-1.847102752776792756e-02,-3.659288853630449090e-02,1.988951216842796757e-02,4.747147468426096001e-02,1.762052553969291942e-03,3.399299085140228271e-01
3.035132789357850580e-01,-1.559614096117763193e-02,-3.380723924072567832e-02,4.632020153312238486e-03,2.590772001115830211e-02,-5.189824641600043059e-03,3.318623304367065430e-01
2.956066585717108675e-01,-2.378100864607436693e-02,-1.893703534953927736e-02,2.573917055315394151e-02,3.649516689590089763e-02,3.650640375978281629e-03,3.263556659221649170e-01
2.935968097960811596e-01,-2.550109620021473456e-02,-1.654309619974971002e-02,6.643078724016543944e-03,3.991002345673010099e-02,-2.110924572616675564e-03,3.224429190158843994e-01
3.432525577719557353e-01,-2.766527408685251488e-02,-2.720646879952659525e-02,1.711149132290899939e-03,9.749693098447103148e-03,-5.993007666753295435e-04,3.710863888263702393e-01
3.793589082737945373e-01,-4.045670820831315240e-02,-2.495364669179128692e-02,9.556705979558183239e-03,4.340641131591394669e-02,5.410544708306010836e-03,4.195130765438079834e-01
2.951419261251047033e-01,-2.569944379044911131e-02,-1.586406042209641265e-02,7.778118151941740971e-03,7.805546294414751618e-02,-2.694123655977870204e-03,3.440371453762054443e-01
3.583081354116799955e-01,1.259032369358270564e-02,-3.223308635896934837e-02,3.003745376411399298e-02,-5.066635676053050930e-02,-2.756632134498970474e-02,3.869287967681884766e-01
3.752343824645552606e-01,2.164782429781007822e-02,-5.906886876325753710e-02,7.658982513489537292e-03,5.252218984600168662e-04,-1.459790763334054692e-02,4.011172950267791748e-01
3.815930991311360931e-01,1.586590594416679989e-02,-5.960978994815221976e-02,-4.331526207948778462e-03,5.986129608576983702e-03,-1.268373831683778860e-02,4.095154404640197754e-01
3.700079221784923211e-01,-1.130086361977869491e-02,-3.671643774579966268e-02,1.225187874223485898e-03,-1.552279869643623982e-03,-7.866430118692912046e-03,3.948808610439300537e-01
3.836600893369640497e-01,-2.614933415588299725e-03,-4.262543608461299982e-02,2.466516679603676307e-02,-5.297430816582596354e-03,-4.572850985286093864e-03,4.101662039756774902e-01
3.784533414926710138e-01,1.846956094916761548e-02,-4.561699471605723533e-02,-6.643406103055719478e-03,2.522246680698963465e-03,-5.795056932241995223e-03,3.962546885013580322e-01
4.029725457218531481e-01,1.848485422341894502e-04,-3.930628410706282772e-02,1.414942254000320018e-02,9.923976088570036005e-03,-9.727825428115722400e-03,4.253045916557312012e-01
3.678216498174793903e-01,4.462695745610562037e-03,-3.873286629361216704e-02,9.066800655360408162e-03,-3.722132718375332702e-03,-6.485017070028191617e-03,3.873053491115570068e-01
3.769675874103643465e-01,-1.136811269669996127e-03,-3.380934921549408334e-02,2.740066484581264727e-02,-1.752598857445804639e-02,-8.811101644647508987e-03,3.997384607791900635e-01
3.596207921625755866e-01,-1.849672513256667150e-02,-1.650392752111812245e-02,-1.362572517183932011e-03,9.217804946469313528e-04,1.748433491406256243e-02,3.783497512340545654e-01
3.107398373696207416e-01,-3.379448827594830340e-02,-1.714795778835569162e-02,7.776180878759579584e-03,-4.677853106217363076e-03,5.878335475519001069e-03,3.370406925678253174e-01
3.273073840921913447e-01,-3.505714889302966042e-02,-1.782852525041728198e-02,6.851998910587051711e-03,-4.707382409576250926e-03,5.765669881705342593e-03,3.544980883598327637e-01
3.066586285560504721e-01,-2.552086641765513586e-02,-2.010357540218629668e-02,7.313962153824979037e-03,-1.025553505744977549e-02,6.330343729521799301e-03,3.304077386856079102e-01
2.866658818440392942e-01,-2.537123886043374243e-02,-1.630172988215101981e-02,1.131642269893701029e-02,-5.731520815977450903e-03,7.604835227418766871e-03,3.086675107479095459e-01
3.031285931618871166e-01,-2.585523703731099077e-02,-2.300026846531977309e-02,1.058490712737043642e-02,-8.821660126408959954e-03,8.119283917994346914e-03,3.287348747253417969e-01
3.475782473898362257e-01,-2.039808791590766446e-02,-2.965203454700421348e-02,1.065624165683907998e-02,9.219372848670039609e-04,7.024996557604810780e-03,3.733479976654052734e-01
3.601570318618572131e-01,-2.458388240415468329e-02,-2.993500801575599279e-02,-8.705361385959405063e-03,1.923888249591908239e-03,-1.950027038959572774e-03,3.877665102481842041e-01
3.386570994558072423e-01,-2.738413115275664667e-02,-2.251602375303232706e-02,-8.350785222151472023e-03,2.994960783351345232e-03,1.457129843880440286e-03,3.639648854732513428e-01
3.465696959216444939e-01,-3.903451384604147978e-02,-2.613861545883533477e-02,-3.693660663173885250e-02,4.798404934100730830e-03,-4.394764445174428793e-04,3.847684860229492188e-01
3.533458487888675448e-01,-3.770557905253946185e-02,-2.914254867532395377e-02,-1.530585133146930218e-02,5.346478201183515154e-03,2.282044800210331591e-03,3.878790438175201416e-01
3.512924856093503911e-01,-2.544183534372412847e-02,-2.972782153002076488e-02,-7.985934257665338806e-03,5.992188802210512283e-03,1.528994999417603029e-03,3.792991638183593750e-01
3.319169479746110762e-01,-8.913493346474316015e-03,-3.217120960738903412e-02,-3.792235382868558435e-02,-3.827240464720307357e-03,-2.688855046374788969e-03,3.591840565204620361e-01
3.463307941577452587e-01,-3.577985048367551824e-02,-8.947004381681666896e-03,-4.992012722474245892e-04,3.100036588969463242e-02,-9.584569937957788943e-03,3.736774623394012451e-01
3.673288349522050300e-01,-3.813076870036388732e-02,1.053749812770943262e-02,-3.791654832886038121e-03,4.549760328587153929e-03,-8.537086288472590587e-03,3.838710188865661621e-01
3.939711484023417087e-01,-3.832399823465185151e-02,-1.208144013440079489e-02,2.033620089201743954e-03,2.977787602798951522e-02,-1.133960341304660578e-02,4.234165549278259277e-01
3.650300132332950920e-01,-3.524691356102219175e-02,-2.726468916918328711e-02,-3.731103175412028156e-03,5.775701808533362930e-03,-3.510276610929438223e-03,3.965716063976287842e-01
3.786875724274920696e-01,-3.748720727307464085e-02,-1.067322205272691615e-02,5.357660184841094887e-03,1.047074751943107528e-02,-2.070111820076254213e-03,4.039666056632995605e-01
3.467894838185999196e-01,-2.627241575904701310e-02,-2.626628807804248789e-02,5.963048942350007361e-03,5.812142050963366516e-03,-5.405914463252269823e-04,3.733386993408203125e-01
2.853748155837919631e-01,-2.754868893221067150e-02,-1.692142075604180507e-02,-2.060438720985936431e-02,3.750002537174398909e-02,4.128748953107269984e-03,3.166260421276092529e-01
3.474717683729894313e-01,-3.450968145385083230e-02,-8.188882684783821420e-03,-4.619869926435077063e-04,8.814705369152927780e-03,-2.365879142738560540e-03,3.698635995388031006e-01
3.408706517543857450e-01,-3.484332091273709131e-02,-1.707947457151984261e-02,-5.809551920751296859e-03,4.264388846341098105e-02,1.296549753296436435e-03,3.746521174907684326e-01
3.654122737202964988e-01,-3.436718626017129519e-02,1.155915417059640016e-02,-6.176039926781208556e-03,-2.376234503433861250e-02,1.523670777603174965e-02,3.822005987167358398e-01
3.725629091329142883e-01,-3.470829112204740219e-02,9.391579263801075328e-05,-3.357204957620422547e-03,2.475658560509699790e-03,1.258785921608692772e-02,3.917073607444763184e-01
3.258543488106663832e-01,-2.797380091979240202e-02,-1.356785014743300266e-02,-7.752573637870329923e-03,-2.674146828948559262e-02,5.831620976993422828e-03,3.503317236900329590e-01
2.907296899097909781e-01,-2.475472900215126837e-02,-2.723926520068620238e-02,1.362990745588895519e-02,-4.352943683240437928e-02,2.152319298011808133e-03,3.264599144458770752e-01
3.458162724594204263e-01,-2.928874270130302215e-02,-3.290012727649460622e-02,2.961695476192223540e-03,-4.076750424944841113e-03,5.783862235115181522e-03,3.771577775478363037e-01
3.426826456506769092e-01,-2.813833647456215337e-02,-3.002145768679684301e-02,3.080641660029604170e-03,-9.936966948009980614e-04,2.939555331518284992e-03,3.718432486057281494e-01
3.360824501516194718e-01,-3.304418037495490679e-02,-3.087687664314348046e-02,1.824992135853638689e-02,-1.510377200171266268e-02,7.766705205671685895e-03,3.705720901489257812e-01
2.806437246535290475e-01,-2.595267808553652911e-02,-1.238148547397473209e-02,1.924532475919122146e-02,-1.876942246564350381e-02,8.515637166526920238e-03,3.039904832839965820e-01
2.854784835712458335e-01,-3.077234916781598772e-02,-2.260646778027551596e-02,4.156457884265570696e-02,-2.874144953445258860e-02,6.297155283362647175e-03,3.244669735431671143e-01
2.524291118855426230e-01,-1.862715558085750733e-02,-3.140471878794191818e-02,-2.936984723423436555e-02,-3.528025290475218789e-02,-1.486886074567279892e-02,2.899712026119232178e-01
2.367064101589158587e-01,-7.019223790170434074e-03,-2.469975308846783513e-02,1.507574825997174978e-03,-6.352944939625652931e-02,2.704212233120156968e-03,2.759723067283630371e-01
3.440894519730408052e-01,-2.630540729379690634e-02,-3.510911091621893299e-02,-6.859078225125778486e-03,-2.176692289464515415e-02,-2.703141348387467363e-03,3.769816458225250244e-01
3.371566543920204717e-01,-2.340060818903588746e-02,-3.622795701458667028e-02,3.041458659424284630e-03,-2.627936236639857523e-02,-3.744945235966845197e-04,3.699879348278045654e-01
2.851557995605557005e-01,-1.324127544618716734e-02,-2.780917669247669199e-02,6.101105931764120617e-03,-1.960985204881962249e-02,1.841305078320279410e-03,3.080187439918518066e-01
3.107911008469089742e-01,-3.269544889768533080e-02,-2.414228674975668620e-02,2.537611678283858974e-02,-5.088479225324463173e-02,7.270822236479320202e-03,3.535201549530029297e-01
2.491242767646830725e-01,-1.059387873925814183e-02,-2.861194386076248986e-02,-3.156191939392677392e-02,-3.373979906607054574e-02,-6.442305248259706796e-03,2.810442745685577393e-01
3.018241771854917599e-01,-2.444989633071695256e-02,-2.444190751079361457e-02,-1.552959998903588254e-02,4.186169191991664928e-02,7.767311973465673789e-04,3.353128135204315186e-01
3.009647741556721323e-01,-2.906878348034244719e-02,-2.208771601828973807e-02,-2.598044086470443961e-03,3.939870317315827264e-02,-3.812053414304716545e-03,3.337476849555969238e-01
3.645428059779385888e-01,-3.594770959328152937e-02,-1.961949225606088310e-02,-2.839462244573260144e-03,-7.057593385261348891e-04,-7.909064806585482804e-03,3.928527832031250000e-01
3.598386301094595452e-01,-2.303687480017319045e-02,-2.594607199767753891e-02,-1.269654466021643245e-02,-1.103551673705042199e-03,-3.734841233212623287e-03,3.850260674953460693e-01
2.970796135272631977e-01,-1.960551256446613211e-02,-1.914638519253548943e-02,-3.317711876794870746e-03,3.660247366108948519e-02,3.368041846845257550e-03,3.228475749492645264e-01
3.684499756685639671e-01,-4.286957270962485356e-02,-1.742330528700369863e-02,-2.635950818688052432e-03,3.227275396691947629e-02,-8.893902469774510712e-04,4.031284451484680176e-01
3.453332875668894131e-01,-3.320830079254077916e-02,-2.878236286940744071e-02,3.640245594749899789e-03,-3.858173807845484415e-03,6.142068459707460126e-03,3.766105473041534424e-01
3.390967236724785616e-01,-3.389705157743125308e-02,-2.494610976878763875e-02,3.642883130026192476e-03,-1.232258433009985254e-03,2.909795614677101062e-03,3.686944544315338135e-01
3.465146929976702372e-01,-2.821130324812468060e-02,-2.143111914112622030e-02,2.924496142246013532e-03,1.120007142811135651e-03,-1.950711517067710418e-03,3.714373111724853516e-01
3.530419847149864898e-01,-3.376197687421397808e-02,-2.903853011679050078e-02,4.171397844959479420e-03,-3.312513218556792458e-03,4.443750248433580782e-03,3.846516907215118408e-01
3.194326605602602620e-01,-3.019127912954000514e-02,-2.333238933041639762e-02,1.682407350499618912e-02,-6.119288761351996710e-03,7.350973450668402999e-03,3.478642106056213379e-01
3.724063121726084447e-01,-3.053158367046571176e-02,-9.607345606358452805e-03,-4.344705451364159511e-03,2.866030304175669775e-03,-1.216974345842699104e-02,3.935621678829193115e-01
3.950427464060083382e-01,-3.530859439144667933e-02,-1.448211917657415970e-02,1.258745967365078582e-04,-1.610866065701227132e-02,-1.550544158357671821e-02,4.221055507659912109e-01
3.654473524590547973e-01,-3.234955663210992149e-02,-1.160448154530610565e-02,2.696066198050237669e-03,1.931249087779287536e-04,-7.597798563252039852e-03,3.880921304225921631e-01
3.593252058954302108e-01,-3.053838888507864890e-02,-3.116663560850080339e-03,4.884652592782878083e-03,-7.198608797105966739e-03,-1.187854462220153465e-02,3.777633905410766602e-01
3.855366637220344339e-01,-3.714918347458956438e-02,-7.485891424534207861e-03,-1.608132717175249707e-02,-4.923918469904352974e-02,-3.462261986180631412e-03,4.184378981590270996e-01
3.619895202648077959e-01,-3.035299362099463938e-02,-3.018947753925790844e-02,4.133824592426414701e-03,-7.494848340903253678e-03,2.355066839864548844e-03,3.925620317459106445e-01
3.353803300116441899e-01,-2.436744182528130520e-02,-2.540043907875388918e-02,1.040955849246298463e-02,-2.303524717016949136e-02,-1.082568304104164708e-03,3.629209399223327637e-01
3.593874576707329904e-01,-3.589398398159346359e-02,-2.548685295074473722e-02,-6.546295700763058193e-04,-2.076250281413634380e-02,-2.264816974925593443e-04,3.918375372886657715e-01
3.505300377772133658e-01,-2.794500750505665709e-02,-1.242189457892528548e-02,2.272194681567952634e-03,-6.793352443078520819e-03,-1.286977041237256751e-02,3.718333542346954346e-01
3.813952696280269450e-01,-3.251954905746376467e-02,-2.379024140404481513e-02,4.193600202885455416e-03,-2.201151302754704789e-02,-9.499083074124442874e-03,4.117832779884338379e-01
3.504485219498590376e-01,-2.669673115435014510e-02,-3.091847815560233581e-02,5.070235704089259311e-03,-1.266398040994549425e-02,-1.063374355331258951e-03,3.800134360790252686e-01
3.535514432432164678e-01,-3.271478563789420591e-02,-2.743751499119387316e-02,8.858660852552554567e-04,3.728686521875726597e-04,7.993195627212788031e-04,3.836609125137329102e-01
3.379698357705912537e-01,-3.156813964729363042e-02,-2.381074338202734952e-02,1.404048819815482615e-02,-2.939007878999557594e-02,-5.091766788677274704e-03,3.701517879962921143e-01
3.570802137437837365e-01,-2.611117897819623113e-02,-1.577580751594465092e-02,6.036209857931559841e-03,-1.157702514788795656e-02,-1.511871885588932270e-02,3.797093033790588379e-01
3.299863375263030196e-01,-1.040535086760782657e-02,-3.494147325515423175e-02,2.923362977270449470e-02,4.106814262073488209e-03,8.972540901333725524e-04,3.569835424423217773e-01
3.550434656389544474e-01,-1.424530923570380136e-02,-3.570106699002587036e-02,-1.538732884174427587e-03,-4.625984363094580096e-03,1.403488215194022152e-03,3.805721104145050049e-01
3.860422073336390869e-01,-3.555965388495563317e-03,-4.899428175737544078e-02,6.777741654895190482e-03,4.770663591828257916e-04,3.275208730474214042e-03,4.143968522548675537e-01
3.610908260442274864e-01,-9.645305349653576776e-03,-3.622356269568721698e-02,8.982217797332431655e-03,-3.457847228011281734e-03,5.080691250266472503e-03,3.851760029792785645e-01
3.674937446082980896e-01,2.585936239229036371e-03,-3.665371523791377539e-02,-3.967282356329624587e-03,-3.053389010985383279e-03,4.357257219537101836e-03,3.861974477767944336e-01
3.560473014129616476e-01,1.374160734624252367e-02,-3.581404194495196869e-02,1.547836228659201299e-02,2.604184643506881301e-03,7.510571294428198576e-03,3.708105087280273438e-01
3.784693946585925284e-01,5.638834955573351904e-03,-5.219788848462542097e-02,1.873004808375732660e-02,5.564571337355921771e-03,-6.601954684095951917e-03,4.064321517944335938e-01
3.566134014110924899e-01,-1.967923213008546113e-02,-7.522755161227107079e-03,-3.802269468085342670e-03,-5.318561215988351631e-03,1.131211312028296452e-02,3.710547983646392822e-01
3.594154258822233050e-01,-2.049324151503212343e-02,-4.710893222495987631e-03,3.140799614366232909e-03,5.414444400841230028e-03,1.153084506031018877e-02,3.729614615440368652e-01
3.523091642614553654e-01,-2.501346228056641752e-02,-2.039360259979425272e-02,-2.122562134265316026e-03,-2.210010509139708357e-03,3.218322703558277632e-03,3.751130104064941406e-01
3.285429508343434835e-01,-3.338290976263152965e-02,-2.200854488321496438e-02,1.308697167804331006e-02,3.377211666068442343e-03,-4.537627625033264535e-03,3.572293817996978760e-01
3.530437804437003280e-01,-1.833419752550638493e-02,-1.806426415963738319e-02,1.224902082255734765e-04,2.182209347197304819e-03,7.783141969335270402e-03,3.715070486068725586e-01
3.529246626831694100e-01,-1.244888073395425399e-02,-1.910341397464820901e-02,-1.816368405873900090e-03,-6.536588805600554225e-04,4.323167194791690746e-03,3.688370287418365479e-01
3.509735769197116495e-01,-3.235737513498954110e-02,-2.968303600354860183e-02,-2.815506675030416095e-05,-8.242116698507551999e-04,-3.881068383825532226e-03,3.820626139640808105e-01
3.555382315360583467e-01,-4.479524927359479491e-03,-1.719094629521258910e-02,-1.724019940839162900e-03,-7.910532352925532399e-04,1.524711337957963299e-02,3.675036430358886719e-01
3.620282278655565511e-01,-7.337280056640388404e-03,-7.680607976646214308e-03,2.210405723296675947e-03,7.220409653251487741e-04,2.595045273537205030e-02,3.722825646400451660e-01
3.539573745248705827e-01,-1.607569621689350359e-02,-1.720238207849300593e-02,1.179663962730557450e-03,3.465624982837072030e-05,5.310686506630805243e-03,3.707174658775329590e-01
3.387233001672063648e-01,-3.489764799173664112e-02,-2.505293657549911845e-02,-6.651486997569473064e-03,-2.348896499026227516e-03,-4.532417102636268798e-03,3.690829873085021973e-01
3.308752719702341416e-01,-2.574849131598175300e-02,-3.199983412972806640e-02,1.908926232075764447e-03,2.242944016069224264e-03,-6.177980637732291905e-03,3.599854111671447754e-01
3.214558006004918922e-01,-2.793300696363859581e-02,-2.699932877050167934e-02,-1.825439077419049178e-02,-6.329588716161371233e-03,-5.807404118861625789e-03,3.506682515144348145e-01
3.320779560867418434e-01,-2.549054416462473438e-02,-2.621579059158773983e-02,-1.297434959648989528e-02,-1.456671535120866766e-03,2.744287230030848196e-04,3.586456179618835449e-01
3.496443071788201129e-01,-3.800308493872298077e-02,-2.466105076406738261e-02,-4.857908108476135384e-03,3.229543907666577182e-04,-4.192141532723132891e-03,3.813139498233795166e-01
3.422065473571258565e-01,-1.977146544720656540e-02,-3.597270934472610038e-02,-2.279916030820921397e-02,1.198161267217227877e-02,-5.289882719255376703e-03,3.731341361999511719e-01
3.347430159423622764e-01,-3.018623320625885009e-03,-4.880145073036259995e-02,-9.583876732244007990e-02,1.916019881264191538e-02,-6.326478122274771868e-04,4.003753662109375000e-01
2.885381340271212514e-01,-2.707765244707932561e-02,-1.312028006382631728e-02,-1.759269388420997560e-02,-1.477518024180223292e-04,-2.270757132226693229e-04,3.103734850883483887e-01
3.268232356917100678e-01,-3.646928004941843438e-02,-1.935289132525475075e-02,-4.817955581337220183e-03,-6.360918875843015428e-03,-2.220766146640735031e-03,3.553336262702941895e-01
3.464914048589519679e-01,-2.652817252371697521e-02,-2.624456091396953905e-02,4.662729064775773292e-03,6.062470443912236322e-03,-5.200973680989820318e-04,3.731141686439514160e-01
2.965971086789533917e-01,-3.220436101631676817e-02,-2.022412226942597868e-02,-2.845315031683100238e-02,3.156538016070316484e-03,3.097654602614113590e-03,3.268060982227325439e-01
3.032575458958962633e-01,-4.478264566399620117e-02,-1.315136554168844230e-02,-2.818086130340021617e-02,-1.545056210110227124e-03,-2.413516056699664594e-03,3.369431197643280029e-01
3.446073854429995698e-01,-2.305790034903035246e-02,-3.880615377051160886e-02,-4.283408552834527122e-04,-2.713501655899669320e-04,-9.717008515124632255e-04,3.757917881011962891e-01
3.711323236361582789e-01,-3.618093625153476212e-02,-1.551505276780401621e-02,2.197284924343085449e-03,-4.099938092855171163e-04,1.192442671627503089e-04,3.974024653434753418e-01
3.341961535962481578e-01,-2.617654170551778070e-02,-3.182146081442746577e-02,8.691601341273502701e-03,9.489297092614252041e-03,-6.129570931502310166e-03,3.640660643577575684e-01
3.572276165275706239e-01,-2.984688839550739270e-02,-2.750653322204543727e-02,-3.610110131761121686e-03,-1.362132342345556343e-02,-3.506676398089385478e-03,3.867284059524536133e-01
3.554797409796702778e-01,-2.688850885529109336e-02,-2.449929923847535274e-02,-8.668629438530592660e-03,-2.370422320179674247e-02,-2.185157210173047006e-03,3.836965858936309814e-01
3.581843611054797427e-01,-4.349009369591169683e-02,-2.583972155110747515e-03,1.573486928137781543e-02,-3.397727967339485289e-02,-2.688616012752517367e-03,3.883458971977233887e-01
2.857448662991254329e-01,-2.941001207734292300e-02,-2.081169519001579982e-02,6.350878221966055684e-03,-4.569193501816035119e-02,2.057166696332493432e-03,3.210664689540863037e-01
3.432485991989071006e-01,-2.268784488599909221e-02,-3.434599785287689722e-02,2.487580628868923819e-04,-1.949924904609968285e-02,5.134575501167490917e-03,3.735391199588775635e-01
3.512630601296561905e-01,-2.659629077244055062e-02,-2.900660910376581803e-02,-2.902498049046643800e-03,-6.121930677866072555e-03,-1.064587991164779677e-03,3.792563378810882568e-01
5.580636954393716209e-01,-3.466441977383685757e-02,-3.304478330989385482e-02,-1.294782945969058172e-02,-2.947466948586712626e-02,4.570217096601992407e-02,5.997870564460754395e-01
3.949858520887849500e-01,-4.745548065739477184e-02,-1.193224684647578582e-02,-1.462263772354376740e-02,3.748620424825099134e-02,2.298519358777184260e-02,4.332913160324096680e-01
3.805335616630368123e-01,-3.124001822988575761e-02,-6.512669024840905818e-03,-3.714845238660232567e-04,-2.014692938366631578e-03,2.007148317202019430e-02,4.015071988105773926e-01
3.759347352904791051e-01,-1.924006637949937648e-02,-1.374357018908026196e-02,1.837046123109497414e-02,2.590317747421773398e-02,1.649242309383129254e-02,3.973192572593688965e-01
3.858864144820594033e-01,-2.658953900603236442e-02,-2.127489351277545016e-02,4.510079779070357009e-03,3.038370170162794232e-02,2.657943739983718509e-02,4.158394336700439453e-01
3.764786427252046486e-01,-3.109668168570078883e-02,9.607151051643975093e-03,-5.307466736517796671e-04,-6.808734800165092485e-03,1.641670654975807553e-02,3.900423347949981689e-01
2.737274641582856383e-01,2.836063624708334840e-02,-2.863115964759521681e-02,1.203230851803474555e-01,7.628634327453254205e-03,4.688551186107700434e-03,3.480090796947479248e-01
2.211599546904174651e-01,1.136191385226029832e-02,-7.409476916576823724e-02,5.489986590051064430e-02,1.597537841798838884e-02,1.512485852036328168e-02,2.823837995529174805e-01
3.914533811064817570e-01,-1.837742998539526607e-02,-4.622128323659538407e-02,1.652752268376966871e-02,-6.615553736266998469e-03,-1.408497149876720977e-02,4.262555241584777832e-01
3.329189240882034495e-01,-3.104754626542988172e-02,-2.832256402646826654e-02,2.783270278636936629e-02,1.274440804109763965e-03,5.442131958670039411e-03,3.659301996231079102e-01
2.966971999750277478e-01,-2.845435516759287076e-02,-1.580446590908041182e-02,2.460375018290953189e-02,2.371483229190294445e-02,-7.738510430868041426e-03,3.247357308864593506e-01
3.256751758271801966e-01,-2.756715113861124555e-02,-2.712546385742248267e-02,4.292635210474150635e-03,7.152198038626315924e-03,-6.794188112803248997e-03,3.535131514072418213e-01
2.911108921926194304e-01,-2.455455866581238156e-02,-2.505783309620525368e-02,3.929758848963913614e-02,1.965955638055307507e-03,1.580913474485402988e-03,3.231962025165557861e-01
3.540207845775354967e-01,-3.004718508994341786e-02,-2.142165028925338555e-02,-3.772230195461179041e-03,-1.267250011295292106e-02,1.649304340280944138e-03,3.805291652679443359e-01
3.680942497087491549e-01,-4.233603309007580306e-02,6.092602873269320485e-03,5.528805721579874329e-03,-5.584843216400819932e-03,1.410033368635576004e-02,3.894913494586944580e-01
3.608447215673322161e-01,-4.170501608636548174e-02,1.842073049901028770e-02,3.905560658205484668e-04,-7.041857037905658104e-03,4.949080116807991897e-03,3.764047026634216309e-01
3.626121175275276443e-01,-2.641130503496319504e-02,-1.954258797605731846e-02,-5.279565998841146898e-03,-3.298307079500442576e-03,3.629669442653754227e-03,3.858368694782257080e-01
3.454767492325104272e-01,-3.221389026553930779e-02,-3.147163515011275337e-02,-2.080517277074297317e-02,-2.434164270216731749e-02,-3.666669845113093226e-03,3.814274072647094727e-01
3.568884235601310073e-01,-2.301105799446440114e-02,-1.486098480728950677e-02,-2.127790573091769416e-02,-2.300226908755916358e-02,1.077663158164684706e-02,3.802470266819000244e-01
3.981772571823596896e-01,-4.571749115072484826e-02,-6.051342265330023062e-03,-6.306701494304491930e-03,-2.917655010655869491e-02,5.722059804882977802e-03,4.286953806877136230e-01
1.420107310380545884e-01,-4.639233756848429313e-02,-6.112840601973083821e-03,-3.750292086329298780e-02,2.837633809396673812e-02,-2.698583553139245750e-02,1.958293616771697998e-01
3.765798050109560591e-01,2.059851474616347655e-03,-4.634938176067404658e-02,1.321186360776696253e-02,-7.338720885680010200e-03,-1.355728862404811941e-02,4.024617969989776611e-01
1.845990447093249498e-01,1.856264139183471523e-02,-2.597206502384664939e-02,-9.034572051781641910e-02,5.814399340590007195e-04,-1.491453493324569786e-03,2.478720396757125854e-01
1.991021750964376003e-01,-1.663828281586386681e-02,-8.415167063370240785e-03,-7.175801107016131775e-02,3.971389985644087350e-02,-4.002598487548683290e-03,2.550779879093170166e-01
1.211937852315405212e-01,1.925578417267291217e-02,-1.564112531581576815e-02,-8.944837393939836234e-02,3.258280815940570001e-03,9.539209394809790646e-03,1.986815184354782104e-01
2.185889769843439023e-01,-1.721243892366973449e-02,-1.680105196111482402e-02,-7.037750401006417911e-02,-1.930314973306098553e-02,2.726836682782549093e-04,2.673621177673339844e-01
2.210183539120266494e-01,-2.827060956141040637e-02,-1.494962930373711085e-03,-7.069873351549318952e-02,-1.192578490615556208e-02,-1.331789526788273049e-03,2.676078677177429199e-01
3.630244411432049789e-01,1.673614623388221256e-02,-4.273351903367023086e-02,4.309545644862305394e-04,4.331835391248780795e-03,-8.470077804134333241e-03,3.798920214176177979e-01
3.720203107698545897e-01,-1.127679346970306140e-02,-1.909291388828435188e-02,-1.420752465949520413e-02,-9.503328809413746220e-03,2.040395187998319398e-02,3.899988830089569092e-01
3.941243696704005983e-01,-3.649088094974575758e-02,-1.707161358380920868e-03,-7.413332412491608486e-03,-1.010691088240933330e-02,2.845672864065982091e-02,4.178057909011840820e-01
3.642849081872410744e-01,-2.665527416221932788e-02,-1.214208148102871587e-02,1.105636714472821086e-03,2.934862834039778968e-03,1.292962273879183846e-02,3.845804333686828613e-01
1.814766501149326361e-01,3.316366098855813571e-03,-6.766053527998652783e-03,1.455042337285124623e-02,3.328277720713423288e-02,-1.166137204016274827e-03,1.939110159873962402e-01
1.467136873710394585e-01,6.826108477532094598e-03,8.543749055784866098e-03,-1.133993980931902699e-02,-6.130960804235728763e-03,-1.240397276941709002e-03,1.408345550298690796e-01
1.329070196201259102e-01,1.086127747813071115e-02,9.656145211690954355e-03,4.075785527124817925e-03,-4.194228831272653508e-03,3.219134451909508689e-05,1.230703517794609070e-01
1.437280979647004298e-01,-9.130266265114150848e-03,-5.566024642749071993e-03,-1.214246779021631306e-02,1.130697992750139685e-02,-9.496158192763346287e-03,1.546930968761444092e-01
1.309275033288151979e-01,1.128568772563081496e-02,9.607957154678249678e-03,8.256255658861342758e-03,2.445395568716976671e-03,-3.413156925296190886e-03,1.215528324246406555e-01
1.206027529383111030e-01,9.251305105514723293e-03,6.910085991607479994e-03,-1.748186644954732166e-02,3.325436375717448489e-02,4.678244785128676071e-04,1.300014853477478027e-01
1.430772830248096816e-01,-3.372169418034122457e-03,-1.148110255679533898e-03,-9.882356491795259157e-03,1.345779059370418897e-02,-3.057009694295988612e-03,1.482937335968017578e-01
3.031522473940121976e-01,-3.224987339018572929e-02,-3.595843443635685088e-02,2.726199879789387159e-02,4.694074292938175269e-02,-5.021005893100376899e-03,3.502396047115325928e-01
1.290537623403735235e-01,1.247058782062834131e-02,-1.570911662870017045e-03,8.606116167887017249e-03,9.053811902299351705e-03,-3.989023213235657825e-03,1.262602508068084717e-01
4.388945626098688102e-01,1.245804150617538242e-02,-7.470654498355344675e-02,-4.511191218599195502e-02,2.414863279033263588e-02,7.920623941248573774e-03,4.844160079956054688e-01
3.841990078231596883e-01,3.298328288938255637e-02,-6.467790314549132225e-02,-6.051105939717367488e-03,1.357602474217558738e-02,4.666311958328841873e-03,4.097785055637359619e-01
3.933013140369374105e-01,1.474639304119854111e-02,-5.166473202474641813e-02,-3.545797433295578942e-03,2.274248902742428535e-03,4.241226460452379200e-03,4.158866703510284424e-01
3.894996683247099467e-01,2.659634660511403514e-02,-4.788217250320800367e-02,-1.440870619916844939e-02,-2.606105105271320794e-03,9.624303765968993812e-03,4.064424335956573486e-01
3.589334011020097193e-01,1.960777074775406359e-02,-5.975178940997449839e-02,-6.827815147620176772e-02,3.167779881775285855e-02,2.313181823630294787e-02,4.086195826530456543e-01
4.295116321102570578e-01,1.679214736077783154e-02,-5.142580907421753778e-02,-8.278735038150766140e-03,-1.964436495016665465e-02,7.411118191298955368e-03,4.524091482162475586e-01
4.539845861186014297e-01,2.709679742486259535e-02,-7.911347093338980119e-02,3.398159634494851179e-03,2.045906307385511602e-02,9.984669985833147590e-03,4.903499782085418701e-01
5.390616484592997137e-01,2.027730351767495498e-02,-7.036029496143009210e-02,-3.224593215513202327e-02,-2.562564213995447912e-02,4.265956347512922086e-04,5.739892721176147461e-01
3.742614187222922384e-01,-2.732488650623196569e-02,8.395972336345036702e-03,3.594063967412105057e-03,4.929122610210123073e-03,2.102032743945071031e-02,3.868329524993896484e-01
3.797290406957468667e-01,-3.275207122083542699e-02,-7.084596967935619105e-04,2.369405964399214342e-03,2.358784629123399372e-04,2.055919815974844786e-02,3.990427553653717041e-01
3.660757382988384379e-01,-3.045606854046253864e-02,8.609559087108087372e-03,1.098090155960117394e-02,3.880917550497881008e-03,2.215083391792767656e-02,3.809878528118133545e-01
3.683180572297910516e-01,-3.735556325004335543e-02,6.514341502397796857e-03,-2.968606857082705525e-03,2.750995363197068343e-03,1.257231893032233552e-02,3.862927854061126709e-01
3.793935983431452885e-01,-4.021703907179768889e-02,7.804889725454983163e-03,-5.810113802319735385e-03,-7.764343314949916780e-03,1.159622284240468225e-02,3.986404836177825928e-01
3.785793187659863279e-01,-2.871517463651068747e-02,6.067941183300562535e-03,1.304422528933879555e-02,1.206799093608799771e-02,2.760438512041338971e-02,3.951772749423980713e-01
3.523986408242493762e-01,-3.282416186124195723e-02,-3.119323758638009592e-02,4.356515064990969027e-04,5.425851265375788600e-04,-1.687801029764687735e-03,3.844229280948638916e-01
3.532408775806616941e-01,-2.322355818373814107e-02,-2.997993390037664851e-02,-1.552341078697452512e-02,-2.870288440582306234e-03,-1.041666317499428344e-03,3.808747231960296631e-01
3.267220780998049134e-01,-3.941230068358300698e-02,-1.811746426538213273e-02,-5.967316730187198319e-04,1.105395424580928152e-04,8.361606350361148023e-04,3.559694886207580566e-01
3.285380418933487867e-01,-3.652421733340768806e-02,-2.007565691959165011e-02,-9.651299500839921955e-03,-3.911763198493420877e-03,-1.955959028270543628e-03,3.575934767723083496e-01
3.547077099059384730e-01,-2.599272641504649095e-02,-2.667872294440851166e-02,1.750889626410931203e-03,-1.048958313932633803e-03,1.111172595743813445e-04,3.810603320598602295e-01
3.270390302641140168e-01,-3.003189155118723974e-02,-2.083894030865737768e-02,-1.347513917413198023e-02,3.182190450114415030e-03,3.502473783143133547e-03,3.534311056137084961e-01
3.394349690977834233e-01,-3.753117447088666347e-02,-2.986936803785991690e-02,-2.354993122515157758e-02,1.158328296536550875e-03,-3.577421131340871672e-03,3.754732310771942139e-01
3.315268149558956434e-01,-2.837267826928036030e-02,-2.667714423142708569e-02,-1.529607194476798396e-02,2.633037978666946492e-03,-3.479115017800169614e-04,3.600602447986602783e-01
3.271704519499494812e-01,-2.782249688869198323e-02,-2.152372890768214364e-02,-1.447609642927669832e-02,3.640297835972469004e-03,1.526222358725404888e-03,3.528442382812500000e-01
3.258445400651284185e-01,-3.101148273080936435e-02,-2.638016564382267282e-02,-3.220941283797687515e-02,-5.980850475506031827e-02,8.804953181141885257e-03,3.738864064216613770e-01
3.179309892002274429e-01,-3.289321896207625384e-02,-2.253207274219828915e-02,-2.186389041555087537e-02,-1.528521074070357186e-02,-7.207347456043639716e-03,3.490571379661560059e-01
3.457536750121886771e-01,-2.187676993246845392e-02,-2.473295571503547619e-02,-1.404683998579970075e-02,-1.381351616875938632e-02,9.871695282403844876e-03,3.710350990295410156e-01
2.915748583542500105e-01,-1.866358743941642917e-02,-3.360621800584945307e-02,-6.143705836435722073e-04,-3.197650071617880868e-02,2.481606909609215990e-04,3.227626979351043701e-01
3.632712878665061984e-01,-3.256114285794725616e-02,-3.404841187744872544e-02,-1.625984788572609752e-02,-1.377457135128370980e-02,-3.965816979374177831e-04,3.982926905155181885e-01
3.405324111028484313e-01,-2.424981835570222399e-02,-2.768744984061452530e-02,-7.620584487467311000e-03,-2.384635941361368163e-03,-6.302914141094887249e-04,3.667756021022796631e-01
3.785051212165849166e-01,-1.312536837804706424e-02,-3.851479107240907140e-02,-4.285525061729760637e-02,6.029527798099124786e-03,-4.488389259721519212e-03,4.118756651878356934e-01
3.337229346637108351e-01,-2.139494355639121048e-02,-3.303190008673606570e-02,-1.254047602585149114e-02,2.553188663437067074e-03,-1.998893276889012003e-03,3.617733418941497803e-01
3.489279843303160766e-01,-2.160364809566517330e-02,-3.205074592084089513e-02,-1.902592869264135844e-02,-2.644978613549876789e-03,1.196858716190685233e-04,3.773338198661804199e-01
3.336299125702641422e-01,-2.510401893231142822e-02,-2.748924994712401149e-02,-9.392939063059860608e-03,5.068574998157888978e-03,3.232907103296397836e-04,3.604073524475097656e-01
3.631750343237930556e-01,-7.203746146352968394e-03,-3.392346625205439059e-02,-1.576265498050836988e-03,-1.629713510615755706e-03,-2.146200849923342443e-04,3.844559192657470703e-01
3.548855227049198535e-01,-3.541811831690000467e-03,-3.243960690108413369e-02,-1.995847302119761052e-02,2.842827319956154480e-03,-1.483005165272896150e-02,3.762207627296447754e-01
4.078534995641620586e-01,1.179602349458916399e-02,-5.009149356876019255e-02,-4.124314649388625270e-02,-8.353103379830131500e-03,-2.806777330347262015e-03,4.365072250366210938e-01
3.643303528529241442e-01,-7.227209602190198812e-03,-3.840442730709830998e-02,-8.324559205110061352e-03,2.883057076234969793e-03,-4.524817217630907641e-03,3.884654641151428223e-01
4.101843836287984990e-01,2.055171431187477471e-02,-5.402972283152940314e-02,-2.927441787659099820e-02,3.981848070281784370e-03,-2.085537805931742678e-02,4.363012313842773438e-01
4.031647252245537105e-01,6.728018621121434339e-03,-4.903690536239246889e-02,-2.751446330594198297e-02,-5.503548080048058927e-03,-8.636986887506919661e-03,4.300754070281982422e-01
4.194204456153538541e-01,-5.254793192431939097e-03,-4.431746015324375398e-02,-2.437267334340122160e-02,2.776577589056353212e-02,-2.050982006849208505e-02,4.514651298522949219e-01
3.963664365829486225e-01,-4.164049918392170868e-03,-3.068629956568408312e-02,-7.899979198755600202e-03,-1.701305571776040235e-02,-2.442414882934093937e-02,4.178471565246582031e-01
3.497266319085927111e-01,-2.850975747994560772e-02,-3.371776801587100802e-02,-2.533965622826150790e-04,2.416431708293977098e-04,-7.272350033579562867e-04,3.808696568012237549e-01
4.041873497467217136e-01,1.859462627770891441e-02,-5.467930935267159565e-02,-2.424587780405497092e-02,2.152015009482766139e-02,-2.550952638580947229e-02,4.329085946083068848e-01
3.519775295164945250e-01,-3.200981012597722830e-02,-2.726503974823721310e-02,-3.527637274292646022e-03,-2.238463348129352600e-03,-2.400058136170338512e-03,3.817283213138580322e-01
3.073824345936120306e-01,-3.303607417810275337e-02,-1.937099433337413634e-02,-7.206394586603003666e-03,-1.571594919093474707e-02,-3.853131087971112256e-03,3.352028727531433105e-01
3.635832108597590873e-01,-2.011788581859991210e-02,-2.794710061481991970e-02,-1.453017087161152451e-02,-2.427726797398988001e-02,1.313722453091733383e-02,3.914220333099365234e-01
3.299120478466106010e-01,-2.854009576050953179e-02,-2.868352122577905172e-02,-1.333405690961191221e-02,-1.770238414432138974e-02,-5.078059176156542696e-03,3.606802523136138916e-01
3.113553368704020108e-01,-2.430960969496223645e-02,-2.819066658026592176e-02,1.105857565394080880e-02,-1.624767740321952231e-03,-6.805426652562408460e-03,3.383821547031402588e-01
3.050982192941585902e-01,-1.859633429703959340e-02,-2.396890926003381050e-02,1.437905654641972314e-02,1.518968888186880001e-02,-1.074374748615903458e-02,3.289450407028198242e-01
3.046126642118672234e-01,-2.064359559710159109e-02,-2.595898952472897037e-02,1.264623019711099035e-02,1.880365494566197879e-02,-7.167477255054434393e-03,3.305198848247528076e-01
3.236154869619823349e-01,-2.814597692969850184e-02,-2.475723018856348934e-02,1.222148947464351404e-02,1.363403226345676414e-02,-8.256473303205948480e-03,3.518036901950836182e-01
2.984038626891500345e-01,-2.041980681764632433e-02,-2.643130125667095265e-02,1.182811495288120171e-02,1.598170007802469234e-02,-7.484914617521741705e-03,3.239680528640747070e-01
3.689836390713768788e-01,-4.441790853714952525e-02,2.626981454060411947e-02,-2.017533226154530606e-03,4.368985672304738499e-03,-4.949200451863026984e-03,3.831685483455657959e-01
3.967903632745661824e-01,-4.997747875705471632e-02,1.947402748475146606e-02,-2.941911716456376176e-03,8.154250031125376622e-03,-1.310774344853729741e-02,4.172974824905395508e-01
3.685846222806287709e-01,-4.250318341477241080e-02,1.618993119182667029e-02,-1.420684680666067096e-03,-3.724346328820277337e-03,-4.954927602298733053e-03,3.852679133415222168e-01
3.655728698573864621e-01,-4.231979103352598304e-02,1.821800092468943422e-02,8.181228183258870180e-05,-2.646369592627901592e-03,-5.363114782288895543e-03,3.813864886760711670e-01
3.998509346327888125e-01,-5.406117397829593441e-02,2.911898750457544982e-02,7.336911452185465934e-03,1.359244069215717263e-02,3.497352938119833998e-03,4.194652736186981201e-01
4.062710998389295614e-01,-6.140787961947125062e-02,2.820749021638575826e-02,2.833280613901708201e-03,1.107765500175995205e-02,1.005842844252349301e-02,4.307424426078796387e-01
4.284261662229360557e-01,-5.405720516467135695e-02,1.454827797909949427e-02,-4.171081632589584108e-03,-8.972591207991249471e-03,3.269659575313087164e-04,4.524267315864562988e-01
3.793807306311304806e-01,-5.112578177055621120e-02,1.818536808686037343e-02,2.978882453417306710e-03,-4.596881603483573588e-03,2.897087242937473536e-03,4.005199074745178223e-01
3.733878965946985651e-01,-5.378818892489389825e-02,1.772639546021342882e-02,8.707963720987570849e-03,-9.917101014800070238e-03,4.767915299392648867e-03,3.970329463481903076e-01
3.698411586291273090e-01,-4.527037918683923801e-02,1.731280391007662678e-02,-1.092057859950123274e-03,2.432228263660003807e-03,-1.316929997503787138e-03,3.876619338989257812e-01
4.693614261073184579e-01,-6.801839091097788836e-02,2.264909345792970319e-02,-1.878361964142797463e-02,6.885971586579926751e-02,-6.157597203980907583e-03,5.134900212287902832e-01
3.659073396618677809e-01,-4.361696507182122318e-02,-7.128838351282335006e-03,-3.538075490264209338e-03,3.786628633076979944e-02,2.526308476748773384e-03,3.980666100978851318e-01
3.633979141653543299e-01,-4.009979436706981315e-02,3.059759908877662804e-03,3.853467148183723281e-03,-1.364343110060820550e-03,3.170959046770469546e-03,3.838471770286560059e-01
3.844995466575548138e-01,-5.069825014687676101e-02,6.667983619953826713e-03,3.750160483228889841e-02,1.879314233513296531e-02,-5.259086907043022778e-03,4.160336256027221680e-01
3.603255152622105717e-01,-4.278595626708753263e-02,8.514247499866567370e-03,-4.660882153311547357e-03,6.292481542778756345e-04,-1.629551213212471032e-03,3.801646828651428223e-01
3.537031940639054350e-01,-3.924086959233488714e-02,8.823981100317374038e-03,2.467799596221237866e-03,1.284541780940281997e-03,-5.200865637591413739e-04,3.712849318981170654e-01
3.575284618020285188e-01,-2.749972627016616933e-02,-2.524939347165297554e-02,1.351146193231696820e-03,-9.390577072901060455e-05,5.649077760517763527e-04,3.839163780212402344e-01
3.518438477787800833e-01,-2.371818947448292580e-02,-2.526295692350771782e-02,-1.350858302633251495e-03,-4.733834392759543336e-04,-1.609999654685195358e-03,3.763552904129028320e-01
3.547607239439198867e-01,-2.456830461253078912e-02,-2.343214250595021531e-02,-1.559097898040374226e-03,-2.647557500428176038e-04,-2.455554744399343365e-03,3.787960112094879150e-01
4.688630183345666724e-01,2.095512739283023063e-02,-6.785940045815724853e-02,7.674691080583295744e-02,-7.467889202212826816e-02,3.547201674685301377e-03,5.317227244377136230e-01
4.177018782790399287e-01,7.928389260675045014e-03,-6.202399188533674890e-02,9.538221046213192500e-03,-2.556048503258630082e-03,-1.773960044290857538e-04,4.491824805736541748e-01
3.621328324575535662e-01,-2.748001484816817164e-02,-1.781261726621527486e-02,-1.155884093956866627e-03,1.223089686106664875e-03,1.608980842712480616e-03,3.848913609981536865e-01
3.632529853926050323e-01,1.895896125196805393e-03,-4.150612476032472520e-02,1.740467161144285124e-02,3.526790210747972158e-03,6.527641723200539102e-05,3.861248493194580078e-01
3.470952541455050722e-01,-8.607978974277563644e-03,-3.761761348298514607e-02,3.602075344524849343e-02,6.794718389990158161e-03,2.498062303119875233e-03,3.764769434928894043e-01
3.745252973925509155e-01,-1.367645833687203272e-03,-3.867548194460235234e-02,-1.547652016783344952e-03,5.616755234847252941e-03,4.354459069112621636e-03,3.960679769515991211e-01
3.473199668240277149e-01,-1.868913967468216475e-03,-3.806012585538015580e-02,7.879404539013217315e-03,3.612811774795456586e-03,-1.428672597333589030e-03,3.689332902431488037e-01
3.114789575057932969e-01,2.724926597002250150e-02,-4.914830731728467295e-02,7.726358855407730597e-02,-3.834412469055657746e-03,1.618842275631494215e-02,3.564783930778503418e-01
3.771647444269636273e-01,-1.104558963332044619e-02,-4.093723905254900708e-02,2.203699126080823148e-02,8.159408890466063671e-03,4.009163063670382818e-03,4.060909450054168701e-01
3.508012801891843835e-01,-2.645704015854749569e-02,-3.549982016478064883e-02,1.880756535631632014e-04,2.071159291246015954e-03,-1.644048672040993335e-03,3.818876147270202637e-01
2.647454887631699449e-01,-1.672997655523469906e-02,-3.737266438012573633e-03,2.116319695138289825e-02,6.379100115107057961e-03,-2.969157967714277247e-03,2.779069840908050537e-01
2.724500459470577951e-01,-2.345100767138756648e-02,-1.895632780018653707e-02,3.488860303412961300e-02,1.741710672069928661e-02,-9.641356137043317898e-04,3.013505637645721436e-01
3.515741218939815727e-01,-2.846639419050686626e-02,-2.786964505940914272e-02,-6.010059146233318744e-04,-4.142405875442900943e-04,-3.356267928945633216e-04,3.797450363636016846e-01
3.101323574520060133e-01,-3.064955413763389980e-02,-2.120748857760043626e-02,-9.916429383475554304e-03,7.810907953461706035e-03,6.926375583543838491e-03,3.370841741561889648e-01
3.560735504827783338e-01,-3.065687290586996405e-02,-2.769421247691145060e-02,-2.142549334962781139e-03,5.881376954255736721e-03,2.524496335581586162e-03,3.854349553585052490e-01
3.530809944084262741e-01,-2.597468460684068670e-02,-3.392842245506444421e-02,4.925055899282912908e-04,6.116716116510003375e-03,3.023925257726863512e-03,3.832776844501495361e-01
3.421871221862570756e-01,-2.933879064357292066e-02,-2.884810400489878912e-02,-2.105597422882121532e-03,4.903025548701440278e-03,3.534502838260233492e-03,3.714462816715240479e-01
3.467462946904922849e-01,-2.668606197856918105e-02,-2.857070777313416854e-02,-2.144953575457077613e-03,1.940562969858913508e-03,3.431765335540096825e-03,3.744589388370513916e-01
3.490954993250571237e-01,-3.081113813229494069e-02,-3.160628536149981405e-02,-9.475025899068519053e-04,-4.969332950411464017e-05,5.192154307893151986e-03,3.804146945476531982e-01
3.490250454356333965e-01,-3.112526718626457134e-02,-3.313494686600215733e-02,-2.920379538896458022e-04,9.452951495225311515e-04,4.342955420461702687e-03,3.812372088432312012e-01
3.362457233850524307e-01,-3.102914335182357930e-02,-9.396473935618293583e-03,1.209785407742021684e-03,-2.266160503528907855e-02,-5.874839091645613434e-05,3.591082096099853516e-01
3.134041324465555722e-01,-1.984031923045129209e-02,-2.790764691674757492e-02,2.495764223090025978e-04,-9.763487786966387836e-04,-6.430879956796474971e-03,3.375388085842132568e-01
3.673640941185715159e-01,-3.246977014941318518e-02,-2.365701453573007540e-02,-2.624417117775634063e-04,-9.095028004222084281e-03,4.847177068492894013e-04,3.958158791065216064e-01
3.555447497768706167e-01,-3.602205130157998259e-02,-6.580794231721504017e-03,-1.397420232221466621e-02,-3.770884463615794407e-02,4.467893104902588043e-03,3.841545581817626953e-01
3.508488392612741369e-01,-2.690807218938909284e-02,-2.912375533512009951e-02,8.044235188623032398e-04,-6.388149143052058998e-04,-3.131210720314132499e-04,3.788741827011108398e-01
3.330134283989678035e-01,-4.414998562696581530e-02,-6.551534053653912393e-03,9.913767129454882990e-03,-2.488011156253967793e-02,1.745677446172457436e-03,3.628307878971099854e-01
3.658304631360689285e-01,-4.156926102560992708e-02,-8.517271069664211769e-03,-3.420514867012199381e-03,-3.061092214594984644e-03,-2.584166116266925928e-03,3.920265734195709229e-01
3.435935704847615790e-01,-2.860481293628203137e-02,-3.687712751466040717e-02,1.035879591727813199e-03,-2.903292775383629898e-02,5.579704064694532419e-05,3.797512054443359375e-01
3.551403322304401700e-01,-2.874693643636216933e-02,-2.613776572090209527e-02,-7.245777579049858530e-04,1.730254783530218706e-04,-4.202044399327569757e-04,3.825922310352325439e-01
3.651683235494604940e-01,-2.856849047904402861e-02,-3.178924073516142812e-02,1.057121272361945252e-02,-5.394308502145699590e-03,2.055584416723136036e-04,3.958912193775177002e-01
2.740476673221544646e-01,-2.244493268122529916e-02,-1.833960924437640083e-02,4.249629228922717494e-02,-1.876000059908713297e-02,5.572012178379955223e-03,3.054083883762359619e-01
2.648047632560167619e-01,-2.484501780959370854e-02,-3.339060698508630742e-03,1.783053389618337661e-02,-2.611629696156225842e-03,1.745652335095278880e-03,2.812715768814086914e-01
3.157877536982947042e-01,-3.243210614718672335e-02,-2.597429326977851449e-02,3.810830034184838760e-02,-5.913554370255027061e-04,6.014166789957383838e-03,3.514488935470581055e-01
3.570707251323386178e-01,-8.271719618751088854e-03,-2.315911395649186688e-02,3.921014262407067005e-03,-2.342958959958187180e-03,-3.050689358847813535e-03,3.731303215026855469e-01
2.996243054281413909e-01,-2.530223055379851593e-02,-1.689025606169931859e-02,7.195437740596392212e-03,-2.971518149080087500e-03,7.269489517017555143e-03,3.213332891464233398e-01
2.898491450279194193e-01,-2.187681118965834060e-02,-2.296039423888322772e-02,3.146690435301183891e-02,-1.265633846914259591e-02,7.608009426157155350e-03,3.180199861526489258e-01
2.966190977944343499e-01,-2.298352878583810599e-02,-2.217946825545956402e-02,3.475944376751188836e-02,-1.593898906082294106e-02,6.998559756716993437e-03,3.262257874011993408e-01
3.388165027220685355e-01,-4.077116052415447056e-02,-1.955375334431966317e-02,1.418881012493160678e-03,4.864989455765204342e-04,-1.596869223579083959e-04,3.694454431533813477e-01
3.608676373392059600e-01,-4.281476432738320903e-02,2.243190053269038253e-02,-6.121275569410601809e-04,3.692956737966214889e-03,1.416627366995389103e-03,3.754007816314697266e-01
1.780600606877469350e-01,6.262431373084909048e-03,-3.750731454083416905e-04,2.019051738161152434e-03,1.005200394210566291e-02,1.602875289193270592e-03,1.761302202939987183e-01
1.009315170061463596e-01,-2.181930937192101683e-02,-2.727930139831441503e-02,1.464492191014908282e-02,-4.399896222190703698e-02,-2.802843479238018021e-02,1.567664593458175659e-01
1.196611483194646858e-01,1.188326193491126559e-02,-5.754268877641066648e-02,2.537576336047654355e-02,-2.840744099225291086e-02,-1.745341921472614091e-02,1.708368211984634399e-01
1.875448340461156882e-02,2.058716988796551947e-02,1.308890480780805672e-02,1.178705775675568945e-02,3.174305077321875473e-02,1.235436372456399402e-03,5.907696485519409180e-02
8.989951519985946160e-02,8.778503374993425201e-03,1.181046656865417793e-02,1.911616001667072393e-02,-8.581643575839082924e-03,3.559249013866638747e-03,8.774438500404357910e-02
3.540491934844208211e-01,-1.858033492476071635e-02,-2.381186501747845075e-02,1.829248227357034031e-04,4.777258146860173890e-05,-2.487295496929812447e-03,3.752975165843963623e-01
1.973398984886520213e-01,-6.046812171804000213e-03,-2.759673449319322014e-03,-4.044725515702000257e-02,4.087900110205102550e-02,3.484235794333244169e-03,2.250911742448806763e-01
1.293805052407494549e-01,-6.730118592434747304e-03,7.509922321221260133e-04,-5.452012788610390535e-03,5.389693206523520075e-02,-1.020212665799154900e-03,1.623907089233398438e-01
1.486623928305271236e-01,-1.443273430256351852e-02,1.041592597204974574e-02,-2.370013263712363039e-02,9.810334969746421774e-02,-3.490157007287023223e-03,2.318603396415710449e-01
2.018340644767569747e-01,-7.393856786066521636e-03,-1.542791786431872703e-02,5.243551717753330670e-03,6.915972184999420735e-02,-4.889822824018843009e-03,2.450004816055297852e-01
7.784105349250618200e-02,2.343644274873955824e-03,-5.097672614205822628e-03,4.519074021406348576e-03,-1.038050400514591107e-03,-1.271701878861056755e-02,8.286554366350173950e-02
1.093169653333922187e-01,-1.423853353203836936e-02,-1.472146847161086985e-02,-1.169642434838997352e-02,1.781149884182660695e-02,2.411872769230556657e-02,1.357688158750534058e-01
3.307394244222077173e-01,-2.019737434007337629e-02,-3.538596973666743861e-02,8.239999438583274971e-04,-7.764075409247445450e-03,2.948099486004769881e-03,3.590633869171142578e-01
2.913722596164177725e-01,-1.633913839505449217e-02,-3.157188053833218100e-02,1.049154779486516018e-02,-2.623325471431357109e-02,3.116439694347811814e-03,3.194206357002258301e-01
3.324773130714854252e-01,-2.180421425601061780e-02,-3.608914135171237270e-02,2.564780893904836014e-04,-7.157362311434548735e-03,1.409467446424146316e-03,3.618565797805786133e-01
3.415796052943488870e-01,-2.437840346122241431e-02,-1.884663662878102719e-02,-1.527594189542273717e-02,-1.391937489036895043e-02,7.698417070708162349e-03,3.652267456054687500e-01
3.550476256082004678e-01,-2.781430452586605706e-02,-2.929114225045900688e-02,-6.253626806480374646e-03,-7.165832882831244324e-03,-2.331426422280949515e-03,3.839772641658782959e-01
3.443363047724881110e-01,-2.824185293263525853e-02,-3.261747217609395344e-02,-2.767392676258756488e-03,-4.976860245349823408e-04,-2.540603650243316875e-03,3.748425841331481934e-01
3.377690962732233237e-01,-2.556293648896340587e-02,-2.320086214891686760e-02,-6.198360426472159651e-03,-2.624634835795146455e-03,-4.412485998721155643e-05,3.623443841934204102e-01
3.504360306895574761e-01,-1.903761940772813466e-02,-2.782057852368455264e-02,-2.853423638298321647e-03,-5.677829914565002412e-03,3.539691410740091870e-03,3.741546571254730225e-01
3.513320236989876388e-01,-2.673175454659793004e-02,-2.796944267854684085e-02,-5.355672845171350130e-03,-5.365486808310498436e-03,5.737161084818207316e-03,3.790419995784759521e-01
3.475025155409151023e-01,-2.267902636380728087e-02,-2.430073449889635917e-02,-6.908018533580749174e-03,-3.175801154800437023e-03,4.090950632908935646e-03,3.712963163852691650e-01
3.318285279093244333e-01,-3.189671398065843655e-02,-2.379357408403939833e-02,-1.116217129081933067e-02,-1.170894003950261790e-04,-4.805677619686065001e-03,3.603574633598327637e-01
3.351472183167411578e-01,-1.838283048424385613e-02,-4.013747277387169632e-02,2.276008017573608738e-03,5.012064422025032211e-03,-1.473942909755647773e-03,3.650275468826293945e-01
3.323779403073509608e-01,-1.942556348466334404e-02,-4.080191372944985684e-02,-3.048674525391537266e-04,5.376943538102649592e-03,2.790161977589692343e-04,3.630842566490173340e-01
3.416388492698704260e-01,-2.050977969402645318e-02,-3.999486281320391301e-02,8.219880648750409451e-04,6.221560155935347211e-03,5.478690069857104945e-04,3.724336922168731689e-01
3.477155910057058708e-01,-2.231205753975737394e-02,-3.780751540874133232e-02,2.096439107409012095e-03,1.340854666615565009e-02,-3.293812540365907639e-04,3.787442445755004883e-01
3.085295040345497619e-01,-1.673063292142798475e-02,-3.802414877567725227e-02,-7.971554609862871411e-04,1.476352828584717725e-02,2.518689748708672813e-04,3.373862504959106445e-01
3.239641460981722565e-01,-1.753929084051344955e-02,-3.449890854058054734e-02,3.605273363202430437e-05,1.423443506741935149e-02,1.784309825044720675e-03,3.511714637279510498e-01
3.756348176063656341e-01,-4.507807373419070451e-02,-2.801143184337773206e-03,9.734683839239576322e-03,1.006040400773146326e-02,-2.053557731428108310e-03,4.019960165023803711e-01
3.647614962713972564e-01,-3.637755844220574852e-02,1.374654752852634554e-02,1.115933653253460599e-03,7.812816153754620352e-03,1.331643497669055855e-02,3.795221447944641113e-01
3.517808735852157587e-01,-2.690183789070654807e-02,-2.901214032397289588e-02,-2.974052720841654764e-06,1.125865127645516751e-03,8.047829103822555367e-05,3.797473013401031494e-01
3.568369288234595205e-01,-1.885121422683702641e-02,-2.733518249011637757e-02,-2.360394267373777232e-03,4.100980532995094621e-04,-1.036954768548422690e-03,3.800280690193176270e-01
4.048484629981833893e-01,-5.686124376662535229e-02,4.379124933482553272e-03,2.167448272733354985e-04,1.924237590649624866e-02,1.480635535222954956e-02,4.363709390163421631e-01
4.270016076891807733e-01,-8.512755036038718859e-02,2.087193043709778539e-02,7.326284039590645614e-03,4.347234639998863448e-02,6.813232653229625568e-03,4.745487868785858154e-01
3.685686749051003686e-01,-4.993125921282975943e-02,1.345046998843045516e-02,5.608684297432364393e-03,6.555999929747832397e-03,5.442067922346131847e-03,3.910835683345794678e-01
3.879565531217870622e-01,-4.417139896342728300e-02,7.113536829340266765e-03,-2.026512294906621537e-03,-4.423116545934879275e-03,8.395993265686135451e-03,4.092499911785125732e-01
4.220755143343591920e-01,-6.237503115592993308e-02,1.297930695538859758e-02,-1.634587414996089639e-03,1.222251167867954326e-02,5.412121714270336226e-03,4.521163702011108398e-01
3.737159046439588184e-01,-5.904503027505891843e-02,3.030168474711709969e-02,4.105338899781034445e-03,-5.662722826576582812e-04,-8.859304129736823201e-04,3.957940936088562012e-01
3.752671939311589822e-01,-6.197492613338714817e-02,2.914573889968741227e-02,-2.466390608224637918e-03,-8.126234090753557855e-04,7.688043802215709967e-03,3.997991979122161865e-01
2.662503366944916627e-01,-1.778804147242442346e-02,-2.175710227107725825e-02,-8.188637990956428372e-03,3.341275154009071269e-02,6.597297828992006348e-03,2.924070656299591064e-01
3.415886623083179696e-01,-2.367135082155449877e-02,-3.716957985745666937e-02,-2.524323201092690434e-03,5.626636987756985543e-03,6.458853073114069129e-03,3.725140094757080078e-01
3.611241855519689570e-01,-4.492586945891660632e-02,-2.323714167059692803e-02,-5.091600841027794228e-03,2.725550200644278470e-02,4.939416380631070358e-03,3.986475765705108643e-01
3.408694360105643528e-01,-2.471654863072153541e-02,-3.324642550194631396e-02,-1.528968536124015749e-03,9.957174202985762806e-03,6.914035434907892484e-03,3.705295324325561523e-01
3.731523967723566204e-01,-2.769098339862979818e-02,-2.569002523064187193e-02,-7.228483530659794709e-03,5.882994918309037216e-03,-5.418600481513605009e-03,4.002824127674102783e-01
3.268277865785714775e-01,-2.464772800651290896e-02,-2.951291093641816854e-02,-6.274891911937152851e-03,7.914283935148109378e-03,6.955641617215429194e-03,3.545699715614318848e-01
3.673228941515284118e-01,-2.458857828179628058e-02,-2.466047467754389766e-02,-7.585468339647779027e-04,-1.549989262166558579e-04,-8.031594736289483782e-03,3.921965062618255615e-01
3.405128019243313653e-01,-2.556531690015734215e-02,-2.110859535297546219e-02,1.096893289427240160e-02,-2.009391218199385945e-02,-3.023319611212813441e-03,3.660617470741271973e-01
3.571017137991511214e-01,-3.025258302823558010e-02,-1.374387794675843710e-02,-1.116515077267347684e-03,-2.867317439074118512e-03,-5.928112765299625893e-03,3.795457780361175537e-01
3.839095333701714186e-01,-4.299610893595900984e-02,-5.306360291888967406e-03,1.063267842485593993e-02,-1.492999279158575138e-02,-1.970796880919433586e-02,4.120097756385803223e-01
3.631168721926587017e-01,-4.109568896915699598e-02,7.580887863191387854e-04,-3.174413464205108875e-03,-1.198013271538190747e-02,-7.598951953194754520e-03,3.858182728290557861e-01
3.645561758060663071e-01,-3.704830187781305018e-02,7.847073437436402621e-05,3.246261115985548708e-03,-1.263872569976726840e-02,-6.293941927269260453e-03,3.852063715457916260e-01
3.582337821396886501e-01,-4.176595713772901508e-02,-1.317124144130196739e-02,1.172844090146663541e-02,-2.840045764228102398e-02,-1.125023338024380530e-02,3.906298875808715820e-01
3.588481416385931877e-01,-1.548168962959936557e-02,-2.835082047065581867e-02,3.065717137755482290e-03,2.278684934443190799e-03,-9.769488034525155087e-03,3.813605010509490967e-01
3.030294294052536808e-01,-1.296010411595163725e-02,-3.527988257573833053e-02,-2.363653336902720413e-03,3.633787213647209774e-02,3.204599471848084725e-03,3.337802588939666748e-01
3.238863826786445022e-01,-2.185232466303954624e-02,-3.607867131050834786e-02,-1.239710421518619909e-03,8.782879379279519630e-03,5.332391681958147632e-03,3.535216748714447021e-01
3.230463683286382004e-01,-1.335417075470958503e-02,-3.626877945132139791e-02,-2.888919278832298172e-03,9.002968368349869785e-03,3.571691396894981392e-03,3.488629460334777832e-01
3.645666500542752431e-01,-3.513554730736964671e-02,-2.507253075321946856e-02,2.370761149048238904e-03,9.389313722917354277e-03,-6.254164617006099415e-03,3.952715396881103516e-01
3.421353394312778295e-01,-2.727858745786293504e-02,-2.464629823993944036e-02,-2.331456521067768774e-03,2.323445214644835697e-03,-1.968160363853565544e-04,3.681491315364837646e-01
3.454616332913987842e-01,-3.132794159379895249e-02,-3.188385022870865448e-02,1.243299146869042068e-02,1.183211593044893734e-02,-6.999845670121586892e-03,3.784321248531341553e-01
3.477233246551799661e-01,-2.910159969738809749e-02,-2.827703789996247052e-02,1.915315455620933242e-03,3.241377539076717006e-03,-2.386927148573835152e-03,3.764925003051757812e-01
3.583351098001780199e-01,-2.577830459195512569e-02,-2.552365969043063343e-02,1.595099597665969879e-03,2.794962936293934972e-03,9.549569966037157543e-04,3.840301632881164551e-01
1.400989620223341836e-01,-2.008537385127122377e-02,-6.670394458917455749e-02,7.134052063352508410e-02,-2.661124609400967317e-02,-1.866998946546515395e-02,2.318155914545059204e-01
3.640608127160502860e-01,-1.628745802731382253e-02,-3.116868972775743707e-02,-4.261664542131430103e-03,2.143829790078695050e-04,-4.245940596392819809e-03,3.881430327892303467e-01
3.361449455403924258e-01,-2.540056710488705627e-02,-2.493154249821435964e-02,7.459847920759571371e-03,3.358949622991172501e-03,-1.492261730359726408e-03,3.615982234477996826e-01
3.479784078679665771e-01,-3.367701999214697817e-02,-2.909150140352659286e-02,6.126824674978220350e-03,3.427137229083139849e-03,-5.028039803406384595e-03,3.796781599521636963e-01
3.344794236834487955e-01,-2.470680283314394265e-02,-2.477045049516118924e-02,5.938781941465804369e-03,2.793464963438054005e-03,-2.771595885327500508e-03,3.594299256801605225e-01
3.351225839892309488e-01,-2.865517526259597769e-02,-2.391407009559615160e-02,4.926549186431169666e-03,3.563324616121645548e-03,-2.318311070727146345e-03,3.616062104701995850e-01
3.454494352116836420e-01,-3.157397670955514046e-02,-3.358181864551851303e-02,1.279039178433143478e-02,1.622523156037328912e-02,-5.841879560149262386e-03,3.798560500144958496e-01
3.389819898610588189e-01,-2.859148353714530133e-02,-2.970179725833735351e-02,3.824554244475546552e-03,5.683402061470401410e-03,-4.212754280154905329e-03,3.683933317661285400e-01
3.355209128454005318e-01,-3.740277488500706737e-02,-2.616242552654005071e-02,2.483392123030643897e-02,1.413372000175587909e-02,-8.431636841464669810e-03,3.710382282733917236e-01
3.390752103009928020e-01,-3.063838188816625507e-02,-2.878099958664290248e-02,5.067562397581558235e-03,4.748581428668359472e-03,-3.956799643950370884e-03,3.690481781959533691e-01
3.358842326685527735e-01,-3.593223542967841078e-02,-2.419978789026236421e-02,2.158030301268535137e-02,1.765244645903625564e-02,-1.028815090046741182e-02,3.696921765804290771e-01
3.567652150311266257e-01,3.885379907561353763e-03,-2.806571052010423117e-02,2.835744522733099279e-03,1.000093071031955350e-03,1.278680141243142103e-02,3.705908358097076416e-01
3.464592010440474268e-01,-9.366694685321863556e-03,-3.015887056395441523e-02,1.800130271571491122e-02,1.496188349518123503e-02,9.770137045296741971e-03,3.692869544029235840e-01
3.628384306651147306e-01,-1.060911163812328084e-02,-8.764930773697388044e-03,-5.363723441351092754e-03,-2.918662603056025075e-03,2.617552486818690988e-02,3.754265606403350830e-01
3.689979737909712121e-01,-1.492065792245697575e-02,-8.349328749817336304e-03,-3.512412225962925801e-03,5.152900785543651149e-04,2.456868881214507860e-02,3.830959498882293701e-01
3.556197213405449253e-01,-2.000692171849713374e-02,-2.786180675080857094e-02,-2.422089365702114090e-03,2.069430381370509532e-03,3.127118483468498220e-04,3.796555399894714355e-01
3.631735022698470150e-01,-6.631331421435127105e-03,-1.791692159502458748e-02,-2.463996039166410548e-03,-2.667397812705126024e-03,1.390992768228188105e-02,3.763993382453918457e-01
3.559765155888733879e-01,-1.893645786796097075e-02,-5.225361955080415344e-03,-2.918719904170814349e-03,-4.806320431168631391e-03,1.298936507646526392e-02,3.690640926361083984e-01
4.047247559355759972e-01,-4.759601112683711777e-02,-1.145954479063948650e-02,2.747524076370792389e-03,4.472316880670126199e-02,8.022277942940135229e-03,4.424600005149841309e-01
3.441430750293302254e-01,-2.445960882413922288e-02,-3.582558163092761094e-02,-5.149114930690685751e-03,-2.169448202246901380e-02,-4.946775038176079962e-03,3.764990866184234619e-01
3.826349374623289057e-01,-3.747386525012041947e-02,-2.184107927623435419e-02,-1.403759124132171118e-02,-2.126522120793121820e-02,7.702150824590205634e-03,4.150832295417785645e-01
3.643406324131157059e-01,-2.814534445764829695e-02,-2.708163103570621066e-02,-7.489511144471145895e-03,-1.450376854597434234e-02,-1.783362153931043075e-04,3.929736912250518799e-01
3.447451053540261379e-01,-3.296764062637955184e-02,-2.702584023806200997e-02,7.080921361004101128e-05,3.999501920709364034e-04,-3.933578874120939768e-03,3.748397529125213623e-01
3.515350265466022917e-01,-3.851002408752871031e-02,-9.520152400209952459e-03,-2.416692935447361731e-02,-1.948545254614899788e-02,6.765641257958187986e-03,3.803901672363281250e-01
3.580972985268369713e-01,-3.286578641176179927e-02,-1.250234294559265935e-02,5.224324172076453589e-03,-6.329402151515693686e-03,5.292939988425672017e-03,3.815646171569824219e-01
2.632612980483144405e-01,-2.034738142083512835e-02,-1.507594372787693371e-02,-3.342863140025772312e-02,1.818495783301170288e-02,3.329993651999930016e-03,2.886943221092224121e-01
2.830874068630174767e-01,-2.145300470324838782e-02,-2.831313808267514609e-02,-3.383934956740206057e-02,1.859789361754939779e-02,6.780464676104736368e-06,3.152047991752624512e-01
3.356976074650388497e-01,-3.580844087720469471e-02,-2.765968960884976346e-02,-1.177787480822898789e-02,2.957170052677886990e-02,1.271019693335918160e-03,3.716184794902801514e-01
3.156847658028911208e-01,-3.342419236887800293e-02,-1.908524739597258768e-02,-2.290855517165403532e-02,7.815249443635640184e-03,7.844277486046123682e-03,3.449913859367370605e-01
3.413131146451883757e-01,-2.089984379704748485e-02,-3.622238801492125293e-02,-2.865309517685516588e-02,2.536528445711654436e-02,-4.935411801006283662e-03,3.760974705219268799e-01
2.941348708345393748e-01,-2.403272642590803532e-02,-2.623717304893910529e-02,-1.313265989837262768e-02,2.632401035450393154e-02,8.016839587342790285e-03,3.236138522624969482e-01
3.184284185165119352e-01,-3.208602813854774527e-02,-2.429111721328736095e-02,-2.504007539030512000e-02,1.302021129455396137e-02,6.319362621838503676e-03,3.502831757068634033e-01
3.534503064581476228e-01,-3.132930273262274357e-02,-3.232096814184706735e-02,-2.300965603664991994e-03,5.181949979853985640e-04,3.892211293268068271e-03,3.853570222854614258e-01
3.356019703273542820e-01,-2.857311612658672284e-02,-2.872073885362308454e-02,4.363278190413740279e-04,4.808096009771419335e-03,5.694245057888928582e-03,3.644783496856689453e-01
3.499424417580353497e-01,-1.588538517381163362e-02,-1.269842221330488852e-02,1.120085479545206814e-04,-4.837711765857974442e-04,2.164352984653261300e-03,3.642651140689849854e-01
3.506996566312395314e-01,-2.908806040950051575e-02,-3.520596924692714902e-02,2.097508369095111303e-05,2.766936228299594295e-03,3.472960215620064101e-03,3.829605579376220703e-01
3.382057210446447471e-01,-3.082658651041494946e-02,-2.868064050159410683e-02,-2.387622595726160511e-03,5.161964916160269833e-03,5.366198787927860085e-03,3.682131767272949219e-01
3.660959050210127463e-01,-9.100178723691870752e-03,-3.863563259294441887e-02,-6.105514007305909603e-03,1.399469096274104114e-03,-3.555326665958021513e-03,3.910008370876312256e-01
3.843246457698874519e-01,-1.015464371102464680e-02,-4.615518168501414609e-02,-3.536665992803310343e-02,-4.702160822694659292e-03,-5.080207355642906396e-03,4.183390736579895020e-01
3.702903645474681649e-01,-1.564208380222528727e-02,-2.791602182104202523e-02,8.506396961001257140e-04,5.390290874079183871e-03,-1.033111859452603629e-02,3.927352130413055420e-01
3.436785979570621818e-01,-4.648750757772907027e-03,-3.453513992343304473e-02,-4.586272770472469423e-02,-2.716248711965652332e-03,-3.615811296511833774e-03,3.728362917900085449e-01
3.671081130949823135e-01,1.632916784661847531e-03,-3.986909663825119465e-02,-8.990913246372557455e-03,-1.791555031599998456e-03,1.883969105506782009e-03,3.882335424423217773e-01
3.470500547230946364e-01,-3.093236440429525391e-02,-2.794238175512003819e-02,3.482718039283039593e-04,-2.826311653060382110e-04,2.132525069090416246e-03,3.765152394771575928e-01
3.888606524152801724e-01,-5.127575877501899804e-02,-7.093044923142083347e-03,-2.010310362606765756e-03,3.831344930907824853e-02,1.095169365074538832e-02,4.254426658153533936e-01
3.405011910139892350e-01,-2.777354724007358167e-02,-2.894378482587908752e-02,3.240185716406981074e-03,-1.999664264538185583e-03,4.468432215874503649e-03,3.690013885498046875e-01
3.289449485020838337e-01,-2.753140999497472041e-02,-2.330287866774419236e-02,5.067799867236575523e-03,-1.295779985686744060e-02,2.596314318494601173e-05,3.551994860172271729e-01
3.409396587269970524e-01,-2.317758876748035601e-02,-2.733953398060257056e-02,1.762548629927665131e-02,-8.837171647895910101e-03,-2.237854715255575746e-03,3.678252398967742920e-01
3.470346805302538251e-01,-3.042251231905901410e-02,-3.056516235880291088e-02,-5.368807277275920503e-04,1.101523265028252359e-04,4.037119221800760521e-03,3.775944709777832031e-01
3.708568197692301838e-01,-7.648019674175443594e-03,-2.531134499808185279e-02,5.250003972718372477e-03,-7.625257232917634700e-03,-1.189405442670142359e-02,3.885165154933929443e-01
3.923674887237903475e-01,-3.198408586264031572e-02,1.093090211424924130e-03,-2.920288778695371689e-03,-4.911205836488389924e-03,-2.436015803249749062e-02,4.111084938049316406e-01
4.106126578633636504e-01,-4.445090454434164062e-02,2.190726495675199281e-03,6.688970510439250575e-03,-9.666274297807295190e-03,-2.737104659987361563e-02,4.366869032382965088e-01
3.565051135811448946e-01,-1.644837528180340125e-02,-2.596312783440080096e-03,1.676846548296541807e-04,-7.189289267836340746e-05,-1.473928651926022411e-02,3.671128451824188232e-01
3.797609052719572720e-01,-1.755120734069065547e-02,-2.075659179994421288e-02,1.939470291996422263e-03,-3.796521692876675923e-03,-1.809711717956526827e-02,4.002221524715423584e-01
4.001550901237072577e-01,-1.204565005746960349e-02,-1.477722669136477540e-02,1.406453307772151384e-02,9.843082562112625070e-03,-3.250294310399488157e-02,4.184450805187225342e-01
3.697633851738033606e-01,-1.972488043355744014e-02,-4.954472633855233621e-03,-5.610001419783022455e-03,7.095761927351508860e-03,-2.652932735235705858e-02,3.853871524333953857e-01
3.779411477421413812e-01,-3.484481967570340899e-02,-3.706740098225164148e-03,-8.377245786329550262e-03,4.292343057937760172e-03,-2.631863408091218368e-02,4.010639488697052002e-01
3.418902840868011661e-01,-2.411260004458432027e-02,-3.045371804129567983e-02,-9.432340240453156513e-03,-4.763550223506953256e-04,5.915626621312145613e-04,3.695779144763946533e-01
3.630198625447367267e-01,-2.948195869597566854e-02,-2.878679909666462255e-02,-8.336897366799942213e-03,1.628550577805584071e-02,-1.216026223823551966e-03,3.934385776519775391e-01
3.513779739370489485e-01,-2.814487966921191964e-02,-2.639153544317821010e-02,-2.825395587123252783e-02,4.128712587175299709e-02,-5.556980628031013905e-03,3.885571062564849854e-01
3.268213836688075302e-01,-2.078891675565552877e-02,-3.416816059548485884e-02,-2.468113143306074550e-02,3.086876483732990673e-02,6.601497912315200389e-03,3.612195253372192383e-01
3.583127804073032441e-01,-2.059428913760866231e-02,-2.735761698123762020e-02,-3.846557539370212137e-03,1.078504940723342374e-02,-1.531947181208990691e-02,3.837660551071166992e-01
3.433989566171815055e-01,-3.107603157449573272e-02,-2.966816770937427683e-02,-2.606910367927825836e-03,3.987060649298134959e-03,5.876922585456955186e-03,3.740026354789733887e-01
3.680174258699520085e-01,-2.980355122820502189e-02,-2.040548109222681261e-02,-1.341926509686208182e-03,-3.963057569114912179e-03,8.276299626463829578e-03,3.935341238975524902e-01
3.591998213697644160e-01,-2.997180851140857083e-02,-1.699907388836088828e-02,5.378174179443342452e-03,-5.401498148292134018e-03,-3.413485369916383506e-03,3.831233382225036621e-01
2.872198488880227663e-01,-2.645629883606910593e-02,-1.797912165769444126e-02,-2.576174842965889278e-02,2.237480482534435003e-02,6.055703735765605514e-03,3.152909874916076660e-01
3.529820500925539006e-01,-3.533537981886680779e-02,-2.794915285212840050e-02,6.709210314040574968e-03,1.459764030565014175e-03,-2.661465603060442307e-03,3.848888874053955078e-01
2.772267619736937805e-01,-2.601141856037604561e-02,-1.265014455386780090e-02,-2.601470590332530253e-02,2.040834435537926955e-02,7.180892961760985439e-03,3.025140762329101562e-01
3.252384560816804493e-01,-3.618544658436334549e-02,-2.079802373639277890e-02,-2.614618715032967361e-02,5.565034756234162050e-03,4.628682676624443389e-03,3.570863902568817139e-01
2.921002486249382191e-01,-3.387907219014796301e-02,-1.293296515907943478e-02,-2.529527751937233476e-02,3.323397685757896176e-04,1.253854978102956694e-03,3.190577626228332520e-01
3.519085738008048692e-01,-3.802838267273644934e-02,-2.089274411549119081e-02,-1.033857653096828533e-02,-5.232704474574191925e-03,-1.709033442482737076e-03,3.821965456008911133e-01
3.270619807091075804e-01,-3.696183536958827509e-02,-2.034875814591419196e-02,-2.526600156307630754e-02,7.085436397587768775e-03,4.452191366029607973e-03,3.589804470539093018e-01
3.166980553612950278e-01,-3.685811633912480789e-02,-1.689366857188689952e-02,-1.347651268110628374e-02,5.398243714638406229e-03,5.544721027430559411e-03,3.450601398944854736e-01
3.160833665535847103e-01,-3.661023599611154533e-02,-1.934204130359226670e-02,-1.109606823220091534e-02,8.625398549582604518e-03,4.586169314093661853e-03,3.453349769115447998e-01
3.044930483751100980e-01,-2.240916038346757455e-02,-2.793747346845393276e-02,2.310063542652718988e-02,-4.747038952872734835e-02,3.841130620659796453e-03,3.422109484672546387e-01
3.155323369969500469e-01,-1.521265273418742625e-02,-3.412930860681775980e-02,-4.318279971292391523e-03,-1.481941806830274974e-02,1.160535333623939321e-03,3.416511416435241699e-01
4.049308282566629891e-01,-5.877120459864129676e-02,2.024616079226096432e-02,5.620253640861929897e-03,3.230844606262702617e-02,1.744640899680863222e-02,4.344677329063415527e-01
3.372764686101376586e-01,-2.139704175652154539e-02,-3.544836118413788317e-02,7.711856255436988841e-03,-2.627502911675407005e-02,3.951253000391428266e-03,3.690262138843536377e-01
2.512819955124035998e-01,-2.047772776249040527e-02,-7.394108398084117684e-03,-5.027672504984268681e-02,9.784926561671680734e-03,-1.646535034050113392e-03,2.799063026905059814e-01
2.849284448326807606e-01,-2.529817529103188523e-02,-1.082425181508200884e-02,-3.378951497306989515e-02,-1.543128987431549581e-02,3.261856909321972364e-03,3.100505471229553223e-01
3.362262218644683220e-01,-3.987769514999031650e-02,-2.086165038747567202e-02,-1.525232388211334583e-02,3.031994804896753076e-03,4.507327507282427211e-03,3.680355846881866455e-01
3.099767448580756923e-01,-1.824651353080350424e-02,-2.460587990734072750e-02,-2.284396051172711550e-02,1.227730158956162436e-02,3.371864455280260565e-03,3.345296382904052734e-01
3.301066713238776096e-01,-3.604137826532050060e-02,-1.521031587174351274e-02,-2.249278510853590374e-02,1.566406710286333010e-03,1.759403597130549963e-03,3.583371341228485107e-01
2.871580395382559714e-01,-2.680128208776021148e-02,-1.266520117134689594e-02,-1.956183938357337893e-02,3.239997363614491050e-03,4.880924990169255751e-04,3.090507090091705322e-01
3.109480949251362536e-01,-1.968476489175775834e-02,-3.501442911787031043e-02,-4.988380571574728244e-03,-1.358196457051879733e-02,3.363236694610069466e-03,3.395343422889709473e-01
2.906344942117887742e-01,-2.031725843865120340e-02,-3.185262638266395108e-02,1.591689091644645296e-02,-1.784781622035495202e-02,3.689311469939682894e-03,3.196365237236022949e-01
3.223466346773747881e-01,-1.638595708621803926e-02,-3.646260666103076642e-02,2.030925324514720048e-03,-1.246920009481040058e-02,-1.211680599441593070e-03,3.498952388763427734e-01
3.351782753194321174e-01,-1.687023968950149277e-02,-4.119795414751681317e-02,-1.485047724162301278e-03,-8.463105504850810742e-03,8.112111991528705686e-04,3.651273548603057861e-01
2.961102795971691792e-01,-1.281260872592610012e-02,-3.250938149303164715e-02,2.576744943448125349e-04,-1.361405120483358960e-02,2.532248064540183492e-03,3.201274275779724121e-01
3.396242348662484312e-01,-1.858977499951905421e-02,-4.290581434101475855e-02,4.689386789922747470e-04,-5.995231837006637565e-04,-5.346377809889892160e-04,3.709737062454223633e-01
3.470573305288625066e-01,-2.480813161757966512e-02,-3.550558589270932930e-02,8.909940776704718211e-04,7.697571333973786400e-03,-6.341696412302095208e-03,3.777263164520263672e-01
3.582951232532167185e-01,-3.337135039122485214e-02,-1.909297693891492953e-02,6.433028856423102064e-03,1.405522807673864616e-02,1.823638601586717979e-03,3.856694400310516357e-01
3.470256073610681335e-01,-2.733682323340771991e-02,-3.034368334557810409e-02,1.759380152360045212e-03,-3.753477637130174104e-04,5.117940788696387789e-04,3.758888542652130127e-01
3.275631887243205531e-01,-2.082361042163538567e-02,-3.664561676322161676e-02,5.753829139807067200e-03,8.704902076151042542e-03,-3.136046752712439226e-03,3.570602536201477051e-01
3.334617557306833735e-01,-2.309282199484388731e-02,-3.561129616822994448e-02,1.330844824222647896e-03,7.969956802873528340e-03,-2.374063798491800499e-03,3.632687330245971680e-01
3.288543590956302110e-01,-1.957502807451494409e-02,-3.853768331309401218e-02,4.400815780832323908e-03,1.068914490871146483e-02,-5.623923244180905820e-03,3.589784502983093262e-01
3.173826745027604201e-01,-3.059534945684974638e-02,-6.928728932602351565e-03,1.080087679520382905e-02,-3.672890119454978036e-02,-4.857046237531362047e-03,3.433382213115692139e-01
3.297940691718229123e-01,-2.708691860983974964e-02,-2.668745513840345418e-02,-3.671047778796221288e-03,-1.582867845975119078e-02,9.079221006571249137e-04,3.577934801578521729e-01
3.633371174003788284e-01,-3.651486117953228749e-02,-6.783761896295842364e-03,4.232083654481147428e-03,-4.277085653096771023e-03,-3.177593760655736572e-03,3.860264420509338379e-01
3.775090393344020523e-01,-4.291556030517049147e-02,-7.823263190676693624e-03,3.491111742426906278e-02,-3.274862708918215015e-02,2.896455727586122898e-03,4.124725461006164551e-01
3.344294958130163420e-01,-2.861902594146745193e-02,-2.682527259903416672e-02,9.356577243862922513e-03,-1.120017416093847633e-02,6.231751129780469575e-04,3.630376756191253662e-01
3.518443150270886277e-01,-9.439226563449754082e-03,-2.586659362135715345e-02,-2.077330394106137804e-02,6.875351520046805998e-03,-1.185967425045045959e-02,3.722753822803497314e-01
3.653295591803954467e-01,-1.171845735362914143e-02,-2.871118542115172478e-02,-2.339141440253606624e-02,7.179017104536174199e-03,-1.473586410069353293e-02,3.889840245246887207e-01
3.661957569890379460e-01,1.086460694374934144e-02,-4.537828558035530979e-02,-3.776476256522351069e-03,-4.069380123932910855e-03,-1.919280575642965878e-02,3.880797624588012695e-01
3.874908689733124190e-01,4.019101829075860666e-03,-4.028267526327711234e-02,4.426081036107615274e-03,-1.557055609212759347e-03,-7.748161914142254886e-03,4.077350497245788574e-01
4.026888635663836702e-01,-1.441700508175630668e-03,-4.964883614698234471e-02,-1.089413153488444190e-02,1.279236350544035207e-02,-1.198353869314292518e-02,4.317466914653778076e-01
4.018399850509924986e-01,2.981516714505028087e-03,-4.283917933869807460e-02,-9.098049676876992370e-03,1.492961719603600954e-02,-6.234288190910356256e-03,4.248495995998382568e-01
3.572389537321590813e-01,-8.851740637071475737e-03,-2.254806304386119953e-02,6.675702337970714721e-04,-9.236394007188755868e-04,8.935415711455056698e-03,3.734534680843353271e-01
3.629238078714938642e-01,-2.675384468324826237e-02,-8.404154328842811106e-03,6.633491478889866821e-04,-2.766290352301828143e-03,1.265606004964925195e-02,3.814966976642608643e-01
3.685126951258033134e-01,-1.949242246947452406e-03,-2.662981638620801061e-02,-3.797907975145400732e-03,4.944639576903894253e-03,2.708534966836155522e-02,3.864089250564575195e-01
3.575510334407574486e-01,-1.869039839082142773e-02,-2.822231420842472027e-02,4.776249404810435813e-03,3.275421090423766713e-03,6.931629058730660875e-03,3.814178109169006348e-01
3.743346793398198424e-01,-2.257754604986983438e-02,-2.095735230404455196e-02,-4.073974926855416590e-04,-3.775992153794340694e-03,1.128252743138484331e-02,3.966409265995025635e-01
4.091985586111794304e-01,-2.671389532294238256e-02,-1.369138882481291120e-02,-1.644321224731247954e-04,5.677382104330731469e-03,3.289046355672808897e-02,4.334220886230468750e-01
3.536297679043914899e-01,-2.196549573126804766e-02,-1.648845535771370496e-02,9.625843121393944622e-05,2.195334908319223396e-03,6.274451135287065738e-03,3.730646669864654541e-01
3.432198574936174973e-01,-2.087060390910211449e-02,-4.203895842995403198e-02,5.975534057247951399e-04,2.020097764703414518e-03,-5.085753029643513487e-04,3.751416504383087158e-01
3.598485223394988219e-01,-1.258617449123297649e-02,-1.372423259163788045e-02,1.497848954395964794e-03,-1.294428735388870703e-04,7.654202106467775275e-03,3.732496500015258789e-01
3.640153741635701601e-01,-1.335582664119003282e-02,-4.860108772296767299e-02,1.937768680543834957e-02,1.558304523114802500e-03,1.067070491033309323e-02,3.980290889739990234e-01
3.982368901696810570e-01,-8.976402798362648205e-03,-4.560239737777679880e-02,3.438681575367884963e-02,8.527274793098957653e-03,1.525564828911949236e-02,4.319055676460266113e-01
3.519847894778940778e-01,-3.177721526983692812e-02,-2.978412539868111053e-02,6.057748750082045906e-03,4.215759606343454959e-03,-5.483385590021869378e-03,3.831004798412322998e-01
3.598910091649867304e-01,-2.554014092813211567e-02,-2.920518956387629927e-02,4.835781138991839456e-04,8.262829934173324814e-03,-5.297298446780864239e-04,3.875430226325988770e-01
3.642518332775464551e-01,-1.874734790352722280e-02,-3.826200742185284498e-02,6.868006623440897282e-03,1.104180711285248110e-03,-4.102190198944755985e-03,3.933687210083007812e-01
3.590917674554521266e-01,-2.615645998752125223e-02,-2.873874236966278417e-02,1.422188755631162427e-02,5.038541450914287576e-04,1.310728590188737228e-03,3.873375654220581055e-01
3.581518384435022351e-01,-3.374729243248969501e-03,-3.786693645527350327e-02,5.458182088975895019e-03,4.874687666511741575e-03,4.847525247474851473e-03,3.802527785301208496e-01
3.656335355728378422e-01,3.038846341478496083e-03,-3.774264414729261441e-02,4.901685039271680769e-03,1.964547284659797985e-03,1.142784945904692755e-02,3.852280378341674805e-01
3.680068826257145709e-01,-9.647901815924592173e-03,-3.382870232190121618e-02,9.080708051435024478e-03,-4.241351460049472993e-04,6.704887398464868392e-03,3.907974362373352051e-01
3.541913601520471078e-01,-2.965811045972413518e-02,-3.398478881659455775e-02,6.855107038623718847e-04,2.660947157837909938e-04,-1.175515273190146526e-03,3.860384523868560791e-01
3.542263667941660255e-01,-3.272174828653470757e-02,-3.303954226852628961e-02,7.310388333393251069e-04,5.501749513508411580e-04,-2.531355708951205357e-03,3.871351778507232666e-01
3.538550120762545270e-01,-2.929865484430865807e-02,-2.710017951017729132e-02,6.153180846033842006e-05,-1.024499660440967653e-03,-1.362130413322361821e-03,3.820706009864807129e-01
3.521575047884924481e-01,-2.847878743836002036e-02,-2.677181237874498576e-02,-5.265427523879364193e-04,-1.438180741574197289e-03,-2.891162220351514017e-04,3.797952830791473389e-01
3.530695642322613792e-01,-2.762302753781931131e-02,-2.316013934072083669e-02,-4.335273435149973565e-05,2.148039506406583792e-03,-3.631108400318436573e-04,3.784996867179870605e-01
3.693894250196984586e-01,-2.739284414167636461e-02,-2.604297501468844089e-02,7.213505584978973512e-03,4.834056532055322312e-03,1.498783216772274843e-02,3.972436189651489258e-01
3.450866471136473379e-01,-2.877688875230621779e-02,-3.220424376511166198e-02,-1.053044915877261777e-03,-3.854491113511352915e-03,5.667678097844961078e-03,3.757809400558471680e-01
3.412999183237542811e-01,-2.388283768338722579e-02,-3.610082256352251107e-02,2.104898832383848058e-03,-2.987659974147361015e-03,4.327070585832902723e-03,3.715720176696777344e-01
3.247859997962573853e-01,-2.553462462192784832e-02,-3.149604779175538272e-02,6.422683778147317626e-03,-6.180010309998651419e-03,6.526430002390007194e-03,3.538567423820495605e-01
3.495853233745229161e-01,-2.873209712812202499e-02,-3.596035244538733910e-02,2.196534348390848709e-03,-2.968084005279568189e-03,3.812404684754905262e-03,3.820934295654296875e-01
3.354937664454953894e-01,-2.796228055299909698e-02,-3.120533142237474911e-02,1.337758749439855099e-03,-5.786251668009662411e-03,5.053065339777611242e-03,3.653381168842315674e-01
3.640122628651865644e-01,-3.016752152275928300e-02,-3.040612631105998886e-02,-2.949566584298303137e-03,3.123395824526576520e-03,-7.634452609574517504e-03,3.945909738540649414e-01
3.679651572580823204e-01,-3.449086453469640823e-02,-8.640725823364642233e-03,1.775029939561052240e-03,1.922537343713068628e-02,-4.471763798478318314e-03,3.916807770729064941e-01
4.021365678451249703e-01,-3.850767518016676161e-02,5.038531927579581460e-03,-1.880755415029455174e-02,2.127530920862086977e-02,-1.215817948806151641e-02,4.239549338817596436e-01
4.195700756714781376e-01,-5.388893955846785211e-02,5.266141858495415606e-03,-9.344397849476025059e-03,1.910391434616380210e-02,-1.216483151885468586e-02,4.488385319709777832e-01
3.741632377030768564e-01,-3.297849349789827578e-02,8.022240621496479207e-03,2.269580568530734851e-03,8.098306759860978169e-04,-1.611004855586999074e-02,3.892921209335327148e-01
3.223075143528389974e-01,-2.902701722706230170e-02,-2.081356299775735663e-02,1.579541529955331286e-02,5.674172693488427170e-03,-8.216315345238346668e-03,3.488056063652038574e-01
3.344922723666956532e-01,-3.783721635759185187e-02,-2.028789634360506078e-02,-2.478391010857952659e-02,-1.007264220845385935e-03,-2.503388142537351767e-03,3.664255440235137939e-01
3.394117559094123604e-01,2.160654615438670212e-02,-4.448324219225432974e-02,-4.321974703224933101e-02,2.750843514908639592e-04,1.468189067609407608e-03,3.632935881614685059e-01
1.911108502441831170e-01,3.116789358698632967e-02,-2.676380098877947922e-02,-8.142290292982158617e-02,7.571881860546910564e-03,-7.731285960784598649e-03,2.417519092559814453e-01
1.874405823495690904e-01,-5.588829285169114036e-03,-2.336706857344331145e-02,-7.973140012785785713e-02,-1.271827644776478243e-02,1.039744302494360721e-02,2.467570006847381592e-01
3.847947082775725058e-01,2.980055859825674058e-02,-4.634880193594459463e-02,-1.163347148000233866e-01,-3.021555568850334966e-02,2.136081150155615983e-03,4.496732950210571289e-01
3.537970300909045740e-01,-2.834660295454907719e-02,-3.021618639313841670e-02,-4.043561608181001771e-02,-4.890476239688782215e-03,-1.308221155960637453e-03,3.895300924777984619e-01
3.845586223594524289e-01,-1.797677956381349418e-02,-4.521228187958362121e-02,-2.854688044158196214e-02,-1.386874099803724059e-02,3.886640559394899126e-03,4.204841256141662598e-01
2.703141098781070562e-01,-1.109274237676553809e-02,-1.490193586365040623e-02,1.310274286987778841e-02,2.343153049892826231e-02,-7.903646697605872656e-03,2.874470651149749756e-01
3.252857746642829895e-01,-1.473789371360562095e-02,-3.767828366370704063e-02,2.619083957065229500e-03,8.245655814689688279e-03,-2.884535355556426019e-03,3.524090647697448730e-01
3.014799315978852756e-01,-2.065462825171351935e-02,-2.456375523043749509e-02,9.043044111686979192e-03,1.492014033866621153e-02,-8.212507062370963395e-03,3.258231282234191895e-01
2.989244704696673027e-01,-1.392548110193488065e-02,-2.977545268838041603e-02,3.948025987714585440e-03,2.491097077685798522e-02,-3.116778307820838867e-03,3.240718245506286621e-01
3.138342503737628353e-01,-1.434434324932597205e-02,-3.708945984619890779e-02,3.828493525176976213e-03,9.254101106579331118e-03,-2.917891694403661456e-03,3.406015634536743164e-01
3.528027739722350842e-01,-3.210065277484960844e-02,-3.157922461838205686e-02,7.164046664414058796e-04,3.047297415926610346e-04,-1.768552308994996098e-03,3.846575319766998291e-01
3.251729938472922021e-01,-2.047890127922430414e-02,-3.556136458845737813e-02,5.554865954207824710e-03,7.686039281369952056e-03,-6.184809004035994075e-03,3.539781570434570312e-01
3.152082102124990626e-01,-2.063528580285337033e-02,-2.742149778303640262e-02,4.044904846454140494e-03,2.702880254046579082e-04,-7.658777536056814682e-03,3.396193385124206543e-01
3.522169804640525870e-01,-1.356851846491380353e-02,-2.166502765453701129e-02,1.735346229555308813e-03,-1.270257620962210151e-03,8.415108257307093304e-03,3.702059984207153320e-01
3.590175358556144669e-01,-3.204857069077998721e-03,-2.171721480569072105e-02,-3.540206036737225843e-03,-7.272501554957237074e-03,1.648838651442066996e-02,3.731825649738311768e-01
3.618478068726830310e-01,-2.666109153505064056e-02,-2.587054517229123163e-02,3.823770616960512833e-03,2.950649868269196192e-03,5.901348727488287709e-05,3.882043957710266113e-01
3.551074742426025832e-01,-1.915657383539390302e-02,-2.454653418059810077e-02,-5.013578076770191204e-03,8.596412373220033761e-04,4.888990778448083080e-03,3.771859407424926758e-01
3.589351902268189676e-01,-4.453869015531242148e-03,-2.185818923674839875e-02,-2.683104461055277681e-03,-2.887180461591951335e-03,1.262794632084968463e-02,3.731006085872650146e-01
3.617387217170680569e-01,-7.695595160719659322e-03,-1.475499192857793185e-02,3.111348506940302995e-03,6.282931279906251235e-03,1.545120118470406402e-02,3.741700351238250732e-01
3.507404462393863276e-01,-2.709393773642529424e-02,-3.460240534618244657e-02,-1.220108607933159889e-03,2.156528060503093425e-03,-1.326798472916784852e-03,3.816750645637512207e-01
3.728662563463206459e-01,-2.727058448962105253e-02,-2.364309194292113503e-02,-5.454239347239594332e-04,-6.773469299368917521e-03,4.008687849837370976e-03,3.985698223114013672e-01
3.545493472688094894e-01,-1.468877946892513386e-02,-1.806327860959019982e-02,9.761960310922346111e-04,-2.343689331385687916e-04,5.657172399584645128e-03,3.710703551769256592e-01
3.544767494594771584e-01,-2.260053237302520057e-02,-2.040105476638534587e-02,1.370359730381371570e-04,-2.738239524665392246e-03,4.226016469783925276e-03,3.760835826396942139e-01
3.612504541287598903e-01,-2.031489024586158321e-02,-8.149116162504022043e-03,-2.057229376409250386e-03,-7.927975176221813483e-03,1.968835450115540703e-02,3.774417042732238770e-01
3.717067267050220281e-01,-2.733089948043068707e-02,-2.776147279706575599e-02,-4.780536133951347570e-03,-9.143963190361480229e-04,5.795051858841730220e-03,3.994682133197784424e-01
3.551612065228914594e-01,-3.449231429002894145e-02,-1.576431606931605334e-02,-4.255937980541531218e-03,-3.742944484611005623e-02,1.026595598584668749e-02,3.865961432456970215e-01
3.541117440179297193e-01,-2.915809799426422044e-02,-3.779015743999819543e-02,-7.355417586303827915e-03,-1.725260620821202767e-02,-1.518938490796778061e-03,3.890255391597747803e-01
2.693479827370381940e-01,-2.191551492685925306e-02,-1.036692981548011094e-02,-3.417220972290149067e-02,-1.783103846008628549e-02,-7.840179878343480485e-03,2.936759591102600098e-01
3.026695852387144559e-01,-1.689392043386833686e-02,-2.342363116991943994e-02,-9.843806008606180089e-03,-5.818937282920906562e-02,-1.013316497611585314e-02,3.391266465187072754e-01
3.322505912472009659e-01,-2.702534636728110007e-02,-2.607941164126786893e-02,-1.401220419128479042e-02,-1.398507668024353071e-02,2.895009929283098209e-04,3.604390025138854980e-01
3.081176587482540863e-01,-2.536926070070616435e-02,-2.779006505813447214e-02,3.296753763649075755e-03,-1.726512542797241020e-02,-6.831734036779079679e-03,3.362938761711120605e-01
3.325950155147058829e-01,-2.773346618143801567e-02,-2.768919277696016423e-02,-1.795058208167594690e-02,-1.270240343194779277e-02,2.979148429096511400e-03,3.623506724834442139e-01
2.905053102850355118e-01,-2.084973404878223691e-02,1.820120934929786438e-02,6.162464754426674740e-02,-1.086941607897998208e-01,-2.679792267924630683e-02,3.678296804428100586e-01
3.258917251901727319e-01,-3.611323265658364368e-02,-2.329702622168469683e-02,1.611139576210392221e-02,-4.092555347459798931e-02,-1.176479130171358654e-02,3.644049763679504395e-01
3.406441116333008834e-01,-2.848425996730005738e-02,-3.244822842770134219e-02,5.858010345441122188e-03,-3.143242505624403021e-02,5.597797293565730161e-04,3.752366602420806885e-01
3.317932947074980210e-01,-2.499759618492364277e-02,-3.576217844206361351e-02,1.192041204956685238e-02,-1.498748148337348748e-02,7.625329596225173534e-03,3.640479743480682373e-01
2.139306875477328118e-01,-6.531484524392805469e-02,3.170521679984572572e-02,2.055889527394844096e-02,1.113706774445184788e-01,3.531649282109214361e-02,3.201852440834045410e-01
3.547571306290320248e-01,-4.190369781772046442e-02,-1.431805432724014837e-02,1.195416794696222383e-02,-2.207342918557501921e-02,-1.444155280787025146e-02,3.868781924247741699e-01
3.579427631372154028e-01,-3.179723244686538663e-02,-2.973955318522386593e-02,1.832461653715446864e-03,-4.803659133718198894e-03,3.697341350368161389e-03,3.888699710369110107e-01
3.523038570745389841e-01,-2.862574876508752753e-02,-2.994335899878275420e-02,6.755841377496881253e-03,-2.983698255710357850e-04,4.704859977525677195e-03,3.818567991256713867e-01
3.421023485874521430e-01,-3.264015265617223327e-02,-2.613268314919833801e-02,3.091905818095895108e-03,4.502991526217776626e-05,6.358567859660784263e-03,3.717333078384399414e-01
3.378764742971757662e-01,-3.354181117947918622e-02,-2.605633272354951346e-02,9.726800695179213530e-03,-4.979179465406161770e-03,6.874135726691884586e-03,3.684118688106536865e-01
3.321612279108784316e-01,-2.891987484684580001e-02,-2.828129322857425576e-02,1.155047951141684702e-02,-1.654062542126646072e-03,5.085432683117590245e-03,3.614352345466613770e-01
3.551566467434141838e-01,-2.759687249595027536e-02,-2.973089818272431351e-02,9.740875089061320786e-04,1.962089339999103610e-04,-1.017736222800643591e-03,3.838329017162322998e-01
2.426535695767244039e-01,-9.694139137441354359e-03,-1.018871038907258331e-02,1.215457603776369869e-02,-1.669727289512278751e-02,5.792732476717866660e-03,2.553129196166992188e-01
3.223402816180051533e-01,-3.130337551604800428e-02,-2.528693660003958343e-02,1.184412944429945672e-02,-1.289578733921345650e-02,1.077948470278363227e-02,3.524779379367828369e-01
2.431605514307935423e-01,-1.269624257393717204e-02,-1.946839904555977552e-02,1.753530621940723247e-02,-3.559086763816798893e-02,-3.439228635325199904e-04,2.682614624500274658e-01
2.605491298220043439e-01,-1.329999875088933026e-02,-1.965319301998232071e-02,3.636047587688818333e-02,-4.474121006162421615e-02,4.177093856061060359e-03,2.946140766143798828e-01
3.580702030302713168e-01,-2.586409831871688825e-02,-2.037144693026451958e-02,9.154098701331658816e-03,-1.097566935502249617e-02,-4.848036644354376291e-03,3.821128010749816895e-01
3.527964947506919136e-01,-3.249309834528099628e-02,-2.959696458575455935e-02,1.441555805632004431e-02,-1.680277373437545282e-02,6.119045795422390320e-03,3.859058916568756104e-01
3.597840598851246297e-01,-3.404977620530402760e-02,2.683677782842341930e-03,3.362429039408806192e-02,-4.087553376747863482e-02,-2.036621534575356815e-02,3.894048333168029785e-01
3.640411240624409905e-01,-2.988277448922332935e-02,-2.630847950447037786e-02,5.691756588311066602e-03,-1.146603255634180696e-02,-2.556129683145839677e-03,3.928002119064331055e-01
2.919521574841652534e-01,-1.092729507625664342e-02,-2.866608326791583727e-02,5.938137916015504350e-03,-1.536503276898696507e-02,4.731841986752386917e-03,3.135355710983276367e-01
3.550778671485859128e-01,-2.615336545718108252e-02,-3.343357357582341094e-02,1.267636165446206151e-03,3.070433895081005858e-03,-2.260516026651671496e-03,3.849858939647674561e-01
3.489269277199130159e-01,-3.222063933869961927e-02,-3.071747046706752027e-02,8.301264967265342947e-04,-1.104630273999413111e-03,-4.667424168778538766e-03,3.804916441440582275e-01
3.549002788448853973e-01,-2.601715073578686477e-02,-2.604800388971365011e-02,1.854264733472155841e-03,1.047583215624004480e-03,3.480129717436030931e-04,3.809511959552764893e-01
3.551113254646125483e-01,-3.151060364428837079e-02,-2.956140992866956863e-02,1.789729169940640872e-03,1.588860995415680103e-03,-3.306860673235421412e-03,3.857158422470092773e-01
2.864589364733765575e-01,-2.375364824938443198e-02,-1.748405114936150972e-02,1.101012070019447182e-02,-8.197299335368944326e-03,8.512040478141549155e-03,3.083972632884979248e-01
2.758830027561140485e-01,-2.580270521624276892e-02,-1.067209720311983190e-02,1.924265073773006804e-02,-1.915069829607505755e-02,8.574952395442266007e-03,2.985132932662963867e-01
2.726713041588200714e-01,-1.131931720031038868e-02,-1.209606219502343261e-02,1.342475469303507085e-02,-1.589376637499596498e-02,5.990852908197290445e-03,2.868414819240570068e-01
2.352892328138307121e-01,-9.313370633142650790e-03,-1.025785665751502429e-02,-6.263216575914522613e-05,-2.287333328749819109e-02,5.866539222325152687e-03,2.484656423330307007e-01
2.777499463973718274e-01,-1.443399249642529636e-02,-2.269136650510134023e-02,1.185120234495457003e-02,-1.465592283931166015e-02,9.764024719898270824e-03,2.986705005168914795e-01
2.724289902918984874e-01,-1.118561099970703798e-02,-1.572926878987923605e-02,-4.738500502671654825e-04,-6.573006550472552468e-04,4.549664162857354477e-03,2.860255241394042969e-01
2.403545893199517391e-01,-9.608062796497507385e-03,-1.040964143472948578e-02,-2.144985664419937071e-02,2.082344143364344216e-02,5.207421455731552594e-03,2.558218538761138916e-01
2.186817228161974103e-01,-1.938736700427032278e-03,-5.501091148177678081e-03,-1.412712238183637045e-02,1.559530164417152059e-02,1.372403555249819551e-03,2.254019081592559814e-01
2.645061132296007700e-01,-1.206580262195029729e-02,-2.231581121060530193e-02,-1.071066351577702573e-02,1.786852411380976044e-02,4.456706799220495722e-03,2.842420637607574463e-01
2.803523625480188741e-01,-1.258175595881967646e-02,-2.282917158845577943e-02,-8.033584941128416382e-03,1.458606177511829680e-02,4.078761622407263074e-03,2.996648252010345459e-01
2.343109023469815144e-01,-6.449750810040552618e-03,-1.582151659266650690e-02,-9.007959583785798627e-03,3.645955020682185854e-02,4.843512273514732902e-03,2.541880905628204346e-01
2.483138012990765697e-01,-1.987707143329284221e-03,-1.463276269092403381e-02,2.873994986035847531e-03,1.367420745803234325e-03,3.268139558794094557e-05,2.569167315959930420e-01
2.218824687547551466e-01,1.089792982867834881e-03,-5.895374074244105755e-03,3.080686711217625389e-06,2.187137241538377949e-02,2.341675934699202679e-03,2.275785356760025024e-01
3.506539823316518478e-01,-2.590889474156832240e-02,-3.502365740298871155e-02,2.444107699165488576e-03,3.988082003218079881e-03,-1.418563350799265143e-03,3.812959790229797363e-01
3.468318098235697589e-01,-2.469184704382401674e-02,-3.905949800311964148e-02,1.415350463636937551e-03,3.227758257735799993e-03,-1.894748789700175179e-03,3.789752125740051270e-01
3.332745589572397860e-01,-2.300986902932661282e-02,-3.632440640147879818e-02,6.554272067533619198e-03,1.392701945194221511e-02,-1.216644075927003849e-03,3.641082644462585449e-01
3.501625706747013567e-01,-2.366951272410050544e-02,-3.999190711845035384e-02,-9.103373127709968142e-04,3.322326912389157727e-03,-2.374495722887344507e-03,3.823234140872955322e-01
3.527353765295316856e-01,-2.683330883265247491e-02,-3.407931848802367436e-02,6.422902784049500319e-04,2.415425164329822010e-03,-4.183941961261124567e-03,3.833360373973846436e-01
3.537105698948102561e-01,-2.843681253771718209e-02,-2.914960832217938780e-02,2.412031602148227791e-03,-2.088189734345272369e-03,-4.081183158389890125e-03,3.826094865798950195e-01
3.382014798888757223e-01,-3.832063525356643741e-02,-2.193734064106031556e-02,2.576768759067999109e-03,1.568247344522007592e-04,3.125304334437148304e-03,3.686704933643341064e-01
3.553734592423428706e-01,-2.227622822079744491e-02,-2.624936331656976818e-02,-5.220916129471688504e-03,4.661107743163400881e-03,-1.621010217605587615e-03,3.798557221889495850e-01
3.531157021929896001e-01,-2.667360492208573075e-02,-3.154949533116205296e-02,-1.395007707765990972e-03,9.080938617768311103e-04,-5.597761111757738840e-04,3.822626769542694092e-01
3.564203836593591301e-01,-2.605064433454681860e-02,-9.845006106436071658e-03,-4.315245742041929310e-03,2.009038894846688211e-02,-1.693203083057207015e-02,3.774590492248535156e-01
3.529102790572138382e-01,-2.513975733537210377e-02,-1.902713525293278640e-02,-1.687987829777352032e-03,4.290221457166651202e-03,-6.762100038398364404e-03,3.752988874912261963e-01
3.511570180386570095e-01,-3.169239160630732410e-02,-2.842733893763862985e-02,-6.268618255620715674e-03,4.781841329640003010e-03,3.020734740370979981e-03,3.815077543258666992e-01
3.795221882589160378e-01,-3.355360082950842315e-04,-3.858775040242024001e-02,4.613621108517884824e-03,-2.451916247648527284e-03,-9.781499190398003710e-03,4.008172154426574707e-01
3.381226389155219114e-01,-2.539203540755971544e-02,-2.537026830119396004e-02,-5.790302371340659386e-03,3.593166285967779906e-03,2.560969972101972882e-03,3.637224137783050537e-01
3.560605085924580249e-01,-2.326659484240195530e-02,-2.588365764314504158e-02,1.157796947574544653e-03,-2.112734406467280633e-03,-1.271215320344607847e-03,3.806716203689575195e-01
3.697083320073956680e-01,-1.294885994819885977e-02,-8.296578307924906692e-03,-7.210504666432807769e-03,4.908524005421319690e-03,-2.600609688870408887e-02,3.833081722259521484e-01
3.676099635162662915e-01,-2.282245274235014665e-02,-4.179118357809513684e-03,-1.275799953523952925e-03,4.357258857870116228e-03,-2.274553869076991960e-02,3.835622668266296387e-01
3.557108491879291678e-01,-2.244227224989356340e-02,-1.954188449225929824e-02,3.048248857408837869e-03,-1.823366062285127886e-03,-5.277035009643449466e-03,3.768723905086517334e-01
3.583096761332485447e-01,-3.212165023613286485e-02,-3.010505419823264472e-02,-5.573084690815213044e-03,1.290066878404737098e-02,4.758193072806440101e-04,3.901877403259277344e-01
3.767438455598200453e-01,-1.609698434593381799e-02,-3.226020242294816431e-02,-4.045803560471800120e-02,2.615509033703984632e-02,-4.753819687353473024e-03,4.098357856273651123e-01
3.670173488222864822e-01,-4.375131092100914554e-03,-1.691635000247421194e-02,-3.320281723662711799e-03,2.545822480571691918e-03,-2.521137465178971068e-02,3.804033696651458740e-01
3.855110301546706419e-01,-2.676094556292304971e-02,-2.935397403122741444e-02,-3.557707565084079065e-02,3.554214161276464390e-02,-2.080046546940408220e-02,4.241801798343658447e-01
3.362954082212394336e-01,-3.860553629529708819e-02,-1.967763025945939992e-02,-1.192242228293897630e-02,8.638849350661981751e-04,4.215723405545229556e-03,3.664626479148864746e-01
3.345784602657955742e-01,-1.922297673811471097e-02,-3.879890529628565732e-02,-1.601452648707260605e-03,4.294926426210134368e-04,-4.524960907875225265e-03,3.640801310539245605e-01
3.612022907014607043e-01,-1.284921949441186761e-02,-3.395481828935043023e-02,-6.135057011209187408e-03,4.581021885322820487e-03,-1.697491690814713567e-03,3.852779269218444824e-01
3.522831767629323596e-01,-2.260109182211325618e-02,-1.923858010867499080e-02,-7.043293035098990287e-04,1.911981252089277881e-04,-1.519406096124549998e-03,3.732257783412933350e-01
3.479239215506742533e-01,-3.617818657610344379e-02,-2.329826535202333959e-02,-9.185015590278193878e-03,8.461979719884776905e-04,2.422574815488517681e-03,3.781877458095550537e-01
3.498751143655666196e-01,-3.339542879780960094e-02,-2.549013895891055759e-02,7.179798620288757247e-03,3.713391196355351163e-03,-3.286920820517379334e-03,3.796806037425994873e-01
3.355995431278602781e-01,-3.813259153596479378e-02,-1.883139003147513146e-02,7.598681827920656870e-03,5.882740281724550824e-03,-4.921968834002465702e-03,3.649444878101348877e-01
3.688722628122439451e-01,-3.477940785760202935e-02,-2.061698431601463599e-02,3.424667384245123208e-02,3.598798504789304381e-02,1.392673883913787478e-02,4.066992998123168945e-01
3.334132957103750905e-01,-2.657221021525596472e-02,-2.686149986278305035e-02,1.598663824749214576e-02,1.771580856291294411e-03,2.738868369004351152e-04,3.612065017223358154e-01
2.809718655135495791e-01,-3.153491624724316655e-02,-1.264098421642975700e-02,2.917742401473909925e-02,2.274746902814110162e-03,-9.108816986625513108e-04,3.077092170715332031e-01
3.317716032135170079e-01,-3.855612625199109078e-02,-1.890375986989631385e-02,9.357458029812507419e-03,5.750687213512442305e-04,-3.629262461303350406e-03,3.613228797912597656e-01
3.535217256921139861e-01,-2.519813167681247967e-02,-2.004135194409320531e-02,-5.136196011346744715e-05,-1.953506066992160986e-05,-1.068309666720091604e-03,3.761725425720214844e-01
3.546366864629925675e-01,-2.552104521741890841e-02,-2.566553107995656058e-02,-9.721236978141407567e-04,2.429578945964319843e-03,6.680128760390598164e-04,3.802587687969207764e-01
3.538523573387721277e-01,-2.081620479827919756e-02,-2.440342252105281995e-02,-1.795609860809803306e-03,1.797508221556888032e-03,-8.596547416596883682e-04,3.765036463737487793e-01
3.546928694023875339e-01,-2.638511533243775853e-02,-2.215500720829660652e-02,-4.986130886579822870e-04,9.024575672261056676e-04,8.765385670425117435e-04,3.789878785610198975e-01
3.574574305127398155e-01,-2.099963109195632227e-02,-1.391845378090494911e-02,-3.664448882362529233e-03,2.802518619086916650e-03,-8.183937642365603921e-03,3.753195405006408691e-01
4.082854114617298080e-01,-1.431920422052790354e-02,-1.052182906549473107e-02,-1.958522237581079243e-03,-2.567920055178618197e-03,-2.301233237458640696e-02,4.226396679878234863e-01
3.588556268862725940e-01,-2.462504832572479097e-02,-1.770481324260539391e-02,-1.549764312370996173e-03,1.093961389791941628e-03,-4.296176865423349811e-03,3.801548480987548828e-01
3.522845076256945207e-01,-1.969360844231712870e-02,-2.004372263653900199e-02,-1.442552600545091027e-03,5.649668816507994297e-04,-2.237564037425880583e-03,3.721831440925598145e-01
3.535719411312083782e-01,-1.506229787802099152e-02,-1.964447650562856085e-02,-2.197343285198076132e-03,1.767050880018750623e-03,-1.677770529211558776e-03,3.709900975227355957e-01
3.315976389028004734e-01,-2.308747269765917820e-02,-1.563134338228244768e-02,2.293988705485730875e-02,2.250559547773048341e-02,9.665059628060414590e-03,3.557963073253631592e-01
3.372568794744996157e-01,-2.585334727007979061e-02,-3.584795597831563763e-02,2.056452070083388158e-03,-5.956020868674720718e-04,-5.903623607263611996e-03,3.683699071407318115e-01
3.546503341508838170e-01,-3.185239663885214290e-02,-2.980350590964708779e-02,-7.252340106851925877e-04,-1.300909647930719327e-03,9.151728734065856744e-04,3.854942619800567627e-01
3.703280850309323968e-01,-2.086426683259584580e-02,-9.376208675506425561e-03,-3.677579989495847503e-03,-5.408994223899882443e-03,-1.939783443243880620e-02,3.872035145759582520e-01
3.943071917344713184e-01,-1.730925047884643297e-02,-1.677392549507991659e-02,-2.071193865993097710e-02,-1.722669632305109944e-02,-3.521844519192173645e-02,4.184570312500000000e-01
3.577962428309636733e-01,-2.093880943410164619e-02,-9.833696179974399376e-03,-1.043925558848096723e-03,1.076721466981155669e-03,-8.143421140063090979e-03,3.735817968845367432e-01
3.560490538227754076e-01,-2.285447744497354217e-02,-1.696295894315810737e-02,-2.948872695623302401e-03,3.513653326136411542e-03,-5.774197526202982239e-03,3.762092888355255127e-01
3.606795209454484175e-01,-2.322887178954344267e-02,-5.547662201904113299e-03,2.640525041225332947e-03,3.447627440836694389e-03,-1.574561258698368993e-02,3.764447569847106934e-01
3.568981333069818906e-01,-1.408249851632167871e-02,-1.818282339537841130e-02,-2.309135495294107731e-03,1.252506283031872480e-03,-6.196750520804854973e-03,3.732298016548156738e-01
3.522434364715526511e-01,-2.092665002304000543e-02,-9.845196151538226914e-03,2.035554211603713901e-03,-8.502270035838615635e-04,-7.967288181026127569e-03,3.680332601070404053e-01
3.506078311194236741e-01,-1.131956867100339381e-02,-1.171669160234534157e-02,-3.980905341412742122e-04,1.139650945043206261e-04,-8.339524167267945223e-03,3.624148070812225342e-01
3.532671314498114779e-01,-3.154737373370322673e-02,-2.692149561386117385e-02,2.682516848071817440e-03,2.506464430826464262e-03,-3.457064794654649085e-03,3.826222419738769531e-01
3.488071292684171709e-01,-3.387205031831450053e-02,-2.642323525596121381e-02,8.502082108935824986e-03,2.095137586028719863e-03,-2.701752207053503222e-03,3.793418705463409424e-01
3.405052613490671121e-01,-3.920168771480073144e-02,-2.127319593059229241e-02,1.257700845354924220e-02,4.264185090384276975e-04,-4.756669859191769642e-03,3.717986047267913818e-01
3.354049972858691442e-01,-2.478365578088642662e-02,-2.711358486803305823e-02,1.352258669215640127e-02,1.051064752039751861e-03,5.323044493243926254e-04,3.621232509613037109e-01
3.444604370723259312e-01,-3.508826124910344180e-02,-2.664413577935698108e-02,1.596956647847196098e-03,3.510506670135939838e-03,-4.555720001292600657e-03,3.755401968955993652e-01
3.535259816624204410e-01,-3.133922120256776855e-02,-2.903885876317099934e-02,2.611297324920040363e-03,2.539309112442236088e-03,-4.512543195223219471e-03,3.838516473770141602e-01
3.550639036151374550e-01,-2.965017447739948242e-02,-2.991312170299478823e-02,3.190534053861662171e-03,9.335237055647246061e-04,-1.883764854624468861e-03,3.849025070667266846e-01
3.547515501856783882e-01,-2.835568632764462471e-02,-2.995225250481975410e-02,-1.099233851498610849e-04,1.476275566750161758e-03,-1.982541775180840082e-03,3.839319348335266113e-01
3.449718369693222098e-01,-2.512930919399591900e-02,-2.856319081059774390e-02,3.763194582160967611e-02,9.963588867138505750e-03,1.098094275148579898e-03,3.778987526893615723e-01
3.454861990733139043e-01,-2.665612394383681805e-02,-3.257068504970206391e-02,1.353833703695256178e-03,1.727221234354439205e-03,-6.336546374271767416e-03,3.753143250942230225e-01
3.533828477152736736e-01,-3.037477249786088573e-02,-2.357034115556244647e-02,2.085088994410216195e-03,-5.017316799139519062e-04,-1.198314687003560397e-03,3.804248571395874023e-01
3.334745498054266788e-01,-2.981282012028518835e-02,-3.031479610701121041e-02,9.740027878359954275e-03,9.656551400525115875e-03,-5.176166733352329657e-03,3.644242882728576660e-01
3.418328281339019781e-01,-2.668353433825870757e-02,-2.505044740744810650e-02,8.018291929846757624e-05,7.381702999242841651e-03,2.822578055798837296e-04,3.679251074790954590e-01
3.525752679971589920e-01,-2.742001656932840925e-02,-3.145898897161322760e-02,6.106619422680164069e-04,3.692936338504849980e-03,-2.123920482098569894e-03,3.821035027503967285e-01
3.490699053916846428e-01,-2.543439318994300535e-02,-2.498429965947335241e-02,4.705953217359147740e-03,-1.447530234917549646e-02,-7.023597823044422025e-03,3.754039704799652100e-01
3.552612644504559158e-01,-2.998690628410957681e-02,-1.957796139194342699e-02,1.077699429000775373e-02,-1.157326074216125447e-02,-6.774053141754116623e-03,3.813166618347167969e-01
3.579775779312610040e-01,-2.692060765454892812e-02,-2.391353873388629703e-02,3.133640727347547679e-03,-4.349121448367347653e-03,-5.942105238641504821e-04,3.835172653198242188e-01
3.218474168572928451e-01,-2.450849435108065633e-02,-2.919973254301619359e-02,1.352919191066466117e-02,-1.762763395996355675e-02,6.346348482321983488e-03,3.510148227214813232e-01
3.808679055123508350e-01,-3.648833922396901852e-02,-1.066501023053750830e-02,2.029258824911370478e-03,-1.881155086479846181e-02,-1.667016247687192615e-02,4.074103832244873047e-01
3.219706539618861774e-01,-3.660080730292503137e-02,-8.224417681097134780e-03,2.045054420393168162e-02,-3.292639610802614719e-02,-7.886404713527314994e-03,3.519906997680664062e-01
3.520939883936856640e-01,-2.828764286039497922e-02,-1.375218505368666633e-02,-4.251823812456021791e-03,1.727437741960201410e-04,-6.401164840420644521e-03,3.735634982585906982e-01
3.565780322438290018e-01,-3.299165442784726676e-02,-1.202756613976224687e-02,7.393255885074194326e-04,-5.421029017428011243e-03,-5.228214109345452956e-03,3.797484338283538818e-01
3.600135151604145212e-01,-3.338508145739862987e-02,-1.605334511164802080e-02,-1.336498171782493161e-03,-4.290246647581513750e-03,-3.147371751643920218e-03,3.851426541805267334e-01
3.142549266991637169e-01,-3.681493760682169603e-02,-1.913064918244043733e-02,-1.175133773812168762e-02,-3.884713219071889677e-03,-3.755557394788919950e-03,3.433019518852233887e-01
3.260648862126463432e-01,-3.686340292356135584e-02,-1.914269491543940660e-02,-9.097234086352691540e-03,7.296925831875491347e-04,2.270932757681758726e-03,3.547745347023010254e-01
3.350329910164902003e-01,-3.465875954139019388e-02,-2.475122225039774748e-02,-4.727189662986067652e-03,-4.126637318749667126e-03,-2.785181841317761406e-03,3.650326132774353027e-01
3.477792040304482080e-01,-2.600459941316157764e-02,-2.712756510829952838e-02,-3.972161668061340717e-03,-1.822278641336580723e-03,-1.527275200285962758e-03,3.744324147701263428e-01
3.046792275057982891e-01,-2.108938063067491986e-02,-2.020829277218610942e-02,-2.905946141723819709e-02,-3.946795909216304146e-03,5.267046837058927435e-03,3.293967843055725098e-01
3.387943445678240906e-01,-2.375984558494839693e-02,-2.714080475715646701e-02,-8.323278488243998977e-03,-9.986714908473497652e-04,9.120288355679902897e-04,3.645491302013397217e-01
3.844297142075288054e-01,1.729978487175053148e-02,-5.122184796894646563e-02,-3.782242136609713021e-03,-1.124032952775932785e-02,1.008580035673843460e-03,4.062769412994384766e-01
4.364459029188668682e-01,1.711801882840063849e-02,-6.328553385581503488e-02,-1.237868921854676230e-02,3.868741859093180468e-03,7.795818104356252304e-03,4.655136764049530029e-01
4.386722671086476510e-01,2.710217272978687753e-02,-5.515216059134656068e-02,1.091623618094315039e-02,-2.915858133598308449e-02,7.339497837196362964e-03,4.616047143936157227e-01
4.479857584250721558e-01,1.644126722462760370e-02,-4.602375701507901984e-02,-6.627771177342281494e-02,-1.320661445330676906e-02,2.028282459124281650e-02,4.816893041133880615e-01
3.591168576521010514e-01,-1.122588997409401657e-02,-3.522727107569162408e-02,-1.577615316227335427e-03,5.262321402658570908e-03,-3.334811690517433189e-03,3.830697834491729736e-01
3.886681565671856742e-01,9.966029162665063224e-03,-3.899628433140017725e-02,4.977773701338201063e-04,-6.899400542969238341e-04,-8.297983327430234063e-03,4.056642353534698486e-01
3.616695620428627134e-01,1.681182386635780845e-02,-3.708896297788694119e-02,1.063933465380676466e-03,1.948113727875256610e-03,-1.190729061159944216e-02,3.753137290477752686e-01
4.050298642798599302e-01,-8.081494435910940854e-03,-4.935483467252640977e-02,2.497897827425791389e-02,1.569241138124977900e-03,-1.721085692356721930e-02,4.383866488933563232e-01
3.899476795734029277e-01,-1.262405510492337068e-03,-3.740221095688012198e-02,3.273693404258315291e-05,-1.025344963429421474e-04,-1.473188183448419925e-02,4.112673103809356689e-01
3.721257060446693243e-01,-8.950055866891459821e-04,-3.591916164075681372e-02,-8.721013887561270255e-04,-2.768937225189009328e-03,-1.501948128000962432e-02,3.926040232181549072e-01
3.736269479576259100e-01,-2.871100151173516801e-02,-7.785019793042136094e-03,-4.658022230092512261e-03,3.106287057013959636e-03,-1.007967254936571744e-02,3.928017914295196533e-01
3.772793491446385650e-01,-3.236646081629007687e-02,-2.596313343430717291e-03,-1.602704021168069835e-04,5.389710403221911403e-03,-1.493711469163069676e-02,3.965568244457244873e-01
4.063249723413749348e-01,-1.187584594882937217e-02,-1.999748506842502493e-02,1.560310848383096236e-02,-1.123952426955184339e-02,-4.183971897611205720e-02,4.297852814197540283e-01
4.225622391769846553e-01,-2.812179622774599319e-02,-1.307138478186908870e-02,4.740513647454036583e-03,-3.246813617163633869e-02,-2.124017899459405834e-02,4.484897255897521973e-01
3.019511065825265517e-01,-1.532864971093225726e-02,-3.292965161425262521e-02,5.427628334691685921e-04,2.793905459252952334e-02,3.078092300879557968e-03,3.300481140613555908e-01
3.401733077470265321e-01,-3.472753377983087142e-02,-2.564237374327582586e-02,3.726820296999572117e-03,-2.608783295140688300e-03,4.069452197430387455e-03,3.705926537513732910e-01
2.993855758861161953e-01,-1.374898676820901500e-02,-3.313380064218968135e-02,4.059765217386590401e-03,2.469211201771081068e-02,-2.669794924641327120e-03,3.261886239051818848e-01
3.292775876763082143e-01,-1.990361518068706204e-02,-3.777919685470584876e-02,-1.903692294461184834e-03,9.825781728784399593e-03,2.320103728443922812e-03,3.588948547840118408e-01
2.941513948219650620e-01,-1.861183991765159862e-02,-3.143423446228701956e-02,-5.534287478442445098e-03,1.495341530055872142e-02,1.560006160620987388e-04,3.205595016479492188e-01
3.088651736077754895e-01,-2.543673050863756724e-02,-3.355653714243567176e-02,9.490922892492452065e-03,1.807767310751203296e-02,-4.075643989350223595e-03,3.403507471084594727e-01
3.275650718065887812e-01,-2.008858409175662274e-02,-3.950480529046090927e-02,-5.283103919603147252e-04,1.209710548310854485e-02,-5.030095868895224486e-04,3.583724200725555420e-01
3.615732593826295749e-01,-9.066490962210682625e-03,-3.554269863929368500e-02,1.326719544352617094e-03,7.548104340131004883e-03,-3.348031380900334721e-03,3.848347365856170654e-01
3.529891919456750182e-01,-1.823329885391386518e-02,-2.932835367699945794e-02,1.351754994929046244e-02,-1.921904682921649673e-03,-1.980297167122638431e-03,3.776493072509765625e-01
3.521869802118146042e-01,-1.781278897706817244e-02,-2.784275659260926350e-02,1.319646980607080793e-02,-1.393391286292590880e-03,-6.094251933467765506e-04,3.758203089237213135e-01
3.514284474965025384e-01,-1.887930318043185007e-02,-1.647179554738933960e-02,-9.057371473088268851e-05,-8.587329288876731229e-05,-2.911242399447656025e-03,3.691443800926208496e-01
4.189671079289476463e-01,-5.552817425697065268e-02,2.226703116441919317e-02,-9.869999782572292518e-03,2.309082624761709009e-03,8.689396239286044377e-03,4.413832426071166992e-01
4.256100801592664906e-01,-5.774535005664843679e-02,1.801678377592932923e-02,-5.303575444962318336e-03,-2.694950143809973254e-03,-1.412638246975650999e-03,4.504048228263854980e-01
4.230340798188776397e-01,-5.794183876596856186e-02,2.446200321868283178e-02,-7.653879023755971733e-03,-2.033503462895004318e-02,1.737318045146125575e-02,4.481246769428253174e-01
4.300129775133151311e-01,-7.368278626175056578e-02,2.357750168118244449e-02,-4.041533793749566006e-02,-4.525823544192823789e-02,1.013993507855538018e-02,4.749031066894531250e-01
4.051535895814463162e-01,-5.909608918707326408e-02,1.909818722100131705e-02,-2.401331974293739908e-03,-6.048712470932872919e-03,1.467041330303039612e-02,4.314083456993103027e-01
4.343780527684375503e-01,-6.296140815941747571e-02,2.547476139097529235e-02,1.401413932868514215e-03,3.258307160205999725e-02,-1.152300247385557030e-02,4.634370505809783936e-01
3.540209513672663566e-01,-2.957328858964133889e-02,-3.242259585930828969e-02,1.346359638015700211e-04,1.198334685747334469e-03,4.891438714557157924e-04,3.850333988666534424e-01
5.724766033772711316e-01,-8.232923065066294344e-02,6.742424862332813129e-03,5.642991941881764836e-04,4.380849850979908616e-02,1.218749463305208135e-02,6.201483011245727539e-01
3.633306359570481758e-01,-3.104922313619012941e-02,-2.816986558244227723e-02,1.990806718180671009e-02,-2.679409304679097881e-02,-6.808917355619483781e-03,3.973537981510162354e-01
3.524720917694355027e-01,-2.701633898388824950e-02,-2.985916100659480321e-02,3.594185964523327349e-05,-2.029382502762059563e-03,1.409778155507943748e-03,3.809418380260467529e-01
3.340223590286871547e-01,-3.285012069132925427e-02,-2.456474329584609761e-02,2.184448453106977231e-02,-1.085432098476922860e-02,4.046764028496192822e-03,3.653197288513183594e-01
3.397862898741157989e-01,-3.692511582203070186e-02,-1.984299384690313417e-02,2.159607022977572469e-02,-6.235633774089550246e-03,9.678224079656812208e-04,3.705224394798278809e-01
3.308643027431227290e-01,-3.586335568407822416e-02,-2.617607145276518166e-02,5.504114881290186889e-02,-2.440742725220947443e-02,-8.413799669178402378e-04,3.767071664333343506e-01
3.240087671879860465e-01,-3.226176573467534614e-02,-2.347447685726916644e-02,1.151622146153530486e-02,-1.547281721942809010e-02,4.895305815003410214e-03,3.536428213119506836e-01
3.064626598673714231e-01,-3.208742631638106246e-02,-1.854656487118504227e-02,8.565786979458658856e-03,-6.028684756481910399e-03,5.377878720678749315e-03,3.326126337051391602e-01
3.340942733096047279e-01,-2.714727593046262211e-02,-2.990017416280013607e-02,-1.346215003404218485e-02,1.179882752568351323e-03,-9.718270415201894991e-04,3.633843660354614258e-01
3.364043853987584431e-01,-2.372602136526585914e-02,-2.825830290334246930e-02,-8.886854871738391129e-03,-8.976163881501485198e-03,-9.195082146167131605e-04,3.630810379981994629e-01
2.534365875784809763e-01,-1.640919659601614011e-02,-9.958496370695152367e-03,-2.985944906577483321e-02,1.021506063484502527e-02,3.753413486206243384e-03,2.723008096218109131e-01
2.900835011422376319e-01,-3.269487410885807410e-02,-1.733654074399959555e-02,-4.454058087478426908e-02,-1.298007475419635931e-02,-3.383486577267695670e-03,3.255085349082946777e-01
3.295062317965108400e-01,-3.766238671991931075e-02,-1.999898490432752696e-02,-1.070788253588234908e-02,-3.360734209717912944e-03,-3.343284279156793354e-03,3.592363297939300537e-01
2.020988701206068994e-01,-1.256308582165437115e-02,-8.315989379058710829e-03,5.101702511302085019e-02,1.049576621618750032e-02,-5.372804860835437776e-03,2.311090677976608276e-01
3.477811550223355863e-01,-3.323277262554430456e-02,-2.807276166130559525e-02,-2.897451836686411124e-04,1.158512214247754300e-03,-5.095936617817320435e-03,3.785688579082489014e-01
3.518445589184047706e-01,-3.230796208619743370e-02,-2.861738720941217617e-02,6.723586933075592197e-04,3.292796014650013151e-04,1.014263555424145102e-03,3.823268413543701172e-01
7.233014135118499832e-02,4.148164221557396752e-03,1.394258404435751511e-02,1.285177914163496832e-02,-2.433142129047898006e-02,5.011635772978196603e-03,8.014872670173645020e-02
3.414512585798004651e-01,-2.668880676639462379e-02,-3.593480197000528675e-02,-6.401526598584059320e-04,8.241915769670310607e-04,4.282600091107296308e-03,3.729272186756134033e-01
2.670104734619919151e-01,-1.380918205639021512e-02,-1.586585677922378035e-02,5.582311620431399356e-04,1.290413304869875459e-03,-7.463547187801483629e-03,2.821604311466217041e-01
3.470242752042435042e-01,-2.840625706567967423e-02,-3.039631214494320499e-02,1.667825761983489060e-03,3.078088123461249128e-03,-1.506188210405977248e-03,3.764873743057250977e-01
4.160899495204519599e-02,-4.819732508109960539e-03,8.696270114437399529e-03,9.858643025482981877e-04,-4.626771897311462121e-03,-5.809720760289363573e-03,4.334943741559982300e-02
5.170476215726421687e-01,1.359754206609523064e-02,-5.440305887634055981e-02,-3.993963463028749050e-02,-8.776640619698279286e-03,2.400129876977718374e-02,5.468690395355224609e-01
3.472679864295430407e-01,-2.670014969142020522e-02,-3.678109280825361815e-02,-9.803791115137365855e-04,-4.755992812132528230e-04,-1.144642062893825533e-03,3.791190385818481445e-01
3.347530631505422627e-01,-2.715033848371126157e-02,-3.448952840651869911e-02,2.272936429771407079e-04,1.747756839003007567e-05,5.819135477244650502e-03,3.657673597335815430e-01
6.566125072965423026e-02,2.270334728956115850e-02,2.460054781483495684e-03,3.287280035839177522e-02,2.643426454656261707e-02,6.744565967133755134e-03,9.273307770490646362e-02
3.609323230434730023e-01,-4.378580788521471701e-02,1.956808578281905853e-02,-6.072094176893661063e-04,1.378852990932732860e-03,1.066285036743096128e-03,3.770679533481597900e-01
3.497434045227323929e-01,-2.837150280304548411e-02,-3.282662364812011235e-02,-2.101037552243724101e-04,-1.897226232882857542e-05,-3.650104531902554055e-03,3.804147541522979736e-01
1.633988398792158847e-01,-5.939298002475122684e-02,-2.272943482048323666e-02,-1.535015571532153192e-02,7.491261862775855374e-02,-2.949511131572862127e-03,2.457249611616134644e-01
3.581842632773169499e-01,-1.369633510598730619e-02,-2.277450779395728819e-02,-1.664124942517104626e-03,1.223659139234222881e-03,-7.186957035980777279e-03,3.767244815826416016e-01
3.664842209862416711e-01,-1.796724539262722908e-02,-2.447768125765312219e-02,-3.742421342322193873e-05,-6.454646875868634212e-05,-5.560847187774529271e-03,3.878673017024993896e-01
3.742190353046692119e-01,-3.006711682868343227e-02,-3.112107920358458957e-03,-6.910958085342474438e-03,5.569803819879528758e-03,-1.657062447589064194e-02,3.928567767143249512e-01
3.583337607295604132e-01,-1.842031475740638080e-02,-7.282112185292066719e-03,1.336036362412165029e-03,-3.332730113957196871e-03,-1.280124611653801932e-02,3.720236718654632568e-01
3.560420990107984740e-01,-1.595312004031251840e-02,-8.671553198931231110e-03,-1.675002736884170524e-03,8.237566438771145270e-04,-1.358206118012627792e-02,3.691729009151458740e-01
3.526372987149059557e-01,-2.621198963518864278e-02,-2.343902903316089081e-02,-2.110757367726506361e-03,1.707274540854912016e-03,-8.249259544733120262e-04,3.775024414062500000e-01
3.556760903905821780e-01,-2.629061193851459088e-02,-2.493760246601747776e-02,1.533010600126912806e-03,3.608600937305856955e-05,5.671591439026754970e-04,3.813025057315826416e-01
4.162370096875083747e-01,-3.803161197799259652e-02,-1.057196683846545193e-02,-6.681020976824840170e-04,-3.317117686284049190e-03,-2.660791407051354973e-02,4.436194896697998047e-01
3.528056153911408033e-01,-3.189073213494855730e-02,-3.322226807486161615e-02,9.257534860898995310e-04,-1.794417134615187027e-03,1.878205240473990092e-03,3.853934407234191895e-01
3.785325881074199650e-01,-3.160511773475330188e-02,1.059026918155775432e-02,2.336518687857435988e-04,1.746976773729303975e-02,-2.870428799136502673e-02,3.950633108615875244e-01
3.278743422883857450e-01,-3.865706462896265072e-02,-1.259606679735303381e-02,-1.100656610791857400e-02,1.995353334522940222e-03,2.706105738185887732e-03,3.547810912132263184e-01
3.544879486208635244e-01,-3.326267958457460039e-02,1.071678268447696925e-02,-7.329436260838716015e-04,-4.156790199918965548e-04,-3.427659521043039878e-03,3.677894175052642822e-01
1.425321914268222190e-01,-5.626606001744996477e-02,-3.174557759964321407e-02,-1.379001903755429186e-02,1.321226976902604121e-02,-6.298335601451925114e-03,1.909464895725250244e-01
3.437055536793151567e-01,-2.066571227434824132e-02,-3.001944569030287613e-02,-6.161325994502949224e-03,9.072880418482472814e-03,2.059510137955123527e-03,3.696426749229431152e-01
2.914594623207653612e-01,-2.271436756002084834e-02,-1.886810621398082866e-02,-1.078870023412734254e-02,3.772335241755695248e-03,7.830593268301228732e-03,3.131891191005706787e-01
3.507918175406528616e-01,-3.528226412657714528e-02,-2.548523012452050263e-02,-7.031374745404982488e-03,4.327234956218325990e-03,3.471682513054784661e-03,3.815854489803314209e-01
3.581617219005842623e-01,-3.244313132620701978e-02,-5.538989129073051965e-03,4.760170591822354127e-04,8.786362876070414815e-03,-5.371236071119048032e-05,3.781790435314178467e-01
3.412103161315653832e-01,-2.762506953629115247e-02,-3.316726137759690163e-02,-6.399495869670705512e-04,8.225101823640131428e-04,5.263320601035677108e-03,3.717536628246307373e-01
3.487123847007903010e-01,-2.634826138525758754e-02,-3.675124942881000112e-02,9.410541263199275874e-04,-1.216162492364885261e-04,1.717979723483711862e-03,3.803840279579162598e-01
3.536236545408183440e-01,-7.736940341338538474e-04,-3.372295700610095093e-02,-3.493221949671626407e-03,-4.057350365158693579e-03,-2.015821977109817642e-03,3.721000552177429199e-01
3.399025362597792865e-01,-2.955687295927592051e-02,-2.902446058513302729e-02,-1.599358405348390993e-02,1.132427472102997580e-02,5.754901113925844219e-03,3.708844780921936035e-01
3.561911623493833057e-01,-2.999781866165193711e-02,-2.571277087379073012e-02,7.123385867999114732e-03,-2.193357033111334800e-03,-2.752472511808678828e-04,3.842815756797790527e-01
2.892950552309748735e-01,-2.689127545816562270e-02,-1.531373430313216766e-02,-1.930231998198016219e-02,1.102311476073872601e-02,7.990336510181427279e-03,3.132426738739013672e-01
2.224912047243551572e-01,-1.013372825976217861e-02,-2.148500940498987433e-02,-5.989939000199957786e-02,6.435826919689471848e-02,-1.771751481883593674e-02,2.846318781375885010e-01
2.567365706363747835e-01,-1.506099676959332667e-02,-7.681428939359927210e-03,-7.966223171200751850e-04,-8.843201089610852345e-04,4.979705909654876667e-03,2.683305144309997559e-01
2.143963489244111453e-01,-1.040051772562092247e-02,-2.218666191417681399e-03,-5.366908097713986303e-02,4.699388247022296544e-02,-2.189242103004923265e-02,2.558623552322387695e-01
3.506584520731955146e-01,-1.494051062974935395e-02,-1.733843895582334871e-02,1.668140118443110602e-04,5.609917351451507508e-04,-4.651657925982087679e-04,3.668060898780822754e-01
3.086296879350327038e-01,-2.916322463573239876e-02,-2.621867771760799659e-02,-1.609291929495250753e-02,3.313114731166003774e-02,-7.846763520617614646e-04,3.423300981521606445e-01
3.505225965934096188e-01,-2.619173052480325281e-02,-3.522743565586222703e-02,2.906017534296672522e-05,-2.170874860494713832e-03,2.417408606943470539e-03,3.813540041446685791e-01
3.485133930901331278e-01,-2.830491424119899180e-02,-3.332588536304606497e-02,7.368254990584168591e-04,-9.074901763157707402e-04,2.521275831073814273e-03,3.793842494487762451e-01
3.369309328041488749e-01,-2.412461384319436464e-02,-3.579176371779327348e-02,-4.753056693017063301e-03,-6.304839659720245897e-03,-4.857954121674092941e-03,3.673793077468872070e-01
3.477990413270136139e-01,-2.444404494175844711e-02,-3.433866534226798217e-02,-4.372934984697773170e-03,-8.620901235910858815e-03,-2.872812960375034901e-03,3.776918053627014160e-01
3.213847122208713936e-01,-2.753677642824978178e-02,-6.004408522270021642e-03,-6.638150451982129455e-03,-2.176177657618040551e-02,6.109992391228126788e-05,3.409540653228759766e-01
2.959657049780242133e-01,-2.518177817821465325e-02,-1.976340870529032234e-02,-3.283374975315912596e-03,-4.439795397864130383e-02,-4.161981154491310514e-04,3.276757001876831055e-01
3.463720144001596335e-01,-2.807456980656478085e-02,-3.089433805099109365e-02,1.152833035500453731e-03,-4.227018721004429692e-03,1.942996513015578372e-03,3.759560585021972656e-01
3.270950024435141934e-01,-3.129867444470726956e-02,-2.860566281188178794e-02,-1.804717117434686408e-02,-5.202908567009781327e-02,-1.179087617496644416e-03,3.695814907550811768e-01
3.179412979804161488e-01,-3.331736838762128228e-02,-2.092372710507325873e-02,-2.413054086437444942e-02,-3.303996680420805132e-02,2.059353993869392479e-03,3.524448573589324951e-01
3.105909909621495379e-01,-2.318602910660957916e-02,-3.123304516712685497e-02,-4.908236309798557316e-03,-2.457904636528291178e-02,-4.375775942083361993e-03,3.407343029975891113e-01
3.371602158631439305e-01,-2.449021715439850255e-02,-2.351091673812680249e-02,-4.332965099197627797e-03,-5.649982660501255693e-03,-2.834011172911873183e-03,3.614056110382080078e-01
3.039206046804489025e-01,-1.670373469221916873e-02,-3.051779576428742535e-02,-1.422040401504716736e-02,-1.923028489490725967e-02,-6.655052316488903504e-03,3.305584192276000977e-01
3.530152975499481482e-01,-2.677776397499662120e-02,-3.368555405452391960e-02,7.867127890037069454e-04,1.263572419558779778e-03,-8.470740226160915773e-04,3.833051323890686035e-01
3.493058675577618843e-01,-2.896414862461407780e-02,-3.607777397661096619e-02,7.578804805694114690e-04,-2.425883473725845216e-03,4.053209259099794029e-03,3.819664120674133301e-01
3.581360812909537561e-01,-2.609274890746787756e-02,-3.309454527318309025e-02,-1.910529347663234706e-02,-2.955464851212092551e-04,3.324733449770734400e-03,3.892294466495513916e-01
3.477094984725065951e-01,-2.572294686497469951e-02,-3.724106716173380960e-02,-4.387061694324291029e-04,-3.619069082245803958e-04,-1.437744924334125214e-03,3.793321251869201660e-01
3.572607513718807359e-01,-3.172615691159921814e-02,-3.156007294524729168e-02,-1.102124068021401691e-02,-1.173891244641612520e-02,-4.289900687785075557e-03,3.899734020233154297e-01
3.327217201566937121e-01,-2.363465832098235464e-02,-3.547101331033047922e-02,3.597801530657680422e-03,-8.227260306629850112e-03,4.350481764567680661e-03,3.628313839435577393e-01
3.373574773566838658e-01,-3.556075983153442199e-02,-2.108277569239083715e-02,-5.205783929287116293e-03,-6.662758895699834576e-04,-5.235067858285753599e-03,3.661193251609802246e-01
3.524677099935709657e-01,-3.147675488932655252e-02,-2.712865054459909220e-02,1.152541078831422492e-03,3.568125023420738880e-04,-8.095259180840129595e-04,3.817972838878631592e-01
3.365055910039900788e-01,-3.022513584093142192e-02,-3.312005169135040505e-02,1.466218393364800143e-02,-1.860588838038532838e-02,8.186765431488756545e-03,3.707371056079864502e-01
3.340149351011629242e-01,-2.212840919523570427e-02,-2.525470761417480947e-02,-3.207194746775643424e-02,-9.456381894241527863e-03,-1.879725803697143401e-03,3.623892366886138916e-01
3.015768701176063105e-01,-2.673765888868762097e-02,-1.926825717237293234e-02,-2.102876799950833056e-02,-3.912402069166471410e-06,-1.090134817374380401e-03,3.266865611076354980e-01
3.548884709077065325e-01,-2.748023104642824399e-02,-2.656095155198165414e-02,4.945277146026716419e-03,-1.145414426639418653e-03,-3.854801829656464337e-04,3.820116817951202393e-01
3.467652854104020244e-01,-3.771459891258541197e-02,-2.044276948481466016e-02,-6.021247598653039004e-03,-4.263961455156443925e-03,-2.941883834645234175e-03,3.763930201530456543e-01
3.298391146867844514e-01,-3.801485874925644715e-02,-1.936085530723610781e-02,-9.722349727575522321e-03,-6.773443251472940213e-03,-1.775663125116939403e-03,3.594902455806732178e-01
3.473311845327600178e-01,-3.695387971364766377e-02,-2.212248004175165761e-02,-1.179918758360841598e-02,5.821745734510128632e-03,2.886345760029573361e-03,3.778092563152313232e-01
3.415095890351318997e-01,-2.601984931210124530e-02,-3.640276264102471071e-02,7.289727783356680924e-03,-2.555914858361214848e-02,1.255055096514777219e-03,3.756669759750366211e-01
3.575491930093431803e-01,-7.960893192880125202e-03,-3.186935324320000484e-02,-6.493432964846848621e-03,1.114694989163860905e-03,3.513665134077700565e-04,3.782044649124145508e-01
2.901610821084814607e-01,-1.664610737499008786e-02,-2.766675836045731640e-02,9.384600866394006771e-03,-2.139215552916362215e-02,3.060900797726645670e-03,3.151166737079620361e-01
2.789729961431183236e-01,-1.819762694952876958e-02,-2.225285815383477861e-02,2.105912139074037764e-02,-3.933293210540051571e-02,2.571388440693830359e-03,3.090686798095703125e-01
3.180851770341983631e-01,-2.213746140629682668e-02,-2.295897499868207459e-02,-1.208949470614935871e-02,3.816412958847332365e-02,2.282905905338362441e-03,3.476423621177673340e-01
3.567264088647899012e-01,-2.255606116519909277e-02,-1.335501071001157780e-02,4.364488713248393208e-03,-5.262913449273992281e-03,-7.555378957012417844e-03,3.751820325851440430e-01
3.431985510859123512e-01,-2.344565938012316275e-02,-3.703894071894961448e-02,-4.251905850215716457e-04,1.749484011129147018e-03,-7.881946562369927887e-04,3.736418485641479492e-01
2.742240273570901166e-01,-1.965857500651141399e-02,-2.354737852370215878e-02,2.710024387147222033e-02,-4.543965477597912417e-02,5.838440930544002393e-03,3.098786473274230957e-01
3.419265599128296640e-01,-1.978351554597854167e-02,-4.204617903682134061e-02,1.076366415955694084e-04,-1.817966505722245617e-03,3.511813871567007932e-04,3.733533918857574463e-01
2.754782780736170222e-01,-9.497559796485643968e-03,-2.416931375693975870e-02,-4.275826770578665045e-03,-4.278418568667580885e-02,5.303667684103704864e-03,3.020567595958709717e-01
3.454249033816050862e-01,-3.686520448773830672e-02,-2.386852220104876410e-02,-8.318532138701439720e-05,-4.691055813275809509e-04,-1.497118247893786417e-03,3.759701251983642578e-01
3.525884305504091154e-01,-2.418820945239641418e-02,-1.629333050894724022e-02,-2.253774210924795914e-03,1.016921138070429930e-03,1.247017999137121566e-04,3.729165494441986084e-01
2.571585309539540232e-01,-1.583728533508119152e-03,-1.285401605736377628e-02,3.212514978074946636e-03,1.881818925929528569e-02,-1.932002112527437610e-03,2.666368484497070312e-01
3.062955143518667489e-01,-1.443161304587746441e-02,-3.263579706409380776e-02,1.710694003003014520e-03,-2.246457787195814057e-02,2.608920682665085301e-03,3.325342535972595215e-01
3.440671788557352340e-01,-3.793993810040771630e-02,-2.338028519639517855e-02,5.297896508410654143e-04,7.213457155780457174e-06,4.264207364333288150e-04,3.749412298202514648e-01
3.101402736552173467e-01,-2.665319405317681523e-02,-2.347115335503846545e-02,8.174957171530447889e-03,9.301141124422148548e-03,-8.092592613420403896e-03,3.361915647983551025e-01
2.981633520793525172e-01,-2.912487427949986274e-02,-8.490750887865522456e-03,6.126418640412320408e-04,1.473065034262877873e-03,9.448563547367023552e-04,3.174907267093658447e-01
3.439950395119866777e-01,-3.631143096979574936e-02,-2.788688570643410580e-02,2.057549439829595150e-02,8.294151245482937404e-03,-4.340757968952667877e-03,3.781970739364624023e-01
3.511242822192244262e-01,-2.916673027842589527e-02,-2.402435572086697446e-02,3.030643273926408865e-02,3.638644418454169832e-02,-7.122341164703589224e-03,3.867449462413787842e-01
2.912399990596015176e-01,-1.288052113729927506e-02,-2.929106110511200955e-02,-9.287389356053700040e-04,1.139868926336756261e-03,-3.827802351257586760e-03,3.127296268939971924e-01
3.595521033178503689e-01,-1.602879087446554274e-02,-1.356198844279390969e-02,1.343340357523021547e-03,-3.507751616315316415e-03,9.257014571318580159e-03,3.747532665729522705e-01
3.539668419780839237e-01,-2.018686127723523516e-02,-1.952583558042680911e-02,-3.566395894011341393e-04,1.916530655147517456e-03,-2.109563392505868148e-03,3.738567233085632324e-01
3.380908578863091596e-01,-1.974303981419800458e-02,-4.150294805037982315e-02,4.000040751056926349e-04,3.319318476037223884e-04,4.361494030797570596e-04,3.691969811916351318e-01
3.523142967368076417e-01,-2.069146449925199360e-02,-5.639893301777082479e-03,-7.513848294521099837e-04,-2.142779686347746795e-04,-4.302310346972027660e-03,3.657907545566558838e-01
5.600259518736601105e-01,-8.333178460475865190e-02,4.741746345788611094e-03,-2.041067439287024433e-03,1.711150534301594112e-02,3.390960902452848282e-03,6.049204468727111816e-01
3.486734014270128634e-01,-3.816720464913839206e-02,-2.706209600409389959e-02,7.989235451201303446e-04,-6.938629993241339196e-04,8.565564969773417289e-04,3.814166188240051270e-01
3.110011893126742866e-01,-2.872062451185911081e-02,-2.263392968387081816e-02,4.224166953167793337e-02,2.639881755459338661e-02,-7.832115060814411403e-03,3.478620052337646484e-01
2.623559417168642161e-01,-2.713212680658716458e-02,-1.756801920407816131e-02,4.940939907019572391e-02,1.227891612085304151e-03,-2.050713931291707395e-03,2.974342405796051025e-01
3.011431515794362190e-01,-2.817303770644116745e-02,-1.652092284720917126e-02,2.187708639527669030e-02,2.234418295497638679e-02,-8.557782623526471663e-03,3.284828960895538330e-01
3.583702476200236742e-01,-2.802464663261600153e-02,-1.969000356508043836e-03,7.363119012804772434e-04,5.906509408199372198e-04,1.238719315011023794e-02,3.746667206287384033e-01
3.543989063342859458e-01,-2.590570524432339594e-02,-2.618665669607025959e-02,1.250846368528160365e-03,5.109643290305336495e-04,4.162274847212958412e-04,3.804530501365661621e-01
3.811315308525323742e-01,-4.778407643760551604e-02,1.136263248279115179e-02,6.423098060515472106e-04,-2.955467759278911088e-02,1.890695510152394163e-02,4.071757197380065918e-01
3.746479353066816675e-01,-4.655672130242410889e-02,1.432976928762376423e-02,-4.259301556591234966e-03,-1.026887664951920028e-02,1.193024223207117714e-02,3.953133225440979004e-01
4.156167026219607652e-01,-1.585205571852621453e-02,-3.830910915906415859e-02,-9.681793901592748979e-04,-7.247919725698721838e-03,-2.647094988716816935e-02,4.456699192523956299e-01
3.712633801056471894e-01,-2.428634002982293927e-03,-4.044329058803985966e-02,-2.499505385603851410e-02,1.312301858198561960e-02,-5.862855512825911226e-03,3.972286880016326904e-01
4.089538504180136314e-01,-7.656966138735676886e-03,-4.516906063376463498e-02,-1.066978052310507859e-02,5.190780962222422273e-03,-1.711541004208216171e-02,4.380649030208587646e-01
3.387255483236465969e-01,-4.126145720095225622e-02,-1.853312827355690917e-02,3.864957933610133783e-05,-3.422698466834800802e-04,1.311382084705846546e-03,3.691554367542266846e-01
3.895843100432669348e-01,-5.674153424923722433e-03,-3.150162772763867580e-02,5.838950029322522578e-03,-8.249190061300457760e-03,-1.469580384984249879e-02,4.099501967430114746e-01
3.532518398882338873e-01,-3.166894736980860325e-02,-3.056507971705108018e-02,2.817529706598037500e-04,-2.482336086122750992e-04,1.141587344347884739e-03,3.843756914138793945e-01
4.905343932558849929e-01,7.578540871841565885e-03,-4.080218806909632900e-02,-2.994701289688300044e-02,1.189630131495617374e-02,-1.907514669656501516e-02,5.129906535148620605e-01
3.997488540672505808e-01,9.860620873921227547e-03,-3.449728447289046596e-02,-1.676685158539269888e-02,1.401976119392264741e-02,-2.485460161601441356e-02,4.178054332733154297e-01
3.430099276194898961e-01,2.825934839532377729e-02,-5.854222148348919852e-02,-6.616605182742953117e-02,-2.161929458577466906e-02,-1.588645456141906179e-02,3.862854540348052979e-01
3.648816605443592209e-01,1.705501314146512515e-02,-3.891598459549019950e-02,-2.121787927683421379e-03,-2.498165293724889571e-03,-1.245850992013741547e-02,3.795816302299499512e-01
3.842343295510491918e-01,1.520621834017577001e-02,-4.409471690373878427e-02,7.933069903037348949e-03,-1.723637693965700095e-03,-1.218691216884715961e-02,4.027720689773559570e-01
3.807059578146326229e-01,2.225809485273512467e-02,-5.176593755226274740e-02,-1.534662008247170487e-02,8.563196076001308027e-03,-1.072338028119550549e-02,4.022060334682464600e-01
3.534484546569893193e-01,-2.963867761720220817e-02,-3.185609693982680013e-02,-6.289449270655589645e-04,-6.843492364716653861e-04,7.164482147984766759e-05,3.842040300369262695e-01
3.532689831227391886e-01,-3.520595612283597409e-02,-3.024246731181925996e-02,6.383906466520613979e-04,-5.126437447068377725e-04,7.719078907490422962e-04,3.860220611095428467e-01
3.743017227342315678e-01,-2.321640196401295042e-02,-3.530244526264214588e-03,-6.022871928911622923e-03,-5.616359211651174473e-03,2.509668488768784442e-02,3.907372355461120605e-01
3.636373295631792346e-01,-2.716175786038163564e-02,-2.894860256159861867e-02,6.403656357238108644e-03,3.853458676352666291e-03,1.104837470502416765e-03,3.919140696525573730e-01
3.505856464594879762e-01,-2.666651290512894734e-02,-3.192409020419778587e-02,-4.645011135413029636e-04,3.908768993213118485e-03,-3.124495510958818795e-03,3.800079524517059326e-01
3.530263839423586902e-01,-3.315428328824399085e-02,-3.045337572233847157e-02,6.378722530486446952e-04,-5.125882980627395483e-04,1.754365496339572441e-03,3.848519325256347656e-01
3.513261053322103700e-01,-2.509947054860012239e-02,-3.492203314407818504e-02,8.055217321584109968e-03,7.360983527112903435e-03,-4.605100385719584737e-03,3.819829821586608887e-01
3.275246897523177991e-01,-1.968532577285947438e-02,-3.422543194778565612e-02,1.417903133384047602e-03,3.418448818585061427e-04,6.585307406214161580e-03,3.548959791660308838e-01
3.451561663102967192e-01,-2.501292851853079147e-02,-3.109516244455529099e-02,2.193688924072844130e-04,-1.054401514700525043e-04,-5.020520683046759448e-04,3.732486367225646973e-01
3.526266401926687055e-01,-1.646046748511462154e-02,-2.371127181248658400e-02,-1.203165962333242137e-03,-1.842967336222401851e-04,-1.562344755091483930e-03,3.727811872959136963e-01
3.661196686947085777e-01,-2.475412698442508441e-02,-1.593522395843666173e-02,-3.564449970618902876e-03,-2.308172580981881789e-03,5.970642775588875205e-03,3.867480754852294922e-01
3.533473418543487399e-01,-1.202563373975132355e-02,-2.043601960911337057e-02,5.214830729867614423e-03,3.408145126812064767e-03,9.203012652579245848e-03,3.701507747173309326e-01
3.525625060080113671e-01,-2.924063196144172094e-02,-1.590243085799480927e-02,-3.327446287473039693e-03,-1.037409348055104256e-03,3.424671600712420570e-03,3.754072487354278564e-01
3.545595018403549514e-01,-1.950326072223018681e-02,-1.585728496037788759e-02,-3.593342608336433548e-03,-3.749680955859194774e-03,4.801714893366086298e-03,3.724547028541564941e-01
3.493156646127759668e-01,-3.134165851087564181e-02,-3.215160876265693579e-02,1.075603090998729231e-03,-8.579047184008661842e-04,3.525861471739631658e-03,3.811193406581878662e-01
3.486364430980949392e-01,-2.737013825396394928e-02,-3.559200902941214717e-02,9.723892218944049128e-04,-5.903938709307635264e-04,2.528118789168475999e-03,3.802145123481750488e-01
3.800569175570450708e-01,-3.463143544718202960e-02,-1.447041826526496155e-03,1.194772039096310802e-03,2.091802593152767165e-04,1.362651719847723583e-02,3.998348414897918701e-01
3.546449325484862802e-01,-3.074711863481924268e-02,-3.333301825231571591e-02,5.953122420159092341e-04,4.612344715091452408e-04,8.253145221312913884e-04,3.866963386535644531e-01
3.789348358692181118e-01,-2.988234936030506605e-02,7.720862973611380964e-03,-4.545358497107051914e-03,-1.853173658010838498e-02,2.329405960346088086e-02,3.948325514793395996e-01
3.686566877156047251e-01,-3.107660199864617501e-02,-8.590854327745922614e-03,3.408696102836319443e-03,-9.350714987252685406e-04,2.819235672916742264e-02,3.920789659023284912e-01
3.951450232246844219e-01,-2.709135052531880250e-02,-1.089033512238646306e-02,-1.321428225034564606e-02,-2.412636170157611212e-03,1.562648335818642154e-02,4.159077405929565430e-01
3.833349456482322837e-01,-2.219985913350647211e-02,-2.531719994452508171e-02,-6.098967741052231141e-03,-1.330605204588628703e-03,1.307557404525866961e-02,4.078752398490905762e-01
4.136478802660250031e-01,-1.222433592618699105e-02,-7.754730415738292360e-03,-5.783944568582978507e-03,-1.577665872531455044e-02,2.493912242406365679e-02,4.268449246883392334e-01
3.632205983469214972e-01,-2.093359219302237673e-02,-2.618409681337571793e-02,-2.790138172429563416e-03,4.285193461076334739e-03,1.254408162377324519e-02,3.875171244144439697e-01
3.572472543955008684e-01,-2.606885848953563456e-02,-2.564083115526999412e-02,-4.798704164156347360e-03,-5.367787327440760869e-03,1.920232629809648026e-03,3.833196461200714111e-01
3.516050689102550586e-01,-2.731102265311471933e-02,-3.644976231630986385e-02,9.977903340165261616e-04,1.698617176082798004e-03,1.046407290392712330e-03,3.835865855216979980e-01
7.408442178627556995e-02,1.693935753665269661e-02,4.786214829163727702e-03,-2.593105097631384290e-02,8.347888380568331546e-03,3.872386772741905417e-03,7.986898720264434814e-02
3.664092912316642137e-01,-4.003708597934466096e-02,7.842099479971387233e-03,-2.346415212739251695e-03,-1.208083229967084424e-03,-3.383049072670023596e-03,3.848194181919097900e-01
2.907031227781341487e-01,-9.452928980318325847e-03,-2.851448551930793607e-02,9.578995086246397590e-05,1.410845124100111245e-03,-1.520228848165931356e-03,3.101473450660705566e-01
3.550957614499623549e-01,-1.862788458506126066e-02,-2.232924851405695965e-02,3.462230606782724929e-03,3.628232980184814722e-03,6.096670931387142105e-03,3.758368194103240967e-01
3.605243435644598926e-01,-2.723807287464613536e-02,-2.534645395249246480e-02,7.807476650231548118e-03,-2.568722448470580504e-04,3.134643903367030377e-03,3.870947062969207764e-01
3.417961666781915708e-01,-1.717621615493369891e-02,-1.140885148445100472e-02,1.572399450710179614e-02,1.214977006254757373e-02,1.483359971400045538e-02,3.587043285369873047e-01
3.535483599416035516e-01,-1.049758388711374835e-02,-2.630443287178066414e-02,5.732291799738713223e-03,8.252552331227190445e-04,7.781762206451095162e-03,3.725802004337310791e-01
3.931634993985637649e-01,-7.856896919651357170e-03,-4.606852480636136615e-02,1.875723084425759760e-02,1.044341619252919101e-02,1.289898057092969674e-02,4.236543178558349609e-01
3.397058038051399276e-01,-1.960138803023442344e-02,-4.323924977132459491e-02,4.241685994998828368e-04,-6.403973884232830273e-04,3.087941117058849781e-04,3.716930449008941650e-01
3.651601145807994442e-01,-3.999290002698080437e-02,7.115165183199212429e-03,3.334489356983678671e-03,-3.657307092232719992e-03,-2.418345288851230825e-03,3.838921487331390381e-01
3.668692648528966704e-01,8.155746203027947061e-03,-3.728034197058566201e-02,-2.634380335233384423e-03,-1.713960485478989958e-03,7.713423392904313752e-03,3.837271034717559814e-01
3.767441173916305508e-01,-9.530997133795210408e-03,-3.331909752386300050e-02,-2.568148136829488844e-03,-7.790352518231850182e-03,9.346992587793003654e-03,3.992831707000732422e-01
3.534715227416304062e-01,-3.577253567840854576e-02,-1.165654463331941559e-02,4.495579064476603291e-03,5.850084453685168396e-04,2.130274387621082348e-04,3.778456151485443115e-01
3.473703389735365299e-01,-1.667152716817149605e-02,-3.404799873880204331e-02,1.536992158649809828e-02,1.657611615909175551e-02,1.672810965325091659e-02,3.762003183364868164e-01
3.789133465593856331e-01,-1.529522116671458432e-02,-3.349395269012753196e-02,-3.178997195076392786e-03,-3.154024033111256422e-03,1.676193909053123876e-02,4.047329127788543701e-01
3.428608664708504006e-01,-2.801042182738794351e-02,-3.596534383606767027e-02,-7.122524206977314497e-04,-4.182785674495275070e-05,-6.562335756040122738e-03,3.750863373279571533e-01
3.514856762226241660e-01,-2.076860261088728232e-02,-1.415677763477088402e-02,-7.804450375101998610e-04,1.824512788159861462e-04,1.729148713862219567e-03,3.690075576305389404e-01
3.286824668366530311e-01,-2.063793274383066145e-02,-2.575813113417060873e-02,-2.568776527862410512e-03,-1.596167613969822624e-02,-2.353391799505151569e-03,3.530443012714385986e-01
3.541988685045114882e-01,-3.486131540686532304e-02,-1.146020065104377816e-02,-3.498079018265371279e-03,1.843774277034502390e-03,-1.664871620264919889e-04,3.779655992984771729e-01
3.372290520118935153e-01,-2.731864081899043617e-02,-2.669270908783219487e-02,1.099888525857066045e-03,-9.154247222808104337e-03,4.687983611837947119e-04,3.645859658718109131e-01
3.430274208447000039e-01,-1.997206327418329930e-02,-4.164737225713380231e-02,6.897355878141533860e-04,1.950102100059133720e-03,3.849174036122488484e-04,3.743258714675903320e-01
3.288423874998060992e-01,-3.810712274989042081e-02,-3.066613097913431507e-02,1.613694939788834493e-02,-4.150514385864580158e-02,-7.544586417006391918e-03,3.716138303279876709e-01
3.558151284903058875e-01,-2.596916797662715548e-02,-2.840356147214270766e-02,2.407075846594924212e-03,5.461196329564168249e-03,8.341693363350311712e-04,3.831495046615600586e-01
3.694765464622225548e-01,-3.821569851794290318e-02,-2.314448816947331511e-02,4.909383300299763157e-03,-1.622442053713814628e-02,5.375666943613197427e-03,4.015524685382843018e-01
2.973679936345924313e-01,-1.894002741900994990e-02,-3.316037774215929712e-02,-2.341264355270785140e-04,-3.120543483661501055e-02,-1.489973166722051868e-03,3.281450271606445312e-01
3.138322588636885402e-01,-3.548796367054141143e-02,-1.902389759542690018e-02,1.397276674970050758e-02,-4.282029146586084113e-03,4.076707222702772616e-03,3.423960208892822266e-01
3.380884164775130873e-01,-3.381924425713750404e-02,-2.418421359038927521e-02,3.716478197754551072e-03,-3.028051158545796203e-03,3.604760122318814188e-03,3.673318922519683838e-01
3.440309266540206301e-01,-3.062466005260136570e-02,-2.924586683923965924e-02,4.786181394367170459e-04,-6.557673320907456832e-03,3.076761863160578075e-03,3.741794228553771973e-01
3.541272423689302284e-01,-3.432242333435894799e-02,-2.480119788894993849e-02,4.847439315689919780e-03,-2.326167707823771462e-03,3.708817555320151078e-03,3.839443624019622803e-01
3.411746692821070459e-01,-2.505568860067577952e-02,-2.338700524234249567e-02,6.281092709113298735e-03,-3.488533159670802880e-03,1.131608195026145120e-04,3.656107783317565918e-01
3.605116540919329204e-01,-1.582507881291483898e-02,-9.840919354315774692e-03,-7.652741331163844841e-04,-6.807168779837449442e-05,-2.077288141152093884e-02,3.751125037670135498e-01
8.450779051935305985e-02,-1.977277525980633555e-02,-2.449800970743744311e-03,-2.495881661714373975e-03,-5.362718983118910758e-03,2.566206948533262394e-02,1.069984212517738342e-01
3.552088388366575478e-01,-3.294220067673070407e-02,-3.306107005480365957e-02,-2.975817988163132768e-04,-1.520725383284403950e-04,-6.508027991093131388e-04,3.882125616073608398e-01
1.061069980512372307e-01,1.849230419267548081e-03,-2.362728572791307491e-02,-5.630171895664581871e-02,1.362379104056633122e-02,2.844912642586598737e-03,1.557742357254028320e-01
3.208410801309202753e-01,-1.376915910892879957e-02,-3.955172475433521573e-02,-5.755939834732959684e-04,-2.585283875473434485e-04,-1.078421313833639828e-03,3.482248485088348389e-01
3.325493329952767252e-01,-2.796322552605701173e-02,-2.768000390791419685e-02,-4.735389133805323596e-04,-5.852984798134424965e-04,-6.594259097587513475e-03,3.605543375015258789e-01
1.079600173917094480e-01,9.383101539720471035e-03,-6.364456699559667419e-02,-2.338432049543128291e-02,-2.611578403823374556e-02,5.802922114366620629e-04,1.610493212938308716e-01
8.456899364147978104e-02,-2.815114613362092177e-02,-2.300906059620436150e-02,-3.088237952242622181e-03,8.533511663980031248e-03,-2.035966205852084501e-02,1.168044358491897583e-01
3.566459688507078729e-01,-4.741497198225225196e-02,1.084692427530749292e-02,-2.231593975303568927e-02,7.459347288538595647e-03,-6.514330761745024297e-03,3.806659579277038574e-01
3.523286898660195066e-01,-3.355825849388510695e-03,-1.523742067737501871e-02,-5.903397941643097335e-02,-7.138397653702888146e-02,4.196442413287873596e-02,4.023727476596832275e-01
3.509921261886229660e-01,-1.215594782283738184e-03,-5.702566060445590779e-02,-6.574212773181890845e-02,-9.691305520038970972e-03,4.172881893914243828e-02,4.065630435943603516e-01
3.681962171523486260e-01,3.785038524316691744e-03,-2.179271055037648730e-02,2.874379743848257986e-03,6.570345079481492790e-04,2.302239729317124076e-02,3.799825310707092285e-01
3.546959015240673807e-01,-2.697390451528353106e-02,-2.794361303769724025e-02,-1.178723609966248745e-03,-2.439296482040595351e-04,4.088017584733808136e-04,3.821619153022766113e-01
4.040633498283119351e-01,-1.304633501255389461e-02,-3.332833849132946225e-02,-6.784596356378820928e-03,8.818539932412677038e-04,1.784872985817134022e-02,4.288913905620574951e-01
2.659832467544797074e-01,-1.958198577371832172e-02,-2.062666132483650938e-02,-6.298506418097193742e-03,3.224385444955425034e-02,6.490959209894468264e-03,2.919097840785980225e-01
4.684046882427334579e-01,-1.299130365098569162e-02,-4.138428099399651949e-02,-4.002966152600190286e-02,1.530120004154361321e-02,3.598859852970318074e-02,5.055804252624511719e-01
3.195248566185951988e-01,-3.648857976650349277e-02,-1.428617422603682685e-02,1.016731839493388231e-02,4.272051063691648110e-03,-7.899187283463361730e-04,3.459782004356384277e-01
3.593121627904254933e-01,-3.383661903464579845e-02,-5.718038038070277773e-03,1.339047848054951027e-03,6.211009133137374363e-03,3.928499409701433596e-03,3.800911009311676025e-01
1.930035467376074176e-01,1.815145113712404723e-03,-9.463844440628851884e-03,-6.050165569825113887e-02,3.369245391160521907e-02,2.619886901736371426e-03,2.307468801736831665e-01
3.551452332887168328e-01,-3.117421599587275050e-02,-2.960326669057911086e-02,-1.124946684512590856e-03,2.039301298246149873e-04,-9.631214519813138634e-04,3.855450749397277832e-01
2.924041372806537309e-01,-2.339692596794354373e-02,-2.578476149324364364e-02,-5.033407265518047985e-02,3.144523335124530319e-03,1.131420637534467444e-03,3.288223743438720703e-01
3.487797655285745368e-01,-2.695605096615222296e-02,-3.643357470489275163e-02,1.030590946385246243e-05,-4.148981240248763853e-04,-7.056307217575524381e-04,3.805657327175140381e-01
3.536832194909992899e-01,-2.645031594661373386e-02,-2.606001984892022949e-02,3.798714202591509342e-04,4.065483250795904821e-03,4.771370761515440913e-04,3.800052404403686523e-01
1.890205462035205730e-01,-1.337104072281024292e-02,-6.229101810952958340e-04,-3.916393784647927145e-02,-7.913344705559427830e-03,-2.777700643279186130e-03,2.082239389419555664e-01
2.847057169583395719e-01,-2.732325584473602187e-02,-5.837452463482079024e-03,-1.624505755300792789e-02,4.335398051652926583e-03,4.617565838101199242e-03,3.033670783042907715e-01
3.551709890838855577e-01,-2.841590657450418500e-02,-2.414021728242218834e-02,7.495845502772180771e-04,-2.984434970213513372e-04,-9.629875700396620672e-04,3.814732432365417480e-01
2.967669243817363522e-01,-1.967597332931296517e-02,-2.717008232556009095e-02,-6.980082309360009785e-02,1.833094375926817496e-02,1.970832851678343029e-04,3.437853753566741943e-01
2.759459394439630620e-01,-2.496062588957186079e-02,-1.012829928655599454e-02,-3.182517438334773324e-02,2.136242671846060991e-03,-3.990150399362187884e-03,2.990010082721710205e-01
3.535309189369411631e-01,-2.730553811389721530e-02,-2.398440750021826884e-02,-1.524312332153858777e-03,7.288301007788143895e-03,-2.087361776925567101e-03,3.794232904911041260e-01
3.778747705157590175e-01,-4.114095354904950819e-03,-3.338879986406609324e-02,-1.624412335983753560e-04,-2.154937833559149220e-03,1.339656958474929119e-02,3.981300294399261475e-01
4.214371085875209255e-01,-3.568643610682717404e-02,1.001326359019921730e-02,-6.444360340957945577e-03,-6.699701066961917962e-04,3.907974481543151357e-02,4.414381086826324463e-01
4.050879573069212092e-01,5.454912950021956197e-03,-3.960321599816107874e-02,-1.999890226021925829e-02,-2.134129537617372729e-02,3.434548171935929151e-02,4.311015903949737549e-01
4.647480792119011439e-01,-3.769391995119689143e-02,-1.396270534592350399e-02,8.073246808222609566e-03,-8.217780798576679313e-02,4.631786015772298287e-02,5.176665782928466797e-01
3.542023824055652859e-01,-2.387131343508094861e-02,-2.448146277844334695e-02,-4.470591897473400362e-05,1.028724964592914182e-03,-8.813682625825872336e-05,3.783833682537078857e-01
4.282356707268260565e-01,-1.067900077887648513e-02,-3.917235890201711812e-02,-6.145157852104561613e-02,-2.510441080317989820e-02,4.537132077997964308e-02,4.747202992439270020e-01
3.914478742435024694e-01,-4.212281597090042351e-02,4.691411082755919670e-03,4.272550543577157203e-03,5.112398369483479171e-03,1.886041729406751077e-02,4.136159420013427734e-01
3.536670965799842969e-01,-3.108327419193401830e-02,-3.559925965998000930e-02,-4.598582483757744296e-04,1.109061340842777774e-04,-1.998075337703847723e-03,3.870444595813751221e-01
3.521831929115956106e-01,-2.514203154702410181e-02,-2.307573874068580277e-02,-5.991674019663162376e-03,-7.442117041505769137e-03,1.578129902546583424e-03,3.766699731349945068e-01
3.592383566358011149e-01,-2.257724173628372633e-02,-1.137334332309883345e-02,3.953801755855289985e-04,-6.928271944254306425e-04,8.752177479548163205e-03,3.766464591026306152e-01
3.861506396533468388e-01,-1.803562855096008111e-02,-2.314705522758403466e-02,-5.722331939439107007e-03,-1.094446751807939822e-02,1.718714427999178465e-02,4.084145128726959229e-01
3.517204754653596166e-01,-3.678093174247101804e-02,-1.714059899582046076e-02,1.391462325108710563e-03,-2.594479775277635375e-02,1.546689553506298311e-02,3.826639056205749512e-01
4.211872283256886118e-01,-2.688020932568793708e-02,-1.068925125931469156e-02,-6.694841929792347268e-03,-1.284376813053418435e-02,3.284223420012866157e-02,4.445639550685882568e-01
3.420066982088412755e-01,-2.513019119888165731e-02,-2.375686287903983063e-02,-3.948934222369976030e-03,-3.032766353555487512e-03,8.776465728290699236e-04,3.665567636489868164e-01
3.329689449204314422e-01,-3.642544126334612553e-02,-2.167921840847936155e-02,6.678390322461700765e-03,-4.974807624084339255e-04,-6.006835375161695629e-04,3.624336123466491699e-01
3.011146502638381017e-01,-1.932672252890502151e-02,-1.864943647601478849e-02,2.866985237029760769e-02,2.016433332634582493e-02,-1.211761807044690626e-03,3.258161842823028564e-01
3.403745096257270175e-01,-9.324370370571100075e-03,-2.998528245862444597e-02,2.185716144760277077e-02,7.392605259423586789e-03,9.958026704820419073e-03,3.630921542644500732e-01
3.303782397876727228e-01,-1.824308666440641047e-02,-3.340417315695848322e-02,2.456549630542570126e-02,1.401602331516094493e-02,-1.119167661145818986e-03,3.597994744777679443e-01
3.071136298410963583e-01,-1.310489692217692292e-02,-3.999313601269152696e-02,3.554692018996602476e-02,2.137809908948535426e-02,5.740169509228681185e-04,3.421049714088439941e-01
3.438014559953802562e-01,-2.579490820972055176e-02,-2.702627727852505157e-02,7.847470830747459158e-03,-2.185763010845059081e-04,-7.663799613602597120e-04,3.704655766487121582e-01
3.266753616827075546e-01,-2.420280154392190353e-02,-2.292636178361531774e-02,3.633971150725108512e-02,-1.565186322208215325e-02,6.548113670048943784e-03,3.570637702941894531e-01
3.342731737590614594e-01,-1.887242802839442235e-02,-2.445183632900216342e-02,1.492505703982854176e-02,4.099034375903170234e-03,4.297773858671019229e-03,3.570537567138671875e-01
3.104192708345820395e-01,-3.357865106334220751e-02,-1.769430834600779767e-02,1.933012162347798671e-02,3.270525004733640384e-03,-2.936006419980667550e-03,3.380852043628692627e-01
3.352360446724697018e-01,-2.577658567255933231e-02,-2.787662444412003504e-02,1.393018088748090508e-02,9.385325462192032828e-03,-1.418716110215839481e-03,3.632425069808959961e-01
1.772314188268288015e-01,6.099777033986411579e-03,4.391316187864383047e-03,1.574272311948851774e-03,-3.557838750727710525e-02,6.835545054310614328e-04,1.827228218317031860e-01
2.533009548816452794e-01,-9.739994276624669434e-03,-3.419384758693107262e-02,1.683722199625144189e-02,-5.666997391294298358e-02,6.206028455673191606e-03,2.946546673774719238e-01
1.318550599567064885e-01,3.386904981698926620e-03,1.151274070810906491e-04,2.534892024039948552e-02,-3.258345197259535780e-02,3.978853686813681526e-03,1.486449837684631348e-01
2.153152085774389657e-01,-6.303854887085957870e-02,1.723583188702763197e-02,-1.743014605046721774e-02,-6.113567882670069287e-02,7.013925076788117378e-03,2.717569470405578613e-01
3.559709139264885525e-01,-3.110011774829235520e-02,-3.244475560583204299e-02,7.117891999507552784e-04,-3.432079511016916488e-04,-7.609687951410414389e-04,3.877497613430023193e-01
2.062121648225486714e-01,-1.079078511239438265e-02,-2.139605789395718216e-02,-2.132014180400140790e-02,-8.307337386840782378e-02,1.720716136342652358e-02,2.691831886768341064e-01
1.991160985223961177e-01,-1.330936636915187876e-02,2.122846459411523862e-02,-2.157920599137912870e-02,-6.365181971401417949e-02,2.672430048308351361e-02,2.338267266750335693e-01
1.721179154695207381e-01,-1.711985307606096740e-02,-6.250791955524429011e-03,-3.554439579638741381e-02,3.920679948178382862e-02,-4.174465049008228498e-03,2.057334333658218384e-01
2.893497078578182724e-01,-2.967003474675380947e-02,-2.251720987695721155e-02,5.560455397186275794e-03,-4.798485331297980272e-02,-5.495421176350777630e-04,3.264110386371612549e-01
2.341870704981691698e-01,-1.035346557493503628e-02,4.633639260798044779e-04,-1.505806719319804921e-02,-1.053624060408749757e-02,-4.537167312858467368e-03,2.415511459112167358e-01
1.899173931142509320e-01,-1.394801543648609143e-02,-1.083344562746127449e-03,-2.739144569449204411e-02,-3.697454494302301886e-02,-1.944230093886875838e-03,2.132311165332794189e-01
1.863129460798115256e-01,-5.565708283068668272e-03,-5.438026502890963565e-04,-4.880889502547040154e-02,-1.011705113040398986e-02,-7.010527903603032147e-04,2.081694155931472778e-01
3.504523630945359236e-01,-2.664969025008043224e-02,-3.414568610182738828e-02,-1.158197188940232733e-03,2.397357836829420129e-03,1.014953855015538484e-03,3.809373378753662109e-01
2.488303581490035055e-01,-2.448998483423794892e-02,-4.139068039553023270e-03,-3.984334313431998204e-02,-1.040606319614051541e-02,-3.588516846366534944e-03,2.732797265052795410e-01
2.810517515391042220e-01,-2.352035607898519953e-02,-1.870596959432885287e-02,-2.455905296162611343e-02,-1.886590831852310093e-02,-9.764571989880026573e-03,3.073829412460327148e-01
2.816353046832387741e-01,-2.234390562317721540e-02,-2.127161067798762073e-02,-2.379455282597330718e-02,-1.803118501985088995e-02,-9.168842441948939215e-03,3.082282841205596924e-01
2.901385281429137986e-01,-2.334125088517316482e-02,-2.416621682810697613e-02,-3.255676436338856422e-02,-2.849803836981636487e-03,-7.729416340688157611e-03,3.192370533943176270e-01
3.704224058303977607e-01,-3.799153054192361267e-02,-1.001899428204372500e-02,-6.713605146155441142e-03,1.115230144385205742e-02,-3.874680986976682378e-03,3.958704471588134766e-01
2.627904826317373765e-01,-1.711155652827256457e-02,-1.980576212385748436e-02,-4.328960508877600921e-02,-2.650649944571775024e-02,1.337296261086302939e-04,2.946800589561462402e-01
2.725355610238670012e-01,-2.470349633024783442e-02,-1.279285314218094050e-02,-3.120995575014664375e-02,-1.127962444466109465e-02,-3.463676120617790663e-03,2.971405088901519775e-01
3.324542274003841058e-01,-2.837021925932967092e-02,-3.067122628695823083e-02,5.504903646562745194e-04,-1.032835851738088222e-03,6.025780656587674533e-03,3.621365427970886230e-01
2.954237776029730034e-01,-2.332500390638625465e-02,-2.270982337777359417e-02,-2.723717884144999379e-02,-3.276376771020383244e-02,-8.445996710714344033e-03,3.272079825401306152e-01
3.431943270262891588e-01,-3.460611893207615752e-02,-2.532641913189481730e-02,-6.453975085747733383e-03,5.452965890110175393e-03,3.236095349682473112e-03,3.735759556293487549e-01
3.405179003574514973e-01,-2.711936177552165539e-02,-3.440444562284467045e-02,9.977432661685409210e-04,-4.336800661267359042e-04,4.594379490231988682e-03,3.714234530925750732e-01
2.384198405913420804e-01,-1.781307496119929890e-02,-1.705428587220846059e-02,-6.989579694886024694e-03,-2.796315778415400799e-02,-9.754381749172185562e-03,2.612264752388000488e-01
2.250155052463815031e-01,-1.092448688815617075e-02,-1.710294761566247268e-02,-5.222027955522674791e-02,3.466943555013985573e-02,-9.321372182059021148e-04,2.625890076160430908e-01
3.577179209591447862e-01,-2.721580591686967310e-02,-8.793402763527580213e-03,-5.950237405521159768e-03,1.861939567787830596e-02,-1.418976511968165176e-02,3.783811032772064209e-01
1.630021241670708276e-01,6.632965943076593596e-03,1.898553323189852704e-02,-5.245020126161305946e-02,1.111346503224026339e-01,-2.781063459390558518e-02,2.651385068893432617e-01
1.354940870913254325e-01,-3.427017533732551469e-02,1.579756879914698264e-03,5.563127731024505168e-02,3.360865351688378105e-02,7.420648281074087790e-03,1.919828802347183228e-01
1.799471607313552768e-01,5.226070873761402835e-03,-8.836743171175845402e-03,-7.932694178829394552e-03,3.259921301427051721e-02,-1.353447631295885819e-03,1.912189722061157227e-01
1.925908150634190741e-01,-8.136116808979493298e-03,-9.394935336113921509e-03,-4.141054325205663356e-02,6.035431977029626083e-02,1.652093579487013807e-03,2.379625737667083740e-01
3.544724822273264131e-01,-2.878626701243147679e-02,-2.883306329748491770e-02,-1.564036766514235099e-03,1.911802452004177783e-03,1.173786690966952505e-03,3.833114206790924072e-01
3.658469603882055776e-01,-6.324844744506202820e-03,-4.674987528857701968e-02,-3.639237502652996337e-02,4.026824161417971726e-02,-8.147356591729451591e-03,4.052505791187286377e-01
1.985565679825542773e-01,-9.712865866866260411e-03,-8.978706884937001642e-03,2.289000076157355831e-02,5.500930119436490962e-02,4.783645918270363825e-03,2.322549670934677124e-01
3.341722530330427654e-01,-1.872810528652518736e-02,-4.044686193319863010e-02,3.459565550630429656e-04,5.065591887837758538e-03,1.846110020984019625e-03,3.643658757209777832e-01
2.269707184682600853e-01,-1.023275303667735281e-02,-1.003401796008354663e-02,-3.326355979771979804e-02,2.409536087839744822e-02,8.597879348313351364e-03,2.479945719242095947e-01
4.140812406719926453e-01,-5.893156747498184966e-04,-3.326716006795610303e-02,6.013205201537893951e-02,-2.576984917392376173e-02,-3.292898174370112452e-02,4.501809179782867432e-01
4.939757994352000359e-01,-6.251010765390418999e-04,-5.076969416266477464e-02,1.235789539185054575e-02,-2.889724757458123072e-02,-2.109669429439166299e-02,5.255897641181945801e-01
4.830277126364979079e-01,-2.271411270214548916e-02,-4.600186573014342084e-02,2.011127094973591545e-02,-1.663096500191154833e-02,-4.256003545723219955e-02,5.249494314193725586e-01
5.586930250914483587e-01,-1.860151114950131523e-02,-3.693905627779944800e-02,3.857773492182445252e-02,9.423181261733054592e-03,-3.668271145873970573e-02,5.941038727760314941e-01
4.149094216065350449e-01,-5.102695053549460846e-03,-3.768098758675181292e-02,6.655899736733783545e-02,-2.426856660993211359e-02,-4.467128829851491761e-02,4.606501460075378418e-01
3.460442620526448243e-01,-2.275183374269157399e-02,-3.130486501857357440e-02,-1.627065083103828311e-03,-1.751573750258560765e-03,1.231405960146640449e-03,3.731752038002014160e-01
3.470997533902109300e-01,-2.534050318925515355e-02,-3.734792571033995756e-02,-1.071879574268409709e-03,6.299500957539347704e-03,1.048442263626557774e-03,3.787529170513153076e-01
3.894788387974288391e-01,-1.491110815016238877e-03,-1.795475216605621482e-02,4.688534261230275363e-02,-5.042149555870351768e-02,-3.519136504373415048e-02,4.213102459907531738e-01
3.561682615360948212e-01,-3.274907486302466864e-02,-1.289468947285177247e-02,-2.404955799518686136e-04,-2.419442703174545448e-03,8.001967545729910935e-04,3.794058859348297119e-01
3.665330221246115294e-01,-3.507417366069959241e-02,-2.374188883034816788e-02,-1.085327937829862199e-02,-1.912859843387686859e-02,7.948658210950481848e-03,3.981284499168395996e-01
3.566580081675320701e-01,-1.730806529003320327e-02,-1.127991773701858547e-02,-1.725376669635961951e-03,-2.319795611046333254e-03,1.336625122957835199e-02,3.717441260814666748e-01
3.416446909446871905e-01,-2.507025013125246948e-02,-2.274495642756418912e-02,-3.972370716719181641e-03,-2.885477479231486966e-03,5.709845130447229909e-04,3.656580746173858643e-01
3.544753037752727542e-01,-2.917484824383381747e-02,-3.004648529105821697e-02,4.341902866090129867e-04,1.160779242568505017e-03,-1.494675604316901855e-03,3.841014206409454346e-01
3.446851626800353507e-01,-3.598353697564152243e-02,-2.780631036476877149e-02,1.734719896621509424e-04,-2.716771236434542612e-04,-5.797363798693820104e-03,3.767808973789215088e-01
3.550048184274127716e-01,-2.604379267402090470e-02,-2.455793916089832329e-02,-1.354619577882578861e-03,-2.194083883510941592e-04,-4.471457647308147267e-04,3.803160786628723145e-01
3.766495725088859770e-01,-1.751393178380833415e-02,-1.967305120982443256e-02,1.197008568428444561e-03,-2.195573246236787179e-03,-1.820613347836863918e-02,3.965270817279815674e-01
4.143625818474952482e-01,-1.387526957035600805e-02,-1.283392898463792120e-02,-6.016224228907477746e-03,4.683817692627476048e-03,-2.449295315664862943e-02,4.300196766853332520e-01
3.705534392002708954e-01,-1.997972954878851626e-02,-2.070910235268597077e-02,-6.556286321953761972e-03,6.600952009183143170e-03,-1.155526444204629626e-02,3.917419910430908203e-01
3.611303860710584068e-01,-5.631123239347168852e-04,-3.027956083460828229e-02,3.306668147932582871e-03,2.506798843219736842e-03,-1.363304674220044976e-02,3.782363533973693848e-01
2.366825616491898543e-01,-2.341900922577910826e-02,-3.472546549251484538e-03,2.415417280803056066e-02,8.377794862239514029e-02,1.279031320884018059e-02,2.935300171375274658e-01
3.474517209553799058e-01,-3.941309132179432462e-02,-2.346455248762654988e-02,5.856060011150123965e-04,1.638665357045689108e-03,-1.066419905007976853e-03,3.791586756706237793e-01
3.747381784697414453e-01,-6.757276501669490232e-03,-3.097660554886577655e-02,-7.256793992760673245e-03,1.931407623360532899e-03,-8.716479217673956184e-03,3.946669697761535645e-01
3.638459542310181760e-01,-1.612594512253406887e-02,-1.702305082446733953e-02,-5.635200766992582442e-04,-3.336310851851030570e-03,-1.280216078407541390e-02,3.811120092868804932e-01
3.479212890953948811e-01,-3.256120816588450873e-02,-3.029161268957958342e-02,1.237036683409907176e-03,2.124092620904806470e-03,-2.820241938862698763e-03,3.794081211090087891e-01
2.192854548940185999e-01,-4.325517179953160263e-02,-3.269446590113377071e-02,4.054901127308576519e-02,5.884353129783799485e-02,3.410218425839301598e-02,2.916774153709411621e-01
3.712607690446602660e-01,-1.977699530330978561e-02,-2.789521416897550177e-02,-6.557295022469936813e-03,5.234125615895422398e-03,-1.169194712984768583e-02,3.959447741508483887e-01
3.820335419630965790e-01,9.266295615428798982e-05,-3.302095533337029432e-02,7.659754926695860194e-03,-4.456729376511933162e-03,-2.483559160989623482e-02,4.021303355693817139e-01
4.277976864945558511e-01,5.897056260575572750e-03,-4.841560029864974690e-02,-1.544171220377863266e-02,8.758423043109574493e-03,-2.925514554973569076e-02,4.553873240947723389e-01
3.316403758054112805e-01,-2.706655171607938448e-02,-2.759965625074839446e-02,1.210899761593535809e-02,6.135897107754372665e-03,-1.867101575187529033e-03,3.597575128078460693e-01
3.328263761914108110e-01,1.022065650077609578e-02,-5.143772289018916366e-02,2.421948319402630195e-02,-1.776834146070675746e-02,-2.277257416578451293e-04,3.612126708030700684e-01
3.540772170201171298e-01,-1.858762131628372005e-02,-2.443223711259848163e-02,6.508964475660654640e-04,-2.359233770001141484e-03,7.990413517007445999e-05,3.756451904773712158e-01
3.223410119789478223e-01,-3.226010139972668167e-02,-2.012248655022441657e-02,1.467554098518525363e-02,5.856093033056110515e-03,-7.057954092262102436e-03,3.499767184257507324e-01
3.000658282974676960e-01,-2.762630124815110277e-02,-2.487561799323839695e-02,6.663980096310974377e-02,-1.684838227035939228e-04,-3.422504627956501726e-03,3.461880087852478027e-01
3.033288426632460011e-01,2.142966120085837423e-02,-4.099075650413624983e-02,6.957411859202415616e-02,-5.453566022038849014e-03,1.188436560234716784e-02,3.405794203281402588e-01
3.325205187122866057e-01,-2.698141117396690714e-02,-2.328714460302433453e-02,1.075272924390027751e-02,8.866619581087793397e-04,-6.795308267248834511e-04,3.581588864326477051e-01
4.352774334394128308e-01,-2.758971245042721177e-02,-3.178841767574683286e-02,6.457532566545112242e-03,-5.284069272964702670e-03,-2.694620523022744560e-02,4.675406217575073242e-01
3.261753400934955804e-01,-3.876162512886324740e-02,-1.457109513829918379e-02,-3.966458365298128623e-04,1.033023578694193794e-03,3.101246567098751850e-03,3.535090982913970947e-01
3.778173598463927529e-01,-3.604190510613639042e-02,1.987237603565811250e-03,4.660043537624912469e-03,-1.268125451818807783e-03,-2.427062845005515529e-02,3.985274732112884521e-01
3.529434439263407497e-01,-2.674829531004097039e-02,2.188395848839452817e-04,-2.138906641532243333e-04,1.072101223449144171e-03,3.136166129701245097e-03,3.669971823692321777e-01
3.445800703021434375e-01,-2.692949034496947003e-02,-2.972939105659186398e-02,2.375348927936583258e-03,-7.210882875974142237e-03,3.958645574298058113e-03,3.732121586799621582e-01
3.571339317352696385e-01,-3.337677219327792044e-02,-1.831310944819397601e-02,8.401803093128317997e-04,-1.069965347884380309e-02,3.988108508659126729e-03,3.837138116359710693e-01
3.301548397698268467e-01,-2.214624138898310668e-02,-3.564232705864003870e-02,4.309208354941283098e-03,1.063289518763270783e-02,-5.514150392189478590e-03,3.599152565002441406e-01
3.553493582697916930e-01,-1.933481306766704488e-02,-2.675297955773492387e-02,-5.699631777574358342e-03,-6.958123912122434959e-03,-7.135991057633958752e-03,3.789699077606201172e-01
4.024016193540335684e-01,-9.049846863365740290e-03,-2.826329987527409493e-02,3.320681894482459262e-02,-3.532690760926341690e-03,-1.395841485044094048e-02,4.260245263576507568e-01
1.675892913751868551e-01,4.822443527813274899e-03,4.301071980587163612e-03,-4.339110497696627156e-03,3.644688164349367543e-03,-1.905583147632970709e-03,1.633566915988922119e-01
3.019437149771291851e-01,-1.878285871049480138e-02,-2.925988436056375930e-02,7.667815134355831282e-04,9.409520664983113056e-04,6.363274895268569709e-03,3.262843191623687744e-01
3.442027802058212349e-01,-3.667072164156831571e-02,-2.712093221457381742e-02,1.675474066847895368e-04,-6.262295521906352958e-04,4.348582997818876278e-03,3.762665987014770508e-01
3.710862602690182532e-01,-1.029987336489190941e-02,-3.393217192274947114e-02,5.301062604634566855e-03,-3.988620598472976050e-03,-7.330096546216333803e-03,3.941067457199096680e-01
3.613272786591833485e-01,-2.921396460583336463e-02,-1.292068407749930037e-02,-7.416022853165104949e-04,-6.006936066628902962e-03,-7.661982865155552574e-03,3.830283880233764648e-01
2.431174658715410108e-01,3.685865963348883279e-04,-1.531130966875381139e-02,-8.609923045617199049e-04,2.347627069666353115e-03,3.979089582522349691e-03,2.510884404182434082e-01
3.581408352435133668e-01,-7.170475542751714171e-03,-3.031830926050910202e-02,-1.016749757591811718e-03,6.955484379587442700e-03,-1.395783285620304931e-02,3.783874213695526123e-01
3.541345870101581528e-01,-2.388580194204720231e-02,-2.357182974201932346e-02,5.116718530201639454e-04,-1.899295098649101104e-03,-2.230316993649962640e-03,3.778986036777496338e-01
3.520899623594431205e-01,-2.217001893651815436e-02,-2.661856741878407262e-02,1.001493211676532727e-02,-6.407999285199027749e-03,-8.281252865579376635e-03,3.773394525051116943e-01
3.539026552915519597e-01,-2.448897772615132862e-02,-2.762051227428349853e-02,-3.303574585160578506e-03,-3.748354940573662107e-04,-9.687469048820098014e-05,3.800107538700103760e-01
3.321901634473164999e-01,-2.876094748054047745e-02,-2.826119303793805937e-02,5.551718527975877835e-04,-1.068632677581202650e-03,7.110256632098029862e-03,3.609176874160766602e-01
3.512408136362334954e-01,-2.429556581727299047e-02,-1.460647004129297932e-02,7.727428240890642230e-03,1.135641069528446753e-03,7.447848870523981861e-03,3.712576627731323242e-01
3.545386352126266294e-01,-3.224271609734477573e-02,-2.685239731629404658e-02,-1.560128224205510096e-03,7.332825415179706000e-03,1.988655144859587196e-03,3.843494057655334473e-01
3.514176482718732730e-01,-1.359478912571152054e-02,-1.282780049047430038e-02,-1.812613158793742289e-03,-1.394747483729753303e-03,3.294974013363789235e-03,3.646957278251647949e-01
3.664064287194056524e-01,-2.926072591889283814e-02,4.512859107375061241e-03,-5.689922931315352130e-03,-7.160455347893236386e-03,1.560839154158463228e-02,3.811979293823242188e-01
3.096541966519379963e-01,-2.914267156098154787e-02,-2.006783496250626186e-02,9.416769983827394245e-05,-4.710661884770644871e-04,5.799691196121111586e-03,3.345037400722503662e-01
3.019123690226915291e-01,-1.793414753002910145e-02,-2.986504311556409386e-02,4.696639372916362786e-04,1.146091815467783917e-03,6.496045321785492987e-03,3.261769413948059082e-01
3.519336208207179961e-01,-1.915500073951517668e-02,-1.017859081013644529e-02,-9.385250584228867037e-04,-2.154668158616636960e-03,2.065070856516986256e-03,3.667228817939758301e-01
3.520218562016088071e-01,-1.567148925405975612e-02,-1.790484874252165626e-02,-9.651889003248629098e-04,-2.493413696657030879e-04,5.546481698069356467e-03,3.689442276954650879e-01
3.567224052288939240e-01,-1.962977972961366113e-02,-2.434006841348534955e-02,2.083548135594883149e-03,3.952962424812639028e-03,5.012830313404467546e-03,3.789078593254089355e-01
2.905324084490963354e-01,-7.333942769800663730e-03,-2.929531406007174210e-02,-2.696879661218838046e-03,1.724305775128708810e-03,4.097920770368862139e-03,3.095631301403045654e-01
3.750823388163594951e-01,-1.465938286384071976e-02,-2.392089845289879779e-02,9.717437915513738814e-04,-3.231162337486239572e-03,1.398794540987539047e-02,3.952406048774719238e-01
3.519478382605629729e-01,-1.377265017592527174e-02,-1.196705273974851824e-02,-5.841138635817520438e-04,-3.244381561952622089e-04,6.136008003602839468e-03,3.649776577949523926e-01
3.517157303350197939e-01,-2.246709587924691776e-02,-4.754002732436174439e-03,-2.073194396280344468e-03,8.260555572535347845e-04,5.119526763200141217e-03,3.657761216163635254e-01
3.535237427552010425e-01,-3.219890441099684808e-02,-2.969087436844075611e-02,-1.152665127703521135e-03,-3.800639121711687682e-04,-3.310104413709819351e-04,3.844809532165527344e-01
3.032712711088965674e-01,-1.835791680636195133e-02,-2.811774866548072405e-02,-6.920916547037902437e-04,2.316010074934706544e-05,-7.199101316884865855e-03,3.268586099147796631e-01
3.514659871833289984e-01,-1.368794059704334098e-02,-1.777959432663775430e-02,-1.197549188418499779e-03,-3.204233641665043923e-03,5.014520198006380131e-03,3.673673272132873535e-01
3.451238573923301467e-01,-3.482038945932064422e-02,-2.897364062890311898e-02,9.378123650609635972e-03,7.135541869709669319e-03,-3.580737229416517103e-03,3.776578307151794434e-01
3.451304964597204372e-01,-3.126239351042883752e-02,-2.881128845446004338e-02,3.950894430487055659e-03,2.291267706165740509e-03,-3.036983757010304312e-03,3.752936124801635742e-01
1.610173752815527437e-01,6.984025032634344488e-03,8.738410761882746403e-03,2.276828767193705104e-03,1.106317674129508833e-03,3.961291935333777475e-04,1.532279700040817261e-01
2.042760669119087213e-01,2.455690862749965175e-03,5.643959509445156675e-03,6.144531097391714436e-03,-1.731836300729512092e-03,-1.034722113772720917e-03,2.005583345890045166e-01
1.778263578414866763e-01,2.672034302719811238e-03,-2.599691551211327778e-03,1.119114475168501120e-02,1.064301828561350395e-02,1.984617102395077378e-03,1.798820644617080688e-01
2.203608356311649308e-01,-1.296024480848978477e-03,4.281351780179673550e-03,-8.875435477202698459e-03,-4.074079554625152644e-03,-2.098957200950644832e-03,2.196040451526641846e-01
2.196906246554611863e-01,1.923278251947810324e-03,-2.352178092946771715e-03,5.722103305809473316e-03,9.521215440106509803e-03,-8.043027605399766028e-04,2.207806110382080078e-01
3.479222389953824934e-01,-3.099824139590767746e-02,-2.645008165904541575e-02,6.292643514312000431e-04,-1.404724026523740551e-04,1.674972117772881286e-04,3.766687512397766113e-01
3.329547252451980910e-01,-2.990488421008730135e-02,-2.883662125992703107e-02,-3.865547548168331480e-06,-2.946709271280581054e-04,-8.269220833443561430e-03,3.626099824905395508e-01
2.517388109742488278e-01,-6.324471746942741945e-03,-1.928589308003444969e-02,-3.795998981132358598e-03,2.762097752946810619e-02,4.819097021515387179e-03,2.692790031433105469e-01
2.261067970825040574e-01,1.038626624557809075e-04,-7.837561959916444776e-03,2.837535865019983131e-03,1.334576962496337310e-02,-2.847613227443094447e-03,2.313395589590072632e-01
2.304750942949572723e-01,-1.361243819833241053e-03,-2.829232377801027543e-03,8.472543375117574504e-04,9.006189276785508957e-03,-1.047537887019146796e-03,2.331080287694931030e-01
3.297317264754099919e-01,-2.812050193308249235e-02,-2.822837512092116197e-02,-5.170128588103953737e-04,8.833091629270185385e-04,7.016299651903825339e-03,3.581168353557586670e-01
2.133747290074699543e-01,-5.722063238302876886e-04,8.498006541015762361e-04,-1.617563080091095787e-04,1.263092938491495185e-03,-1.513161898779147741e-03,2.132669985294342041e-01
1.675876816554798254e-01,3.741207499185911223e-04,1.123255966293271180e-03,-9.863795010294374582e-03,-1.010850326434677149e-02,1.773667057579236773e-03,1.686521172523498535e-01
3.328359732141107363e-01,-2.199066618723163891e-02,-3.695802362722364065e-02,-1.482293356718599299e-03,-9.308986186185950334e-03,-1.414398196645953948e-03,3.629178106784820557e-01
3.292692841753694366e-01,-1.437517552546052624e-02,-3.734032556327579466e-02,1.089948092995674141e-02,-8.736351773062025691e-03,2.290419945206403733e-03,3.565275073051452637e-01
2.979939181290814920e-01,-1.118116416436469585e-02,-2.946310213449213067e-02,6.441913139266538905e-03,-1.658084790821081136e-02,3.325789605577245036e-03,3.202471435070037842e-01
2.984091532230654931e-01,-2.857790938635251798e-02,-1.550105171019589001e-02,-2.916453801022058506e-02,-6.791210883470235118e-03,-6.439262189296293334e-03,3.250077664852142334e-01
3.544191675558846510e-01,-3.356844578533338397e-02,-2.865490064402531623e-02,-1.555568749499906160e-03,-3.663832292111713295e-04,1.730270884188039090e-03,3.855759203433990479e-01
2.867408301708576079e-01,-4.330507829110735729e-03,-2.702610690880202782e-02,-4.255539977902431797e-03,-1.844811634978633583e-02,-9.878077669958494796e-04,3.048309385776519775e-01
3.369126557757019524e-01,-2.414752185075991209e-02,-3.586036744530632370e-02,7.745037187920651017e-03,-5.738338607082052976e-03,5.840300438546688205e-03,3.675754964351654053e-01
3.062071541947677389e-01,-2.298357624904373564e-02,-2.579880360412581397e-02,7.128162909883589650e-04,-4.098186392481001361e-02,-1.372234226500029623e-03,3.381522297859191895e-01
3.274026189754999927e-01,-3.474512930248058185e-02,-1.888897779148673850e-02,1.549254589249633024e-02,-7.896265855975501385e-04,-7.708950566042059799e-04,3.555050492286682129e-01
3.416626112111104119e-01,-2.565015494212838365e-02,-2.412080906501301580e-02,3.261549437029750802e-03,7.102544954148989551e-03,1.450587682304842760e-03,3.668089807033538818e-01
3.481048452151652151e-01,-2.977091885853330733e-02,-2.812529117378673171e-02,5.336003986723010777e-04,9.686055069176921842e-03,-3.903628097763286748e-04,3.774304389953613281e-01
3.580203057840249392e-01,-3.165711971180013018e-02,-2.404521189135025439e-02,6.640204304677227486e-04,1.695897247803434746e-02,1.691515233412722299e-03,3.870567977428436279e-01
3.421954582138141410e-01,-3.858719129334764464e-02,-2.241737280816924471e-02,-6.153464752789668040e-04,5.468473786182525718e-04,-9.063681273589564496e-04,3.729667663574218750e-01
3.614895238223925777e-01,-2.690821888149455554e-02,-2.876473319968023135e-02,6.401773877274496462e-03,8.928569360506351249e-03,-9.129104088825327709e-05,3.897941112518310547e-01
5.482264799891691798e-01,-3.647826552933761124e-02,-2.661615475241185802e-02,-3.938097360247756751e-02,-5.408722005627233931e-02,4.437268898140608181e-02,5.962768793106079102e-01
3.576592552915036083e-01,-2.293595624886388129e-02,-3.246262650045553255e-02,2.877264731712782936e-02,2.663632204915618307e-02,2.474629845922737131e-03,3.914073705673217773e-01
3.344152906798781855e-01,-3.657028813664647826e-02,-2.078259132676060772e-02,5.487777224172917532e-04,-3.070961159151512046e-04,5.574095934663887350e-03,3.634789288043975830e-01
3.650568345526380432e-01,-4.499193492311820419e-02,9.269683720609031563e-03,-1.969617044172669758e-03,-5.028747391893715474e-03,-2.497373314526657537e-03,3.859282433986663818e-01
3.034460212155689618e-01,-1.740134909491344861e-02,-2.883559493062390344e-02,-5.202887981416367234e-03,-3.438342544199033866e-04,-5.497986996157572942e-03,3.269780874252319336e-01
2.437115280118702376e-01,-5.615401727371724383e-03,-1.415006204223329123e-02,-2.101777433866697763e-03,2.524262978539905562e-03,1.288828155916490982e-03,2.537755370140075684e-01
3.790042955475784736e-01,-4.649774646908588771e-02,1.730780479345742084e-02,-2.256182114358120435e-03,-1.023142017812674748e-02,4.857272121032471524e-03,3.979621231555938721e-01
3.620605044864116939e-01,-3.922469909319523107e-02,4.768248097621580195e-03,1.383988402740126897e-03,3.324114460727988288e-03,7.066623001820301030e-04,3.812504112720489502e-01
3.529641970204283608e-01,-2.564938366882632548e-02,-2.606730915877242261e-02,-7.573242934851591099e-03,-1.519017697044826700e-03,9.927725017926432999e-04,3.790627717971801758e-01
3.619712504281686893e-01,-4.170312407302970148e-02,7.990681539514682408e-03,2.842374133486826136e-03,-4.709742620432496446e-03,6.025496841431197265e-03,3.815259635448455811e-01
3.721206245556337722e-01,-4.663318560593965323e-02,1.499904916492428297e-02,-1.628445409422600760e-04,3.392910429999410060e-03,3.728790498300638655e-03,3.916897773742675781e-01
3.451934978997941994e-01,-2.816504122323301718e-02,-2.329006403937128322e-02,-1.726185097245164050e-03,3.464627539224075618e-03,2.016593418823002005e-03,3.710221052169799805e-01
2.856269546937749149e-01,-1.743520465807518738e-02,-1.753720731206662165e-02,-2.618981684301567494e-04,6.173684782196704355e-04,6.036600915138047412e-03,3.032956719398498535e-01
5.538497222627296601e-01,-3.584237950732260813e-03,-6.672516913607684508e-02,-4.247035538419753620e-02,-1.403775021620808127e-04,-3.143905464473147060e-02,5.985756516456604004e-01
3.453728282101372060e-01,-3.109934874588801690e-02,-2.612042658120258820e-02,-1.860970293766867414e-02,3.960607848101785344e-02,2.099297791926238964e-03,3.816277980804443359e-01
3.077371437462465553e-01,-1.584998062207987335e-02,-2.508230827588439626e-02,-1.139722567864356190e-02,1.133927003266643231e-02,8.974480562922887081e-03,3.298459947109222412e-01
3.513276394064992481e-01,-1.629048470473704047e-02,-1.504442196542354893e-02,-1.872731599493615161e-04,-2.412601916955071013e-04,4.289802505818665276e-03,3.670722544193267822e-01
3.073935993540165557e-01,-3.169905946249254591e-02,-1.505105655406085985e-02,-1.930570430622413863e-04,-7.320125223891299027e-05,-4.250404162494126822e-03,3.311647474765777588e-01
2.888154000478612149e-01,-9.399857416741944083e-03,-2.742224151206149041e-02,-4.579981685845742508e-03,1.724153153883165729e-02,4.310439393664806593e-03,3.092606961727142334e-01
2.323489384199570462e-01,-9.661000679074993602e-03,-1.172125545766199151e-02,-1.862524370660030917e-02,1.000598647720377619e-02,5.514937872262115105e-03,2.459755241870880127e-01
2.529603051320442608e-01,-1.614429248831039665e-03,-1.491017325292513795e-02,-4.845104634157819390e-04,2.451841551876744567e-03,-1.229970366413150624e-03,2.615207731723785400e-01
3.404010410778262052e-01,-2.022222654806213327e-02,-3.614133984369360952e-02,-8.568539112599769803e-03,2.421249430455213111e-02,3.107403774913277111e-03,3.715525865554809570e-01
2.155522798996778178e-01,1.522815191579748872e-03,1.445262652934126146e-03,6.419843508194029991e-04,1.301330579130957664e-03,-3.472028691264751219e-04,2.140838503837585449e-01
3.850443731402051761e-01,-9.265446300816160274e-03,-2.164871709985319304e-02,3.730945947613156788e-02,3.290584580625863231e-02,1.668796679207928957e-02,4.108238816261291504e-01
2.991302626753995497e-01,-1.550207774776771186e-02,-3.284188795606524103e-02,-4.725326508258402558e-03,2.859996269320991963e-02,4.920479176688735863e-03,3.276329338550567627e-01
2.696972690568935627e-01,-1.454324848700284945e-02,-2.161678521680479581e-02,-2.468987349796809144e-02,4.092274174936839232e-02,5.053048024800598295e-03,2.996375858783721924e-01
3.438581254554446964e-01,-2.294582042094803209e-02,-1.739992512927998614e-02,-1.880184572922838707e-02,-8.934802125328534378e-03,5.938288783985889996e-03,3.659883141517639160e-01
8.936384392883625627e-02,6.832143341385214091e-03,6.557998593104130691e-03,-2.663039924120718521e-02,-2.838672057616520999e-02,-5.567876788512295637e-03,1.071080714464187622e-01
3.553018698229123418e-01,-2.559017052318174335e-02,-2.800800201020878233e-02,4.688817522008463003e-04,-1.680580964682734397e-03,-3.249050550016965096e-04,3.821190595626831055e-01
3.506715236168416738e-01,-3.178861411034392126e-02,-2.730985028727506148e-02,1.266684683549771815e-03,-7.258819373138113628e-04,-9.315028095072112229e-04,3.802523612976074219e-01
3.281245897446377069e-01,-3.791256891627267644e-02,-1.854670346452780283e-02,5.134905397036887680e-04,-2.492791956084634375e-04,-2.480232714989714753e-03,3.567759096622467041e-01
3.350764107975061079e-01,-2.147634759931030257e-02,-2.621779818659503158e-02,-4.321947151390422015e-02,-5.249857415646637382e-02,1.345187181892543854e-03,3.777835667133331299e-01
2.770049244166082336e-01,-1.967954262334438431e-02,-1.854172346720814324e-02,-3.624421630630259017e-02,-5.133524178886881423e-02,2.699045074312214978e-03,3.155219554901123047e-01
3.357041194750702284e-01,-3.589124922520764427e-02,-2.197605364842900033e-02,-9.404051268181736986e-05,-8.692002593882379793e-04,-4.012113878037259530e-03,3.649061620235443115e-01
3.329766756732269184e-01,-2.439927216499890306e-02,-3.297807592019377787e-02,-1.489202129064871871e-03,-1.292020206221099025e-02,-4.283502244244345898e-03,3.625183105468750000e-01
3.281069379310715406e-01,-2.365316786201068777e-02,-3.484669429076747704e-02,-2.724487541972152749e-03,-5.482843051561487116e-03,-5.080898990397918549e-03,3.577538430690765381e-01
3.553763769946774453e-01,-2.690207028351607188e-02,-2.725857701608261352e-02,9.362699064866700054e-04,-6.690967884276976868e-04,-1.588817477476774662e-03,3.824719190597534180e-01
3.380549508219204968e-01,-3.004490384375144152e-02,-2.352348189468014827e-02,-2.185118967386385017e-02,-6.020031151859093349e-03,-1.745569977665238897e-03,3.670010566711425781e-01
3.505457448766677309e-01,-2.885847954758566369e-02,-3.080734251589403727e-02,3.746482729782420890e-03,3.127338425875051818e-04,-3.182795361231928900e-03,3.804780840873718262e-01
3.482166235647741193e-01,-2.740277842240901318e-02,-3.524150708837703316e-02,-4.054773532955405083e-04,-3.412070027811625085e-03,-2.942736662738064130e-03,3.796803355216979980e-01
3.405421331289439912e-01,-2.553216869316862758e-02,-3.501678336946564829e-02,-1.116258224900085021e-02,-2.236072758635823665e-02,-6.780367186576996726e-03,3.736096322536468506e-01
3.268883241784682481e-01,-2.453317635254573248e-02,-2.915982126736105240e-02,-1.673163517040488412e-03,-6.350098863401391382e-03,-7.053812783404578637e-03,3.541511297225952148e-01
3.400032676988569702e-01,-2.722879305134431882e-02,-3.191734951916327945e-02,-9.450862914714561885e-03,-2.588382714719116365e-02,-5.602985151526742973e-03,3.727937936782836914e-01
3.517327256241741806e-01,-3.053576831012486115e-02,-3.117894507405291615e-02,-3.397157992799371265e-05,4.353074048607519231e-04,-1.355990324430803680e-03,3.825984299182891846e-01
3.372533467832329324e-01,-2.999890087522993909e-02,-3.138136496398274966e-02,-2.266189063184252585e-03,-7.834854981955532982e-03,-5.787016745945254212e-03,3.683529198169708252e-01
3.475260108271934212e-01,-2.757211683894569831e-02,-3.320441954082697933e-02,-4.958058160693374836e-03,-1.080345700539172248e-02,-5.297959735310317497e-03,3.786173462867736816e-01
4.083483343269619370e-01,-5.409872906298063278e-02,-1.482133506933575040e-03,1.987188130885341603e-03,-2.195411312984895183e-02,1.174805225504287412e-02,4.406418502330780029e-01
3.895818745465268185e-01,-4.528759509936047811e-02,7.546725950739685551e-03,-4.149616496669905792e-03,-3.349784890923261649e-02,2.631681201750119079e-03,4.151694178581237793e-01
2.959153736708853843e-01,-4.215862068703390975e-02,3.068127278640112032e-02,-4.972036533674290514e-03,-8.104547112874056769e-02,1.002930274178524470e-02,3.391982316970825195e-01
4.314888561525349608e-01,-6.095598967167625837e-02,2.318852711201008221e-02,8.677150621934661551e-03,-3.398267637512684958e-02,4.398371492870326027e-03,4.603195488452911377e-01
3.662453740421213744e-01,-4.472411992161021144e-02,7.009466942691389146e-03,-6.845908182752689225e-03,-1.907572124711280626e-02,-1.005028463301176414e-02,3.896750509738922119e-01
4.007314106446973612e-01,-5.774254247722601652e-02,9.953470285051640998e-03,1.125687359799883679e-02,-2.212892339114880952e-02,-2.635059092494863257e-03,4.308297932147979736e-01
3.524137342357370750e-01,-2.736976227436749287e-02,-2.772920434215481178e-02,-8.774218755300475237e-03,8.319357941596499870e-03,2.389421697841003812e-03,3.805625736713409424e-01
3.575397239057370169e-01,-2.348597983513384113e-02,-2.778956213215280635e-02,-2.134470831504017493e-02,-1.015145971535680747e-03,-6.696699028216373216e-03,3.851536214351654053e-01
3.441178176044749071e-01,-5.705660705526777177e-03,-3.121217656980296296e-02,-1.192107402456459020e-02,8.351614603229995729e-03,-4.334420807696885355e-03,3.642001748085021973e-01
1.836549018880982986e-01,5.799999489471407976e-03,1.691552290222650412e-03,8.315817816385486644e-03,2.751229283352690791e-02,9.221729094157186946e-04,1.867103129625320435e-01
9.982138790596402356e-02,-4.107839992030987153e-03,-3.229382415273035489e-02,5.068219803698904846e-03,6.164946959642629565e-02,1.554337246997224142e-02,1.634897589683532715e-01
2.952021899691303908e-01,-2.857607669655334859e-02,-1.274794228678231833e-02,-1.598585287906787410e-03,9.266780238925543915e-04,-4.015014322468527484e-03,3.162541687488555908e-01
1.047959892643690327e-01,-5.674341960824179354e-02,1.208890954340346990e-02,-1.734813202103034635e-02,4.050821262380150528e-02,-1.441542313118671093e-02,1.617490947246551514e-01
8.581881854914595598e-02,-7.556263326128541402e-03,7.100760059259966089e-03,-5.819372143428114610e-03,5.920278366645710666e-02,-2.038939094012608057e-03,1.348855346441268921e-01
1.787585204812259243e-01,-1.029061738297257222e-02,-6.438576819754182612e-03,-4.664711539894375938e-03,4.988691257700055698e-02,-1.050906334025064615e-02,2.070963531732559204e-01
2.968627511086849857e-01,-2.947391486881628664e-02,-1.368141273367767807e-02,-7.537188630023071044e-04,5.911969895065734629e-04,1.535486138360628913e-03,3.187493979930877686e-01
3.288193005958485737e-01,-3.807191225944525637e-02,-1.824088196171752552e-02,-4.279016829173121726e-04,3.527414685735053576e-04,-2.796751590610288638e-03,3.574227094650268555e-01
2.728285051790266813e-01,-1.370021376554390879e-02,-1.829619644333894957e-02,1.960010801617056986e-02,7.965375209878844398e-02,4.320493515192137118e-03,3.219928145408630371e-01
3.018513859695859947e-01,-3.234696395207919961e-02,-1.473380993130414540e-02,-2.226380663188570058e-02,1.713498671703754181e-03,2.728015674290938165e-04,3.280374109745025635e-01
2.226172298923407289e-01,-2.000471004705889344e-02,-1.446657098206248493e-02,-6.941664687283513255e-03,8.135474744140115677e-02,-8.684673592309675658e-03,2.788889110088348389e-01
2.157094549284464535e-01,-1.691317622626371808e-02,-1.024318620167742611e-02,-1.582205509096899082e-02,5.694003652913816327e-02,-3.705845307532834414e-03,2.512466907501220703e-01
3.352951305518333536e-01,-3.820000450144861448e-02,-2.097771430874356691e-02,-9.676602638188118097e-04,9.250798744537889855e-04,-5.116339485749855399e-03,3.653035461902618408e-01
2.627586308711190588e-01,-1.564458102251455041e-02,-7.737447051564233513e-03,-1.506300340350573809e-03,7.156757061907842703e-04,1.257583961254629332e-03,2.745589017868041992e-01
4.943877150389200392e-01,-6.362390317280613994e-03,-4.419147299768985682e-02,-5.552917436286416986e-02,-6.312480565111957750e-03,-3.678611409397375409e-02,5.334362983703613281e-01
4.186719066460709571e-01,-7.056998221229848767e-04,-3.760919312605373599e-02,-2.245442407935013471e-02,2.338461224383307432e-02,-3.098427352216808275e-02,4.458129107952117920e-01
3.544727750643114628e-01,-2.453236282402718182e-02,-2.688859161570014700e-02,-3.252791427402805524e-03,-1.134387753561320270e-03,-1.476500137094222803e-04,3.802356421947479248e-01
4.545297374203622898e-01,2.261666003064977115e-02,-8.277655336684047738e-02,-1.013727958084334052e-01,-9.617997107568488496e-03,8.703518547885341627e-03,5.239384174346923828e-01
3.759726349003469359e-01,-1.203143508094112191e-02,-3.687390375538840415e-02,-2.125782265827021959e-03,-6.825932837665929509e-03,-3.228507210331029321e-03,4.012329578399658203e-01
3.075816491395891861e-01,-2.304915617516500870e-02,-2.255138469032838544e-02,-7.421868139637924355e-03,-1.697169902893541985e-02,-7.701630026540434021e-03,3.322043120861053467e-01
3.835702593712265185e-01,-6.114227469175559371e-03,-3.964953508744603616e-02,-3.213527865971410602e-02,-1.058654995907359897e-02,-1.105841110298402645e-02,4.121260941028594971e-01
4.150566481839114696e-01,-7.024750975443055934e-03,-2.945787939015789836e-02,-2.166353719785917356e-02,2.001045374136660449e-02,-1.874454367952006067e-02,4.379358589649200439e-01
3.897976073114828299e-01,6.697549145650211200e-03,-3.762885131941601236e-02,6.604600703381299787e-03,-4.609802149694443123e-03,-1.508576989301034683e-02,4.081535041332244873e-01
5.556913489032371256e-01,-3.198710328864512453e-03,-5.586664815275460549e-02,-4.346391249013314972e-02,-1.306804568596496748e-02,-2.968110161503148547e-02,5.944662690162658691e-01
2.473670327907387945e-01,-1.029841429458373814e-02,-1.975605104991540184e-02,-8.297417453960225170e-04,4.893741739195888590e-02,-7.497851189457036469e-04,2.758735120296478271e-01
3.404941381513472698e-01,-2.305500202862931225e-02,-2.814017941429031167e-02,-5.713873191262932043e-05,6.812430363401018873e-03,-3.094010403145416258e-03,3.663475215435028076e-01
2.036355258498278031e-01,3.102921513504747209e-03,2.278259559367751264e-04,-8.928827934880864420e-04,2.159311924698797264e-03,6.989079178830646076e-04,2.020296752452850342e-01
3.051255902671993203e-01,-1.862333132054204421e-02,-3.673728920909058449e-02,-5.043506620548101303e-03,3.205760805469691499e-02,-1.464445009575332914e-03,3.378929793834686279e-01
3.423904588136013616e-01,-2.537436922069966072e-02,-3.275082555764258219e-02,-1.682872060528391080e-04,3.132642718694563649e-03,2.905119016837534682e-03,3.715817928314208984e-01
1.067218080923126172e-01,3.570847561358707345e-02,-4.774011287556545469e-02,9.993135467767358393e-02,-2.551169060108938319e-02,2.738256388971078981e-02,2.282395809888839722e-01
3.555912164636969575e-01,-3.309795274823215672e-02,-1.386002286956475316e-02,1.758064085324593032e-03,2.249870927444628209e-03,-1.513789823789372197e-03,3.794774413108825684e-01
3.490090628757531177e-01,-3.232573315400644187e-02,-3.339784871906256725e-02,-7.489330543932195064e-03,1.094183150346993670e-02,8.045300569310851954e-03,3.828156590461730957e-01
2.202574435412063825e-01,-1.136499598293594371e-03,3.257396271704418589e-03,2.110077595601058190e-03,-1.265369461461186016e-03,1.651139206586685945e-03,2.192900925874710083e-01
3.065322998426771028e-01,-2.011784853429469944e-02,-3.327633315198139097e-02,9.747028632270093515e-03,3.685745653924012155e-02,-5.607007155701602442e-03,3.400388658046722412e-01
3.246843523603301640e-01,-1.859904463311601308e-02,-3.663323745438609724e-02,1.709165196815863857e-03,9.579448092722080838e-03,-2.216467373519088449e-04,3.530492484569549561e-01
2.743471925839389147e-01,-1.535723599927692196e-02,-1.549416936834709102e-02,2.519586900260141048e-03,-1.418709144316396926e-03,6.798552867537972257e-03,2.900553345680236816e-01
3.188131781726825098e-01,-2.060953882827379346e-02,-3.529464139867116712e-02,-5.862957416968889342e-03,1.108404186222194596e-02,-2.633619110466120538e-04,3.476777076721191406e-01
3.013653388152313095e-01,-2.279337290960860296e-02,-2.524505535514789956e-02,-3.069189693556303306e-02,2.918549182542589521e-02,6.486133604250513170e-03,3.337471783161163330e-01
3.550219080334846566e-01,-3.045331887641439250e-02,-2.773330366468232389e-02,-5.553269712583213356e-03,1.167007875816928469e-02,-1.963599758765460085e-03,3.847891688346862793e-01
2.879088059225027862e-01,-2.911757552043864328e-02,-1.261700064259557719e-02,5.426400833228744742e-04,9.564356320026431719e-05,1.458514326567643751e-03,3.091183900833129883e-01
3.428239006777637488e-01,-4.130183810748949691e-02,-2.140162742248843952e-02,3.400672676419250889e-03,3.244534370165337925e-04,-2.003981955123576315e-03,3.746351301670074463e-01
3.820890655693137128e-01,-2.862895101722304214e-02,-3.129563143024641225e-02,7.019170275974291606e-02,6.118702381124177525e-02,4.609369514910567622e-02,4.496417641639709473e-01
3.416321971637317212e-01,-4.160013689524152958e-02,-2.253580122265028129e-02,-9.280618222373526304e-04,4.288969691606044250e-04,6.257597079192260981e-04,3.740704655647277832e-01
3.414622722581523995e-01,-2.375865431570717279e-02,-2.712675480543777495e-02,1.321123097836274934e-02,1.403990580951692407e-02,-1.261599205919350765e-04,3.684328794479370117e-01
3.590421263665519169e-01,-2.624473517684688950e-02,-9.980865957857742998e-03,1.717774367614990840e-04,1.060757728724672031e-03,1.750006438476448207e-03,3.774346113204956055e-01
3.414910390841212617e-01,-2.835044202761627385e-02,-3.588742957293500346e-02,-4.468056629847083107e-03,3.406340574542030680e-02,-2.399617547532998589e-04,3.783755004405975342e-01
3.446651701393661504e-01,-3.989438995109687025e-02,-2.365028457001575046e-02,2.469352122853480172e-03,-7.443943586408852207e-04,1.128168187037390489e-03,3.767318427562713623e-01
3.388273984482066958e-01,-4.271949662880122900e-02,-1.971927962281078139e-02,-5.928052206036150875e-04,-1.181790245369468233e-04,-2.862228190444695468e-04,3.705843091011047363e-01
3.527195749699586491e-01,-2.248631636500739162e-02,-1.211978654314541104e-02,1.510711131675220942e-03,2.665642585671282056e-03,5.977375021992019366e-03,3.703143298625946045e-01
3.503826901230006063e-01,-1.583671116151150193e-02,-1.260052161786534564e-02,-9.346933728588554483e-04,-3.212443771440692732e-04,2.470984890707518013e-03,3.646412193775177002e-01
3.132310374872848691e-01,-1.837852388149728566e-02,-3.331974189462938440e-02,2.003045693073786035e-03,1.580159104235964035e-02,-1.494217357914441949e-03,3.404564559459686279e-01
3.507153592150130672e-01,-2.600770804185015272e-02,-3.542727872613282702e-02,4.391679320269891882e-04,5.056043251279289559e-03,-9.926252154983587588e-04,3.816252052783966064e-01
2.767678624787557884e-01,-2.622151980068264387e-02,-1.687550883023294923e-02,-1.988446758408303483e-02,-9.102884781684509111e-03,-6.621167267453676245e-03,3.010389506816864014e-01
3.568242791688066573e-01,-2.402472316568063371e-02,-1.269825578508285147e-02,2.796741460120772804e-03,8.503587214398975955e-03,8.195985367780676822e-03,3.759022355079650879e-01
3.167729786159984573e-01,-2.446900783859454198e-02,-2.848681806564101748e-02,1.884041090788980688e-02,1.303563742917426306e-02,-8.936358665517025318e-03,3.459010422229766846e-01
3.341569880216964661e-01,-3.878105314780008750e-02,-2.175468735934987796e-02,-1.123090112392566373e-03,2.579259985332598695e-04,3.280885864105378275e-03,3.647727668285369873e-01
3.134068772661186553e-01,-2.416397534535624780e-02,-2.658040146225082445e-02,1.536012798781443561e-02,-1.731679231631492316e-02,1.021071873812008993e-02,3.416077196598052979e-01
3.549742390563405681e-01,-3.075119984313096078e-02,-2.841286579053101113e-02,4.427115833525264998e-03,1.608236654547631241e-03,-2.352496880995571995e-03,3.846697211265563965e-01
3.937424247175979608e-01,-1.316932281981134101e-02,-2.321172055298809100e-02,-2.312548285836757249e-03,-6.124034067085976085e-03,2.341748482357181374e-02,4.141715466976165771e-01
3.533516047942912297e-01,-2.978108841358498293e-02,-3.240428083123053637e-02,-1.247470955561770858e-03,-5.868140275567609735e-04,9.720650333240737906e-04,3.844621181488037109e-01
3.225042682977767861e-01,-2.511639773932319852e-02,-3.325865155757418146e-02,4.519948766927781025e-02,1.175694334604627557e-02,2.257844324691270135e-03,3.609650731086730957e-01
3.474185053428433534e-01,-2.828229891878439317e-02,-3.456311001040959785e-02,2.740641681027350656e-03,7.135944787504228462e-03,-7.260533765912573385e-03,3.793200552463531494e-01
3.390198564347416954e-01,-4.267505097999216290e-02,-1.845497174989590983e-02,4.578473051627729223e-05,6.098768135849394901e-05,-6.493066320905097012e-04,3.701813220977783203e-01
3.503651825373236273e-01,-3.627051354227309177e-02,-2.682552200183899171e-02,1.074664995280286139e-02,3.567725069919440786e-04,-1.075949676555244426e-03,3.824590444564819336e-01
3.478993924005137628e-01,-3.206290240127462887e-02,-3.477890347137638227e-02,1.452505301148495492e-02,1.053481972823420640e-02,-5.027259065718781179e-03,3.826909959316253662e-01
3.183333574692755463e-01,-2.553460545983146646e-02,-3.023387344081684969e-02,1.135003928556700681e-02,1.428672572889551351e-02,-4.615510118630371771e-03,3.477727770805358887e-01
4.052051880754488078e-01,-2.078626395664098792e-02,-3.462296767545045006e-02,-8.824148305691276520e-03,1.204478148389551660e-03,2.304553016431342902e-02,4.351847171783447266e-01
3.916456372353647186e-01,-2.773700541335785696e-02,-2.293841195087989449e-02,-9.934280038347681127e-03,-1.477845451864836721e-02,2.659847311761392649e-02,4.206733703613281250e-01
3.676209253704754709e-01,-2.747846626597100217e-02,-1.732630031258416969e-02,-1.977295868339820628e-02,-1.784907223687549546e-02,1.253902677419242023e-02,3.934410214424133301e-01
3.539632481018289978e-01,-2.143877509495617506e-02,-1.542589001328420473e-02,2.863337552695545667e-03,-1.016392435819527462e-03,6.901714019507589754e-04,3.724710941314697266e-01
3.559342501246877677e-01,-2.669631222401891435e-02,-2.053818867024106987e-02,-5.547954622557373615e-03,-3.990844429325070622e-03,2.050308482903825686e-03,3.797900974750518799e-01
3.153611149675554781e-01,-2.741389099346322467e-02,-2.417228851227046227e-02,-1.723059823234227364e-02,-4.730226975090100379e-03,-4.727897178103058345e-03,3.426644802093505859e-01
3.682246814755102959e-01,-3.272153377419562137e-02,-1.405205811752729961e-02,-1.003030070578032028e-02,-3.751555034941998247e-03,8.869977613254273127e-03,3.926844000816345215e-01
3.572527510000597650e-01,-3.557464789184655585e-02,8.246835647699041205e-03,-1.887266007016248984e-03,3.419690294591016914e-03,2.580305285837893037e-03,3.729412257671356201e-01
3.308468254120165986e-01,-2.848276312692696322e-02,-2.823513282646814004e-02,-4.372576940391410772e-05,9.909381779937529203e-05,-7.184244347711327833e-03,3.594213426113128662e-01
3.527858991496806707e-01,-3.295948897114470144e-02,-3.034894164645937642e-02,-3.266501761345738295e-04,4.744185160591414888e-04,-3.460090577260726066e-04,3.844485282897949219e-01
3.496957540257548680e-01,-1.280186026317559067e-02,-1.568654057310597816e-02,-1.129533662425058656e-03,7.540170968359032836e-04,4.328619111801016058e-03,3.640333414077758789e-01
3.495945467123060535e-01,-2.701234136031804844e-02,-3.876352729861473612e-02,3.551132683724642796e-04,-6.791345303587665271e-04,-2.471868428920234294e-03,3.826440870761871338e-01
2.678159190485133734e-01,-2.549523020808129592e-02,-5.770435819117444853e-03,-1.836066276259204141e-02,-3.087033148592867055e-03,-4.148054999743354919e-03,2.858785390853881836e-01
3.720696430782917119e-01,-1.176502896654657571e-02,-2.602626829074869419e-02,-6.252903001438113277e-03,5.654735720249911071e-03,3.176264917255199743e-02,3.952799141407012939e-01
3.642593596519309029e-01,-1.492929514457957962e-02,-3.189746819357500152e-02,-2.713611251606366272e-03,-5.932874460178499780e-03,8.964387639678435965e-03,3.884261250495910645e-01
3.175423641417409182e-01,-2.631140371166104663e-02,-2.265571977386898750e-02,-4.220253079320752249e-02,2.962947909695443777e-02,7.451998763967895498e-04,3.535113930702209473e-01
3.730426096817120452e-01,2.785174872146464753e-02,-4.570409171152989281e-02,8.930706683185327815e-03,2.215178031245561199e-03,-4.611591529834392460e-03,3.876542150974273682e-01
3.525226201631304068e-01,-4.171721862650457080e-02,-1.294035114331362757e-02,-3.625227172627634720e-02,3.768974580824757670e-02,-9.268763046241324313e-03,3.916249871253967285e-01
3.698538756179300391e-01,-3.725514452758024730e-02,-5.671891623359875956e-03,1.584866161360475208e-03,1.141565025198539030e-02,-2.184754411893470930e-02,3.945983648300170898e-01
3.675629956427913791e-01,-2.974248123553077661e-02,-1.651072053528612749e-02,-5.442614455407278860e-03,2.420142073236128226e-03,-5.527310213553056004e-03,3.911109268665313721e-01
2.898724000797068268e-01,-2.255496601545822766e-02,-2.167973868254170766e-02,-3.593763001052377448e-02,3.172856020438331870e-02,1.947421295439986564e-04,3.228512704372406006e-01
3.720441726509398639e-01,-1.723483462895256113e-02,-3.040027476598561318e-02,1.348481043781778611e-04,-5.448237111594641602e-04,-4.808204565731880563e-03,3.961146473884582520e-01
3.568525424113710987e-01,-6.693151498493865592e-04,-2.999747398476312887e-02,-4.355776979700267532e-03,3.437863756044158906e-03,-4.943299026860858980e-03,3.732735812664031982e-01
3.622426460631730794e-01,-2.527388392110363480e-04,-3.881269549846125266e-02,-3.154689389245763677e-03,2.611163097929067312e-03,-4.842397504864963224e-03,3.833904564380645752e-01
3.596751324602644462e-01,6.782068309078098656e-03,-3.754427350894182225e-02,9.462468332238644503e-03,5.403937545076785941e-03,-2.036413243388197555e-03,3.775042593479156494e-01
3.593775967431244167e-01,-1.620096269195087091e-02,-3.454047350807765149e-02,-3.797912336331376454e-03,-6.927906643525029006e-04,-2.912449821005462514e-03,3.851670920848846436e-01
3.609221488008186318e-01,-1.611817120478278853e-02,-3.437674761536768653e-02,9.092507751197735633e-03,4.100780117497676569e-03,-2.597582384246941312e-03,3.869053125381469727e-01
3.526792445586029445e-01,-2.611804116265495357e-02,-3.212216211805674071e-03,-1.414056408055339642e-03,-5.231602156419229909e-04,-3.115672179125364601e-03,3.679284453392028809e-01
3.612718932123003546e-01,-1.003174342994575530e-02,-3.991986560807916917e-02,-8.081612110591872636e-03,2.160459392588976509e-03,1.916039850233939917e-03,3.873992860317230225e-01
2.160453128590008876e-01,-1.283288235917283415e-02,1.529448302290598027e-03,2.097499662116800168e-02,1.187248609205680816e-03,-3.954273042499265728e-03,2.251116782426834106e-01
2.844668797574368968e-01,-1.778285003256482866e-02,-1.673680541606253902e-02,-5.953107524791131358e-04,5.067849924064651975e-04,7.553764851237575358e-03,3.020146191120147705e-01
3.587157375322708175e-01,-2.672569261149493336e-02,-7.057625108168819050e-03,5.034115425837336344e-04,-4.157861278845016197e-04,-3.126574087450977903e-03,3.760341107845306396e-01
2.507174330268428508e-01,-6.304388593392135087e-03,-1.439167406306271491e-02,1.209034892131977991e-03,-3.209566686662654322e-03,1.572653459129856341e-03,2.612411379814147949e-01
3.641683382360069721e-01,-1.717262958709456222e-02,-1.079163639565783317e-02,2.540219310710628044e-03,-4.225468463998142445e-03,-1.280296196673525941e-02,3.789366483688354492e-01
3.533031956735532830e-01,-1.293100329272597881e-02,-1.818880305835313127e-02,2.736389302259673983e-03,-2.773463434083807844e-03,-6.444536345965034239e-03,3.691217303276062012e-01
3.139157686639265643e-01,-1.981323540541246597e-02,-2.892013015713273960e-02,4.818882632408900149e-05,8.024427019557870073e-04,6.984914702736324046e-03,3.385934531688690186e-01
3.697448153944758453e-01,-7.585952856224986718e-02,2.194615355916833266e-02,3.704017628892931902e-02,1.127524931724037116e-01,4.028621589935129504e-02,4.600769281387329102e-01
3.585574107800775234e-01,-1.230330665670675838e-02,-2.180654851936411620e-02,1.559201402447893013e-03,5.401360711027921452e-04,-8.056491959615745199e-03,3.759724199771881104e-01
3.753936659803597808e-01,-1.900605664514604110e-02,-2.548311231428679324e-03,8.053080169940647062e-04,7.227925825707619961e-03,-1.277141544379395942e-02,3.872713148593902588e-01
2.497266964269632683e-01,-1.278752914887203163e-02,-1.090570294882392544e-02,-7.642029187763825157e-04,-1.330813372221351272e-02,-5.202485173973100431e-03,2.627499103546142578e-01
3.596394253591463364e-01,-1.596316889336180100e-02,-1.804235443734569788e-02,-2.706453349668390320e-03,3.605203803892377545e-03,-1.957736528275613730e-02,3.782503902912139893e-01
3.752102534900199626e-01,-6.930132638651748112e-03,-1.173315179717523971e-02,9.245025312922115768e-03,-1.031421380995509000e-02,-2.780370518742554184e-02,3.883097469806671143e-01
3.557481573430360533e-01,1.161230099071312860e-02,-3.473985247164015910e-02,1.550659961734284897e-03,5.334095148823957133e-04,-3.245936329220371064e-03,3.695526123046875000e-01
3.598410746751780076e-01,-3.052449015614852601e-02,-6.936988883707806419e-03,1.929706616792510945e-03,-3.309124883206514961e-03,-1.308916472929222939e-02,3.798577189445495605e-01
3.480591937102338052e-01,-3.693807819546543469e-02,-2.358491319789599028e-02,3.935084580856759544e-03,7.950278944184275762e-04,-7.617040792318152112e-04,3.785635530948638916e-01
2.309224852377303183e-01,-6.695319136625507705e-03,-1.000817174400220333e-02,-9.103390224261447353e-03,-1.100066457639753761e-02,-6.411637648401781464e-03,2.408222854137420654e-01
3.559004048992963076e-01,1.234034422995522462e-04,-3.756821372238247636e-02,3.068516801898078794e-02,8.695446372917440755e-03,-7.454267431461306451e-03,3.802972733974456787e-01
3.499746434113896743e-01,-3.378133822058412838e-02,-2.408446271035416530e-02,3.128117381013725048e-03,1.551052015682427175e-03,1.030691168246738619e-03,3.790530562400817871e-01
3.549093607180343612e-01,-9.553546846072680232e-03,-2.780135342521836139e-02,1.599107865047559238e-02,-3.561320564901123906e-03,-1.014877753853671814e-02,3.754078149795532227e-01
3.428487523623337530e-01,-2.592212260911974653e-02,-2.359632753121093662e-02,3.405313193129716302e-03,-2.139427515452738387e-03,-8.711334128224253962e-04,3.676825761795043945e-01
3.623942480957467183e-01,-1.513634744669570265e-02,-2.198871732567361792e-02,1.376306318886466942e-02,-1.594252437671107164e-02,-1.449386978096708564e-02,3.835678100585937500e-01
2.144416021495266778e-01,-6.340137114496530168e-02,1.427971071357806571e-02,5.574937780803596032e-02,-7.602501570155859034e-02,-3.160397582383046161e-02,3.021717071533203125e-01
3.861639847860120489e-01,-1.839910384744777860e-02,-4.547972669481109564e-02,2.259512418095845770e-02,-1.387365602133227779e-02,-1.056925412894752989e-02,4.216688871383666992e-01
3.464698026142533083e-01,-2.389978578479365345e-02,-2.658891866835094708e-02,3.101003278935767025e-03,1.718464410644183538e-04,-9.959661189387842076e-04,3.717643618583679199e-01
3.560560121153354962e-01,-4.171730166223824865e-03,-2.878374163086930282e-02,1.000560337550408362e-03,2.787204906311622262e-03,-1.238710027544228515e-02,3.737944960594177246e-01
3.557890102263877030e-01,-1.882608102162250385e-02,-2.486438236879581765e-02,-1.143463430825910699e-03,2.976718443576553685e-03,-4.442011434639556167e-03,3.777891695499420166e-01
3.566614470646903290e-01,-1.546695715367879531e-02,-1.336449402135328479e-02,-3.140436133903648508e-03,2.836798210061026049e-03,-5.719756244663547554e-03,3.712862133979797363e-01
3.355352032764336578e-01,-2.249864512797311589e-02,-4.306998710685169818e-02,5.449570390341404100e-03,-2.025887101969413989e-02,8.412110308216433699e-03,3.708224594593048096e-01
1.565242616963726796e-01,-3.545291919551024629e-02,-4.686021833272943637e-02,5.896456081421300177e-02,5.518571974771814548e-02,1.372452964596512087e-02,2.435307800769805908e-01
3.503539039785499298e-01,-3.368802791458447299e-02,-2.702481622671856765e-02,3.264832824465316828e-03,-1.530580855787079574e-03,1.101030626889369212e-03,3.808100521564483643e-01
3.441629678433150707e-01,-2.109987604165225461e-02,-3.648001287689153771e-02,-1.204228135721800014e-03,-6.797140088052520263e-03,3.912851772242938175e-03,3.734436631202697754e-01
2.985246222743529465e-01,-1.697481327028023401e-02,-3.108245669440626302e-02,6.060504334067653293e-03,-2.393445598596538604e-02,6.033687816560736814e-03,3.257727026939392090e-01
3.350065084816663541e-01,-1.790351834236070250e-02,-2.648617197471656026e-02,3.876335395646150132e-04,-8.590184716008010535e-03,-2.002752329966697199e-03,3.576058149337768555e-01
3.414281627161874222e-01,-4.224626275641049644e-02,-1.952189409330629122e-02,-5.338019545938130044e-03,4.181945208501063049e-04,5.697730293701577624e-04,3.729486465454101562e-01
2.657536257634501853e-01,-2.147807945877175384e-02,-2.146756856662396240e-02,3.013734509646543575e-02,-4.232122786806238185e-02,8.488890538873070102e-03,3.013523817062377930e-01
3.393976413034967554e-01,-2.616026273371260813e-02,-2.650550796643866280e-02,4.609456530474479938e-03,-6.813835148197498401e-03,1.461899578319321913e-03,3.660168647766113281e-01
3.512752251731905417e-01,-2.679677028997529131e-02,-3.612383606905608668e-02,3.412443332276411494e-03,-6.937054105957490835e-03,4.485300129857418446e-03,3.831336498260498047e-01
4.488124137357940580e-01,2.524427869266382407e-02,-8.057980803854974949e-02,-1.006747073107358975e-01,4.376130084570214324e-03,-2.990658990052577886e-03,5.156770944595336914e-01
3.304132400546897497e-01,-2.598110752452142957e-02,-2.862582703443453114e-02,3.127483478787200337e-03,-1.026955867672704747e-02,7.236648758661689065e-03,3.584261834621429443e-01
3.446772069464794086e-01,-2.681280912584946274e-02,-3.586410601375675244e-02,-1.615896190950541532e-04,-2.045812536717820946e-03,3.544739989095791258e-03,3.761642575263977051e-01
3.340035036597462925e-01,-2.882439383887575035e-02,-2.610338406477788475e-02,1.065959601522928346e-02,-4.685862884356399582e-03,6.444581889975264932e-03,3.622092902660369873e-01
3.270509305714110471e-01,-3.820437265176837571e-02,-1.796312669764602021e-02,5.061458833010836975e-04,5.085368726120281790e-04,2.271684790276733319e-03,3.555909991264343262e-01
3.507568421607316078e-01,-2.665517873369679935e-02,-2.482758559206005300e-02,3.799440492019730796e-03,-1.242761986927095165e-03,-8.526991768391200101e-04,3.765681087970733643e-01
3.487623978088327803e-01,-3.920967510276204826e-02,-2.541191896507180581e-02,-3.474467749071960022e-03,4.242481930357338898e-04,8.571811914170823169e-04,3.813115954399108887e-01
3.456021124397202771e-01,-3.462813383291798996e-02,-2.705962787435434169e-02,3.564356089056452612e-03,1.812738097309887515e-03,5.481449507518870896e-03,3.766864240169525146e-01
3.479124214951213045e-01,-2.844505477098568935e-02,-2.904681991984581213e-02,3.577348327032282491e-03,-1.371669576575570764e-04,2.375183466938382820e-03,3.767322301864624023e-01
2.933302908789545138e-01,-1.719919796444512039e-02,-1.719940661625045386e-02,1.025393398860280835e-03,-9.610460620951555559e-05,-5.520015191692374291e-03,3.106818795204162598e-01
3.474287461763981844e-01,-3.930650771485030837e-02,-2.153705346915213426e-02,-3.713172980199764064e-03,-1.068103592252925456e-03,-1.416402951648759452e-04,3.782230615615844727e-01
3.502306155183405600e-01,-2.975813172696789577e-02,-3.280104807807712741e-02,3.508574410387705136e-03,-1.339894856701968374e-03,5.002195393984466658e-03,3.816730976104736328e-01
3.570838176697579969e-01,-4.188520016643326738e-03,-2.597570276923977239e-02,-4.192709107170512674e-04,-2.095094668686882378e-03,3.504251387338764255e-03,3.727117180824279785e-01
3.700366248658075730e-01,-4.072160596433249680e-02,2.196958275028870755e-02,-1.603263062489398375e-03,-6.981813145498052316e-04,1.065907103102199660e-02,3.837337791919708252e-01
3.406236894744191224e-01,-2.335440858558360255e-02,-2.616012260511196841e-02,-5.117345040457869400e-03,-5.164725143764750323e-04,1.289074191785461940e-03,3.655044436454772949e-01
2.936302208148616755e-01,-1.831427698837106988e-02,-1.845509616911769624e-02,6.109746596023390248e-04,-5.589098272402576433e-04,-6.819581270172575191e-03,3.122417330741882324e-01
3.558744639330774784e-01,-3.340844760021710602e-02,-2.814270062172252729e-02,5.275125731173328780e-03,-5.311961182381951148e-04,3.030412078874078399e-03,3.868215680122375488e-01
3.245636126310004754e-01,-3.381709872751814672e-02,-2.447388890808802064e-02,-7.012908146908532203e-03,1.975461339797052011e-03,5.277354093879116879e-03,3.541446030139923096e-01
3.510633549561280042e-01,-3.114782364465248921e-02,-3.111666064741397397e-02,3.321857324473156676e-04,2.530324244538547534e-04,-2.469582245624882526e-03,3.822202086448669434e-01
3.675152413705730092e-01,-2.180518663769481780e-02,-3.362583451544090551e-02,-1.934702762418073069e-02,9.548692071367071224e-03,-1.251647204118901948e-03,3.971313238143920898e-01
3.442891526673729774e-01,-2.756507431787688644e-02,-2.662790942321657806e-02,-4.378169612829082950e-03,3.530020192950791662e-03,2.886070958093971042e-03,3.715478777885437012e-01
3.596986143932991431e-01,-1.807712102910785656e-02,-2.902390434734303248e-02,1.634015450021707562e-03,-1.464753263401375209e-03,-5.916969519037505905e-03,3.835221529006958008e-01
3.507493183379032375e-01,-2.762799421795042454e-02,-2.574552829716950098e-02,-2.041317490149552848e-03,5.863527149909016078e-03,-3.072956981974265958e-04,3.775931298732757568e-01
3.685317800692969881e-01,-2.783852524581489907e-02,-1.003027124313410345e-02,7.519670846745429632e-04,-4.093593107930984867e-03,-1.626669725343173750e-02,3.888620138168334961e-01
3.510872521985852202e-01,-2.742109853956720134e-02,-3.564810149086442004e-02,1.136098546531016506e-03,-5.344183381813192045e-07,-1.529371385202578457e-03,3.827024102210998535e-01
3.482971069682128107e-01,-3.262098693667445093e-02,-2.709253337577841036e-02,6.278584154432131394e-03,-1.706452508537003535e-03,2.317844030480917597e-03,3.783733546733856201e-01
3.336770529360890691e-01,-2.893126838554954672e-02,-3.060065053499327892e-02,5.762091849778391318e-03,-9.876185756497736848e-03,4.226648621294936889e-03,3.640587031841278076e-01
3.428014156212819685e-01,-2.227734008539833388e-02,-4.144414895694123468e-02,6.576307540701160047e-04,1.251170627160551427e-04,-1.916739068678299145e-03,3.750461637973785400e-01
3.538914356785410331e-01,-2.617545383821032190e-02,-5.542545740860660430e-03,-1.762866776861863553e-03,2.861290373560335717e-03,2.077629941771474715e-03,3.702451884746551514e-01
3.537590457600775506e-01,-1.779887294570745015e-02,-2.681680122186949622e-02,-2.455847616517539862e-03,1.209306231702438322e-03,-1.406058511826143928e-03,3.761857450008392334e-01
3.516136409038603805e-01,-1.741817348257962417e-02,-1.784643353151185718e-02,-3.457414901710876881e-04,-6.897172533344713037e-04,1.466099226865103043e-04,3.692486286163330078e-01
3.527172996226656809e-01,-1.973091285181591270e-02,-2.216449822515673129e-02,-3.388924647119318824e-03,1.918702996842922871e-03,-2.377848291740134335e-03,3.737545311450958252e-01
3.303112831131635452e-01,-2.290022872935798537e-02,-3.282805713454717278e-02,8.887308483452881908e-03,-1.425527694224554970e-02,3.311416464815264589e-03,3.595038950443267822e-01
3.044483152185298858e-01,-3.066942466383115740e-02,-1.762727043931788806e-02,4.184695289470603949e-04,-3.434151913196706492e-03,-5.988579878043978622e-03,3.290088772773742676e-01
3.305388915320247589e-01,-1.803070237651599461e-02,-4.039328234936434558e-02,2.053076735052441473e-04,-5.076672838857059292e-03,1.574009605021006080e-03,3.603895604610443115e-01
3.540044700217631068e-01,-2.341511194354711778e-02,-2.368621278204027791e-02,1.327814640963487875e-03,-2.196402799507839675e-04,-1.703341395885199765e-03,3.775739371776580811e-01
3.240871812877680891e-01,-2.684841112354360848e-02,-2.609665779653852491e-02,8.362422981828952773e-03,-1.492825009209518272e-02,2.305622588285648287e-03,3.518335223197937012e-01
3.530358349555099418e-01,-2.617751134635690202e-02,-3.312013551487230645e-02,3.186462744387565191e-03,-9.601566257837045731e-03,2.113232378190622093e-03,3.831502795219421387e-01
3.531857762615453478e-01,-3.530798492510098252e-02,-3.103184964075469954e-02,-1.678320433447162187e-04,5.258975235075356034e-04,-1.966023733100868975e-03,3.863896429538726807e-01
2.998966311183935973e-01,-1.346518483652416054e-02,-2.886435113619922888e-02,3.645588789928522612e-04,-6.783073127483398761e-04,-4.303083262561318255e-03,3.214274346828460693e-01
3.352955592843339105e-01,-3.456564797727185168e-02,-2.286837265652444384e-02,-5.899527653153250131e-03,2.210972968528231424e-03,1.392497376144845441e-03,3.643249571323394775e-01
3.197542510439811414e-01,-3.235651484755319718e-02,-2.095501430199542270e-02,-2.165737799271492264e-02,-1.781242401637534584e-03,2.200141295035483533e-03,3.486094772815704346e-01
3.532832136260982692e-01,-2.825558991474533266e-02,-3.199179932764678602e-02,6.953179700690787597e-04,-1.929812993404962825e-03,1.130200582667695818e-03,3.834420144557952881e-01
3.514807313137247591e-01,-2.604242924134411719e-02,-5.471635035302235828e-03,-2.243647325484224731e-03,1.142541078953468719e-03,2.198358738300567033e-03,3.677151799201965332e-01
3.498126613639296889e-01,-3.833840469091603920e-02,-2.698405962790390022e-02,-1.198651291122445998e-02,1.689265361605977490e-03,3.846140579153680046e-04,3.831748962402343750e-01
3.501213430722072695e-01,-2.765875711921458868e-02,-2.776420869734011476e-02,-1.393139600182823632e-03,-8.970977335689116899e-04,-1.467958711079322270e-03,3.778522908687591553e-01
3.398558535529095925e-01,-3.872026503010242426e-02,-2.393234975961297528e-02,-1.074857588116305031e-02,7.236622027137899413e-03,4.630498836927138956e-03,3.721669316291809082e-01
3.428686888994688098e-01,-2.247135378308495746e-02,-3.844846698368364901e-02,-4.103761693622010780e-04,2.828982957914792152e-04,2.501636457026449462e-03,3.736110329627990723e-01
3.311125308013203594e-01,-2.055240653390072447e-02,-3.862030125698159844e-02,1.419259913860383823e-03,-7.936776198984613496e-04,-3.132493114307473726e-03,3.610898554325103760e-01
3.216758374858268987e-01,-2.197457455649684532e-02,-3.043880392276102076e-02,-4.466803990149459391e-02,2.288478573043367312e-02,1.030077848087414000e-03,3.586586117744445801e-01
3.497062544732245093e-01,-2.425646256812719059e-02,-2.819706042724839934e-02,-1.520574577035821700e-03,-1.225868171208492662e-03,5.987233680188468491e-04,3.759651482105255127e-01
3.704007494828251423e-01,2.164475705606923317e-02,-4.907400524528790497e-02,4.334953300452002584e-03,-1.799146846355895255e-03,4.886400753899683945e-04,3.890530467033386230e-01
3.182193973811109355e-01,-2.777098929773205715e-02,-2.552209685552953022e-02,-1.193965212690771311e-04,-6.282092705844326969e-03,7.539727394083113772e-03,3.452901542186737061e-01
3.662581281109612008e-01,2.262476361485089849e-02,-4.914960403584017756e-02,-2.533641024938552630e-03,1.261362800228966021e-03,1.523188784185230179e-03,3.846173584461212158e-01
3.510697334352747556e-01,-1.839292636691217120e-02,-1.586646470112648699e-02,4.725103210049034184e-04,-5.165075459034138700e-04,9.268872441907104491e-04,3.682114183902740479e-01
3.704104895899605898e-01,2.070955706871870083e-02,-4.951352926024790713e-02,2.129914494242688989e-03,2.023557391850304855e-03,5.275354500275479790e-04,3.896226882934570312e-01
3.679881041461259827e-01,1.871254878182136705e-02,-4.280869655502705928e-02,-5.876181405751293094e-03,-2.484282973177237997e-03,5.165318406635178126e-03,3.840160071849822998e-01
3.704084084614028827e-01,8.862810935182291461e-03,-4.168406047938416625e-02,-2.574861496503262886e-03,7.014754405707565414e-04,2.227628786220126490e-03,3.893346190452575684e-01
3.450287970283303918e-01,-3.655765012714248807e-02,-2.688581675660484116e-02,-2.747297480808212270e-06,-5.209405136818169276e-04,-3.605882907871170526e-03,3.768964707851409912e-01
3.672302777361546866e-01,1.957348265565121703e-02,-4.340117980817237431e-02,-3.506252751077238231e-03,-1.751225668216855463e-03,2.332406052035867778e-03,3.831279575824737549e-01
3.647314903108443973e-01,-4.425145653255052602e-02,6.643616087775305878e-03,-2.008947722072920196e-03,2.495730198281923256e-03,-1.477093577170427840e-03,3.861081302165985107e-01
3.601815104060449024e-01,-3.622048722134971199e-02,-1.007409452853438858e-02,-2.441271423719927267e-03,-6.804719876376911017e-03,-6.124583095828896318e-03,3.843475282192230225e-01
3.444677164657367618e-01,-2.352285013523289225e-02,-3.152498944102508083e-02,1.036580826547634296e-02,1.223561463271287397e-02,-9.402673063033594250e-03,3.734467923641204834e-01
3.345734385375297437e-01,-1.970645834709328081e-02,-3.105469088225984442e-02,-1.760408302440082291e-04,1.190189301182548870e-02,-1.985563094338117698e-03,3.606942892074584961e-01
3.254485963613044652e-01,-3.622342680721860053e-02,-2.828382004688767548e-02,-5.009562536847687354e-03,6.974590376406041015e-02,-3.783635269144386935e-03,3.777695894241333008e-01
3.306351403608853712e-01,-2.753065727684361752e-02,-2.756549699257981878e-02,1.031823027884146236e-04,2.050793804513202070e-04,-6.307201794402251573e-03,3.583500087261199951e-01
3.411859918312485362e-01,-2.904846733360433308e-02,-2.861956562984790953e-02,9.283008574410363169e-04,7.333722824119303166e-03,3.113025650363369012e-05,3.702416419982910156e-01
3.477454298734184990e-01,-3.528532534504491558e-02,-2.671985102043911153e-02,-5.360343230519626877e-04,5.541039374444970463e-04,-7.394132234292169308e-04,3.788251578807830811e-01
3.551306393330431743e-01,-4.120388229332641594e-02,4.842585964593665304e-03,1.555488653991099826e-02,9.985434481239107221e-03,5.028692845569422178e-03,3.768983781337738037e-01
3.448625767381072182e-01,-3.525023986882408478e-02,-2.693279115426053250e-02,1.070491252466018923e-04,-3.122125288521995258e-04,-2.319847502827212908e-03,3.760449886322021484e-01
3.051667355159680128e-01,-1.853453631537838042e-02,-3.348887484951870719e-02,4.322497280166199066e-03,2.495717956595885911e-02,-3.959383824198922999e-03,3.343928158283233643e-01
3.077893665936822787e-01,-2.476082814981142577e-02,-2.335273423215067368e-02,1.674328182298923107e-02,5.552503034406865677e-03,-1.032488374504900164e-02,3.337314128875732422e-01
3.567561343100519311e-01,-2.415371375749147953e-02,-2.561977837689019544e-02,-5.257548080151120025e-03,-5.129469438276931456e-03,1.446292852021969534e-03,3.818652033805847168e-01
3.432607774370844411e-01,-2.774381316881877058e-02,-2.885766260745192824e-02,-3.622717563372959519e-03,-2.384049289291190459e-03,-3.818511140784083737e-03,3.716975450515747070e-01
3.720862088594837358e-01,-4.716920272674973713e-02,1.980691031899683985e-02,-2.993034045733334973e-03,4.722675379169565500e-03,-1.547680471710539182e-03,3.902329802513122559e-01
3.312806091729748603e-01,-3.388488448531901120e-02,-2.613646709660144563e-02,-1.065756064934653656e-02,-5.608172985680985427e-03,-7.047654007289129788e-03,3.621609210968017578e-01
2.628262268229083487e-01,-2.635049128519990902e-02,-1.146671067701759972e-02,-5.206952979877635390e-02,-2.371605798832118230e-03,1.365703974292893121e-03,2.961365282535552979e-01
3.554238065402464120e-01,-2.738392565035802084e-02,-1.553192497617011947e-03,1.158691866265032467e-03,-8.419592884986840803e-03,7.573091347122923832e-03,3.710923492908477783e-01
3.487954359337281929e-01,-3.501155135194655710e-02,-2.772480385632830613e-02,-1.724034038533947023e-03,-1.333899368374226457e-03,-2.612896826592893060e-03,3.802616596221923828e-01
3.575711592368934211e-01,-2.678673991559887835e-02,-2.393631679512306376e-02,-3.396905509879646402e-04,-7.343268246641446867e-03,1.507464882524863110e-03,3.831611573696136475e-01
3.553879987675779839e-01,-2.909106928247395807e-02,-2.810032012846269689e-02,-6.585160549437823205e-04,5.459852507615046632e-03,-1.156103292441940550e-04,3.841028213500976562e-01
3.536510382991078782e-01,-2.151845807438482194e-02,-2.249401056652494679e-02,1.401037941348062159e-03,1.899035658055940341e-03,8.277528816782980369e-04,3.756831884384155273e-01
3.447724457333610770e-01,-2.934017689767531856e-02,-2.477799786888892908e-02,-4.808184945141228371e-03,-6.492454809998300137e-03,-2.450646098959109254e-04,3.721159696578979492e-01
3.277523845897720722e-01,-2.406932533225042414e-02,-2.998121546828391715e-02,-5.266521884724807874e-03,-1.155985826553731013e-02,-7.166149556755433553e-03,3.557127416133880615e-01
3.548368033672593125e-01,-2.943532440898147251e-02,-2.972314021074001777e-02,3.988941125812865712e-05,-1.431500320355849534e-03,-3.208685187664842833e-04,3.844245076179504395e-01
3.527129728141415455e-01,-5.166098683112435586e-03,-4.396264919916570424e-02,-8.227054925045964445e-03,-5.178656110249796503e-03,-3.632559227295031369e-03,3.791967332363128662e-01
3.141021486469519619e-01,-1.942774627741117310e-02,-2.915823298408315445e-02,-2.535626792979570054e-04,9.837649960796420628e-05,6.844463245244567992e-03,3.387078940868377686e-01
3.249934340063153071e-01,-3.737842298880836300e-02,-1.680543546027860047e-02,-1.125177571422243325e-02,1.514687278427664517e-04,8.443478190993749816e-04,3.530772626399993896e-01
3.802629832910141006e-01,-2.891586079220506700e-02,-3.448922356905942399e-02,-4.149516104989461190e-02,2.367572473713060177e-02,-2.608293796311786719e-03,4.202457070350646973e-01
3.501442292185849570e-01,-1.785773152021991050e-02,-2.809773245506805295e-02,-1.739679194932884122e-03,5.574161554266936387e-03,-2.009272466297717767e-03,3.733805716037750244e-01
3.068267002332782378e-01,-2.869242248653711136e-02,-1.799703198170457541e-02,-2.067776320472877738e-02,-4.578765578424270552e-03,-7.307118284109460384e-03,3.325729370117187500e-01
3.542640255529369564e-01,-2.501639371595512640e-02,-2.730966621521205284e-02,-5.848227404609366957e-03,1.500753800233126361e-03,-4.176898977507862050e-03,3.806447088718414307e-01
3.182803537062238175e-01,-2.358778378203704729e-02,-2.874753299199472867e-02,-3.455639464393689408e-02,3.682952285718887539e-03,-1.481227321225536513e-03,3.497057557106018066e-01
3.549426538333233516e-01,-2.864681912466374158e-02,-2.779419968590163270e-02,-4.051476136940873607e-02,1.894585505868115818e-02,-5.222445811899451354e-03,3.910211622714996338e-01
3.450255256014842509e-01,-3.055026402250060613e-02,-2.726789063802798063e-02,2.183461458764489761e-03,1.751433943689929308e-03,-2.318157605784309811e-03,3.739983737468719482e-01
2.560212041831937402e-01,-1.982937387701791399e-03,-1.493674545175567581e-02,5.777951503444240643e-04,-1.233343260460394815e-03,-1.921118844587770035e-03,2.647502720355987549e-01
3.522320622654644406e-01,-2.087918966319790570e-02,-1.106941072978892548e-02,1.489872112231952622e-03,2.570805745859067442e-03,-7.812121368546441624e-03,3.685887455940246582e-01
3.430058638537867854e-01,-2.761729674489479813e-02,-3.150171644413490846e-02,1.668137933843775187e-03,1.930904510099144128e-03,-2.809918577012323129e-03,3.726385533809661865e-01
3.404201215674166336e-01,-3.649637146513790009e-02,-2.428979517457238724e-02,3.936445676741344934e-04,2.701914600763649470e-03,-4.259425200392145429e-03,3.710673451423645020e-01
3.109253481603869163e-01,-2.663152715846603402e-02,-2.489612027645174419e-02,8.380016025781505951e-03,8.459218832939943700e-03,-7.920488199056344158e-03,3.376024365425109863e-01
3.230192239618145389e-01,-3.511578545759841408e-02,-2.152112261957231376e-02,5.213831269279312758e-03,4.304894856607180127e-04,-5.348552321077850412e-03,3.517736494541168213e-01
2.817850133577362026e-01,-1.572347666705946334e-02,-2.096740704741931194e-02,2.174515237876491550e-02,6.376208575750159924e-02,-3.108918300645155917e-03,3.220920264720916748e-01
3.645676500294625089e-01,-3.943593879572915295e-02,1.440645762526526763e-02,3.203713321309876669e-03,3.880475951627889754e-03,5.547754281562111527e-03,3.801758587360382080e-01
3.445438828694087907e-01,-3.354240607760333726e-02,-2.620833920770193615e-02,-9.424269597797583879e-04,-2.771547925826633421e-04,-5.580259917813437838e-03,3.746016919612884521e-01
3.201338607719568241e-01,-7.286678273644725534e-02,7.786953373098384756e-03,-5.591970798777992635e-02,9.400861910291878620e-02,-2.391699275581302478e-02,4.084942340850830078e-01
2.042508021037838239e-01,-1.000952821277659166e-02,3.360600081580136789e-03,-3.712604862177237147e-02,5.361991157759718463e-03,-1.598957367761825034e-04,2.178139537572860718e-01
3.729711107488133393e-01,-3.845010721393332664e-02,4.631801690324649501e-03,-2.952895374821845522e-03,-3.918867861029805971e-03,3.313933404435656649e-03,3.917956650257110596e-01
3.683547955812587205e-01,-3.959364983862923015e-02,5.064848283495959613e-03,6.295205201535853008e-04,-2.484705144701437711e-03,1.453479266462108597e-03,3.875873982906341553e-01
3.616312751852405194e-01,-4.336823776764997529e-02,1.307112688486243568e-02,-2.049214009801558160e-03,-4.228800717132070314e-03,-3.084970873617985383e-04,3.800244927406311035e-01
3.733717325709203783e-01,-4.657957973649909378e-02,1.229873422582064557e-02,4.772903945106585222e-03,3.528784022533628696e-03,3.499391642482388605e-03,3.940078318119049072e-01
3.683414605338304892e-01,-4.289271876891889712e-02,2.075544045007894634e-02,4.254314760088183942e-04,5.766456099107013927e-03,1.160371609793389063e-03,3.835292458534240723e-01
3.548817227793761298e-01,-2.737858203345747143e-02,-2.958291323677544882e-02,-1.317189510023177902e-04,-7.687631673091286809e-04,2.344255146967561768e-03,3.833911120891571045e-01
3.545186756553572738e-01,-2.959174018453294974e-02,-2.552614669535235858e-02,-1.243683367384691447e-03,-4.266497135344895185e-03,1.661049670981257372e-04,3.821714818477630615e-01
3.517280490264574344e-01,-3.664486098949076842e-02,-2.634196337194047444e-02,-2.794466344244080514e-03,-9.148881022233924971e-04,-1.458398786696017430e-03,3.833674788475036621e-01
7.158815394184347980e-02,-4.204310732168235060e-02,-1.275085270262913198e-03,-3.123915525167973717e-02,-1.602950635016617623e-02,2.625708475202704478e-03,1.168791949748992920e-01
3.640321727230543813e-01,-3.890706468598942314e-02,9.940113301685565839e-03,1.083631438178091514e-03,3.357899257769314701e-03,-1.108096811056122517e-02,3.814044296741485596e-01
4.054382674043228718e-01,1.899021961111360679e-02,-6.534314079415393106e-02,6.489468872193959390e-03,1.649038489808531431e-03,2.474407491599178981e-03,4.349684417247772217e-01
3.580689777066686230e-01,-1.170388538758992958e-02,-3.360353450107270157e-02,3.985574025563288873e-03,-2.883920980009848766e-03,1.140831261849813453e-03,3.812951147556304932e-01
3.542491030521181528e-01,-2.674439142608264763e-02,-2.622599271278891475e-02,1.865836323857362859e-03,9.768586683587897335e-03,-2.201195400912511497e-03,3.811430931091308594e-01
3.607164363172313259e-01,-2.973428723635887505e-02,-1.291737182840263509e-02,1.025305003055163120e-03,2.026795480989852186e-03,-5.357157492722455262e-03,3.824525773525238037e-01
3.700470546382984005e-01,-2.110039511002018142e-02,1.936169164549472743e-03,1.162983877646704906e-03,-5.416476079414689164e-03,-2.710437142303642397e-02,3.831609785556793213e-01
3.601612438860185006e-01,-1.814506669776949632e-03,-3.087010459185926536e-02,1.973979358809359666e-03,6.981223700869182728e-04,-1.027391769914279274e-02,3.777802288532257080e-01
3.727449791171182358e-01,-2.364456430763745010e-03,-1.387895527647553529e-02,5.909609873010817846e-03,-1.359551593263153522e-03,-2.841807989794266007e-02,3.843070864677429199e-01
3.521175325457234218e-01,-2.948553683928556435e-02,-3.380750447718663954e-02,-5.644349787225974840e-04,-1.069671586779711312e-03,-8.606177346833544534e-04,3.837909102439880371e-01
3.528007841178094628e-01,-1.921060728210047253e-02,-1.134089142827904295e-02,2.033748358241518200e-03,6.363481601918297582e-04,2.812350582637630336e-03,3.681903481483459473e-01
3.547727811091405670e-01,-2.423985012580223697e-02,-2.453756517008057192e-02,1.189721758117718914e-03,2.321642774729306812e-03,5.209953837534990386e-04,3.791895806789398193e-01
3.590166285134195334e-01,-2.070738912913580587e-02,-1.647362740565896932e-02,-4.969434867978975157e-03,3.354771692865860487e-03,-1.355106957690919295e-02,3.784961402416229248e-01
3.557438709930335619e-01,-2.752441788983372994e-02,-2.121244563509011583e-02,2.552053143244090074e-03,1.788465237938790739e-02,9.739363483915220191e-04,3.814409673213958740e-01
3.775218293584231555e-01,-3.856761254898402602e-02,-3.739402816114179018e-03,1.715971016635998297e-03,5.020271866468995923e-04,-7.375281488493192102e-03,4.000307023525238037e-01
3.511648509443152100e-01,-1.688353175208126555e-02,-1.747545565908703580e-02,9.926034622597748342e-04,6.424336295184832199e-04,5.222174053216008856e-04,3.683515191078186035e-01
3.195008689459803430e-01,-2.721054390272520385e-02,-8.866222355334657523e-03,-5.897810512549903419e-03,-3.010243611484998000e-02,3.096224269616526005e-03,3.421062827110290527e-01
3.523950134865280748e-01,-2.740417390064836534e-02,-3.233591003568966893e-02,-2.331210986119188703e-03,-1.902918889289418984e-03,-2.674393250759912136e-03,3.823525011539459229e-01
3.477971699811535644e-01,-3.063176446141399611e-02,-3.756471093720675780e-02,-8.509209374290801695e-03,-2.273438187980217698e-02,-2.918006259644424782e-03,3.842830657958984375e-01
2.485727738226392314e-01,-1.841571251367800366e-02,-2.397842258480736843e-02,-3.459461146473124388e-02,-1.351220053995929801e-02,-3.606811486057852952e-03,2.774456739425659180e-01
3.568364371871073359e-01,-2.893011853139978995e-02,-1.345448388960046593e-02,-8.656955288710506055e-03,-3.385262706187033843e-02,6.052103583450264314e-03,3.832206428050994873e-01
3.531778770152510516e-01,-2.019702028814654438e-02,-1.467705974096902843e-02,-3.989564312711587658e-04,-1.586618947869876048e-03,1.072690101570360688e-03,3.706612288951873779e-01
3.412381695427756934e-01,-2.464690082994561160e-02,-3.359478636832802234e-02,-8.233772430996181549e-04,-2.518736404182562137e-03,-3.542408224790441398e-03,3.705193102359771729e-01
3.535080452163863463e-01,-3.056661910421706874e-02,-3.315929057198210850e-02,8.699805573710752533e-05,-3.921957359837802354e-04,-5.211123252657515149e-04,3.853792250156402588e-01
3.431498955101161541e-01,-2.633047009663849747e-02,-3.244104106582634817e-02,-1.113523988107232461e-05,-4.931923923583649179e-04,-3.969260732707191423e-03,3.726376295089721680e-01
3.279178109687754805e-01,-3.771444942829915714e-02,-2.115826631633477284e-02,-1.184812178736749204e-02,-8.098299679638792719e-04,-5.714463961601270320e-04,3.582340776920318604e-01
3.291936730936735334e-01,-1.836924839522369179e-02,-3.825980964504110959e-02,2.628911262830860534e-04,-5.316845259416970275e-04,-2.387341275083317525e-03,3.579483032226562500e-01
2.975548642614083139e-01,-3.802485877394826130e-02,-1.856967327570779869e-02,-6.272326145079791526e-02,-2.572701148124957940e-02,-5.919374314167064575e-04,3.467748463153839111e-01
3.326663575639762782e-01,-2.069779676865379781e-02,-3.585474008061226292e-02,4.506489042611711086e-05,3.220647690898695336e-04,5.371130336028647617e-03,3.613014519214630127e-01
3.450049895093561525e-01,-3.022147963343507771e-02,-2.512709181672836967e-02,-1.009905464464853388e-02,-2.352551100045216070e-03,-3.810162039721728695e-03,3.731962442398071289e-01
3.482137338568518370e-01,-6.556901719976054865e-03,-3.537620701817917324e-02,-1.849436951015496350e-02,1.450471885131906363e-02,2.251573883616247648e-03,3.722760975360870361e-01
3.407128609717289258e-01,-1.839226636014443250e-02,-4.162188287998092040e-02,2.326945080997908435e-04,2.063181833221919932e-04,1.598040782203463900e-03,3.712760806083679199e-01
3.445940610111222768e-01,-3.706798840067102030e-02,-2.452100407902693679e-02,4.185772680826696165e-04,-1.727339216639880992e-03,-1.297380799001474679e-03,3.755651414394378662e-01
3.571725302629844001e-01,-1.994636866997451241e-02,-2.774627974753485216e-02,-1.332173566120032487e-02,-5.434175661259371334e-03,2.439804709595462420e-04,3.818928897380828857e-01
3.494322912300861228e-01,-3.110581397464048936e-03,-4.800016860858302703e-02,-1.987959826702797445e-02,6.744500286933463595e-03,1.045993346663406064e-02,3.791798353195190430e-01
3.541738682687208817e-01,-2.595913481359785058e-02,-2.436143488100486754e-02,7.642600901219500547e-04,1.882148283691161862e-03,-7.024187128738241083e-04,3.793549537658691406e-01
3.531765632738735339e-01,-4.290576478391983084e-03,-3.635077846274112345e-02,-5.163800604237162549e-03,2.464977218093796201e-03,-5.516017542902987118e-04,3.746601343154907227e-01
3.642012909259286779e-01,-9.857343232921034204e-03,-3.954508538829196174e-02,-9.365256003405439747e-03,-2.029961325748502743e-02,1.758069100602227194e-02,3.928520977497100830e-01
3.853074472435876752e-01,-1.014599766437146444e-02,-2.626186236415412045e-02,-9.927911131380168230e-03,1.135106346730654220e-02,2.748209253829163312e-02,4.073871076107025146e-01
3.762124996075594807e-01,1.090794246980358873e-02,-2.623201188686513641e-02,7.885278409748053968e-03,4.122093305622987272e-03,2.306199741340518930e-02,3.875916302204132080e-01
3.435630100264485676e-01,-2.482445567027605215e-02,-2.743815238513722110e-02,-1.688468857336462500e-03,-2.288848690793059484e-03,1.588027325604929676e-04,3.697341680526733398e-01
3.711176796091761321e-01,-1.524876641049316417e-02,-3.111098599277925536e-02,-2.897025578517607638e-03,3.780912433655666920e-03,3.120506893449527357e-03,3.946600258350372314e-01
3.627542940494529744e-01,-1.484192926128799495e-02,-1.749887877040490203e-02,-3.749967889806568588e-03,-8.889349158566317143e-04,1.758261174534560961e-02,3.802120685577392578e-01
3.878243297906762699e-01,-2.081399725954896640e-02,-2.702392023544791799e-02,-2.820593131361642109e-02,-1.938728619674162310e-02,9.465054859542415197e-03,4.163466691970825195e-01
3.532146309038501353e-01,-3.544022421968126557e-02,-3.051881159033401070e-02,-8.923365828629454925e-04,7.504574514786306865e-04,8.586348893241630776e-04,3.862258195877075195e-01
3.052684855431293531e-01,-2.361329741763701362e-02,-2.547959992417939135e-02,-1.093696726238328060e-02,-1.245106414413390400e-02,-7.930562731206689323e-03,3.313504457473754883e-01
3.598102284272946538e-01,-2.779943039204568755e-02,-2.873950175263953466e-02,-4.418088491788183664e-03,-4.704739304014732108e-03,-1.906892694806484791e-03,3.882555663585662842e-01
3.475070824186631269e-01,-3.587343994914787837e-02,-2.601408424969706146e-02,-1.155464051161819716e-02,-1.577847537826087762e-02,1.733049897652545746e-02,3.812432289123535156e-01
3.434755722255358745e-01,-2.239227299498586232e-02,-4.024261952678606646e-02,-3.895355274023005326e-04,-2.267552405217647567e-04,8.844832792465271961e-04,3.751156330108642578e-01
3.241418465243281477e-01,-1.885847619333963499e-02,-2.252404479319491948e-02,-3.674016706014612832e-02,-6.044405793472430732e-02,9.304869196410903501e-03,3.663190603256225586e-01
3.489825550689448774e-01,-3.085266764615540724e-02,-3.331554187418570012e-02,-4.182743109511735018e-04,3.460657163736567937e-04,3.359446911214421932e-03,3.811182081699371338e-01
3.614545790788311064e-01,-3.445943289829450640e-02,-6.299617359994957866e-03,-6.453580911476538770e-03,-7.434829405148368417e-03,1.084651264006958847e-02,3.834523856639862061e-01
1.381231006615441514e-01,-4.453096492394052752e-03,3.368665031507900309e-04,-5.685621170376289890e-02,-2.471683447866500002e-02,1.453161684245949520e-03,1.766492873430252075e-01
4.165771176245492979e-01,-1.630815555387432614e-02,-4.330246619767713634e-02,3.073512584150058652e-02,-5.621191622628989026e-02,-5.254110362842220189e-02,4.694664776325225830e-01
3.738267844944900831e-01,-2.998741683640004929e-02,-8.170538283578027139e-03,-5.972855593979176612e-04,-3.350033420996817793e-03,9.008418095944176890e-03,3.937132358551025391e-01
3.195886381127004960e-01,-2.228719360120440252e-02,-1.680558747535479402e-02,-1.253206180616678843e-02,-1.982897763687323234e-02,4.958787160995864300e-03,3.417010307312011719e-01
3.527650958327599451e-01,-1.367296732490630440e-02,-2.095775738827296286e-02,-1.830701709018685459e-03,1.810804251215041016e-03,-9.641198435613323754e-04,3.701648712158203125e-01
3.628930874731991496e-01,1.749587821789466702e-02,-4.205878667930529335e-02,-1.767828646222916258e-03,2.633207849183322874e-03,-5.552617182553872335e-03,3.788649737834930420e-01
3.356795498563430180e-01,-2.834599655223241088e-02,-3.117155192565188027e-02,-6.897897110498495826e-03,-2.490394675921902071e-02,-6.254715241263890911e-03,3.683366477489471436e-01
1.750284923037948859e-01,4.386125594797375682e-03,-9.720208721496065296e-04,7.261206515838199496e-03,-5.876625502835479756e-03,2.031390331504731757e-03,1.741723716259002686e-01
3.582854364635136846e-01,-1.464064178041493691e-02,-3.512115448635910742e-02,1.150235106170038012e-02,-2.396089607939961078e-03,-1.204241469736035217e-03,3.841217458248138428e-01
2.051735888341668090e-01,-1.600864353016033526e-02,-5.040596754594478535e-03,3.030910113508274162e-02,2.369545255195671177e-02,5.698783758420988789e-04,2.259585410356521606e-01
1.883771980962994363e-01,-9.754104487496417786e-03,-3.420264165641090370e-03,5.128063341135345732e-02,3.008143519863339110e-02,2.861174578946011106e-03,2.206117510795593262e-01
3.062911511598049308e-01,-2.535524905324443301e-02,-2.298991722747592559e-02,-1.020915382351268198e-02,-2.721300299043569702e-03,-9.207370324223595331e-03,3.313603699207305908e-01
1.562259054045228579e-01,2.810127976262469240e-03,6.652106806703771136e-03,3.724983016724016383e-02,-3.190595902678508827e-04,2.353107717372981880e-03,1.647461950778961182e-01
2.182358002481083470e-01,-9.297050581213814335e-03,-4.005978294279677332e-03,1.955058023047888741e-02,1.078777560004815471e-02,-5.250587110055856058e-03,2.284158766269683838e-01
4.115405490718318515e-01,9.319505801124644551e-03,-4.337277219764676395e-02,1.096234780747953018e-02,-7.166446293107050711e-03,-5.837829261105043077e-03,4.317047894001007080e-01
3.214099339732834348e-01,-2.345547992819455030e-02,-2.585833314516072790e-02,-6.678713342820833537e-03,-9.445203823187246772e-03,-7.326186611181333130e-03,3.468847870826721191e-01
3.644524820792969244e-01,-2.355560922232910470e-02,-2.729029909197500103e-02,1.307863899995986498e-02,9.904978989590698495e-04,-3.811391198667427906e-03,3.906059265136718750e-01
3.452542472286793673e-01,-1.594817478903667873e-02,-2.967697080888739847e-02,3.898504870382486776e-02,-6.058478297100929749e-03,-7.900500941247830949e-04,3.745477795600891113e-01
3.557216728508148518e-01,7.633150341616129486e-03,-3.614970135883274760e-02,2.306571143245673625e-02,-3.614391943403654460e-03,-4.883848204089046539e-03,3.742054104804992676e-01
3.166731998105503099e-01,-1.842891517761779951e-02,-2.797914272468721153e-02,2.824931923988868721e-02,-4.557491187759791541e-03,-4.843003983071543029e-04,3.435724377632141113e-01
3.238306066940086492e-01,-3.095634006268235816e-02,-2.512728338965766750e-02,1.374020107291085147e-02,-1.484954907652739214e-02,6.902652968833552886e-03,3.538509905338287354e-01
3.528654053985565975e-01,-1.810222644975392758e-02,-2.459121896286092790e-02,6.877958367092647501e-04,5.702145347228487759e-05,-9.565689703960139579e-04,3.742598891258239746e-01
3.390179210618512462e-01,-3.589953073353932544e-02,-2.480156111144071751e-02,-5.669652642041921650e-04,1.804107263383846090e-03,-4.966774253493010625e-03,3.696081340312957764e-01
3.597515889599620098e-01,-3.192717642856629512e-02,-2.221922722693003838e-03,-3.803156429275543417e-04,2.561764016788503975e-03,-2.272110838059025750e-03,3.777503669261932373e-01
3.529090610779528903e-01,-2.621641811269762035e-02,-1.326027508958815826e-02,5.517490936900800325e-05,1.104507523056860860e-03,-4.164499703627441360e-03,3.728909790515899658e-01
2.799050987819162728e-01,-1.756340388821606147e-02,-1.292909332334035710e-02,1.708444848139185901e-02,-1.892649264706951218e-02,8.606535064892437137e-03,2.988359332084655762e-01
3.474035283653447714e-01,-2.403893387216243793e-02,-3.673277868765351117e-02,1.532623585966331982e-03,-1.196213497447371280e-03,4.201785687950630038e-03,3.780343532562255859e-01
3.471331592891057083e-01,-3.662718706783688050e-02,-2.170197149630592737e-02,7.361462560355157281e-03,2.190183720234219547e-03,2.411276855727554746e-03,3.767777383327484131e-01
3.393234939437678732e-01,-3.870554264247227927e-02,-2.175957473931572350e-02,4.395037382353079829e-03,4.795273272500708917e-04,2.464072108952630215e-03,3.699512183666229248e-01
3.550823053287365250e-01,-2.737200721032717610e-02,-2.593691620459212532e-02,3.195822662312171433e-04,-3.179865813017746044e-03,-4.723528225826734785e-05,3.817789256572723389e-01
3.101546140930845352e-01,-2.630360301220002750e-02,-2.597670346098482352e-02,3.634459574536409027e-02,-3.612366762754304350e-02,1.145209649757038869e-03,3.478156626224517822e-01
2.876381026728004331e-01,-1.957065086495206330e-02,-2.243578994316181019e-02,4.408934069237289283e-02,-3.500238400209244177e-02,5.855907231839620024e-03,3.238450288772583008e-01
3.062569553269718359e-01,-3.262083392788497904e-02,-1.756478387683789444e-02,1.724865408660159957e-02,-4.599781582487854660e-03,8.289076424649070504e-03,3.333539068698883057e-01
3.396139153646826059e-01,-2.000219108009340663e-02,-4.142046157082948654e-02,4.903779708792110762e-04,-6.217233707651974306e-04,-4.957247771815718237e-04,3.707930147647857666e-01
3.606392675565164296e-01,-3.217397531261165233e-02,-3.457026611064753507e-02,3.783193440020497095e-02,-2.061311635998528194e-02,-8.256964826642053737e-03,4.012758135795593262e-01
3.514902689933367408e-01,-2.708794242605405689e-02,-3.674996816344625050e-02,3.032614500940138211e-03,-6.738980860615492383e-03,2.477632255484177662e-03,3.837380707263946533e-01
3.422421966968567375e-01,-3.191730690139688020e-02,-2.601589324878966769e-02,-1.669400174301051811e-03,4.179869145301661447e-03,6.554158546011477383e-03,3.714993000030517578e-01
3.333349938115894862e-01,-2.489419126547964822e-02,-3.126193194849288814e-02,6.933447256757676452e-03,-1.600199928062349258e-02,2.017403102946890240e-03,3.627319037914276123e-01
2.567059398401061454e-01,-6.549734864638515064e-03,-1.591038059438847074e-02,-3.734491548508595471e-04,-1.482963310553232989e-03,-5.000101149627369373e-03,2.682115435600280762e-01
3.160372699646439298e-01,-2.406617835011859441e-02,-3.059298959111217409e-02,1.673968002921323930e-02,-1.917837242943872325e-02,7.114480502403043062e-03,3.464515507221221924e-01
3.501817529521336625e-01,-2.998899005194372025e-02,-2.841852111506859568e-02,2.266061137550599153e-02,-3.317894283531049818e-03,4.540424250430728607e-03,3.815371394157409668e-01
3.630982918866152986e-01,-3.019797863518128289e-02,-3.562670728827899147e-02,2.278614238807427292e-02,-1.343798732931190953e-02,3.509512875384023737e-03,3.987265229225158691e-01
2.955687679034496029e-01,-1.704154687899957221e-02,-2.588678005895192480e-02,1.107717765957846358e-02,-1.126681121238832725e-02,7.518441672135055785e-03,3.185703456401824951e-01
3.870383821235819366e-01,-3.375442606369905008e-03,-4.945886569088786544e-02,3.380783772088306188e-02,-4.380768010471495361e-03,9.641030774811277506e-04,4.195563197135925293e-01
3.470380815919767992e-01,-2.692737338950831893e-02,-3.514955101705369289e-02,-7.078184672398376729e-04,9.644163691718105839e-04,2.437514456323020603e-03,3.781728446483612061e-01
3.551468676492110510e-01,-6.763362074265033552e-03,-3.139028481467223686e-02,-6.791207500758202108e-04,-1.636215127679564296e-04,7.010545147753191597e-03,3.750295341014862061e-01
3.373451548670328703e-01,-8.543419444849098543e-03,-3.967733251200772360e-02,3.229996099772215051e-02,9.656207298105833406e-03,2.614491398561900101e-03,3.671609759330749512e-01
3.126391192020198662e-01,-2.728061472293819012e-02,-2.540062352879010610e-02,3.335548068672552352e-02,2.873466584235617044e-02,-1.720652810528764743e-04,3.474547564983367920e-01
3.688086133973733083e-01,-2.076460061397464307e-02,-4.616169963392119380e-03,-2.354826189184882138e-03,8.687517741462777530e-04,1.011893749680581843e-02,3.821820914745330811e-01
3.537591957002583776e-01,-2.651941437350194275e-02,-2.065487793088113810e-02,8.047605920774549698e-03,2.683227202403399431e-02,1.499505388257353113e-02,3.813722729682922363e-01
3.539973775306156645e-01,-2.309541628288880322e-02,-2.870897233145344729e-02,2.482357050926121533e-03,3.708736187255016852e-03,4.280950229654319379e-03,3.800816237926483154e-01
3.367469959066955454e-01,-3.571511152388451293e-02,-2.447579287410103777e-02,-7.200801703669530251e-05,1.375079388400481453e-03,-3.451457709159722054e-03,3.670279979705810547e-01
4.172417516077855937e-01,1.763537086049146718e-02,-5.448918304049199524e-02,6.266933773689821463e-02,4.017559291380079500e-02,2.640414958832957432e-02,4.608955979347229004e-01
3.386822487401036641e-01,-1.047620094667764401e-02,-1.445308556346006079e-02,5.162493712449039984e-02,3.267320354631414459e-02,3.881384180752335544e-02,3.728720545768737793e-01
3.891417642521060594e-01,6.816163514014039748e-03,-3.679074683111541177e-02,2.531721525593536373e-02,2.530214668844642939e-02,2.832312850072975230e-02,4.135172963142395020e-01
3.981925109398928297e-01,1.099501031606742174e-02,-4.912484081325091401e-02,8.852350925983783203e-02,4.997128890386215438e-02,2.953446943923609957e-02,4.587287306785583496e-01
3.794138453037860237e-01,-6.747516193326530409e-03,-2.868060358726695624e-02,7.491670417972638718e-02,5.835408982611151041e-02,3.704063645684348843e-02,4.350178539752960205e-01
3.645571502462144897e-01,-3.338042439771640724e-02,-3.866059762488743834e-03,7.530194428274761612e-03,3.610636243547717811e-02,3.205808508549428358e-03,3.893488049507141113e-01
3.455327848482220299e-01,-2.868527628093156534e-02,-3.327903082552691183e-02,2.691031762194158027e-03,1.755336275710621014e-05,4.023416398278375702e-03,3.766292929649353027e-01
3.554192549327245820e-01,-3.311546074964125119e-02,-3.193363986679476074e-02,-4.443702643188162131e-04,4.303138649415358050e-04,4.848555913851970169e-04,3.879475295543670654e-01
3.623329279164573258e-01,-4.050464913938064959e-02,1.205501366806749353e-03,3.955266685784060432e-03,6.605361332676638539e-03,1.254187040848646871e-02,3.845323920249938965e-01
2.920068867121072831e-01,-1.756665548264706167e-02,-2.856812711465916976e-02,-1.742788137452423031e-02,2.873869177035265343e-02,9.604882638930261479e-03,3.209801614284515381e-01
3.745600340615899970e-01,-4.461381798117045050e-02,-6.107078736172694144e-03,-1.804088380913635998e-04,2.745099137264438507e-03,3.455971506622697309e-03,4.013813734054565430e-01
3.549969014976740445e-01,-3.253688597092752044e-02,-3.167754926188609543e-02,-7.809484998774305232e-04,2.155602624063493651e-04,6.452261567196720081e-04,3.871089816093444824e-01
3.477751484558772588e-01,-3.423196576406392633e-02,-2.915304892402700854e-02,3.342810260053328143e-03,-1.082709192887354802e-03,3.263060475327972648e-03,3.795840144157409668e-01
3.651117617213837652e-01,-4.376366726626607084e-02,4.176358011462322217e-03,-1.893129075401282779e-03,7.506742191544017034e-03,8.351116154627672220e-03,3.876401484012603760e-01
3.616672411512986129e-01,-3.628581361425628482e-02,-2.142221802909299866e-02,-1.154666492704116811e-03,1.871826243704411558e-02,2.726255471524042812e-03,3.921096324920654297e-01
3.567837082627187684e-01,-2.689615815885806893e-02,-3.325160697142662269e-02,-1.569963689860402755e-04,8.183207484961247877e-03,8.688939031408757013e-05,3.871563971042633057e-01
3.881779214788645405e-01,-5.148593492527805959e-02,-1.191439479079930974e-02,-4.088219355846698169e-03,3.557366000430139952e-02,6.319124826410759017e-03,4.259558916091918945e-01
3.448055625453338990e-01,-4.123271698710384570e-02,-2.351355314501152316e-02,9.328014053158241187e-04,5.942691556191648239e-04,-5.092641454649919890e-04,3.774966299533843994e-01
3.188432106037539793e-01,-3.010716639936092398e-02,-2.413780724173977821e-02,-9.310106704042121761e-03,1.079172273631647493e-02,5.153847488568912352e-03,3.469986915588378906e-01
3.553258079292168636e-01,-3.038999820218513115e-02,-2.840183262041534595e-02,-3.062282972509688169e-03,1.433194306745712646e-02,5.939661977796474590e-03,3.856993019580841064e-01
3.529204695071205267e-01,-2.813941840043246434e-02,-3.785824504475601704e-02,-2.528630102706627344e-02,1.718891584518708604e-02,-1.486385492945037530e-02,3.904765248298645020e-01
3.427400291183303471e-01,-3.864265402612945821e-02,-2.248181023924511468e-02,3.033047451552130409e-04,-4.932298501594525788e-04,-9.088511294194272314e-04,3.735691905021667480e-01
3.628948759324434059e-01,-2.575368217220505573e-02,-1.873783073989240822e-02,-1.730878289016270916e-03,6.707730487836079114e-03,-8.406566005548003762e-03,3.856503665447235107e-01
3.430432451758088086e-01,-4.139531904273835439e-02,-2.202763727863543686e-02,1.479754586087710273e-04,-4.733604511279647722e-04,-2.142570666451393529e-03,3.751492202281951904e-01
4.225060208548677143e-01,-1.219005729885258571e-02,-4.963341957387726322e-02,8.173097939118464939e-02,-4.076812889742045809e-02,-4.636970757603767895e-02,4.879708886146545410e-01
3.429204670456181825e-01,-4.164687248410209319e-02,-2.139567840104728003e-02,2.041933600511624917e-03,2.041857274965019615e-04,-5.017283785525470611e-04,3.748700916767120361e-01
3.537031991701832800e-01,-2.937683092092982506e-02,-3.152675914226835130e-02,-9.030299026010874756e-04,2.082619761552174258e-04,-1.120440193198240283e-03,3.841677606105804443e-01
3.227898610432384796e-01,-1.889813300643250482e-02,-2.921604816470108057e-02,-1.209864907763638295e-03,7.941580919980567588e-03,9.168241966144073316e-03,3.476038277149200439e-01
3.434933204354590486e-01,-4.120761592337651713e-02,-2.299766502052408290e-02,3.321455883430109182e-07,2.736931725992558344e-04,-1.308224692100921037e-03,3.759340047836303711e-01
2.364962627338060286e-01,-1.410199494582049795e-02,-1.077868116027762280e-02,-3.382978813836819837e-02,3.183312115315840157e-02,7.661723269627702601e-03,2.619679868221282959e-01
3.552950516056002095e-01,-3.288586629661727212e-02,-3.172371463200396313e-02,7.369649105352523398e-04,1.483132116473559329e-04,-8.386971730128056982e-04,3.876060545444488525e-01
3.011922992782170017e-01,-2.141281735118660823e-02,-2.426366755175826673e-02,-4.323888950520355691e-03,2.580928218229643772e-02,3.047692230732415228e-03,3.272372186183929443e-01
3.552232519353985540e-01,-2.998387808872593485e-02,-2.793943526832193269e-02,-2.503007999036300536e-04,-8.657529827780436390e-04,-1.147655411044577311e-03,3.841972947120666504e-01
3.469684393448033699e-01,-2.365119803855966762e-02,-3.538876140411015281e-02,-3.757041330180282122e-04,4.653836028586904282e-03,-7.501408856641098109e-04,3.767146766185760498e-01
3.431069561032342174e-01,-3.231392055201168234e-02,-2.573494284264954413e-02,-1.530322615009156641e-03,6.702770445670995156e-04,2.250190329337150436e-03,3.722066581249237061e-01
3.508821852849863254e-01,-3.216391057461653880e-02,-3.031830272399616000e-02,-3.326427228630319394e-03,3.729985501113766699e-03,3.599972396970856688e-03,3.822755217552185059e-01
3.414092763108342310e-01,-4.165593812157050713e-02,-1.976336011320417585e-02,1.631971570438517675e-03,2.733687788519841163e-04,-4.872093446871246037e-05,3.726126551628112793e-01
3.470664398962619579e-01,-3.918841201997116941e-02,-2.368359359248764506e-02,-1.678815835820085187e-03,8.997905953170228129e-04,-8.689504168899987117e-04,3.787578940391540527e-01
3.490799190882156178e-01,-3.169729721149897039e-02,-2.966126675180560945e-02,-4.102959116994324483e-04,3.157803455168029828e-03,5.947233873367412799e-03,3.799430131912231445e-01
3.470440063102198658e-01,-3.736323618426273807e-02,-2.533868384573242927e-02,-7.217626966099284112e-04,-4.961206964061504795e-04,-1.639869237044944833e-03,3.785519301891326904e-01
3.539337976574402078e-01,-2.856032120034751598e-02,-2.871819759397542526e-02,1.265624720424440072e-03,5.445610065496486740e-05,5.148528246851130554e-04,3.825803995132446289e-01
3.452530166623606345e-01,-3.287425541505464843e-02,-2.840618655438340023e-02,-3.410557435155629237e-03,-9.499981771812725500e-04,5.066322209140178105e-03,3.760655522346496582e-01
3.230050230465437155e-01,-2.566722386181527482e-02,-2.548338052758122863e-02,-2.647854544951157643e-02,3.493225547696519884e-02,-2.962833865765495105e-03,3.567894697189331055e-01
3.515322494308051882e-01,-1.090374844293212631e-02,-2.730510515008435779e-02,5.606844222474319933e-05,-2.961119731230212569e-03,-6.683549146792621028e-03,3.711248040199279785e-01
3.575093855068783300e-01,-2.045813915816105388e-02,-2.418759041759210859e-02,-1.915751790438122333e-03,-1.648142628104783038e-03,1.440264342257601294e-03,3.798793852329254150e-01
3.556713642230329708e-01,-2.744417707956317565e-02,-3.157425512183886784e-02,-7.847144011562913945e-04,8.747227916668796205e-03,2.334574200591179802e-03,3.855186402797698975e-01
3.529862492104058891e-01,-1.804490251885870755e-02,-2.495062280636964336e-02,-6.265108854752491577e-04,-1.643167554912100005e-04,9.863694738347535129e-04,3.745373487472534180e-01
3.467856814656513631e-01,-2.495961343169725288e-02,-2.253582064272888208e-02,-3.234623215260900089e-03,1.005983401415436705e-03,-3.702452235173500639e-03,3.706412613391876221e-01
3.484405737388916457e-01,-2.908814957406438695e-02,-3.503371523153855915e-02,-8.146895088439931945e-03,1.011111067820332464e-02,7.338789387700924392e-03,3.814122378826141357e-01
3.571333007936980941e-01,-1.115311401790711199e-02,-2.351158370596431735e-02,2.509973511519885455e-03,-1.070667749779717452e-03,-4.152909819716985029e-03,3.747174143791198730e-01
3.525170177809398564e-01,-1.944094172694885159e-02,-2.259012957156467105e-02,3.411745578078274584e-04,-1.724495594041756692e-03,2.820387285152220242e-04,3.735552430152893066e-01
3.560984604031592893e-01,1.765547279177104301e-03,-2.778416610778791651e-02,-1.308321443215413953e-04,2.031951274835574919e-04,-1.406887499872924718e-02,3.707956373691558838e-01
3.765839475346529630e-01,-1.064482745087522164e-02,-2.415406104904604945e-02,-2.955657584779212890e-03,6.235367928556110814e-03,-3.266374328082643358e-02,3.983759582042694092e-01
3.484783289300081299e-01,-3.866863569649864329e-02,-2.700042355597156996e-02,3.607130667135360902e-05,-5.028214178980178152e-04,-2.600124913027084157e-03,3.814743161201477051e-01
3.442080617852747992e-01,-3.309636465369969471e-02,-2.706873240020571392e-02,-4.050595691947341914e-04,-4.386294803102316420e-04,-3.849651387670086512e-03,3.743878304958343506e-01
4.073213136584289962e-01,-2.849714033983283268e-02,-8.638142758115280317e-03,-4.163546628008226759e-03,5.851974458706141885e-03,-1.804966495573557747e-02,4.275620281696319580e-01
3.681883026469373044e-01,-3.426655922734370141e-02,-1.113374599745281524e-03,1.790404710240683754e-03,1.842847159475319990e-03,-8.656171300280905007e-03,3.872608840465545654e-01
3.604174795716007518e-01,-3.309877758017798488e-02,-4.276514932927272250e-03,1.765233170077633133e-03,7.250976268298995123e-03,1.930176500399283235e-03,3.801604807376861572e-01
3.715580784887171362e-01,-2.744871278304863993e-02,-1.373391784184274655e-03,-4.374122551050756494e-03,1.388062981007355447e-03,-7.977131892878278410e-03,3.869576156139373779e-01
3.062064848926344118e-01,-1.751332948775090326e-02,-3.477806604941535706e-02,1.077957327194392807e-02,2.598951463701902956e-02,-5.896474123402674003e-03,3.363938033580780029e-01
3.483307757220788226e-01,-3.798184050502234621e-02,-2.463487582170489909e-02,3.917339996284210230e-03,-1.229217746788898195e-03,-3.693070413748143614e-04,3.798821568489074707e-01
3.562638397093459974e-01,-1.755573451891498382e-02,-2.814651783629334991e-02,-3.453110017891223779e-03,-8.776355047131825793e-04,3.445235954195481468e-04,3.792765736579895020e-01
4.021395412570987760e-01,-2.242440331184875069e-02,-2.811614653679236908e-02,-1.786697565293703105e-02,1.345884957255339895e-02,-2.586547090096663962e-02,4.315224587917327881e-01
4.240093307165487824e-01,-9.659689469401905315e-03,-4.923314925287786137e-02,-2.977706650683016598e-02,8.892816222364215151e-03,-1.750658046711639840e-02,4.589263200759887695e-01
3.505803510014953717e-01,-1.435132730465341067e-02,-1.762390794846885322e-02,1.182842255760496416e-04,-4.943943511794051055e-04,3.343685443942797991e-04,3.665804266929626465e-01
3.629316269970155329e-01,-7.570849957764913540e-03,-3.830858076973198134e-02,5.796650930572520496e-03,-5.202082297845829397e-04,5.175922839866820306e-04,3.869208097457885742e-01
3.512566658959347388e-01,-1.957399765521514179e-02,-1.747398380988651745e-02,5.229083777135139915e-04,5.131981200412261742e-04,-1.030269474184088803e-03,3.697916269302368164e-01
1.327231148992054632e-01,-3.793731669059427491e-04,-6.077105484829724291e-03,7.266062365824139946e-02,-2.311064804845846914e-03,-1.107850508250614666e-02,1.863599717617034912e-01
3.566787062165354683e-01,-3.151624476166037248e-02,1.820018185510946518e-03,4.121645475925620264e-03,8.258558520999948523e-04,-1.490606149615902182e-02,3.736110925674438477e-01
3.575391003290351866e-01,-2.802803781990326204e-02,-9.860300210277839206e-03,1.329705332287514381e-03,-3.740679381879980989e-03,-1.181537122043998383e-02,3.774298429489135742e-01
3.551299221807138751e-01,-2.616916950766212668e-02,-1.182987718168956870e-02,6.528990034628593103e-04,1.316881327591531590e-03,-6.774837950555328593e-03,3.745280206203460693e-01
3.719360509461190900e-01,-3.482698921655377755e-02,-1.309224451272711365e-02,-1.198260251948447602e-03,7.165106135252532343e-03,-4.643291158017833972e-03,3.966241180896759033e-01
3.555778631318847194e-01,-2.832000160658884602e-02,-2.729274266931983051e-02,7.454656418784041125e-04,-1.904990225219214874e-03,-1.276602848579293733e-05,3.834016323089599609e-01
4.015429152119780465e-01,-4.236629313357390125e-02,-1.410314126727305051e-02,-1.668470904085937387e-02,2.133224970238818338e-02,-1.444322581252479622e-02,4.337442517280578613e-01
4.204755233222310928e-01,-9.171708259432947985e-03,-2.148622949362760659e-02,8.366009949146610905e-03,9.507966766237010980e-03,3.656386367158841189e-02,4.410569369792938232e-01
3.687424379095738947e-01,-2.865738044079943481e-02,1.170203540830672129e-02,5.760085891105936294e-03,-2.212216183252794805e-03,-2.176457384457872873e-02,3.808569014072418213e-01
4.295353565684803532e-01,-6.880076830484896377e-02,1.692703906024911609e-02,-7.666624465077268719e-03,-1.141959672120797763e-02,-5.021666958174767111e-03,4.621797204017639160e-01
4.233406028903021756e-01,-6.046640338099523726e-02,2.539711549177597893e-02,4.357782318484012749e-03,4.522927075082636139e-02,-5.635112246016751522e-03,4.540811479091644287e-01
3.479422006128076172e-01,-3.669090125541660252e-02,-2.621969695479117735e-02,2.397928585923810138e-04,2.000214922422411615e-03,-1.451757531337647409e-03,3.795302212238311768e-01
3.509050994594621886e-01,-3.452499698735975175e-02,-2.629741232761018122e-02,3.198936948149200526e-03,1.335372730146078832e-03,-1.972257431332466102e-03,3.814454376697540283e-01
3.547886675721385608e-01,-2.657162202614071767e-02,-2.731273733349318111e-02,-2.493010174530533619e-03,9.398663877369206176e-04,-3.917175595432041192e-04,3.817598819732666016e-01
3.459091574843957129e-01,-2.957887563021077693e-02,-3.194072125330738032e-02,1.820656016638692247e-04,1.324815216863951079e-03,-3.064795271642359580e-03,3.767190277576446533e-01
3.532824560547128123e-01,-6.769720983585247875e-03,-2.179917637072489867e-02,1.256891228326100646e-03,-1.269650866608102061e-05,3.619101854901165486e-03,3.678571283817291260e-01
3.357750573104841818e-01,-3.812286020970942491e-02,-2.028309280377710300e-02,4.632703292317155675e-04,-1.282701454125206864e-03,-4.302142662879403397e-03,3.653885126113891602e-01
5.404930840582369278e-01,-6.104496900192607489e-02,1.323811906736796495e-02,-1.171719949461353869e-02,3.090924608731647483e-02,-1.164212781191906881e-02,5.712850093841552734e-01
3.645781454507295849e-01,-3.868012098525663855e-03,-2.804062494571799014e-02,8.174123581006314393e-03,6.716155870810076520e-03,1.346182925457677787e-02,3.822599053382873535e-01
3.412304200170623303e-01,-3.788273463629071580e-02,-2.304188417069807926e-02,-4.080983232186985617e-03,6.336592364680056167e-04,-4.238392873021695414e-03,3.720560967922210693e-01
3.502226884247944816e-01,-1.431785485235662070e-02,-1.564642614761124761e-02,2.413235536127561153e-05,7.673914740237057844e-04,1.224264954156285747e-03,3.652152121067047119e-01
3.531785122519032760e-01,-2.417527427551530161e-02,-1.409225032918084985e-02,-1.775960315482008611e-03,5.461391708752006639e-04,8.635844759780113766e-04,3.724315762519836426e-01
3.490933937546080723e-01,-1.437380585751230067e-02,-1.561311841807944134e-02,1.228347490702455287e-05,-1.940597526330889422e-04,4.865237952171479262e-04,3.640895783901214600e-01
3.540302827073913416e-01,-2.345882890142378385e-02,-2.721228148728113694e-02,3.220358796933595492e-03,-6.951027466841012276e-04,2.376363779776888611e-04,3.794229030609130859e-01
3.566509034581694104e-01,-2.953157125755462298e-02,-4.447863767716442318e-04,-5.533052987746341425e-03,3.995161046651690001e-03,1.472319658974603242e-02,3.735507726669311523e-01
3.474228759301177805e-01,-2.628841967239958777e-02,-2.640110289690950074e-02,5.950502342735111000e-03,5.389075373849808864e-03,-5.304537478658897251e-04,3.740273416042327881e-01
4.158640848880378882e-01,-3.187354446147444564e-02,-1.043175504408583310e-02,1.908225482794315836e-02,1.802855010783072781e-02,3.044397834872411557e-02,4.429180920124053955e-01
3.521453479490648797e-01,-1.885402709139524791e-02,-1.743415160509326212e-02,-3.449366908732670752e-04,1.870713007086167567e-03,7.429921292317671509e-04,3.703083693981170654e-01
3.695700937015482523e-01,-3.342396579501766274e-02,6.989334244190403833e-03,1.993963674975855055e-02,3.218203429936323384e-02,2.254121222769129088e-02,3.918868005275726318e-01
3.670679412235285377e-01,-2.946277436581529185e-02,-2.135180840312084216e-03,2.645584942751061115e-03,4.093796382686434865e-03,1.194183843994946204e-02,3.842476606369018555e-01
3.606638524788637334e-01,-2.653338808527436199e-02,8.327410318577088688e-04,3.303123263105230134e-03,6.519858539521968671e-03,1.346666749777856997e-02,3.752050399780273438e-01
3.542572771990600278e-01,-2.722913819893371667e-02,-2.210874024215417344e-02,5.282183892603336934e-06,1.801674457311385445e-03,9.034644689371706516e-04,3.789682388305664062e-01
3.333109341862550701e-01,-2.464604804183734288e-02,-3.797040315165009505e-02,2.776250388370107153e-02,-4.879111239327495880e-02,3.383294881692903381e-03,3.775825798511505127e-01
3.379376732647637605e-01,-3.495900804178053711e-02,-2.383997179213331874e-02,8.377213346915476921e-03,-5.121627700301999674e-03,6.675624035054353311e-03,3.680383563041687012e-01
3.570431863555598717e-01,-1.308700494199482867e-03,-2.642240483102814563e-02,-2.242453846747260245e-04,2.937684888707563571e-03,3.645895303007329422e-03,3.716345429420471191e-01
3.553754017377947494e-01,-2.598507058990381924e-02,-2.699307535149134130e-02,4.757566261166078746e-03,1.008661864234858480e-03,3.357259727022185100e-04,3.819588124752044678e-01
3.252319037164751458e-01,-3.614519382679881598e-02,-1.930689646433450535e-02,8.876305290570653608e-03,-2.126472515159235493e-03,4.258575148567632709e-03,3.536895513534545898e-01
3.482117941408605089e-01,-2.637903444399478103e-02,-2.744915504515826887e-02,5.831709197251533708e-03,-9.855277605784321972e-04,-1.165859568572162868e-04,3.752669394016265869e-01
3.489427258232521423e-01,-3.680688522049957445e-02,-2.401008034866827789e-02,8.755887708639904093e-03,-5.284893446629557699e-03,4.379835690146377872e-03,3.800019621849060059e-01
2.286820421085908883e-01,-1.902572376278705013e-02,-8.873670315297899069e-03,3.828876412104029875e-02,-2.535462849323031481e-02,4.466688606052479811e-03,2.556051015853881836e-01
3.239010178877748114e-01,-3.713997257806614383e-02,-2.019610390313372750e-02,3.147767457742486202e-02,3.577993108133711853e-03,-3.571577366069718634e-03,3.571686744689941406e-01
3.171940593056861157e-01,-2.622571289590086563e-02,-2.559421385922866499e-02,9.141485464056473345e-04,-1.970884395404972223e-03,-7.645359929691862566e-03,3.433805108070373535e-01
3.428329191439614121e-01,-2.961793886965502498e-02,-2.919947801452257852e-02,3.417556502559312287e-03,7.384107140093479349e-03,-3.932704820251476524e-03,3.725707530975341797e-01
3.503940601281947398e-01,-1.522411616309066185e-02,-1.513303045559918902e-02,1.284277639631444716e-03,8.667904465479384785e-05,1.943466837115809427e-03,3.655949234962463379e-01
3.150939788595497060e-01,-2.523234730440909734e-02,-2.449842800423174261e-02,1.251064573369204021e-02,1.314528858964885555e-02,-6.579304248800365088e-03,3.416000306606292725e-01
2.872782002410247948e-01,-2.552085636415706016e-02,-1.674023255897165441e-02,1.374981514279421252e-02,6.504557042572619262e-03,-7.262256819502452797e-03,3.098807930946350098e-01
3.472758325819320091e-01,-2.874622166860404948e-02,-3.061053811545896841e-02,8.799421556602454210e-04,1.519205414885375872e-03,-3.814486991514734211e-03,3.770278394222259521e-01
3.528557743621879572e-01,-3.069611763180424280e-02,-3.024600578886890712e-02,3.450766614632594246e-04,3.444391568267026523e-04,1.670160099161312585e-05,3.833279609680175781e-01
3.475693767505639853e-01,-3.709276814098899644e-02,-2.670444388126796964e-02,-3.803574150205139988e-04,-9.731055349268854897e-04,-1.300246429225231657e-03,3.795856237411499023e-01
3.520503256254640667e-01,-1.804031494002011904e-02,-1.848726964327446209e-02,1.728551128456480308e-03,-3.194552096070001697e-04,8.316043238301042270e-04,3.703296482563018799e-01
3.566981268495432733e-01,-1.459482990302404803e-02,-3.185699881464892913e-02,2.175618350574726190e-02,1.362956256947043740e-02,7.603811364613545336e-03,3.830358982086181641e-01
3.534286647524909619e-01,-2.256013462732495145e-02,-2.624195620793037809e-02,1.493628602073584881e-03,-7.741983490091292443e-04,8.837596410927457506e-04,3.778575062751770020e-01
3.302945478579487615e-01,-2.079561591003076249e-02,-2.702723048047794840e-02,1.406230081876319940e-02,9.674882918635210535e-03,-1.902936384193856887e-03,3.554939031600952148e-01
3.058498479123389902e-01,-2.646162277094235571e-02,-2.513760311852666907e-02,2.002020691495687288e-02,4.495971698451177445e-02,1.714803904844767893e-04,3.424314856529235840e-01
3.564398464375092557e-01,-2.828338405005406675e-02,-2.853710627149066981e-02,-2.042665935579675296e-03,-2.919715568722635202e-03,-2.016013464869473304e-03,3.849154710769653320e-01
3.583100189994945506e-01,-2.246326126229972187e-02,-1.166437517226398546e-02,-4.614656449832586944e-03,-5.425564807181685115e-03,8.341120188877238981e-03,3.759706020355224609e-01
3.723604100774727810e-01,-4.141651260805895296e-02,-9.464241624720259871e-03,3.648328649225483430e-03,7.690470097270039494e-04,5.353735372789080946e-03,3.989221453666687012e-01
3.733027712364780926e-01,-2.754091488709134450e-02,-1.158925455248854819e-02,1.171761249317534309e-02,2.762643399851562320e-02,1.340965105791859686e-02,3.972115516662597656e-01
3.425682268544100184e-01,-2.538501185631664159e-02,-2.278629808464488482e-02,2.819629982301989028e-03,4.826553629276592559e-03,3.767191957786585749e-03,3.668466210365295410e-01
3.405751557750419933e-01,-2.697927561611804248e-02,-3.322882795732801098e-02,7.061617139136973711e-03,1.532028413721374036e-02,-4.972409467818904825e-03,3.719681203365325928e-01
3.692767348041327558e-01,-4.071191275493410422e-02,-1.384433785735808553e-02,7.592983778080875969e-04,-2.314600399958501205e-03,9.463381306251721775e-03,3.975973129272460938e-01
3.555847354867349708e-01,-2.980078583381129409e-02,-3.099783947523765404e-02,-5.331789614595491660e-04,-5.802148782488721849e-04,5.761792956457262305e-04,3.859891295433044434e-01
3.544351390584736805e-01,-2.989216188994620049e-02,-2.739277298512898806e-02,-3.528699506046740911e-04,8.507318375361749320e-04,-2.623218123546500039e-04,3.830873072147369385e-01
3.438481142196853080e-01,-2.875601822362863769e-02,-2.882451418918915986e-02,2.650607180067863534e-03,2.554501090235223194e-03,-3.376871492849593641e-03,3.727388083934783936e-01
3.442253598095308398e-01,-2.941546911310397028e-02,-1.856658230966601320e-02,-1.236404558132745074e-03,8.151543568076079910e-03,1.072783490304572230e-03,3.686176240444183350e-01
3.557258127214251164e-01,-2.700337185319331978e-02,-2.953972464346985016e-02,-4.790613471038183274e-03,3.499089478199024906e-04,-1.189622100877424241e-03,3.840992748737335205e-01
3.541515249261003029e-01,-3.380683983002874538e-02,-3.045415028500841892e-02,-9.986001338699685911e-04,5.212309300127128051e-04,-7.976172573972711713e-04,3.863003253936767578e-01
3.483763246674262404e-01,-2.918319250922252195e-02,-3.424684808869643549e-02,7.822508618761849636e-03,2.310427138858186721e-02,-2.738930656446670123e-03,3.824868202209472656e-01
3.448743501692569935e-01,-3.129769782212532547e-02,-2.655899633625527501e-02,3.833630158871391067e-03,4.029109502393551576e-03,-3.446177545732567130e-03,3.739969432353973389e-01
3.533658697597830134e-01,-3.156928648381199243e-02,-2.732332940852114089e-02,-8.140504897143507499e-04,3.411082803856543247e-04,-3.050449421542843328e-05,3.828328847885131836e-01
2.991310559611295439e-01,-1.792110406284548596e-02,-2.742805525793326482e-02,8.843004257040739183e-03,1.672824278911703988e-02,-6.740239758484778756e-03,3.237854838371276855e-01
3.541270966032333267e-01,-3.276349303576758798e-02,-3.131118351762665619e-02,-3.563731647634878989e-04,-3.071731224551396645e-04,-1.144963256412783511e-03,3.861724436283111572e-01
3.565385797614143426e-01,-1.616827431827394523e-03,-2.744601733182666647e-02,-5.847417976826500483e-03,2.094212420364676471e-03,1.034060139770525029e-02,3.723302781581878662e-01
3.599165412704281586e-01,-2.837239104900646236e-02,-2.734020133976136635e-02,-6.893251573832167092e-03,2.376851081337382279e-03,-1.390491079615888961e-03,3.879869580268859863e-01
3.543341986664442778e-01,-2.658148203520316333e-02,-2.662594881015220571e-02,-2.587793699645608934e-03,1.071973961786929332e-03,-2.353760228964764129e-04,3.809690177440643311e-01
3.520237068283308401e-01,-3.722414158069442536e-02,-2.715335291074000290e-02,-3.786156219366846134e-04,1.386144504527501769e-03,-1.298724478541350225e-03,3.843260705471038818e-01
3.543267793518296016e-01,-2.931355727619033846e-02,-2.821360057014765665e-02,-7.285010348281066497e-04,6.504574149772897372e-04,-1.890749257296213143e-03,3.831092715263366699e-01
3.496699206936034199e-01,-3.029204293158541117e-02,-2.643148234584843936e-02,2.198495770795825133e-04,3.412854061910741937e-04,-1.592772927720086627e-04,3.780472278594970703e-01
3.426986474511345970e-01,-3.799663124703125949e-02,-2.413434982810719331e-02,-4.036697823625710717e-03,-1.472192536842163160e-03,-3.631850427372814924e-03,3.740838170051574707e-01
3.422072690837983377e-01,-3.770190185776189917e-02,-2.308696996217352027e-02,-4.103704165670211284e-04,1.015468565790693216e-03,-1.772233953052820702e-03,3.728340864181518555e-01
3.431157490011167988e-01,-3.667664127188269285e-02,-2.503317785923936389e-02,-1.091471374741284552e-03,-1.735806277839965772e-03,-1.163460791240836147e-03,3.741288483142852783e-01
3.542774655509735582e-01,-3.194291919607952779e-02,-3.288074700191970234e-02,3.800363725202218551e-04,4.270498485518154936e-04,-4.575128858710620326e-04,3.866922259330749512e-01
3.321174928579435082e-01,-3.405632251570187008e-02,-2.307880697985548180e-02,-9.833876653596662978e-03,-3.490530763778492210e-03,-5.781860641105755066e-03,3.614014983177185059e-01
3.519584845496338543e-01,-3.356258099038289533e-02,-3.034328265782124112e-02,-4.494847113811977586e-04,-1.124512492534586504e-03,-1.150762205511995928e-03,3.839324414730072021e-01
3.443976670373595783e-01,-3.851660562559292011e-02,-2.313636080806766304e-02,5.549311047569664918e-04,6.603053102235531460e-04,-2.166683535236978847e-03,3.754822015762329102e-01
3.390968083154215496e-01,-2.091380866436573505e-02,-4.036337608775752983e-02,7.906675771518999456e-04,-1.821944864168084134e-03,4.579541205349533291e-04,3.701357245445251465e-01
3.389042230062291883e-01,-3.202990123800145139e-02,-2.985477583098941623e-02,4.198673716593234392e-03,1.333785094801967367e-03,-4.451226503257963048e-03,3.700104057788848877e-01
3.434909386224782590e-01,-2.205159232550643611e-02,-4.200345383666453936e-02,-6.353202381428531840e-04,-4.120068200342746033e-03,-1.784330090697643610e-03,3.759978115558624268e-01
4.176707923783173348e-01,2.800244319411990257e-02,-6.192344054491338845e-02,3.903708750737158728e-03,8.593281680986974633e-03,9.238056692615858462e-03,4.421454966068267822e-01
3.383907954655953065e-01,-1.936789803280869471e-02,-4.040254470513715557e-02,4.255519824945597001e-04,-1.416451472962494684e-03,2.230243374414500074e-06,3.687351644039154053e-01
3.515799207229758361e-01,-1.384866105148138682e-02,-1.626282929703298796e-02,3.654504076524557783e-03,2.453314853983703907e-03,2.802901426364022217e-03,3.667530119419097900e-01
3.431375003870735241e-01,-2.110188914491403778e-02,-4.087282451730608890e-02,-2.192299081241567900e-05,-8.186029619851705385e-04,-1.508607369639021565e-03,3.745282590389251709e-01
3.520876913291989818e-01,-1.868004895258904008e-02,-1.990409843358403874e-02,6.506863100906691089e-04,-8.806994275996887084e-04,7.946721619515477236e-05,3.713861405849456787e-01
3.329148357168987271e-01,-1.839408277705101291e-02,-4.113291429165991109e-02,-2.719940476594530018e-04,-3.656862253389675001e-03,-1.307539791505942742e-03,3.632751405239105225e-01
3.503452714249467581e-01,-1.171052008603945538e-02,-1.834272936374181651e-02,1.125703268599700674e-03,-1.063210740017538980e-03,1.500731895030131980e-03,3.654361367225646973e-01
2.545287817010980502e-01,-1.375571692432285553e-02,-7.910487212766700860e-03,2.444904889408883262e-03,-8.462661425227657568e-04,1.867670852678651738e-03,2.654677033424377441e-01
3.357719192450261958e-01,-2.096178282379296265e-02,-3.990040945698197783e-02,1.017838950559515291e-03,-3.719548473970301847e-03,2.022314378202632289e-03,3.666476905345916748e-01
3.376149670991026586e-01,-2.223322404472455327e-02,-3.921971304185503659e-02,-1.228986207141225179e-04,-4.952722990911625003e-03,2.973317309310172588e-03,3.687708973884582520e-01
3.461924989901207228e-01,-2.296889302788904241e-02,-4.015529794639663419e-02,1.434665138051420888e-03,-2.693156467690959680e-03,2.034401528344617106e-03,3.781010508537292480e-01
3.414593730730663412e-01,-2.445730936656217991e-02,-3.928773340989613616e-02,1.243687726237180033e-03,-4.425466937876014993e-03,2.670770708821649641e-03,3.736662268638610840e-01
3.467218568015185687e-01,-2.459522268604727446e-02,-3.962966132254139295e-02,5.209574364061623532e-04,-3.184467991482223866e-03,2.643364608912809974e-03,3.791268169879913330e-01
3.505132042020910332e-01,-3.059357323209763169e-02,-2.912411293839364812e-02,-5.041382735046745327e-04,-3.335206007437986706e-03,-3.207234722694321267e-03,3.804596066474914551e-01
3.538593228749229991e-01,-3.555380314788303409e-02,-2.712127639356975983e-02,-1.324390190983437340e-03,9.693428014469645561e-04,-9.536762346900956805e-04,3.852801024913787842e-01
3.477579059699803521e-01,-3.850008855143163822e-02,-2.662281864205143234e-02,1.056141728989584000e-03,8.565466662883022223e-04,-7.578976407461853826e-04,3.804679811000823975e-01
3.379122419772396801e-01,-3.542926806275920049e-02,-2.499790931268067173e-02,-5.195956919516303216e-03,-1.865242088418321304e-03,-5.853512802270325645e-03,3.685002923011779785e-01
3.269469379182140534e-01,-3.487075575258125060e-02,-2.458125940465813453e-02,-6.383643967155882767e-03,-2.888556201764391242e-03,-5.815630323501084879e-03,3.571326732635498047e-01
3.525787757678952583e-01,-1.193624486046029887e-02,-1.839283769126920376e-02,3.760846217164569077e-05,2.557830659029552371e-03,3.583200694733004125e-03,3.678648769855499268e-01
3.385970421543708642e-01,-3.551316540107760100e-02,-2.502193248672426873e-02,1.346533751566684122e-04,-2.098124304561963579e-03,-5.015461505925268397e-03,3.690966963768005371e-01
3.536895709294055612e-01,-1.174788155016034952e-02,-2.016764884139762848e-02,1.101431353251163718e-03,-1.811486946816819510e-04,1.511943191064803703e-03,3.697335720062255859e-01
3.425464093434644197e-01,-3.026214203928170865e-02,-3.001150272588629098e-02,-9.933153352338450637e-04,-8.119569925509042760e-04,-3.767549655361702218e-03,3.727470338344573975e-01
3.447733894977805247e-01,-3.038289169967337000e-02,-3.008315625074742261e-02,1.154402715496135169e-04,6.745514503320499842e-04,-3.794168668479184440e-03,3.750659525394439697e-01
3.411293040688474498e-01,-3.583078423309438154e-02,-2.510667392597448755e-02,-2.649915715381260823e-03,-2.661034959317117119e-03,-3.871414194382990278e-03,3.718314468860626221e-01
3.554047650670497105e-01,-1.709767163077643981e-02,-2.697274222182152736e-02,-3.512930661835511788e-03,8.337170258430558721e-04,1.265514105348708191e-03,3.775950074195861816e-01
3.604470353529876658e-01,9.757646691873178568e-03,-3.421118395034683513e-02,2.724507859015257074e-03,4.443937897635149605e-04,3.576507021276118057e-03,3.746958076953887939e-01
3.544994974766578211e-01,-2.696492711425052535e-02,-2.469118704598194380e-02,-8.147564738893556301e-04,1.523306660161910693e-03,4.362455868242522583e-04,3.803451657295227051e-01
3.519285744900706447e-01,-3.276626867088200390e-02,-3.108523931498302639e-02,-1.285620626355699214e-05,2.193614914439348117e-04,-2.402086804215150962e-03,3.838798105716705322e-01
3.518538454167433049e-01,-3.507485690608211359e-02,-2.901467903841625784e-02,-8.935641260807156497e-04,-7.528084503152696581e-04,-1.151437355024537493e-03,3.839449882507324219e-01
3.548494953367985483e-01,-1.821710291390452041e-02,-2.149685378238291866e-02,2.207990063193546445e-05,2.919598354724183865e-03,1.886211347720239588e-03,3.747656047344207764e-01
3.279443072708496665e-01,-3.947890704308854026e-02,-1.559324192543060095e-02,8.888987793878669070e-04,-9.948678677180414903e-04,-1.730537536799385632e-03,3.561018407344818115e-01
3.550987428165836013e-01,-3.111758592927918454e-02,-3.116739489754835613e-02,-2.158053492780455710e-04,-6.407967813487512251e-04,1.226548076507273113e-04,3.862430751323699951e-01
3.558891767972598985e-01,-3.003371912857441539e-02,-2.845553534243699945e-02,-6.757460939739741825e-04,5.229645783237951056e-04,-9.892695738354306476e-04,3.851428925991058350e-01
3.544889645487562246e-01,-2.766858982688200075e-02,-2.707289513877730869e-02,-4.003540525818927338e-04,-9.632288772508886855e-04,3.720566249600176594e-04,3.818648755550384521e-01
3.518406772805132698e-01,-1.376065657961730859e-02,-1.347889017724759886e-02,9.378843849261488379e-04,2.760075237534241263e-03,6.142413455266958894e-03,3.656502068042755127e-01
3.506296501765540086e-01,-3.464504878145202582e-02,-2.832904294507634924e-02,-1.037250161366320240e-03,-1.370398597192878151e-03,-9.508318809636306761e-04,3.821709752082824707e-01
3.387264364999808541e-01,-1.855909741564107374e-02,-4.146111490199463900e-02,4.650359415606426404e-04,-1.356180918755140477e-05,-1.127953547369948961e-03,3.692756295204162598e-01
3.532516506583597282e-01,-2.772887755470010429e-02,-3.351092674310479635e-02,-8.564820645333277274e-05,-1.263263973525296548e-03,-3.116103184271460129e-04,3.839108645915985107e-01
3.551463210479731125e-01,-2.988268442511476941e-02,-3.089378456277100393e-02,-3.235217826401267055e-04,9.799274106264896367e-04,-1.002289520250652412e-03,3.855436146259307861e-01
3.564169280143820728e-01,3.254193244142916663e-03,-3.394058096630164778e-02,2.631446138307824787e-03,-3.719147365214212943e-03,-2.649664160422297333e-03,3.732646703720092773e-01
3.618110267231570698e-01,7.944008076066211288e-03,-3.800722238121223562e-02,5.572183148807190178e-03,8.434876896826501522e-04,-4.326098024228830323e-03,3.791377544403076172e-01
3.556719004533526740e-01,-1.597915922045822779e-02,-2.891532964996429422e-02,2.447774762953839646e-03,-1.173352891269506234e-03,-2.156164477157046424e-03,3.783327341079711914e-01
3.561246687272832112e-01,-1.085267080538723783e-02,-2.917928235584263397e-02,-3.697513953090922519e-03,-7.433356935883591747e-06,-2.445137331327696621e-03,3.765536248683929443e-01
3.555437986498355962e-01,-2.297800248275394530e-02,-3.204327150465069440e-02,-1.167042675386809406e-02,8.126957149059346871e-04,-1.211117182756069879e-04,3.836703896522521973e-01
3.548679390956303026e-01,-1.770762330733943735e-02,-2.778393118312769139e-02,1.176870755521761689e-03,-3.896373846101919172e-04,-3.009199882571369014e-04,3.777209818363189697e-01
3.415413181217326066e-01,-4.128858988017333753e-02,-1.977246389742631782e-02,-4.816153255898117901e-03,1.853969798087447707e-03,2.137782018226996698e-03,3.726637661457061768e-01
3.431532452135542255e-01,-4.097534509811834313e-02,-2.134956748421298900e-02,-1.237032699222493813e-03,9.730734003614840630e-04,9.352169735313970974e-04,3.747147917747497559e-01
3.508519942802406089e-01,-3.543449140386908947e-02,-2.864052502724898086e-02,-1.834113195977342056e-04,1.608310696747691608e-04,-1.804690955934634472e-03,3.829476833343505859e-01
3.484348373600048565e-01,-2.909848046007845745e-02,-3.504668253430501257e-02,-9.730082517059718532e-04,-2.162515304415271906e-03,-2.353398961237227437e-03,3.805862665176391602e-01
3.416793155748024113e-01,-4.202705171668172368e-02,-1.954177384163618969e-02,-1.550491641277226178e-03,-1.339098425495287704e-04,-3.782978174216506447e-04,3.729827404022216797e-01
3.425786296418555366e-01,-4.096806653240858687e-02,-2.114059861222647441e-02,-6.212938065959182875e-04,-1.671699059795159887e-04,-3.440063475174198830e-05,3.740289807319641113e-01
3.502217200920160756e-01,-3.414882823648554555e-02,-2.932231600948620454e-02,-8.983338052088038147e-05,-5.192678972822825601e-04,1.042069025167597241e-03,3.819855153560638428e-01
3.489308099133376917e-01,-2.902667657257154699e-02,-2.606254516693456980e-02,7.146214250173083763e-04,-1.208107181880591302e-04,8.735160627172862966e-04,3.764893114566802979e-01
3.532381311341513119e-01,-1.873937150016519171e-03,-2.632020362371964572e-02,2.827661910021479590e-03,-1.806010971275324745e-03,2.798389148032071061e-03,3.680225908756256104e-01
3.565463290899547055e-01,-2.353659463892895931e-02,8.456304650378276833e-04,-1.240090370166092772e-03,2.798908019957986344e-03,9.930694646836404210e-03,3.689366281032562256e-01
3.490630023800074255e-01,-3.704468205978184159e-02,-2.576339984121861493e-02,-3.275126236656390071e-04,1.264488303670544033e-03,9.704900613154149444e-04,3.806028962135314941e-01
3.510247053456069244e-01,-2.823446051861366879e-02,-2.585263552286315436e-02,5.021410133211977713e-04,-1.628139486886826665e-03,-1.732061416945395056e-04,3.780855238437652588e-01
3.498598844098597671e-01,-3.294551949868054774e-02,-2.594611621404643853e-02,-2.281442799818753607e-03,-2.542849142025227862e-04,2.573975781067605172e-03,3.794011771678924561e-01
3.522947966212075510e-01,-1.154758983461984245e-03,-2.677833636224830061e-02,4.486005703328023149e-04,-1.022147359520389219e-05,3.710102884551522151e-03,3.669900596141815186e-01
3.546407990478394057e-01,-2.587265072759667439e-02,-2.953428363749521779e-02,4.740084055608025440e-03,-9.058367495755764460e-04,2.866663662978370967e-04,3.824490904808044434e-01
3.523327079274140572e-01,-1.959629192330322733e-02,-2.163554410755019752e-02,-8.715885952334711997e-04,-1.207427008962900150e-03,1.665376496174416319e-03,3.729728758335113525e-01
3.601135608360475637e-01,-1.188764339167353024e-02,-3.013370633394471532e-02,4.366623865403642009e-03,3.137396137454027522e-04,1.641293680768930426e-03,3.815376162528991699e-01
3.012938465610660588e-01,-7.484514659223728827e-03,-2.834322307307307609e-02,-4.297505984766155501e-02,-1.933581271752999112e-02,1.838900155561258229e-02,3.315064609050750732e-01
2.927039502180174835e-01,-2.709911747406032467e-02,-1.579469419536472241e-02,2.361429785997301166e-04,-3.551393489487483036e-05,7.301363789158267330e-03,3.145579397678375244e-01
3.529163332056770019e-01,-1.808433218341651272e-02,-2.642005955697734887e-02,-3.532583777236418185e-03,2.722372983452181049e-03,-1.285273131349952153e-03,3.753240704536437988e-01
2.747056077835680621e-01,-1.823469784650058600e-02,-1.545891857766104605e-02,2.824327944870213061e-03,-1.407571614253232736e-03,5.235023714030267311e-03,2.917544841766357422e-01
2.540602236185079965e-01,-2.463368920097463999e-02,-3.848873876859199017e-03,4.490513283638010444e-02,-3.508556823401851282e-04,5.404676907321005188e-04,2.799292206764221191e-01
3.524846826500795394e-01,-1.790166690692276963e-02,-2.143426549915930512e-02,1.045501541946376560e-03,-1.886375475356097506e-04,9.352504327416707227e-04,3.721733093261718750e-01
2.539585009957467387e-01,-1.502688865576293220e-02,-2.017624148562990882e-03,2.416680787802816081e-03,-6.860885016832541381e-04,4.430827403754136057e-03,2.628705203533172607e-01
3.514807787153593210e-01,-1.965251429282768858e-02,-1.798154467984644511e-02,-9.179720919401058912e-04,9.640347694983497032e-04,2.694452461577274624e-03,3.703372180461883545e-01
3.527292898262367471e-01,-2.202747647143646348e-02,-2.208997095277490108e-02,-1.704156984438429719e-03,-1.403632339438503490e-03,-7.104328239807992723e-05,3.748075366020202637e-01
4.280791387770799261e-01,-4.336365259764746183e-03,-5.764834727663734060e-02,-6.545833690843069763e-02,3.220769136401833987e-02,-3.849326385252949817e-02,4.830008745193481445e-01
3.849755314891379898e-01,-3.765840758635893848e-02,1.735040444585442265e-02,-1.005920763548525396e-03,8.884502202475131130e-03,-9.942383711360030726e-03,3.986642956733703613e-01
2.425131516117765840e-01,-7.352834035223104747e-03,-1.061560218850933490e-02,-9.671622912447906673e-03,-1.227345627129788029e-02,-6.354084622957653639e-03,2.532045841217041016e-01
3.297889990911502811e-01,-2.734253904164798965e-02,-2.944514607232817660e-02,-5.058902535219083783e-04,8.657715588851542902e-04,6.780407569198445769e-03,3.583841621875762939e-01
3.516452062242226839e-01,-3.549171791904220941e-02,-2.688674198270590843e-02,-2.248552157800238170e-03,-2.002184505382985358e-04,-8.932282857187584741e-04,3.829300403594970703e-01
3.609805754192988436e-01,-3.730977854469214039e-02,6.627812623179185625e-03,1.349741153445060808e-04,-2.055562672280931806e-03,4.426721024625000604e-03,3.783349394798278809e-01
3.493635731107995746e-01,-3.247167857093891108e-02,-2.537527890087126758e-03,6.459637017908950209e-03,-3.341725942166955121e-02,-4.206092224685303166e-03,3.725489079952239990e-01
4.036440717533827383e-01,-1.053308612326336879e-02,-3.998352616198411202e-02,-8.043455073414203238e-03,-7.020179938516626916e-03,2.144453158568471532e-02,4.316587746143341064e-01
3.560955793128199320e-01,-2.686368919367293495e-02,-2.232279596303729519e-02,-2.817547359349743211e-03,-1.257593684289194484e-02,6.901728593570121643e-04,3.813648521900177002e-01
2.943000018117500893e-01,-2.516943287822416553e-02,-2.525146112229514905e-02,4.353551296483264277e-02,8.149050754636004423e-03,-9.174444392200020639e-04,3.285950422286987305e-01
3.229669866996910943e-01,-2.846442769767973391e-02,-2.544276650562563025e-02,1.666776867338556900e-02,4.948097553108672837e-03,-7.326570745663871925e-03,3.514529764652252197e-01
3.470799327680780810e-01,-2.634368721104199396e-02,-2.518580647490431534e-02,6.060133962747384084e-03,4.769739147364620777e-03,9.830547049373797883e-05,3.730852603912353516e-01
3.504215345055077258e-01,-3.466967471744736295e-02,-2.869580787994838178e-02,1.387279597048914374e-03,-1.035919228832381158e-03,-3.315717509878519324e-03,3.821942210197448730e-01
3.491836354099074891e-01,-3.511452888340693690e-02,-2.713228589263100288e-02,-1.714121235007688964e-03,-2.063418724809880052e-04,-4.910303914377365467e-04,3.803825676441192627e-01
3.519167900732734222e-01,-2.964624144812663675e-02,-2.593094878325991059e-02,-1.192446845840752475e-03,-3.199393858131528972e-04,-1.977438627868030011e-04,3.797251880168914795e-01
3.334651848303766264e-01,-3.310395285662828813e-02,-2.658361750623597364e-02,-1.472837841704223785e-02,-1.645546249722522293e-03,-5.414588481408522114e-03,3.643791377544403076e-01
3.627970782085283563e-01,-5.822898345364091455e-03,-4.062437145215250234e-02,-8.028721822085908844e-03,-9.331172919601476989e-03,8.018767848610582408e-03,3.880307376384735107e-01
3.545529785823646751e-01,-3.085373983682834775e-02,-2.800123238524709901e-02,-1.934401975999239937e-02,-6.812262582850609274e-03,-3.631223570065218818e-03,3.856792151927947998e-01
2.921042357007118118e-01,-7.776994639212636562e-03,-3.024289539055197151e-02,5.785586500900001278e-04,-6.233787833479751978e-04,-4.827233805130163279e-03,3.118375241756439209e-01
3.469822356922156459e-01,-3.533549556990200902e-02,-2.689253897309615282e-02,-1.215995861636904067e-03,-1.139291131189600157e-03,-8.942015192768028309e-04,3.781811296939849854e-01
3.419054175542284302e-01,-1.590096261949175416e-02,-2.543889363737722453e-02,-1.271276905304045447e-02,-6.636686980203217352e-03,3.540869005364457884e-03,3.635707795619964600e-01
3.070874970544590354e-01,-2.441965823132918878e-02,-3.052911172215133639e-02,-4.349054286757091797e-02,-5.490659809358124088e-03,7.820360383024260037e-03,3.433771133422851562e-01
3.549351589325325795e-01,-1.383324166676996869e-02,-2.870939270299938118e-02,-2.682285901899126527e-03,1.092457083652053837e-03,-2.496660660748527445e-03,3.764852583408355713e-01
3.462212330899737123e-01,-3.850517394627783752e-02,-2.510106018792934712e-02,4.476708248948535430e-04,-2.944510741529618100e-04,-1.981934055433830569e-03,3.782192468643188477e-01
3.635185158024438201e-01,-1.230213041565400567e-02,-2.943399212063971260e-02,-7.266473162856343718e-03,-2.225197381669942465e-02,1.022826949148526558e-02,3.872090876102447510e-01
3.545722454703781890e-01,-2.720757506574855711e-02,-2.374731370594726498e-02,1.209239793834673100e-03,-5.078572616227019880e-03,-8.342896431177320229e-04,3.801718056201934814e-01
3.405840492173250467e-01,-3.461909554360409480e-02,-2.685772572072053777e-02,5.037282023707279760e-03,-3.006010326877720136e-03,-4.745073175196440514e-03,3.716131448745727539e-01
3.468577551710686491e-01,-3.796598348493218644e-02,-2.433507761801773084e-02,1.380052456431580133e-03,6.059784624904074801e-04,-2.228779724387677623e-03,3.782212734222412109e-01
3.923322544941307277e-01,-1.079322733504956000e-02,-3.935751754051275419e-02,-1.529602132249662655e-02,-7.788888897062359179e-03,7.556685986183513809e-03,4.193999171257019043e-01
3.593694893437024418e-01,-9.090331948238550286e-04,-3.713197788666525168e-02,3.472726123080575010e-03,1.098709496626979355e-03,-7.271981740313533844e-03,3.799493610858917236e-01
3.591769563576055480e-01,-3.276689311767269630e-02,-2.841117809452076148e-02,5.630551911640618162e-04,-9.966958357898710388e-04,3.798331127769799141e-04,3.897898495197296143e-01
3.494072617361314581e-01,-3.911343469458933297e-02,-2.211470076476404478e-02,-3.438070190945582798e-03,8.740157879455205843e-04,-6.973368730418860783e-04,3.803579211235046387e-01
3.428437807679247662e-01,-3.794917749103829396e-02,-2.335098153164469337e-02,1.135843921336813578e-03,9.942734793163216043e-04,-6.494763613347382400e-04,3.737186193466186523e-01
3.010200428771011572e-01,-2.223282183269216505e-02,-2.829770223743052759e-02,3.294631370649983571e-02,1.304644221504535836e-03,6.392408184591389080e-04,3.312889933586120605e-01
3.630716351551747656e-01,2.825751380263447077e-03,-3.536101820029785570e-02,-4.491191677105271438e-03,-9.985430709905562720e-05,3.290433333305597149e-04,3.808580040931701660e-01
3.463646674719145779e-01,-3.347372133840761932e-02,-2.966006897500056416e-02,-9.062944025246199523e-04,-5.899344248382049462e-04,-5.534511987514390344e-03,3.780721724033355713e-01
3.542926377019168793e-01,-2.784082524680026038e-02,-2.762296326999658103e-02,-9.469517554143429706e-04,-9.945635694991687009e-04,-1.626936779300830515e-03,3.820423781871795654e-01
3.482404885405377404e-01,-3.808305952392451732e-02,-2.174383171086780031e-02,3.959527782129729050e-03,4.175758243907676725e-04,6.329504072075719319e-05,3.784814178943634033e-01
3.409766812616357723e-01,-3.892463877549071083e-02,-2.148692740566779391e-02,4.106470641145341981e-04,6.620095621745834390e-04,-1.203408596259604836e-03,3.714978396892547607e-01
3.592172004442069633e-01,1.261485815298930835e-02,-2.941330489147805927e-02,6.572193963479557033e-03,-1.395088370082876294e-03,-2.161823412740328243e-02,3.714889883995056152e-01
3.463935944973995928e-01,-2.548131781768966930e-02,-2.673092983899291730e-02,-3.517658889455833535e-03,7.121490535486031670e-03,1.814230479552139327e-03,3.727684915065765381e-01
3.632567747522953416e-01,4.197188115586225621e-03,-3.200162797843891793e-02,-2.212870052107976382e-03,8.243165897429274120e-04,-6.380421976125994106e-03,3.786430060863494873e-01
3.618798426496700471e-01,-4.376781589641193237e-03,-3.300023548002201101e-02,8.690961604483928710e-03,1.702751161471539876e-03,2.138022817448780380e-03,3.817011415958404541e-01
3.748761060918855414e-01,1.006174659633732316e-02,-2.852551569212702365e-02,4.154965730263489483e-03,-5.815522686460199500e-03,-2.117272310284202749e-02,3.874968290328979492e-01
3.475043637948019848e-01,-4.022112538977512530e-02,-2.096893855187684230e-02,5.512987804518748071e-03,3.402742777052379305e-04,8.830235133522545098e-04,3.785908222198486328e-01
3.914535557639103880e-01,-7.354962442404855416e-03,-3.094446293597899467e-02,5.011230754384672116e-03,3.181740481391608501e-04,-1.616720352398460722e-02,4.121555089950561523e-01
5.011670388646665142e-01,-6.126369297429878902e-03,-5.958826001496003721e-02,-3.124804946751894019e-02,1.023047206367368005e-02,-3.521360432127607076e-02,5.424840450286865234e-01
3.530062455613752759e-01,-3.305808242684907250e-02,-3.132135235812810725e-02,-5.840366938336875695e-04,6.559888987541794047e-04,1.701933706507295467e-03,3.852131962776184082e-01
3.474178574843052592e-01,-2.650524068553875012e-02,-3.845180434468956077e-02,-7.078895237937305688e-04,9.656971698995485930e-04,8.966579579185722949e-04,3.800460696220397949e-01
3.546963951976664919e-01,-3.146470974720275149e-02,-2.948178746599772193e-02,1.873631784571424923e-03,4.196041300807365091e-04,-3.734698788137366649e-05,3.851878345012664795e-01
3.696458338527055520e-01,1.077178252859023466e-05,-4.534520211218293073e-02,2.858628995113844662e-02,-1.324689292462566566e-02,-7.935296405824309156e-04,3.980354964733123779e-01
3.565523729321904423e-01,-1.159702198798390205e-02,-3.005352636603728089e-02,-2.585896857059801456e-03,1.838706792751666676e-03,4.884917084214307524e-04,3.777569234371185303e-01
3.526657729572147959e-01,-2.830071311667417544e-02,-3.353261337573198997e-02,-1.366521078923437979e-03,3.880592823448525278e-04,2.250727497720144289e-03,3.836368918418884277e-01
3.603637281818251048e-01,9.413116152091949296e-03,-3.571366685492144422e-02,-1.379919615749268047e-03,1.463855011830762732e-03,3.641161169446983752e-03,3.756220638751983643e-01
3.501030548212465399e-01,-3.063008899921729200e-02,-3.307307089001665368e-02,2.599691888311589654e-04,1.099110379215797800e-03,2.382502232098815311e-03,3.819877803325653076e-01
3.195405463944136493e-01,-2.798072444066246334e-02,-2.569334522955019073e-02,-8.594913713112244309e-05,4.213973437702654701e-03,7.471493245171752749e-03,3.467017710208892822e-01
3.525029059283571464e-01,-3.146723142876864387e-02,-2.742571923260025968e-02,1.101815995036613347e-03,-5.336265069889217002e-04,-8.180854657758407193e-04,3.819739222526550293e-01
3.541794831765216478e-01,-3.112211573312967383e-02,-3.256686776441225506e-02,-2.307989732379885669e-04,9.573845625755102455e-05,7.729480176535995836e-04,3.860285580158233643e-01
3.589467316612379721e-01,-2.086070509945597840e-02,-2.875868957502991652e-02,-2.961808888310248078e-03,1.068801366471481255e-04,3.164727731157199447e-03,3.838908374309539795e-01
3.576082114539388401e-01,-3.968611307172464908e-03,-1.693157142550286154e-02,3.202930229906151508e-03,3.137613044708068011e-03,1.534396789306859653e-02,3.692689538002014160e-01
3.532416605908887952e-01,-2.810319074267345063e-02,-2.517752197705644401e-02,7.585586513349305837e-03,9.133638135416788373e-04,5.716361457433869094e-04,3.801221847534179688e-01
4.147761205485562819e-01,-1.439789173582101123e-02,-1.103429223910534773e-02,-1.744026682787889896e-03,1.422879525592075922e-02,2.833916545628868688e-02,4.310265779495239258e-01
3.580734694998864986e-01,-1.155700094756906271e-02,-3.254009270431507117e-02,-2.276374838965172353e-03,1.290967168893386108e-03,-7.269200288272236886e-05,3.805831372737884521e-01
3.587114199221111965e-01,-1.420273751737782808e-03,-2.645830378866798060e-02,-4.553851847342350618e-04,-2.153148099586656324e-03,3.124156337337002411e-03,3.733397126197814941e-01
3.595625211625525508e-01,2.206721786042646627e-02,-4.264147452126121340e-02,1.770547333120283014e-03,7.383497521337420216e-04,-1.275178291155358145e-03,3.740923702716827393e-01
3.559978310124942147e-01,-2.737391854631268662e-02,-3.225243924109730265e-02,6.365195720856645784e-03,1.672049117787857914e-03,-1.910787347038031721e-03,3.860166668891906738e-01
4.239719772784472651e-01,-1.480964168477794107e-02,-3.350320820896468543e-02,4.353747822531368362e-03,6.599849720392724287e-03,2.729871398390508810e-02,4.511145651340484619e-01
3.106685314018901578e-01,-7.132971674073534940e-04,-2.746478945270230954e-02,-1.133417855721594036e-01,-6.477523152505398896e-02,2.090674586848022612e-02,3.980478048324584961e-01
3.568692066188360879e-01,-3.693720696056279618e-03,-2.192904342715137900e-02,-2.569191223116601766e-03,-1.530885163344284121e-03,5.034117841212612868e-03,3.701567053794860840e-01
3.544092379390743619e-01,-2.706203110830104897e-02,-2.669897064063891934e-02,-5.030307287409567854e-03,1.228151494029694132e-03,-5.538760922037877033e-04,3.813965320587158203e-01
3.540140730239624278e-01,-2.622252318832810070e-02,-2.787651465529947248e-02,-5.657607470184645602e-04,-8.305960165111770429e-04,-1.278919403012445679e-04,3.810703158378601074e-01
3.549310625224710858e-01,-3.000199562291042121e-02,-3.108340833115738611e-02,3.829749716534842306e-05,7.710921694960973021e-04,1.420603057609625070e-03,3.854850828647613525e-01
3.544559491071183621e-01,-2.740038062507632599e-02,-2.790301166850364667e-02,5.489788069907871161e-04,-1.503553750017662914e-03,2.639998238241347828e-04,3.821182250976562500e-01
2.361472881505941035e-01,-6.786229836846166541e-03,-2.509434470655332039e-02,3.897277626351530050e-02,-6.102404089647649188e-02,-7.205760848759449298e-04,2.820098102092742920e-01
3.060205607714912013e-01,-2.546722512708596287e-02,-9.312921937968135500e-03,1.776059708295657860e-02,-4.320551695176054474e-02,-4.482517453569482418e-03,3.337617516517639160e-01
2.281721055637412898e-01,-7.665861912031599057e-03,-8.312667842163765086e-03,7.731000063454444848e-03,-1.933917123124469228e-02,8.262578482900765839e-03,2.393295466899871826e-01
1.724473019372457505e-01,4.207300259336937964e-03,5.376856449022839046e-03,6.938265735041497170e-03,-4.594146785317618567e-03,3.390100518313523235e-03,1.683790832757949829e-01
1.685481641685841747e-01,-8.265485764351099274e-03,-3.032736141897120208e-03,-8.110875853903453184e-03,-4.830141386252251312e-02,5.367772298644701671e-03,1.940311938524246216e-01
3.432908343072642032e-01,-3.906506745800047975e-02,-2.358940971317458057e-02,-2.134176947196603051e-03,-1.276617565994845899e-03,-8.756981178979733431e-04,3.748855590820312500e-01
1.971641608993126571e-01,-1.052180528431678752e-02,1.554506968957258123e-02,-9.077558634341287291e-03,-7.371661953980050697e-02,2.223793607925715274e-02,2.375550866127014160e-01
3.279640437922138330e-01,-2.422581557202635461e-02,-3.128410225667982436e-02,-4.146472460199284067e-03,-9.525035932355893284e-03,-7.667642898415485790e-03,3.564737141132354736e-01
3.437231325338681587e-01,-2.251659829624416687e-02,-3.867609384588382992e-02,5.920370223991929708e-04,2.204105326692307578e-04,-2.432403706834188484e-03,3.746062815189361572e-01
2.288813553907463605e-01,-1.375062601005713758e-03,-1.621511853863873143e-02,2.487986889960767164e-03,-4.337404553452683248e-02,4.838053586506398064e-04,2.496366500854492188e-01
1.038622734278598775e-01,-1.588410344067158614e-02,1.300053588506559776e-02,2.106430247761387903e-02,-5.237484535501781002e-02,-2.387693181197332506e-03,1.459187418222427368e-01
7.921085665812152565e-02,-1.129690660774868016e-03,1.401864164968239651e-03,3.233487373506949061e-03,-1.274355795699196048e-02,1.473181094960381368e-02,8.618158847093582153e-02
3.549040431532078377e-01,-3.484169575297629828e-02,-2.653239970693327399e-02,4.039470589689703184e-03,-2.718766399310376062e-03,2.373457874712129375e-03,3.857723474502563477e-01
3.550184150297751029e-01,-2.511099077548845093e-03,-3.415727556259678943e-02,4.237098969081031646e-02,-1.334464793132553173e-02,-2.882617929645312632e-02,3.854299783706665039e-01
4.153742939294998715e-01,5.244158491566147662e-03,-5.859937424153779939e-02,5.663840159904337535e-02,-3.278966607788339621e-02,-3.975625398268813754e-02,4.648201465606689453e-01
3.480869755094620488e-01,-2.463485007289217821e-02,-3.945719122602500684e-02,-8.850419840957834180e-04,-4.158004010787600714e-03,6.098601053665807410e-04,3.804224133491516113e-01
3.432643557025590875e-01,-4.223216119767395083e-02,-2.022266264514352430e-02,-2.436577411749624080e-03,8.780724802521116569e-04,-8.552711317918390566e-04,3.750062882900238037e-01
3.382789424924850241e-01,-2.022382010028597743e-02,-3.546815945591744179e-02,3.992843978022942407e-03,-1.280688766028022056e-02,-4.000858392070347908e-03,3.671643435955047607e-01
3.245379315568406309e-01,-3.365692527578728610e-02,-2.541482177900272754e-02,9.015816252302660816e-03,7.858663999569695080e-05,-5.905704091388375501e-03,3.546374440193176270e-01
3.652143797233103339e-01,-2.555720671514383202e-02,-3.246531359153068119e-02,1.688655682709631206e-02,-4.215174981862477958e-03,8.374281109648836364e-04,3.954244852066040039e-01
3.552031101630913623e-01,-1.490588020856031815e-02,-3.020205221878405344e-02,-3.888315055305996588e-03,2.428925375904240642e-03,-1.149685834242710836e-03,3.780779242515563965e-01
4.003844705692072847e-01,-6.983427069116726615e-03,-4.311870107773696503e-02,3.436572137089225105e-03,-3.396762982069260334e-03,-1.621431427702015038e-02,4.275903105735778809e-01
3.478606294989079473e-01,-1.877851055922832857e-02,-3.051303175627281816e-02,8.241066091764417262e-03,-6.072483409170147464e-03,-3.262965334716890972e-03,3.731093704700469971e-01
3.481195194882596988e-01,-3.907590395482163359e-03,-4.181899227383661932e-02,1.423008597117476903e-02,-7.343500442989477767e-03,-4.940500127655039764e-03,3.735621571540832520e-01
3.471417663803937348e-01,-3.814683510566516111e-02,-2.496276570957392527e-02,-7.648813387567918480e-04,1.060834817014540306e-03,1.500877163993959542e-03,3.788843452930450439e-01
3.224297979074708942e-01,-3.919499300737916414e-02,-1.744479483468580616e-02,-8.408232992259616996e-04,-1.018182610525549458e-03,3.235600257725309453e-04,3.512629866600036621e-01
3.515137385791167191e-01,-3.550045258098846745e-02,-2.882013155139837024e-02,-5.727149153122780036e-04,5.239220880461898213e-04,1.335915671449997184e-03,3.837269842624664307e-01
3.490198721918990610e-01,-3.683461246838248826e-02,-2.577028218200619336e-02,-6.875344396236624054e-04,1.314801074094120586e-03,2.910000138205107775e-03,3.804850578308105469e-01
3.331431824162261468e-01,-2.210228644385880958e-02,-3.809287424906376840e-02,-3.398215229341581861e-04,-2.653183405105136758e-04,3.412847948050717894e-03,3.635534644126892090e-01
3.712805025570414252e-01,-2.921730905282513002e-02,-3.318350818410781278e-03,-4.689966856597546641e-03,2.976645832729716331e-03,-9.797065148036765772e-03,3.886866271495819092e-01
3.530171283250358449e-01,-3.006937418629737624e-02,-3.523357527778345211e-02,-5.996902030163416388e-04,7.469379446236611196e-04,7.389353039299547971e-04,3.857002258300781250e-01
3.464062630340656868e-01,-3.642864899370440446e-02,-2.721261718245815420e-02,-2.465484682061110707e-03,-1.697271288090862506e-04,3.424248051273932111e-03,3.783817887306213379e-01
4.193293393606799535e-01,-4.051381468751999448e-02,6.332895379779490685e-03,-3.263001850935903086e-02,-5.418723785826062844e-02,2.998827317372065523e-02,4.547625780105590820e-01
3.571134898620639264e-01,-4.246055043257612738e-02,1.503398973514201431e-02,-2.503556875666406931e-02,-9.197234554156170916e-02,3.410286513919889850e-02,4.132043123245239258e-01
3.918123717088901614e-01,-5.391785267789961367e-02,9.694716856636947933e-03,-3.694360929403606858e-03,-2.859397162680223092e-02,1.486419211111914863e-02,4.213366508483886719e-01
3.516705168284713912e-01,-1.323893366224912493e-02,-2.763336264077045912e-02,7.567159720109468968e-03,-1.274960892546884821e-03,-7.513742265914964864e-03,3.727798163890838623e-01
4.424458710920066706e-01,-4.812864153894336194e-02,9.969130975014256490e-03,1.744990744981161478e-03,-1.583021882699618688e-02,1.949644427076616809e-02,4.663031995296478271e-01
3.706683310989281610e-01,-1.575935726971972040e-02,-3.564150665234883109e-02,-1.485401317967906688e-03,-2.507640163067177165e-03,-3.522283372353530572e-03,3.968215882778167725e-01
3.495045999766316913e-01,-1.555831270746993455e-02,-1.423517308573768458e-02,1.563813300965010019e-04,-4.407781707644883385e-04,3.826133226350828930e-04,3.644046485424041748e-01
3.458403450947228341e-01,-3.859863019232095960e-02,-2.457191809910719282e-02,-4.215099231075793818e-05,-8.620518815158936636e-04,1.676703194352381502e-03,3.776351809501647949e-01
3.545891620550533085e-01,-3.084349923913232150e-02,-3.114726621566604736e-02,3.777367274943328854e-04,8.191215843115026317e-04,-1.787872855897388908e-04,3.855879306793212891e-01
3.552325766045830169e-01,-3.176967277466591355e-02,-3.311715658037822640e-02,-8.080111253092870890e-05,-3.362259361455784286e-04,-1.128040179431366108e-03,3.876831233501434326e-01
3.532130412863370150e-01,-3.522426315064111635e-02,-2.886033037269331025e-02,-1.287595582458034814e-03,-2.256200847977604456e-04,-2.951467351841604615e-03,3.853353261947631836e-01
3.545973633525300039e-01,-3.200671153834974691e-02,-3.060647736000440822e-02,1.457058742904721269e-05,-7.249994301139326856e-04,-3.973534702960455716e-04,3.859085142612457275e-01
3.551565806760123567e-01,-3.195468639496165664e-02,-3.249581276242832772e-02,-1.541454847114427586e-04,-5.006201762868966212e-05,1.647681166761274278e-09,3.873822093009948730e-01
3.142930694036609185e-01,-2.019502013882773506e-02,-2.986943498479871506e-02,-1.932101953109888735e-04,1.545202024088414012e-04,6.044608919953703419e-03,3.395904004573822021e-01
3.495747230269972694e-01,-1.540925296750678131e-02,-1.274291993762299846e-02,6.311326700911103270e-05,4.959794749724667556e-04,7.599663631660162968e-04,3.636615574359893799e-01
3.562339887254933890e-01,-4.024254383078068598e-02,1.124593295762907341e-02,-2.008502080487384669e-03,-3.897389071402091940e-03,3.394565830085292816e-04,3.734819293022155762e-01
3.553710443546289066e-01,-3.294281092851877868e-02,-3.313380409706417895e-02,1.694381193193489972e-04,1.648353307687955218e-04,-8.677957703781891737e-04,3.884125053882598877e-01
3.619040411689906644e-01,1.760611096011134580e-02,-4.328791637597365072e-02,-3.392787877202508955e-03,2.047209328774717821e-04,7.062288986435700817e-04,3.784851133823394775e-01
2.503138283967089039e-01,-1.302376969272997509e-02,-6.854616077167460797e-03,2.203922861611451543e-03,2.956827973286488710e-04,-3.475306593956165556e-03,2.604059278964996338e-01
3.453559328877457979e-01,-3.984096319545221698e-02,-2.315730630112983190e-02,2.382161022320512453e-03,8.607698076329728127e-04,-2.578405953600836943e-03,3.771838843822479248e-01
3.429215374983236031e-01,-4.094161115461159017e-02,-2.099994555393522311e-02,1.374551138513083496e-03,7.018231964927523726e-04,-8.706429326715297732e-04,3.743035495281219482e-01
3.430309183983462629e-01,-3.942585986000873843e-02,-2.459171705905582872e-02,4.262472641549978729e-03,2.042261002381582854e-03,-3.137148858804607917e-03,3.753882944583892822e-01
4.201174785049183735e-01,-1.496801914264467293e-02,-3.464330263871498450e-02,-1.259038155586613902e-02,1.717319308976163802e-03,-2.937983665907479419e-02,4.486879408359527588e-01
3.456263939279784481e-01,-3.946870476280656126e-02,-2.457928561091812791e-02,2.643413428006108692e-03,8.282692997931305002e-04,-3.037578301991022446e-03,3.779375553131103516e-01
3.381342056267060414e-01,-3.947371234670635221e-02,-2.231394949409085116e-02,5.378007374513257832e-03,-1.353603551124966508e-04,-3.228607501706166286e-03,3.694869875907897949e-01
3.574664183669117867e-01,-2.174528233153422141e-02,-1.859894461877811822e-02,2.008877170587636089e-03,-3.042578929475725762e-03,-4.033817685426769467e-03,3.777657747268676758e-01
3.619782709028386281e-01,-7.858683615247469278e-03,-3.861576354116719179e-02,-5.494186859413811679e-03,-2.010711580132363793e-04,-1.308201242772949252e-03,3.862593472003936768e-01
3.361656473128676326e-01,-3.346589425023446807e-02,-2.112829172799518540e-02,-7.396286302923252634e-03,5.731151230582861265e-04,3.152742609619205421e-03,3.638876974582672119e-01
3.467179959535276468e-01,-4.017610293205825522e-02,-2.104373154261690582e-02,-4.111145352084577716e-03,1.229359815981876432e-03,5.378877661437522626e-05,3.777646720409393311e-01
3.354759161258335509e-01,-2.489041256596585816e-02,-2.866078155617768353e-02,-1.756057166511663936e-02,2.623912321382069340e-02,-6.252669716878550207e-03,3.665306270122528076e-01
3.667856393346520805e-01,-6.259807607255390982e-03,-3.777432577388090129e-02,-6.927343148795488820e-03,9.365870351633422998e-04,-5.084150371655381771e-03,3.900468647480010986e-01
3.546492577632042176e-01,-1.604379529007574079e-02,-2.779147377607479874e-02,3.304670199056877321e-03,-9.288331462835393206e-04,-1.471228463450770805e-03,3.767598271369934082e-01
3.558504688170325836e-01,-1.861933476843358193e-02,-2.711864933779725706e-02,3.193357547635208848e-03,-2.387739650041962799e-03,-8.241946524693057876e-04,3.788566291332244873e-01
3.565976568753922993e-01,-2.150179684201586339e-03,-2.804477241513494978e-02,7.613608599658206562e-04,1.692250721342583987e-04,-5.619714432374244527e-03,3.725006580352783203e-01
2.491023027807749701e-01,-1.870593417077764942e-03,-1.441592490546343697e-02,-1.575883371548062427e-03,-2.289088710595358483e-03,-3.273751591309261195e-03,2.575823068618774414e-01
3.532076458843759204e-01,-3.052373432290431121e-02,-2.988359539581228463e-02,2.378038729863600400e-03,1.099227598844836062e-03,-1.453560792465401251e-03,3.834468126296997070e-01
3.554131870928702308e-01,-2.819190129476187301e-02,-2.590384655039840167e-02,-6.233944719059257393e-03,5.563152870860120155e-04,-1.273234791046883420e-03,3.826261460781097412e-01
3.542681154491048034e-01,-3.221413488783420043e-02,-3.187251134268107022e-02,-8.348125488139544487e-04,-3.971955133037566852e-04,-2.033874875329553383e-03,3.863309323787689209e-01
3.519465380021579715e-01,-3.511815454523950497e-02,-2.868601440521664769e-02,6.397086942116124659e-04,3.662733154001625519e-04,-1.604940408976320270e-03,3.839012384414672852e-01
3.538050446064870957e-01,-3.294611237708985896e-02,-3.169026097659735641e-02,-6.490157440245376374e-05,-4.961665373537381857e-05,-8.998096379512670120e-04,3.861279487609863281e-01
3.520525356712653209e-01,-3.242412236599501174e-02,-3.113119118525006779e-02,1.149500402734607838e-04,-2.417450134927258409e-04,-2.427152014981213881e-03,3.838551342487335205e-01
3.552965457904465607e-01,-2.642641482051882873e-02,-2.718080618988114039e-02,-1.423493733999521549e-04,9.379758277464136929e-04,-1.005080704039612192e-03,3.821082115173339844e-01
3.503508794417928840e-01,-2.683824754743319163e-02,-2.958115751764633927e-02,-1.052424081238064444e-04,1.691800471007688720e-04,-7.512232755084702624e-06,3.785682022571563721e-01
3.503326132099255363e-01,-2.868014635625212860e-02,-3.606168343396354281e-02,-4.397109416851960242e-04,9.744707244399477674e-04,-2.386108338491834454e-03,3.827837109565734863e-01
3.502762986779540677e-01,-3.326941723065413026e-02,-2.734017593483578645e-02,3.511205707182262284e-03,-1.722415419740143394e-03,1.260421477435280614e-03,3.806822597980499268e-01
3.479369604641356362e-01,-2.880436504647232443e-02,-3.558773964157138647e-02,7.388729848812744180e-04,1.805382725175687635e-03,-2.292983518793111075e-03,3.802141547203063965e-01
3.093543972877454973e-01,-3.502875493312596067e-02,-1.336232886376773066e-02,1.368604884925730611e-02,2.510971046516549481e-04,1.656587016263910738e-03,3.349298238754272461e-01
3.493708630380562008e-01,-2.648418519809656035e-02,-3.612047169287724291e-02,9.799093474795724044e-04,4.582345801714594489e-04,-2.711054269833163260e-03,3.807982206344604492e-01
3.539889417799147453e-01,-1.883289358764422827e-02,-2.015789901185127686e-02,5.394475524880822754e-04,-7.381698409046582969e-04,-2.278831583902293963e-03,3.735103011131286621e-01
3.541865314806371678e-01,-2.613595201809840174e-02,-2.363059135907802366e-02,1.297854925478581552e-03,6.572001105336248246e-04,1.226224438507299253e-04,3.790844380855560303e-01
5.655673311521528523e-01,-9.376050042275901886e-03,-5.711019279787504788e-02,-4.409106165000604635e-03,-7.589892026139563597e-03,3.544968314175675483e-02,6.035594940185546875e-01
3.590768289430634197e-01,-3.975539225055568782e-02,-4.652154902463623287e-04,-3.664736254670407194e-03,6.312205431801594900e-03,1.165048389891010878e-03,3.809259235858917236e-01
3.534437853867101187e-01,-2.252632898983281118e-02,-2.250233175420804366e-02,7.561083102546418749e-04,-1.030018486532158261e-03,-4.609874703547992811e-05,3.759646415710449219e-01
3.515432681119809444e-01,-1.894413181510187782e-02,-1.703848367685847909e-02,1.468898173776671387e-03,8.176221898809885903e-04,-1.786348491707654947e-03,3.695626854896545410e-01
3.541704340479718272e-01,-3.175070920213671211e-02,-2.465180889178023027e-02,-2.645767435967887916e-03,6.782262206011732686e-03,-8.485988702704288502e-04,3.826317489147186279e-01
3.533630276654378122e-01,-2.853785103661138356e-02,-3.293328585178859069e-02,1.649521703027722989e-03,4.452939801394437081e-04,-1.698458803296864269e-03,3.841401338577270508e-01
5.274001457202858179e-01,-4.879750006166869158e-02,-1.908255986013873695e-02,1.530296461626246343e-02,-3.046764216114367096e-02,-4.074461689961988292e-02,5.694144368171691895e-01
3.334713046807099568e-01,-3.576007588916677027e-02,-1.952912741211793035e-02,-5.275773875466620733e-04,7.088264754920594289e-04,6.099361971664910183e-03,3.615469932556152344e-01
3.541874725567276117e-01,-3.135757203365943657e-02,-3.308545976231594410e-02,7.040983002410146200e-05,-1.578278825151554685e-04,-6.403994102693233350e-04,3.864136040210723877e-01
3.485409346084774596e-01,-2.827923245769095595e-02,-3.280638548450831582e-02,3.368139252903048684e-04,1.966265101379413646e-06,-1.880136594822956215e-03,3.791184425354003906e-01
3.618257559657609979e-01,1.565749078740992506e-02,-4.073034316712598191e-02,-1.413276008607015043e-03,5.937246321522401775e-04,-1.092062441258240431e-03,3.775478303432464600e-01
3.635276752173826620e-01,-3.816646172867724229e-02,8.202934184184579314e-03,1.185366397273235122e-03,-7.113198196821738858e-04,-6.510981189919980670e-03,3.808082044124603271e-01
3.522430646993637837e-01,-3.113821124212531877e-02,-3.286391273406133462e-02,-2.622937163269425096e-04,2.264798651335770525e-04,-2.314829007440507864e-03,3.842684328556060791e-01
3.507816412400850958e-01,-3.092858704037362849e-02,-3.297017980960051386e-02,5.780382088532439822e-05,-1.863299119029933597e-03,2.396561106160528028e-03,3.827712237834930420e-01
3.516383065994637125e-01,-1.790407218653736199e-02,-1.754335907691412233e-02,-2.533154254635025331e-04,-7.888103670767482615e-04,2.510111099432584219e-04,3.693651854991912842e-01
3.449838652740028211e-01,-2.557185570230380289e-02,-3.811835249744321974e-02,5.544510608058503395e-04,9.369917845792283555e-05,-1.747332058883301325e-03,3.769989907741546631e-01
3.463805747401856316e-01,-2.342725840262799286e-02,-3.956714977081007834e-02,1.631919183889471913e-03,2.626075656329472392e-03,-2.689838269183463665e-03,3.782028257846832275e-01
3.615197363593030677e-01,-3.362489294826759290e-02,-7.622804525526383213e-04,1.278945488116864284e-03,7.108014116534874804e-03,2.592407186590714365e-03,3.800136744976043701e-01
3.402918585615772873e-01,-2.156880745231756769e-02,-4.118059307475505082e-02,7.697432626300253992e-04,-1.219193683660492347e-04,-1.816810003764901451e-03,3.720701932907104492e-01
3.631262398054798668e-01,-3.663273609288505983e-02,-1.075831647992012141e-02,5.810482501111727911e-04,2.993393284026304221e-04,2.089435550140000993e-03,3.874888122081756592e-01
3.545447043245532615e-01,-3.081109414237109823e-02,-2.946673117477896509e-02,-1.068811433934993213e-03,-7.940930715904250231e-05,1.188961159104843547e-03,3.846953809261322021e-01
3.463532073958881519e-01,-2.392700494869359762e-02,-3.786047174887141598e-02,3.945964353499158269e-04,-2.123335776684753796e-04,-6.547861430168217759e-04,3.774423897266387939e-01
3.300099260957816139e-01,-3.611271425199555352e-02,-1.943338757715248888e-02,1.236146517393567346e-02,-1.984477332375478818e-03,3.837937527081673045e-03,3.587920367717742920e-01
3.109187202770499758e-01,-1.767130195237352763e-02,-3.373222809123455068e-02,6.721197137372835265e-03,-7.455413635544364676e-03,5.310792030838451527e-03,3.374814093112945557e-01
3.621991379986429505e-01,-1.033602912642317406e-03,-3.391797265967774755e-02,-3.487702774859220700e-03,-4.000544353637285771e-04,-2.018054180880167643e-03,3.808060884475708008e-01
3.310124226381235268e-01,-2.390651127811990739e-02,-3.455028781161179063e-02,2.228992129867220662e-03,-7.192432893373481434e-03,6.133884551363885142e-03,3.607511520385742188e-01
2.995125137888953182e-01,-1.908138191344266321e-02,-2.266838418472463812e-02,2.011328242331369542e-04,-9.983611319306447476e-03,7.565213997497987307e-03,3.211363852024078369e-01
3.074673551298396923e-01,-2.456533801264035310e-02,-2.274665223474267584e-02,6.492417323508505034e-03,-7.324152216279052399e-03,6.664358517717315633e-03,3.317616283893585205e-01
3.189736496224606088e-01,-2.750336984998213996e-02,-2.658821782027123715e-02,1.409488829238571272e-02,-1.830889860609403660e-02,9.851633060921790447e-03,3.487447500228881836e-01
3.612158682906511098e-01,1.574199650113279614e-02,-4.254572731068639868e-02,-1.414983698304264972e-03,-7.926507824037355449e-04,-1.093917176853644166e-03,3.780185580253601074e-01
3.478626212085247915e-01,-2.080684806864888103e-02,-4.177156226796660543e-02,3.221764283215888900e-04,1.081600331827996600e-02,-3.118061819817404706e-04,3.800490796566009521e-01
3.609281556852894091e-01,-6.618058407772492435e-03,-4.018430229692482314e-02,-8.594450568297131582e-03,-2.853010461492633178e-03,-1.636632927824411545e-03,3.857565522193908691e-01
3.591669610973889371e-01,-1.032151897804783891e-03,-3.160607915404212154e-02,-6.787103570648191087e-03,3.576345440614690113e-04,-3.168361137307176660e-03,3.766424953937530518e-01
2.647937736396400732e-01,-1.018315440747082079e-02,-2.026048610883320056e-02,6.780721933688404124e-04,-4.038330862318691150e-02,4.724405230504752536e-03,2.888696491718292236e-01
3.496995414250359535e-01,-2.234379751841089612e-02,-3.702698957239553001e-02,3.259697451605724156e-04,-1.034407743776614812e-02,-1.081570839801708223e-03,3.800255954265594482e-01
2.747338654987945272e-01,-7.171422670912752650e-03,-1.909903175427360433e-02,1.209933858362271077e-03,2.567717886981008349e-02,4.917276657379490191e-03,2.915993928909301758e-01
3.511474334434847022e-01,-2.715716337851917239e-02,-3.680265941628896309e-02,9.751789818808558573e-04,1.185734969783223047e-03,9.782653161659949411e-04,3.832313716411590576e-01
3.505513757103301264e-01,-4.228247830136402929e-02,1.068135239261691627e-03,4.493709027486857133e-02,-3.571988382545684959e-02,-2.597293203686995913e-02,3.886871039867401123e-01
3.512631663712980079e-01,-3.689163380976578921e-02,-1.220206406042226299e-02,-3.265107000296940155e-03,1.093393357410265459e-03,7.353017816267437426e-04,3.764671683311462402e-01
3.317411028040548882e-01,-2.013773940908850091e-02,-3.829230095853367044e-02,-4.039359439412895138e-03,-1.130612699667139960e-02,-1.611928167575656578e-03,3.619070947170257568e-01
3.456885098701383829e-01,-2.028448373163965757e-02,-3.717832421800318365e-02,2.103395774900889206e-02,-1.120082541816685290e-02,-1.329175040271209259e-03,3.769791424274444580e-01
2.363805998676715980e-01,-8.782939975730597038e-03,-1.703319735899308518e-03,-4.162056282274614188e-02,3.907750150929134580e-02,-2.318368207810244525e-02,2.642158865928649902e-01
3.471061067931951460e-01,-2.736391117311048893e-02,-3.048926822005021409e-02,6.435993816750228743e-04,-7.474992714345589590e-04,-2.058255622615041763e-04,3.760464787483215332e-01
3.517421363541116119e-01,-3.797730480598515701e-02,-2.644812982414895819e-02,-9.564222793172812848e-03,-1.574844198017178766e-03,-1.954545622266795624e-04,3.844515681266784668e-01
3.539049285765519248e-01,-2.451516992628699487e-02,-2.937804035944821535e-02,-1.076000012602790386e-02,-7.908044734079130306e-03,5.588052293218512224e-04,3.815776705741882324e-01
3.411240269394064106e-01,-1.958100509586846449e-02,-4.201545792354577369e-02,1.194433841484075028e-04,1.469123252551958860e-03,-1.923642908540449130e-04,3.724382817745208740e-01
3.413638088219954625e-01,-4.210528657761017368e-02,-1.972861438963480207e-02,-1.182931534313384899e-03,8.505815563388159379e-05,4.311993686738816280e-04,3.727912008762359619e-01
3.412282854389303566e-01,-4.143353430055879416e-02,-1.795704551030063989e-02,4.898925756973002664e-03,7.303089891082955275e-04,7.658623537703344994e-04,3.715817630290985107e-01
3.472754682990676911e-01,-3.363222555949674231e-02,-2.582325203387100809e-02,4.185216137105460081e-03,-1.058366660054201654e-03,1.632111332433861363e-03,3.771485686302185059e-01
3.398425354059226300e-01,-3.796068472400032645e-02,-2.256979407612902389e-02,4.633001869246630711e-03,-4.624272040503188928e-03,2.643424169169654968e-03,3.705494999885559082e-01
3.386324867838520492e-01,-4.246685455413956589e-02,-1.954447339356560343e-02,-2.812934063670877714e-04,-3.658615794596414969e-04,3.187186008411075738e-05,3.701716959476470947e-01
3.406511037442097600e-01,-4.148578811756994944e-02,-2.081261996973082784e-02,-4.175918377074386073e-04,-6.014887855042420125e-04,1.537178424380028453e-03,3.722428083419799805e-01
3.426516823087405461e-01,-3.260534640091322656e-02,-2.853279839155276054e-02,-8.667192698814871199e-04,6.094027017893977440e-04,5.554870600448676837e-03,3.733659088611602783e-01
3.421776574766223211e-01,-4.062035193786223131e-02,-2.123418337601479244e-02,6.940449394540010265e-04,-3.461881144527145446e-04,4.136857392305985626e-04,3.734855651855468750e-01
3.634304921686044576e-01,-3.170736942772725553e-02,6.647311921669951662e-03,5.408730891315782947e-04,4.046819130667947059e-03,-9.945084678016968827e-03,3.778840303421020508e-01
3.545350444758934572e-01,-3.158661281615607330e-02,-3.148043388932197928e-02,-9.130392448748868176e-06,1.601506715209694085e-04,-1.069111492075385623e-03,3.860731124877929688e-01
3.524343051862144915e-01,-3.148602187957103005e-02,-3.139948855090027302e-02,5.145272654673020869e-04,3.698759954832828612e-04,-1.044276062556094217e-03,3.838829100131988525e-01
3.535428554594870487e-01,-3.148308112167486073e-02,-3.293863633236246424e-02,4.704727810065220325e-04,-2.173039887674998050e-04,-8.263241650317001367e-04,3.857594728469848633e-01
3.537200442621393770e-01,-1.071108339072859850e-02,-2.051329087544775942e-02,-9.681117474630357086e-04,-4.085002330819690448e-04,-1.739212691220604588e-03,3.694465458393096924e-01
3.546266832101879207e-01,-3.153360852919884216e-02,-3.255016391766010764e-02,4.630594800460592587e-04,6.474439298990299985e-04,-8.331158956073511342e-04,3.866747319698333740e-01
1.802360251255094303e-01,-9.386180578825870091e-03,-1.816211373294371323e-02,9.542210153337855882e-02,9.636319683168609318e-03,-2.308786849897905696e-02,2.586340308189392090e-01
3.545388025418795275e-01,-3.160638216860051086e-02,-3.165379497078699145e-02,1.661951761765307313e-05,-2.299506037774725503e-04,-6.390723374063278896e-04,3.861706852912902832e-01
3.421331308075819533e-01,-2.088975697577394319e-02,-4.157720209887758034e-02,-3.997983957904320952e-04,1.346407722610417073e-04,1.526264593126059384e-03,3.738062679767608643e-01
3.383111594925449772e-01,-1.908109793732515325e-02,-4.268543541268132735e-02,4.247116370590387308e-06,-3.001506172581563220e-04,-3.919207826878348742e-04,3.697609007358551025e-01
3.409470180539778128e-01,-2.255027527699265955e-02,-3.983761241781433315e-02,-1.974968414207262796e-03,-9.303719258257866543e-05,3.855354950346047264e-04,3.724583387374877930e-01
3.432600273027800464e-01,-2.232787894937854345e-02,-4.156152597120954528e-02,-4.137553051126832454e-04,6.574407701977506499e-04,9.099073293304692006e-04,3.755799829959869385e-01
3.407381833796881976e-01,-2.081009904755196094e-02,-4.155411834891195588e-02,-6.171678636660726412e-04,-3.766245108515405850e-04,1.181204321827806743e-03,3.723616302013397217e-01
3.547686655469270423e-01,-3.182390804847520793e-02,-3.091548441368291433e-02,7.467991010987381085e-05,-3.771939471576226153e-05,2.918495039609920821e-04,3.861395120620727539e-01
3.553031441795240220e-01,-4.970786475146343752e-03,-2.703869172082654093e-02,1.748266464244598983e-03,1.863306538464982141e-03,-1.964973261136350458e-03,3.718413114547729492e-01
3.408551731129403350e-01,-2.104899205557664299e-02,-4.133998978623334986e-02,-5.702693528938132224e-04,1.341474517264071254e-03,3.539199582196926228e-04,3.724734783172607422e-01
4.056430060676181060e-01,-5.867524576477156639e-02,1.575970841070492567e-02,-4.957242315171583869e-03,-1.838201477529742556e-02,1.352482173367666740e-02,4.338279366493225098e-01
4.110838084654597768e-01,-5.422048988095351518e-02,9.638337609200714473e-03,-6.420461983462902832e-03,-2.609529102664562283e-02,-2.165696549185910230e-03,4.393778443336486816e-01
3.513516226436971257e-01,-3.373576192797289597e-02,-1.884687441325005874e-02,5.992353761840663214e-03,-9.945116414275543062e-03,1.878169240459086949e-03,3.784117698669433594e-01
3.726710325473918117e-01,-3.676533413203800227e-02,-1.544376105333739035e-02,-4.112477722161300177e-03,-3.358917322641048211e-04,1.897223042702896089e-03,3.992803394794464111e-01
3.552015397288924570e-01,-3.022320134070693998e-02,-1.513455807327110381e-02,-2.749219008683303871e-03,4.871261888375283920e-03,-2.998858399215082187e-04,3.782307505607604980e-01
3.497354803957133940e-01,-1.487802179694289184e-02,-1.787460525446990522e-02,-3.007023791661592128e-04,4.504877786201433613e-04,1.492197064227625616e-03,3.661313056945800781e-01
4.178610058527910120e-01,1.519363379091656641e-02,-6.190713682937043494e-02,-1.401525754298029022e-03,9.215434182814287792e-03,1.024018065233269978e-02,4.468856155872344971e-01
3.535990231871603551e-01,-2.381305206950304343e-02,-2.320921184425059347e-02,-8.605206707330992778e-05,-8.732493889283263807e-04,-4.355538709207839318e-04,3.771143257617950439e-01
3.602301568218635452e-01,-3.301173324642459050e-02,-1.455181010740580483e-02,-3.630898871184043766e-03,3.902164816570466259e-03,-6.461702578460121757e-04,3.844570517539978027e-01
1.225826104624986868e-01,1.293974849944187072e-02,8.983776289606663912e-03,2.661160423826757198e-03,2.405444627755517996e-04,8.896293167126707814e-05,1.117693781852722168e-01
3.677857583181030066e-01,-4.250023296600077827e-02,-4.076574283569112112e-04,8.004417684234310486e-04,-8.453883144843678862e-04,1.039042987085045866e-03,3.909522891044616699e-01
3.903163934045640882e-01,-5.817886647193767913e-02,3.023532487822837289e-02,-2.192771270671801096e-04,7.402373561516897502e-03,-2.836984193150601276e-03,4.117042720317840576e-01
3.471465618144400911e-01,-3.447625932067513443e-02,-2.363292472892242202e-02,-3.321372563229217992e-03,5.481255794017182281e-05,3.847806883526449975e-04,3.763629198074340820e-01
3.730431563160359065e-01,-4.800349334131065460e-02,2.181010556866722072e-02,-1.239983643466896577e-03,2.598260222178813781e-03,-7.499982773907990083e-04,3.908784985542297363e-01
2.689831756342547786e-01,-1.558532426842297591e-02,-1.605841620681792981e-02,-1.571906276310166065e-02,-9.048676476887853714e-04,-6.558283297012362442e-03,2.863334417343139648e-01
3.686195132715664458e-01,-4.362775301443530540e-02,1.561487439792862142e-02,1.205061190270202698e-03,7.026224806052810187e-04,2.508679018909136857e-05,3.860579431056976318e-01
3.746829362133669017e-01,-4.681826965998484025e-02,1.707379084824756088e-02,-2.511388229287945650e-03,2.006834053767529800e-03,-6.017400907743774034e-04,3.935059905052185059e-01
3.608673331888201941e-01,1.533623479143214619e-02,-4.322417090340940904e-02,2.553129261186003716e-03,-9.976837166897195835e-04,1.624441930649008934e-03,3.782670497894287109e-01
3.423057148068247568e-01,-1.976575454037887702e-02,-4.210374546378758964e-02,1.770852602498718673e-04,1.532919219531040690e-03,4.583892581991610315e-05,3.737510442733764648e-01
3.427506129994756234e-01,-1.943801969000674701e-02,-4.037856982837745301e-02,1.311709364148055555e-03,6.131095324907779101e-03,-1.205125333401489175e-03,3.732637465000152588e-01
3.414751561533082014e-01,-2.151991146487969297e-02,-4.164952248406661450e-02,2.534851365635184856e-04,-3.054010449422101762e-04,-1.756623036596014755e-03,3.734799921512603760e-01
3.428527516617255744e-01,-2.125800426423524181e-02,-4.149891059193636100e-02,1.676281727958774375e-03,2.160426962499754390e-03,-8.501649881908285777e-04,3.746743500232696533e-01
3.429557502601204289e-01,-2.642214439009088478e-02,-3.198404810853952562e-02,1.211704115142362304e-03,2.111972317145747319e-03,-2.651507757281870888e-03,3.722422420978546143e-01
3.526936444924176350e-01,-2.823293905544141391e-02,-2.725028064215243018e-02,-1.629211313605400963e-03,-8.667142191274943442e-04,3.978859741690144342e-06,3.804496228694915771e-01
3.501894239347337345e-01,-2.871284998173498360e-02,-3.547010067898831442e-02,4.840343684253599842e-05,-2.098829613014146036e-04,-1.746106312942790478e-03,3.823378384113311768e-01
3.449464813992859646e-01,-2.717380670867602932e-02,-3.547978415889593840e-02,-2.026554012185370352e-04,1.726570300922300721e-03,-2.683233209410606189e-03,3.763827681541442871e-01
3.495705104831775545e-01,-1.511260479119483358e-02,-1.536240539513356040e-02,-3.849849902929093062e-04,4.009835489171975907e-05,-3.161954249013467096e-04,3.648090958595275879e-01
3.429956394972546452e-01,-2.527478114730763448e-02,-3.569610629385178147e-02,5.921956661936757498e-04,9.831745707745288398e-04,-2.750813005694166882e-03,3.736257851123809814e-01
3.517340707907199993e-01,-2.048173881057011037e-02,-6.111194292644644976e-03,2.030506544941764087e-03,-9.045290881024284010e-04,-3.004734505184153848e-03,3.652999997138977051e-01
3.572077995190908739e-01,-2.786549324981027476e-02,4.142131394002879219e-03,1.860765097093824635e-03,-6.852947358730250875e-04,-5.906715555579576150e-03,3.702662587165832520e-01
3.462882908841776186e-01,-3.622943468029829472e-02,-2.637177059568579507e-02,3.781201974532779763e-04,-9.448547209860822145e-04,1.272698399369249101e-03,3.776959478855133057e-01
3.488037050795105842e-01,-2.137812383111256653e-02,-4.067382013172671229e-02,1.373974140773197381e-03,4.569557769690642084e-03,1.330951338003529818e-03,3.802939057350158691e-01
3.540306525814155281e-01,-2.264873608590295406e-02,-1.968189922948335169e-02,1.491582454232292165e-03,-2.543787906394904055e-03,-5.313162281206869385e-04,3.752406537532806396e-01
3.514905550982034832e-01,-1.758960492123115560e-02,-1.682308581380106971e-02,1.074305193811384051e-03,-1.129899732586599420e-03,-1.826309255771861075e-04,3.687075376510620117e-01
3.532127988961185072e-01,-2.230839982361040863e-02,-2.174685235526169214e-02,1.010701269477852493e-03,-1.429087774066044661e-03,-1.302927051469810201e-05,3.752529919147491455e-01
3.521625271565608228e-01,-1.801612015009482204e-02,-1.906462434829217512e-02,-6.162510494117232540e-04,-1.300166307471793421e-03,-2.481375748937472876e-03,3.707373142242431641e-01
3.500629213840630305e-01,-1.558157257616496483e-02,-1.399593617854541505e-02,1.087853162037169226e-03,-1.396117515323408711e-05,8.516886231922703252e-04,3.648621141910552979e-01
3.528770932329036714e-01,-1.665887171957822210e-02,-1.651100946724712304e-02,8.351113910355094545e-04,-2.061624774968119373e-03,-3.554560608065250940e-03,3.695334196090698242e-01
3.512249078404061087e-01,-1.684674026390536872e-02,-1.529747769413936087e-02,2.885624810676951394e-04,-7.527736516903254941e-04,-2.098746277775751911e-03,3.673201203346252441e-01
3.538048945224950836e-01,-2.262120803748013387e-02,-2.537437555165036884e-02,1.030627923512136661e-03,-4.477433695115335798e-04,1.125829900118198142e-03,3.778202533721923828e-01
3.553271711877297179e-01,-2.660866935747885353e-02,-2.621454782939916517e-02,2.042132072727536121e-03,1.106913737586166574e-03,-1.133199153664569530e-04,3.817601799964904785e-01
3.546489641894537970e-01,-2.654600772789125762e-02,-2.742074636175897973e-02,2.243553426447833770e-03,7.669822867538578988e-06,1.545132026451764395e-04,3.816529810428619385e-01
3.503389525824306405e-01,-1.553079089732564699e-02,-1.461250257932744656e-02,2.474607402576610698e-04,6.147759515468453548e-05,-3.293700342273772250e-04,3.654121756553649902e-01
3.503807852465526951e-01,-1.302408331792653806e-02,-1.586803526093374939e-02,1.011976474398394797e-04,-1.208161882054372164e-03,-3.447763611082099375e-03,3.648900687694549561e-01
3.331117719975689173e-01,-3.541785176044812133e-02,-2.276723611121866941e-02,-7.326842077769233838e-03,1.132391085299849168e-03,2.354620809963565379e-03,3.626203536987304688e-01
3.454841637488900163e-01,-3.994303784237993038e-02,-2.305639747138121809e-02,-4.664988331972797029e-04,9.574585965253107084e-04,9.892888264025792404e-04,3.772758245468139648e-01
3.529035665324710136e-01,-4.900391773091178349e-03,-2.698800062746342654e-02,1.288178788613183936e-03,-8.777431907024374046e-04,-2.905086233420187559e-03,3.693875670433044434e-01
3.679667218773937654e-01,-3.262459604289402737e-02,-1.462288399400216155e-02,2.172938976050124531e-03,1.627163461068281908e-03,-8.543834263076850385e-03,3.922081589698791504e-01
3.329650951266390768e-01,-3.437354884772092500e-02,-2.321278040961785583e-02,-7.045673715417670110e-03,7.940492045279785513e-04,5.658044006200332009e-03,3.622282743453979492e-01
3.157599995164364071e-01,-2.921104235251353876e-02,-2.432095012172402759e-02,-1.611886776941479082e-02,5.277859021282430875e-03,5.289556543448150142e-03,3.439316153526306152e-01
3.452118291839451070e-01,-3.911164661207156001e-02,-2.348892840509803071e-02,-2.727816527492515040e-03,1.445849940546735683e-03,3.325961492788770835e-03,3.768371045589447021e-01
3.914914204093404848e-01,-1.986533542582949452e-02,-2.153941945973958383e-03,4.794379710471798062e-02,6.653046153415424768e-02,4.430379252626538700e-02,4.339419007301330566e-01
3.646534088878246593e-01,-1.911260273826148604e-02,-1.983075688797575342e-03,4.592495672868348450e-02,7.551538436155927347e-02,4.427157608673058103e-02,4.126875102519989014e-01
3.735528798900072389e-01,1.171420446385970648e-02,-2.486608001487514152e-02,-3.042439120818841124e-03,-5.018898358623389601e-03,2.555711201620572415e-02,3.841410577297210693e-01
4.005988905767283725e-01,-3.055934693030237792e-02,-2.410847600156459936e-02,6.232086483111235441e-03,1.568583825660405454e-02,1.909373432595154463e-02,4.302395284175872803e-01
2.904509751513750793e-01,-2.897781038370472739e-02,-1.135544115416226019e-02,-1.722052860343937977e-03,-2.579699507646768773e-03,2.366567290426180043e-03,3.110657036304473877e-01
3.546408584601140612e-01,-1.543025695427360788e-02,-2.725171342066295965e-02,-3.402387216274037514e-03,-2.579928574870171860e-03,-1.402425184565647166e-03,3.762017488479614258e-01
3.545977777361728478e-01,-2.418671080014292429e-02,-2.760181273046546924e-02,-1.225757862943454820e-03,-1.732055212354957109e-03,1.005914627388100786e-03,3.805252611637115479e-01
3.570078576213229216e-01,-2.626776937578034765e-02,-2.750385927233822692e-02,-3.551618261446715281e-03,-9.880048703148336647e-04,2.414104682940726898e-04,3.839484751224517822e-01
1.992419635861479854e-01,-4.518034612266463856e-03,-2.589901947004313865e-03,-4.099271006467435779e-02,-3.666640463999555621e-02,-2.839448097514145255e-03,2.241152524948120117e-01
3.545729982483902809e-01,-2.585529304556885566e-02,-2.771652077444219930e-02,7.697751067152649833e-04,1.666376635711123890e-04,1.608113372447123968e-04,3.813648521900177002e-01
3.494938248861471086e-01,-1.573483025897143284e-02,-1.260152290182467438e-02,2.995989456300057643e-04,2.868717696977137258e-04,1.458974711845448507e-03,3.636816143989562988e-01
3.520915578737244256e-01,-3.039564235434169537e-02,-2.958133393686648849e-02,-9.421940170254222355e-04,-8.981556647665966779e-04,-5.432120707628291384e-04,3.820885121822357178e-01
3.548544095895974637e-01,-2.729392088523321935e-02,-2.815370683090728798e-02,6.588234597237896395e-04,1.092805268519654073e-03,-6.625914040051589975e-04,3.825870454311370850e-01
3.547708318494773305e-01,-2.621943473414883874e-02,-2.690307779999384641e-02,-3.563706419844336198e-03,-1.941530302570512387e-03,2.423261328824605524e-04,3.813975453376770020e-01
3.515208287262645559e-01,-3.450706862800240193e-02,-2.681792545407191142e-02,-4.678346815378666389e-03,4.541685593383990764e-04,8.443519054925488010e-04,3.823308050632476807e-01
3.652233587723586195e-01,5.912152991027208593e-04,-3.660038816119423610e-02,6.757975129887645177e-03,1.208365701322980683e-03,1.422015535547106746e-02,3.855503797531127930e-01
3.488811033670620176e-01,-2.708929996332212764e-02,-3.508014547061849564e-02,-1.285726412181977625e-04,7.430732784304123172e-04,4.298227061125294013e-04,3.800318241119384766e-01
3.559424668321219953e-01,-2.821565750630875002e-02,-2.575127621733427907e-02,-6.997318336316612347e-03,1.847589988726352703e-03,1.286024579852940435e-04,3.831370472908020020e-01
3.547703584582083680e-01,-3.135881947775956413e-02,-3.091509323266325437e-02,8.752679976056184415e-04,2.438371215135499851e-04,-2.031472062660815922e-04,3.859108686447143555e-01
3.547797675370534254e-01,-3.067665314697376466e-02,-2.925200222482848833e-02,-6.299958943577287735e-04,2.770281140185569296e-04,-1.634046500826074732e-03,3.847583234310150146e-01
3.550771438758057452e-01,-3.074390553925462899e-02,-2.929960880958398795e-02,-8.637640187538055212e-04,-2.232128187448706512e-04,1.937063832655815327e-03,3.851186335086822510e-01
3.547409536653339246e-01,-2.748812021563359909e-02,-2.808020219942647389e-02,5.573341631787728356e-04,-1.345130505151121824e-03,4.149496942709302570e-04,3.825344443321228027e-01
3.505224809395752206e-01,-1.065448675728741801e-02,-1.939858303211056123e-02,-1.022154109208689969e-04,-1.616875288172483095e-03,-2.005616767493014017e-03,3.656547069549560547e-01
3.554602346185966044e-01,-2.258968192862725877e-02,-2.729351337041338588e-02,-5.651747913758384430e-03,9.503124974210689930e-04,-1.531712956617704065e-03,3.805623650550842285e-01
3.548885118159168517e-01,-1.546414054076522548e-02,-2.648472939217449973e-02,-3.371127614250736017e-03,-1.989940079940241430e-03,-1.339738151818055346e-03,3.760523796081542969e-01
3.575362568209896619e-01,-1.582855827118992420e-02,-2.023744812006977867e-02,-2.963614953728706952e-03,3.484492943510038819e-03,-7.732402189240357090e-03,3.759108781814575195e-01
3.537248992631012445e-01,-1.976223908587840250e-02,-2.140451903385584553e-02,1.414105692818912836e-03,1.396246688561896215e-04,-8.968493098450706913e-03,3.746412396430969238e-01
1.305917636740961951e-01,-8.870623186501114255e-03,-2.724159221330604841e-02,-4.664427633753361058e-02,-6.007600676027761988e-02,2.930761736672814893e-02,2.056223750114440918e-01
3.856582705048014481e-01,4.269979357332802372e-02,-5.531039884897351322e-02,-4.792404391327342167e-02,1.848152871772891330e-03,-4.502323509232976882e-03,4.096353650093078613e-01
4.201902280162975734e-01,1.726078578158576904e-02,-5.736730459862685039e-02,-2.084511712124512833e-02,1.751914474332505814e-03,-1.643258140056976305e-02,4.473412632942199707e-01
1.929429417183814166e-01,-1.183186213669440434e-02,-7.677582735228741240e-03,-3.670955738894634418e-02,-7.748034218284238772e-03,-1.287742025656346328e-03,2.129016965627670288e-01
4.031700335469635688e-01,2.208941005868406138e-02,-3.801907783316071932e-02,-6.808075774452497508e-02,2.524396363680195265e-02,-3.733839704068497856e-02,4.378822445869445801e-01
3.446243074946012119e-01,-3.408507265596261160e-02,-2.773898899725493750e-02,-5.151310487759975078e-04,1.049142307641172389e-04,-2.987028879133597162e-03,3.756133019924163818e-01
2.966908021596452727e-01,-3.384871999581648416e-02,-1.813415873667571787e-02,-2.846279834739900982e-02,5.138898392165150431e-03,2.700517067313916528e-03,3.268647193908691406e-01
3.233176758637249515e-01,-3.301267486846437560e-02,-2.065380913357489634e-02,-1.032514070071650740e-02,1.804312127106327932e-04,-5.856829734791652899e-03,3.509174287319183350e-01
3.301840027188777116e-01,-3.835224423733513133e-02,-1.969608069478312462e-02,7.945883216566050405e-04,-5.700472719945359019e-04,-3.726021148881436627e-03,3.596332371234893799e-01
3.413507032041857014e-01,-4.214578580813885256e-02,-1.958824801125716442e-02,-1.156042310953880404e-03,4.315305388596726052e-05,4.139035997814220357e-04,3.727360963821411133e-01
3.523079633824382495e-01,-3.641440661423381298e-02,-2.677714908053829834e-02,-4.932272255214331788e-04,2.358634828302915917e-03,1.297246811734121706e-03,3.840236961841583252e-01
3.587118510824158224e-01,5.527887296855799049e-03,-2.945892241160091851e-02,-2.392578796412621420e-03,-3.289863189172328919e-03,7.514928423032549674e-03,3.722080588340759277e-01
3.675643513781177152e-01,9.268569330071751988e-03,-3.583963641607010309e-02,-6.217812860431104916e-04,-1.824290282229575760e-03,3.234686756254619329e-03,3.829036951065063477e-01
3.651088212100557229e-01,1.459264739387516885e-02,-4.857194228007738479e-02,-3.444643594790226457e-03,7.246079430531807142e-03,2.152674192709749801e-02,3.880397975444793701e-01
3.537959892862100886e-01,-1.825670353275468671e-02,-2.083857920133580510e-02,3.056497656307416541e-04,2.769523696343982773e-03,-1.898024330895102659e-03,3.733959794044494629e-01
3.565201949529521186e-01,-2.621509283639772425e-02,-2.446052839956355807e-02,-2.364507135148426805e-03,2.350765263930865330e-03,-1.558804628955282393e-03,3.819142282009124756e-01
3.532224339831111504e-01,-2.823743342866058548e-02,-3.370915207711269734e-02,1.560628227633224221e-03,-6.717953079454474499e-04,4.208214892297318008e-04,3.842369019985198975e-01
4.096936701107699030e-01,2.174903966514457609e-03,-4.607983770970303095e-02,-1.337870823588613008e-03,-5.366144772837783128e-03,1.679005162627647540e-02,4.347438812255859375e-01
3.967186638471886240e-01,2.065128036350039054e-02,-4.922588128839233690e-02,-8.427231688094859174e-03,8.808785072878678318e-03,7.668264137042191987e-03,4.161853790283203125e-01
3.527311362231861924e-01,-3.317776517271939229e-02,-2.976384440046930813e-02,-2.545514965459669374e-04,-1.329121144763934566e-04,4.328648216663116312e-04,3.842143714427947998e-01
3.671638820800899317e-01,1.704160086646873407e-02,-4.002642788032287346e-02,-2.220468047051444519e-03,-1.350700805291528373e-03,8.147898953398711314e-03,3.821551799774169922e-01
3.620010555258992846e-01,-3.011334284079528190e-02,-3.096725024036564577e-02,3.316902956097321498e-02,-2.679321227102427622e-02,-4.237862496054754791e-03,3.994963467121124268e-01
3.527932875428115289e-01,-1.160708177786815010e-02,-1.942916567120381299e-02,-5.252834031950691070e-04,1.295826139217948940e-03,-2.551241852039256089e-03,3.684081733226776123e-01
3.151215143664368168e-01,-2.137920485932290338e-02,-3.069488519066979060e-02,1.472522360295712082e-02,-1.594457031377944853e-02,6.683456022965915573e-03,3.435133695602416992e-01
3.360005630803560295e-01,-2.927940002900372707e-02,-2.434950333473615003e-02,4.065001448755559826e-02,-3.320664974447289086e-02,1.286994302142484281e-03,3.740631639957427979e-01
3.552522639315761066e-01,-3.252938831490162497e-02,-2.757714312722853167e-02,-2.162796466831766202e-03,-7.643168829492530750e-03,-1.966219085984065307e-03,3.855899870395660400e-01
3.506045270435746986e-01,-1.149127246864911633e-02,-2.097045951567494404e-02,7.928430725023641096e-05,-8.642640553499529241e-04,-2.183622718501034791e-03,3.669497966766357422e-01
3.412431168404981285e-01,-2.526055118916442632e-02,-3.315457528834864220e-02,1.203243232979750183e-03,-1.647385349082498927e-03,2.559099200358938217e-03,3.705570995807647705e-01
3.559565075283002700e-01,-2.845003597740933254e-02,-2.779260394290120062e-02,1.316407597170375773e-03,-6.265558069104725479e-03,2.237470564186888264e-03,3.842578530311584473e-01
3.495689590674350145e-01,-2.807086047299597875e-02,-3.069850641008187164e-02,3.076637964447662913e-03,-8.582734957725218859e-04,4.443290573825107786e-04,3.790016472339630127e-01
3.547123074017853317e-01,-1.637502046730629490e-02,-2.419299226535226444e-02,-1.298556655352014382e-03,-2.226632094534484064e-03,-1.985299899388841716e-04,3.750841617584228516e-01
2.141753459020807049e-01,2.239799797388628000e-03,2.584770952294160318e-03,1.615020943564382441e-04,-1.499426649401451768e-03,1.859817934044177064e-04,2.117796242237091064e-01
3.615110172492385088e-01,-3.393190043369156972e-02,8.062031387273377314e-03,1.499888508167062252e-03,2.355805329067221700e-03,2.203509004256481649e-03,3.762583732604980469e-01
3.500872454953538049e-01,-2.572240172680848036e-02,-2.917000722362789178e-02,6.291880495533963059e-05,7.876716961898915306e-04,1.154331389750684828e-03,3.775530159473419189e-01
3.536915707406897980e-01,-2.428590243139555627e-02,-2.390992592667268157e-02,-1.097541735656843006e-03,-1.042042656979694654e-04,5.649293296537048038e-05,3.777944743633270264e-01
3.520595320611539791e-01,-1.910935874349922736e-02,-1.715610823539767682e-02,2.893024769538909491e-04,2.129365992794173944e-03,-8.379874353812751930e-04,3.702176809310913086e-01
3.399373243312380777e-01,-2.118534107145772505e-02,-3.934690702968540732e-02,-4.834897632754960083e-04,7.079001757980746875e-04,7.734676205589185007e-04,3.705428242683410645e-01
3.404905742951601089e-01,-2.069879030049529001e-02,-3.864448046398405445e-02,-1.543266155676416317e-04,4.316988364200812639e-03,3.456162057584425979e-03,3.706122040748596191e-01
3.527148064244782222e-01,-2.613943369325760768e-02,-3.365624939903014146e-02,-9.094170066163615763e-04,-6.554119533862342748e-04,1.555312630862185509e-03,3.826824426651000977e-01
3.411748520954219765e-01,-2.115721002920167848e-02,-4.070579672580695862e-02,-2.618951962065729604e-04,4.784409000463004519e-03,2.096811169621647097e-03,3.726014196872711182e-01
3.338326279789048945e-01,-4.109228028908040731e-02,-1.921951415516806594e-02,4.449787132898320140e-03,1.031373055196856803e-04,-1.109188217503089642e-03,3.645676672458648682e-01
3.419618410023343436e-01,-4.117746094885937902e-02,-2.167386982555191688e-02,5.816137157155390567e-04,-6.791880859897962599e-05,-1.174972385649736793e-03,3.737762570381164551e-01
3.540096116145304284e-01,-2.607859805661863484e-02,-2.091691221788660737e-02,1.675970049971546583e-03,-1.448016115080681850e-03,-3.026164335248939527e-04,3.775536715984344482e-01
3.332814833232124463e-01,-4.112568846215858276e-02,-1.861629939967909819e-02,5.148742356253751748e-03,8.227414070880221348e-05,-1.809016625964139993e-03,3.637981414794921875e-01
3.521174100788888039e-01,-1.642823877995777671e-02,-2.029107625519602220e-02,-6.971038820526586927e-04,-1.465503737073548841e-03,-1.186590951540600607e-03,3.705085217952728271e-01
3.524429015446395308e-01,-3.391760781503536104e-02,-3.033483196126421366e-02,-1.826576387879612980e-04,-1.046022060469413732e-03,8.628479104125084303e-04,3.845889270305633545e-01
3.413944156026506582e-01,-4.167435825684900896e-02,-1.963190448128915300e-02,1.566107724589296509e-03,2.121350644741441371e-04,1.753482012311772452e-05,3.725470006465911865e-01
3.084322951978454297e-01,-2.046762251617290085e-02,-2.927610642408193242e-02,3.638986053759284654e-03,-4.364369725641156078e-02,-2.090410481476886583e-03,3.419312834739685059e-01
3.514849154864786440e-01,-1.948264087923606835e-02,-1.752071692232434752e-02,-5.055389101557045302e-04,6.110917106348911229e-04,7.502862885999593253e-04,3.699953258037567139e-01
3.529288088995529704e-01,-3.097051716664916965e-02,-3.181806843870599311e-02,1.435646444300581409e-04,1.379256962225634115e-04,3.286000691944060827e-04,3.843243718147277832e-01
1.977097998789329736e-01,-4.396885917247780884e-02,-1.950499711141494286e-03,-5.795106528377130806e-02,-7.628291320029940981e-02,2.418345053557344193e-02,2.816130816936492920e-01
2.223393202369784716e-01,-1.019989766770881823e-03,-7.167232512103743902e-04,-1.029854815561285185e-02,1.058182283007863631e-03,1.868610886127751620e-03,2.239503264427185059e-01
2.344426143013401131e-01,-2.644259959557203332e-02,8.213832824790323617e-03,-6.834717742707167865e-02,-7.249547621611944492e-02,2.686333859811306998e-02,3.035894036293029785e-01
3.187328521044626717e-01,-2.504510150210279007e-02,-3.057702364867273537e-02,-1.842122427869078219e-02,-2.831221929791354758e-02,-5.563453005754090235e-03,3.516123890876770020e-01
3.299039330094163947e-01,-3.085183081295780894e-02,-2.810501770486062423e-02,-2.390918768873568669e-03,-4.841938995900095521e-02,-2.388582747155253237e-03,3.690920174121856689e-01
2.632212261432267941e-01,-8.060934036866765351e-03,-1.985248989176975620e-02,-7.570784454302861496e-03,-5.132459105919760789e-02,-1.087794723658639523e-02,2.921668589115142822e-01
4.195534741900164843e-01,-2.847988685838623302e-02,-1.453529415449375528e-02,-2.864595034325419839e-03,3.459709210964524544e-03,-3.204368450179161110e-02,4.447714388370513916e-01
3.684047190204730038e-01,-3.247407615728381547e-02,-5.146588767295789957e-04,-9.849518282390109809e-04,5.040645417401472608e-03,-1.341904949799347518e-02,3.866945803165435791e-01
3.576279605791886640e-01,-2.042398695927050145e-02,-9.608606241457651187e-03,4.879521600821216780e-05,3.132544186802382717e-04,-5.004167050452363978e-03,3.728631138801574707e-01
3.582184087644765813e-01,-2.755395747696726128e-02,-7.293604095691436084e-03,9.812154100974463614e-04,-5.112562860425998428e-04,-3.016222894707307634e-03,3.760929107666015625e-01
3.517606136875059963e-01,-1.965115999448613371e-02,-4.661407434448955334e-03,-1.407587317896123779e-03,8.598480004106492415e-04,-4.228951113686703171e-03,3.642332255840301514e-01
3.582486069556861663e-01,-2.676087026621193354e-02,3.407677337011111307e-03,2.868402484799750188e-03,-1.307738682977239346e-03,-5.926724872917506041e-03,3.710289001464843750e-01
3.573450717174125324e-01,-2.938297268710698962e-02,6.105983137776882508e-04,2.295309037335300367e-03,-1.085740571745236627e-03,-8.024297771124545842e-03,3.729227185249328613e-01
3.634262446143645686e-01,-2.829115001346146907e-02,-2.809139692308226799e-03,-1.747613273934166874e-03,4.239528260774211039e-04,-6.449457417398178974e-03,3.797954618930816650e-01
3.483721349085592278e-01,-2.739185110201847184e-02,-2.448569706370593013e-02,-1.244643098622220338e-03,-2.469144169106305721e-03,-5.178552177682595962e-04,3.743510842323303223e-01
4.205793409971512742e-01,-3.768969543573177927e-02,-8.991351579580003639e-03,1.227887291367741468e-02,-2.992307075306622349e-02,-2.023023063301010449e-02,4.494983851909637451e-01
3.426990766320133774e-01,-2.524009144885130951e-02,-2.919283929948851553e-02,1.179967185922877870e-03,-6.545226445995183835e-03,5.813327651882131686e-03,3.702476322650909424e-01
3.608434381655890033e-01,-3.552116860179668767e-02,1.451872566425621569e-03,-1.492938689671624575e-03,-9.496010640731420219e-03,-9.774100598314129987e-03,3.799748718738555908e-01
3.589256900391625815e-01,-3.537943707178889396e-02,6.720095016396032683e-03,-1.307444630574166287e-03,2.351984827485815218e-03,-6.110198586688120673e-03,3.752100467681884766e-01
3.556087712005209234e-01,-2.835978569031560870e-02,4.730989364619020421e-03,-9.621642742936866669e-04,-2.738819573108359790e-04,-6.843859572403603563e-03,3.687337040901184082e-01
3.725265002521703228e-01,-4.286033971974087531e-02,2.498987529435531263e-03,1.510551036351856155e-02,-2.406046955250971866e-03,-1.025700473585528655e-02,3.959539532661437988e-01
3.542314097367774139e-01,-2.717150665921996833e-02,-2.572975711386524256e-02,-9.011150457723801025e-04,-2.259527158604965856e-03,4.020495634619212989e-04,3.807080388069152832e-01
3.641394821148155603e-01,-3.493880328908249844e-02,7.047490636927361551e-03,7.642994805091422091e-04,-4.684241709327751496e-04,-6.719462014055529141e-03,3.800110220909118652e-01
3.541530189126853023e-01,-3.008883403130216405e-02,-2.991315934483329553e-02,-1.500105179052778359e-04,-8.999908579177733157e-04,-9.230671170915525628e-04,3.841606378555297852e-01
3.507437580766425977e-01,-1.938754007907544930e-02,-1.592628143564103760e-02,-9.467007908369477938e-05,5.526773888574949313e-04,1.027907591643304874e-03,3.684184551239013672e-01
3.503073905360820084e-01,-1.465545296868286940e-02,-1.539764414288560812e-02,-2.165057611984965298e-05,9.879198200290779247e-04,-1.091442406879460656e-03,3.653433918952941895e-01
3.546517893531062615e-01,-2.706676919985748220e-02,-1.525696788617289523e-02,4.630870356204988937e-04,-7.386659530212397271e-04,1.026496112707864531e-03,3.759600520133972168e-01
3.496880966337840846e-01,-1.521653867204697530e-02,-1.478697156666458623e-02,-1.658342850430654433e-04,-1.230498723227578040e-04,4.793557231408114398e-04,3.646911680698394775e-01
3.495276122694663812e-01,-1.457348841490205271e-02,-1.723232748463582320e-02,-1.970189298604960594e-04,-5.255421758297098862e-04,-1.389080395527201054e-03,3.654469847679138184e-01
3.511934080725938045e-01,-1.805459845968765409e-02,-1.732409025732939423e-02,8.511251573741632822e-04,6.343717140660264705e-04,3.870790763111018316e-04,3.688884973526000977e-01
3.499810620091333146e-01,-1.264122629215636007e-02,-1.533369628379105398e-02,-7.925708509447505724e-04,-4.973977049778046571e-05,2.276770415553827469e-03,3.639999628067016602e-01
3.527963018590257183e-01,-1.950746523707305724e-02,-1.955158666788220367e-02,8.706808007016269418e-04,1.850910798355569035e-03,2.505594947954273115e-03,3.723679780960083008e-01
3.508494008333836178e-01,-1.507544555985693147e-02,-1.764505157093082532e-02,-2.087262543016825292e-04,-5.386765505172329055e-04,-6.752936333786164688e-04,3.672196269035339355e-01
3.542724764851628017e-01,-1.972776369530160334e-02,-2.028302712352644810e-02,2.653953598218689990e-03,1.520182457993900747e-03,3.464492717226767566e-03,3.743637502193450928e-01
3.520968235439773109e-01,-1.950127671208676250e-02,-1.739114137674435678e-02,9.824072990105704554e-04,-6.691796087783677752e-04,1.651013328734722172e-03,3.705642819404602051e-01
3.533432808264921343e-01,-2.269264501220710772e-02,-2.232569292403929762e-02,8.707520969855916775e-04,1.555113931822232551e-03,2.906407226678106256e-04,3.758656084537506104e-01
3.535498118010810265e-01,-2.910556823897411660e-02,-3.511190840088534992e-02,-1.151512667395770744e-03,1.651277449993287464e-03,3.621699618182910169e-03,3.857603967189788818e-01
3.528069328096307689e-01,-1.934256500105713261e-02,-2.290946672602814371e-02,-4.087475476473707522e-04,-1.749228555091041082e-03,4.513606171133407091e-05,3.739586472511291504e-01
3.505435341585581011e-01,-2.912091929213947439e-02,-3.412229477639167063e-02,1.555296409879429752e-05,-2.568361119509598198e-04,1.070660457862915088e-03,3.821944296360015869e-01
3.543789052184869726e-01,-2.580671573402376628e-02,-2.778827510369891174e-02,-4.815850643066247813e-04,-1.678715919687607649e-03,6.318057880865838791e-04,3.811938464641571045e-01
3.532782277382274239e-01,-2.996349684090660048e-02,-3.209896543638598998e-02,1.679088051064395708e-05,-1.336785493848982598e-03,4.487057852613209009e-04,3.843216598033905029e-01
3.516697996222841183e-01,-2.908727991006282432e-02,-3.516020129604907618e-02,-8.038514789274947342e-04,5.271633125257376914e-04,1.443183197769769104e-03,3.838413357734680176e-01
4.068695701829712630e-01,2.227551259744831036e-02,-7.566965883575507701e-02,1.651483592664103328e-02,5.279491979123398376e-02,-6.700578052150036462e-03,4.522054791450500488e-01
3.511651838292752514e-01,-2.405082463876320742e-02,-3.844075990156933798e-02,7.194458568170544613e-04,3.843376804908801847e-03,1.294155349710375633e-03,3.826804757118225098e-01
3.518674595371438785e-01,-3.541308462120573708e-02,-2.898067952933588987e-02,2.686479577664642872e-04,-3.284689151526804158e-04,1.738719182116560012e-03,3.841172456741333008e-01
3.525659110407586838e-01,-3.454114088220000545e-02,-2.918246853340128455e-02,2.777961345270357676e-03,3.068282336187708642e-06,3.282450872818812575e-03,3.845278620719909668e-01
3.547937996017247464e-01,-3.186680177228604083e-02,-3.243418256641472652e-02,4.182341415413342163e-05,-1.378921132429489541e-04,-1.231391630144816833e-09,3.869446814060211182e-01
3.521178876413265657e-01,-3.184486065504982255e-02,-3.106675961083935067e-02,9.794325724265483789e-05,8.935126056791792889e-04,4.541966276373194766e-04,3.835782706737518311e-01
3.538753912514618349e-01,-3.279353300431564477e-02,-3.050836387131516947e-02,5.767515105400449404e-04,-1.247574596226964927e-03,3.328226910496052352e-03,3.855818510055541992e-01
3.519881701504409266e-01,-3.231624486739981261e-02,-3.047442106858036515e-02,8.241019782566972630e-04,8.651194859732953737e-04,2.081578518031266482e-03,3.834093511104583740e-01
3.501136250510807901e-01,-2.602253868802173464e-02,-3.530687239667867905e-02,-4.844811127525056136e-04,2.838484624714904866e-03,3.375379745476383715e-03,3.809407353401184082e-01
3.472998771043988575e-01,-2.575515466180197666e-02,-3.801717827257136695e-02,-1.377304228078341354e-03,1.256781452003546354e-03,1.567203660006047296e-03,3.793581724166870117e-01
3.503335966878055596e-01,-2.596786921048885310e-02,-3.721106100401469496e-02,-5.025954433024822825e-04,-5.822994140741630763e-04,1.191815997910221836e-03,3.820550739765167236e-01
3.534359524761511717e-01,-2.913354610752505458e-02,-3.426994473110220318e-02,-1.156203258266781187e-03,-1.571009466185475424e-04,1.173324711540738551e-03,3.851740360260009766e-01
3.475668239714588825e-01,-2.894338330186907449e-02,-3.499095783236830237e-02,-9.464897163154164985e-04,3.319007715822352034e-03,3.375119157408928115e-03,3.796622157096862793e-01
3.453015814440011932e-01,-2.568989063715945709e-02,-3.853261973787314165e-02,-8.875939645528135944e-04,-2.815086797014898913e-04,2.061506435169655361e-03,3.775970041751861572e-01
2.718134408872089347e-01,-2.480545546555466829e-02,-2.348149172180483135e-02,3.920712694044570928e-02,2.539238352065667156e-02,-5.574776465570198750e-03,3.069706261157989502e-01
3.851633502625217420e-01,-9.012077480658797768e-03,-3.479226657762410357e-02,3.824935473884871068e-02,2.668993590171624825e-02,2.170313467551457376e-02,4.173008203506469727e-01
3.186654875102079010e-01,-2.677752975328961949e-02,-2.538318210759485383e-02,4.973646253325711072e-03,4.385443249988645389e-03,-7.865273173280572933e-03,3.452081382274627686e-01
3.539924836495909055e-01,-3.542558259030995083e-02,-2.590494136531262814e-02,6.851561781825792410e-03,-3.531565691965578659e-04,-2.845735124582957076e-03,3.849611282348632812e-01
2.798944615884612075e-01,-2.715494889724008598e-02,-1.664604869287168720e-02,1.772644897447858345e-02,2.353222643153625709e-03,-7.408048946391994696e-03,3.037876784801483154e-01
3.092264845291625153e-01,-3.162816130985904306e-02,-1.831251301457112457e-02,-4.270999211366270556e-04,3.212075719760027620e-03,-5.315576305185008149e-03,3.345695137977600098e-01
3.126950335526743618e-01,-3.447467207031937320e-02,-1.845089575022497430e-02,7.010943698125274987e-03,4.660473182130222408e-03,-5.915936124709360137e-03,3.399091362953186035e-01
3.503347803527874782e-01,-1.661383139358718619e-02,-1.214745490487437185e-02,-6.541107808827496947e-04,-3.559158532822839110e-04,2.115256880966291490e-03,3.647566139698028564e-01
3.130106940304303587e-01,-3.608364232630695279e-02,-2.024675695081167015e-02,9.439959916622983616e-03,2.316276570501171837e-03,-4.057952581860536402e-03,3.419384956359863281e-01
3.254878414785576379e-01,-3.477372935799025178e-02,-2.442336020375598937e-02,7.365287118262694652e-03,3.348109680643541249e-03,-5.416754528341285839e-03,3.555996119976043701e-01
4.321327343964790346e-01,-2.998006885846252190e-02,-3.007777768691574649e-02,9.613414319455487050e-03,-4.770974255159534869e-03,-2.814384512786424070e-02,4.650969505310058594e-01
3.636018664820931390e-01,1.164028866043671784e-02,-3.608266200592677442e-02,4.013494840821821286e-03,1.159136978719285937e-04,-1.876073159564595541e-02,3.795462250709533691e-01
2.584009148078293960e-01,-1.554904876678134262e-02,-5.301230045475710528e-03,-1.005876458576391002e-03,1.659915370150229349e-03,-1.066432025580518576e-03,2.689998447895050049e-01
3.597850554550406366e-01,-1.424415790427013828e-03,-3.076231366099424491e-02,4.848914263261959283e-03,-5.672680010405771337e-04,-1.362189076987271874e-02,3.775689303874969482e-01
4.177437212862856741e-01,-2.747078987365370040e-03,-3.066743879930006189e-02,-1.294782858480326721e-03,-4.159400761184412973e-03,-2.360449199355721395e-02,4.371049702167510986e-01
3.750865877994625230e-01,-1.076776428607795211e-02,-2.151848883234996901e-02,6.755337795644448043e-03,-4.436830250536873696e-04,-1.703899007958026290e-02,3.926268517971038818e-01
3.619778891713783531e-01,-3.428946735489105113e-02,-8.545507634646287709e-03,-1.550884671646317434e-04,1.300428370881316718e-03,-5.394204963699605893e-03,3.841634094715118408e-01
3.796036017797843054e-01,-4.012617215065772402e-02,-1.402009059664838242e-03,1.664006924074475091e-02,1.682323750521413919e-02,-2.469262377714777010e-02,4.061131179332733154e-01
3.488353724704378878e-01,-2.824174051152297804e-02,-1.734150244726020973e-02,-2.513794996108839695e-03,2.693437066958273562e-02,-4.242281010308766517e-03,3.747600018978118896e-01
3.551743203007041161e-01,-2.941209962250510013e-02,-2.907057399827911448e-03,1.602726582333403784e-03,-1.471407813899528383e-03,-3.528310096675828580e-03,3.721119463443756104e-01
3.524602810343803738e-01,-3.075970922205778502e-02,-3.292903125138940679e-02,-4.845010504576285557e-04,-6.333820153095441477e-04,-1.666901993182865740e-03,3.843225836753845215e-01
3.508555236175274206e-01,-1.512543251657655352e-02,-1.530354778873505017e-02,-1.309736688788579054e-03,8.264598172384983194e-04,-2.568615640543725487e-03,3.661068975925445557e-01
3.431220855623678401e-01,-3.977756432451379220e-02,-2.368141329167725018e-02,1.988196414588633189e-03,1.517268706644085263e-03,-1.157691313222619471e-03,3.751410543918609619e-01
3.514398001861390730e-01,-1.766740623868937043e-02,-1.688627473002027313e-02,-1.200727599519475688e-03,9.797796772049865988e-04,-3.182118664084366872e-04,3.687274456024169922e-01
3.514124718826214244e-01,-1.705101277862522413e-02,-1.729188736907280588e-02,-1.207513212505442616e-03,9.526615976814659971e-04,-1.965290988421379537e-04,3.685937523841857910e-01
3.551107032736417479e-01,-2.777068666995316515e-02,-3.046085530067318969e-02,1.119927420249802351e-03,1.094332160519416984e-04,-1.115962608551007837e-03,3.842433393001556396e-01
3.547233181102108501e-01,-3.210755064533171721e-02,-3.083754071299368849e-02,4.373835526686619844e-04,-1.272457651515948400e-04,-3.393291241221684656e-04,3.861986696720123291e-01
3.504598185258154253e-01,-1.464479645137134467e-02,-1.559971409186619584e-02,-3.639151987697545362e-04,2.758840199257054575e-04,-3.549109703976804529e-04,3.655843734741210938e-01
3.432693346326621819e-01,-2.200591464406725928e-02,-4.140577600918721179e-02,9.566876387124043741e-05,-3.570522016508309061e-03,-8.042820927197540971e-04,3.754049241542816162e-01
3.417466946040080833e-01,-2.124956621316714811e-02,-4.104715700791589095e-02,-7.032826914473742442e-04,-3.486132788054431900e-03,-1.398529956203561995e-03,3.733476698398590088e-01
3.325272331521129665e-01,-1.833532035509818914e-02,-4.078222770134665165e-02,1.580869280791886316e-04,-4.983419127633384980e-03,-1.585949551423986243e-03,3.627206981182098389e-01
3.424143853469886478e-01,-2.122773798484772767e-02,-4.117471422209595389e-02,-7.390340624910473428e-04,-8.314013480812780521e-04,-9.373145283909792638e-04,3.740232288837432861e-01
3.482403091365832148e-01,-3.505640588463729279e-02,-2.700950469340998583e-02,-1.641220721800005925e-03,1.917644880088100086e-03,2.455280484893305852e-03,3.793863058090209961e-01
3.529822535055865962e-01,-3.527882679048374714e-02,-2.888256381978668297e-02,-1.142179562923560741e-03,3.844792194982488576e-04,2.952854287234906415e-03,3.851424157619476318e-01
3.550113091403672150e-01,-2.675093123517102711e-02,-2.631591374356867519e-02,-1.785474389844264077e-03,-1.248791627619157346e-03,1.003047045950389293e-03,3.815675377845764160e-01
3.446553645168207725e-01,-3.862187512041889703e-02,-2.411093748439427364e-02,4.190545761658381061e-04,4.464718199651060556e-04,2.068823703374642834e-03,3.762502670288085938e-01
3.511340404352187305e-01,-1.529304986876420247e-02,-1.857897277591438745e-02,4.860292452880500894e-04,-3.403419032329605656e-04,1.921957744499304616e-03,3.680975437164306641e-01
3.481375281686760470e-01,-3.515545275029480221e-02,-2.866654961588827044e-02,-1.922578165744807509e-03,1.626911697137546240e-03,2.970548461209132022e-03,3.801499307155609131e-01
3.455063067514156927e-01,-3.545365274853420900e-02,-2.689835708922883040e-02,-9.474890827524374247e-04,-6.466145197191434533e-05,3.408368835588912894e-03,3.768050074577331543e-01
3.548104329812054591e-01,-3.137770678174325867e-02,-3.277281117062710858e-02,1.756586007376594375e-04,4.110761155929404582e-04,-5.470930008158638846e-04,3.868895173072814941e-01
3.542704898890342569e-01,-2.235372982474709280e-02,-2.672053208074462449e-02,8.637277572185462268e-04,2.541810765920078804e-04,-2.143540515403682609e-03,3.788478970527648926e-01
3.551023123179909424e-01,-3.094316440616617925e-02,-3.101247220372443936e-02,-5.514522783982518444e-04,-2.060928721639817196e-04,-6.361360745152098485e-05,3.860814869403839111e-01
3.559259751914353176e-01,-3.220977944098615819e-02,-3.099363584401262917e-02,1.260750288341218458e-04,4.683727952658866666e-04,-5.274053067210181548e-04,3.875311017036437988e-01
3.550479709831458330e-01,-3.239266953975139529e-02,-3.239115787493829224e-02,-1.809765078328267717e-04,-1.176913009378542687e-05,4.547176919469983958e-10,3.874400258064270020e-01
3.537948091032221964e-01,-3.185264127095571718e-02,-3.169416354717569106e-02,-7.972564691419904313e-04,1.367635386177750876e-04,-1.211247678330422254e-04,3.855708241462707520e-01
3.547996272769251003e-01,-3.046592979465384543e-02,-3.185108038131631569e-02,4.055531621416662074e-04,1.093190577726596991e-03,-1.368949207253211610e-04,3.859653472900390625e-01
2.947974701255123842e-01,-3.154633429471276340e-02,-1.394125822158583106e-02,2.586963021886249867e-02,-8.615259464482022400e-03,1.956129624329144834e-03,3.214136958122253418e-01
3.562380528062910057e-01,-2.747461518111818379e-02,-2.816317396124523587e-02,-2.047709545052596794e-03,1.065293490006893494e-03,-2.496119287771402179e-04,3.840784728527069092e-01
3.548164490860595266e-01,-1.266652557952718805e-02,-3.214769535190592498e-02,2.052373923723198757e-03,1.025539273361891291e-03,2.563657374821795565e-03,3.776476681232452393e-01
3.527055374044412162e-01,-3.094214568551509337e-02,-3.277645119106922800e-02,3.366982131521423336e-04,7.449339422552953048e-04,-1.385126052149074317e-03,3.845781981945037842e-01
3.457739322903055079e-01,-3.581112028857308394e-02,-2.522374155116710592e-02,6.863473000523075108e-05,9.834110716061389944e-04,3.849985804887679722e-03,3.764659762382507324e-01
3.600201397754850263e-01,-3.964788250502471190e-02,1.476436177016586526e-02,1.182662250470851431e-03,-1.704224633197207617e-03,7.865817738864290705e-04,3.754506111145019531e-01
3.435519682534903252e-01,-3.947831106760793518e-02,-2.116400503967449942e-02,-3.046103105987628054e-03,7.438692293962193350e-04,2.973510605879728288e-03,3.742842376232147217e-01
3.385187171332882938e-01,-3.916379573790618185e-02,-2.178603038562593186e-02,-2.715076948669107107e-03,-7.086527084758068474e-05,3.046785444561638575e-03,3.693680763244628906e-01
3.407385183711328369e-01,-4.138552218720836784e-02,-2.061807141122262710e-02,3.743280052585312928e-04,8.040502177552799547e-05,1.452429689434085432e-03,3.721842169761657715e-01
3.715891797862370116e-01,1.414760054754538032e-02,-4.081383938621813146e-02,4.906397329026865491e-03,5.043048376338774225e-04,1.061309591815263673e-02,3.883833587169647217e-01
3.491885929451265524e-01,-2.715737735393045083e-02,-3.554388949413814225e-02,3.565308373843896700e-04,-8.151711891285413382e-04,-8.257625688558017235e-04,3.806143403053283691e-01
3.539478652326409347e-01,-2.952051532867025485e-02,-2.770589020890759646e-02,1.089319489819029789e-03,-9.700346616831547093e-04,-9.085881167675006662e-05,3.825726807117462158e-01
3.544959683349056534e-01,-2.570147383984469625e-02,-2.510296435827719108e-02,1.802955432021683367e-03,-3.729733976001569219e-04,5.736652027480235606e-04,3.799132108688354492e-01
3.494465685460410587e-01,-1.553657304341959922e-02,-1.486124357488072256e-02,2.197131548100068974e-04,-8.750730800575246850e-05,3.041592708361691108e-04,3.646465539932250977e-01
3.366755010693293082e-01,-2.033531386805911834e-02,-3.845282744968578359e-02,7.366661252151452972e-04,-7.806256702996424660e-04,-4.437585301910937190e-03,3.664909899234771729e-01
3.538618196449247466e-01,-2.117970664120844004e-02,-2.503026827169133051e-02,-2.774244285497507590e-05,6.073074489427219647e-05,-4.297440950500710827e-04,3.769823014736175537e-01
3.288019049438782315e-01,-1.425927235800727999e-02,-3.935578042973494894e-02,1.311169484820576530e-03,-7.759572326846942911e-04,-7.605524512572559058e-04,3.562851846218109131e-01
3.482129292366255013e-01,-3.862325794239632182e-02,-2.692500745792264505e-02,-7.077247885662739474e-06,6.058349448976046861e-04,-2.637554626507285140e-03,3.811505734920501709e-01
2.373646681358131116e-01,-1.728098575676353943e-02,-3.553215241224108589e-03,-2.987716203248277913e-02,-1.220766643920970229e-02,-5.228076549001312197e-03,2.544487416744232178e-01
3.425287063762413320e-01,-2.298309186295602324e-02,-3.867459547594293001e-02,8.122733461818043262e-04,-5.780421366218120279e-04,-8.089081366606967576e-04,3.736113905906677246e-01
3.543752451741186138e-01,-2.592675982316974825e-02,-2.582290977342821536e-02,5.555140972915807241e-04,1.192972924950329262e-03,8.356592223427739561e-04,3.802596628665924072e-01
3.173151408163807918e-01,-2.826908743776002098e-02,-2.067915923764016006e-02,-1.026929272877991029e-03,-1.441869569824278502e-04,-6.448345762097223294e-03,3.420395851135253906e-01
2.961357028242520006e-01,-7.883018648719833377e-03,-2.965747803358986801e-02,3.713166692376205689e-04,-5.082919596716877278e-04,5.132539627440433141e-03,3.155971765518188477e-01
3.358090233354408261e-01,-1.931443295123277948e-02,-4.078072327608381342e-02,1.913755558972852436e-03,5.197401098569509256e-03,-2.513523075698005302e-03,3.664800524711608887e-01
3.415348695447296690e-01,-2.168615056013201148e-02,-3.959209826606077676e-02,1.144974733818679207e-03,3.740400548754641182e-03,-3.010345373943679615e-03,3.725950121879577637e-01
3.365730692356716514e-01,-2.227860418377741736e-02,-3.573160236140915380e-02,3.739020207127308052e-04,-2.584564546873158544e-04,-4.018679888070333245e-03,3.658308386802673340e-01
3.417066165792314036e-01,-2.055431144524316744e-02,-4.215542071207009633e-02,-1.308920840145640432e-04,5.235664777930577711e-03,-9.067973466834407291e-04,3.736436665058135986e-01
3.327296523534628014e-01,-1.827341691259651291e-02,-4.156627679318894431e-02,-1.038695601447051737e-04,7.052614002745693014e-03,-1.891080529208007772e-03,3.634302616119384766e-01
3.546190354338107364e-01,-2.091855189192251552e-02,-2.638331808222565966e-02,-1.693724964262514638e-03,-1.746527496284896747e-03,1.014734024836349549e-03,3.783271312713623047e-01
3.534736310878417442e-01,-2.123421505066178105e-02,-2.156867382215002515e-02,-1.237963944645305249e-03,-6.325212054917822655e-04,1.154406320148623289e-03,3.748882412910461426e-01
3.536633772503258166e-01,-2.267770776749025718e-02,-2.164586355269082496e-02,-1.244060460521983786e-03,-1.733216319610852638e-03,5.302977188518880579e-04,3.758455216884613037e-01
3.444695045695855828e-01,-2.706110634603070553e-02,-3.289802911781644634e-02,4.067194077597852402e-04,5.344623534122653068e-05,-3.859693667572723641e-03,3.745435178279876709e-01
3.449413092453116336e-01,-2.773034274233998620e-02,-3.581630989478931659e-02,2.024317794522392301e-04,-7.233949404425698811e-04,-5.787055011870382432e-03,3.769152760505676270e-01
3.493227605054460838e-01,-1.726150165835982353e-02,-1.392000914564778258e-02,-3.127080917971337254e-04,2.393991610329560698e-04,1.269715154857348769e-03,3.649322688579559326e-01
3.134232808840658469e-01,-1.869142820049202180e-02,-2.920446884161045920e-02,5.101696989216579492e-04,-1.274118148749511055e-03,-6.511331888191798298e-03,3.376908004283905029e-01
3.544736709883972159e-01,-2.529745792531362669e-02,-2.518779008261351482e-02,-3.096938364101382976e-04,1.172549178549448824e-03,1.031466614289830355e-03,3.797263205051422119e-01
3.443273778621882553e-01,-4.126302365332551458e-02,-2.167787427495004859e-02,-4.318648983703614677e-03,-5.943705218841797413e-04,-7.793731872874309864e-04,3.762585818767547607e-01
3.394287184274132341e-01,-4.236421662427611312e-02,-1.936542400376936590e-02,1.354834552469341073e-04,1.165370760421493796e-05,1.711719601078922964e-04,3.708290159702301025e-01
3.441392149719285642e-01,-4.106493502170532883e-02,-2.231638242992470267e-02,-4.473166085765165577e-03,-1.115191905933038408e-03,-1.345490195948078910e-03,3.762723803520202637e-01
3.325869732367519038e-01,-4.088928261189217483e-02,-1.867572915174292580e-02,-5.805176078641582395e-03,3.532112801137831515e-05,-1.204905235198283631e-03,3.630250394344329834e-01
3.331654897856155539e-01,-1.700352339375121868e-02,-4.117888168021768824e-02,1.157008656241425356e-04,-4.962048513679849678e-03,8.258450205192399175e-04,3.629658520221710205e-01
3.358682651047524281e-01,-2.075751827708877117e-02,-4.141874509453508102e-02,8.620577720405569761e-04,-5.376323513146335012e-03,1.919762365386185055e-03,3.675284385681152344e-01
3.115899359307443550e-01,-1.932093409925754457e-02,-3.616834549523373354e-02,1.545260780951773424e-03,-1.031059674219124422e-02,3.281153467180566129e-03,3.401752710342407227e-01
2.866351042335122390e-01,-2.247512095300788215e-02,-2.591456505386077747e-02,-1.956553111276890938e-02,5.312458311989177312e-02,2.400446494953199176e-03,3.259701132774353027e-01
3.260968960510298720e-01,-1.678262592440146750e-02,-3.869135616969873737e-02,-1.088181407971698439e-03,1.167773574485250938e-02,1.298965773777007761e-03,3.549311757087707520e-01
3.536040968586424138e-01,-2.749866095150410583e-02,-3.339950811960984423e-02,-4.129971412695158939e-03,3.543118621755317853e-03,3.066800451827645345e-03,3.842395246028900146e-01
2.999013490356776113e-01,-1.974060698922008861e-02,-3.454658982891728458e-02,-6.537753171712848248e-03,4.798148734017263634e-02,7.159915062466833992e-03,3.380998373031616211e-01
5.253954844024543158e-01,-4.938685511704063447e-02,2.703529084838396379e-03,-2.039456041300157126e-03,2.158067397239994689e-02,2.589921956737849945e-02,5.536871552467346191e-01
2.680951592736518507e-01,-8.285079324927752120e-03,-2.368352558758260451e-02,-2.103212403911154551e-04,1.720035356010024899e-02,-3.119876439914429263e-03,2.859997749328613281e-01
3.085997634894935837e-01,-1.607602106906676209e-02,-3.686755695389010157e-02,-3.739947512217026799e-04,9.308785010535594942e-03,2.419251902580890875e-05,3.359427750110626221e-01
2.994650125859910084e-01,-7.964523586924412979e-03,-3.097568486879997973e-02,1.702314299355553711e-03,-1.143516881758155227e-03,-2.451147019319785663e-03,3.196050524711608887e-01
3.557896010508763140e-01,-3.226505670847573670e-02,-3.137864393312803091e-02,3.108732153027187720e-04,-6.483452612046815148e-04,-6.392807121585264776e-04,3.876157999038696289e-01
2.691272241294349610e-01,-1.188555516226381947e-02,-2.301280303657245174e-02,3.531746880708110792e-05,1.570176622112040912e-02,-5.511802669722707521e-04,2.880268096923828125e-01
3.537273906982890681e-01,-2.773649918105922096e-02,-2.314204955404175479e-02,7.259726828399009095e-04,2.845141984436123147e-03,-6.988351463128182790e-04,3.792235851287841797e-01
3.537532095739812643e-01,-3.069872257709352348e-02,-2.945645747251304791e-02,2.401926158735052854e-03,-3.198752864823779774e-04,1.571168691393328831e-03,3.838649094104766846e-01
3.529200472157019708e-01,-2.831893780180960718e-02,-2.829526507269713997e-02,-5.474400183292474657e-04,1.195996155866683444e-03,2.852023210841194952e-04,3.812342882156372070e-01
3.537480014287545660e-01,-2.815402743803319119e-02,-2.760842512131864157e-02,-1.931416059214526547e-03,7.295792406013342684e-04,4.419008257077035534e-04,3.816470503807067871e-01
3.503927125025548261e-01,-3.259303799978460758e-02,-3.126712430919603714e-02,4.305974468705907159e-03,-1.844513711769126593e-03,4.796533969672811190e-03,3.825008273124694824e-01
3.545848145827907860e-01,-2.797947140357157081e-02,-2.886865879234334908e-02,-1.271420675604300254e-03,1.238522097103980386e-03,7.767612146730722047e-05,3.830220103263854980e-01
3.545844995954526291e-01,-2.742280518320369676e-02,-2.980638306251306990e-02,1.084385491667293243e-03,-7.327637220693237032e-04,3.565216779854734242e-04,3.832118511199951172e-01
3.526546484467526499e-01,-2.748425491076467164e-02,-2.971260879555720491e-02,1.203122686898975028e-04,-1.457580518190081543e-03,-2.864567712921907970e-04,3.812667131423950195e-01
3.503489089830699177e-01,-1.499275779807493492e-02,-1.489839828667416377e-02,-4.202180864886363287e-04,-1.625997863322765392e-03,1.829504075784124878e-03,3.653198182582855225e-01
3.560219121745728521e-01,-3.076001985232504343e-02,-2.548685205065889803e-02,-6.597774852447267115e-03,-1.926439855967231832e-03,2.742959503781464896e-04,3.843571841716766357e-01
3.401661685549162706e-01,-4.118216929789769720e-02,-1.726097028271722511e-02,-5.233842004962357616e-03,-6.375014960491012979e-05,8.791624401389496564e-04,3.700824081897735596e-01
3.399184269484045173e-01,-4.096021780713329785e-02,-1.967629516812427481e-02,-7.841021647117538476e-04,-4.755097762038189291e-04,2.146198242528255115e-04,3.706988096237182617e-01
3.347043966151021510e-01,-3.920868188923751219e-02,-2.062132234990377011e-02,-4.203733341643005848e-03,2.334401492782391986e-03,2.931765363263565301e-03,3.651048839092254639e-01
3.408073689810663387e-01,-4.133890413520721618e-02,-2.076095631531893471e-02,-5.565575832430497485e-03,6.349758695861148919e-04,1.960220088877405800e-03,3.724259734153747559e-01
3.512149554505589744e-01,-1.803225077087777795e-02,-1.744046144981872826e-02,-1.833372288142861998e-04,-7.013006896981316927e-04,-1.698605418885034736e-04,3.689539134502410889e-01
3.546211440450807717e-01,-2.761946360926073596e-02,-2.423269897396826411e-02,-6.929630973189448940e-04,-7.041321342585885133e-04,1.395837134506829101e-03,3.805700540542602539e-01
3.402543156573851757e-01,-4.079613587698052712e-02,-2.076868864991043839e-02,-1.400612981587254051e-03,5.431228492344304399e-04,4.010845022653984453e-04,3.714516460895538330e-01
3.401273316439689665e-01,-1.727785227969197424e-02,-4.137403736479119964e-02,4.378007706299384596e-04,-4.063727305920835156e-03,8.314811064895278247e-04,3.701126575469970703e-01
3.426852133957682400e-01,-2.109590995044918760e-02,-3.984387675693865094e-02,-1.261721482682800566e-04,-5.360728202373132509e-04,9.461092867906738821e-04,3.735129833221435547e-01
3.555689510748363813e-01,-2.604657457342479665e-02,-2.660609000143479563e-02,-3.228619956704184470e-03,1.610274203996980196e-04,-2.877499951356060387e-04,3.819369673728942871e-01
3.403867887385724766e-01,-1.948468941213224448e-02,-4.154493811326537278e-02,9.607651859075864825e-07,-4.230001718484342928e-03,-8.257540705607442546e-04,3.714683353900909424e-01
3.404139853212146960e-01,-2.094815710802652720e-02,-4.137237464515386431e-02,7.200745220398468071e-04,3.555204304879816448e-04,1.527837946216535235e-03,3.720070123672485352e-01
3.542669385286059125e-01,-2.774614902641125980e-02,-2.373015878880530005e-02,-1.607476224390851484e-04,-9.443127313669829204e-04,7.149972049698466361e-04,3.800266385078430176e-01
3.562536889005028518e-01,-1.444532623468247623e-03,-2.706275082088852035e-02,-1.842555876991309495e-03,8.448988150798609868e-04,2.739163982056322302e-03,3.712179064750671387e-01
3.404028411619786088e-01,-2.124243744120032917e-02,-4.056878225690205286e-02,-1.444143729907085673e-04,-1.417147303967749086e-03,3.891701686362452565e-04,3.716942667961120605e-01
3.547543984346598900e-01,-3.122677926921915703e-02,-3.138193427300747795e-02,7.299115158566935957e-04,4.996674353941728351e-04,1.415735610177854041e-04,3.860619068145751953e-01
3.545138104003258683e-01,-2.540385056196745039e-02,-2.574989019063300688e-02,8.200935755014222709e-04,2.338042686833982295e-03,-4.272084668741422042e-04,3.801157474517822266e-01
3.541004453854617040e-01,-2.529109410437865857e-02,-2.103296297183257502e-02,-1.576906639202895030e-04,3.205293289736313835e-04,1.088582070146605803e-03,3.772857189178466797e-01
3.538070152416478154e-01,-2.822932359255717061e-02,-2.850065772426213506e-02,7.405700594659741023e-04,1.046107944070931136e-03,-1.764396870147612382e-04,3.821786344051361084e-01
3.520029746947083704e-01,-1.893612444737560740e-02,-2.235618675072667538e-02,1.683927883288032065e-04,-9.164592114850236143e-04,-1.671550764005653826e-03,3.726756274700164795e-01
3.546247145215302154e-01,-3.147325393577993236e-02,-3.010426865186560663e-02,-7.545156756716901291e-04,-8.374356181286592409e-04,-1.267443080126031936e-03,3.854264914989471436e-01
3.536475485286371678e-01,-2.509431053288047053e-02,-2.540360442210368164e-02,3.329555244237719452e-04,-1.874513421011607915e-03,7.594337800356262922e-05,3.789109587669372559e-01
1.996228833505391265e-01,-5.602389934666912596e-03,-1.259635068227502042e-02,-9.142498966949355599e-02,-5.119338577775061488e-02,1.830479650722374035e-02,2.784685492515563965e-01
3.606414909424673354e-01,-2.740003616907862871e-02,-1.374284526797098227e-02,-3.553404979600259007e-03,-5.426444752884329419e-03,-1.037102984550973377e-02,3.819844126701354980e-01
3.565491416980351436e-01,-2.636023874695231362e-02,-1.231316034648433089e-03,-4.216961618803248416e-04,1.725295165936233891e-03,-6.092475483313855057e-03,3.711465597152709961e-01
3.550391255055071471e-01,-3.080488107522164065e-02,-3.261285440908182065e-02,1.724060943419440900e-04,-2.117974933380031583e-04,-3.158026631394948778e-04,3.867518305778503418e-01
3.529368737333556938e-01,-2.387552949782059675e-02,-2.103848569434974003e-02,-1.830954693568111885e-03,2.084737800361242260e-03,-8.995291119578790974e-04,3.754359185695648193e-01
3.543620500730512712e-01,-2.051774900847855299e-02,-1.408315293145351310e-02,-1.874042436827942550e-03,1.618609954812542419e-03,-8.615074301766697477e-04,3.717320263385772705e-01
1.290650561884456593e-01,-1.983860633355290226e-02,-2.035457423370727603e-02,-5.037590466125537597e-02,-5.550323171297689984e-02,3.616410085977758010e-02,2.074317783117294312e-01
3.526853017056625905e-01,-3.295669990978808417e-02,-3.039134321656825066e-02,3.300159116271303016e-04,-3.190721190819320835e-04,-3.552470672764054165e-04,3.843670487403869629e-01
3.538917306298717813e-01,-3.107672095718713723e-02,-3.555628087570936180e-02,7.503239210969819503e-05,-4.412567869447814794e-04,-2.074341706652358969e-03,3.872451186180114746e-01
3.559119415067679149e-01,-3.197575346125958173e-02,-3.259888575149427759e-02,1.012475957941667832e-08,-3.441891291714206376e-04,-1.263338993862424405e-04,3.882001638412475586e-01
3.535301133164955312e-01,-2.851927649441743373e-02,-3.393384710876271027e-02,1.759738346676475128e-03,5.849057589233289502e-04,-6.928734202221393038e-04,3.848005235195159912e-01
3.499805268736365105e-01,-3.355407111686692367e-02,-2.863256860025553685e-02,-4.708808459197553770e-04,-8.746186299613447745e-04,-9.606724147179950598e-04,3.811051845550537109e-01
3.483131610586906457e-01,-3.431926729439643831e-02,-2.865642423418876539e-02,2.460733927648174526e-03,8.468548665247490562e-04,-3.098893619713886244e-03,3.798973262310028076e-01
3.530977110855683110e-01,-3.542028313812409235e-02,-3.105343461676524086e-02,-1.985357407570463828e-05,-4.243033115339790674e-04,-2.025795025583255939e-03,3.863697052001953125e-01
3.554403372833550567e-01,-3.102497602010129141e-02,-3.216029612196763532e-02,5.349788727856272718e-04,7.259776145642602590e-05,-5.903090463930837266e-04,3.870367109775543213e-01
2.061247081157485672e-01,3.481570102426848057e-03,-2.847495372596819951e-04,-1.733436198336730377e-03,-1.901166427270145620e-03,-1.349972391248620372e-03,2.046141922473907471e-01
1.614047285598342041e-01,1.291554776235121632e-02,-3.798847802248710159e-02,-8.076040194692353513e-02,-2.057408506483319674e-02,-3.356941450018370229e-03,2.303678989410400391e-01
3.466195470095397857e-01,-3.305979374572876051e-02,-3.021022632391290319e-02,-4.398238765287526770e-04,1.576929470038874060e-03,-3.933491163478040897e-03,3.783345818519592285e-01
3.492263991511090349e-01,-2.683900814752573916e-02,-3.479413777492221249e-02,3.614805568521046444e-04,-5.162043450717764166e-04,-3.123704275443925414e-04,3.801073729991912842e-01
4.284093286501641229e-01,-7.196145206562504226e-02,8.705892725607206062e-03,2.260435016608960956e-02,8.480517646820021072e-02,3.137138393936468594e-02,4.925197064876556396e-01
3.553700562256299489e-01,-2.389394289339052957e-02,-2.701661664294699450e-02,8.535611855462380102e-05,-6.185002745558295864e-04,4.717433177943306725e-04,3.808373510837554932e-01
3.535441023246196357e-01,-3.296277442428588444e-02,-3.138464904730803307e-02,-2.079278669515776691e-04,3.686739090378673587e-04,-1.120411484872097527e-03,3.857258260250091553e-01
3.551629396501078673e-01,-2.709926325960340665e-02,-2.967889685211910766e-02,1.596840573170264701e-03,9.480306014609789916e-04,-1.631871102577636071e-03,3.835824131965637207e-01
3.540033656300439757e-01,-2.798731740231022447e-02,-2.957424341378975252e-02,4.862116452445177121e-04,1.226602240245323666e-03,1.413998776749221661e-03,3.828012645244598389e-01
3.538617325620311282e-01,-2.032333287162310653e-02,-1.116566126045409613e-02,1.682473188651032028e-05,8.450270005463703885e-04,1.489775778408202953e-03,3.697032034397125244e-01
3.545420262331664962e-01,-3.149107602184089694e-02,-3.146850722192937044e-02,-3.211512949962850379e-04,1.399374254288568550e-04,-8.623895896151648243e-04,3.860251903533935547e-01
3.506115999156675378e-01,-2.693060211774067625e-02,-3.360219324640048577e-02,-7.126082552963919825e-04,1.193999965649294092e-03,-8.533661094231668586e-04,3.809323012828826904e-01
3.462490178591369760e-01,-3.454346589850396110e-02,-2.605498065519978867e-02,4.113037328558635103e-03,4.828954801742554176e-03,-2.649163134539758192e-03,3.768081367015838623e-01
3.500667619904339611e-01,-3.168331523219850010e-02,-3.104225221640533050e-02,1.929312001224367263e-03,-3.468878793166880808e-04,-2.185728223376145769e-03,3.814638555049896240e-01
3.498635020537440576e-01,-3.070814201883062533e-02,-3.195251981557242771e-02,-2.706983132046718223e-04,1.968856440691055427e-03,-2.098959969630030415e-03,3.812282383441925049e-01
3.576817969021691135e-01,-3.401594117151490737e-02,4.291913051393536627e-05,3.393788836911773403e-03,3.252268774085788090e-03,2.183856529185845396e-03,3.759347498416900635e-01
3.513835571716417139e-01,-2.877755957726882419e-02,-3.510608136824880376e-02,3.569797501781993981e-04,6.978621780321304273e-04,-1.430944895476829373e-03,3.833749592304229736e-01
3.417941632908678695e-01,-1.973340611102827880e-02,-4.253540925263848971e-02,2.278482506252252761e-04,-4.510140965944363497e-04,2.145182790752811627e-04,3.734522461891174316e-01
4.610489407219010016e-01,-7.813258413776064115e-02,1.557189054560825792e-02,1.709557648994711881e-02,3.012255115577314787e-03,3.455064051636373007e-03,4.999133348464965820e-01
3.527094728933077850e-01,-3.007722485530089918e-02,-3.550334683541414571e-02,-6.370636028887103047e-04,-1.287201651722596650e-03,-6.567904192510416305e-04,3.855381011962890625e-01
3.549764571247086553e-01,-2.501413559647180929e-02,-2.772471039375581925e-02,-5.876828355755663817e-04,1.841735183380321939e-03,-1.152736781050192312e-03,3.813730180263519287e-01
3.283771976593989894e-01,-1.693758294908329076e-02,-3.818032834069756687e-02,-2.111028081883115342e-04,-1.489053240245889406e-02,6.106963838334126269e-04,3.573449552059173584e-01
3.551930395049675004e-01,-2.453461885065633119e-02,-1.614070184087462723e-02,-1.275676913530592862e-03,-4.886634238374223081e-03,6.533246345270435004e-03,3.758732676506042480e-01
2.127487906434762932e-01,-9.907973711247658466e-03,-1.450635529713452387e-02,-2.074582535579330353e-02,-4.816239707092166006e-02,-5.059467085634130864e-04,2.426351755857467651e-01
3.451956439597798632e-01,-3.563959325683480062e-02,-2.778029611294866030e-02,-6.204831292648681391e-04,1.821866167923352580e-04,-5.774111833200159215e-03,3.771013319492340088e-01
2.676831663063751199e-01,-3.070804054406947592e-03,-2.744574112026385015e-02,-1.119460587780179853e-03,-2.420976283008960048e-02,1.481342806635187811e-04,2.868163585662841797e-01
3.089677139877953782e-01,-2.056804455671221166e-02,-2.869511734146659721e-02,-8.628328104715808286e-03,-1.530878954243522494e-02,-1.838181914925561674e-03,3.350740075111389160e-01
3.536973383117444358e-01,-4.877333330703087499e-03,-2.615062924401229116e-02,-2.005093574312755231e-03,-2.101028072574058318e-03,-2.847621319394619092e-03,3.697378039360046387e-01
3.015756196226608843e-01,-1.280325592108332022e-02,-3.607512633652060208e-02,4.040842203205114412e-03,-9.365245741284609557e-03,1.478919848250149788e-03,3.271246254444122314e-01
2.694295264809248858e-01,-1.030012752919731711e-02,-2.729645784295774147e-02,-2.083470335757921872e-04,-2.325845505680163017e-02,-2.070403182893372929e-03,2.914237380027770996e-01
3.575841134050045111e-01,-3.408835641155508189e-02,2.669900618513937340e-03,1.740477880456318786e-04,-3.416228473356448109e-03,2.831655462900904870e-03,3.747271597385406494e-01
3.533248490660775842e-01,-3.214081494408982387e-02,-2.798179751076410038e-02,-2.862199540237590073e-03,1.027357782895757564e-03,-2.747075621675149591e-03,3.834687769412994385e-01
3.407346375731732380e-01,-1.795826785949847237e-02,-4.074843810274303424e-02,-1.866947370868537093e-04,4.732145256983832753e-03,1.512337102138879702e-03,3.707139194011688232e-01
3.459914215044223029e-01,-2.478159947801047980e-02,-3.850585029260522596e-02,-1.738579527647575885e-03,5.324326601285385950e-03,3.163564146061261829e-03,3.779863715171813965e-01
3.409905754965592561e-01,-2.108871215765825702e-02,-4.187001742350898725e-02,-1.769207231939695331e-04,-6.013093040442203142e-04,1.435008556404949662e-03,3.729143440723419189e-01
3.398117862195650374e-01,-1.977567746811167981e-02,-4.323625599344899095e-02,3.841190494185228082e-04,-8.707083580384166084e-04,7.625200746762253652e-05,3.718768656253814697e-01
3.613298558932138138e-01,-4.267742974775176612e-02,1.483195234758623304e-02,2.047281725189875894e-04,-1.756593252461383699e-03,9.358686360013180900e-04,3.785591423511505127e-01
3.314550619788562691e-01,-1.759463400264862920e-02,-4.039017117520529720e-02,-5.919977325366553890e-04,4.718053163570714963e-03,1.484197529668103031e-03,3.610907793045043945e-01
3.423890246486003264e-01,-2.091107730413543919e-02,-4.159119641883746166e-02,-2.406834627508774925e-04,1.951510648357850097e-03,3.857144471134820352e-04,3.740852475166320801e-01
2.684739294214509853e-01,-1.674224255452851085e-02,-1.405073593678157762e-02,-7.228590888084647720e-04,8.657882661490944043e-03,6.519665770815867741e-03,2.845027446746826172e-01
3.473250549799127840e-01,-3.029518459258320751e-02,-3.247587249219352490e-02,-2.002261809556136942e-03,-5.618622773957248750e-04,-2.679982606449295320e-03,3.787608742713928223e-01
3.518296985395707455e-01,-3.050265693076512075e-02,-2.879741692391263319e-02,-5.568024631038558407e-04,1.974108506267182824e-04,-1.715958682061216383e-03,3.814955353736877441e-01
3.548684673087735830e-01,-3.261457999787822915e-02,-3.143172958169201947e-02,7.553882228532929604e-04,4.964498906521629595e-04,-1.033529357306895054e-03,3.869002759456634521e-01
3.544119114314431274e-01,-2.426761722840217739e-02,-2.385470783816256990e-02,1.943634201347868573e-03,-9.613336906953552728e-04,6.167466293691269575e-04,3.784933984279632568e-01
3.534415451061497793e-01,-2.910444820323684900e-02,-3.356875572388359763e-02,-7.554420272525372987e-04,-1.624635926623840083e-03,-7.926034387834248645e-04,3.848125338554382324e-01
3.538041260136677857e-01,-2.586677558915814745e-02,-2.990266011641959376e-02,2.915279342425320525e-03,-6.174230372696641080e-04,5.142046795812135534e-04,3.817407786846160889e-01
3.475590278161824753e-01,-2.689891573216066090e-02,-3.661507445270703598e-02,-1.451434206763015707e-03,-1.782800355718142191e-03,-1.339429120046301729e-03,3.794373273849487305e-01
3.538241885265097086e-01,-2.394418373237161557e-02,-2.407276483714052007e-02,5.612992827787659190e-04,-1.310143138744209639e-03,-4.443596780488484106e-05,3.778407573699951172e-01
3.535819067309928232e-01,-2.847014027069313946e-02,-2.775804156179109694e-02,1.630287994110609815e-03,6.794395556568405244e-04,-2.411621279026931628e-04,3.817089796066284180e-01
3.172218467271035736e-01,-2.923472953846648070e-02,-1.898956302383120187e-02,-1.239853901055203503e-03,2.470453990508480742e-04,-6.054988853846059692e-03,3.416173458099365234e-01
3.499975057852546256e-01,-2.640923578792458981e-02,-2.471316831691422466e-02,-6.472051614365243941e-04,-8.008444143178331800e-04,1.138337836130580037e-03,3.755709826946258545e-01
3.473214963607758055e-01,-2.807727452023570103e-02,-3.445940103772210383e-02,-1.566067826817183709e-03,-4.036140956903939460e-03,-2.809784564294887359e-03,3.787356913089752197e-01
3.517765070701976415e-01,-3.007974204743213420e-02,-3.532442702481938812e-02,5.714197488833770624e-04,7.198134337410216433e-04,-9.079245846412558208e-04,3.845119178295135498e-01
3.337064352817097346e-01,-3.541411936829738649e-02,-2.058722427892631379e-02,7.472453173388175773e-03,3.771685284818788661e-03,-3.978254915801358871e-03,3.622907400131225586e-01
3.549566804377546902e-01,-2.606941919444624722e-02,-2.467501390758916613e-02,1.831971267519363813e-03,-1.484445773281008922e-03,-6.906460193928695267e-04,3.803546130657196045e-01
3.506893303458353817e-01,-2.780411360605680726e-02,-3.537237334451384663e-02,-1.648143607998139599e-04,2.478803151650183965e-04,-2.140941324298891064e-03,3.823520839214324951e-01
2.992056463599194194e-01,-1.299595668552608330e-02,-3.175199009286819307e-02,-1.306934353795575132e-03,2.323526555939027516e-02,2.528359858299507410e-04,3.245030641555786133e-01
3.416037980297785270e-01,-3.145968936965456986e-02,-3.291079822527548382e-02,3.312770264278168397e-02,2.238204717993841700e-02,5.813343785934360457e-03,3.802846372127532959e-01
3.525745991104768939e-01,-3.181586107038200661e-02,-3.211199245101067912e-02,2.009120580006900671e-03,1.864153200405140303e-03,-1.601246218847392428e-03,3.845779001712799072e-01
2.906387587556635843e-01,-2.724743649660757439e-02,-1.235610872530788773e-02,-1.987215824181726501e-02,1.472611830297255184e-03,-2.308346870725115022e-03,3.126448988914489746e-01
3.431935728960703313e-01,-2.473277161857784234e-02,-3.396140125407098864e-02,1.833057297981505705e-03,1.839512187574221524e-03,-3.580274355389877292e-03,3.727051317691802979e-01
3.436561539976319413e-01,-3.733914533700563587e-02,-2.500958150758306187e-02,-1.544905609478186949e-03,-1.516502489734394398e-03,-1.638696068848964973e-03,3.750120699405670166e-01
3.059970863981442690e-01,-1.766982578928713576e-02,-2.716591653321934197e-02,6.108208765754042594e-04,1.484538166597222653e-04,-7.787950984254341305e-03,3.287965357303619385e-01
2.488086702471612455e-01,-7.855275817339538169e-03,-1.250735079598092048e-02,4.157243597889322179e-06,1.757391332788040689e-03,-2.719966228790839449e-03,2.590820491313934326e-01
3.298830821294547189e-01,-4.093660712223967657e-02,-2.764653894687246760e-02,5.565304788184230467e-02,2.119911771834444292e-02,1.086498443372178359e-03,3.786808550357818604e-01
2.686326599435046592e-01,-1.714871877493621966e-02,-1.248098279356094076e-02,2.450354147758431606e-02,1.547467870588142488e-02,-5.632627469595230182e-03,2.880515158176422119e-01
3.473407519189851689e-01,-2.563805418692979843e-02,-3.837833414869204485e-02,8.625524069488439173e-04,1.321047583360708154e-03,-1.464768461880130252e-03,3.795276880264282227e-01
3.497996310636027339e-01,-3.541584779181944365e-02,-2.887609832944529331e-02,-1.057235480535742068e-04,-2.672248654681716180e-04,1.586383906054835129e-03,3.819977939128875732e-01
3.546907854450994102e-01,-3.299728732143589194e-02,-3.149517147234134895e-02,4.509943073457234417e-04,1.105452667153769227e-04,5.725689792727036960e-04,3.869413137435913086e-01
3.746385593152298243e-01,-2.837204650163699382e-02,-3.779665758962297284e-03,1.206698530544458598e-03,7.847316741171127090e-04,1.270253504372107281e-02,3.919204175472259521e-01
3.527714860346055081e-01,-2.637797463959978828e-02,-3.878832208433796724e-03,-5.833307278486190087e-04,-1.312772030142286698e-03,3.154264757176744420e-03,3.684644103050231934e-01
3.520445669166540337e-01,-3.266182266304720749e-02,-2.978738768843619544e-02,1.096071091478432525e-04,-2.335191154413339670e-04,2.009707346994658655e-04,3.832776844501495361e-01
3.029457605902209916e-01,-3.171929046654176076e-02,-1.698845928222690593e-02,1.887465483310047862e-02,-2.701392423946888822e-03,4.268275331541709211e-03,3.292918205261230469e-01
2.675176368811829075e-01,-2.582813822955261351e-02,-9.638100592926829302e-03,2.127618840137976419e-02,-5.674617494742077890e-03,4.759841551566143351e-03,2.882484793663024902e-01
2.420663477772326266e-01,-2.111408813663866180e-02,-2.686211829891593794e-03,5.107852754297614178e-02,-7.220151038136600821e-03,4.106575730761024071e-03,2.697919607162475586e-01
3.543346079071293953e-01,-2.086038532328576833e-02,-2.470279111242285053e-02,1.938141150468254605e-03,2.270678571231543770e-03,1.397030082230140075e-03,3.771740794181823730e-01
3.595368745023972412e-01,-1.014494485530481604e-03,-3.267887131921942689e-02,-9.642279521731628080e-04,-3.424002138233217182e-03,-1.046469376763103053e-02,3.778664469718933105e-01
5.307450774455162446e-01,-4.720791797090800879e-02,-1.768767379653241045e-02,1.775973409343652859e-02,3.702026800934556799e-02,4.318444269657208817e-02,5.731424093246459961e-01
4.355676914367976327e-01,-1.630072951651562185e-02,-2.975671177318311988e-02,1.882857107056912574e-02,4.324775432327532254e-02,3.935280919619819906e-02,4.709214866161346436e-01
3.580907243793277073e-01,-3.373202956190690660e-02,-1.222497725444232630e-02,-2.316353260590250495e-03,-5.450773668701088329e-03,-1.819511193840530000e-03,3.816750347614288330e-01
2.999419974548727663e-01,-1.382958408317279397e-02,-2.990685449033658738e-02,9.320712371847295671e-04,1.041668057886865374e-03,4.161574364797836385e-03,3.222010135650634766e-01
4.500473500995680887e-01,-6.387899312360745263e-02,1.664705020667395230e-02,2.528732158501811877e-02,-1.349412754353163657e-01,-4.285818461492343912e-02,5.397003889083862305e-01
3.143427811210414147e-01,-3.061093999624608930e-02,-2.298506931023397426e-02,4.051305876613740808e-02,-2.843560764494673654e-02,5.190717576947168933e-03,3.519249260425567627e-01
3.545161086670143846e-01,-3.025247524504384722e-02,-2.984841886568473379e-02,-1.222061462496302521e-03,1.489416840846322933e-04,-4.165925970489044172e-03,3.846403062343597412e-01
3.598126740993093375e-01,1.752451910910876598e-02,-3.916575005101952112e-02,-3.155286424986615112e-03,1.357282198318306241e-03,1.626028628608106876e-04,3.739182353019714355e-01
3.509211190758296239e-01,-3.743365120743541441e-02,3.385064407582530355e-03,-7.895743634070258310e-03,2.039615465610212716e-02,-7.541840751986180098e-03,3.718052208423614502e-01
1.392513383663242232e-01,1.749188586000103435e-02,-1.230059184073779843e-02,-9.476180101201286954e-02,-3.294671214514126312e-02,1.077641867723025913e-02,2.233488708734512329e-01
3.771937778722928569e-01,-4.369130714271313165e-02,9.485555528987721363e-03,6.976459330387405761e-03,9.820660916068065308e-03,-1.678619692775010219e-02,3.985867202281951904e-01
3.714480346725435034e-01,-3.826797513023230679e-02,9.213059611756335698e-03,-9.060451539872843661e-04,-2.173964630877986155e-03,5.579589487150394926e-03,3.883013725280761719e-01
3.513758486877325837e-01,-2.041135527552542794e-02,-1.127993995357662316e-02,1.355191092533441144e-03,-2.947453439524793349e-03,1.008143926143750986e-02,3.677643835544586182e-01
3.403636240476574648e-01,-2.478454990266429347e-02,-3.332068462772869166e-02,2.528996839103568465e-04,-3.195045129447529608e-03,-2.732415202025575279e-03,3.695622086524963379e-01
3.596724968125155075e-01,-4.027070501919555179e-02,2.237794465365736118e-02,1.523618756990089123e-04,3.705441127777541442e-03,1.381000452665405442e-03,3.726533353328704834e-01
3.652143241789083672e-01,-4.224803209506558521e-02,1.343154601423894590e-02,-1.021614117805486185e-03,1.537581610113390902e-03,-4.620885414968207289e-03,3.827698230743408203e-01
3.552275311664493396e-01,-2.673160147963210553e-02,-2.596360302054437352e-02,7.768262344212449946e-04,-3.158476350482776387e-03,6.215772217560042271e-06,3.816173076629638672e-01
2.692531848636656733e-01,-1.777852441358585001e-02,8.379117096826524391e-03,-5.698451404490272043e-02,-7.746814792512184134e-02,2.122316583474208318e-02,3.235123753547668457e-01
3.510317407719819593e-01,-3.256289374645357504e-02,7.675573438282734529e-03,-6.135944777832430357e-03,1.796009682043122474e-02,-1.239991595286379575e-02,3.672473728656768799e-01
3.552413358111682906e-01,-2.993970124181405401e-02,-2.766856690683741626e-02,-8.685635667235547339e-04,-4.450680871355102916e-03,-1.120002302398240062e-03,3.841357231140136719e-01
3.568634595148027500e-01,-3.049704010764914264e-02,-1.160392804797999444e-02,9.823062363344698539e-04,-3.942979309097129070e-03,1.395760647900514068e-03,3.783411681652069092e-01
3.609855707555943427e-01,-3.551824531361744142e-02,2.617527945210057494e-03,1.320193302099823994e-03,-2.191626103753578983e-03,2.368624225815062559e-03,3.789262473583221436e-01
3.641773875144748152e-01,-3.340899184948212253e-02,9.060018043395484666e-03,-1.488616177881259370e-04,2.949820955502422543e-03,-2.957936565152090042e-03,3.782140612602233887e-01
3.568142804839831150e-01,-3.502090325928577941e-02,-1.014327333872466763e-03,6.408733530860999048e-03,-1.459245503747751051e-03,-8.100209640639850772e-03,3.764209449291229248e-01
2.969162869959791062e-01,-1.808657807678355767e-02,-2.597584186929854932e-02,5.629007577150515855e-04,-1.006412154468984757e-02,-6.474194203313484927e-03,3.196947574615478516e-01
3.391327039183443248e-01,-1.868464938996025615e-02,-3.641390713692754799e-02,-9.035353575017817523e-03,-5.257942074373842846e-03,-6.212593024436163791e-03,3.676072061061859131e-01
3.664462994137235308e-01,-2.790757912110730654e-02,-2.782164568829492701e-02,7.560597855525316669e-04,-2.001321477071808450e-02,2.386496378389787489e-04,3.958340287208557129e-01
3.601495685959192894e-01,-2.795205974645642577e-02,-2.770843851106979949e-02,-1.139924546178111044e-03,-8.902143499833215998e-03,6.197342566572351099e-04,3.882926404476165771e-01
3.507677579481032204e-01,-2.689612608128524873e-02,-3.522507895314364035e-02,-1.103547541199980742e-03,-3.045906020525233990e-03,-1.141883242711743936e-03,3.819428384304046631e-01
3.022084795211059660e-01,-2.367824153402259268e-02,-2.625975657981560740e-02,-9.660357262127390598e-03,-1.255484241879210004e-02,-7.848661093346222944e-03,3.286148905754089355e-01
3.505536090671568794e-01,-2.378257738288436229e-02,-3.670619669288743836e-02,5.696022853320817456e-04,-4.989316788509484853e-03,-1.443583492905112578e-03,3.810699284076690674e-01
3.482591151025104526e-01,-2.195126851695072823e-02,-3.669344613961983415e-02,9.415383419251646246e-04,-3.363455627598612406e-03,-6.563335284568985064e-06,3.778457045555114746e-01
3.560303121555240535e-01,9.080083642457256743e-03,-3.569397431817669664e-02,-1.838876128352147626e-03,1.761722449811595377e-03,3.013723537042796354e-03,3.714300096035003662e-01
3.244333551961550710e-01,-2.483795061514698643e-02,-3.489709938983295845e-02,-1.725820996975881063e-03,-8.682189669627466203e-03,-5.106897400243929144e-03,3.548497259616851807e-01
3.432346680557070151e-01,-2.433128387332322839e-02,-3.351300426174011471e-02,-2.711439634175716231e-03,-2.788888245699990519e-03,-7.023775832773082595e-03,3.725014328956604004e-01
3.097769795870085052e-01,-1.732533841633354665e-02,-3.471866793525313355e-02,-6.223332423497771396e-03,-8.032358376441867120e-03,-5.392383339073656030e-03,3.367266356945037842e-01
3.528728465845404894e-01,-3.277256185819127365e-02,-3.227360068600454435e-02,-1.099581754983727745e-03,-1.111604005274683662e-03,-2.664683850551492674e-03,3.854333162307739258e-01
3.541602989490907349e-01,-2.599987365734915401e-02,-2.148642490804392180e-02,-1.384343069351532882e-03,-1.494307549602959771e-03,1.046502000998617357e-03,3.779444694519042969e-01
3.554527127256547625e-01,-2.991766811807050619e-02,-3.094056874407319357e-02,8.368003445093344286e-04,3.931470173579156100e-04,2.825855791860678321e-04,3.858864903450012207e-01
3.597457185487122344e-01,-3.087202994004875634e-02,-3.385755565897727304e-02,8.111249854925752650e-03,2.934145325383389485e-02,-5.621624345405106188e-04,3.956493735313415527e-01
3.562250694043073151e-01,-2.744376592305164397e-02,-2.800851781313401512e-02,5.459754813770059407e-04,2.562736908864433286e-03,-9.955922802113071788e-05,3.839783966541290283e-01
3.522142570281999729e-01,-1.954782011137054520e-02,-2.141146584319467139e-02,-9.314217558669881259e-04,3.480265137027035353e-05,1.217088285672148548e-03,3.727068603038787842e-01
3.430949462501692304e-01,-2.283463744156657982e-02,-3.914457223607306635e-02,-5.059025916361025452e-04,-4.164295318749034207e-05,-8.422387150108460313e-04,3.743549883365631104e-01
3.528084323383915422e-01,-2.246180394662464219e-02,-2.221815421445028083e-02,-1.535249903412845432e-03,-1.575637078304579575e-03,2.262055733997222551e-04,3.751680254936218262e-01
3.230604686528115721e-01,-2.429075295783800215e-02,-2.909586584372150786e-02,-1.028262857593483480e-02,4.732319333149689932e-04,7.743659951950183570e-03,3.504893481731414795e-01
3.549470450117915843e-01,-2.662951393896875740e-02,-2.772839039175967191e-02,2.652493637737811253e-04,8.333308297298687613e-04,6.082346274626131491e-04,3.821316361427307129e-01
3.542376078254133587e-01,-2.074466382806361420e-02,-2.651031268148945630e-02,-1.771454893630205855e-03,-1.223132716950337028e-03,1.055204037867509166e-03,3.779208958148956299e-01
3.349318565672689263e-01,-4.095651898152549708e-02,-2.054304985943000705e-02,-5.398858515380294300e-03,1.138360771998008425e-03,2.033445817106916461e-03,3.662503659725189209e-01
3.473795501413568521e-01,-3.798548754874297995e-02,-2.434835308498772832e-02,7.997779656678874471e-04,1.387499676748385350e-03,-1.539502932073291480e-03,3.787502050399780273e-01
3.564053288727533908e-01,-3.338021023339338145e-02,-8.710774792035747005e-03,-2.879950984453000500e-03,5.777323920017497956e-03,2.310827857881995583e-03,3.782414495944976807e-01
3.461210655124304370e-01,-3.868951362553862960e-02,-2.430148214606356327e-02,-3.696706323810138224e-04,1.129830016895195383e-03,-1.779378883359443832e-03,3.778402805328369141e-01
3.422270109572016494e-01,-3.837933529710199632e-02,-2.430666573471726433e-02,3.498532248380412969e-03,1.958098843848338991e-03,-2.319599192480613793e-03,3.738548457622528076e-01
3.494132972756428535e-01,-2.409174974957545290e-02,-3.650118669456303699e-02,1.573797018213848062e-04,2.204240111469825663e-03,-7.740648881353222105e-04,3.798834681510925293e-01
3.342861308293608724e-01,-3.866138004517261084e-02,-2.105401224709510521e-02,3.475425593570780070e-03,2.305437747074561092e-03,-3.089384905013650099e-03,3.645738065242767334e-01
4.333934396787537668e-01,-6.274410480699224579e-02,1.675395924368164313e-02,-1.682590311351363568e-02,-2.611064643481568470e-02,1.866579882417299802e-02,4.658007025718688965e-01
3.973331038250719205e-01,-2.296394685463776231e-02,-7.366219147681540846e-03,-1.645003989334604261e-02,9.204910590113768790e-03,2.369724671920181436e-02,4.160383343696594238e-01
4.055274279536574822e-01,-2.466525570322350425e-02,-7.750202422193042118e-03,2.438866619115857837e-02,4.480995446749119239e-03,2.709082501476844582e-02,4.267569780349731445e-01
3.544272801779501103e-01,-3.102687264163933589e-02,-3.118254570722617247e-02,-5.866734390077585435e-04,-5.329572084433244769e-04,3.167007401465938486e-05,3.855344653129577637e-01
3.530923087588744846e-01,-2.631640062996110085e-02,-2.812584080499316852e-02,-3.747382768263399569e-04,5.554722423245925939e-03,-2.326601601022777472e-04,3.804391026496887207e-01
3.567212152953879167e-01,-5.041118190072080285e-03,-2.621812830081943213e-02,2.022935630219708787e-04,1.777202282859463578e-03,-3.117722423276126677e-03,3.728542029857635498e-01
3.602813559679016731e-01,-3.221051251914458513e-02,-1.024925560118813972e-02,1.778961417491127083e-03,-8.855549870505638813e-03,9.431316415687831731e-04,3.823087513446807861e-01
4.301125866397537134e-01,-4.291879571712428620e-02,-5.226800779083523585e-03,-9.513629290568122523e-03,-5.573584338704746892e-04,2.754339987384100963e-02,4.581465423107147217e-01
4.135280676890298879e-01,-3.955267632513742582e-02,6.355864191189414258e-03,-6.177606112176129045e-03,8.948440829221538870e-03,3.398322066953561593e-02,4.363585412502288818e-01
3.556227453523802540e-01,-2.640306432957587046e-02,-2.481734388358716736e-02,1.327904683116792710e-03,6.025867589174649028e-03,-5.844416907064004917e-04,3.813865482807159424e-01
3.527168003218696946e-01,-3.309016744196049964e-02,-2.960818152526062397e-02,-3.303381043037665726e-05,-2.897221546652677506e-04,-2.102923039692547133e-04,3.840783238410949707e-01
3.606325317022819887e-01,-3.377804499792338988e-02,-1.160333860497364533e-02,1.288595895656457439e-03,-2.626369144478428279e-03,2.769172698312300103e-04,3.838376998901367188e-01
4.083033657761302448e-01,-5.053002476951909405e-02,1.018185145352387688e-02,5.296943067102963948e-03,-2.734438359054603557e-02,2.518850524192653428e-02,4.365639388561248779e-01
4.230664843262034180e-01,-6.261151319671606763e-02,2.171483246957456315e-02,-1.924901343161692854e-02,-3.402020103907180820e-02,1.965897373289084496e-02,4.558308124542236328e-01
4.401974933678151070e-01,-6.802327264116017624e-02,6.349268120130008297e-03,-7.213708121775706805e-03,-5.239576291777628403e-02,2.764981240262715662e-02,4.865260124206542969e-01
3.533978137608889680e-01,-2.258815974949254790e-02,-2.180320283628597866e-02,1.541800158064158405e-03,1.544627325361490810e-03,4.690342671729014602e-05,3.756131529808044434e-01
4.314136091704788845e-01,-4.265890820105039394e-02,4.026015711283414955e-04,-1.859563373384040194e-02,3.803713608236844153e-04,2.513304662705059117e-02,4.572937786579132080e-01
3.465979679531305258e-01,-2.544859179039365982e-02,-3.045591037375960930e-02,-1.509814039101449240e-03,9.052577321577823417e-04,1.214937118890971638e-03,3.745936453342437744e-01
3.629178936154315860e-01,-4.241456947351007756e-02,1.225687235179868939e-02,-1.413526119092959254e-03,-4.589560813035152564e-03,-1.259985736508057591e-03,3.810475170612335205e-01
4.153240081741852996e-01,-3.253383195660111693e-02,1.521677771892882003e-03,-1.189280945623498453e-02,-1.034900569340529292e-02,3.735686491304687079e-02,4.375118613243103027e-01
4.073042422554115638e-01,-6.384539697460833718e-02,1.916263863967798686e-02,1.152781081452849792e-02,1.121156047514280940e-02,-9.027507142667246659e-03,4.367875456809997559e-01
3.554823390712043008e-01,-2.782396340045997785e-02,-1.840522787575479824e-02,-5.509102033155206107e-04,2.248596589941656131e-03,-2.640019788055799721e-04,3.787063062191009521e-01
3.610903860662048603e-01,-6.896430377012624513e-03,-3.241655590917449925e-02,-8.580617978386387984e-03,1.731468652387814239e-03,-1.682054519955398716e-03,3.817001581192016602e-01
2.502438323980407664e-01,-1.795515521716792295e-03,-1.507004293375321935e-02,2.096244400232583332e-03,-3.295572272461305772e-03,3.701813294226192867e-03,2.590996325016021729e-01
3.749880645357928644e-01,-3.674444758843714576e-02,-9.708706851553616790e-03,-3.935844673900287111e-03,1.265912862629894539e-02,-7.890546302892240821e-03,3.997963368892669678e-01
3.206459869461146250e-01,-1.634811963511155486e-02,-3.655803646796024209e-02,1.651356393370641924e-03,-8.648984086868309606e-03,-9.494545299272885404e-04,3.478784263134002686e-01
4.101218223233221161e-01,-6.128411924996213234e-02,2.046462020185130237e-02,4.158659362803196653e-03,-4.367456252121345965e-03,-2.417816985025392565e-03,4.364587366580963135e-01
3.556588958582965199e-01,-2.324161756443726690e-02,-1.308760943621004036e-02,3.894335711586697189e-03,-4.509183998343298597e-03,-7.298979363191938040e-03,3.742828667163848877e-01
3.626639829785827107e-01,-4.134112280203458556e-02,6.077404715851802974e-03,-2.507998061961010106e-03,5.219535207469144268e-03,1.144696483256678853e-02,3.831514120101928711e-01
3.537502471432261708e-01,-2.495305869619193762e-02,-2.220373255687960179e-02,5.275518083890437656e-04,1.865436512507727494e-03,-4.689365919590230704e-04,3.773519694805145264e-01
3.616901863523991345e-01,-3.343979381646125515e-02,-3.381464323079730327e-03,8.994925187496534760e-04,-7.810064909370596428e-03,-1.966742973330058968e-03,3.812496364116668701e-01
4.119524195860309601e-01,-5.343496099150160661e-02,2.277836984925910024e-02,-1.133745854140470917e-02,2.706330537759646382e-02,-1.622443826826716964e-02,4.362312853336334229e-01
3.433001427737545352e-01,-2.339416234611504941e-02,-3.980494629252565031e-02,-1.459110705055639964e-03,-1.542534240056817225e-03,-1.076377480934876665e-03,3.751916289329528809e-01
2.064220869207845921e-01,-2.758485175153924107e-03,-3.148542918112506861e-03,1.356543782520507405e-02,-4.784394714456489256e-02,7.276002480748825461e-03,2.267515659332275391e-01
3.523930008034795724e-01,-1.366202451691722608e-03,-2.594321867064028342e-02,-5.793821701538731184e-04,2.428314714406998830e-03,3.059248466281885154e-03,3.667297661304473877e-01
2.316282359720553963e-01,-1.466384103533099892e-03,-1.316706950874241278e-03,7.692776322873861455e-03,-3.885154659309028309e-04,2.901579009546646510e-03,2.334555238485336304e-01
2.260561768390061399e-01,-5.761117932850390311e-04,-4.174042205147859841e-03,-1.178889250973172117e-04,-1.606103865620087112e-02,1.647432250890665771e-03,2.301577776670455933e-01
3.533415141272669979e-01,-2.715004567611756237e-02,-3.529942726589702096e-02,2.676192039623860705e-04,-3.041161421906010253e-03,-1.140026008674394466e-03,3.846724331378936768e-01
3.487982923090086063e-01,-2.615535891498077525e-02,-3.656147049220009881e-02,-1.857555685014319457e-03,-4.420650321087302506e-03,-8.284664863202780265e-04,3.803569078445434570e-01
2.331385960207474628e-01,-1.443250340779231311e-03,-2.318622914898899046e-03,-8.248939164092689361e-03,1.426000939826060215e-02,3.421400126775471094e-04,2.367473095655441284e-01
1.781658214490549064e-01,4.633022560584107441e-03,2.254604949656485724e-04,9.298510997320725419e-03,1.257916074392990448e-02,-9.044799031296838019e-04,1.778607964515686035e-01
1.327753265846351172e-01,-3.090027119838775760e-02,-3.803758585468990094e-03,3.460535286109379244e-02,-1.440360350602223807e-03,-2.113208283849269536e-02,1.674138456583023071e-01
2.082056043065246276e-01,1.927004796123163444e-03,3.989753726517095145e-03,-7.560522744822025963e-04,1.705918213120972537e-03,4.646196719840984027e-04,2.052820175886154175e-01
1.990306612613875203e-01,2.894730932873360030e-03,5.861492539480928077e-03,4.780027736745141517e-03,1.093896500362309763e-03,3.637781558434689745e-04,1.948557198047637939e-01
3.519117644621691521e-01,-3.219830781529556263e-02,-2.713587945239934185e-02,-1.691055778047837431e-03,7.172114566684835608e-04,5.746685591607574852e-04,3.816186189651489258e-01
3.543877372162870798e-01,-3.054433293922489967e-02,-2.890973063640001062e-02,5.374913883795477817e-04,-4.775322078168482785e-04,-3.528579589401547537e-04,3.841198682785034180e-01
3.428196366871552603e-01,-1.989571922947569460e-02,-4.230919853428577460e-02,7.346552624542627150e-04,2.653119587527315651e-03,7.748339619774956537e-04,3.744583427906036377e-01
3.253816833485918547e-01,-3.694898253138212407e-02,-1.426810425975422181e-02,-9.295425392979261500e-03,2.630873136327718364e-03,1.576651276509158112e-03,3.519479930400848389e-01
3.459758898176660824e-01,-2.928946996148620863e-02,-3.230039769968259811e-02,-1.407989413636771164e-04,1.524147596455148945e-03,-5.188093357949903617e-03,3.768963217735290527e-01
3.331584419134104857e-01,-2.956495190591540423e-02,-2.660519582816439632e-02,9.422246328773791618e-03,1.059928139742429692e-02,-6.476536728268088815e-03,3.622604906558990479e-01
3.513342600372743041e-01,-2.937203035968519171e-02,-3.558471684162392568e-02,5.013589148504362986e-05,-7.359972349571182704e-07,-1.877873525996285979e-03,3.838641345500946045e-01
3.511333113556620034e-01,-3.033311421637258087e-02,-3.310473635623253919e-02,-1.243638983844364086e-03,-1.378368805812884776e-03,-1.172555139471369821e-03,3.828786611557006836e-01
3.500300822881681762e-01,-2.558222034036986003e-02,-3.968151045675558097e-02,-7.897053211848000041e-05,4.155275963672523665e-03,-2.136797213021052213e-05,3.829243779182434082e-01
4.023383131995652007e-01,-4.509507776645474419e-02,1.979525389132236191e-02,-1.794764485076442463e-03,1.083525547093059510e-02,9.444872657888476325e-03,4.195268452167510986e-01
3.539346369329859909e-01,-2.567306063400984217e-02,-2.789744578556199728e-02,-1.160845535909942267e-03,-1.247826752967680234e-03,-2.178901373245104760e-04,3.807363808155059814e-01
3.532820283567839614e-01,-2.933467917595156127e-02,-3.237317422734922734e-02,4.182914612078942468e-04,-7.177117225279180295e-04,-3.330359071897769931e-04,3.841480910778045654e-01
3.546082491591296404e-01,-2.934765124536597991e-02,-3.325455695957701963e-02,1.376747520781875954e-03,-3.682911944065261163e-04,-8.910410632050300454e-04,3.859351575374603271e-01
3.605800646896775152e-01,-4.246985940190425857e-02,1.693088266488615434e-02,7.137158029080553287e-04,4.589908019847419030e-04,-1.373831208292224885e-03,3.768873214721679688e-01
3.487310715625813184e-01,-3.932827725327206481e-02,-2.064320278451803325e-02,-9.525012836782946121e-03,-2.770722388862951156e-03,-3.858529012306723431e-04,3.794521391391754150e-01
3.292083090896479880e-01,-3.820287833953409096e-02,-1.410202822303355252e-02,-9.712944976162669192e-03,-3.262593783458880067e-03,-3.085623483266216119e-03,3.564553558826446533e-01
3.534896110846230677e-01,-2.625630740682061148e-02,-2.483061380423617903e-02,1.998670450378414384e-03,7.960650176780029522e-03,-1.329218005951880548e-04,3.793016672134399414e-01
3.435529785180603257e-01,-2.008774796378565153e-02,-3.901250022538965689e-02,-1.140048885940682421e-03,3.253553064822888551e-03,3.505519819450375954e-03,3.735599815845489502e-01
3.050267588704441146e-01,-2.568762798634333100e-02,-2.181987358540540822e-02,-1.311391463512551203e-02,-1.578945912129404300e-02,-9.890106882041671543e-03,3.311572670936584473e-01
2.829081167084133708e-01,-2.428354234407821555e-02,-1.268057235435283980e-02,-8.434181092333667418e-03,-1.214308185960886848e-02,-6.581094548566282683e-03,3.028575778007507324e-01
3.595732553976272450e-01,-2.826077416609035220e-02,-2.543933672188899986e-02,-4.594573635806639775e-04,5.714773307714104446e-03,1.431347211204345811e-03,3.865665495395660400e-01
3.596587762334447769e-01,-7.659645363607747726e-03,-3.292880954329965859e-02,6.429550916154921913e-03,6.802126125384756966e-04,-6.391314390191754277e-04,3.807490170001983643e-01
3.589517129704282716e-01,-3.956855567378536609e-02,1.687776277090435872e-02,1.434229353462740169e-03,4.146972601834918344e-04,-1.282739473193760188e-03,3.735253810882568359e-01
3.046758693764485271e-01,-2.454575300484165834e-02,-2.681183474509998832e-02,-3.125927405403811088e-02,-9.440251437314534175e-04,-1.551746022591922155e-03,3.347825706005096436e-01
3.455188999214975909e-01,-2.490010182110374837e-02,-3.870493888195761234e-02,8.505201345547696516e-05,3.036084360560920297e-04,-1.731470273847478475e-03,3.775230944156646729e-01
3.039321807321158642e-01,-3.680619373000476591e-02,-1.242798572828013315e-02,-1.189059659858492275e-02,-1.056558658357345396e-03,-2.215458330569357922e-03,3.298978209495544434e-01
3.003334050684592915e-01,-3.288059575239279941e-02,-1.271384038002448813e-02,-2.733816074072629304e-02,2.095956534767935611e-03,-4.348565317706600160e-03,3.271550834178924561e-01
3.972654042663851248e-01,6.836925494893342226e-03,-4.769513738396838343e-02,1.176947776649692710e-03,-2.005155980299763458e-03,1.018443142277792625e-02,4.207450449466705322e-01
3.433600759405827652e-01,-2.166242151040131958e-02,-3.933432427287827937e-02,6.792027057092531401e-04,8.772036325228364188e-04,2.239827446791150959e-04,3.741767108440399170e-01
3.536785539690315838e-01,-2.250926975849107392e-02,-2.437859914769549552e-02,1.728289597738039227e-03,-6.206172718926243658e-04,1.595017077150169776e-04,3.771394789218902588e-01
3.695006926396147695e-01,2.149280052656954432e-02,-4.314319209491537799e-02,-2.073663355851960641e-03,2.181022077508537691e-03,8.842637318173399499e-03,3.847634196281433105e-01
3.577438955885625105e-01,-3.452815300954120703e-02,-1.962586102871033411e-04,1.434705592658224241e-03,3.407591354582278215e-03,-2.077433124140953217e-03,3.763543069362640381e-01
4.092982187811720074e-01,2.408928129849430277e-02,-8.267260840383278131e-02,-6.223548224688364716e-02,-1.268371633791073134e-04,9.621480367840230460e-03,4.613102972507476807e-01
3.716616469031081560e-01,4.749647361169034854e-03,-4.007062293029622912e-02,8.967901705881455628e-04,7.002989971374157371e-04,6.754842786485942829e-03,3.914321660995483398e-01
3.574009469085069890e-01,-2.007836221715955660e-02,-6.286348545198605642e-03,-1.436347223935514374e-03,-8.663010813567202824e-04,-3.072802240225038992e-03,3.708253204822540283e-01
3.600126286255722063e-01,1.523321154770641839e-02,-3.961734148791987153e-02,2.657401805959040599e-03,5.731366116329802887e-04,8.204511783037994957e-04,3.752558529376983643e-01
3.554751648286935128e-01,-3.160954943588531463e-02,-2.540687365861449276e-02,-1.356979969364079368e-03,-6.606213848109296002e-03,-1.535752992796765842e-03,3.842077851295471191e-01
3.538055184679794185e-01,-2.747671700569201403e-02,-2.760509198762844951e-02,6.494140015891767745e-04,4.082681988320805084e-04,8.565346528001194929e-07,3.813487589359283447e-01
3.657520944454278888e-01,-1.945569098602967228e-03,-3.626054573126119562e-02,-1.644739042088246700e-02,-1.360095021807903324e-03,8.541272109075787392e-03,3.873403966426849365e-01
3.656885788719747565e-01,5.887041765288592021e-03,-3.447153991737858525e-02,-3.722975703248638905e-03,5.518465485692997281e-04,1.390379648422785264e-03,3.816481828689575195e-01
3.574262289503689627e-01,-1.297438685722296370e-04,-3.703506222618907495e-02,2.809087226549520939e-03,2.355149164713312392e-03,5.656909452825916416e-03,3.775451183319091797e-01
3.643545177465933871e-01,9.890243891430242074e-03,-4.476734191050191214e-02,3.788298146797006681e-03,1.128875934259013138e-03,1.781572473383854181e-03,3.847894668579101562e-01
3.075619787735400235e-01,-3.919360716197223260e-03,-1.709014308552145311e-02,-5.576208789158447476e-02,6.275834149816120200e-02,-2.963740715153944522e-02,3.536604940891265869e-01
3.420128849289914008e-01,-2.147809585786733533e-02,-4.244552334517226466e-02,-5.659313431743292176e-04,-1.754925012764429765e-03,-1.004144756592583940e-03,3.744329214096069336e-01
3.248417055393008623e-01,-1.537400737145369622e-02,-3.805621941655104590e-02,2.972787110351246542e-04,3.288989215497657996e-04,3.070132234882227105e-03,3.521461784839630127e-01
3.435968260520983475e-01,-2.099662042317373967e-02,-4.254936737469494634e-02,5.489689691713499917e-04,-4.507376202416441685e-04,2.146045443419522850e-04,3.758358061313629150e-01
3.732597758446168368e-01,1.025385880071347233e-02,-4.481492725099781027e-02,1.120453862597455040e-03,6.225300203485306178e-06,2.101095895992203481e-03,3.934630453586578369e-01
4.005845891829571959e-01,-3.998810530321417200e-02,-1.003702133691941611e-03,2.312205182785988938e-02,-2.475820524708464282e-02,-2.606941473947773508e-02,4.288709163665771484e-01
4.122518625289033900e-01,-9.804225354072798604e-03,-3.375073078608431532e-02,3.519245417356929584e-02,-5.692395583663936720e-02,-3.854283617180858518e-02,4.546479284763336182e-01
3.675157667217341939e-01,2.677700206440786213e-03,-3.921990534246680427e-02,-3.835443689852942144e-03,-2.844771091089641534e-05,5.707516858213810933e-03,3.876724541187286377e-01
3.474701964198526616e-01,-2.512533628780644346e-02,-3.940914915730897583e-02,-1.665347681566417635e-03,-4.355278918044213320e-03,1.076648207129890207e-03,3.800292611122131348e-01
3.529339720331556851e-01,-1.239872846178871613e-02,-2.269362447504430502e-02,4.458434314158181292e-04,-6.382524273015212747e-04,-8.574891775910495209e-04,3.705928325653076172e-01
3.558986414706313273e-01,-2.761002828233632966e-03,-1.827936930427179196e-02,1.826531322030355235e-03,-2.463494748143993905e-03,-1.527029291793922765e-02,3.676562607288360596e-01
3.432272420268080437e-01,-4.127692618212344677e-02,-2.089354108578581060e-02,1.582298661788647165e-07,-1.435245383949473917e-03,-9.659039898768645568e-04,3.747404813766479492e-01
4.121471238335338017e-01,-2.508824026246952998e-02,4.313879073045395751e-03,-5.572945454377402179e-03,1.313815145351391808e-02,-3.702775830558690390e-02,4.288446903228759766e-01
4.128817179434573492e-01,-3.232166623657634075e-02,-9.038292432292455159e-03,2.338779549309663326e-03,1.344126970258612344e-03,-2.706069663767543196e-02,4.365787506103515625e-01
3.488504364399596658e-01,-2.712734778782832645e-02,-3.548663038630930910e-02,9.299838573042242505e-04,6.535226447604930650e-04,9.345516682004883667e-04,3.802348971366882324e-01
3.550449482343596141e-01,-3.022310495623006799e-02,-2.765621502129220199e-02,-2.924185825139014451e-04,9.141884453446611283e-04,1.438972459676740199e-03,3.840027153491973877e-01
4.086489973038194834e-01,-3.942003389360906884e-02,1.566387876089869735e-03,2.642390335690331105e-02,-3.239600089111745185e-02,-3.011283517622093814e-02,4.382288455963134766e-01
3.406024731838446784e-01,-1.923311660211066143e-02,-4.131464266427312126e-02,5.247502734651158292e-04,7.882091521333266628e-04,-2.085047844099170472e-04,3.713728487491607666e-01
3.748506954495711141e-01,-2.974485193665929450e-02,-1.204827456168400257e-02,-3.939884604976839726e-03,2.938415467954017760e-03,-1.323375994437685915e-02,3.967979848384857178e-01
3.156367176964843257e-01,-3.110228260933289857e-02,-1.874886375089396262e-02,-1.611996274508185195e-02,6.834251404542055625e-03,5.964305640163652597e-03,3.422331511974334717e-01
3.528448171548633217e-01,-1.625780132389584298e-02,-1.665439973702562138e-02,1.134852916362767781e-03,-2.074077945456272859e-03,-1.738215144632040705e-03,3.693360388278961182e-01
3.419665456469846987e-01,-2.517661727070311106e-02,-3.300211038967187926e-02,-1.734119201522186637e-03,3.496049818753036061e-03,4.046841118885996340e-03,3.712455332279205322e-01
3.540794355174202712e-01,-1.143869029401456405e-02,-1.967086830544964582e-02,3.381944546363165223e-03,-2.330246148177988336e-03,-3.702221169523342743e-03,3.698270022869110107e-01
3.531989870058137582e-01,-2.326228699343721451e-02,-2.604967695280188678e-02,1.920066471364827165e-03,-1.190103916158726004e-03,-1.497742421072270624e-03,3.778918385505676270e-01
3.537088009510256925e-01,-2.737127180369194890e-02,-3.380405503361785802e-02,6.999641789593990257e-04,2.157025697611891345e-03,1.004584661016807035e-03,3.843608498573303223e-01
4.124935142414839495e-01,-4.233384248233365565e-02,2.024547263024062405e-03,2.120002507429239250e-02,1.576899433199357645e-02,-1.116043557950743143e-02,4.371820688247680664e-01
3.537055108940042603e-01,-2.722947739911360521e-02,-1.576587796306491707e-02,2.445403971376371340e-03,-4.044393475133035640e-03,-1.467595672137432224e-03,3.754323720932006836e-01
3.549925687411841779e-01,-3.106699190061915083e-02,-2.303989743475676200e-04,1.828641654011242505e-03,2.705757961763937628e-03,-1.151662526187544836e-03,3.716504871845245361e-01
3.499956924475954856e-01,-2.572162065169511513e-02,-2.810102140093553857e-02,-1.478196558731400753e-04,-1.304367365172220006e-03,-4.001017641402793016e-04,3.769201338291168213e-01
3.392216578214423683e-01,-2.550391610644042739e-02,-3.338101869103576869e-02,-5.619330637869846207e-04,3.829808666964176246e-03,2.705633842619626674e-03,3.688179552555084229e-01
4.162125009760867522e-01,-6.292146484776653392e-02,2.744620264773811602e-02,-1.025551068901204817e-03,-6.547406275630852923e-02,-5.410436594922138701e-03,4.553998112678527832e-01
3.675241009252299129e-01,-3.462819865858754453e-02,1.504954006757282248e-02,-1.913308484356792804e-03,5.757989141903942405e-03,-1.621694874841245193e-02,3.809406161308288574e-01
3.580599527748987154e-01,1.155694835806481136e-02,-3.522899425996678380e-02,2.010795487716389093e-03,1.582409982981844475e-03,-3.327869460821059489e-03,3.721795082092285156e-01
7.502923860152591051e-02,1.506845155391749180e-02,1.527759777757753748e-02,-1.943574444132364909e-02,-2.313677185831026356e-02,3.357528579079249210e-03,7.972323149442672729e-02
1.601263243911327239e-01,-1.034885510608488102e-02,1.087589989038100641e-02,-3.025339074407373124e-02,-8.205832683742231293e-02,2.407571248883997022e-03,2.210381925106048584e-01
3.550466950408250333e-01,-2.587345718043260190e-02,-2.780488015529472556e-02,1.605507319900638472e-03,-7.460291279041219789e-03,-3.572440505845475610e-04,3.821187019348144531e-01
1.996397484883593587e-01,-1.239817175402030403e-03,-1.449973794649728198e-02,-7.924247147374111760e-03,-7.245415972377554359e-02,1.064722645754574010e-02,2.438634037971496582e-01
1.753916247631257808e-01,2.360107294610822026e-03,-2.406045590679833923e-03,-7.562786049362430971e-03,-2.614315016143079276e-02,-3.201799654513771271e-03,1.817692220211029053e-01
7.588212290366140589e-02,1.367354817627546709e-02,-2.025005355465148843e-02,-2.495690608317892994e-02,1.761928153858403293e-03,-1.264558186228280237e-03,9.494055062532424927e-02
2.372408091578743772e-01,-1.265052293638752046e-02,-1.210833301431568643e-03,-1.180631275210034577e-03,-6.573566489125064107e-04,-4.229134982272805474e-03,2.444933503866195679e-01
1.767814505129335356e-01,5.436822752101541645e-03,-4.431918613492513703e-03,-4.317405714818587856e-03,-2.703336120336536849e-02,-2.366007065840457484e-03,1.827907264232635498e-01
3.599109232652211721e-01,-8.334353548534373379e-03,-3.433047387487420110e-02,3.307292143315312613e-03,9.100990452307678499e-04,-9.082449058015439058e-04,3.819569349288940430e-01
3.124857070260623759e-01,-2.686924986322106190e-02,-4.282476012776581520e-02,2.559509437141671562e-02,-5.185187387686774479e-02,6.088892420870566091e-03,3.619023859500885010e-01
1.800446637038091713e-01,4.160670956665168951e-03,2.157509948297178792e-03,-5.870800120991449302e-03,-1.292555701789822355e-02,-9.382238144409888988e-04,1.786022484302520752e-01
1.804244662383594211e-01,-7.748527446938824337e-04,4.161283449878358520e-03,-7.454337070963936232e-03,-1.223482235047946079e-02,-1.950626595597366357e-03,1.805278956890106201e-01
3.713363181249948464e-01,-4.448789779011955159e-02,1.418607983582537146e-02,-1.373714971113124649e-03,2.560524546189442852e-03,-3.692178365248035329e-03,3.898981809616088867e-01
1.488353699477169001e-01,-5.813733917860580691e-04,7.674532802653982744e-03,-5.552379893930506349e-02,-1.175703144467393508e-03,-3.735204747399695300e-03,1.745125502347946167e-01
1.918856797796177072e-01,-6.645163154860592170e-03,4.098631655402515395e-03,4.775074451979103435e-02,-9.077263940191060768e-03,1.680192509533813636e-03,2.109336704015731812e-01
3.434357322290504944e-01,-2.097423377763768526e-02,-4.135166250104244101e-02,2.264239985379752976e-04,-7.730031580336331346e-04,8.688076291140439320e-04,3.750197589397430420e-01
1.292082945902596203e-01,-5.570391533358422242e-02,-3.151954418890918347e-02,3.465622469494189853e-03,-3.139737455327262089e-02,-2.251604308409384768e-03,1.825213730335235596e-01
2.127828472188971198e-01,1.979209628209313565e-03,3.391122249154152057e-03,1.292979370268259286e-03,2.692986268290920374e-03,1.361321887640888064e-03,2.101781666278839111e-01
2.048492164825382045e-01,4.997302056327923570e-04,-5.288637415781755058e-03,6.261169721134230044e-03,-1.951549175334565608e-02,-5.580165650932229120e-04,2.103239744901657104e-01
3.710812680876806047e-01,-4.668486479000727440e-02,1.088544328279902884e-02,-6.929994112838497745e-04,9.232420157881976886e-04,-2.402069602131215714e-03,3.921903371810913086e-01
3.611416083528418697e-01,-3.293767697088748059e-02,5.307216164930655955e-03,-3.370330188714635439e-03,4.245885605683801314e-03,6.432394007669167083e-04,3.765355646610260010e-01
3.898473739484377143e-01,-5.522900963726762313e-02,1.548473803029945528e-02,-8.597036425979073804e-03,-7.546050091569486695e-03,4.814634086258490729e-03,4.148282706737518311e-01
4.033111402412692392e-01,-5.077438373125511828e-02,3.567644914675316414e-03,5.314329876687062370e-04,-1.656712391202486059e-03,1.309319866272313712e-02,4.301094710826873779e-01
3.484247245274719740e-01,-2.520597393881540693e-02,-3.943951158370298526e-02,-5.116595821518305680e-04,-5.001357883756193771e-03,-7.256701133474505487e-04,3.810485303401947021e-01
1.892124414496040574e-01,-1.492366637441785993e-02,-1.615441642713960624e-03,2.404006688906825187e-02,-6.341050242969481499e-02,-8.008257655066431183e-03,2.304795384407043457e-01
3.037884713994241648e-01,-5.672183906770081330e-02,1.850970293500954489e-02,-4.222836227571988808e-03,-1.089821248822206712e-01,-1.441466499402990504e-03,3.797324895858764648e-01
5.055661524375423266e-01,2.054415510629556407e-02,-7.117468914267227609e-02,8.970685029942945810e-02,-2.874321631676120953e-02,-2.925038303502049131e-02,5.633218884468078613e-01
3.540792752138563482e-01,-3.081705257713426849e-02,-3.210951002856426983e-02,-1.845014022666465077e-04,6.652344397678982115e-05,2.868608724619834110e-04,3.855446577072143555e-01
3.444307577125746422e-01,-4.177326729322383692e-02,-1.998144829520609456e-02,3.198885482062858651e-03,6.915545203074613271e-04,5.146995188837789068e-04,3.758261203765869141e-01
3.864036424848559248e-01,-3.940302565207798313e-02,-6.218798000297093287e-03,-7.729706222381439035e-03,-1.698244446278759576e-02,8.475260511014782658e-03,4.117552638053894043e-01
3.492744188308321007e-01,-2.681164081858219972e-02,-3.901261663835456361e-02,9.128088698903611114e-04,3.308786803152429412e-04,2.653620940138847611e-03,3.823639154434204102e-01
3.684512846680402243e-01,-4.266578427620273950e-02,7.325045256886181244e-03,3.833822393910506937e-04,-2.331653428780340164e-03,1.247318609039543271e-03,3.885687291622161865e-01
3.662973404588347193e-01,-4.342479435927723563e-02,3.930669276923454136e-03,2.208788056542071963e-03,4.207826374249082693e-03,-1.203072122605033240e-03,3.883095085620880127e-01
3.810048887263664530e-01,-4.302622947464354586e-02,1.099296223833076680e-02,-5.026370207387094100e-03,-1.604863466390703958e-02,1.164660924712115778e-03,4.008331000804901123e-01
3.550560169691107104e-01,-3.180789725552105041e-02,-3.285080769667950151e-02,2.197159598075340082e-04,-5.105003650570839489e-04,1.204489546395665685e-03,3.873932361602783203e-01
3.542244972416516702e-01,-3.180912880728642422e-02,-3.287656148344902940e-02,3.913959162542965040e-04,2.604248583749236022e-05,1.111684401082669617e-03,3.865738511085510254e-01
3.472150463383479324e-01,-2.339975758166498720e-02,-3.993315641290612339e-02,9.680145441576420203e-04,2.838529396405975111e-03,1.335130571544759781e-03,3.791945874691009521e-01
3.491515988234750179e-01,-2.845550052186374135e-02,-3.364316688650062503e-02,-6.412076569860444266e-04,-4.375741172536514720e-05,6.574947654211732787e-04,3.802308142185211182e-01
3.500988905601531420e-01,-2.834635234132037995e-02,-3.520024433068033587e-02,2.607357855384770428e-04,3.822042862120832645e-05,1.501792530147490201e-03,3.819274604320526123e-01
3.558544385404876498e-01,-1.990547565154149323e-02,-1.490904772173842763e-02,5.504123904946691022e-03,2.336590027938367266e-03,9.351181416802370472e-03,3.737815022468566895e-01
3.525033736132955342e-01,-8.415995844904489154e-03,-1.949038697915719820e-02,-3.156902782635201171e-04,-1.057028087875417884e-03,4.265595731493696842e-03,3.666614592075347900e-01
2.971384390701263811e-01,-3.046101328878422776e-02,-8.958975286212242373e-03,-1.448796358695024229e-03,-1.983431058525076188e-03,1.882361332422907707e-03,3.174404203891754150e-01
3.542958976740222532e-01,-2.630711545549366259e-02,-2.478122400538185222e-02,1.038789283241037644e-03,6.377211854352371652e-03,1.245256831043814417e-03,3.800133168697357178e-01
3.513544779816564767e-01,-1.652005058260180848e-02,-1.834675503630434079e-02,-6.077896636823935115e-04,8.383856644930574517e-04,2.478515618656656865e-03,3.688206076622009277e-01
3.452792891290148991e-01,-2.676546374738553169e-02,-3.116871718949879022e-02,-2.850833520803024070e-03,-9.382373993690905009e-04,2.423051581851832191e-03,3.743254244327545166e-01
3.533578643513221040e-01,-2.446265076799838956e-02,-1.818399876087045675e-02,2.910220784924267981e-04,4.370620088966029613e-04,1.660357287145820685e-03,3.747327923774719238e-01
3.603818038920327815e-01,-1.202799452426356330e-02,-3.092531750683355507e-02,-4.380412423533310180e-03,-7.327733341742713024e-04,1.950772974944949348e-03,3.823013305664062500e-01
3.717529115714829913e-01,-4.370311559819220482e-02,1.990020997150281079e-02,-1.897679714101945751e-03,5.499545426750259043e-03,-4.770716839909577720e-05,3.877193033695220947e-01
3.383884454427072419e-01,-2.061665619288799434e-02,-2.607190567272413273e-02,-1.295383271117116035e-02,3.174691021804165129e-03,-3.515826553215709895e-03,3.625515401363372803e-01
3.547014829882645381e-01,-2.181586834056523094e-02,-2.672793275785159683e-02,-1.771800384731857453e-04,-6.526435547427695757e-05,-1.195575458369283004e-03,3.790030479431152344e-01
3.521827667908006276e-01,-1.753607148423413920e-02,-1.904885313623153054e-02,1.931040595577789964e-03,2.724318582990874638e-04,-8.006931918936186160e-04,3.704955279827117920e-01
3.053078608776944036e-01,-3.610543045626016245e-02,-1.667028707443517221e-02,1.195439788022412478e-02,-8.317826159443770856e-04,5.989812990775756968e-04,3.327720165252685547e-01
3.598367478126961450e-01,-3.457522681056149350e-02,-2.589206964528356636e-04,4.731490180507129080e-04,3.177090389257683847e-03,-1.889641925725240451e-03,3.784776329994201660e-01
3.313012073280121039e-01,-3.826055313736750896e-02,-1.889895785597645039e-02,3.252256885882683318e-04,8.079528539974092666e-04,-3.303346577112105473e-03,3.603199720382690430e-01
3.365738704056711050e-01,-4.139882316387707983e-02,-1.897549395834227659e-02,5.122003967837507159e-03,1.461086850814683575e-03,-1.980105933699522446e-03,3.674066364765167236e-01
3.334992962044788789e-01,-4.115399802239014249e-02,-1.766898248424572659e-02,6.048809048184212306e-03,3.965754393780165313e-04,8.144547581950435785e-04,3.636346161365509033e-01
4.208935994912855749e-01,-3.171537597780785256e-02,7.307838731786669983e-03,-2.360509903722925878e-02,1.509976235564231342e-02,2.425790781372242841e-02,4.391314089298248291e-01
3.559725887766032049e-01,-3.519436640982165354e-02,8.564127429422668802e-03,-3.501604254744334309e-03,-1.322684189958435019e-03,-3.767812751008212807e-03,3.713409900665283203e-01
3.418081059961643464e-01,-4.191060979059482716e-02,-2.177254199779707355e-02,4.292946114645017179e-03,-9.426893259465581824e-04,-4.629353907647862907e-04,3.741347789764404297e-01
3.523914627762091967e-01,-3.014778657862202116e-02,-2.672802890037026535e-02,-7.590868082266101664e-04,-7.569077237831768612e-04,6.324015531026579585e-04,3.808469772338867188e-01
3.406949368219542862e-01,-3.957769575075775759e-02,-2.097144649599011479e-02,4.919054719086689894e-04,4.178179128472512540e-04,-7.371033506512281262e-04,3.713231682777404785e-01
3.416468624922848196e-01,-4.061557397562998162e-02,-2.180998725168201147e-02,3.853196607587524973e-05,-1.076225256136888273e-03,-2.392743495783263691e-04,3.732200562953948975e-01
3.405326340449161826e-01,-4.149235989453300966e-02,-1.912944320186701908e-02,4.204331060915534289e-03,6.779701060258408463e-04,-1.959944998027711178e-03,3.714376688003540039e-01
3.411532473581413427e-01,-4.051915672792055778e-02,-2.117735524385205848e-02,7.487916863574788345e-04,-2.357195239575371449e-04,8.359340661206380002e-05,3.723809421062469482e-01
3.050270432283330724e-01,-1.797597444908732855e-02,-3.010309174832534462e-02,-4.281843573046405921e-03,-6.469034683940336899e-03,-7.290613804218200322e-03,3.297500908374786377e-01
2.527555157280996223e-01,-2.422085728068319732e-02,-6.850888657567402729e-03,-4.285011794170193872e-02,-9.890122536425526717e-03,-6.209227835192430295e-03,2.795068323612213135e-01
2.376868123368174879e-01,-9.947886302929073721e-03,-1.085719993010342277e-02,-1.491322245815821998e-02,-1.630167075813311953e-02,-6.714630341710718826e-03,2.512939572334289551e-01
3.420767218698200218e-01,-2.362130121397679194e-02,-2.517511701302221905e-02,-4.327960095750961467e-03,-3.918166421714352511e-03,1.489246102023256005e-03,3.666259646415710449e-01
3.127671396170662033e-01,-2.770041187636354540e-02,-2.160654093586880653e-02,-1.948157443834006713e-02,-1.885729663120695038e-02,-5.513627422303000840e-03,3.408476412296295166e-01
3.499790244295881703e-01,-3.097107486271657995e-02,-3.010992389626196419e-02,1.089378678868668316e-03,-8.939005316581797103e-04,2.450945380387082456e-03,3.805517554283142090e-01
3.574878139959998258e-01,-2.723699857695835447e-02,-1.392817831323744926e-02,-5.686531107406210105e-04,-2.729060549700772480e-03,-1.481717312066783022e-03,3.782855570316314697e-01
3.338777314707732091e-01,-2.738515879689010224e-02,-3.523630028787391733e-02,-4.112045597944660735e-02,-5.424656778841535631e-02,8.292214412039941238e-04,3.838120102882385254e-01
3.485731304449048995e-01,-2.596498219264067875e-02,-2.883341560018756744e-02,-4.301891512939754868e-04,1.152838200556843915e-03,6.269067896911906853e-04,3.759881556034088135e-01
3.531105610035615294e-01,-2.821503368309014048e-02,-3.368188242781863795e-02,1.428956276864017279e-03,2.360653361444943845e-04,2.486512665519068424e-03,3.841205239295959473e-01
3.793636625447929789e-01,-2.375532283177031467e-02,-3.822296259813662278e-02,-2.414964205127368216e-02,-1.251016136590994005e-02,7.863721552246592805e-03,4.134622812271118164e-01
3.475112383631862589e-01,-2.353265408763199895e-02,-4.033589542231919012e-02,1.319862259825788260e-03,-8.478485426485508816e-04,1.029000968799227440e-03,3.797383606433868408e-01
3.585029557956929125e-01,-1.233941555865075701e-02,-2.163384266978737869e-02,-7.508021861940899436e-04,-1.367771668952200105e-03,-8.517236604948182771e-03,3.758751749992370605e-01
3.586695604741439447e-01,-2.040944253007773157e-02,-1.497042126431616382e-02,1.340247382413317515e-03,-1.785017734500213542e-03,-6.347511404286397020e-03,3.765693604946136475e-01
3.507236523417816554e-01,-2.597965556655401631e-02,-3.696164861992734529e-02,5.449141514741024338e-04,-1.916224374934928382e-03,6.734723532071234262e-04,3.823299705982208252e-01
2.680959921241385935e-01,-2.953622920058396328e-02,-1.002334481444108749e-02,4.411463451388693974e-02,-1.708302883055083307e-02,3.888314952858267469e-03,2.998619377613067627e-01
3.552481028536714214e-01,-3.150504857458244490e-02,-3.364884384208896573e-02,-5.563333565881653552e-04,-7.735872120163005171e-04,1.813703725334480255e-03,3.878457248210906982e-01
3.532265222475671207e-01,-2.688854433227436114e-02,-3.291707938595661576e-02,1.054807425849735086e-03,-1.680195797596023295e-03,9.597199799648873861e-04,3.831839263439178467e-01
3.505787248404005352e-01,-4.939736524714299915e-03,-1.822473338933286446e-02,8.022561001875824305e-05,-4.231720255668667456e-04,-5.101802995145864918e-03,3.624521493911743164e-01
3.415310020608507968e-01,-4.164922087352895819e-02,-2.068310318712202056e-02,2.598925125765530128e-03,-1.436608569136469098e-03,3.672156920551246872e-04,3.731751739978790283e-01
3.516535828071948866e-01,-1.537853834679717147e-02,-1.656746879487280832e-02,5.420296464666639975e-05,-3.533962662527779250e-04,-3.606160652555826830e-03,3.676815927028656006e-01
3.537473760045081739e-01,-2.834985791386920861e-02,-3.310829011979754544e-02,-1.480100370869089435e-04,1.732212748165966581e-03,1.444511623810959154e-03,3.845184743404388428e-01
3.445798211398909405e-01,-3.892824517610601887e-02,-2.415027155017215876e-02,-2.324020633472320598e-03,1.655549339363283326e-04,3.193717215278056663e-03,3.763990402221679688e-01
3.545877156633768790e-01,-3.044478509615453077e-02,-3.132076299652136742e-02,-1.014099546265740835e-03,2.646986258125117895e-04,1.200381454079130347e-03,3.854811191558837891e-01
3.522008738688080509e-01,-3.212250570535962746e-02,-2.947466164925613419e-02,-7.854804638897952508e-04,-1.753573638148616439e-03,1.018053988754780842e-03,3.830248415470123291e-01
3.515440010161940410e-01,-1.126284093213472670e-02,-1.975501809138699438e-02,-5.557406407869427013e-04,-5.268221725674716296e-04,-9.901486778020060844e-03,3.675293326377868652e-01
3.739890834228900562e-01,-3.149905216253609530e-02,-2.677537416168707107e-02,-2.522111977850940295e-02,3.883568014598318824e-02,-6.039802515087362017e-03,4.111811518669128418e-01
3.388420172514740036e-01,-4.273045208943887507e-02,-1.944367824518619670e-02,-5.718508243586144062e-04,1.751315535511434885e-05,-2.531388374421532491e-04,3.704799711704254150e-01
3.745396333068418682e-01,2.974923119071465338e-03,-2.582858087434086736e-02,-7.228631372331525973e-03,-8.230979225356148052e-03,2.049182938307294102e-02,3.888599872589111328e-01
3.981798287180321472e-01,4.269818475894529564e-02,-7.092910726425166734e-02,-4.943639742761334055e-02,-1.449370785210377793e-02,-6.203348533920181526e-03,4.332993030548095703e-01
3.546242258095186894e-01,-3.401990811341198961e-02,-2.948911342657239976e-02,-1.827762075177739604e-04,7.329130131824248455e-04,8.620206785041166237e-04,3.864037692546844482e-01
4.228916843113105228e-01,1.472054063097152921e-02,-5.702757442517128461e-02,4.787463727595781850e-03,-4.284444857963978608e-03,6.152076899126270211e-03,4.486361145973205566e-01
3.957696814875381608e-01,1.933681666972469904e-03,-4.608693981636208248e-02,-8.162197463450210008e-03,-5.298569255028467463e-03,2.518912565820514288e-02,4.225074946880340576e-01
3.547229761095960221e-01,-2.717914707572219313e-02,-2.673403113705608014e-02,8.051657811692775318e-04,4.367370838182026149e-03,6.211636574119329315e-04,3.817587792873382568e-01
3.545073559390061746e-01,-2.730797175431326496e-02,-3.053394112009322203e-02,8.143478725530441283e-04,4.104006414570432991e-04,6.439543401598375207e-05,3.834417462348937988e-01
4.362196061088724486e-01,1.859095699781543320e-02,-7.000259893791238586e-02,2.868140372221185657e-03,-1.996522595904496114e-02,2.078904263796402946e-02,4.709339439868927002e-01
4.001774136213236965e-01,5.827093448151660082e-03,-4.986707610759080755e-02,9.733023868170761345e-03,1.094956196286124518e-03,2.129476219473336318e-02,4.268784523010253906e-01
4.156787668262321156e-01,1.279080105176838567e-02,-5.193315171278878317e-02,1.658235229716270229e-02,7.371205664065830568e-03,1.929307513992765261e-02,4.412357509136199951e-01
3.544208686319197943e-01,-2.714758211926490694e-02,-1.468549646762398742e-02,5.700744493608224817e-04,2.117632539054380494e-03,-1.397414414894999034e-03,3.755195438861846924e-01
3.538645139419768770e-01,-2.219713981922089019e-02,-2.556722483971093918e-02,1.726810656213661165e-03,4.097185358568882635e-04,-7.342116292046631113e-04,3.777726292610168457e-01
4.191949218145198941e-01,1.192736594697849095e-02,-5.179848559932764829e-02,8.779662233980772834e-03,1.034230508671921296e-02,7.278811293948864863e-03,4.433874189853668213e-01
3.522958229093524629e-01,-1.644297014329493267e-02,-1.609890520843226813e-02,-2.271226642222558875e-03,1.212227572921906063e-03,-1.580306234791857035e-03,3.686040043830871582e-01
3.525870188627036050e-01,-2.054443058886942786e-02,-1.435135350131622189e-02,-1.130784479511881503e-03,1.785428157512427508e-03,-9.454515544450232435e-04,3.700954914093017578e-01
3.515202216333286334e-01,-1.608132575339818460e-02,-1.859248931586379716e-02,8.734709703780915713e-04,-1.794374243282857349e-04,-1.389303932233839104e-03,3.688746094703674316e-01
3.514005602891997482e-01,-1.301827214688100476e-02,-1.081004884839739666e-02,6.942184468751981139e-04,-1.238065556981808981e-03,-8.077679441902008844e-03,3.635973632335662842e-01
3.503528473618894301e-01,-1.516238222027610494e-02,-1.509130738296809993e-02,4.099375657560457736e-04,-1.883874555680280824e-04,-4.367740643292422967e-03,3.655588328838348389e-01
3.520149127703934844e-01,-2.236939740018395462e-02,-1.888415139920709973e-02,-9.673259105466294142e-04,1.525620480343533442e-04,-1.501263135042655086e-03,3.726668357849121094e-01
3.531493894835162628e-01,-6.325711115528154238e-03,-2.019589168948093816e-02,-1.391540973168417083e-03,1.461560264718739360e-05,-4.221615028820016428e-03,3.666878640651702881e-01
3.530918161775724040e-01,-1.453145457296944887e-02,-2.037911875399212036e-02,1.610450421798890770e-03,-1.127458933244384785e-03,-1.017078697532869391e-03,3.706015348434448242e-01
3.537305085992887843e-01,-2.656114020870911641e-02,-4.362015439056676769e-03,-8.297862001137546687e-04,1.352556799160801538e-03,-3.204617591469222006e-03,3.697441816329956055e-01
3.562472806297003469e-01,-2.364682868736067700e-02,-1.641712540668754938e-02,1.640818063576096044e-03,1.293809444161498148e-04,-4.685227317577373395e-03,3.764296174049377441e-01
3.344189777926278584e-01,-3.977621446413820427e-02,-2.012141596814293054e-02,5.883258758801353933e-03,-2.800244338228345090e-04,1.848771602638543590e-03,3.649218380451202393e-01
3.513546768120397457e-01,-1.270090497892498171e-02,-1.667978938972042302e-02,-3.956812170766608951e-04,-3.774572172064625478e-04,-2.127823310323403300e-03,3.660810291767120361e-01
3.438095070921775576e-01,-2.514252887649054413e-02,-3.839824162279650843e-02,1.907445059091672761e-03,-3.199945038204535502e-03,3.279478723138501937e-03,3.758536279201507568e-01
3.477214466680367266e-01,-2.499690599567702676e-02,-3.856233289990995683e-02,4.833403621794232292e-05,-2.650865269354037851e-03,3.259881516254624183e-03,3.797526061534881592e-01
3.505913815003713352e-01,-1.794577887272227890e-02,-1.442244107523901753e-02,-5.852361933680641200e-04,-1.145644047780935808e-04,-7.340779148716549676e-04,3.667918443679809570e-01
3.521120182758091244e-01,-2.047024219573526094e-02,-1.628748981299449339e-02,-9.312121911184449100e-04,-4.079529826626469998e-04,-8.428209128394510393e-04,3.705156445503234863e-01
3.409751947743818179e-01,-2.930005557300391361e-02,-2.837390645275231216e-02,1.152347744009415888e-03,-3.960368993256782079e-03,4.082769942951963889e-03,3.699496388435363770e-01
3.545834534383752179e-01,-2.705674215267805938e-02,-3.045682190625464969e-02,1.380796344296840493e-03,-5.376619212143430226e-04,3.960965010018509236e-04,3.833607435226440430e-01
3.425665269187908590e-01,-2.753042498568061824e-02,-3.218139827133162378e-02,1.225979877771253557e-03,-3.183304363770031106e-03,2.239055645644484269e-03,3.725112676620483398e-01
3.532883757052879270e-01,-2.200036531298907305e-02,-2.229095227723626449e-02,-1.438628651722986080e-03,1.235607939743630897e-03,4.890212540361702929e-06,3.754484951496124268e-01
3.384639078413230751e-01,-4.166208142197566633e-02,-1.801002707014795479e-02,-4.960321880080980055e-04,3.415791918957184761e-05,1.200859650293685521e-03,3.688759803771972656e-01
3.545976267273168725e-01,-2.677435554066251444e-02,-2.575507268781251913e-02,-4.552905470439119187e-04,-2.272971020398750330e-03,3.895325797659020587e-04,3.808851242065429688e-01
3.534285947229659497e-01,-2.879657552082165450e-02,-3.532495987335165788e-02,-1.882360498015595606e-06,-8.590557550711534502e-04,2.805953812528507937e-03,3.855643272399902344e-01
3.514488716422319858e-01,-2.837956916800432605e-02,-3.517259440626757661e-02,5.588447236406638482e-04,-7.517887838741721482e-04,1.228924367624200124e-03,3.832794427871704102e-01
1.155013862179964795e-01,1.454854075544695369e-02,-1.136979914720975121e-02,-8.605954933517563632e-02,1.369320428812277959e-02,-4.699149612044224017e-03,1.905971169471740723e-01
2.977828719345587682e-01,-3.426298860139920244e-02,-1.877691213592362629e-02,-2.939910064045198057e-02,-1.603708504186043089e-03,-2.346183122174883440e-03,3.285868763923645020e-01
2.595661659230690255e-01,-2.338517704320852708e-02,-1.694948883480486279e-02,-4.885059525531178226e-02,-2.449937579868948639e-02,-3.984228421762705738e-03,2.954476475715637207e-01
3.314916047500009455e-01,-3.648399149035186362e-02,-2.204397988454373514e-02,-9.171503494280164662e-03,-1.803172586412491070e-03,-1.662186735311684763e-03,3.613466024398803711e-01
3.503386992114349008e-01,-2.722580632731680383e-02,-3.281126706968140461e-02,-8.358543126138356667e-04,-1.576685507194531578e-03,9.739949177507756023e-04,3.804042935371398926e-01
2.940088840649310864e-01,-3.789020840870571671e-02,-1.336818084364012338e-02,-5.283922735412407284e-02,-6.899944057098031901e-04,3.559830411140722101e-03,3.332189917564392090e-01
3.554987545155827711e-01,-1.824776176211515000e-02,-2.276646355276853995e-02,3.427926656159631380e-03,-1.987428295250087684e-03,-5.877973797820517862e-03,3.762266337871551514e-01
3.403784968367006281e-01,-4.164209095625864832e-02,-2.028838538787042234e-02,-5.853077384885540255e-04,-8.508817884757350616e-05,1.306533882075335429e-03,3.718122243881225586e-01
3.285306661632313996e-01,-2.808923412356686966e-02,-2.082031909482609522e-02,-3.338275060292014013e-02,1.994257031681894669e-03,7.697753957145789597e-03,3.580101430416107178e-01
3.788262240372848311e-01,-3.760166005117401844e-02,1.003146723970113618e-02,-4.329648849802335449e-03,-6.040798427674681260e-03,1.416089688747365107e-02,3.957431614398956299e-01
3.548606645843718765e-01,-3.157563309031286014e-02,-3.188577334431363930e-02,-4.672391259844504551e-04,5.587412035725340155e-04,6.711413163489194896e-04,3.865952789783477783e-01
3.552647923036579281e-01,-3.102262263199306869e-02,-3.174134024879751714e-02,-1.001624391076889843e-03,-1.026523104189013778e-04,-1.778386955180758725e-04,3.866513371467590332e-01
3.509773600121277592e-01,-2.940168089024555731e-02,-3.325907570746458597e-02,-7.874724883728404304e-04,7.432628334213164023e-04,7.993797745536481260e-04,3.823294341564178467e-01
3.152735119600904579e-01,-2.786650324702072412e-02,-1.662954049427087244e-02,-1.098697765163859572e-02,6.607396013535547438e-03,8.425494438806772554e-03,3.387057185173034668e-01
3.545866176712545448e-01,-2.731694133723513995e-02,-2.602240902694419322e-02,-3.631041900910557418e-04,5.069427827796727480e-03,3.842970875548557642e-05,3.813595473766326904e-01
3.436611644541277544e-01,-3.284392971091437685e-02,-2.693583317677178401e-02,1.267895868013395701e-04,-1.484066750603730677e-04,3.576588266412515649e-03,3.736375868320465088e-01
3.514188423098151826e-01,-3.617719644087055708e-02,-2.587832576362175674e-02,-1.997267830352829083e-03,3.964590961550624212e-04,1.407352744282973312e-03,3.825746178627014160e-01
3.510666930531002872e-01,-3.156118448978989521e-02,-2.963089184454506531e-02,-9.479883243732195597e-04,-6.928831013086677671e-04,3.224444516199588637e-03,3.817126750946044922e-01
3.550620883511985681e-01,-3.326109292323473077e-02,-3.307370300121018070e-02,2.519912717548112744e-04,-2.396766153284604671e-04,1.085662795177301434e-03,3.882345557212829590e-01
3.541330283251387656e-01,-3.116012427542555474e-02,-3.312016872323594874e-02,2.806128078988929972e-05,-2.128338566082696687e-04,1.138991765212306502e-03,3.862821161746978760e-01
3.505277714623385998e-01,-2.986337606166586389e-02,-3.006159500510491300e-02,6.592650113823103749e-04,-2.517802600815162786e-04,8.735546313482380311e-04,3.804952800273895264e-01
3.553625550413468948e-01,-3.184758682552113473e-02,-3.133511121801615951e-02,-5.365542578914851441e-05,4.487065722765842986e-04,3.059640282586508853e-04,3.869553208351135254e-01
3.444161466760443102e-01,-3.195489445261759376e-02,-2.841354558946668218e-02,-2.169275698045768346e-03,-4.147903264984406473e-04,3.257093825970094371e-03,3.746749162673950195e-01
3.787316356931061390e-01,-2.696722527535994063e-02,-3.541677574222323877e-02,-3.305430276829492836e-02,2.718479523536772996e-02,-1.753027177591820127e-02,4.177411496639251709e-01
6.002949845963656550e-02,-7.004224496518153542e-02,1.205756102699486083e-02,-7.247307426938459120e-04,-4.358168330401991294e-03,9.179569026946898108e-03,1.152888610959053040e-01
3.538542417286675845e-01,-3.315112447973980747e-02,-2.865946518212642014e-02,-2.751641881555503058e-03,9.788831349539820707e-04,3.749107723698862776e-03,3.848672211170196533e-01
3.441995494398883415e-01,-3.563697279957661612e-02,-2.823543887454851853e-02,-6.007819963348655151e-04,2.110282325138388435e-04,5.776112176099031971e-03,3.763249814510345459e-01
3.549680696806523095e-01,-2.958920303236592386e-02,-3.177975924503961824e-02,8.104307192384943418e-05,7.931632153128547261e-04,8.156712837542830002e-04,3.856622874736785889e-01
2.329764910282547397e-01,-2.382783145407767200e-02,-1.403097494414351498e-02,6.363047512341442336e-02,-3.895570426452851440e-03,-6.207268044754175353e-04,2.751758694648742676e-01
3.544568180155270865e-01,-3.227295105380686979e-02,-2.731892610994673953e-02,-1.851675335838561876e-04,8.341791202128641825e-04,1.497262820487479246e-03,3.842883110046386719e-01
3.540068026889198749e-01,-2.795989674824347904e-02,-2.954858315789055112e-02,-1.637043314040241646e-03,2.342189742776095026e-04,-3.806510979719594442e-03,3.828310072422027588e-01
3.546325866223337675e-01,-2.770548077928980391e-02,-2.604399845385788059e-02,2.426227886661095874e-04,1.036815966132862256e-03,9.049609065637649846e-05,3.815145194530487061e-01
3.525985965687148393e-01,-3.207637612936559135e-02,-3.095668272541990396e-02,-5.910376353977021043e-04,4.801205019286167294e-04,-1.090202863737523177e-04,3.841186463832855225e-01
3.468647396376792202e-01,-3.029364055298661151e-02,-3.285748870133228805e-02,-1.335177058450988082e-03,1.381862944274317841e-04,-4.049207014717218743e-03,3.785189390182495117e-01
3.097614619078407072e-01,-6.321638416240171754e-02,1.917553379967679161e-02,-4.165318129048452972e-02,8.126616656670133942e-02,-3.505438595710587413e-02,3.793079257011413574e-01
3.590820944480473953e-01,-3.857493729383218439e-02,1.480497245282737240e-02,-2.731271009233104149e-04,-2.294318034003585345e-05,-5.239800894011237622e-03,3.739468157291412354e-01
3.645940849774063075e-01,-3.418345060295105431e-02,-1.130328790691970120e-03,-1.275298694307269026e-03,1.953712954333503091e-03,-2.269364563812213340e-03,3.833627104759216309e-01
3.551219110617148678e-01,-2.356771747515512549e-02,-8.900150972511983172e-03,1.519373152881507661e-03,-2.661059797287910079e-03,-2.293081764537290880e-03,3.716321587562561035e-01
3.530826038367205211e-01,-3.181945292288437810e-02,-3.251230221582593338e-02,-5.271557992329603754e-04,-9.245044945449664309e-04,-1.363252028548932659e-03,3.852605819702148438e-01
3.546801409937842542e-01,-3.231368459182140662e-02,-3.015828700398126561e-02,4.396775681646502816e-04,-1.053578394275081877e-03,-2.565173254016131065e-03,3.859512805938720703e-01
3.509377744555059464e-01,-2.079563225269576154e-02,-1.196847730628403106e-02,-4.426073998058359252e-04,6.015923199881114975e-04,-1.634029859185103656e-03,3.674125373363494873e-01
3.521455091251521341e-01,-3.112161498052834485e-02,-3.279118408674533414e-02,1.123466992843819034e-04,-3.191707841240706551e-04,-2.026217565329082888e-03,3.841211199760437012e-01
3.537830627950055429e-01,-1.930912038405888098e-02,-1.210053100786501190e-02,2.066281564949000882e-03,-2.540104430795137144e-04,-2.033100365786146089e-03,3.695749938488006592e-01
3.016180204514048446e-01,-2.049726474199596582e-02,-2.574010546073426942e-02,-1.153630284520459903e-02,-4.061575442422338950e-02,-4.281916024674345769e-04,3.329012989997863770e-01
3.567135006290101940e-01,-6.936782195710006205e-03,-1.251654142642283363e-02,-1.637874149213897415e-03,5.874961731173771644e-04,-1.716596299496882597e-02,3.676885068416595459e-01
3.544529503510525648e-01,-2.165465945457833996e-02,-2.401677469132640352e-02,1.923662132372692696e-03,-1.688604268005752373e-03,-7.485349211046178446e-04,3.773224949836730957e-01
3.531200752737662651e-01,-1.071034247616464707e-02,-2.560530518481146656e-02,-2.882325400033789006e-04,-6.769625030477077927e-04,-6.258959114151027743e-03,3.716622292995452881e-01
3.502654796707365126e-01,-1.926489884582324730e-02,-1.044050495768156228e-02,-1.030931107290346000e-03,5.198429381129664466e-05,-2.106091168211954388e-03,3.652207553386688232e-01
3.199194641948250872e-01,-3.052836594680313764e-02,-6.049263880840885510e-03,-9.602452969924384768e-03,-3.218053279356970775e-02,5.002660511091274256e-03,3.439370989799499512e-01
3.583879835521567858e-01,-2.972322156915213620e-02,-1.564579600234536350e-02,-1.088584856089548506e-03,4.745500380967841193e-03,1.122308541636035233e-04,3.813607692718505859e-01
3.545807502134711298e-01,-2.406448536638583491e-02,-1.624083362177267120e-02,-1.586595541822645016e-03,-9.842299826119315850e-04,6.731894375698943621e-05,3.748086392879486084e-01
3.542358188838878319e-01,-2.882962311031964098e-02,-3.205952023876701418e-02,-1.329439816898726257e-04,4.337928205768574498e-04,-3.559204140462280427e-04,3.846918642520904541e-01
3.586242882728220005e-01,-3.391231926381976791e-02,-1.557247670650011018e-02,9.761267430813428889e-04,4.202692950799051530e-03,8.474515033555879385e-04,3.837711215019226074e-01
3.512658060874655486e-01,-3.438808475312413182e-02,-2.049276867975430294e-02,6.369384094368127532e-03,-1.606964512605243631e-02,3.645286803319603731e-03,3.801308870315551758e-01
3.700899739019997137e-01,-1.399353107488260362e-02,-8.368409677907251432e-03,-6.301374170506387215e-04,-7.543250053678255893e-03,-3.249931378101030000e-02,3.856575787067413330e-01
1.456518854781884420e-01,-4.844934737379054390e-02,6.010839533169609616e-03,-1.220467708529346211e-02,-4.132813223266156022e-02,-2.758457277079496422e-02,1.947409659624099731e-01
3.304838420134584287e-01,-1.811158241938370939e-02,-3.498138343700882280e-02,3.844542740007584995e-03,-7.685675225512262829e-03,5.314015839538963580e-03,3.577574193477630615e-01
3.554654824743473940e-01,-3.250805907041637299e-02,-3.289188319934621685e-02,-4.947546788518267756e-04,5.125888482244058807e-04,2.977253131525230503e-04,3.881678879261016846e-01
3.517378228041626587e-01,-3.369423434194981914e-02,-2.971151107178660045e-02,6.305259105835327822e-04,-8.327350058823060645e-04,7.634019135011127846e-04,3.834627568721771240e-01
3.544094967051688028e-01,-2.819814176634780067e-02,-2.520047340974648775e-02,-1.868567355532876374e-03,-4.606745520461766764e-04,3.755681821240646964e-04,3.811327815055847168e-01
3.549882810143942802e-01,-3.376744535199499575e-02,-3.064185693863774596e-02,1.129199094364120035e-03,5.364227987217244425e-04,6.433975537199581023e-04,3.872100412845611572e-01
3.541481787510370460e-01,-2.803244255475517699e-02,-2.975943008980405646e-02,7.357748515954821945e-04,-3.379486207605244424e-04,1.107090788880173669e-03,3.830544054508209229e-01
3.552117913589498133e-01,-3.186054842835428502e-02,-3.049126491766401825e-02,-1.657466577379641457e-04,-7.102437650681826852e-04,-7.489430557383560576e-04,3.863937556743621826e-01
3.556394614280759536e-01,-2.800482057586387019e-02,-3.186138893100942671e-02,9.849170960916329987e-04,3.780684694463595655e-04,1.569807110237150024e-03,3.856009542942047119e-01
3.328257036536096392e-01,-3.974401351972120522e-02,-1.786518377507181898e-02,5.666237320582154756e-03,-5.940139546315488116e-05,1.403941208116557754e-03,3.622674942016601562e-01
3.559098376702743982e-01,-3.182198104489092350e-02,-3.199699501672592650e-02,5.659917712135598741e-04,-2.268733513112956183e-08,-1.721291862350924295e-04,3.878207206726074219e-01
3.549020225411682605e-01,-3.184554989317661677e-02,-3.041798404331400030e-02,-5.902690204105508903e-04,-1.902794599089709722e-04,2.518927955075050094e-03,3.860619068145751953e-01
3.776226883889589048e-01,-4.240727745101283142e-02,-3.328953470972284556e-03,-1.408359463959156163e-02,-1.817171515634058432e-02,2.720908912123251588e-02,4.066262543201446533e-01
3.563809570834838847e-01,-3.756821478385127810e-02,5.380218624337157474e-03,8.492514062738901041e-05,-5.566901341588529999e-03,6.608687619006400199e-03,3.746265172958374023e-01
3.671199616594839621e-01,-3.553258669637837652e-02,-9.731787623894511130e-03,9.179894732710788818e-03,1.862096380092066045e-03,4.243901495671680360e-03,3.907982110977172852e-01
3.628916097259963780e-01,-3.429607366936854307e-02,-4.079168302441871230e-04,-2.586826299456388258e-04,-1.180795319517811796e-02,5.853514213499672568e-03,3.820573091506958008e-01
3.619340775684046774e-01,-4.259447577210576097e-02,5.670850634787782951e-03,3.692194677911902166e-03,2.213905666933327528e-03,9.677938916785533635e-04,3.827618062496185303e-01
3.623141703992449614e-01,-3.236873383379734737e-02,-1.537264005805077938e-02,2.069711531419478421e-03,1.916049916290569859e-03,8.086912246260427551e-04,3.864986598491668701e-01
3.548526550529270129e-01,-2.591613393786867947e-02,-2.681777309602689785e-02,3.384461810056670246e-03,8.635210161540575989e-04,1.609300817035491649e-04,3.812685012817382812e-01
3.517370361914616828e-01,-3.031630956700218094e-02,-3.374939825488296186e-02,-1.012740763288928194e-03,7.257899158111082768e-04,9.839303876600280409e-04,3.837912678718566895e-01
3.499405435740934323e-01,-1.541609925994222308e-02,-1.120811944379698777e-02,6.929928027034896370e-04,-5.043192043394790743e-04,3.917322248234492849e-03,3.633373081684112549e-01
3.525240174741545718e-01,-1.847243433201192775e-02,-2.084356008619706047e-02,-9.716858514177187899e-04,5.242197572782039336e-04,2.444338660853919440e-04,3.721928298473358154e-01
3.521045007137896254e-01,-1.184582838199968458e-02,-1.387202121632896690e-02,-1.191007732975261652e-03,-1.700435918107119984e-03,9.499980539087736139e-03,3.653560578823089600e-01
3.548431344759940265e-01,-2.376971674460043316e-02,-2.182014626377176691e-02,1.320409590779378795e-03,2.042224582772833499e-03,8.191843454947916122e-05,3.776653707027435303e-01
3.550268014461567256e-01,-2.791743444483832381e-02,-3.322936056276362682e-02,-2.990535737861076278e-04,-5.089059674286615202e-03,2.827688648723375442e-03,3.857598006725311279e-01
3.541476288418087259e-01,-2.250945324665687419e-02,-1.847984040662961625e-02,-3.271151950692791988e-05,9.462252585367839693e-04,2.703009918690338353e-03,3.746913671493530273e-01
3.503228259418340040e-01,-1.536510162986087780e-02,-1.479546744555881865e-02,1.283937572439226632e-03,6.501385928394910144e-04,2.556683082603358314e-03,3.654387891292572021e-01
3.557493390026567615e-01,-3.233465180000552608e-02,-3.106755567131908036e-02,-1.761132564267576075e-04,-6.897885719615041902e-04,6.949837854246376919e-04,3.874558210372924805e-01
3.422658517446965920e-01,-2.416533468345904989e-02,-3.780665276936909236e-02,-1.589251008338932918e-03,-2.304128702623708252e-03,-2.197376352736677991e-03,3.734896183013916016e-01
3.508295940937801172e-01,-3.495860448128731979e-02,-2.688903227368022453e-02,1.995602297158256301e-03,7.072550469802306363e-04,1.072137639207048753e-03,3.818394839763641357e-01
1.461286460264317189e-01,-3.021302576372564275e-04,4.793407408151727223e-03,9.992848326954300794e-03,-3.530216600250962733e-02,-1.004605879399881642e-02,1.583125442266464233e-01
3.282377826284227917e-01,-1.190628658041348320e-02,-3.840510886387216161e-02,-5.575619897907963668e-03,-1.093372231251201442e-02,-2.975643993444394061e-04,3.547756373882293701e-01
3.549672577522282046e-01,-3.236496288743587191e-02,-3.238075240880691763e-02,-6.851937625879031546e-04,3.672459089216191064e-05,6.383726111080568512e-04,3.873435258865356445e-01
1.714120927769315350e-01,4.598438936745212480e-03,-1.132606416996015386e-03,4.270388552393690647e-03,-1.845052576551770018e-02,1.778218599797034985e-03,1.729193925857543945e-01
3.704323417207665559e-01,-3.694257788671093112e-02,-2.749539300402967235e-02,-3.028314176676401639e-03,-1.922170790244569910e-02,1.483031210705081310e-04,4.041423499584197998e-01
3.441857756708965321e-01,-2.339472863194164143e-02,-3.034535959341899680e-02,7.410517792376180657e-04,-3.797003767458641201e-04,7.858748003138849242e-04,3.711099326610565186e-01
3.399667780879113699e-01,-2.114232381788555548e-02,-4.010524990791705657e-02,8.328323977719219928e-04,-3.507672779721338584e-03,1.964723545180949681e-03,3.710224032402038574e-01
3.524139684275446327e-01,-1.824355521188372742e-02,-1.990741164966500221e-02,1.071981524423218021e-03,6.161953988653669960e-04,-5.102010529394230848e-04,3.714994788169860840e-01
3.425330811562951050e-01,-2.210365391479235386e-02,-4.054601831073950668e-02,-8.445119222877466546e-04,-1.281045079841766198e-03,-6.258960414400164835e-04,3.742099404335021973e-01
3.537117774391403957e-01,-2.577813029874850836e-02,-2.228317133105114922e-02,4.979210486072950742e-04,-9.912388752745166821e-04,1.690564689902964053e-03,3.777707815170288086e-01
3.545574527908776363e-01,-2.561637963801832729e-02,-2.773085572781455732e-02,4.652349461443186247e-04,1.691710793845702197e-03,7.574619980476559851e-04,3.812498450279235840e-01
3.470181121696438442e-01,-2.546661503956529349e-02,-3.162658339522220197e-02,4.870403792358935554e-04,-7.519828249854348902e-04,1.731860820245006679e-04,3.756059110164642334e-01
3.358180074300661233e-01,-2.053032857142969569e-02,-4.057117838370613572e-02,4.072982216055244173e-03,-6.775652597567792187e-03,2.150819941377357138e-03,3.670540452003479004e-01
3.458422101347018440e-01,-2.302340003470793039e-02,-3.963927394825417228e-02,1.571114148450639559e-03,-8.285517434501449415e-04,9.548183940803473121e-04,3.774641156196594238e-01
3.529077189236503043e-01,-1.634318237342752278e-02,-1.634007209431290186e-02,-1.125751590177661221e-03,-9.554758419649035141e-04,3.361948520249878787e-03,3.693041205406188965e-01
3.503315625960972124e-01,-1.896860782491968656e-02,-4.148109039554009891e-03,7.544300441042893924e-04,3.083663482904800291e-04,4.835127932244551348e-03,3.622170388698577881e-01
3.550943150680376803e-01,-2.762792157595786446e-02,-3.064815741096532653e-02,9.014384989199663873e-04,-3.117683869529276814e-04,1.714301254279260948e-03,3.842562735080718994e-01
3.470797655550023619e-01,-2.666122331355463837e-02,-3.632080416383140498e-02,-9.941601331459582434e-04,3.389507387822575098e-04,1.151667503712532070e-03,3.786728084087371826e-01
3.528923564695222725e-01,-1.695407973519283407e-02,-1.551548057405308101e-02,2.195520276239512018e-03,1.164435456444077319e-03,3.820501978442287280e-03,3.692136406898498535e-01
3.531802798653345676e-01,-2.834660854432002886e-02,-3.154198210181780038e-02,-9.888710851874516015e-04,3.190062966041420922e-03,-2.432090654210156133e-03,3.832013905048370361e-01
3.387344929712614028e-01,-2.891556981104059787e-02,-3.188834429006900950e-02,1.887377727978839514e-03,3.676022652334062779e-03,-5.046462807087630058e-03,3.693182468414306641e-01
2.883725442501807734e-01,-2.390726902238073104e-02,-2.221584868223108744e-02,9.274158970894123138e-03,-1.149855520742446360e-02,7.000644385757361261e-03,3.127219974994659424e-01
3.370501843240930606e-01,-3.201366038079037080e-02,-2.768266504824093421e-02,3.631325479039024078e-03,-2.434116625436368877e-04,-5.835632791370229215e-03,3.671108484268188477e-01
3.544756471599355141e-01,-2.270630421918723441e-02,-1.324016843302594504e-02,3.438898655815697883e-03,-5.220230080314041191e-03,-7.466339282662960534e-03,3.729206919670104980e-01
3.384422917573062795e-01,-3.558881617850970236e-02,-2.467551035575604734e-02,5.578555691912357069e-03,1.260426300376857756e-03,-5.311133772680250512e-03,3.689433634281158447e-01
3.462503922879006657e-01,-3.500041774410359019e-02,-2.706679408289847100e-02,1.129247059418063892e-03,-1.580877434743079761e-04,-3.294468467916524586e-03,3.773948550224304199e-01
3.532862019714972379e-01,-3.359257125771830665e-02,-2.853304694440012002e-02,3.628922443479205536e-04,1.443874713198321520e-03,-8.072533517480513310e-04,3.843851685523986816e-01
3.526264242941914984e-01,-2.768695989056860207e-02,-2.734501427000529672e-02,-3.834799668942909701e-04,-7.479888865147893071e-04,-1.687273761525348191e-04,3.801454305648803711e-01
3.555053689859535293e-01,-3.198099465604903324e-02,-3.330293121437657988e-02,3.713651839116971433e-04,-5.604221770120984287e-04,5.969466746080694932e-04,3.881521522998809814e-01
3.394733299938705873e-01,-3.995992947315749055e-02,-2.651521607226212107e-02,1.841235312498940013e-02,5.899266572505873496e-02,2.151043275463274639e-03,3.879694640636444092e-01
2.899033409355391000e-01,-1.531463709993147182e-02,-2.778883328605827319e-02,-4.182365561821760509e-03,1.707928561328863129e-02,6.333850049433988397e-03,3.133191764354705811e-01
2.677449693323839530e-01,-2.005593557960207163e-02,-1.145203831098186298e-02,3.120607966371034825e-02,4.591756096989920571e-02,-3.751443040090063786e-03,2.995265126228332520e-01
3.355675459801826244e-01,-2.775524559239686551e-02,-2.567398321319963594e-02,9.301169117407734332e-03,5.787431931918861523e-03,8.036121290839127378e-05,3.627831935882568359e-01
3.647089909959522758e-01,-3.210219760995958183e-02,-1.650384937830151610e-02,-1.461322368827768598e-03,5.285246108271570917e-03,2.492076414494746872e-03,3.893862664699554443e-01
3.611400913894513010e-01,-3.276273379306179900e-02,-3.276133351574883612e-02,3.505092334162378254e-02,2.657599504193640383e-02,5.983787470916213103e-03,4.013363420963287354e-01
3.522286678841920482e-01,-1.635803752636474928e-02,-1.563414094184326086e-02,-2.269406548368399154e-03,1.226594364682969708e-03,-4.074223534950611667e-03,3.683200180530548096e-01
3.590949742682975065e-01,-2.080224866091373581e-02,-1.803660933379810927e-02,7.019955589082582605e-05,1.234319634176511866e-03,-6.195675715279507813e-03,3.786801099777221680e-01
3.509589015078960483e-01,-1.761355009332649102e-02,-1.813672367705543298e-02,3.802448135863540084e-04,-4.907326279458200336e-04,4.810457735621079104e-04,3.688368201255798340e-01
4.086548649342676143e-01,-8.110138518677839636e-03,-3.268895188645393191e-02,-7.871474967006214518e-03,-8.293183275060643511e-03,-1.794537619546992743e-02,4.311601817607879639e-01
3.526607839881693018e-01,-1.569899133163976668e-02,-1.779556899977119411e-02,9.085492318201275792e-04,2.268648842149525741e-04,-5.160695624706651725e-03,3.695242106914520264e-01
3.524551328206398937e-01,-1.710778430337067668e-02,-1.539855199072551195e-02,-2.843869133450972774e-04,-2.609781810940771602e-04,-3.502593271649437345e-03,3.687617778778076172e-01
3.415394173271960598e-01,-1.973147301345723470e-02,-4.128275849171847423e-02,3.221771458997103790e-04,1.091330643678556150e-03,-1.434817691275381245e-04,3.725196719169616699e-01
3.552092833321575660e-01,-3.794741534397683136e-03,-2.198836849252569503e-02,-2.348442437011421906e-03,9.163848286430974037e-04,-5.460488675913970948e-03,3.685851395130157471e-01
3.514530818278305269e-01,-1.937666043235136693e-02,-1.575565608699464049e-02,-2.272103694893657408e-04,6.336968716651810059e-04,-3.181195818478825023e-03,3.690755367279052734e-01
3.533727011392945871e-01,-1.961496016614072690e-02,-2.012573833850211935e-02,-7.790142924206980811e-04,1.776384569956431653e-03,-1.908514437463701592e-03,3.732730746269226074e-01
3.496054294031178955e-01,-1.526574561316149103e-02,-1.511051796322943064e-02,-2.486991902689479617e-04,-4.332529664645611229e-04,-1.534761865600834817e-04,3.647947013378143311e-01
3.435473513280865032e-01,-4.125766522714674478e-02,-2.302118346125650583e-02,8.721487711837881598e-04,-5.946530787870612936e-04,5.847283250864010115e-04,3.760243952274322510e-01
3.561364615651103627e-01,-1.145568791015144638e-02,-2.157404763740122799e-02,-2.004739867058258265e-03,3.351935087874684423e-03,-8.106666449730775409e-03,3.730800449848175049e-01
3.532850897829554193e-01,-2.854775774361387186e-02,-2.759706839415596025e-02,1.052552743509320085e-03,-7.418463791876742054e-04,-1.732853519310803797e-04,3.813650310039520264e-01
3.575913732680388035e-01,-1.318573852792365164e-02,-2.990915987935918730e-02,3.308053400585726084e-03,2.559912527436628135e-04,-1.847706175202096061e-03,3.794723451137542725e-01
3.547195081393189620e-01,-2.698922680268639462e-02,-1.615117667053894701e-02,1.270728366615084259e-03,3.729628464714739369e-03,1.939724967806864906e-03,3.764836192131042480e-01
3.720233127949077456e-01,-9.025837112042300880e-03,-8.628720830007818865e-03,-6.441175232250556616e-04,8.550145866477755745e-04,2.721929181490264846e-02,3.837621510028839111e-01
3.584377782029512516e-01,-2.611142066538149620e-02,-2.024781334876757377e-02,1.365236451691485787e-03,3.182933139668936776e-03,2.373640363072154936e-05,3.816983103752136230e-01
3.587334425072472577e-01,-3.249867131244696394e-02,-7.597198385667136566e-03,3.277407203552224965e-03,-5.953222763078693316e-03,2.422548889592294585e-04,3.795775473117828369e-01
3.549096238922878066e-01,-2.926346918092387339e-02,-2.400295048201334103e-02,-6.953516175830045699e-04,-5.227005831900881361e-03,-2.790245842070603359e-04,3.816796243190765381e-01
3.497620109776780617e-01,-1.719590398493123229e-02,-1.467317906459392196e-02,-7.089005298908981336e-04,-1.217187838692435921e-04,-1.398927843061042748e-03,3.657132387161254883e-01
3.459527394323785865e-01,-2.456269146439946094e-02,-3.672500711492568404e-02,3.685600951677393388e-04,-2.139878634399624419e-04,1.627573489690545055e-03,3.767551183700561523e-01
3.400573832329187307e-01,-3.487458266203372070e-02,-1.787217618019437682e-02,-1.975118518997828407e-02,9.248321873345160399e-03,4.639639234396469337e-03,3.687544167041778564e-01
3.375610560549189842e-01,-2.678375409746569513e-02,-2.698270651992140667e-02,2.212081422780288499e-03,-8.790466682293237785e-03,7.983780802525590253e-04,3.647849857807159424e-01
3.523546604794451365e-01,-1.170974335826799329e-02,-1.862934808764907246e-02,1.634190216429296785e-04,-1.779975942259981892e-03,-2.479526950983722885e-03,3.676111698150634766e-01
3.288437723701720383e-01,-2.223718846597197429e-02,-3.018058556177194429e-02,5.689779014495467170e-03,-3.186510105260668274e-02,4.221094926595710638e-03,3.595920503139495850e-01
3.801544488401075172e-01,-1.721656011907915507e-02,-1.690199655092031183e-02,-4.108067920801992956e-02,-3.800465624093391642e-02,3.259465593612928536e-02,4.127492904663085938e-01
2.201248327696177232e-01,-4.710286958772430532e-03,-9.105872630577799276e-03,2.065123898002441116e-02,-1.538453077639063624e-02,6.036009376624751517e-03,2.316402494907379150e-01
3.288776086491391193e-01,-2.035532609091209033e-02,-3.800422427810101755e-02,3.884886006740033600e-03,1.339309154174125405e-04,2.605379560560461012e-03,3.584750890731811523e-01
3.488605971768615754e-01,-2.656410111281390374e-02,-3.605871574651864364e-02,9.632155244820184842e-04,-2.450756675792105984e-03,3.557321744837684159e-03,3.803381919860839844e-01
3.455568381054410221e-01,-2.638731946290936992e-02,-3.294741802290965249e-02,1.722295343105318018e-03,1.941202975623937052e-03,-3.710780619867485360e-03,3.753491640090942383e-01
3.131778670569624889e-01,-1.498612292962211989e-02,-3.527450139871071699e-02,2.061919648494267457e-04,-1.403100830552467954e-02,2.866989322504701239e-03,3.396712243556976318e-01
3.854211345155593160e-01,-3.111680005857880849e-02,-4.631820474432724044e-03,8.901530197430234867e-03,5.025895625897912767e-04,-2.858193328652265316e-02,4.072622656822204590e-01
3.422328712155501829e-01,-2.653941701215997706e-02,-3.266457319215387844e-02,-9.228691224575501662e-04,-4.869112860516666480e-04,-3.995523196264172405e-03,3.719414770603179932e-01
3.474846257620950452e-01,-3.945721856701941976e-02,-2.182154090212715114e-02,-3.047460224444192064e-03,2.635178210385402198e-04,-3.817842981396744905e-04,3.784700036048889160e-01
3.490870633348778229e-01,-2.981303808022120472e-02,-2.659903416966469258e-02,8.579262734634781652e-04,1.295966098020304288e-04,-1.583772942710943272e-04,3.773064613342285156e-01
3.548759235945146973e-01,-2.704646754426137667e-02,-2.592009568955275234e-02,9.076459590784719152e-04,4.419628771812240085e-03,1.326182942247596376e-04,3.814405798912048340e-01
3.372727863136417148e-01,-3.967150487100012946e-02,-2.117389242392289650e-02,-3.919066151284802957e-03,8.724543677693760886e-04,2.491980231858855442e-03,3.681352734565734863e-01
3.396648961399408306e-01,-3.019056920372190089e-02,-2.190930392453191433e-02,-2.248405206493375112e-03,3.759756591956170011e-04,-2.685293356168944002e-04,3.658067584037780762e-01
3.266299914790058989e-01,-3.604954609822882960e-02,-2.119973464013807929e-02,-8.583034149001302418e-03,6.963683854438630985e-03,2.369847759433987063e-03,3.560260832309722900e-01
3.297821794860386624e-01,-2.964770447829206956e-02,-2.898774033026912944e-02,-1.297011360603374068e-02,2.246777899988287603e-03,6.270594996656842120e-03,3.599872887134552002e-01
2.735939661739924533e-01,-2.557812324190820996e-02,-2.604438024292952958e-02,-4.537282130160733007e-02,1.509182155256858990e-02,2.540278501304917263e-03,3.106805086135864258e-01
3.554055696625320615e-01,-2.959657048365751941e-02,-3.086847237620776729e-02,-5.005972846470317260e-04,6.563888760096966849e-04,-5.494567591333799966e-04,3.856434822082519531e-01
3.546726249717048751e-01,-2.757617301608619731e-02,-2.552005689524283749e-02,-8.892349315695049442e-04,3.626961559076834901e-04,-7.892673822028261005e-04,3.812309801578521729e-01
3.490851438307000509e-01,-2.556631344009130391e-02,-3.834870009682023184e-02,9.479250079127849176e-05,2.904097216847031666e-03,3.483707748264005394e-03,3.812843859195709229e-01
3.533673506849294155e-01,-2.561819852051208657e-02,-2.703407879391053759e-02,-6.612342197752705923e-04,2.510383553864401428e-04,7.789629830835502347e-04,3.796998560428619385e-01
3.479510001979872480e-01,-2.581377162049411367e-02,-3.676672344823311844e-02,-4.662327689827760200e-04,-5.800669590745498793e-04,8.556638837567403112e-04,3.793649375438690186e-01
3.427803263563694025e-01,-4.224920979886637173e-02,-2.152472472674013537e-02,-5.234268186724271715e-03,-4.905852000758263286e-04,1.568370990017463383e-04,3.752075433731079102e-01
3.375151914810012865e-01,-4.119243018476687057e-02,-1.961688163159300280e-02,-5.387955898468258821e-03,2.220589468530518445e-03,2.154896693302640453e-03,3.685511648654937744e-01
3.443292224358047160e-01,-3.912076595227942377e-02,-2.345806611036282963e-02,-3.251345164418056963e-03,2.629376126371010553e-03,3.373612989138906858e-03,3.759786486625671387e-01
3.457355088155903977e-01,-2.935100422048186886e-02,-3.267887852546239036e-02,1.379354565981487108e-03,-4.529044448481999016e-04,-3.937014884409211629e-03,3.768315613269805908e-01
3.508231855800420518e-01,-2.906218756847026019e-02,-3.560273656744011861e-02,-2.950836946161387712e-04,-2.374766772860749625e-04,1.961175375256256521e-03,3.832131326198577881e-01
3.439305419429821153e-01,-3.663488190799629729e-02,-2.491746749558243490e-02,-1.713730102685488699e-03,1.196431675117230102e-03,3.215347628861203906e-03,3.749029338359832764e-01
3.546186640022604419e-01,-2.663234352548912720e-02,-2.432595762247283244e-02,5.238747038379258951e-04,3.677356322142856342e-03,-2.216697663350337283e-04,3.801577091217041016e-01
3.543121799549906470e-01,-2.395095855452350486e-02,-2.754904427774304554e-02,-1.089504544694031235e-03,-1.303953700091380215e-04,-8.892924768993575382e-04,3.800828158855438232e-01
3.500986971347633814e-01,-3.381425259462625399e-02,-2.869690857172202403e-02,-1.724731970100387354e-04,-5.733220715080135105e-04,2.922954951658680856e-03,3.814150393009185791e-01
3.453945502349830554e-01,-3.981358966639864105e-02,-2.305859155980052866e-02,-2.620852774629830236e-03,9.812329020451194400e-04,2.209421056563260627e-03,3.771604597568511963e-01
3.392678466619108435e-01,-3.931665193640143663e-02,-2.241764226092218815e-02,-4.834008827638153205e-03,-4.283470370453361289e-04,3.018023920203133197e-03,3.705564439296722412e-01
3.537113876592728468e-01,-3.358679882817830475e-02,-3.286435424519376647e-02,-7.840268445123653712e-04,3.847063016768606427e-04,2.555331827040719858e-03,3.869657516479492188e-01
3.538994041327417350e-01,-2.919036207969011310e-02,-3.309089594843547810e-02,2.750061220502079284e-05,1.243206390049240257e-03,1.771104674695989090e-03,3.850730955600738525e-01
3.544253431251028208e-01,-3.256755028507773986e-02,-3.072871553965389468e-02,-1.018107339721705060e-04,5.587732199476138717e-05,2.787450442395804796e-04,3.860771059989929199e-01
3.533440423112567674e-01,-3.196442614717770470e-02,-3.111046843971546072e-02,-1.000778075513464831e-04,-4.405710812811689230e-04,3.151973665561230990e-04,3.848833739757537842e-01
3.082144639677392162e-01,-2.407006521122442844e-02,-2.571017544075554495e-02,-5.286561052112846541e-03,4.933322313648493863e-03,8.129283631890072553e-03,3.336402177810668945e-01
3.454032377212073457e-01,-3.779240284842078079e-02,-2.182312406041053698e-02,-1.126997257416998723e-02,2.597900383279653017e-03,2.223465320649020346e-03,3.760195076465606689e-01
3.647860406044191595e-01,-3.556998756169918452e-02,-3.014558589687438284e-02,-1.434450453704406991e-02,2.646545130438413343e-02,-3.007033803850764266e-03,4.011089205741882324e-01
3.539331080491999182e-01,-1.658756413291384568e-02,-2.107324439404256733e-02,-1.266979211979299023e-03,-2.469794647173465842e-03,-1.463665309742833874e-03,3.728233873844146729e-01
3.820002839347405588e-01,-3.534900813913774420e-02,-1.432174608092473544e-03,-4.008372301884769590e-02,8.777467114096321188e-02,-3.275878586577839202e-02,4.385525286197662354e-01
3.513972677379640364e-01,-3.392916196649811700e-02,-2.950517758271561930e-02,-8.278467541334518951e-04,7.781100250121218654e-04,8.622964266648591768e-04,3.831415474414825439e-01
3.403916567792296677e-01,-2.862042055325689227e-02,-3.194228143549077137e-02,7.019605606778205314e-04,7.099612552616043899e-05,5.109857989985317449e-03,3.707918226718902588e-01
3.544615162454045065e-01,-2.424117079008880626e-02,-2.584957260378609178e-02,2.062638127020306918e-03,1.303031411859636524e-03,-8.249563759600175199e-04,3.795356452465057373e-01
3.531332593480513427e-01,-2.736842251274224092e-02,-2.390353245447779384e-02,-5.557591892196032946e-03,5.998976410492090454e-03,-1.422016125117841069e-04,3.790459334850311279e-01
3.842930505357092241e-01,-2.869022002690199691e-02,7.714760453042535104e-05,-3.014065528178140607e-02,9.342508101124721853e-02,-2.910896097448776101e-02,4.369833171367645264e-01
3.546646169547671423e-01,-2.970392613864650255e-02,-2.717590582446871572e-02,-4.341617652386494308e-04,-1.065259085784039852e-03,2.480898626966270828e-04,3.831162154674530029e-01
3.552011112207032473e-01,-2.688568922626324853e-02,-2.657323394932267768e-02,5.337871529627846896e-03,-1.151610377619591589e-04,-2.135264339178733276e-04,3.820427954196929932e-01
2.382309933320775897e-01,-8.693537231521261677e-03,-5.343583645212826583e-03,-4.136071655193433033e-02,4.085364158101154053e-02,-2.221500912320237622e-02,2.679094374179840088e-01
3.532031448020372943e-01,-3.503498523370146556e-02,-2.688630430191374376e-02,1.316255985293561049e-03,-6.876570803599669915e-04,1.093351106694356476e-03,3.842418789863586426e-01
3.476980233674146215e-01,-2.156366021666916710e-02,-3.955694880448104578e-02,7.016705966703930481e-04,-4.796561877238082923e-03,-3.236933445584219341e-05,3.786722719669342041e-01
3.537319112090331896e-01,-2.810355784125648237e-02,-2.752321581866101763e-02,-1.455946133326553420e-03,5.293786326973051910e-04,1.100999189377441673e-04,3.815551102161407471e-01
3.417506179375834341e-01,-1.940763618912322297e-02,-4.252922513437845664e-02,4.954095689250985870e-04,-7.186481823723488930e-04,3.623871898802681098e-05,3.732596039772033691e-01
3.473654776578554704e-01,-2.467591091943752146e-02,-3.809183909489857744e-02,1.003247351596045544e-03,-1.085857215523177615e-03,2.118800982347852913e-03,3.789539337158203125e-01
3.463358480838714115e-01,-2.309382431262402280e-02,-3.902304866480979517e-02,5.419366473576728077e-04,-4.104304025550235997e-03,1.494615910569748211e-03,3.777232766151428223e-01
3.455384884561324421e-01,-2.460833642291629375e-02,-3.845929712020693114e-02,6.966694981841364343e-04,2.170803697273284804e-04,2.409887024010184346e-03,3.772882521152496338e-01
3.282015022874535393e-01,-2.715871643874656627e-02,-2.355175512698418072e-02,2.336486639413371674e-02,-3.139436145106820619e-02,-9.996949574984023701e-04,3.600134551525115967e-01
3.490886724957668052e-01,-2.722110674112354634e-02,-3.018542497046630690e-02,3.167574119781524800e-03,-1.764000471647892559e-03,1.094485852351599750e-03,3.778575956821441650e-01
3.074868463249078587e-01,-1.328416751759661785e-02,-3.681575718885102266e-02,-3.325342195782226136e-05,1.466186989711252067e-02,-2.212726205041395250e-03,3.341491222381591797e-01
3.323284870273413016e-01,-2.303070775313037499e-02,-3.144460263873743999e-02,1.690791746084165104e-02,1.035962464318072006e-02,-6.955983838306089261e-03,3.614770472049713135e-01
3.346092792287122530e-01,-2.237314366410028676e-02,-3.588954016780321332e-02,-9.534994122082148405e-04,-1.664055469249794571e-04,-4.655327252942870545e-03,3.640221059322357178e-01
3.487497508715357020e-01,-2.787557973941379164e-02,-3.895692107461787290e-02,3.862819722925862377e-03,1.408209301460875557e-02,-3.226786539333632159e-03,3.831629753112792969e-01
3.525249565116403971e-01,-2.035711179651888969e-02,-1.112871497542836097e-02,-1.751994614896949971e-03,-1.436000046130450148e-03,-9.238725500329178844e-03,3.687228560447692871e-01
3.503909258091481571e-01,-1.150801368804468816e-02,-1.858449760247499194e-02,9.612720610573013535e-04,1.390915560308136640e-03,-1.902501368168329175e-03,3.655151426792144775e-01
3.468733254010905043e-01,-2.169884588851181406e-02,-3.839113612078576265e-02,2.797450747535163047e-03,2.426413849425556896e-03,-3.902598557171581620e-03,3.773105144500732422e-01
3.567274457552651601e-01,-2.921299965920085007e-02,-3.081507917915582428e-02,2.929462013713333719e-03,-1.200226163490154558e-03,3.430147685064339601e-03,3.868284821510314941e-01
3.579954067933913131e-01,-2.703157159389218966e-02,-3.719035027506478741e-03,3.136224103587457361e-04,-1.832200652935691600e-03,-2.695269992514860366e-03,3.739591538906097412e-01
3.338930795918219618e-01,-2.075662128468777623e-02,-3.771768005064665696e-02,1.709919590114767230e-03,3.661675413723411085e-03,-3.357630071378316355e-03,3.635410964488983154e-01
3.539009989493540065e-01,-1.153882624372101762e-02,-2.075967046657706261e-02,9.595771836969641932e-04,6.145699603570631102e-04,-1.902784215481409004e-03,3.701563179492950439e-01
3.573717292489367869e-01,-3.487674789394201724e-02,-2.709931540744356382e-02,1.135770617607779857e-02,1.364292125658094282e-02,-7.553546080185380429e-03,3.898528218269348145e-01
3.472691197301787658e-01,-2.345871626328785431e-02,-3.988775972340580234e-02,2.082612169810990968e-03,3.280384367191669336e-03,-2.104523337811305041e-03,3.792866170406341553e-01
3.417175963237412128e-01,-4.067869245627159236e-02,-1.972955449485708224e-02,1.565331573799663321e-04,4.007205412978265746e-04,-4.090450094651844527e-05,3.723646998405456543e-01
3.506612941087993152e-01,-1.157625278366544719e-02,-2.114522701050447484e-02,-4.000633100202723473e-04,6.543360205954738308e-04,-1.824362945221071714e-03,3.671315908432006836e-01
2.433655474846285194e-01,3.044973918753042519e-02,-6.621616778480568510e-02,-1.148915101567630215e-01,1.204648854892493605e-03,-1.468817927676285134e-02,3.398689329624176025e-01
3.537411720417790173e-01,-4.809406653852016378e-03,-2.617062664247027381e-02,2.524527790070243104e-03,2.432713676575540794e-03,-2.978735027329144740e-03,3.697801828384399414e-01
3.156173647332404242e-01,-1.954673046111030099e-02,-3.516428062390450360e-02,-2.248474226586872076e-04,1.253407464496837827e-02,-4.870087565060530858e-03,3.440289795398712158e-01
3.536508811980084710e-01,-2.439122873321836193e-02,-2.573853977420259564e-02,-3.112253802780669352e-03,1.093472755282878025e-04,4.900701216060268997e-04,3.787569105625152588e-01
2.021796444784972058e-01,1.544534214575143949e-02,-8.390284592606800373e-02,-6.360889106940605109e-02,-1.996633820908713663e-02,1.249081592934646670e-02,2.776576578617095947e-01
3.538995190971720439e-01,-2.764524731845144356e-02,-2.434771115118447571e-02,5.299439104863978151e-04,-7.569534357880837482e-05,-1.154705613030167005e-03,3.799131214618682861e-01
3.512959817470997503e-01,-3.561433015800169466e-02,-2.938961831683725712e-02,1.215421845522273239e-03,9.911935853905266564e-04,-2.137593327791635113e-03,3.838632702827453613e-01
3.236350677592486069e-01,-3.347289303739520161e-02,-2.287219553220831703e-02,-8.354278860188390707e-03,2.406523335254985921e-03,5.445097845092066076e-03,3.523756265640258789e-01
3.542866945274332213e-01,-1.318181146556363093e-02,-2.725318261763465255e-02,-2.370350053554037741e-03,-3.935267048575550805e-04,-1.767242629376499299e-03,3.747380077838897705e-01
3.390631118168883629e-01,-4.262836904982633679e-02,-1.973403532568729357e-02,2.614777516279191152e-04,-1.426774436593460668e-04,-6.839945596609286549e-05,3.707751929759979248e-01
3.519641359026832728e-01,-1.563106071160746957e-02,-1.594186558819343791e-02,1.884742211785991970e-03,-1.055974062302924210e-03,-4.496268443898151189e-03,3.678521811962127686e-01
3.515051194269714352e-01,-1.874907107505927040e-02,-8.999610171905675360e-03,-1.082515548405740997e-03,6.254655779570271424e-05,-4.094917334795391065e-03,3.655506372451782227e-01
3.518923070769615080e-01,-2.099898358343554872e-02,-9.203174707307609781e-03,1.621569257754124039e-03,1.811268356644933197e-03,-5.056182751395976900e-03,3.672641217708587646e-01
3.537465448299134119e-01,-1.435936938374043903e-02,-1.992590675478106421e-02,1.934987840170129640e-03,-3.217236799920097446e-04,-5.799719979424801516e-04,3.709374368190765381e-01
1.956760026058558255e-01,3.293566696727631693e-03,5.252809448100526080e-03,-9.583773540871785152e-03,2.369519118587178758e-04,-8.198927168303653734e-04,1.921344548463821411e-01
3.439936120790810792e-01,-3.370562356019279893e-02,-2.850183000866615690e-02,9.148910589555035982e-04,-9.535471385410246910e-04,5.195875482749242463e-03,3.752393424510955811e-01
3.552094959792224116e-01,-3.432958247288714348e-02,-1.385210975830089564e-02,1.812975246273020296e-03,-3.706411186277168771e-03,-1.106367553103782854e-03,3.797867596149444580e-01
3.535452114353909714e-01,-2.255151922047285429e-02,-2.381679499581160209e-02,1.199326495711434048e-04,2.090148738130094054e-04,5.560641484429781727e-04,3.767324388027191162e-01
3.559943552456861782e-01,-1.328303871771577271e-02,-2.579623741005965254e-02,-2.123808868191930706e-03,-2.228732613343386258e-03,-1.941950326666435234e-03,3.757432103157043457e-01
3.507593523351671960e-01,-3.176093744332056379e-02,1.725055466548731931e-02,-3.022562057278566777e-02,-8.986943380312989449e-02,2.877476371182815379e-02,3.992872238159179688e-01
3.544762601947752945e-01,-2.593408693798793241e-02,-2.135698995564999647e-02,-4.803943917174651954e-04,7.888572274027708889e-04,5.556810291678811447e-04,3.781471848487854004e-01
3.506068577982056067e-01,-3.357602593374148237e-02,-3.035477406756220686e-02,-1.033332112252582534e-03,3.082029889902086311e-05,2.305297495830763588e-03,3.826074600219726562e-01
3.527505404198253425e-01,-2.020874644477890780e-02,-2.358843769466198448e-02,2.804116725813613365e-03,-1.730438410412668635e-03,-8.044421763544628732e-04,3.747066259384155273e-01
3.510254295422495230e-01,-2.787056437169802003e-02,-2.741043723539465793e-02,1.027472617497436191e-03,-2.938617018824648793e-04,-1.460837065806207583e-04,3.786707520484924316e-01
3.471886380677925432e-01,-2.368313987849157698e-02,-3.704321086746970026e-02,-6.502256625666790824e-04,4.534134345774041772e-03,-2.740205361960155322e-03,3.778421878814697266e-01
3.557557109085730529e-01,-1.856926404450948143e-02,-2.593490552936070226e-02,3.540771710544682836e-03,-1.530597622986437038e-03,-4.616983399463763568e-04,3.781214952468872070e-01
3.596735580237611085e-01,-1.356673211278394686e-02,-3.040719929975393976e-02,8.241871409041905439e-07,2.454457130715102103e-03,-2.579266752829194147e-03,3.819888532161712646e-01
3.486158356327874741e-01,-3.863889702096204304e-02,-2.240686753729709269e-02,3.259303962828506013e-03,1.007298758143601532e-04,9.890625404255614771e-04,3.794451355934143066e-01
2.654532142460254707e-01,-2.616614425773033936e-02,-1.008117439771591406e-02,-2.476584500298767422e-02,2.677414820655143156e-03,1.653250505008779575e-03,2.871926724910736084e-01
2.582628139901003150e-01,-1.559242639174575340e-02,-4.399675818638926206e-03,-1.053757385420192073e-03,2.310182145070223229e-03,6.917593186064602403e-04,2.684726417064666748e-01
2.711773055171026181e-01,-3.279798406374852260e-02,-1.517763153582855906e-02,-4.368688978286408564e-02,2.286069481180048185e-02,6.429476318488606956e-03,3.078518807888031006e-01
3.476375459404584811e-01,-3.861355633981231050e-02,-2.680487236829415254e-02,9.938366132255514230e-06,6.333105382232751858e-04,2.592146002893283736e-03,3.805122971534729004e-01
3.265592530603556032e-01,-3.593366729593114317e-02,-1.937473687394369870e-02,1.105413335450926467e-02,-2.177335769933886906e-03,4.076586178322370857e-03,3.551105260848999023e-01
2.679482230771900730e-01,-1.194648171657206048e-02,-1.475860945917811806e-02,-1.300647232935370733e-02,1.106980369263246833e-02,7.078411876369151458e-03,2.831280529499053955e-01
3.602806451291242773e-01,-4.109171835491809421e-03,-3.916589773301926147e-02,8.371227193205887235e-03,-2.780380865719204921e-03,1.326786995555258395e-03,3.834343850612640381e-01
2.221897304531777750e-01,-1.719708773828108883e-02,-7.944216028181558253e-03,-2.646030589639104119e-02,2.201574701074991355e-02,1.146354900840040533e-02,2.431571781635284424e-01
2.468752670307482189e-01,-1.001632542946674642e-02,-1.352044007263486503e-02,-1.218602611175363323e-02,1.146010503580911256e-02,7.512970366310342193e-03,2.606042623519897461e-01
2.854990849853220602e-01,-2.255825153640540759e-02,-1.808415401705772141e-02,-1.191913340091577296e-02,7.232642430531928748e-03,7.973649425079342573e-03,3.071073591709136963e-01
3.025621774077257298e-01,-1.528386086956382006e-02,-2.540655348218254228e-02,1.081235550511843065e-02,-9.598640187824108994e-03,9.275474696577979891e-03,3.243936896324157715e-01
3.407861907542192870e-01,-3.994954253541296851e-02,-2.092282197336658989e-02,3.358127985440044049e-03,3.710165781763279406e-04,-2.607887558794696851e-03,3.716614246368408203e-01
3.550355866300102248e-01,-1.580607039493225896e-02,-2.654606961654135122e-02,2.729659636770385717e-03,2.460027068689319904e-03,-8.393980454172502445e-04,3.763832449913024902e-01
3.426606722220440493e-01,-4.102895749927068514e-02,-2.302052574947696661e-02,-6.368365952965106529e-04,-4.037119191378479291e-04,-6.057272317617554266e-04,3.750135898590087891e-01
3.547663456371699664e-01,-1.292367141890821136e-03,-2.604190967854136396e-02,-2.359554345756421576e-03,2.396627491426134293e-03,-6.492270293045641211e-03,3.692736327648162842e-01
3.333963237027346982e-01,-3.820630251865875238e-02,-2.217866052289702017e-02,4.413429297330368189e-04,-2.881339633840466780e-04,-3.539869809270640259e-03,3.639064431190490723e-01
3.532116508428229107e-01,-3.218744058298339539e-02,-2.984110569215070452e-02,9.850819570556372789e-04,1.283876446239310678e-03,9.669693325956668596e-04,3.842451572418212891e-01
5.579499019276796812e-01,-6.531159186457358157e-02,-1.037083396921334444e-02,-1.026900509252695257e-02,1.492385591409729415e-02,-3.385115934502831714e-02,6.013760566711425781e-01
3.115249504908915723e-01,-3.596191267481407827e-02,-1.381827942527077968e-02,8.359743887380621449e-03,-4.034095686883308824e-04,-1.729063059882255922e-03,3.372861444950103760e-01
3.116313144333947016e-01,-3.486736818057464826e-02,-1.795500511239872532e-02,7.904703547997247309e-03,6.439818975079602929e-03,-4.879985647116041186e-03,3.389256000518798828e-01
3.450730008701927143e-01,-3.972744044710369016e-02,-2.305210119871883845e-02,3.470522488562802384e-04,8.850170388477046624e-04,-1.171796485360309791e-03,3.767487108707427979e-01
3.247717171312474727e-01,-3.464361537042559558e-02,-2.340670673638131638e-02,7.396406253778265230e-03,3.124425723499800120e-03,-5.659928564574459933e-03,3.543394505977630615e-01
3.422058382251917941e-01,-3.806312853520868456e-02,-2.253334637209947200e-02,-2.097533570270406313e-04,-4.894142850375088685e-04,-2.457356457501320198e-03,3.727722167968750000e-01
4.202322347415347048e-01,-2.248466911269841884e-02,-1.845379122167425945e-02,-1.119138778506279311e-02,6.346415636121390154e-03,-3.982141203609339264e-02,4.466360509395599365e-01
3.520056688716538540e-01,-1.370974865257085229e-03,-2.604366735423518930e-02,8.852827495187342265e-04,3.525917024365154474e-04,-3.834973547277828725e-03,3.664005994796752930e-01
3.501115010813286577e-01,-1.583821745723365537e-02,-1.260561136173141139e-02,-9.922291707348943925e-04,7.001354224756319836e-05,-3.365525770351603541e-03,3.643948733806610107e-01
3.705259988104070423e-01,-1.421527225107682701e-02,-3.000053859027915215e-02,3.734945775933317530e-03,1.332153098607632242e-03,-3.573388017457657540e-03,3.929805755615234375e-01
3.548594191365977424e-01,-2.666012634784881152e-02,-1.373705361467883468e-02,-2.184368043425916842e-03,-3.803037930194365542e-03,-1.421554077878525030e-03,3.753099143505096436e-01
3.509568785803945379e-01,-1.522088068230151303e-02,-1.588450404415861494e-02,-8.976875488695894127e-04,6.375519347977412574e-04,-2.481476572637651961e-03,3.665401935577392578e-01
3.558449575713016344e-01,-1.477121316602519885e-03,-2.630943078971556548e-02,2.816965168177552122e-04,-1.714327069142811133e-03,-3.856607699321062607e-03,3.704355657100677490e-01
3.623483877824801302e-01,1.067586716501785216e-02,-3.875059748682119221e-02,3.535715892068431315e-03,-1.106192589081080122e-03,-3.176531297045040274e-03,3.789062201976776123e-01
3.562383660607536529e-01,-1.102086599921819898e-02,-2.156039081705898863e-02,-2.388836582668981291e-03,1.945684910539840183e-03,-3.032528132699633446e-03,3.727160096168518066e-01
3.539514849316166001e-01,-2.405041504640012540e-02,-1.857010446762288880e-02,5.999676811719980088e-04,8.262764185398376905e-04,-2.188998833674020601e-03,3.753150701522827148e-01
2.945891806152057257e-01,-2.969785542694575176e-02,-6.807455308538518102e-03,-1.794449946408262133e-03,2.257195741342392457e-03,-1.378494159191138643e-03,3.135181665420532227e-01
3.390358226173490475e-01,-4.150873317486025726e-02,-1.974746809947602877e-02,-1.320275106065242404e-04,2.596989652832187466e-04,-7.176067973097317735e-04,3.701464235782623291e-01
3.522058565009282827e-01,-1.976928398531377362e-02,-1.774726614305896510e-02,-1.133476362163667560e-03,-5.106679465966345406e-04,-2.156413682684518544e-03,3.709933161735534668e-01
3.556790336878767889e-01,-1.528020553874059884e-02,-2.841509235267741795e-02,-2.504472933043726691e-03,-1.114565897528331474e-03,-3.308578109694616624e-04,3.777282834053039551e-01
3.620015518915615238e-01,1.486936908846465955e-02,-3.927889613800980562e-02,-5.917217931773141940e-03,1.877242034911471441e-04,-2.518437564760788480e-04,3.772727549076080322e-01
3.449857990582523293e-01,-3.210447532447838204e-02,-2.335519852058992596e-02,-8.843473177317510200e-04,1.077604605799221569e-03,9.697197712770387265e-04,3.728042542934417725e-01
3.545020307788906422e-01,-2.390583264862833346e-02,-2.117450888978308909e-02,-7.948719670424208043e-04,1.931037276300584440e-03,-7.370734321637669936e-04,3.770691156387329102e-01
2.687005880105435285e-01,-6.928110887110219829e-03,-2.445206960814766406e-02,-1.539030926097988052e-03,1.408923760631322977e-02,1.492878180040065539e-03,2.858630418777465820e-01
3.526717072960102173e-01,-2.263293585762843341e-02,-2.233629843453535657e-02,-8.769254932594103269e-03,4.226571258650719046e-03,-1.033216988259965177e-02,3.759612739086151123e-01
2.456129948175864441e-01,-9.728394901617240520e-03,-1.810328337666526621e-02,-5.723894489313212548e-03,1.819688090672290717e-02,1.687730346119019212e-03,2.617403864860534668e-01
3.500166494275256945e-01,-3.623252646523184017e-02,-2.844638833136955980e-02,-1.367741667984298743e-03,9.565055623779522489e-05,3.779339739839573335e-03,3.824789524078369141e-01
1.285068693401469897e-01,-1.441515741438974263e-02,-6.778818861432232834e-02,-5.834699380820689008e-02,-2.209603592349303550e-02,-3.635724060573961979e-04,2.063535451889038086e-01
3.513583553547995342e-01,-3.439458707327258669e-02,-2.718332472201420713e-02,-2.587245285195743059e-03,9.829753145522690787e-04,1.152523245370431571e-03,3.822336196899414062e-01
2.313518252822863719e-01,-8.943267945725030810e-03,-5.434659866097771297e-03,-1.438427565275833542e-02,1.628415922858906031e-02,5.756921104084139658e-03,2.417159676551818848e-01
3.552268715903693086e-01,-3.687175982099610838e-02,-1.072313159151419559e-02,3.616815676078757869e-03,1.504288489085273822e-02,-1.827544345652878021e-03,3.806578218936920166e-01
3.423793576361185420e-01,-4.010598997170300439e-02,-2.247574413788366865e-02,2.460447150094935117e-04,-1.124793512765571123e-03,-2.219987068386586196e-04,3.739875555038452148e-01
3.410553384475253913e-01,-4.123893651312421360e-02,-2.125571522749569731e-02,1.683943025812274221e-04,4.193060542677627418e-04,1.505438856577190256e-03,3.727146089076995850e-01
2.335598476847292049e-01,-7.966564870828321543e-03,-1.115518493647092713e-02,-1.275829917503471488e-02,1.366331257474152558e-02,5.947096884695819013e-03,2.454990744590759277e-01
2.446231905728129263e-01,-1.177477022760181624e-02,-9.123951698501844843e-03,-1.288661304269888945e-02,1.156311556268986920e-02,4.920389163461510659e-03,2.569809556007385254e-01
2.685559940989720173e-01,-1.263593806052769331e-02,-1.473241674810729651e-02,-8.060630071401571339e-03,-2.538216711034809955e-04,5.380576594102861286e-03,2.827450633049011230e-01
3.382565223141630883e-01,-2.246478438251772736e-02,-3.894573418187971536e-02,-1.254933017161378452e-04,5.906218325004368441e-03,-3.400299415401215886e-03,3.694264292716979980e-01
3.529467266411069892e-01,-2.877460309780890957e-02,-3.116472147853235897e-02,7.300871303381730121e-04,1.283802891146958863e-03,-3.241281922521967174e-03,3.829716742038726807e-01
3.494158916892387001e-01,-2.636205299808172531e-02,-3.669450177775782085e-02,1.262220084792556535e-03,3.601068544659395839e-04,-1.103891728667448285e-03,3.810608386993408203e-01
3.470977775809707122e-01,-3.958690415509194538e-02,-2.331939163644108914e-02,1.053058578768571642e-03,-1.178552556080216408e-03,1.240307394863019623e-03,3.788289725780487061e-01
3.496353388082079072e-01,-2.358260585139115850e-02,-3.866836249693950123e-02,1.377609455344628014e-03,3.423131914654767120e-03,-1.660527200858828017e-03,3.810493648052215576e-01
3.433216803584400734e-01,-2.456386691026909985e-02,-3.825698626917253820e-02,2.926259535579123217e-03,3.371823564381311138e-03,-3.683132870891342101e-03,3.750537037849426270e-01
3.466051267120455193e-01,-2.374550294255520222e-02,-3.168244128865613241e-02,2.778964373300870988e-04,1.127805890256476998e-03,-5.370649844830567825e-04,3.743887543678283691e-01
3.427357932502794746e-01,-4.151343114271538459e-02,-2.197428196618364526e-02,1.075989386706190521e-04,3.709081392952545101e-04,2.212322660495925387e-03,3.748819530010223389e-01
3.462368383890803147e-01,-2.729509500152518808e-02,-3.014234507829480214e-02,3.186334313170889696e-03,-6.060359779587627931e-04,2.234288828689347142e-04,3.750059604644775391e-01
3.487861611885618718e-01,-2.882992134779174820e-02,-3.162188569488857959e-02,2.299092547104829732e-03,2.507093091343283800e-03,-2.606881991954200766e-03,3.790924549102783203e-01
3.399374575258148345e-01,-2.195916892262711473e-02,-2.888763150474249475e-02,2.565827918435210388e-03,7.451305864318216038e-03,-3.435059803253000753e-04,3.656654655933380127e-01
3.463770867666042252e-01,-2.467368266939229393e-02,-3.831228412521023308e-02,1.894269254322425173e-03,2.503554385007323614e-03,-3.649811575773496790e-03,3.781465590000152588e-01
2.771531016331612030e-01,-1.296630613659852105e-02,-2.389338071527249974e-02,2.760491297422486712e-03,1.702273460638454444e-02,-3.132576329218672920e-03,2.972885072231292725e-01
3.395466620189193652e-01,-2.450304619349277790e-02,-3.624104722034690584e-02,2.353429683545089218e-03,-1.575948912580785654e-04,-4.846770299122374684e-03,3.701761066913604736e-01
3.243429424964670016e-01,-2.401116400002850648e-02,-3.347259221126161477e-02,3.293909292567274907e-03,7.221617832107221288e-03,-5.795013090275614141e-03,3.535898625850677490e-01
3.536069092705805272e-01,-2.471099510701013635e-02,-2.656337322367305354e-02,-6.246558969065767880e-05,-6.162685276728041084e-04,-1.810118233928200912e-04,3.792491257190704346e-01
3.138651277966460484e-01,-1.860388088075576318e-02,-3.563087257117919515e-02,2.269124453592836002e-03,8.349824788192388575e-03,-3.998247194439984858e-03,3.417002558708190918e-01
3.483405432075449837e-01,-3.870748370536339356e-02,-2.471490419048980036e-02,-3.436251383553671872e-03,-2.959228636565513896e-04,-3.038638994081135740e-03,3.803282082080841064e-01
3.511514562610068557e-01,-3.824909307245810686e-02,-2.601781160049079777e-02,2.854732583403393319e-03,-2.219339628292815313e-04,2.464669395207500250e-04,3.834635615348815918e-01
3.476307873338104759e-01,-3.355099506371894691e-02,-2.820276996698969918e-02,-4.008443669802519427e-03,-4.718139742615881649e-03,-7.506402538128329784e-03,3.789109885692596436e-01
3.551652461120136661e-01,1.208109916007794882e-02,-3.413550416126709397e-02,1.300427373189423641e-03,-1.546009695895384493e-04,-2.839391326870405879e-03,3.684131205081939697e-01
3.480043094768794365e-01,-3.280310480131398698e-02,-3.010758560315554555e-02,-8.799699891940038123e-04,-1.675023966657281441e-03,-3.028235417381547941e-03,3.795172274112701416e-01
3.599301584768965778e-01,-7.851658554416746094e-03,-3.824633902433619004e-02,6.151913244122451593e-03,2.202988934284992595e-03,-7.269402828931955524e-04,3.840515613555908203e-01
3.487921768799233657e-01,-3.432378133799637854e-02,-2.775160336215690138e-02,7.055205600576757536e-04,-1.301576096776951505e-03,-9.820085837649776897e-04,3.798849880695343018e-01
2.482340847200644740e-01,-2.117237010776580608e-02,-1.008459077742146492e-02,5.251321465817373330e-02,3.417361321163748210e-03,3.003728639573524997e-03,2.793754935264587402e-01
3.675067524238794792e-01,2.279580079280724147e-02,-8.408578625753740377e-02,1.190580596642835109e-01,-4.568839366557742726e-02,-2.538132522266665567e-02,4.667032957077026367e-01
3.578188725972762385e-01,1.072380395594883795e-02,-3.605504335142462047e-02,2.721663175848591798e-03,6.223853968168299765e-04,-2.346915779076059940e-03,3.727463781833648682e-01
3.670559773870684106e-01,1.647757225272901416e-02,-4.356451017749515819e-02,-2.477539118205374698e-03,-1.577824106638585355e-03,-1.065866051930625460e-02,3.846120536327362061e-01
3.641893063690911925e-01,1.619715004751387522e-03,-3.467755018228219077e-02,-7.302008739138719003e-04,4.719316627778861540e-04,-3.304322436224032319e-03,3.820595741271972656e-01
3.591565894520556967e-01,-9.746236510960182287e-03,-3.018087754088916164e-02,5.290055115642531246e-03,-3.705113354961385918e-04,-1.161073719330462913e-03,3.796494007110595703e-01
3.646239206975943614e-01,-1.191321316394988727e-03,-3.226294895018602671e-02,2.662858597873280549e-03,4.134000632863979517e-05,-1.293895819455150205e-02,3.829833269119262695e-01
3.585302700660776831e-01,1.065806076732422891e-02,-3.477346197396838368e-02,2.225666979970267970e-03,-5.197757368567441222e-04,-1.672651554717015637e-03,3.727029860019683838e-01
3.737209453583686392e-01,8.854643907314524442e-03,-2.889068342768433273e-02,-3.340145430341940128e-03,3.607134701181416436e-03,-2.043120595130571912e-02,3.868448436260223389e-01
3.882853603388907171e-01,1.170368043144320858e-02,-4.942556961372471247e-02,5.176555226043057754e-03,-1.189271606234382390e-02,-1.851271704088993178e-02,4.124361276626586914e-01
3.663664459677315466e-01,1.467208400026612236e-02,-4.172513261139609853e-02,2.175186906395688933e-03,-1.311780913874656960e-03,-5.144798468618857167e-03,3.831486999988555908e-01
2.961833640644204735e-01,-2.908391852203393024e-02,-8.737637395197131451e-03,-8.179666881512380819e-04,4.768916671862514893e-05,4.445851939525713968e-03,3.156835436820983887e-01
3.639693844063919270e-01,6.527566988901861711e-03,-3.900263323432848206e-02,-2.417423866942117845e-04,1.336020936210642477e-03,-5.452359818515289773e-03,3.823699355125427246e-01
3.574400402744650207e-01,-2.630169331057455318e-02,-4.020284180683536546e-03,2.163300204627803796e-03,-1.326595261590983921e-04,3.193031805108963259e-03,3.731602132320404053e-01
3.521329576646655690e-01,-1.721409220703448706e-02,-1.782648902411265723e-02,2.480893124033558238e-03,-2.847329184835994498e-04,1.022131925149951130e-03,3.696831762790679932e-01
3.612781285919077212e-01,-6.617642048020039303e-03,-3.876245392663130174e-02,-6.677245931284188710e-03,1.244918661456189540e-03,4.758060629416550392e-04,3.851566016674041748e-01
3.501253024197538144e-01,-2.840772728308146866e-02,-2.694895209967357319e-02,-7.253365329123850902e-03,2.201014165558297809e-03,-7.987831798888782742e-04,3.780363202095031738e-01
3.318266777113104138e-01,-4.072774015801863823e-02,-1.695202687341981762e-02,-4.496114964141459218e-03,2.581840038123851475e-04,8.621432809735473822e-04,3.613411188125610352e-01
3.388701501986473574e-01,-4.238261260931763807e-02,-1.836514026743771288e-02,-1.842094527649153874e-04,-2.050105381916241304e-05,6.128570611130996788e-04,3.698310554027557373e-01
3.389055174494338685e-01,-4.135829754015105109e-02,-1.966324343742070768e-02,-3.902925505791821092e-04,-2.865885601514251910e-04,7.605681670113261959e-04,3.698970675468444824e-01
3.488661289082837236e-01,-3.694786795532370438e-02,-2.632099815309155155e-02,-3.442901579570819236e-03,1.842209981154104177e-03,1.580042179588468914e-03,3.806817531585693359e-01
3.326791645919696672e-01,-3.715241700909613365e-02,-2.157948056740197074e-02,-9.562845089343912849e-03,4.738859448513631396e-03,2.158386510166630714e-03,3.627867698669433594e-01
3.547664702419267013e-01,-2.680716510050068502e-02,-2.688687352299531930e-02,-4.328772425343015845e-03,-1.104913766917810410e-03,4.039064831464137103e-04,3.816925883293151855e-01
3.685805042359606154e-01,2.181437405574152000e-02,-4.517284124551476654e-02,-7.258409568607542082e-04,2.654962968699293492e-04,-4.663861346352109367e-03,3.847466409206390381e-01
3.213661528391382749e-01,-1.984888514556243377e-02,-3.508253877552541811e-02,-2.038518854707149362e-04,-8.160144487375941072e-03,-5.430714759241498345e-03,3.494940400123596191e-01
3.450344596353610571e-01,-3.197505468881062241e-02,-2.212046890784627462e-02,6.705341285078631787e-04,-1.322321888706430061e-03,-1.730525028745753780e-04,3.721890747547149658e-01
3.596313433902773027e-01,7.169002330132290268e-03,-3.572379419464108419e-02,1.439872635921517078e-03,-2.435269741871497716e-03,3.237936537877844113e-03,3.758231699466705322e-01
3.560720472700946160e-01,-2.674196176317328311e-02,-2.990754004275103517e-02,-4.091610282463792672e-03,-1.162933147953462904e-04,1.097502363158484604e-03,3.844766616821289062e-01
3.680676728998047986e-01,7.670735740172962558e-03,-4.495964708251912190e-02,-1.769951830634609868e-02,1.450128804714729712e-03,5.003299786689238172e-03,3.906980454921722412e-01
3.465912937063813648e-01,-3.203259982541870055e-02,-2.530063831628007187e-02,-4.013356010010057359e-05,1.137793290938075722e-03,5.019362932371430365e-04,3.753093779087066650e-01
3.513005129164458173e-01,-3.710687451667668557e-02,-2.406384029620436960e-02,-2.656278412942547108e-03,-9.192495554301782171e-04,9.674722616649194780e-04,3.820875883102416992e-01
3.591508170221220375e-01,-2.552320115276784929e-02,-3.531417455619031975e-02,-4.931369986276600004e-03,3.733130350769562136e-04,3.015931211590966877e-03,3.897909224033355713e-01
3.335604022715878414e-01,-4.155650010825337470e-02,-1.847834081829982655e-02,6.056526323634247450e-03,-2.905637166485599155e-04,-1.461677756653331122e-03,3.642869591712951660e-01
3.414079450720829967e-01,-4.071670240785030259e-02,-1.958753503841359489e-02,-1.095286951380969721e-04,4.053797143306774910e-04,-1.302608678542967711e-04,3.720111548900604248e-01
3.429928032840152685e-01,-4.073324917821852242e-02,-2.081484217616863530e-02,-1.318315631293690959e-03,2.717244726792335794e-04,1.145807596640523868e-03,3.741772174835205078e-01
3.259829795762139715e-01,-1.688254115992968152e-02,-3.719367794128317084e-02,-8.428927605241636443e-05,-1.122068731251743383e-02,2.332687778699313265e-04,3.539932072162628174e-01
3.540973758464564525e-01,-2.546133087272189899e-02,-2.707801641702331508e-02,2.141786578889010202e-03,7.211062669658286142e-03,3.680709372564397951e-04,3.805932402610778809e-01
3.281400975822578725e-01,-1.685435854207714690e-02,-3.981729978752482357e-02,5.147742622739632503e-04,2.610152534345023547e-04,2.402625489865064869e-05,3.570315837860107422e-01
2.760724000852610716e-01,-1.501713270281435086e-02,-2.727604691775135926e-02,4.708686865991937136e-03,-1.767268951201565394e-02,5.609598087086323757e-03,2.992486059665679932e-01
3.554051728621598905e-01,-2.791378154576340531e-02,-2.656399487677976734e-02,-1.716647168494052442e-03,1.355389439560372668e-04,-8.153809070445927447e-04,3.826600909233093262e-01
3.087390430922599682e-01,-1.382237206191710976e-02,-3.624087435464179441e-02,1.261533200639983589e-04,-1.050176339231268137e-02,2.462890898962000457e-03,3.348565399646759033e-01
3.868821375262905260e-01,-5.175671513586060923e-02,-1.825870677770916051e-02,-5.566890759351980286e-03,3.069983951325965660e-02,4.585589479881001414e-03,4.263990223407745361e-01
3.417979708684316664e-01,-4.200364851106550002e-02,-2.113916093598242063e-02,2.246788870237625014e-03,6.206129535392922170e-04,-3.185303900976777674e-04,3.738285601139068604e-01
3.416089065792632384e-01,-4.198236963908405506e-02,-1.972743657575964926e-02,1.712282162195104870e-03,-1.158055799984893878e-04,2.138825296513749603e-04,3.729741573333740234e-01
3.300897945115506271e-01,-1.988313696996010793e-02,-3.830558799505920375e-02,2.498271547026917295e-04,7.732256838938216708e-04,-3.900574616183680003e-03,3.596045374870300293e-01
3.075555596946038528e-01,-1.357401711670441768e-02,-3.599577496846909086e-02,-2.927697908911548963e-05,-9.917125290336049198e-03,-2.137359228866272422e-03,3.333706557750701904e-01
3.355349248468704193e-01,-2.005902803451678484e-02,-3.726046520937503770e-02,-7.529216366867557634e-04,-4.391446051680797900e-03,-3.499507520175031746e-03,3.646312654018402100e-01
3.543980355177664410e-01,-1.250325237878513462e-02,-3.243437492160930469e-02,-3.600608354039768789e-03,1.475716919983399321e-03,1.082103530392896978e-03,3.773267865180969238e-01
3.767521960227309119e-01,3.824470236125027123e-02,-8.151109741492365557e-02,1.357210908791890991e-01,-2.767261401256487785e-02,-1.360976046591362565e-02,4.770541489124298096e-01
3.288328231053306294e-01,-2.031709954254515282e-02,-3.419500694716320899e-02,6.645197585542340565e-03,-2.403528191307700151e-02,4.864635273257003796e-03,3.589990139007568359e-01
3.424863542330089938e-01,-2.201807962340610048e-02,-4.068570544155183932e-02,-1.335544139999495454e-05,-1.014628949177113484e-03,-6.102604056100116711e-04,3.741932809352874756e-01
3.404650566359561648e-01,-2.924924618804666809e-02,-2.541000890587580274e-02,-5.055986328420455922e-03,-4.179063309332604892e-03,2.379247893525989876e-03,3.680082261562347412e-01
3.501336731549825609e-01,6.891136942450151737e-03,-3.186654615407250035e-02,7.587162055579260321e-04,-7.733494871248671344e-04,3.329783152488959182e-03,3.642219901084899902e-01
3.607333262533583551e-01,-8.061737583418021602e-03,-3.298772751266784709e-02,6.115903634201814119e-03,-1.303316324989925922e-03,-6.447780605474641089e-04,3.820238709449768066e-01
2.914296489815495494e-01,-1.385982828108955900e-02,-8.528450603284859488e-03,-5.609221173258518989e-02,-5.218731065719250245e-02,3.659147178757473501e-02,3.364949226379394531e-01
3.711045235936472064e-01,1.817830164582379116e-02,-5.290896705764980279e-02,-7.414944558899580832e-03,1.207257927753999267e-03,1.472983079053149374e-02,3.943591117858886719e-01
2.194914277267670522e-01,4.896089744704332225e-03,-1.133921757099598526e-02,5.675789544871256975e-02,-2.763087565516660071e-02,-1.292676820998221732e-02,2.495092004537582397e-01
3.065463565607672858e-01,-1.998080191827748819e-02,-2.911859829602053695e-02,-1.017214089376358401e-04,7.568949557912643114e-04,-5.473378831914197350e-03,3.313288986682891846e-01
3.109445298221525378e-01,2.030401212033125513e-02,-3.994051002564846797e-02,3.111393779365793921e-02,2.172742442173866174e-03,-1.240207368397058287e-02,3.301373124122619629e-01
4.007700106245553617e-01,1.723916032107708496e-02,-5.073400846021119959e-02,4.021077748899646795e-03,-1.154932709745130903e-02,-2.806505171932355876e-03,4.222065508365631104e-01
3.565394366976113449e-01,9.643691113847760454e-03,-6.632855667768572383e-02,4.288955085079590446e-02,-7.184852200356363697e-03,-3.179274649612424952e-02,4.014581441879272461e-01
3.695926453862287686e-01,1.638338770806900546e-02,-4.095846243187428737e-02,-6.728109405132449636e-03,1.730670990478600305e-03,1.373002105892679077e-02,3.860166668891906738e-01
3.984877155700301543e-01,-2.288472567657906520e-03,-5.030118578633568927e-02,-4.798422737984003872e-03,1.240979203835001089e-03,1.065167103609753439e-02,4.272975623607635498e-01
3.515784989522100501e-01,-2.646103787689110809e-02,-2.839274447764922327e-02,-8.760508056442292430e-04,-1.553558039681180456e-03,4.061605039532486801e-04,3.790223300457000732e-01
3.536861074366509095e-01,-2.545733341067166200e-02,-3.188690712070563205e-02,-5.819343037583414938e-03,2.714548093240590817e-03,-2.482819404618040720e-04,3.825607299804687500e-01
3.535595527115730774e-01,-2.930494560937382809e-02,-3.055916085317561537e-02,-8.502977611586051872e-04,-1.517737518722373771e-03,-2.198763049101554699e-03,3.835238814353942871e-01
3.540693178130215335e-01,-2.073876407440694569e-02,-1.986067458524540252e-02,-8.360191426689106680e-04,-2.392181230971231459e-03,3.054300073881286316e-03,3.744329214096069336e-01
3.628884170670145237e-01,5.955518055455633064e-03,-3.819730723115585813e-02,-3.267003591485272748e-03,1.393945481249837673e-03,-3.213284632013562424e-03,3.810236155986785889e-01
3.545987170389961474e-01,-1.939397740829912342e-02,-2.320660675495991865e-02,2.696839856591227991e-03,1.411376380881395210e-03,-2.208746969050256310e-05,3.759504854679107666e-01
3.542274796097937273e-01,-2.775992485882744498e-02,-2.808338781383490357e-02,1.033655398856630093e-03,-1.502583770449212718e-03,-1.084460828498023477e-04,3.821623325347900391e-01
3.545257646824700459e-01,-2.617151191455649450e-02,-2.598372343723226452e-02,1.621828842147192385e-04,-2.843708873671931588e-03,-1.315478761037804523e-03,3.806422054767608643e-01
5.512458077833319869e-01,6.036514361527633987e-03,-6.956540383804449279e-02,-3.446934018709219005e-02,-2.968179411439782894e-04,2.495937310019012353e-02,5.912877917289733887e-01
3.427452615241597944e-01,-4.067208847714323672e-02,-2.159118066620085985e-02,-2.507740354909124498e-04,-4.928920674056247930e-04,-9.147841675382163462e-07,3.742431104183197021e-01
3.543787806154056197e-01,-2.531300709508377267e-02,-2.466168307665617121e-02,-1.581203710319530834e-03,-5.134112233707399491e-04,1.234541785797960796e-04,3.793775439262390137e-01
3.539494624649012766e-01,-1.992081105860954438e-02,-2.680767248769941324e-02,1.982347839975947927e-03,1.880506271488219597e-03,-3.416332000197957975e-04,3.773909807205200195e-01
3.532901750763515758e-01,-2.664621771220482271e-02,-2.405839888727573372e-02,-3.456441802576476615e-04,-2.944975728461984919e-04,-5.111259893944971808e-04,3.786509633064270020e-01
3.873557381852753001e-01,-4.096599691185801029e-02,1.032348509730482422e-02,2.874420942177916775e-03,1.069974066072434775e-02,-2.153014386150571211e-02,4.072844088077545166e-01
3.029251848133775460e-01,-3.612612419534311226e-02,-1.157597589433179142e-02,-1.134257733718197630e-02,2.215922570172543238e-03,2.634068645977759391e-03,3.281101286411285400e-01
3.167703891144461048e-01,-1.612130176639119117e-02,-3.554988022061364439e-02,9.579460096655122853e-03,4.341322206916236465e-02,4.599277432894496864e-03,3.516459167003631592e-01
3.479174095625478524e-01,-3.968375796835452163e-02,-2.487140610335292212e-02,-4.066132483670190784e-03,1.277768048065290986e-03,1.373302397820363747e-03,3.804903924465179443e-01
3.456224697744881280e-01,-3.664844239822470651e-02,-2.499781349252938600e-02,-8.406714136804268028e-04,2.678575617410925867e-04,3.198826502833110319e-03,3.766246438026428223e-01
3.326954958499411807e-01,-2.610579990639178005e-02,-2.777000224065986900e-02,-1.041716471049955114e-02,1.525281420017754810e-02,2.197138171822985483e-03,3.610765039920806885e-01
3.284379965875686147e-01,-3.965094611425723503e-02,-1.372613042294060226e-02,-7.926360002693598299e-04,1.500298017110682832e-03,-1.210988593825626340e-03,3.558538556098937988e-01
3.342300378849012432e-01,-4.126871843045523680e-02,-1.832168073680051634e-02,-5.359831821940641214e-03,-3.093093379948483258e-04,-1.458352616813568320e-03,3.646945953369140625e-01
3.459455039984173363e-01,-3.081249556885801155e-02,-3.207378754064538207e-02,-3.232546525984649269e-03,1.972455050744012419e-03,3.744561865864581840e-03,3.775029480457305908e-01
3.739984077796015272e-01,-3.590317454366231953e-02,-2.781348582887724352e-02,-1.662002083531116670e-02,-2.639470115759961349e-02,6.009047821323354813e-03,4.096288681030273438e-01
3.601356290484505340e-01,1.560541907675484785e-02,-3.986990353798772202e-02,-8.706151325129458593e-04,7.732552652384844238e-04,5.170454155335781239e-03,3.754673898220062256e-01
3.507369482545665829e-01,-3.574060538633666573e-02,-2.411994348532747745e-02,3.351221259934683734e-03,-7.519970603202490297e-04,-9.106117833842010140e-04,3.808499574661254883e-01
3.503008965711703615e-01,-2.971963232696248070e-02,-2.866025574280514632e-02,6.513077265795320578e-04,-2.624138564961568990e-04,1.406379521804824095e-03,3.795017302036285400e-01
3.470623061011058885e-01,-3.681735561928012324e-02,-2.703290120651363759e-02,1.667279905286311870e-03,1.323462517986124338e-03,-1.397861807645039197e-03,3.791078031063079834e-01
3.539794296924306805e-01,-2.940449303854278384e-02,-2.769742469267411078e-02,1.197611653949574623e-04,4.828660827465316129e-04,-1.363049379377754980e-03,3.825415074825286865e-01
3.560774197697473276e-01,-2.765891072484169544e-02,-2.685699410193606584e-02,-3.815495907737752389e-04,-4.927499051847545252e-04,3.777154942334124809e-04,3.833380937576293945e-01
4.081438856755199573e-01,-4.757327439524172696e-02,-1.275722032293657993e-02,-7.696386344058253615e-03,-8.512079967603067635e-03,2.038001151880818734e-02,4.412086904048919678e-01
3.304811549514993785e-01,-1.920574821766127260e-02,-3.830649416506207161e-02,1.544306018415246822e-03,7.169872750324256109e-05,-3.266027375441159404e-03,3.596723675727844238e-01
3.554903575692604512e-01,-2.819135319143595275e-02,-1.849024026777479346e-02,2.249455310671803418e-03,-4.082033345500074399e-03,3.271862791110130043e-03,3.790526390075683594e-01
3.145543824717476622e-01,-3.300832956594343393e-02,-1.410058137742191409e-02,1.530585928355842826e-02,-9.372370846617158417e-04,-3.538071935656166098e-03,3.396008014678955078e-01
3.555956468113154467e-01,-2.614940414722016770e-02,-2.670836528940653820e-02,-3.183033949292208686e-03,4.900335264861213982e-05,-1.322783818251729296e-04,3.820647001266479492e-01
3.528503987587685020e-01,-2.055762232706054293e-02,-1.838884096149570602e-02,1.132877242637289833e-03,3.652836463692934218e-04,3.258531318517580207e-03,3.723768591880798340e-01
3.225232238040684485e-01,-2.126866266543828154e-02,-2.941250845431231387e-02,-4.089727398878051368e-02,-5.389613124205704792e-02,-5.220342563847893934e-03,3.672504127025604248e-01
3.566710789504338730e-01,-1.363337064646255592e-02,-3.272332417886589240e-02,-2.899436842933671675e-03,-2.144858654146204898e-04,-2.504035845105871292e-04,3.802426159381866455e-01
3.542471781373491835e-01,-2.725077525213390195e-02,-3.044251043456547290e-02,7.914851324380920436e-04,1.052210469912445798e-03,-2.269589946134292736e-04,3.831107914447784424e-01
3.608690663308953273e-01,-2.328912088230800093e-03,-3.974285787111070389e-02,7.353578433414513851e-03,1.784255245791720960e-03,3.243262220444843597e-04,3.835014104843139648e-01
3.523326225432328318e-01,-2.834380070612374514e-02,-2.648606133706560284e-02,1.150226589227654693e-04,-9.615205027352039403e-04,3.749255964794232193e-04,3.797552287578582764e-01
3.516152749037153025e-01,-1.460103349098373915e-02,-1.629170043456112937e-02,1.102866847135943514e-03,-4.110145753916117088e-04,2.159697191082947561e-03,3.670892715454101562e-01
3.623507760051973281e-01,1.483810877303766429e-02,-4.290045661620331408e-02,2.933638158427808763e-03,-4.185027680536719443e-04,1.502819801408319554e-03,3.797325491905212402e-01
3.582393859494786836e-01,-1.843094524563915204e-02,-2.968251353933143433e-02,-3.116243832948683429e-03,-5.719659973114006081e-05,-1.084819429743637048e-03,3.824630081653594971e-01
3.514626384212435339e-01,-4.230735530612705908e-03,-1.697845874304707015e-02,-5.718286905542431563e-04,-7.630563571861563241e-04,5.709529237337146110e-03,3.623742461204528809e-01
3.493993587002456880e-01,-1.490859394040497388e-02,-1.279109465161928916e-02,1.306785227740723610e-04,1.558136424287959317e-04,1.711462520387645701e-03,3.632661104202270508e-01
3.508434788721430664e-01,-1.375840590718194201e-02,-1.527733334771116946e-02,-9.851675735491345186e-04,-5.298615453427549639e-04,1.866832507567168110e-03,3.653831481933593750e-01
3.563716147245741261e-01,-2.741617741985807877e-02,-2.970864917357282642e-02,4.655616323451084067e-03,-1.868998584117273346e-04,-1.135513308730271270e-03,3.850287497043609619e-01
3.613496328976866234e-01,-1.167541258705054319e-02,-2.310134386777221160e-02,2.065155891340760691e-03,1.378154344648546388e-03,8.280866179161162910e-03,3.791630268096923828e-01
3.543423298864537552e-01,-2.645124416486457908e-02,-2.324461845051992159e-02,-1.675603689148785248e-03,-1.437772055899977602e-04,2.254473665237763640e-03,3.792317211627960205e-01
3.518687423184919116e-01,-3.983873153888178864e-03,-2.047401049133901196e-02,-3.288027402902046802e-04,2.204573928148447458e-03,6.496074168680279932e-03,3.645717501640319824e-01
3.535348412908235205e-01,-9.539115718046997650e-03,-2.485884013282829708e-02,1.130231166895394844e-03,2.896916061250033939e-03,3.154775490477429792e-03,3.710504770278930664e-01
3.508278149228898357e-01,-1.796835165218599317e-02,-1.482200968619573622e-02,-3.860453641798049186e-04,2.077722026440058530e-05,8.802760807267871930e-05,3.672337532043457031e-01
3.609114354957031479e-01,-9.852214066655984315e-03,-3.448557816645778096e-02,9.068607114623455923e-03,2.108944401664638365e-03,5.760974658436876505e-04,3.840139210224151611e-01
2.897232477146691187e-01,-2.690209931048279102e-02,-1.320504413345481576e-02,-1.998926011352978455e-02,6.564074313528421361e-04,1.345248927545863744e-03,3.119420111179351807e-01
3.529136552473105537e-01,-2.720811791781513334e-02,-3.756500435928142312e-02,-9.254429699565908021e-04,-9.501441460881131229e-03,7.526213282769364261e-04,3.857613205909729004e-01
2.638521163019841853e-01,-2.323481357327376873e-02,-1.967488016816383578e-02,-4.396279033613833404e-02,7.418125107077283911e-03,-3.321358297267248526e-03,2.956449389457702637e-01
3.618760255647722746e-01,5.638539742688269962e-03,-3.686771709693026366e-02,-1.267537214800553216e-03,-2.946875770314623128e-03,5.313520170356880040e-03,3.794335424900054932e-01
3.504440511227125965e-01,-2.147915601516128814e-02,-1.119550277437061925e-02,-6.425064787785989516e-04,-1.054906979077722040e-04,2.217545642966352055e-03,3.669113218784332275e-01
3.592456542978131329e-01,1.483399044519459475e-02,-4.010599410478263294e-02,3.648325107156933506e-03,-2.284906003876413798e-04,2.134529108985435287e-03,3.749847114086151123e-01
5.254922479518109313e-01,6.464688101897764216e-03,-7.963776858059412600e-02,2.708072563747986050e-02,-1.681999285132923863e-02,-1.199362559587726675e-02,5.700641870498657227e-01
3.580730120886778667e-01,-1.208615459618267440e-02,-2.711694183286147974e-02,-4.106755354977751314e-03,6.089941924230791699e-04,1.345492524249482583e-03,3.779744207859039307e-01
3.526279979548856414e-01,-2.191084587234876091e-02,-1.709519962995556530e-02,8.318406397950806616e-04,-1.086761692989397527e-03,4.885427744457482117e-04,3.721629083156585693e-01
3.564078127164378995e-01,-2.717631941552339780e-02,-2.907114071548563827e-02,8.489558221786992331e-04,-3.469354252719320311e-03,-8.017084874059220894e-04,3.845873177051544189e-01
2.562003706282645066e-01,-3.164485539035026551e-02,-2.281595163781152680e-02,-4.155203918695141163e-02,3.223444193095458682e-02,1.650469415591236666e-02,2.991748154163360596e-01
3.251680831569066510e-01,-3.413288918605233979e-03,-1.073324737403408280e-02,-5.138217283433772070e-02,3.394580786089797242e-02,-4.281958601201111408e-02,3.567945957183837891e-01
3.813639378112395617e-01,3.128717832914267027e-02,-8.070610440124825757e-02,6.343674464403271929e-02,-1.986224168139326743e-02,-1.458320936091718478e-02,4.338164031505584717e-01
1.760687945261701359e-01,-8.568676215120155093e-03,-2.211069296414458485e-03,-3.740860712638232471e-02,4.230937364017486185e-02,9.842375981088647384e-04,2.062254399061203003e-01
3.554923758830901837e-01,-2.764410339981016040e-02,-2.740845072160166818e-02,-4.715581587520502674e-03,-1.358789723230855416e-03,-1.560928779480279856e-03,3.831225633621215820e-01
3.387917147852743116e-01,-3.658086397805201950e-02,-2.432191122727092591e-02,-6.270804193039132036e-03,-2.393031862120385388e-03,-3.643842549286927576e-03,3.696324825286865234e-01
3.514428374477539530e-01,-2.809969632952930008e-02,-2.806940333130594767e-02,5.292637010545550970e-04,5.498705463825397360e-04,-4.112217049969365060e-04,3.795303702354431152e-01
3.563014523710823500e-01,-2.637023910330651977e-02,-4.143890589771159760e-04,-2.526118683584836679e-03,-1.433476856804992124e-03,3.157828337350211245e-03,3.704510629177093506e-01
3.425233705646903437e-01,-4.154580916426547921e-02,-2.194364052183497837e-02,-1.499124709398072085e-04,4.893397898331411497e-04,-2.240504662424600783e-03,3.746740520000457764e-01
3.542231998769988510e-01,-2.547746851065385565e-02,-3.201459910366227790e-02,-7.474673376832486477e-03,1.216122629906102141e-03,2.130793708983139741e-03,3.832533955574035645e-01
3.389496622133190695e-01,-3.869799685243949239e-02,-2.192601561615992178e-02,-3.470549020309721643e-03,1.373186467296334042e-04,-3.007686996594644349e-03,3.696328997611999512e-01
3.464985434278491927e-01,-3.553131987742130793e-02,-2.698711880453466549e-02,-9.166791534254009610e-04,1.976011606164130945e-04,-3.525758876786486661e-03,3.778830766677856445e-01
3.350643932113226975e-01,-3.550818816998274619e-02,-2.191018996885862880e-02,-2.849629233320661193e-04,7.116672062033740660e-04,-4.167697820177656415e-03,3.640381395816802979e-01
3.208132902490861693e-01,-2.807780102027912505e-02,-2.551337899748865046e-02,6.982709536745516498e-05,-8.955028520119113599e-05,-6.831382043848885019e-03,3.478173613548278809e-01
3.283473059984114983e-01,-2.483698419442190164e-02,-3.394938651198461943e-02,-4.494109624308267013e-03,-9.072849917556176022e-03,-6.030021067074167393e-03,3.584091961383819580e-01
3.311807686116818861e-01,-3.805984761945993555e-02,-2.072685957898043330e-02,1.589422365214696704e-04,-1.364140323422705081e-03,-3.982253722388290514e-03,3.609601855278015137e-01
3.507401908434732429e-01,-3.859347843131583078e-02,-2.563497466178593642e-02,-2.580229738299863376e-03,-3.891586055773728781e-04,-9.311143884543309336e-05,3.830455541610717773e-01
3.334707388808720308e-01,-3.531261349039296893e-02,-2.591874728058682353e-02,2.914017165416036366e-05,1.295989141048058645e-03,-4.605919840065923927e-03,3.642715811729431152e-01
3.328423768858794762e-01,-3.549171672691475710e-02,-2.093707033023359254e-02,5.065351856305143384e-04,2.240513193513294114e-04,-5.753664804943142003e-03,3.614154160022735596e-01
3.350638160013381661e-01,-3.213201629260298287e-02,-2.754227526221184053e-02,-4.548454725240565905e-03,5.060793657980333475e-05,-5.915658166036026795e-03,3.651514351367950439e-01
3.354529005183590762e-01,-3.877329603255424972e-02,-2.087043471934230121e-02,-4.463098827981053923e-03,-1.801263518301265184e-03,-3.091214345756547639e-03,3.657378852367401123e-01
3.544987618313932831e-01,-3.105981827542411700e-02,-3.032352141802815981e-02,-1.163504746868112595e-03,4.024872360323732633e-04,-2.600479287613811290e-04,3.851971328258514404e-01
3.543848478800623036e-01,-3.097881540173094694e-02,-3.086743765815375129e-02,-6.297077440399590593e-04,-4.792191221673599080e-04,-1.575539557082662431e-04,3.853105306625366211e-01
3.566575169209418306e-01,-9.344537955244675009e-03,-3.028318017319164834e-02,5.333183384960277218e-03,-1.934217670424484819e-03,1.842211938002425798e-03,3.770493865013122559e-01
3.523004413441073734e-01,-3.240446497684409954e-02,-2.936702444927019595e-02,1.215260932021627589e-04,1.098961526935083970e-04,-2.601133030629306756e-04,3.831955790519714355e-01
3.537362239462033542e-01,-2.740686212571685765e-02,-2.808710713320175523e-02,9.315017532502713454e-04,8.296789755413296096e-04,2.509114600487355809e-04,3.814900219440460205e-01
3.469703944774203408e-01,-3.992489448534233820e-02,-2.323075872525517949e-02,2.552408384726735646e-03,-1.023094987762999866e-03,-1.233054982213851189e-03,3.788601756095886230e-01
3.507514084927657039e-01,-3.023701382928570269e-02,-2.979456769797197979e-02,-2.044190436949457502e-03,-3.112288144376622583e-03,-1.711819619427664601e-03,3.808335363864898682e-01
3.195597118561063765e-01,-3.489671509740616129e-02,-2.037701506327135870e-02,-4.861584989188237789e-03,-2.524110222890706308e-03,-5.156902446009461669e-03,3.476684987545013428e-01
3.468707206133884169e-01,-3.032367268159325002e-02,-2.670431473891896057e-02,5.822824160467041202e-06,1.210274361872910442e-04,-3.369194978458917944e-05,3.753978610038757324e-01
3.504715487075013014e-01,-2.972364896116824751e-02,-2.751452293293429885e-02,-5.646961843631891596e-04,-2.838715409591633515e-03,-6.038114687983892103e-04,3.791300356388092041e-01
3.282024769080377768e-01,-3.765470481677385406e-02,-1.650582763071484216e-02,-1.251289546576850320e-02,-5.714108747465096623e-03,-4.409090720180730213e-03,3.566332459449768066e-01
3.662568858086409640e-01,-3.246625534417227343e-02,-3.030165188196043413e-02,-6.565918801696206397e-03,-1.618472456625284078e-02,2.231125950000544412e-03,3.988130688667297363e-01
3.327702634372680102e-01,-2.786162582870005400e-02,-2.973420068816176598e-02,-1.175384535148449837e-02,-2.100775841426778812e-02,2.476445874818639266e-03,3.639931380748748779e-01
2.391536821246022237e-01,-8.899779024455475862e-03,-8.974898336425243817e-03,1.084225579113712139e-02,-1.893130343653746939e-02,8.659131330424785222e-03,2.513999640941619873e-01
2.972714826394796672e-01,-2.200099208161163111e-02,-2.475399268168886058e-02,2.181948360980560941e-02,-4.098214241298328564e-02,6.954552162994488695e-03,3.308072388172149658e-01
2.947506095045380192e-01,-2.711659984052380845e-02,-2.427560160686387247e-02,2.727165274194101596e-02,-4.066373124745394779e-02,5.747378339236919841e-03,3.316369950771331787e-01
3.520494791737136531e-01,-2.252433257920277709e-02,-1.967322874122304222e-02,-1.536126955490391089e-03,6.160298085874241561e-04,2.233287770941210534e-04,3.731676340103149414e-01
2.795271294719516852e-01,-1.056731017286234586e-02,-2.728125395705173484e-02,7.734333971124834547e-03,-1.763454474396173449e-02,5.099366425721063578e-03,3.007875680923461914e-01
3.345443145049447065e-01,9.689857502119536559e-04,-2.872609527874966928e-02,3.412077627013194309e-02,3.962107517551084063e-02,2.947465255330993655e-02,3.645110130310058594e-01
3.648411624437023493e-01,8.340385935390590144e-03,-4.284445471230463598e-02,-3.450242054499929462e-02,-1.085242198616723696e-03,-5.527770079083343599e-03,3.893925845623016357e-01
5.235237643323811252e-01,3.908881644055450799e-03,-7.979635931884632161e-02,2.800198137286307593e-02,-5.539541536698256406e-03,-1.139547795042313190e-02,5.686252117156982422e-01
3.457175881632230663e-01,-3.323908735441460927e-02,-3.140571373874667671e-02,-3.589057053812919756e-02,7.748169612066903300e-03,1.711518012650363593e-03,3.833667337894439697e-01
4.012475817837720116e-01,2.688321109111489748e-02,-6.113049366830639042e-02,-1.468510496599984699e-02,8.550117647602837115e-03,1.400710810249309463e-02,4.269650578498840332e-01
3.570077365437810957e-01,-1.615486161792945019e-02,-2.633453200978147501e-02,2.423708242963707859e-03,-1.997775017084021509e-03,1.675077326997727366e-03,3.784053921699523926e-01
3.553093432733586687e-01,-2.598274965064578668e-02,-2.750043123575385273e-02,1.604968774631793842e-03,-9.250491534333179708e-04,-1.009877700198621368e-04,3.820666968822479248e-01
3.298076940065602369e-01,-3.008680936760116387e-02,-2.497422215834940729e-02,3.235787569412101883e-02,3.717093541733235834e-02,5.416321950894539307e-05,3.674184679985046387e-01
3.555902639321706915e-01,-2.415567840169491332e-02,-2.719539826096600832e-02,-1.373937184089479499e-02,-1.542479938508758150e-03,2.089092875287602673e-03,3.820433020591735840e-01
3.588902754730329270e-01,-1.188018540886776053e-02,-3.386793654549941079e-02,-4.261542857003908051e-03,1.838187430196070848e-03,1.770719380987285149e-03,3.823357522487640381e-01
3.528964797556018995e-01,-9.690501764661296757e-03,-2.382452701856715982e-02,5.551262486646002742e-04,-2.456023072669167445e-03,5.105965626675174063e-03,3.699880242347717285e-01
3.538551010536005736e-01,-2.854373852953290269e-02,-2.611845449718094847e-02,-5.617504464018492627e-03,-4.491032631041860746e-04,4.774083891548243120e-05,3.813169300556182861e-01
3.631524304832141059e-01,-2.650221213731049352e-02,-2.628260467434420655e-02,-2.142774172035571511e-04,6.611169330051746423e-03,1.958181286574985341e-03,3.897280991077423096e-01
3.557292296158884870e-01,-1.286446404366203833e-02,-3.248549837238132176e-02,-1.746661306532933198e-03,1.183779682104200417e-03,2.447374980830980661e-03,3.788268864154815674e-01
3.583199724625826255e-01,-1.111489489722425339e-02,-3.322931598625325500e-02,1.391423192301816797e-02,4.433702004320640719e-04,6.688276872299722849e-03,3.819117844104766846e-01
3.478751513828128306e-01,-2.095261997652128616e-02,-3.760541350997556598e-02,3.272477795279756657e-02,8.929389488142362719e-03,1.019874675483562615e-02,3.823836147785186768e-01
3.548721542468585288e-01,-2.972703379681176927e-02,-2.970367025766912361e-02,1.154687508827733310e-04,-1.456734958137483526e-03,-2.866440071735012292e-04,3.845961689949035645e-01
3.589340310181969862e-01,-1.244421309121196417e-03,-2.007979911630508596e-02,7.287512375534530018e-03,8.582736539339984663e-03,2.248244563857526232e-02,3.725105226039886475e-01
3.473439578376717463e-01,-3.994774898929037699e-02,-2.322514534871347736e-02,-1.102075623993607973e-03,-1.237587540444147179e-03,-1.065462403870225767e-03,3.792223930358886719e-01
3.555910641157357110e-01,-1.748914158003431196e-02,-2.737221481783075339e-02,-3.410020271583823724e-03,-7.990535376808541399e-04,5.878746148837515027e-04,3.781686425209045410e-01
3.539052619371849673e-01,-3.329347361722209686e-02,-2.708756650584129289e-02,5.318656332341260146e-03,-1.313711956083318377e-03,2.693725692383602387e-03,3.842788934707641602e-01
2.796529793432397937e-01,-2.299515650953969093e-02,-1.552151691866576755e-02,-4.697991965954217281e-02,1.179021922076234005e-02,3.269591064370558440e-03,3.105805814266204834e-01
3.538087794831947241e-01,-2.727746521019128179e-02,-2.701914308971578582e-02,-5.743334000904187428e-03,-6.242241918822864733e-04,6.426346302593922023e-04,3.810901641845703125e-01
3.534181324616219033e-01,-3.511265920258679896e-02,-2.702850928149561072e-02,-8.233113717827273987e-04,-1.164206294091175986e-03,-1.071189718066692430e-03,3.845648467540740967e-01
3.503272395204964362e-01,-3.528894822534936471e-02,-2.896468698458443125e-02,1.350100302555802643e-04,-2.861116787925092062e-04,-1.616474167957990520e-03,3.825038969516754150e-01
3.466582595413982282e-01,-3.846023736012346705e-02,-2.232937097107731694e-02,1.162641312565594436e-02,-4.671140106079821851e-03,1.525017334027201120e-03,3.779445886611938477e-01
3.488322616852571056e-01,-3.267957971047891208e-02,-2.277749973044676524e-02,1.640351508764475172e-03,2.201666117283373678e-03,-5.817727169807387086e-04,3.766897916793823242e-01
3.472323919673480086e-01,-3.758291375030001213e-02,-2.383924112699761788e-02,-8.338766871151775777e-04,7.510598397668487173e-04,3.830451707277699640e-04,3.781364262104034424e-01
3.511638395234848442e-01,-3.695432575146198606e-02,-2.705356054769111895e-02,2.247032608020691890e-03,-1.085367155860148631e-03,-1.410678199697351599e-03,3.832958638668060303e-01
3.536950633257809340e-01,-2.983670737043014887e-02,-3.282376971970382695e-02,2.847176128443166133e-04,5.805078062991423250e-04,-3.622547909304417620e-03,3.850867450237274170e-01
3.771561656152189190e-01,-2.086258642480226522e-02,-4.687727988227818887e-02,-4.587378303488883619e-02,-2.177256700854808460e-03,1.022496096952306595e-02,4.196321070194244385e-01
3.653863710204294235e-01,1.309454736257374685e-02,-5.498233022120155300e-02,-3.545854759823244967e-02,2.069247653495939841e-03,-7.299356253329726887e-03,3.958175480365753174e-01
3.512761283572451987e-01,-3.012486359644273026e-02,-3.295097905385191428e-02,-9.754266257093462556e-04,-6.340543710740074567e-04,-9.992794139866653137e-04,3.828310966491699219e-01
3.452076363888466615e-01,-3.800476616111467254e-02,-2.679518025081487065e-02,-9.896467599016538132e-04,-3.275238806229504576e-04,-9.177574490488566404e-04,3.777400255203247070e-01
3.824530942763428309e-01,3.570381979315445653e-03,-3.898152857020528717e-02,1.402746725818636644e-02,-1.631102735149714267e-02,1.860937766269065569e-02,4.048608839511871338e-01
3.649614224677117380e-01,2.851097567967725288e-03,-4.684459511323743608e-02,-1.274549539555151940e-02,-4.111940689264963374e-03,9.796780124714890917e-03,3.904034793376922607e-01
3.276176811389238108e-01,-3.919751767296439371e-02,-1.751085848637304321e-02,8.359656384580418432e-05,1.975936579165464416e-04,4.098928390939388881e-04,3.564678728580474854e-01
3.623877631787381093e-01,1.656800504308336697e-02,-4.970036777485134505e-02,-4.320834451706544177e-02,-7.319399188261365569e-03,-2.814059886920697307e-03,3.907493650913238525e-01
3.502974082623324104e-01,-1.345359746302923765e-02,-1.601102467027823439e-02,2.314534485755713358e-04,-1.488081666450986234e-03,4.965139017157810253e-03,3.651470541954040527e-01
3.513064182239589717e-01,-2.664022369401111701e-02,-3.240560053745239477e-02,6.236139785644503582e-04,3.715360738930296308e-03,-2.505218139254652542e-03,3.809426724910736084e-01
3.551048340253333269e-01,-2.386670357589679159e-02,-2.825271070127846618e-02,-5.997923058706746335e-04,1.345800398725747376e-03,-1.585015603279092212e-03,3.812018930912017822e-01
3.534465800711327765e-01,-3.072851224442355034e-02,-2.678412089884091296e-02,-1.509552830408182481e-03,-8.547230957052123323e-05,-7.821730826560383118e-04,3.822295367717742920e-01
3.540667374639964171e-01,-1.613544929733587430e-02,-1.924255441571171010e-02,1.326226992675428196e-03,-1.679532223542719131e-03,6.827112436158838844e-03,3.719719648361206055e-01
3.555187505231297007e-01,-2.123365742943861267e-02,-3.343575101638712743e-03,-1.676763789469739099e-03,-2.729519647743812276e-03,4.606435935908616969e-03,3.682617843151092529e-01
5.372893954622905976e-01,-2.523027344875994338e-02,-1.758029744113473458e-02,-3.974792544729683665e-03,-8.741592237417740267e-04,3.274955048748560971e-02,5.616501569747924805e-01
3.542618150207582084e-01,-1.631970445778130330e-02,-2.046438158996108370e-02,-1.460383211319138180e-03,-1.804978654537666739e-03,2.690712044233478911e-03,3.727219700813293457e-01
3.728024889036280487e-01,-9.494399302748701697e-03,-3.105262823000384809e-02,1.547960294861691188e-03,6.352699919030050909e-04,1.120359314817343660e-02,3.940079510211944580e-01
3.510263196292772725e-01,-1.826758837600148122e-02,-1.622393617565762169e-02,5.250395312065664040e-04,-2.493642792779469800e-04,4.764791904116437850e-04,3.682786226272583008e-01
3.526176684880195644e-01,-1.897726897708115756e-02,-2.134045511944282492e-02,1.614516238561255253e-03,1.277215606877582857e-04,6.904142714932191621e-04,3.727946281433105469e-01
3.529762052928450133e-01,-4.044894428282180820e-03,-2.659262711741078311e-02,6.769086136944403630e-04,6.383319121487702639e-04,3.339563279497018231e-03,3.688611388206481934e-01
3.525443958846616321e-01,-7.840340171677173675e-03,-1.930867306620673296e-02,1.397252243738934558e-04,-2.418366083051196047e-03,2.535734980217373841e-03,3.663039505481719971e-01
3.557225833604232279e-01,-1.609288343699105672e-02,-2.703359252733167351e-02,2.773842042079286124e-03,-8.441257513105420319e-04,1.507171396581840359e-03,3.774472177028656006e-01
3.514398861233166693e-01,-1.782430469860296629e-02,-1.981200666541260702e-02,8.389309642177994551e-04,6.258211442436089570e-04,-8.718380737433211250e-04,3.702695667743682861e-01
3.548747188254294804e-01,-2.387922246498960788e-02,-2.471660840777853418e-02,-1.060828780728764048e-02,9.582267067259944357e-03,-3.633063191453926241e-03,3.800329864025115967e-01
3.528695345667359762e-01,-1.695180509581575845e-02,-1.543269464413440928e-02,-1.413678518311034527e-03,-2.102891745357081572e-03,2.276944268153369231e-03,3.691112995147705078e-01
3.412712982135528428e-01,-2.496335872186972171e-02,-2.614020627993388080e-02,-5.691719505089859292e-03,3.717979543069948462e-02,-1.018477397394929734e-03,3.725688159465789795e-01
3.484877314406030768e-01,-3.792128196457245082e-02,-2.330634314687984876e-02,3.281988502826351309e-03,1.085598816378793244e-03,-1.113465603247819867e-03,3.793649375438690186e-01
3.509217375270192174e-01,-2.729956845628661588e-02,-2.820490679600673456e-02,-3.865081374889850203e-04,5.806801385430195896e-04,6.127940649587335434e-04,3.786782026290893555e-01
3.479100096201934167e-01,-2.871095379069177334e-02,-2.546299307343014018e-02,-3.918377068685810255e-05,7.942619150453131662e-05,1.205783868016745706e-03,3.750133812427520752e-01
3.526622372019114215e-01,-3.294441685258422958e-02,-3.108298715141954993e-02,-5.569664684465626750e-04,-5.250869252755427288e-04,-1.825527086429444513e-03,3.846946060657501221e-01
3.486421275031309497e-01,-3.599876864193074510e-02,-2.537423313845743600e-02,-1.430051330605569722e-03,-1.645265268187124990e-03,-3.823510820527965034e-03,3.795167803764343262e-01
5.621592939334193462e-01,-6.150792960490070183e-02,-1.874508879648043025e-02,2.611514619229453088e-04,-1.716443829151237908e-03,3.893040995207121269e-02,6.071864962577819824e-01
3.525577778788276384e-01,-1.630997790060867425e-02,-1.647942203059851729e-02,-2.258262052739756602e-03,-8.881746255793374208e-05,3.170705221111952323e-03,3.690141439437866211e-01
3.520278411689991005e-01,-1.789117685624130871e-02,-2.240832282941987441e-02,-1.811956496831774977e-04,1.708956920744988256e-03,-1.226547066426033543e-04,3.722101151943206787e-01
3.507645226473771749e-01,-2.593857407164090745e-02,-2.948717155005634027e-02,-6.466229809026421147e-04,1.086096252355371128e-03,-1.723103841208612234e-03,3.785079717636108398e-01
3.513807785194182909e-01,-1.759787168055054751e-02,-1.724216238674564083e-02,-7.496186806243652087e-04,-1.052197205481493090e-03,3.395441862411008294e-04,3.688081800937652588e-01
3.502193726779409544e-01,-1.266019045681354704e-02,-1.635866833661744901e-02,5.936436161450831233e-04,-6.378601106214755672e-06,1.904944766443721852e-03,3.647592365741729736e-01
3.534938116637560968e-01,-1.183281157373108905e-02,-1.579975489228507834e-02,-1.069815412790820462e-04,1.945387080925360841e-03,1.008206694214958989e-02,3.677564859390258789e-01
3.512863606704483277e-01,-2.807687028491706593e-02,-3.408776790129641743e-02,-3.741501065276319989e-04,5.683793632514200873e-04,-2.424227519480886411e-03,3.824289739131927490e-01
3.557678879267088812e-01,-2.636887009601954213e-02,-2.789613122922235400e-02,-1.291510129337708132e-03,1.942356231665611291e-03,-8.809395308026032228e-04,3.829270303249359131e-01
3.504198000272847890e-01,-3.502444724431930112e-02,-2.679428696565691603e-02,-1.672040951704588906e-03,4.578086241586391391e-04,-1.106269369384214841e-03,3.814124166965484619e-01
3.520018348644664008e-01,-2.011241291668405817e-02,-1.316219448637423461e-02,2.560522351160624422e-03,3.090751215955823191e-03,1.471817534251805603e-03,3.687626123428344727e-01
3.446373397890135082e-01,-3.858482285897113506e-02,-2.446035689974540572e-02,-3.981834905909416127e-03,-1.761677294823633076e-03,-3.007450420237235255e-03,3.764703571796417236e-01
3.272901409088929126e-01,5.429408616533126786e-03,-3.621825274314402487e-02,-7.414048546840298903e-02,4.214244642013140196e-02,-2.754602037710372070e-02,3.779263794422149658e-01
2.998623118682190447e-01,9.596567783609927238e-03,-3.973618502776585237e-02,-7.730149192559708504e-02,-3.533608663325949438e-03,-1.749759500730337439e-02,3.462514281272888184e-01
3.546803788627525544e-01,-3.274742264155700022e-02,-3.105001615483587996e-02,-2.629079628898789911e-04,-3.572513052725792408e-04,-7.257120163360428634e-04,3.865846991539001465e-01
3.515418766854245813e-01,-3.297788108637395021e-02,-3.291685360745255640e-02,-1.514917720920438266e-04,-2.233434632230345078e-04,-4.413142249970762078e-03,3.845655024051666260e-01
3.786462610180791333e-01,1.543302036138652356e-02,-4.370079054885014913e-02,-5.448638846344784625e-02,3.158624024088813043e-02,-2.491921263228926223e-02,4.131115078926086426e-01
3.573065559055826346e-01,3.974562393462421905e-02,-7.951936384021601745e-02,-6.611101176601692775e-02,2.939512563316941385e-02,-5.860540653413189027e-03,4.107922017574310303e-01
3.331117453019574737e-01,-3.632785108726099832e-02,-2.188837748014627049e-02,-4.388118072166036969e-05,-1.940842353965625334e-04,-4.705959797777691141e-03,3.625274598598480225e-01
3.509497645211395733e-01,-3.307726062210480933e-02,-2.929730483241252403e-02,1.266699183312291598e-03,1.041318922218366187e-03,-7.314474552104414766e-04,3.821637332439422607e-01
3.716240189194300880e-01,-2.064268343209690881e-03,-4.389436531603055358e-02,-2.114283572224409311e-02,-1.554450307256468938e-03,-5.919446285653650990e-03,3.980923593044281006e-01
3.471841263417521639e-01,-3.593530801366445759e-02,-2.627252957915157672e-02,-1.049886447907230798e-02,7.041006197436916253e-04,1.243007460322304763e-03,3.788253962993621826e-01
3.542562407829915605e-01,-2.999889789855139655e-02,-2.758616211149772512e-02,8.365833389835869785e-04,-8.640459127032098022e-04,2.824566082214338236e-04,3.830604553222656250e-01
3.274070585385473464e-01,-3.332865006101815020e-02,-2.616557736847369142e-02,-2.287344601118591544e-02,1.455498738978724255e-02,6.388512451589796644e-04,3.602831363677978516e-01
3.526528958246217815e-01,-2.975297791854869534e-02,-2.796804538535457851e-02,-1.075313124333197650e-03,2.464759823490319949e-04,-6.667798329569674456e-04,3.815230727195739746e-01
3.548202682529503216e-01,-3.316006404157306742e-02,-3.052121637857699299e-02,1.264028724095857216e-03,-5.210186099783433800e-04,-7.305985380391944155e-04,3.866769969463348389e-01
3.047638681989735532e-01,-3.738387057577152728e-02,-1.601936127539622945e-02,-1.216489518706100233e-02,-1.020678950983086456e-03,-3.475941705711397926e-04,3.326546847820281982e-01
3.328191417867982782e-01,-4.121553737890079616e-02,-1.710937463394854308e-02,-5.589217122776552436e-03,-6.721992434967867048e-04,-1.176145890593226955e-03,3.627198934555053711e-01
3.273323674304222108e-01,-3.948250683338924705e-02,-1.695723293370968165e-02,1.423822937842196890e-05,-1.060584110255233378e-03,-3.965427045331585375e-04,3.560923635959625244e-01
3.363044177631459020e-01,-1.976812815229261888e-02,-3.178290028712915660e-02,-2.177907509720639762e-02,-1.245644617621027633e-03,-9.963830478519294410e-04,3.641988039016723633e-01
3.437746044471782780e-01,-3.898824190582431126e-02,-2.118544243761671941e-02,-3.458930282254703802e-03,-7.190541078004419710e-04,-3.041621688778892857e-03,3.742663264274597168e-01
3.511012308288794515e-01,-1.423596465042778481e-02,-2.775707650009243133e-02,-1.385353315370927915e-03,4.777276877844241964e-04,-5.403717745195837701e-04,3.722917735576629639e-01
3.532479908303673977e-01,-3.312819248644890968e-02,-3.027422665625634224e-02,-4.950239797821963817e-04,-7.551926652823184004e-04,-3.126427514564770766e-03,3.849984109401702881e-01
3.516878988788787463e-01,-2.282687479386777407e-02,-1.038350205757657130e-02,-2.175602887714135278e-03,1.093559599872130942e-03,3.973713305519066888e-03,3.685391247272491455e-01
3.832069588677527450e-01,5.931465174883882030e-03,-3.725824240152350586e-02,-4.829663953118168429e-02,1.776167056074030859e-02,-3.170187692697919168e-02,4.140721261501312256e-01
3.540559165375030126e-01,-2.679940338690667279e-02,-2.196608716409972906e-02,2.628665626000257030e-04,-1.999628015682449952e-03,5.339564168057282052e-04,3.784790635108947754e-01
3.234623719287189059e-01,-3.492822796369787763e-02,-2.063332303786771793e-02,-6.043197005288468600e-03,-2.195214120261325061e-04,-6.285485849911807976e-03,3.517857789993286133e-01
3.528604447057648308e-01,-1.635602563912472163e-02,-1.594976686945773214e-02,-1.751162310376516273e-03,-9.082061233592858378e-04,1.289782228374791902e-03,3.690360784530639648e-01
2.919705909507718800e-01,-1.712032631190898990e-02,-2.481046397088471078e-02,5.228353876107378088e-04,9.029438988013812131e-03,-7.700666410806631008e-03,3.136823177337646484e-01
3.005985020915472594e-01,-1.461523598373008770e-02,-2.999757962625895780e-02,4.742403085597659239e-03,2.409057871266628847e-02,-2.726872629795065034e-03,3.259998261928558350e-01
3.551927280309747359e-01,-1.849929564474300792e-02,-2.046572668536705830e-02,9.393806707842294532e-04,-3.244835045627271226e-03,1.946200098692994675e-03,3.747399449348449707e-01
3.522484456170538736e-01,-1.958947231102212139e-02,-1.779247586220372712e-02,5.290200818592177010e-04,-1.781098290866523631e-03,1.259665799405130506e-03,3.709630668163299561e-01
3.552952436421245586e-01,-1.284530200848185699e-02,-3.647022034208347030e-02,2.831052932755784204e-03,1.945449222848223952e-03,-4.448989400570671775e-04,3.805507719516754150e-01
3.519526118881916577e-01,-3.146635453463803023e-02,-2.979107120305418688e-02,-9.657990312530687505e-04,6.830099743065214677e-04,-2.091126800595920947e-04,3.825897276401519775e-01
3.509161755708148367e-01,-2.576537730789413283e-02,-2.616053954253047542e-02,-8.115176176948105460e-04,-5.033443330836844106e-04,8.834704914241016307e-04,3.768860399723052979e-01
3.333386733035251792e-01,-1.814822839049112790e-02,-4.116337445614445811e-02,-2.965949146010268172e-04,5.258665006278495126e-03,1.018559887712497738e-03,3.636600077152252197e-01
3.322354003569192860e-01,-1.693457833810649293e-02,-4.106590578580593398e-02,-5.665239922781713970e-04,5.552295856813754989e-03,5.954835008017447502e-04,3.619702160358428955e-01
3.438530148503384232e-01,-2.091454943546958156e-02,-4.154739400253792958e-02,4.774444055222809482e-04,4.997323748186901018e-03,1.740920187742706115e-03,3.756221234798431396e-01
3.608313550538362335e-01,-2.279817853252516513e-02,-1.928120032594016209e-02,-1.440261855594561534e-03,2.573505064167782436e-03,3.379591382106620582e-03,3.819622099399566650e-01
3.415034785847814724e-01,-2.538790030428517142e-02,-2.488686948383661557e-02,4.271334478906473400e-03,1.725693297002276003e-03,9.046332039133489445e-04,3.667312860488891602e-01
3.548312886441107872e-01,-2.581698058117620764e-02,-2.576915072544488927e-02,-1.345953859129750624e-03,6.156757123784893041e-04,-1.152469250072202895e-03,3.806382119655609131e-01
3.532098288195569258e-01,-1.503573382483489040e-02,-2.473564501476976929e-02,-9.497158317473984503e-04,2.553862964315642154e-03,3.446253769035910073e-04,3.732203841209411621e-01
3.498254475687536114e-01,-2.072575861900483041e-02,-4.027931115149813168e-02,-2.377356853012238275e-03,8.809790149481414728e-03,1.811103738812202060e-03,3.810456097126007080e-01
3.524609824817352965e-01,-3.555900492330710261e-02,-2.727013125169308605e-02,-2.081712595242073832e-03,-6.513325801324422112e-04,-8.990634486644081104e-04,3.839644193649291992e-01
3.527268782289738613e-01,-2.450311403791402554e-02,-1.528649177718124919e-02,3.737909308640290171e-04,-4.367023477051493619e-04,1.706317137732773484e-03,3.727202117443084717e-01
3.529822992521854386e-01,-3.243263409428442934e-02,-3.116728198742035882e-02,-7.153068681091918164e-04,-7.433578082556575439e-04,-1.729554290100773165e-03,3.847996294498443604e-01
2.628672169896105748e-01,-2.757963444985522816e-02,-1.398964687210510482e-02,-2.987030189557109139e-02,1.540147240799917897e-02,9.045184225356888916e-03,2.902251780033111572e-01
3.240807057852088113e-01,-1.674842320537178741e-02,-3.757134244542920110e-02,-1.561943606113528390e-03,8.859067455510360317e-03,-4.761075385072994083e-05,3.520481884479522705e-01
3.537375721494370739e-01,-2.151107678955110902e-02,-1.290283186083757139e-02,2.674850317968678615e-03,6.709024335177219594e-04,5.453445029951824131e-04,3.710513710975646973e-01
3.514084724697760787e-01,-1.513596836692795988e-02,-2.016916875843596801e-02,-6.533253503756478306e-04,9.467009907868052191e-04,1.316168830945410291e-03,3.690991997718811035e-01
3.547394494271781107e-01,-2.645720915329607958e-02,-2.440937813764368358e-02,-1.291185606569592113e-03,5.043571294436319024e-04,-8.800141702979210907e-04,3.801875114440917969e-01
3.549488676423638855e-01,-3.286254389077411520e-02,-2.764650871384283226e-02,-1.318014588026209704e-04,-6.533510914127167377e-04,-1.592506329600739973e-03,3.852414786815643311e-01
3.505760193201775121e-01,-2.300218869237230512e-02,-3.737780512320290627e-02,1.214186270396281882e-03,1.222588028045604354e-02,2.547235851982152920e-03,3.815888464450836182e-01
3.439723874532251702e-01,-2.114831313981957450e-02,-2.974531466008145664e-02,3.684241303749613236e-04,-3.088823534113363436e-04,1.137574853431312600e-04,3.694952130317687988e-01
3.666780218777367928e-01,-2.460976668186437566e-02,-4.332525498382533424e-02,8.162773748385250550e-02,5.885215916103227196e-02,4.170804110030376655e-02,4.431458115577697754e-01
3.546194057724449400e-01,-3.367726468300133447e-02,-2.965109901255219560e-02,3.276968793947443491e-04,-1.065821563282723199e-03,-7.676500585618394436e-04,3.863064348697662354e-01
3.555181754190513410e-01,-3.092546549880895168e-02,-2.971170803888836809e-02,-4.133702513891512843e-04,-7.323543313950121826e-04,3.523974812301157683e-04,3.858414292335510254e-01
5.418707874619304032e-01,-3.449955601525028781e-02,-1.980900003054941738e-02,-5.344933036681578931e-02,9.310497028714573298e-03,3.920407052997799263e-02,5.808552503585815430e-01
5.336791215000477040e-01,7.653160139544479268e-03,-7.653920747805487146e-02,-1.817318496799291694e-02,9.371104865417539606e-03,-1.395657877362699480e-02,5.743845701217651367e-01
3.405629970991695954e-01,-1.918407360813187412e-02,-4.239439678126130651e-02,5.415363637831361156e-04,5.768440785034753028e-03,-1.058943821213836206e-03,3.720357418060302734e-01
3.402227194155226786e-01,-1.724951806419428024e-02,-4.129725933096883850e-02,-3.877337542121662138e-04,4.816534678886806066e-03,5.890047900746893340e-04,3.701785802841186523e-01
3.549007788234590510e-01,-2.723373607155921139e-02,-3.164117871394686587e-02,1.054766566344236215e-03,2.708204894662356757e-04,-1.034681645648339232e-03,3.843660056591033936e-01
3.541503474648738936e-01,-2.254919556327375507e-02,-2.591781594866482408e-02,9.351624201650141251e-04,5.560135389618601175e-04,-1.584490555735197041e-03,3.784097433090209961e-01
3.514961429601434761e-01,-2.776612967705155421e-02,-3.157598903596900430e-02,2.391506140360044608e-03,-2.954112567901238679e-04,-1.575668868381121106e-05,3.812043368816375732e-01
3.538143818919756711e-01,-2.701481813152162292e-02,-3.470388976660013225e-02,6.311720248187188513e-04,1.273924458050580601e-03,-1.373543418096509310e-03,3.847466111183166504e-01
3.268243497468834580e-01,-1.678087768207817132e-02,-3.942354502846392994e-02,-6.892057798299974780e-04,-6.485805126183399337e-07,3.496305016428986326e-04,3.554703593254089355e-01
4.247980026857240410e-01,-2.648487336748373000e-02,-2.047645537816702999e-02,1.366290256941610172e-03,1.364500951406304868e-02,3.086764918557939955e-02,4.521099925041198730e-01
3.516361581771787481e-01,-3.313689922333282190e-02,-3.273874312155156119e-02,1.190302605300778483e-04,1.012483902428935320e-04,-4.496410124418008178e-03,3.846530914306640625e-01
3.532464992081971733e-01,-3.040612954580021454e-02,-3.308922399173994111e-02,-4.816372475442739619e-04,3.711259739040523016e-05,-2.950467744880159093e-04,3.850024342536926270e-01
2.703682739871651197e-01,-9.951131734009840968e-03,-2.286878120637041156e-02,1.241598378509052407e-02,1.338311405589169556e-02,-5.476645297972692131e-03,2.888886928558349609e-01
3.394091945196688886e-01,-1.792675851937985954e-02,-4.329171045042906618e-02,-3.881922992165836792e-04,4.021982097822444598e-04,-7.437256583220364092e-04,3.706733882427215576e-01
3.345002296127477792e-01,-1.974790862488873255e-02,-3.869157897014155467e-02,-2.207803917084015868e-03,3.837703037512730370e-03,3.496346339355932680e-03,3.642208874225616455e-01
3.423522807679603708e-01,-1.965885959931149007e-02,-4.256343839348242231e-02,1.924068321602402122e-04,1.547659358883883606e-03,-1.553356589692622030e-04,3.739996850490570068e-01
3.486846276606679340e-01,-2.315250767890325578e-02,-3.181806681236387657e-02,1.094643881951701953e-03,-1.065044462206437854e-03,1.823047643051679237e-04,3.762542009353637695e-01
3.211565582802575758e-01,-1.737852356684818633e-02,-3.837165699303102251e-02,-1.418872430894720137e-03,-1.298799146824844150e-05,-2.395642912900556708e-03,3.495380878448486328e-01
3.082136747753067563e-01,-1.316789184571405535e-02,-3.676015899118878494e-02,-1.596235023552742269e-04,9.488878609827710101e-03,1.645920412052094420e-03,3.342202007770538330e-01
3.363332645093463080e-01,-2.792029939257717475e-02,-3.216744334903925973e-02,-5.473551546063434815e-04,2.551664563404746396e-03,-6.764413129551725620e-03,3.666107356548309326e-01
3.501685784363490206e-01,-7.726853371957637107e-03,-2.066572989782100578e-02,-7.100056675194767490e-04,-2.618207175371833266e-04,2.970317412234951566e-03,3.645758032798767090e-01
4.066854390528712448e-01,-5.032646387743139327e-02,6.946847288246099650e-03,-1.016043799006708563e-04,3.073354469197333433e-02,2.148379047442697601e-02,4.361007511615753174e-01
3.395183636777920344e-01,-1.888080691577198600e-02,-4.190256059614794193e-02,6.278266370410438878e-04,-5.211000037378480656e-04,1.273492793696116192e-03,3.704562187194824219e-01
3.121049962841893621e-01,-1.886081925989116503e-02,-3.668047794205803180e-02,-1.657303286440523589e-03,9.735609590774241262e-03,3.162078198080738034e-03,3.406995534896850586e-01
2.599098748338044551e-01,-4.877852139400445930e-02,1.603777090155363017e-02,5.527373152145921564e-02,8.810792040175738360e-02,1.083451260513498479e-02,3.350945711135864258e-01
3.496267265099824439e-01,-3.157734863236613676e-02,-3.400050642532739809e-02,1.691996740310970290e-02,-2.427480715427453306e-02,-6.779764057162220893e-03,3.860190212726593018e-01
3.355671178465575166e-01,-2.161339486658386821e-02,-3.953898203898614794e-02,2.138320567539262525e-03,4.549363258633600492e-03,-1.666295239907071351e-03,3.665870428085327148e-01
3.068929352943373656e-01,-2.012323306138398549e-02,-3.562797478252269223e-02,-8.888979078337157919e-03,3.658963663908930408e-02,3.680621234752186246e-03,3.413859307765960693e-01
5.183844089712699166e-01,-3.522613382690981121e-02,-1.187524305672493785e-02,-3.581444499415398913e-02,6.479357299539358420e-03,-3.402088552874762972e-02,5.491346120834350586e-01
3.430781304034508650e-01,-2.127174432860645670e-02,-4.073508807351078342e-02,-6.006351717327063685e-04,1.304622985598765219e-03,9.550235647105371692e-04,3.744730353355407715e-01
3.534828891931476869e-01,-2.819046731219509994e-02,-1.708533648875854016e-02,1.227044571240923972e-03,3.914566799435720279e-03,-3.342509934873834181e-03,3.763553500175476074e-01
3.595330960001319465e-01,-2.105270583311955046e-02,-1.072115687048358357e-02,-1.602102018155575998e-03,1.926897314132725969e-04,-7.269993212883026079e-03,3.757480978965759277e-01
3.356593635401237119e-01,-2.097441255653126335e-02,-4.044264573140896046e-02,-6.843846029741719071e-04,5.168840842318770355e-03,2.116428531114743824e-03,3.668851256370544434e-01
3.539130117200099956e-01,-2.580591530147949286e-02,-2.258674758305390107e-02,-3.417507915119831117e-04,-1.505828319056132713e-03,-1.011903476864452200e-03,3.781331479549407959e-01
3.586108420244439876e-01,-3.000909486409322757e-02,-4.707419696717507485e-03,3.014789428895961639e-03,-5.313602348594151543e-03,-1.448066487935239371e-02,3.775896430015563965e-01
3.652480077570205985e-01,-3.502230394369859612e-02,-1.659543689789397258e-02,6.627615770761639737e-04,-7.516959891225971201e-04,8.937406498138227235e-04,3.913892507553100586e-01
3.576225378965787738e-01,-2.914291409222544149e-02,-1.298619804874515116e-02,2.006468759144268248e-03,-3.979550645179636380e-03,-1.957728866176479225e-03,3.790392875671386719e-01
3.514488201012045399e-01,-1.386760856489974159e-02,-1.171555598893533889e-02,-2.473824167570466519e-03,1.411905265505514900e-03,-7.539639604275006658e-03,3.645125925540924072e-01
3.540024232019140515e-01,-2.462554108411152409e-02,-2.445475643207653538e-02,-1.289972542910905592e-03,-5.298147651932568272e-04,-6.939154345718495610e-04,3.785522282123565674e-01
3.537957827347785744e-01,-2.642838915522918719e-02,-2.769659956642178678e-02,-4.398977710650203926e-04,-6.506292254369061296e-04,-2.501032719873549481e-04,3.808625340461730957e-01
3.426907863252335873e-01,-3.468016694745426620e-02,-2.517219346423507642e-02,-5.528383448205034280e-03,4.841549128735256509e-03,5.327051891888127770e-03,3.730393350124359131e-01
3.578709025921707476e-01,-2.957162261102119771e-02,-1.105402538371463850e-03,8.784556631085268467e-04,3.715135405532166493e-03,-2.709171864596592039e-03,3.741106092929840088e-01
3.130176895607435505e-01,-3.009006776527609062e-02,-2.025226110977898508e-02,1.533108855223233591e-02,-1.447552873740839616e-02,7.508492795521360015e-03,3.405101597309112549e-01
3.340271230575497241e-01,-3.860087082137589332e-02,-1.957740574872468553e-02,4.113402704224302514e-03,-2.546107991157823495e-03,3.577328338139982005e-03,3.636391460895538330e-01
3.472340056559328203e-01,-2.695855051258930213e-02,-3.631668570292434506e-02,-1.374786969342013578e-03,1.256303976412718971e-03,1.067421071709441591e-03,3.789765238761901855e-01
3.544476861613025109e-01,-3.154271279297987673e-02,-3.328430373277613263e-02,9.387115276235854863e-06,-1.853505278754850828e-04,9.742962814783643092e-04,3.868679404258728027e-01
3.415376348238564064e-01,-3.587399839503427335e-02,-2.572463560590440568e-02,2.734343003889541657e-03,-2.110940917441611782e-03,3.896282788057944899e-03,3.725498616695404053e-01
3.537957586950380429e-01,-2.726503324350201818e-02,-3.423082950087097398e-02,4.554087220892781562e-04,1.458856526387298678e-03,1.144272363434007062e-03,3.846052289009094238e-01
3.940535819139776019e-01,-2.746290676771773187e-02,-2.175260414371243956e-03,6.602234554011089662e-02,-7.919730062256780112e-02,-3.557097720497176541e-02,4.509388208389282227e-01
3.545181945074352692e-01,-3.101009153840025845e-02,-3.078864909765441360e-02,8.607296417255695664e-04,-7.920712789509138404e-05,1.412205062886399249e-04,3.854205906391143799e-01
3.640317227611430950e-01,-2.986603899033160592e-02,-1.181338672378126620e-02,-7.078509489316041001e-03,1.295020268506507418e-03,-6.908845771890479749e-03,3.855761885643005371e-01
3.535037926249613438e-01,-3.136650844209482036e-02,-3.230508052589262102e-02,4.697258674588489398e-04,4.853390782184487497e-04,2.788202067431222106e-03,3.853724896907806396e-01
3.540124779445137926e-01,-3.186299158315780700e-02,-2.725859765091265263e-02,-1.092383983733794016e-03,-8.282857612368549121e-04,7.596781492568547190e-05,3.836013674736022949e-01
3.515216550158891118e-01,-2.986162225212871113e-02,-3.326232354774960598e-02,-7.250933260141047146e-04,4.503474566927980838e-04,8.285900363613125409e-04,3.831004798412322998e-01
3.498271111000774147e-01,-2.695719887991912533e-02,-2.862927288657379776e-02,-2.727090184399029595e-05,5.959106105590507513e-04,2.783791632246209792e-04,3.776248395442962646e-01
3.525038639722296585e-01,-7.801892456345271842e-03,-2.042404975399733646e-02,-6.367361549600758551e-04,3.291698099542291530e-04,1.480309649265986209e-03,3.667908310890197754e-01
3.551541736663291204e-01,-2.748855442610173561e-02,-2.438659784345181825e-02,-1.602200657386466682e-03,1.131000086806371180e-03,-7.487459772082652497e-04,3.811185657978057861e-01
3.501206546561182464e-01,-2.677575160431311385e-02,-3.349576657089442522e-02,-1.722146671921196987e-03,6.659144394983708588e-03,2.918764773913282758e-03,3.805210888385772705e-01
3.436651057563978040e-01,-2.553908039233737659e-02,-3.665034429243296810e-02,-1.686004464196793912e-03,-2.561410985957079185e-04,9.677189384006998178e-04,3.748987317085266113e-01
3.535856145075519930e-01,-2.748000180407603188e-02,-2.598571799024304574e-02,3.511430202702334039e-04,-2.138320277407821952e-03,7.125275304311258246e-05,3.803392052650451660e-01
3.371251230886275208e-01,-2.468972240900130233e-02,-3.514900851382168900e-02,-6.397199146880085466e-03,8.374147732730426869e-03,3.769004937799279482e-03,3.676676154136657715e-01
3.322944439683268025e-01,2.817048845418601566e-02,-4.531340187815921516e-02,5.330769019518344365e-02,-1.053139668853183934e-02,-6.799990748249308548e-03,3.594941496849060059e-01
3.496699074904705551e-01,-2.508113895064401078e-02,-3.029866267331890461e-02,1.474814572682836989e-03,1.515586500452640673e-03,-7.305479886126906366e-04,3.774067461490631104e-01
3.551348675623709483e-01,-2.928169645288375422e-02,-2.787751237223987100e-02,1.748815312859711038e-04,1.165073457235234027e-03,-7.665096409952600878e-04,3.837241232395172119e-01
2.761858788167948497e-01,-5.448810931367301102e-02,1.737949654038534186e-02,-1.750084274842276036e-02,-1.055984473713558885e-01,-3.087412482237349154e-02,3.577388226985931396e-01
3.496731578109468774e-01,-1.424111609129941058e-02,-1.751432854643564241e-02,2.460829550666626504e-05,-6.314309844234954018e-04,1.225736415385212828e-03,3.655696809291839600e-01
3.539827972267164391e-01,-2.502227456952563212e-02,-2.180322724351252406e-02,1.401907731632356620e-04,-1.087670124214147648e-03,-2.864796422609637789e-04,3.774109482765197754e-01
5.016453718392375194e-01,-6.852671952936567612e-02,6.077534181170296534e-03,3.075523251479757303e-02,8.094423325124174007e-02,3.428430034373024238e-02,5.604860186576843262e-01
3.506407190458929457e-01,-1.177253701451630441e-02,-2.158752955534468110e-02,-6.462188294667796026e-04,-4.095856493699923107e-04,2.718239032441194161e-03,3.674516379833221436e-01
3.542211738848760061e-01,-2.092039622281588462e-02,-1.168048176623440182e-02,-2.751151664250818703e-04,8.309652690680397911e-04,1.748793402846172225e-03,3.706234991550445557e-01
3.529289864454781545e-01,-2.829986669291748025e-02,-3.382660661509906408e-02,-1.956249515914195661e-03,7.092834607524551834e-04,5.322746904713469883e-04,3.840400576591491699e-01
3.133780785046076378e-01,-2.315295918524354346e-02,-3.186383217930760514e-02,9.498165388673387999e-03,-2.179394065870612560e-02,4.941235603372739343e-03,3.435539603233337402e-01
3.212300547804706197e-01,-1.994275487404076341e-02,-3.508725502719567402e-02,3.434900201359606677e-04,-7.389214258574895722e-03,5.482949530589057048e-03,3.493558168411254883e-01
3.414991320062716329e-01,-2.583096070516371912e-02,-3.573478320605869007e-02,2.545195526906251799e-03,-2.152273142525817657e-03,3.762643003837576067e-03,3.724825680255889893e-01
3.552841037646328748e-01,-2.604845834694943796e-02,-2.428337859775661633e-02,-3.219768028478873795e-03,2.461851089805510828e-03,-8.671795666164517150e-04,3.805208206176757812e-01
2.836758630839824047e-01,-1.567455437395133544e-02,-2.239997603319504593e-02,1.275071302707102977e-02,-1.255031722438277632e-02,9.697946863079219895e-03,3.048140108585357666e-01
3.414613247027373233e-01,-2.148556972061851922e-02,-3.975729634100561016e-02,-1.280548515965429512e-03,4.520033589121383311e-03,-1.745810950468618290e-03,3.725202381610870361e-01
3.241363840464447921e-01,-2.016379063183448839e-02,-3.598771417308160858e-02,-2.292771321741276613e-04,8.457985966051267956e-03,4.761266266490550222e-03,3.528795242309570312e-01
3.665331872936405944e-01,-2.156223329298947999e-02,-8.131287819351934454e-03,1.928894235486272243e-02,2.375329493556797150e-02,2.746877883064615875e-02,3.881474137306213379e-01
3.506604452189441834e-01,-1.907571437492167066e-02,-1.163764797405750229e-02,-1.271445840043900497e-03,-1.703417108778936472e-04,2.227226087199636519e-03,3.661008775234222412e-01
3.535148870635944074e-01,-2.747821745812301097e-02,-3.335229581900908680e-02,1.840194037150438399e-03,-4.374671962791941773e-03,2.587782338665806613e-03,3.840779960155487061e-01
3.245002715841511232e-01,-2.517838056677201841e-02,-3.495214194909848637e-02,2.422129404573029887e-03,-7.746070452665542935e-03,5.147093406249705037e-03,3.550569713115692139e-01
3.542554731083594199e-01,-2.915268309997892660e-02,-2.598277615253236084e-02,-8.673153794349138402e-04,4.105866228207712826e-03,8.231928928810696062e-05,3.819022774696350098e-01
3.431509181001345388e-01,-2.333711784615952189e-02,-3.883537963552899375e-02,5.449429077589476285e-04,-1.227757095480785932e-03,8.086647483136002752e-04,3.744876086711883545e-01
3.533904636176100622e-01,-3.053689183323193834e-02,-3.332594555461462771e-02,2.407190658883923682e-04,-6.335888473944685387e-04,2.939972088494927863e-03,3.853648900985717773e-01
3.316692364739492471e-01,-2.015366343378313663e-02,-3.721264033658155945e-02,7.113059466861208465e-04,-8.768717750803600372e-03,3.315912032856878529e-03,3.610225319862365723e-01
3.480262399630763559e-01,-2.606183324224220499e-02,-3.589208764799189932e-02,1.023251349695757139e-03,-9.594497498284135749e-04,3.712657109407616497e-03,3.791611194610595703e-01
3.501130677440288941e-01,-2.405308319601565104e-02,-3.416322927054288305e-02,8.989274884705663986e-04,4.208567174918693109e-03,9.351921547907240213e-04,3.793989717960357666e-01
3.473039390224104128e-01,-2.126498788973835152e-02,-3.750255930234092094e-02,1.440856405534476567e-03,6.257524646481524982e-03,8.744267351715634710e-04,3.771171867847442627e-01
3.443059592322745832e-01,-2.519222298983361807e-02,-3.311232717629555844e-02,2.591002355617834461e-03,-3.329330096870848285e-03,7.291646722204394963e-03,3.738060891628265381e-01
3.442694439105968840e-01,-2.591483563422736225e-02,-3.608309121822483867e-02,3.507135886127581452e-04,-5.682316605512344014e-03,5.273603950915341232e-03,3.756122887134552002e-01
3.514492124655997363e-01,-2.681543511977152461e-02,-2.918591713967969015e-02,1.163856708537837998e-03,3.162253064118045686e-04,1.966644636961519096e-04,3.794613480567932129e-01
3.218787843767599854e-01,-3.864757200669483028e-02,-1.375721535688791131e-02,-6.873513769632785169e-04,-1.847109285789822733e-04,2.614620256506404884e-03,3.487795591354370117e-01
3.633695540402981372e-01,-4.006300955053304635e-02,8.780546844962461295e-03,-1.570060461927419351e-03,-4.283015784524453473e-03,3.347787322942668637e-05,3.814457654953002930e-01
3.576118507199538832e-01,-2.854341442014182717e-02,-1.595386812474899885e-02,-2.850710219954569972e-03,4.904344115722752712e-05,-2.448926143073567891e-03,3.800726830959320068e-01
3.595912389352098337e-01,-3.326125260612544654e-02,-1.341287821937686697e-02,-9.194663986894649824e-04,-3.859348798526607977e-03,-1.773840080419334655e-03,3.833878040313720703e-01
3.432813604262069940e-01,-3.091600972112165668e-02,-3.195564324385311017e-02,-2.236628166724680990e-03,2.620158269496807610e-04,4.664227268205501167e-03,3.748256266117095947e-01
3.490192603402932914e-01,-4.010249665754672677e-02,-2.562394015060295849e-02,5.516739744552493115e-03,-1.500518669753965343e-03,8.879085826229565770e-04,3.822196722030639648e-01
3.673859037417593343e-01,-3.948177246654613337e-02,5.505352897537979517e-03,1.096427621526160912e-03,-1.452694472840975175e-03,-1.606619275527665022e-03,3.863664269447326660e-01
3.522417669412368779e-01,-1.972486929146752277e-02,-1.738965790135638123e-02,3.766405107361243512e-06,-2.149352807111739629e-03,-1.760444607089957847e-03,3.708357810974121094e-01
3.619485514256328695e-01,-3.845743464670545175e-02,9.429328692136126899e-03,-4.190975411786244421e-03,3.718558994704662668e-03,-1.974658472005244580e-03,3.788796961307525635e-01
3.549516427951857622e-01,-3.006060663438345215e-02,-3.094674212554260340e-02,7.782721849926128540e-05,4.190985113120233386e-04,4.798527001155644938e-04,3.854576945304870605e-01
3.748215263662660335e-01,-4.126223571746603924e-02,-1.764394097826230134e-02,1.280901696261728916e-03,4.440709264511901247e-03,5.802042647837027389e-03,4.049955606460571289e-01
3.325730891169926817e-01,-2.165133601582386325e-02,-3.282502322890148982e-02,5.866234676661050661e-03,1.475108039206282293e-02,-3.644641717578148057e-03,3.610452413558959961e-01
3.624229357070272162e-01,-3.041306080824870972e-02,-2.863619968860620091e-02,-1.056847672898658750e-03,1.402756018786789627e-02,5.064419732771811237e-04,3.927081525325775146e-01
3.540694611960658045e-01,-1.704254114573069967e-02,-1.814675108784205571e-02,9.343278200968410316e-03,-1.094278172976357114e-02,-2.388904140110347310e-02,3.747910261154174805e-01
3.534424812963524731e-01,-2.781581793572027173e-02,-3.097856317418429262e-02,5.006511252143173909e-04,7.695664504091676017e-04,-8.905265673457025001e-05,3.828527927398681641e-01
1.165392476016222367e-01,1.080114408010559093e-02,-4.581399685716118497e-02,-2.795767553309367465e-02,-2.414655516134366076e-02,2.688345349618330785e-02,1.632005572319030762e-01
3.552711557175452506e-01,-3.181599535758788955e-02,-2.971237366407297742e-02,-8.212739341020892665e-04,-1.360633547082833769e-04,7.014241289114167771e-04,3.860442340373992920e-01
3.541304669497807867e-01,-3.064272508036686160e-02,-3.565382064586614108e-02,7.457927507996071686e-04,-1.204102496171580682e-03,9.766868794395949793e-04,3.873145282268524170e-01
3.534072420405704462e-01,-2.242349643030028261e-02,-2.268795770169310111e-02,1.054488820262801168e-03,-7.450505252026747840e-04,-1.051145913718634628e-04,3.759697377681732178e-01
3.523351993669642246e-01,-2.712363169932327511e-02,-6.656081106809652592e-03,8.048714144493866740e-04,1.512176660668591507e-03,-2.746120431869100275e-03,3.696928024291992188e-01
2.143433307047653419e-02,1.465065445108708342e-02,1.473609859230866001e-02,1.279734549514096632e-02,3.363700404995774440e-02,1.693292599053479019e-03,6.276709586381912231e-02
2.705784989461361700e-01,-9.976901092467946319e-03,-1.584247664267769695e-02,1.468193507491072011e-02,-6.778888451515775997e-04,6.167137652575561783e-03,2.848745584487915039e-01
3.571004172943411659e-01,-1.946652584948554976e-03,-2.756218680110952834e-02,1.856241510693588340e-03,-2.938320474790032067e-04,3.068952374455215324e-03,3.725681006908416748e-01
3.574656890414437682e-01,-2.873077609138796618e-03,-2.824958745593053600e-02,-2.854311464649161162e-03,-9.342488721537007580e-04,1.771712410795101217e-03,3.737226426601409912e-01
3.539849306601298151e-01,-2.734010976398826287e-02,-2.570851579522914765e-02,-8.966900859864632926e-04,3.133051682766033793e-03,-2.509013427114141948e-04,3.805539906024932861e-01
2.755575315761903399e-01,-1.021978994044614453e-02,-2.650245814219856499e-02,7.639130666772905170e-03,-1.894996827701812825e-02,3.269434398330754114e-03,2.964312136173248291e-01
3.553251755994973338e-01,-2.740440666092025523e-02,-2.574827172368185368e-02,-1.530241188548361875e-04,3.170605897655306808e-03,-2.521675581776571169e-04,3.819440305233001709e-01
3.056610855764812507e-01,-1.696604538732676692e-02,-3.211776465687377069e-02,-7.985406323202282226e-04,-3.261397235423237756e-02,-4.554799946310418915e-03,3.353525996208190918e-01
3.059470563472593274e-01,-2.649430366130006709e-02,-2.429479763380781865e-02,1.221615899159384476e-02,1.589848984979078464e-02,-8.348067940101407125e-03,3.334755599498748779e-01
3.483530519924317170e-01,-2.765608697781918313e-02,-3.328280584874368508e-02,3.003563840327974199e-04,2.451838024070578993e-04,-1.518618678997601642e-03,3.788635730743408203e-01
3.536443146934102333e-01,-2.162066165194878598e-02,-2.255165737233841283e-02,-1.589612728996038678e-03,-1.389313689385978734e-03,4.550049736065503165e-04,3.757499456405639648e-01
3.516410131606105272e-01,-1.595767755490026807e-02,-1.502747575737203856e-02,3.034866424683980470e-03,2.385781393089958166e-03,4.614144668163253603e-03,3.672823309898376465e-01
2.639658851603441936e-01,-5.596898247943488114e-03,-2.569580231715706820e-02,-7.832990975360407636e-05,-2.090472465708074351e-02,4.745879543015955708e-03,2.826032340526580811e-01
3.099926540040409129e-01,-2.467598975828202978e-02,-1.003170771052593058e-02,1.542919926982914969e-02,3.120301119871272261e-02,7.772132778904912095e-03,3.333659470081329346e-01
2.395541170232412254e-01,-8.057333568434216220e-03,-1.227035337489797151e-02,7.444699540156233045e-03,-1.716035506152072815e-02,7.098150581398464214e-03,2.521373033523559570e-01
2.240740043895388389e-01,-8.922097355624630799e-04,-5.657933723937455528e-03,-1.173029696268696229e-05,-1.393914227908390688e-02,-1.530144415939945672e-03,2.286800444126129150e-01
3.363381710821427006e-01,-1.743186702295607127e-02,-4.744853018344069584e-02,-9.980500481769111198e-02,-5.199179187449948225e-02,4.215869894081867436e-02,4.242615401744842529e-01
3.388250902037139300e-01,-3.992136740974389086e-02,-2.029162247341353975e-02,6.081632629028565357e-03,-4.417400559951536456e-04,1.835848499765355135e-03,3.694877028465270996e-01
2.313546718277829373e-01,-9.814983497697105097e-04,-7.382635928254763225e-03,-7.857569523396656539e-04,-1.648220268697377089e-02,-3.735239896152794774e-03,2.374173253774642944e-01
2.159098178130593459e-01,-3.156145942949106775e-04,2.901382707743427325e-04,1.086951364217344715e-03,1.597411554435396001e-03,-2.035182488296478735e-03,2.159778922796249390e-01
3.465366500989511267e-01,-3.756618658788898890e-02,-2.207785892712579856e-02,8.801196906194491687e-03,2.234210284147026800e-04,-1.442987298703998778e-03,3.769145011901855469e-01
3.544674433414413128e-01,-2.399479463626510989e-02,-2.087157710920167775e-02,-1.789327806733975908e-03,-2.646750256081161715e-03,8.598271706877298661e-04,3.769538998603820801e-01
3.332112831763952010e-01,-3.973050806948677516e-02,-1.716128759887108890e-02,5.484466299059412991e-03,5.906100423907692651e-04,1.181207698730096659e-03,3.623167276382446289e-01
3.805113027846599438e-01,-4.131407998242503377e-02,-5.416435740735442428e-03,5.785323293364367722e-03,-1.303124529782179880e-02,-1.449784852812126962e-02,4.065995216369628906e-01
3.577724616312823458e-01,-3.369005731273827520e-02,-1.127342099448899737e-02,-2.942168652180289588e-03,5.576608854566921826e-03,1.710082825691210855e-03,3.809175491333007812e-01
2.904022825779474237e-01,-2.523198212303823240e-02,-1.811878154429931442e-02,4.468924140004554985e-02,-8.547100017526577595e-03,5.337320916113629237e-05,3.219331800937652588e-01
3.380763181261517980e-01,-2.486989251395416156e-02,-2.900339974168730794e-02,-5.445419377683859835e-03,1.710487798249730323e-02,3.544377733405814843e-03,3.664036691188812256e-01
3.374159213572914817e-01,-1.035751278058891223e-02,-2.907389199344059816e-02,3.154409512374167085e-02,5.631689931795469395e-03,3.293364813320849484e-03,3.618266284465789795e-01
3.360405197996698679e-01,-3.889778079931760502e-02,-2.120433483829167742e-02,1.404347004823878944e-03,1.426765272164328595e-03,2.031512012246616990e-03,3.664454221725463867e-01
3.531738541021717248e-01,-2.692715727666050718e-02,-3.373314080607936472e-02,1.423110845042236273e-03,-2.711296523278358336e-03,-1.253567448554497501e-03,3.835920989513397217e-01
3.474896645811400564e-01,-3.612858135306049046e-02,-2.478044915032653894e-02,8.783747481783125283e-03,-4.278098479659143277e-03,1.814930526271340931e-03,3.784635365009307861e-01
3.595784857022278902e-01,-3.237181151697693382e-02,-6.269355178386670779e-03,2.202641160240184377e-03,6.802054345023711077e-03,-4.026678988731300073e-04,3.797754049301147461e-01
3.380664039141290100e-01,-3.988184388663076896e-02,-1.733700935674986621e-02,5.734567845573491744e-03,8.828487268209743791e-04,1.194405859564491796e-03,3.673385977745056152e-01
3.543390720510612990e-01,-2.409152280367582444e-02,-2.223009838969819407e-02,2.704210196303934340e-03,-1.018154701149324212e-03,-1.945406459369748622e-03,3.775515258312225342e-01
3.561211190434504514e-01,-3.027896039428673580e-02,-1.317877615668205937e-02,-1.950861274549111225e-03,1.378687587676555651e-02,-1.026590712957683657e-02,3.793253898620605469e-01
3.563995206559406048e-01,-3.340067082080730443e-02,-1.190654414801675665e-02,-6.071384223786975695e-04,9.527768279647004165e-03,-4.408904355959700899e-03,3.799467384815216064e-01
3.541791651872711055e-01,-2.722768068302999778e-02,-2.822602276992769443e-02,-1.587632143853093074e-04,-1.455457557829504655e-03,1.477786283295930798e-03,3.819240033626556396e-01
3.520010098957733202e-01,-1.568483242037446712e-02,-1.618960339876635013e-02,1.883981330489736122e-03,-7.750019856658555643e-04,-1.478420568614244920e-03,3.679643273353576660e-01
3.502990215252584916e-01,-1.307633974650140862e-02,-1.669516252089653374e-02,-6.740273324697427116e-04,1.080867007169148525e-04,-2.098588929876216581e-03,3.652182221412658691e-01
1.111090171147303407e-01,4.133688078992635295e-03,-6.082109981883909722e-04,-3.854332813927711238e-02,-1.087554827490455275e-02,8.647083964396864303e-03,1.304200440645217896e-01
3.546438438080117828e-01,-2.713674349973224653e-02,-2.430921974190189405e-02,2.459669529030289676e-04,3.680006844187271725e-03,-1.954962478333226031e-04,3.804284930229187012e-01
1.993989223083065532e-01,-1.013485932287910840e-02,-4.379999068540071927e-03,-4.728553170800915001e-02,2.223647294155131713e-03,9.831675144381297506e-04,2.223897129297256470e-01
3.466904301303667113e-01,-5.443660150087764604e-02,1.502671627955276534e-02,4.014987718573587855e-02,5.777552240416072848e-02,2.084829605633875538e-02,3.924518525600433350e-01
3.550849302636515104e-01,-2.805457208875603015e-02,-2.573702726921439643e-02,2.126752553083253224e-04,1.261186261721684333e-03,1.549476985642825972e-04,3.819925189018249512e-01
3.863803972703037659e-01,-3.292766888101716916e-02,-1.795407425777467703e-03,-1.937158938793850406e-03,6.274196411212060176e-03,-1.758539424636613654e-02,4.059452712535858154e-01
1.829457696632710573e-01,6.672384801891070860e-03,-1.688710380467775551e-02,-6.141720372177808529e-02,-5.850567671653047509e-03,4.248508934741763825e-03,2.173782885074615479e-01
1.926947972878874649e-01,1.573200218319129734e-02,-1.573545431317877052e-02,-8.712413148943946861e-02,4.485533619867630023e-02,-1.321756631758530184e-02,2.592422664165496826e-01
2.363455405761334116e-01,-2.137382994897794875e-02,-7.911090882362192822e-03,-4.231530823026925792e-02,4.322120444156504586e-03,4.314139112224429982e-04,2.618382573127746582e-01
2.661412216616131365e-01,-2.533737320026838158e-02,-1.085419576348090054e-02,1.425103367926214976e-02,1.197588445621506660e-02,-6.070845731608677347e-03,2.865276634693145752e-01
3.503321946897337558e-01,-1.444856475971956211e-02,-1.560188955198560379e-02,-2.098814520912870734e-04,-8.392420494415424662e-04,-9.531051744101333521e-04,3.653655946254730225e-01
1.809489823981220435e-01,-1.363327139241300723e-02,1.504551845805168764e-03,5.425948806425602566e-02,1.256805460663060203e-02,-3.953709816528150345e-03,2.109476178884506226e-01
2.168834395725484643e-01,-1.180060506284913435e-02,-3.804372387066462524e-03,2.295389425303706599e-02,-2.676028991179903779e-03,-3.412039679303884368e-03,2.284048497676849365e-01
2.611266482157763580e-01,-1.679959423239114902e-02,-7.977526232529189021e-03,8.259891163197263754e-04,1.219312617279462094e-02,-1.090204071085211718e-03,2.744459211826324463e-01
3.522723659947994967e-01,-1.758497104202655370e-02,-1.975172630240121241e-02,-1.453038945208556853e-03,-6.949081618215038371e-04,-1.643609258910634337e-03,3.709668815135955811e-01
3.061156022477395933e-01,-2.866437297295426623e-02,-1.356713932789946342e-02,5.092728243201160307e-04,2.287181314562087772e-02,-6.916185369824566845e-03,3.300983905792236328e-01
2.667465142477591922e-01,-2.849107047949366034e-02,-1.079062072274372674e-02,2.096981767908668789e-02,2.657417091908854251e-03,-3.749765304198922084e-03,2.891976237297058105e-01
2.819746637286566493e-01,-1.794553028968429165e-02,-1.297389387053665688e-02,5.742691265921270535e-04,1.449931048244315016e-03,-5.943834473931894867e-03,2.976558804512023926e-01
3.560979109537980025e-01,-2.586579107487041451e-02,-2.082823183819282331e-02,6.702356228476080528e-04,-3.124558854449600419e-03,-3.596557241813340845e-03,3.795614838600158691e-01
5.220645719773044924e-01,-6.408545870470588879e-02,-1.390630263798792177e-03,4.123579786908026373e-02,-6.651481487706610574e-02,-3.915035232946434407e-02,5.776902437210083008e-01
3.535028596308277260e-01,-2.850363359762245197e-02,-2.931088255112601626e-02,1.084079486211065712e-03,2.128492345322644669e-04,-3.636831223360121506e-04,3.824160695075988770e-01
3.339440912001043205e-01,-3.159780264497091817e-02,-2.824465350348606685e-02,4.199158821804911158e-03,4.007673057646845747e-04,5.796477976745142632e-03,3.640887141227722168e-01
3.497323673247878517e-01,-3.468891387381153879e-02,-2.692051128378081248e-02,-2.424335029782394551e-03,-2.242244623294001597e-04,4.617551177790524069e-04,3.806207478046417236e-01
3.549118319657130760e-01,-2.687914689094231258e-02,-2.754116363133951584e-02,-7.988316168789828548e-04,1.080868562461772544e-04,-2.969559153063795233e-04,3.821253180503845215e-01
3.369490201384999772e-01,-3.142713306933220263e-02,-3.056629809649108465e-02,5.052771988376260348e-03,-3.103346758128089269e-03,4.334003384708308079e-03,3.681663274765014648e-01
3.567934566056656931e-01,-1.715777444080268666e-02,-2.642276542520607951e-02,-3.160849858739255350e-03,1.962415829269740022e-03,1.392976405287606407e-03,3.787312507629394531e-01
3.473002448824398791e-01,-3.261141993705218844e-02,-3.024549543093144055e-02,1.947663045444146361e-03,-2.481973841695594464e-03,3.325940490055463109e-03,3.788174688816070557e-01
3.476317559241182131e-01,-3.623390805865489561e-02,-2.695472350726321742e-02,1.973187914953843265e-04,-1.902360601983426290e-03,1.220194150568703088e-03,3.793315589427947998e-01
3.528850827519861011e-01,-2.608472954858476189e-02,-9.805524257525760623e-03,-2.181885602509519434e-03,2.610942403245655827e-03,2.810047514588787793e-03,3.711768090724945068e-01
3.958954256884978373e-01,-3.685218710198240322e-02,6.032239305328562784e-03,1.880051308459914153e-02,3.527974484453774012e-02,2.068415440083941001e-02,4.202728867530822754e-01
3.497737889077363049e-01,-3.065853497289169893e-02,-2.941365758886432813e-02,1.535134171236273489e-03,-9.823032814923703376e-04,1.425174905824296836e-03,3.798325657844543457e-01
4.328893164484541867e-01,-3.315345581731890534e-02,5.772097435766510021e-03,-3.461053410346050241e-02,-4.649743322676869878e-02,3.161835759192378054e-02,4.622217714786529541e-01
3.571837571321203608e-01,-2.144371311561721338e-02,-1.857334681430369838e-02,2.599776963706485096e-03,5.931299170597026642e-04,5.880815283222332913e-03,3.773662447929382324e-01
3.536826223941592628e-01,-2.006098999835739805e-02,-1.628972563500727389e-02,2.643465328145849259e-03,-9.298938946452250855e-05,1.503304667603739880e-03,3.719096481800079346e-01
3.268570369594063774e-01,-3.330938794355581267e-02,-1.954109975822504452e-02,1.161733695591547766e-02,-6.152225834061880207e-03,5.701480774769092721e-03,3.543536365032196045e-01
1.902381169596260302e-01,-6.130616781871316145e-02,-1.495944954398017307e-02,-6.586560079311690446e-04,4.598139719552210569e-02,-6.459207896091144659e-03,2.454254031181335449e-01
3.885237737055864393e-01,-2.325759184313647143e-02,-2.301334194823106971e-02,-7.993303373028988121e-03,-1.039853113720530173e-02,1.743499527655361508e-02,4.133901000022888184e-01
3.748806669233156197e-01,6.034817678747195213e-03,-4.112070230773012813e-02,-3.261841899680548162e-02,-3.497420837851766828e-02,2.471427597344170654e-02,4.054107367992401123e-01
3.311367779119174237e-01,-1.772724954239063289e-02,-4.014460507579870052e-02,-2.160634304339406685e-04,5.784122373433860272e-03,-9.904872481472240878e-04,3.607391119003295898e-01
2.594823176240018126e-01,-1.099931558086360284e-02,-1.412706248761563810e-02,4.982258822796234617e-03,1.254045535954147889e-03,-6.302852506690059115e-03,2.724232971668243408e-01
3.725777828354267518e-01,6.244939898814305668e-03,-3.638675283504630431e-02,3.984842359886443287e-03,8.405065188865948680e-03,1.506740612603532994e-02,3.906088173389434814e-01
4.102220602406833616e-01,-1.299293285961755640e-02,-2.889690991013041388e-02,-1.060183915511979207e-02,4.205424198003428898e-03,3.006851447096853605e-02,4.349681138992309570e-01
4.320403167589253468e-01,-3.123765297452035794e-02,-9.252026933544793552e-03,-1.029755387283841361e-02,-7.206304512554360248e-03,2.851125832106574456e-02,4.558914005756378174e-01
3.510883084835640933e-01,-2.582767361735147094e-02,-3.607245406138878674e-02,-4.014664850908625606e-04,2.720364861870599484e-03,1.609940748359147029e-03,3.821812272071838379e-01
3.546737687973759989e-01,-2.700516912563344363e-02,-2.649686361411832114e-02,-4.852182439011826047e-04,3.635411332938294840e-03,8.951465845572718211e-04,3.814810812473297119e-01
3.577245616656858918e-01,-2.707892221417088074e-02,-1.954001548325257076e-02,2.574205257631705882e-03,-2.677282117582356624e-03,-5.118948120484579246e-04,3.811452984809875488e-01
3.559732319114782828e-01,-2.732774877698737614e-02,-1.752631784954089555e-02,-2.372414548311279074e-04,-1.068524248427438293e-03,-1.799016132116318389e-03,3.785130381584167480e-01
3.561553700600239014e-01,-3.148739157011590239e-02,-1.358647276684882277e-02,3.694551921844346429e-03,-2.691258164021182592e-02,-1.179448380365060757e-02,3.824647963047027588e-01
3.686664590426034782e-01,-2.993469517645194755e-02,-2.786368932776342455e-02,-2.200305256941962120e-03,-1.018379244570484857e-02,5.341603831268170507e-04,3.979801237583160400e-01
3.588005791051730453e-01,-3.467820571746349501e-02,-1.616766110386128052e-02,-2.390659151422520542e-02,5.664179966480804851e-02,-1.581391776551736850e-02,3.999679684638977051e-01
3.589338476455686822e-01,-3.068204954918143934e-02,-1.207328612415400904e-02,1.481535064948648209e-03,4.779728944259465338e-03,-2.124764148109040563e-03,3.807692527770996094e-01
3.568729884508765049e-01,-2.312937538210865784e-02,-2.332528893910776335e-02,-2.540599159304106195e-04,2.501940717644884188e-04,-2.398067874111835685e-03,3.801235556602478027e-01
3.545474250694243823e-01,-2.538787162649572271e-02,-2.503521588369400641e-02,2.323894210505790710e-03,-8.279981736701424316e-03,-1.820488735414890757e-03,3.800641894340515137e-01
3.603490537225350065e-01,-3.280162507988523823e-02,-1.204176977860432762e-02,1.086331026976235757e-03,4.310628178618509249e-03,-1.365638438337083826e-03,3.832773864269256592e-01
2.687323483357517695e-01,-1.545057415480607932e-02,-1.964304789519927263e-02,-2.368603495563200573e-02,4.149399238699442993e-02,1.037325876829717913e-02,2.985633909702301025e-01
3.573345777010124569e-01,-2.673045539529841919e-02,-1.380802875604797419e-02,-7.910869295995436989e-04,-3.196811715472251247e-03,-1.420582599403083686e-03,3.778207004070281982e-01
3.516053773870508881e-01,-1.709241071570075099e-02,-1.940119737321185922e-02,2.092586247214880089e-03,1.920601505229187287e-04,-1.515176395583328920e-03,3.698848187923431396e-01
3.520742043518105824e-01,-2.451147841465847743e-02,-1.571874699724232216e-02,3.189048686974255251e-04,2.395336635655424644e-04,-2.024639350073983209e-03,3.722843527793884277e-01
3.589843884134331087e-01,-1.265849739393559714e-02,-1.350197265517502632e-02,-1.723992282347812811e-03,-4.177841147979869090e-04,-7.142406003751384201e-03,3.722836375236511230e-01
3.490311217140767419e-01,-2.591660321433508773e-02,-3.104541144833664057e-02,-2.594430978856294414e-04,-3.832824439053268109e-04,8.010473110779098402e-05,3.775391280651092529e-01
3.524365442011477279e-01,-2.268830459819964895e-02,-1.852747668033169481e-02,2.612079452713459825e-03,-2.210196458037491825e-03,-1.972168056154160153e-03,3.731245398521423340e-01
3.553140042132160170e-01,-1.737078359458521515e-03,-1.777146614854546725e-02,-4.083582910749260935e-04,-4.142381143998526420e-04,-1.561062523409225723e-02,3.663328588008880615e-01
3.541589664931165116e-01,-2.790058062256831062e-02,-2.740547184799163594e-02,1.305783136795382344e-03,-9.573439239804950197e-04,-5.781587754499852195e-05,3.818225562572479248e-01
3.554257226504685674e-01,-2.344601028487505734e-02,-2.599024756523235502e-02,-1.706212486605497135e-03,-8.351551469544696391e-05,-2.889682294335365730e-03,3.801946938037872314e-01
3.572758883885208681e-01,-2.112525706493345590e-02,-1.858923412159921296e-02,1.265625512323986660e-03,-3.372160406762409260e-03,-3.867218766429976733e-03,3.772505819797515869e-01
3.532635433190971508e-01,-2.369841200868755271e-02,-5.505370232223832927e-03,1.890967500969762110e-03,-3.415576809446420185e-04,6.477051026073275646e-03,3.683885931968688965e-01
3.540392717113766130e-01,-1.492775456439418558e-02,-2.352038353239588320e-02,-2.257835708839931767e-03,-1.249450067201892691e-04,-2.891002812030868483e-03,3.733916282653808594e-01
3.531598037815874003e-01,-1.921592353185241908e-02,-9.152403370102007996e-03,1.970927451512155277e-03,-3.049371554337929773e-04,3.066716177657230220e-03,3.675019741058349609e-01
2.117199759072780629e-01,-8.926149284026518860e-03,3.073697596170515967e-04,2.596581021257949456e-02,-1.068165589465917657e-02,3.119291617442729054e-03,2.216456234455108643e-01
3.508149969156034720e-01,-1.771808758918458349e-02,-1.453272214551271091e-02,-1.424266497630860225e-04,-1.100638178537657668e-03,2.328993262266098284e-03,3.669779896736145020e-01
3.803476230663355162e-01,-1.176105233370505765e-02,-7.534670080991623387e-03,-6.019322936215015796e-02,5.240152907818333705e-02,-4.187856708413778550e-02,4.200937449932098389e-01
3.595533811350872799e-01,-1.075356554987369484e-02,-2.046133547415412979e-02,5.407291100432584608e-04,1.032631805203008870e-03,5.296940627800573662e-03,3.753725886344909668e-01
3.615720255671546202e-01,-2.982567084514065048e-02,-2.781103723350156209e-02,-6.086022484948839725e-03,8.506064411932415942e-03,-9.015424910744164510e-04,3.908174932003021240e-01
3.568998196901465580e-01,-2.720388496240194742e-02,-2.808714088694935773e-02,1.930911465913598933e-03,4.015340773205383455e-03,8.706104672861573199e-04,3.846264779567718506e-01
3.502591921424570431e-01,-2.019624185737642352e-02,-9.035899203407526947e-03,-2.745034343118609951e-04,6.091270204882375120e-07,3.167325546098873068e-03,3.650447726249694824e-01
3.486254994493460657e-01,-3.766040203720846802e-02,-2.601392506333652377e-02,-1.438824657411130054e-02,4.495668324291893225e-02,-6.708850019957675846e-03,3.894521296024322510e-01
3.166104921954875917e-01,-3.389886824119134334e-02,-1.741727233388735974e-02,-6.011590238926638706e-03,1.407680318307778702e-03,5.089365790703939164e-03,3.428462743759155273e-01
3.534723366902943753e-01,-2.665120021323327815e-02,2.009090659530199385e-04,-2.444496240826160658e-03,-1.506262203218403930e-04,2.358583853458966293e-03,3.674812912940979004e-01
3.172503536824750059e-01,-3.482690261725121528e-02,-2.015091747945549350e-02,-6.350846707865786221e-03,1.119037964930177237e-03,3.252477566788141740e-03,3.452002108097076416e-01
3.603598983150025914e-01,-4.109922849985164772e-02,1.927740457385102024e-02,-1.359834298731471070e-03,9.774458392633651477e-04,-1.486281593961390158e-03,3.749547302722930908e-01
3.444616815179885605e-01,-4.039534561908567079e-02,-2.274766086929261300e-02,-3.502391288876984497e-03,4.765866490614920330e-04,1.647268552405211977e-03,3.764042556285858154e-01
3.514489198638822143e-01,-2.678511140731801299e-02,-3.023494278778968147e-02,4.141365086552329039e-04,-8.734501843851339049e-04,-1.546287472149372201e-04,3.799744844436645508e-01
3.539163872774834796e-01,-4.454657063704700604e-02,-2.859177935524750969e-02,6.564425486783747460e-03,-2.902211326585071166e-02,-2.560652613374883070e-03,3.941391706466674805e-01
3.584327667879159685e-01,-3.509514117860976223e-02,3.894101262353344417e-03,-1.572518046854737500e-03,3.820325907881476878e-03,3.087323960405348455e-03,3.756605088710784912e-01
3.438878562829879582e-01,-3.628102755277112790e-02,-2.414230025103197841e-02,7.572344891121156850e-05,2.526340151633882933e-04,1.237425464037997160e-03,3.742536008358001709e-01
3.530990604523990273e-01,-2.071381530915952784e-02,-2.124101504171688193e-02,4.724679718443299068e-04,1.100755081335718462e-04,1.359742331409256747e-03,3.740850985050201416e-01
3.425044949312293086e-01,-3.483028055532841338e-02,-2.514145538522988277e-02,-5.226507807423997481e-03,4.400415812267310890e-04,5.365605230830630505e-03,3.728114366531372070e-01
3.525983700500676110e-01,-2.762064909939715429e-02,8.512066327864831194e-05,4.721139460780792926e-04,-9.758873162265209781e-05,-3.578996754947309615e-03,3.672042787075042725e-01
4.973061196890931623e-01,-3.853409301169516410e-02,-2.127409801551702340e-02,5.579001152578444422e-02,-6.043246479810818195e-02,-4.658972311213437772e-02,5.522496700286865234e-01
3.617473889704244105e-01,-2.881937908998341569e-02,-2.596413153508980720e-02,-2.635644373947983177e-03,-1.095870374938337629e-03,1.175406976347958144e-03,3.891837298870086670e-01
3.307160175369852073e-01,-3.811754701189776218e-02,-2.053869187920884243e-02,2.106262510873508883e-04,1.911958451880930738e-03,3.560637620764844653e-03,3.604340255260467529e-01
2.139244470083636884e-01,-1.059648464370170629e-02,3.275322789470208606e-03,-2.144302016948283068e-02,6.579585120656377024e-03,2.274382874800971819e-03,2.213873714208602905e-01
1.117398596256036908e-01,-1.573006395649646783e-02,-1.581970506953780248e-02,-6.111661107132927706e-02,1.408707272048331793e-02,-1.559223965866353423e-02,1.696774214506149292e-01
2.008675408605977708e-01,-1.156758672503165053e-02,-5.178410639664343673e-03,-3.664363290093361480e-02,4.271363427977978300e-02,6.973725630013745229e-03,2.312136441469192505e-01
2.684307854284022077e-01,-6.742586868325101124e-03,-2.599975886704337935e-02,7.188374306713138807e-04,-2.417921387119011112e-02,-4.601786304559394268e-03,2.884601652622222900e-01
3.911847785029982649e-01,-5.944905165773728406e-02,3.080601740520723386e-02,3.430967856046050063e-02,8.719093479918291201e-02,1.871833599518103741e-02,4.448979794979095459e-01
1.061084187187186501e-01,8.399188961769450679e-03,-7.783244653055715334e-03,-7.876592276881438925e-02,-1.334133911086814520e-02,8.147956236031032862e-03,1.753154098987579346e-01
3.636015116249609047e-01,-1.604603351765745978e-02,-1.952205163038661651e-02,1.324152386029253323e-02,-8.627086624308388796e-03,-2.243144573988428703e-02,3.843472599983215332e-01
3.392437628539458627e-01,-2.240084472924375181e-02,-3.734006876246889761e-02,2.228312331360742427e-04,-4.410820575414425501e-03,-3.181209471078434887e-03,3.694611787796020508e-01
1.353232640810144161e-01,-2.110476977538348897e-03,-1.243583425070767662e-02,-6.198970214361833320e-02,1.921506760058789773e-02,-2.287406895209565666e-02,1.860623359680175781e-01
4.121086634321105002e-01,-4.828411585214353874e-03,-2.274396964262648257e-02,-2.898359439291178091e-02,2.286635430428914095e-02,-3.846029942346668173e-02,4.360659122467041016e-01
3.552686072031396858e-01,-4.439047060024792213e-03,-1.336253005177984177e-02,-6.153125382811679145e-02,3.926799293873117769e-02,-4.359449256900879005e-02,3.928927481174468994e-01
3.615260794495997465e-01,-3.622351211223107104e-02,1.060290689374435158e-02,1.620421155132162035e-03,4.625430471191640863e-04,-3.761701262919267628e-03,3.765942454338073730e-01
3.494096831722753316e-01,-2.192149022786807344e-02,-4.058597978007258411e-02,2.348736309069224346e-03,9.265186137097891975e-03,-1.470655760381955500e-03,3.813744485378265381e-01
3.413921229427133164e-01,-1.953124206451434253e-02,-4.092367580643463398e-02,1.669347105957550738e-03,4.347829769373925783e-03,-2.502393550545155797e-03,3.721937537193298340e-01
3.503480377917335131e-01,-1.529788956036179370e-02,-1.475138603300471529e-02,7.288070930248314802e-04,9.211684837177511707e-05,-9.392773949710715546e-04,3.653788268566131592e-01
3.527611816295548874e-01,-1.845248769328267091e-02,-2.249837660435888287e-02,5.399883781440876921e-04,1.682877487175610341e-03,4.534392513158574272e-04,3.732664287090301514e-01
3.528658598935957014e-01,-1.897727480140704026e-02,-1.079583732137578966e-02,1.185607113282287827e-03,-5.472069377963448712e-04,-2.022341222833237088e-03,3.678442835807800293e-01
3.578921886931361040e-01,-2.706060203949570142e-02,-1.358768875586033320e-02,1.786436458726689634e-03,1.535370011262499708e-03,-1.627796663058086882e-03,3.784287571907043457e-01
3.463325772314670425e-01,-2.566317183648889055e-02,-3.600397235723751255e-02,-1.444335756435003056e-04,3.280235155594442981e-04,-2.999029196008330504e-03,3.773087263107299805e-01
3.515763340917297253e-01,-2.913337284258149529e-02,-2.788194717087222330e-02,2.585379017069177731e-03,-2.821604033016709718e-03,2.954094144522060109e-03,3.801777660846710205e-01
3.434336835404866450e-01,-2.275889033552036533e-02,-4.124331594328253803e-02,-4.844668848857956256e-04,-1.067320148126292339e-03,-8.203232129376390649e-04,3.757840692996978760e-01
3.091948714414822774e-01,-1.392299030430983742e-02,-3.671281960366312713e-02,3.223997156422320529e-05,1.002182151224591602e-02,2.165594160403343238e-03,3.355647623538970947e-01
3.515122637749143464e-01,-1.376348485186176807e-02,-1.546243620937523544e-02,1.188915639823266007e-03,4.668945021525233718e-04,7.403683893177109843e-03,3.663593530654907227e-01
3.526204198228660713e-01,-2.082684564101072722e-02,-1.332634056247664067e-02,-4.601058988654460917e-04,-1.050005065176286582e-03,1.567315870620367146e-03,3.697693645954132080e-01
4.293867238038335254e-01,-3.620387168898167585e-02,-1.619609740501967710e-02,-2.047304502057154321e-02,3.279617102261797590e-02,4.805605166553695434e-02,4.682646989822387695e-01
3.586251667619513861e-01,-2.245503403140886034e-02,-1.511978984088871436e-02,-4.514115269122450855e-03,-1.376133053071291589e-03,4.247628860061030895e-03,3.776262104511260986e-01
3.521839613920027534e-01,-1.869379969420145726e-02,-2.233738728204276436e-02,-1.869670963876568493e-04,-9.477435594290569212e-04,2.012105591655190262e-03,3.727329671382904053e-01
3.343995594900013857e-01,-3.141383794371127580e-02,-2.507255240676120600e-02,1.420531107283678346e-02,7.179967231531442229e-03,-9.060831010973566333e-04,3.637340068817138672e-01
3.511943816447977151e-01,-2.632009127079132371e-02,-2.899364790672553926e-02,-1.112204568944271136e-03,1.104639429273005088e-03,-6.982785252635138754e-05,3.788680732250213623e-01
3.709750660506665465e-01,-2.885167082127401694e-02,-1.276647404333325353e-02,-2.621447311805256367e-03,9.021206000141392470e-04,1.185812660403794301e-02,3.925987184047698975e-01
3.537337001735518793e-01,-2.343077508966273648e-02,-1.818364595880928025e-02,8.896185115019282757e-04,-2.418566925533748198e-04,2.658314647144514788e-03,3.746001720428466797e-01
3.520481171256570896e-01,-1.446234566526927168e-02,-2.168828466937711141e-02,-1.847456165025412964e-03,-1.694020095511457758e-03,1.780074922511332711e-03,3.702146410942077637e-01
2.928725542190174780e-01,-1.311839134343378843e-02,-3.091592684650842915e-02,-4.569718587083859999e-04,-4.512022858470292547e-04,-1.537830422471714309e-03,3.152799308300018311e-01
3.497098516764666765e-01,-3.733025895802213889e-02,-2.616642875505767463e-02,-4.212493315838347976e-03,-1.428320643361884234e-03,-1.782754404704332656e-03,3.816709518432617188e-01
3.513476208976681336e-01,-8.665921871829296297e-03,-2.157064650358533897e-02,-1.494102178354646563e-03,-1.424885176314376811e-03,3.048635608402420517e-03,3.666917383670806885e-01
3.610609688864143685e-01,-3.939014623489431322e-02,1.315447461780888672e-02,9.051571928257622687e-04,-3.464998154609490524e-03,1.005170177515068292e-03,3.769907057285308838e-01
3.517865739953193738e-01,-1.398596183236067159e-02,-2.004433464150981448e-02,-1.892677749800649248e-03,-1.601836453192945556e-03,8.121548212177819720e-04,3.688667118549346924e-01
3.547070463168215393e-01,-2.566246534202307195e-02,-2.480660681315649541e-02,2.053221399411788405e-03,4.383673658587651034e-04,-4.907128218156590633e-04,3.799606561660766602e-01
3.543498321971034204e-01,-2.108876502770079542e-02,-2.611433926200248945e-02,5.571507284748605836e-04,1.233595079126190066e-03,-3.193401503538351649e-04,3.779841065406799316e-01
3.505407428205550291e-01,-3.545789626265233307e-02,-2.684329991971509677e-02,-2.757332448149828804e-03,9.876069326267015915e-04,-9.595233460605532552e-04,3.818015754222869873e-01
3.548619755867596370e-01,-2.666762029174463144e-02,-2.657909746255807115e-02,1.298932012473187235e-03,-3.213043989041120766e-03,-4.020866897202168247e-04,3.815332055091857910e-01
1.995533021452261524e-01,1.033776092592686435e-02,-1.496639275527980595e-02,-5.424057901556025157e-02,-4.822441678104369411e-02,2.153189195605426445e-02,2.417116761207580566e-01
3.523970430300071843e-01,-1.924878104365915221e-02,-2.232652389299139006e-02,-1.472437734714515190e-03,1.673868760754136133e-03,-3.478696919984463915e-04,3.732146620750427246e-01
3.542599812087759981e-01,-1.995140201846712369e-02,-1.497482565742719318e-02,-1.180820776272402655e-03,2.212608187309576292e-03,-1.286000832147721640e-03,3.717801272869110107e-01
3.537113309581580434e-01,-1.406445001734574207e-02,-2.067510408988246229e-02,-1.771398290100338700e-03,2.209962522928701420e-03,-1.101955748811648487e-03,3.711625933647155762e-01
3.651285299919695415e-01,-4.366585848946483162e-02,7.389032283134699952e-03,2.587652438668638488e-03,-5.966936231440486509e-03,1.968065623224934078e-03,3.859883844852447510e-01
3.573178333757809910e-01,-4.079425914471110359e-02,-1.229983264427117473e-02,-2.065070601886600382e-02,-3.446040070090129748e-02,1.156055681978887355e-02,3.914128839969635010e-01
3.510343995960841235e-01,-1.675179146418306897e-02,-1.505905996212264508e-02,-9.826279373524628158e-04,1.043536888314344031e-03,-2.276955830108561528e-03,3.669723570346832275e-01
2.518829310954623368e-01,-1.066189873030620738e-02,-1.849050094663631794e-02,-2.983909096120315046e-02,4.643574447670788252e-02,-2.269774703457652643e-02,2.858879864215850830e-01
3.900862695991018092e-01,-5.407601373337708739e-02,2.625406107725052063e-02,-4.055027280033123536e-03,3.894279317963964676e-02,-1.074517916212209753e-02,4.159312248229980469e-01
3.502029939868666064e-01,-1.303349801406145092e-02,-1.551723072529073710e-02,3.856560822348724577e-04,2.396313213681086347e-04,-2.601857902425954230e-03,3.645134270191192627e-01
3.547037923522247116e-01,-3.185528854888020067e-02,-3.007388065049076964e-02,3.702808715697756192e-04,-8.101418534076307038e-04,-5.177898285314872862e-04,3.856755793094635010e-01
4.274038314281536355e-01,-4.958535061679106293e-02,-8.202836203467345211e-03,6.803113255559695149e-02,-8.191371794213238300e-02,-4.757963348713571683e-02,5.002978444099426270e-01
3.509655462454883135e-01,-1.857419686473998910e-02,-1.722967734919517158e-02,5.398947117709780585e-04,-3.310858677357414481e-04,4.526462692310114703e-04,3.688717782497406006e-01
3.521861595276497559e-01,-1.930046885279421143e-02,-1.101414695128202781e-02,1.081418280908705157e-03,4.495770159690596203e-05,-1.039157944943402360e-03,3.674227595329284668e-01
3.521445248229416736e-01,-7.855605261069292800e-03,-1.928407725562314434e-02,8.092224953450328530e-04,-3.320386249862292681e-04,-5.121290701659145413e-03,3.659589290618896484e-01
3.503546102066634749e-01,-1.487920537374290419e-02,-1.539225136226290980e-02,1.390249749963485117e-04,-4.877772499674678424e-05,-3.854166491247632974e-04,3.654913008213043213e-01
4.212333126190564991e-01,-4.978584055790455376e-02,2.095513397883139173e-02,1.622703983922466064e-02,-2.613386832048875813e-02,-1.378206906705132032e-02,4.437924027442932129e-01
3.591882504452583169e-01,-3.486667252872360789e-02,1.241994467853754780e-02,7.516973877365727306e-04,-8.716421704993793183e-04,-2.547291500809414477e-03,3.726999163627624512e-01
3.554969376265196823e-01,-3.529336003362398833e-02,1.039841147773984398e-02,1.066049844075708537e-03,-5.763873128808456175e-03,-6.422609939261123002e-03,3.703724145889282227e-01
3.396564165041077166e-01,-4.136649050520324611e-02,1.646401358557737782e-02,-9.096641758883331971e-03,6.120952448069758023e-02,-2.563435077356948991e-02,3.740955889225006104e-01
3.514118592423901011e-01,-1.788864254936775589e-02,-1.692364222802802964e-02,-9.335922356615213458e-04,1.268117974495745629e-03,-4.592513761653466316e-04,3.688299059867858887e-01
3.541948577856011138e-01,-2.060361150756231940e-02,-1.116569785273466286e-02,-6.032262193742073857e-04,-1.001450087705018895e-03,-1.604332187668221872e-03,3.701857328414916992e-01
3.585264142129259701e-01,-2.688530169938155301e-02,-6.876788089673624427e-04,-1.775008479896047608e-03,1.840613613181866452e-03,-2.649271255630569148e-03,3.730580508708953857e-01
3.493027785801953722e-01,-1.550603674872733095e-02,-1.446456816569485770e-02,7.875413481063556719e-05,-2.452714440554970479e-04,-4.463328984958364024e-04,3.642902970314025879e-01
3.574365722157413772e-01,-2.431441070724002507e-02,-2.690800412674276831e-02,-6.694638707367403518e-03,8.596335632401520561e-04,1.623391425063774830e-03,3.832430243492126465e-01
3.634111669414368251e-01,9.540405565917425834e-03,-4.223146176102005045e-02,-1.060769597537616071e-01,-1.431381721076491545e-02,2.835017593680426093e-02,4.277945756912231445e-01
3.506688983769825074e-01,-1.890961650994632537e-02,-1.111883298825919186e-02,-1.666365110840202198e-03,-1.148365903263351417e-03,-1.541114605862242215e-03,3.657718896865844727e-01
3.523430364408641213e-01,-1.709141699275507076e-02,-1.566425143882949067e-02,-2.879179942662306687e-05,-2.404022970227834505e-04,-3.421632004666295968e-03,3.687708079814910889e-01
3.574288786969810339e-01,-2.111629593697414431e-02,-3.207137172791665880e-02,-2.988825903807889456e-02,-3.724499100920020643e-03,1.577128418267095128e-02,3.886273205280303955e-01
3.549945160195537852e-01,-2.405138451945440514e-02,-1.744902732435438253e-02,-1.990487392494387671e-03,-1.705050758118917525e-03,-7.880261842995777083e-04,3.758181333541870117e-01
2.932973422956507425e-01,-1.201016653870713713e-02,-3.546392685062527139e-02,5.699959277161608870e-03,2.988939914014548949e-02,-4.426724441954276064e-03,3.221175968647003174e-01
3.570726300070455883e-01,-1.123660453320401986e-02,-1.985318813040162778e-02,1.422320007260988390e-03,3.017741846001150210e-03,9.981585510100303427e-03,3.731377720832824707e-01
3.523753298014652979e-01,-2.939891846538023046e-02,-2.927228570387618856e-02,-1.942429627072376331e-05,-1.370719115103708526e-03,-1.191540272442815100e-03,3.817239105701446533e-01
3.536409633782439665e-01,-3.281555284869774880e-02,-3.201430428874268985e-02,-1.157449880706478080e-03,-2.510579922856444996e-04,-2.797231335809566202e-03,3.860923647880554199e-01
2.627095291156997248e-01,1.131600454607943618e-02,-1.878591376109163547e-02,-7.239242897769651575e-02,-5.183109223948984684e-02,2.255677307555717381e-02,3.114162087440490723e-01
3.331373706138938129e-01,-4.121979188646424097e-02,-1.808149620445168027e-02,6.280809188378408403e-03,-8.833519745728422065e-05,1.066288147364811631e-03,3.635085523128509521e-01
3.506729054321321426e-01,-3.712448619757530155e-02,-2.697123152554328773e-02,1.430971176380619117e-02,-2.475215447889383578e-04,1.597582105800215979e-03,3.836334645748138428e-01
3.201698984297017825e-01,-3.544768332254966126e-02,-1.920051350397006251e-02,3.755254739948748338e-02,1.224958399331490394e-02,-4.554272860454977069e-03,3.545321226119995117e-01
3.547437739895152320e-01,-2.736225633925712386e-02,-2.611712875953192681e-02,-5.321284363782931856e-04,-6.407767296208963801e-04,8.162669016138689670e-05,3.814877569675445557e-01
3.472770325735149988e-01,-3.121010533860729685e-02,-2.699105204169519046e-02,2.536033323555503607e-03,1.827141446326741199e-03,-5.120653511870231715e-04,3.764353096485137939e-01
3.581188084289992912e-01,-3.882798003928347730e-02,-7.353001391226493544e-03,-7.297592412414325011e-04,-6.330850899142853767e-03,-1.265861365404831029e-03,3.823482394218444824e-01
3.466457741100928414e-01,-3.153249636135221912e-02,-2.241490916869692818e-02,-2.179682479558992187e-04,4.435866589312040253e-04,-3.326998060835103729e-04,3.737043440341949463e-01
3.396949248553688960e-01,-2.584100323528848442e-02,-3.475112669220795092e-02,-3.575036174070585389e-03,-2.650959175791242281e-03,-4.282402451723880780e-03,3.702260255813598633e-01
3.635728198052126103e-01,-3.892092545908440449e-02,2.783637615240225349e-03,-2.576146436671666352e-03,3.894681492908787235e-03,-8.092618741064547825e-04,3.834345340728759766e-01
3.417066854728165182e-01,-4.202872436916260668e-02,-1.968372305626917007e-02,4.391740668131754663e-03,4.646046110502441212e-04,-6.212482085467244033e-04,3.731451034545898438e-01
3.494474220755954819e-01,-2.652342384454234314e-02,-3.362820514791095561e-02,-5.388250566378041933e-04,-3.658918552893250867e-03,-1.191375416966884140e-03,3.796327710151672363e-01
3.207406199678317082e-01,-3.711555016457557254e-02,-1.723454069394683708e-02,1.156952531520536766e-02,9.092340841872238993e-04,7.288856451085014201e-04,3.489231765270233154e-01
5.188928649704802609e-01,-1.004773665692543227e-02,-3.849108166456294278e-02,-2.412964995626470672e-03,-1.467990972480972059e-02,3.511162910450291164e-02,5.477175116539001465e-01
3.546974017469305407e-01,-2.694953924139123491e-02,-2.656427226385696394e-02,1.038499527161459903e-03,-3.256431608319886820e-03,-4.579235300330431716e-04,3.815012276172637939e-01
3.437326804477037201e-01,-3.889111345509221884e-02,-1.997761336296674517e-02,2.921751634880950105e-03,-2.334914551424036640e-03,3.605881600649580871e-03,3.736347258090972900e-01
3.472867682975521730e-01,-3.509205058029821189e-02,-2.645418009319955299e-02,7.450512990118127524e-04,8.824917507380936575e-04,-2.671168952340768551e-03,3.781674802303314209e-01
3.924218280566746375e-01,2.077996097343125237e-02,-7.635253910819395085e-02,-1.179577864048839686e-01,-3.054269495718706096e-02,1.989023491472927466e-02,4.789347052574157715e-01
3.475314481532382760e-01,-2.651592029138313822e-02,-3.398937891044612192e-02,-2.066343584994090061e-03,4.401277321088490312e-03,1.086570534184764809e-03,3.779380619525909424e-01
3.486107438493399879e-01,-3.598561186681728530e-02,-2.272705768897725909e-02,1.115754535946098316e-02,1.460746889123387075e-03,-1.862326407492427040e-03,3.786571323871612549e-01
3.128626469867032966e-01,-3.587459331501541282e-02,-1.820168749801999442e-02,9.857975862992767249e-03,1.019762352082443290e-03,-3.521220206294306109e-03,3.407325148582458496e-01
3.636151865047060339e-01,-2.954353147243263256e-02,-3.130916570629671547e-02,-4.816396029694584163e-02,-5.091539839440473864e-02,1.830411733821381282e-02,4.135367274284362793e-01
3.598990850389511276e-01,-4.095666653662383139e-02,1.261409788401801624e-02,-3.005814484895434451e-03,-7.104466039622314580e-04,-2.419847147136079939e-03,3.769976198673248291e-01
3.549916135168618703e-01,-3.026225107282148885e-02,-2.365272175798199816e-02,-3.193343146825548644e-04,-5.094479398765670505e-03,-2.526158645021867709e-06,3.820942938327789307e-01
3.424719796384052550e-01,-4.137184271960500648e-02,-2.205426243654431961e-02,5.499250852716961943e-03,-1.112774076602402124e-03,1.439211434675585159e-03,3.746931552886962891e-01
3.430245221948313716e-01,-3.988856800083293019e-02,-2.097432794793466226e-02,5.517003068235178933e-04,1.874663981806505174e-05,9.538276926211673159e-04,3.738198876380920410e-01
3.429336273931987145e-01,-4.164657446875741353e-02,-2.091148632958389486e-02,6.060174495958086868e-03,-6.406184064018549565e-05,1.757721668784417018e-03,3.748026490211486816e-01
3.385922352895834875e-01,-4.145934868989883948e-02,-1.963004102649049121e-02,2.138957851635415758e-04,3.693231046802709764e-04,7.123198154068586738e-04,3.696235120296478271e-01
3.097478790527981030e-01,-3.516369637121236069e-02,-1.415827504743935594e-02,9.417955921156333926e-03,-3.458437740114851970e-04,2.814009555393205513e-03,3.353362679481506348e-01
3.097105603356760661e-01,-2.942221076957970971e-02,-1.763519886074706167e-02,4.640694012374331490e-04,4.956824415097705857e-04,6.426456133310502056e-03,3.335834145545959473e-01
3.244706031558996506e-01,-2.117403186543279081e-02,-3.414188043640828396e-02,5.348540888047799077e-04,-7.671504202933302971e-03,-6.072128658762100846e-03,3.527161478996276855e-01
3.565735346960164365e-01,-3.245463796845929338e-02,-2.859365391682172630e-02,-3.144632379392940311e-03,-7.372923929556790892e-03,-2.190909414773717216e-04,3.873611688613891602e-01
3.431501821766302363e-01,-2.129574539045878123e-02,-4.183612162517572064e-02,4.659670696962798001e-05,-2.032533752048989919e-03,4.791054461792093166e-04,3.751555383205413818e-01
3.385494682708304892e-01,-4.251297552028829307e-02,-1.824619705928939850e-02,5.443061855494392464e-05,1.552973889451270692e-04,5.342769209062691888e-04,3.695284128189086914e-01
3.583855913585750619e-01,-3.053550758194290005e-02,-7.682507191745124864e-03,2.698363643504783052e-04,-5.548601567006213910e-03,-1.525768073575027627e-03,3.781447112560272217e-01
3.547934511778256250e-01,-2.812287889803963270e-02,-2.575707404082716589e-02,-5.182569951780296438e-04,1.543790669311282087e-04,-5.904600107979326518e-04,3.817414343357086182e-01
3.628081314471703345e-01,1.262933923738804309e-02,-3.812292881281001411e-02,-4.300177793083931506e-03,-9.705216142948247114e-05,-9.044006818239162457e-03,3.785158395767211914e-01
3.434514000092405150e-01,-3.289261028108847462e-02,-2.688246739616279024e-02,-2.389701919032153414e-06,4.460262286616119721e-04,4.013225075517662041e-03,3.734407126903533936e-01
3.969246664254023060e-01,1.218032445756778159e-02,-3.735137155439363643e-02,2.792514241120723495e-02,-2.312219034164613232e-02,-3.508007354813516554e-02,4.209201931953430176e-01
3.527772859754336743e-01,-2.318179723978608386e-02,-1.800516323459838697e-02,-1.794393808215080394e-03,-4.908000449131472067e-04,4.819906773865050812e-04,3.734125196933746338e-01
2.269439282923509937e-01,-2.531485284430091964e-02,-9.862845357339403152e-03,7.013147844309609857e-02,-2.744767690317874431e-02,-1.538415561702554529e-02,2.787485718727111816e-01
3.949169742003643124e-01,2.116419546943633379e-02,-6.013887787143809560e-02,4.763714539431580103e-02,2.566765775488752052e-02,-7.290328126099560047e-03,4.308508038520812988e-01
3.547633602028088529e-01,-3.123239231508065372e-02,-2.988337715029351638e-02,1.099795112329519150e-03,-3.548189213430244060e-04,8.672457542521116091e-04,3.853311538696289062e-01
3.542558475823578967e-01,-2.708864638787009116e-02,-2.586591520504261110e-02,-8.948347993249954665e-04,-2.808336616163619511e-03,5.727160588648297010e-04,3.807701170444488525e-01
3.504494691470556034e-01,-2.017543511682629020e-02,-1.068596507841695908e-02,-9.073483482890107917e-04,-5.493084522567722675e-04,-2.025354212714766851e-03,3.659938871860504150e-01
3.523624450178968748e-01,-2.035557561649015135e-02,-1.749424438050778408e-02,-1.370332929744679396e-03,-1.890634611906953470e-03,-5.070997091972072584e-04,3.713186979293823242e-01
3.719198537798934501e-01,7.962961548307612158e-04,-3.936363342349827321e-02,1.020644272140063119e-01,-1.429506503010048377e-02,-2.474424804176360293e-02,4.335333108901977539e-01
3.543059573910276039e-01,-2.749044872642220083e-02,-2.990160302095715150e-02,-9.196007201878176034e-04,7.264469777196481395e-04,-2.721280249188958930e-04,3.830133378505706787e-01
3.539610754390478675e-01,-2.764264651779183013e-02,-2.374163208334867381e-02,-1.695979622130184845e-03,-7.579223833825676207e-04,1.142168279571888906e-03,3.796870410442352295e-01
3.582513422677641168e-01,-1.788557273076640808e-03,-3.069267815228596263e-02,5.501177630672306369e-03,1.411681340678517106e-04,-1.203078167306207563e-02,3.760264515876770020e-01
3.514687485090474128e-01,-3.364667533835355440e-02,-3.032468806184321353e-02,-7.321117829526530398e-04,1.043717890555616009e-03,1.050287427203469440e-03,3.834758996963500977e-01
4.195766326511366495e-01,-4.320916233998522982e-03,-4.144155787982736761e-02,-2.579450246918287698e-02,2.283368249760647783e-02,-1.823299498591048409e-02,4.487314820289611816e-01
4.157212567618424615e-01,1.732061603805601369e-02,-5.904162387616537777e-02,-3.730308042006517943e-03,3.820702331263166676e-03,-1.510357410259736272e-02,4.424329698085784912e-01
3.500492035151122616e-01,-3.288121641402982909e-02,-3.111075565412066424e-02,-1.814354580162409660e-03,1.275986734658931675e-04,-2.375771731252454902e-03,3.820834159851074219e-01
3.540667540149998738e-01,-2.363738601364226422e-02,-2.498816646658194585e-02,1.998199095942243281e-03,-1.313620361073269526e-03,4.498540097669256237e-04,3.784047961235046387e-01
3.560124529138088412e-01,-2.979914289785390302e-02,-3.352545142131924116e-02,3.308815946387847103e-04,-3.954244465332914767e-04,-9.342351951510479389e-04,3.876926004886627197e-01
3.539565974956996319e-01,-2.806475434167993166e-02,-2.483150591809915597e-02,-6.383564275060000810e-04,-1.296061798569281926e-03,5.665847489963693430e-04,3.804245293140411377e-01
4.191010661027126938e-01,-5.042441109365186636e-02,2.799260370789730112e-03,3.188693789790647548e-02,-1.016102405361222899e-01,-3.817551096350648571e-02,4.865114986896514893e-01
3.484554561773341996e-01,-3.597456347713010039e-02,-2.747188383190268812e-02,-2.281646344278423933e-03,-2.204717154561314837e-03,-3.559851708999344638e-03,3.803396821022033691e-01
3.348536222386493399e-01,-3.091727215716824628e-02,-2.768942052422859734e-02,-7.405240995575552987e-03,2.003247031436716937e-04,-6.179360332606702658e-03,3.645508289337158203e-01
2.925418295472209107e-01,-1.687486536752495769e-02,-2.836118941382589909e-02,6.979747531943417821e-03,-1.550820790072422392e-02,5.863702953131179167e-03,3.168524801731109619e-01
3.077013714208661210e-01,-3.221875632690410218e-02,-2.561963678671816402e-02,3.129444661849205278e-02,-3.506624013320415456e-02,3.314376867125981216e-03,3.464187979698181152e-01
2.912939393677548283e-01,-1.584874418847835587e-02,-1.268683185718719186e-02,6.053561321214502577e-02,-4.815530396458486684e-02,-1.218882316016337529e-02,3.343226611614227295e-01
2.600799302015217029e-01,-9.799863504199396447e-03,-2.057906320166316694e-02,4.737760217073844898e-02,-7.062940026545537486e-02,-2.671912551855777293e-02,3.157555460929870605e-01
3.476348466650143743e-01,-2.525289787398377062e-02,-3.560400252067649762e-02,-7.237942453609260644e-04,-3.996842202449240114e-03,-4.581139759103194931e-03,3.783182203769683838e-01
3.332907208267794075e-01,-5.460937388546785454e-02,7.660292055848241799e-03,2.610050568899681400e-02,-1.019496780501448763e-01,-3.545960316188204176e-02,4.088846445083618164e-01
3.374163863426994370e-01,-1.812683714122850787e-02,-4.105609886006006404e-02,-5.546732417586317486e-03,-6.412952181773142087e-03,9.072991116283692830e-04,3.678413033485412598e-01
3.489606759120871260e-01,-2.698402423146001317e-02,-3.868630052220539683e-02,7.650207981504977784e-04,8.250626873668394411e-04,-9.767190779914546820e-04,3.819390535354614258e-01
2.883867616312807414e-01,-2.075396044036884047e-02,9.294387056194272634e-03,6.412465458808826180e-02,-9.720620478099772921e-02,-2.870520085573691899e-02,3.610217869281768799e-01
2.591611780816406307e-01,-1.480695085795429022e-02,-1.080233581887070360e-02,1.972658304202427968e-03,-8.730261768927547947e-03,6.205882867812314435e-03,2.726413309574127197e-01
3.303176115850209316e-01,-1.988189978641680122e-02,-3.698951516789950045e-02,-3.103587338390030072e-03,-1.123906783938385945e-02,-3.344273664319912485e-03,3.596732616424560547e-01
3.630102994020952267e-01,-3.721395440470046112e-02,1.173625261940657027e-02,-1.381805238970313862e-03,-1.659323880860845944e-03,5.569195142777628137e-03,3.782744407653808594e-01
3.471036958653632709e-01,-3.892722924945604679e-02,-2.521898286348930873e-02,-4.096567761206337289e-03,-2.310817351655379461e-03,-1.399263798403620977e-03,3.794578015804290771e-01
3.532203628807076834e-01,-2.784039310634822684e-02,-3.329730809974604244e-02,8.224314935079994268e-04,-1.598201796869868317e-03,1.363792007747366506e-03,3.838382065296173096e-01
4.007057572069267493e-01,-1.011530135018054444e-02,-4.239396960729024944e-02,-4.219639347332449983e-03,-3.785034469619363851e-03,1.941854098185069599e-02,4.293067157268524170e-01
3.553238988203098470e-01,-2.692889218516969496e-02,-2.443613074333894630e-02,4.369230996662710901e-04,-5.465442352594643630e-03,-4.593030599571987552e-04,3.811316788196563721e-01
3.478396467949476656e-01,-2.820239974663693583e-02,-3.513141838441996567e-02,6.144991182036790628e-04,-1.509522802189691530e-03,2.656177020049775225e-03,3.795923590660095215e-01
3.543483994389116654e-01,-2.985481888285831942e-02,-2.708606657445775112e-02,-1.279477709240382571e-03,1.047047926709365230e-03,-1.542453916918041113e-04,3.828371465206146240e-01
3.537678616231950124e-01,-2.748662297001513988e-02,-2.815914447614489835e-02,-6.088280114929978028e-04,1.935233311923653752e-03,4.087819919021348113e-05,3.816073834896087646e-01
3.375237458943142754e-01,-3.186603257047923576e-02,-2.816545698850586588e-02,-4.759222159669835965e-03,1.515466356493460872e-03,4.630403131310295052e-03,3.677427172660827637e-01
3.489655790790129331e-01,-3.360496140134264231e-02,-2.832176095100613633e-02,-6.293478886170203977e-04,5.403545857353229259e-04,2.633569839173518102e-03,3.799865841865539551e-01
3.569415300605535690e-01,-2.598697974455213555e-02,-2.883179522041323661e-02,8.526648510179520111e-04,-7.394417293773181479e-03,-4.017428239574035169e-04,3.845756053924560547e-01
3.527005546176356088e-01,-3.425868245941290913e-02,-2.857514479363504334e-02,-2.768298202711420007e-04,1.375989167039469050e-03,8.517643962663298341e-04,3.841595351696014404e-01
3.357963328868947550e-01,-3.267153088167273900e-02,-2.823556963406498310e-02,-3.321778392270231545e-03,-5.129562652991364593e-04,5.651012011145871948e-03,3.664470314979553223e-01
3.526833881861354825e-01,-3.390382960077462093e-02,-2.858726997877325537e-02,-3.926043708411892561e-04,1.009409680881628163e-03,2.698425858135759456e-03,3.839895725250244141e-01
3.514618601500709150e-01,-3.670953432509643788e-02,-2.721935297700342482e-02,-1.689490801305705038e-03,-9.729092322406590956e-04,1.136270770067825033e-03,3.835342824459075928e-01
3.472030895906563774e-01,-3.657505986373393858e-02,-2.699901806205354249e-02,-1.017406535694791040e-03,1.411244737280552665e-03,1.149044167044571208e-03,3.790980577468872070e-01
3.532670368324898336e-01,-2.307136136522988656e-02,-2.183397038938386658e-02,-8.464007748063412384e-04,1.450638411106986315e-03,-4.776416311022441976e-04,3.757334053516387939e-01
3.423439842477539741e-01,-4.110368830316304956e-02,-2.243129122479306514e-02,-4.611271441785410458e-03,-1.152328317508757340e-03,-1.677192416569401896e-03,3.745625615119934082e-01
3.547700622962613459e-01,-3.122595363409100266e-02,-3.107562491423176976e-02,-2.495456788828680499e-04,-5.493004002576101666e-05,5.325346879034610083e-05,3.859211504459381104e-01
3.547811494312598235e-01,-2.723361930838333334e-02,-3.105289600200136779e-02,-1.063823925358708912e-03,9.202675333785159673e-03,2.944733483398447732e-03,3.843076527118682861e-01
2.128242696617969332e-01,-1.824571221997733916e-02,4.353922017461819838e-04,-2.944176783267873215e-02,-2.862532730907115658e-02,-3.272009039940267875e-03,2.334876358509063721e-01
3.313333965796902425e-01,-2.888721025440843526e-02,-2.697843049890910616e-02,-4.572027911388362037e-02,-3.683182790815433399e-02,9.954359462961050870e-04,3.733881413936614990e-01
3.334046460655545885e-01,-2.837976548720441694e-02,-3.050214174439816461e-02,-4.689178292618587096e-02,-3.580752063383246114e-02,1.372301352725920770e-03,3.769734799861907959e-01
3.547382934008967426e-01,-2.673277758420358752e-02,-2.831716175745538355e-02,1.013033865593017608e-03,7.653665956863326889e-04,-1.769707814431605844e-03,3.822843432426452637e-01
2.983515615794513076e-01,-2.350153641570601470e-02,-1.841530806090345418e-02,-1.018157399284086960e-02,-5.367522096169446109e-04,-6.936377870546551160e-03,3.200538456439971924e-01
3.428570170552123764e-01,-2.190981981344675145e-02,-3.859091190079846911e-02,6.771996275859149504e-04,-6.005056516545154892e-04,2.761620132727243913e-03,3.734208643436431885e-01
3.547690230607615791e-01,-3.104812089892716731e-02,-3.131980010035648188e-02,2.809445873739849935e-04,8.445538188665223898e-04,-1.535912273464227888e-04,3.859562277793884277e-01
3.025317811822374470e-01,-2.876329464634627686e-02,-1.569780631686482075e-02,-8.687901087036699072e-04,-7.358911044405589547e-03,-5.664033285851421268e-03,3.253606855869293213e-01
3.565794322556812279e-01,-1.604445107958610284e-02,-2.714378699128908168e-02,4.686924899456693452e-03,7.166044255758203781e-04,1.365747360480150342e-03,3.783922195434570312e-01
3.186880444936697199e-01,-6.617926490185679911e-02,1.623940085973293868e-02,-2.469876916735454925e-02,9.417314105043508854e-02,-2.753727737666625264e-02,3.923087716102600098e-01
3.484232716027989563e-01,-2.663254672047149496e-02,-3.715074051267791555e-02,-6.335946529838593858e-04,-9.228225845444024741e-04,-1.018087037369993803e-03,3.804330229759216309e-01
2.801070656863682284e-01,-2.469427309794791636e-02,-8.222069163769871181e-03,-1.275513113762797267e-02,-4.501251717920117836e-03,-5.539260130933498262e-03,2.979854941368103027e-01
3.510494424194719465e-01,-2.799123729790889414e-02,-3.478333679957751334e-02,-3.616321589317123236e-04,-2.920740965999801537e-04,-1.881640202242506775e-03,3.824966847896575928e-01
3.089808155976673243e-01,-2.517428952341035919e-02,-2.764025614844925482e-02,-3.093412834296847824e-02,1.722075534093144011e-02,-6.454931930835102263e-03,3.411380350589752197e-01
3.552514766458730322e-01,-2.214156782510254273e-02,-2.682104123692546915e-02,-2.216100630239243642e-04,-2.217466733297471433e-04,1.022336886534678559e-03,3.797589242458343506e-01
3.548340162713815582e-01,-2.596289550588865014e-02,-2.659892662639298799e-02,3.045347118575109265e-03,-1.817918967282537669e-04,1.339205826749715776e-04,3.811520338058471680e-01
3.370455920625749502e-01,-3.579745780615783968e-02,-2.373896978951639536e-02,8.333489960211548642e-03,-7.423346103799513193e-03,3.962129656328677169e-03,3.675352632999420166e-01
3.541080663351566238e-01,-2.775760112990072193e-02,-2.651461874662972007e-02,-5.657889810720102093e-04,-6.641677391884367098e-04,-5.528323506178080705e-04,3.812499046325683594e-01
3.523574353633001088e-01,-2.763983053613885965e-02,-2.666791805092680323e-02,1.902987438699807628e-04,-1.416050372311829448e-03,-5.276750916126111794e-04,3.795213997364044189e-01
3.530717631387769728e-01,-3.162151456904635505e-02,-2.518032586648288884e-02,1.650728981995640797e-03,-5.110547296664044899e-04,5.023172769466232495e-04,3.815262019634246826e-01
3.486281741914239451e-01,-2.530404661674506839e-02,-3.945202023568974981e-02,-9.493811991576660628e-04,-4.673050085609884406e-03,-9.773562881978321067e-04,3.812963962554931641e-01
4.128279755742502166e-01,-2.792929178660150114e-02,9.672954473898265348e-04,6.034083698925065374e-03,-1.442128813405819596e-02,-3.843558922081345697e-02,4.330480694770812988e-01
3.447005302644321478e-01,-2.722916301038799669e-02,-2.312185301375915825e-02,-5.240018018209024932e-04,-4.004867197744781983e-03,-5.369964089907850119e-04,3.699604570865631104e-01
3.537979140378820220e-01,-2.233138818466520736e-02,-1.488014897538139647e-02,3.508851388537900643e-04,-2.179390606404655456e-03,1.223299418545875216e-03,3.724852502346038818e-01
3.595823947063545023e-01,-3.882478984504822428e-02,-2.378862761698385953e-02,3.205198137477179715e-02,-3.615513540300007572e-02,-4.345732205063419784e-02,4.069803953170776367e-01
3.398269655800174038e-01,-3.318206905255099981e-02,-2.576602271784567133e-02,4.276976841583937997e-03,1.818783163649339066e-04,6.008863268311605277e-03,3.695778548717498779e-01
3.712198588279915779e-01,-2.503560785273967193e-02,-2.226466400288351632e-02,1.669673351301706032e-03,-3.889845019981584377e-03,-1.077119280771036622e-02,3.953857421875000000e-01
3.526583445031319375e-01,-2.676932727219794028e-02,-2.955115670105845638e-02,5.639421115425943907e-04,-6.820788883891525448e-03,-4.188412423166374202e-03,3.810797035694122314e-01
2.901827200561571396e-01,-2.174074238284119664e-02,-2.842716692347163621e-02,-4.156288962450171987e-02,2.607700813278139833e-03,-2.306567030701298093e-03,3.234893977642059326e-01
3.487304075148463522e-01,-2.182142549691010180e-02,-3.724922289376486617e-02,1.370584202401339607e-03,-4.561171546612408263e-03,-3.336345249856922045e-04,3.785919547080993652e-01
3.410739444382483443e-01,-1.121217854175329820e-02,-1.777950563337940548e-02,2.493305972884867633e-02,-3.937452633473277619e-02,-2.958965244184850324e-02,3.682456910610198975e-01
3.695553117052760017e-01,-3.141134359202238380e-02,-5.127680760991570885e-03,3.019874435397589593e-03,-2.540025736624155778e-03,-1.459656693434785261e-02,3.893739879131317139e-01
3.656391987500283713e-01,5.300862318740412471e-03,-3.077190298911972044e-02,-3.454284773997108766e-03,1.238973670705341944e-03,7.806502189371448096e-03,3.799560368061065674e-01
3.427541815306386352e-01,-2.100151412892334313e-02,-4.161589978495128239e-02,-1.531785926929271971e-04,-4.575329091520030644e-03,1.883565044593771189e-03,3.745867908000946045e-01
2.443534406412823656e-01,-1.001081311415318031e-02,-5.636822793755283389e-03,-1.444696918203126901e-02,1.915315612283344585e-02,5.812499213649477067e-03,2.558041214942932129e-01
3.539480007375215287e-01,-2.505129770984740323e-02,-2.149355194070226571e-02,1.297942894589850177e-04,-6.045247463669405292e-04,1.663199592219091554e-04,3.772346377372741699e-01
3.525245123493663812e-01,-1.122108313835176729e-02,-1.879509485487360076e-02,-1.842482331901167895e-03,-4.223516724773813524e-04,1.055444561761110893e-02,3.680599629878997803e-01
3.578910809877798305e-01,-6.941094028528160820e-03,-2.919882404658422081e-02,2.469502113082633257e-04,-9.442201364860825907e-04,-1.644550860939646012e-03,3.764694333076477051e-01
3.509597207840704503e-01,-1.783665260722669399e-02,-1.635872725184295273e-02,-4.146733235958560628e-04,-6.347385594657178193e-04,3.800760011093433713e-03,3.681208491325378418e-01
3.523477583191589324e-01,-1.906594207034267852e-02,-2.160312705584532811e-02,6.931472951398218391e-04,-9.653777018421734728e-04,9.700685663129036181e-04,3.726982474327087402e-01
3.545775489106365308e-01,-3.226734886835910809e-02,-3.294403168759504896e-02,-4.790025937064931131e-04,-4.406201226591203481e-04,-3.488018763765392467e-04,3.871857821941375732e-01
3.546662952522112722e-01,-3.230170532346679502e-02,-3.208844059847731911e-02,-6.679148463707322092e-04,1.130065108746934827e-04,-5.397516816445980690e-04,3.868643343448638916e-01
3.392539211635076657e-01,-2.197363848339617398e-02,-3.860055218353222739e-02,1.203738389996789298e-04,-2.645357548380843863e-03,3.220292477811919404e-03,3.698919415473937988e-01
3.518773735499047817e-01,-2.796576671019548876e-02,-2.808393076381382469e-02,1.293553864204014252e-04,7.016808957868226389e-04,6.223069333518246350e-04,3.799057900905609131e-01
3.550129385226447609e-01,-2.785933395563180981e-02,-2.785270526237146327e-02,-2.395522173849169042e-05,-1.355272039082343729e-03,4.047784666604970080e-05,3.828761577606201172e-01
3.550171731121418151e-01,-2.778700023643498884e-02,-2.768931718386646867e-02,-9.003537993829743152e-04,-4.975937110381788066e-04,-8.716573386123050175e-05,3.827595114707946777e-01
3.553339774950314833e-01,-2.848948714153701212e-02,-2.924405434028934381e-02,3.463828706278927554e-04,2.023391942507953879e-03,-1.272117926436912554e-03,3.842240869998931885e-01
3.542610021357679995e-01,-2.866900997368368453e-02,-2.893403772051073020e-02,1.940162586755743435e-03,3.669848841220863011e-04,-1.577437984738926146e-03,3.830876052379608154e-01
3.351111193639739194e-01,-4.136051065518184244e-02,-2.059585735680227736e-02,6.501619074556803587e-03,-7.339677275983591412e-04,1.738100257560330287e-03,3.667182028293609619e-01
3.547208352571467604e-01,-3.224981391926143304e-02,-3.247326250934781666e-02,-1.765587495830459421e-04,7.383013412369217668e-04,6.957985591652383851e-04,3.870865404605865479e-01
3.548188454061251829e-01,-2.969200457787746217e-02,-3.117696018894156040e-02,-5.318947389405888736e-06,-1.077069231869929016e-03,1.099861868635164820e-03,3.852646946907043457e-01
3.555441934749400956e-01,-3.209657636992707674e-02,-3.187908696757257854e-02,6.025311661976101530e-04,-1.662408499833323219e-08,-1.184944169337256704e-04,3.875335156917572021e-01
3.546935322508550925e-01,-2.736234113944716051e-02,-3.253424180332603610e-02,9.579988233522527489e-04,-1.265336287937391258e-04,1.595706908537117188e-03,3.846814632415771484e-01
3.527577704755855970e-01,-3.434619641682767899e-02,-2.986535426132860827e-02,-1.095712665080583476e-03,-1.293741675268047471e-05,-2.090542686454726316e-03,3.849048316478729248e-01
3.408055269776613661e-01,-2.468332226256839124e-02,-3.766003747844864913e-02,-7.879212057787472745e-03,-2.353247777123834185e-03,-3.707605105963231781e-03,3.724747598171234131e-01
3.459891321515172202e-01,-2.877147642901783930e-02,-3.346563857466230973e-02,2.846908333763578452e-05,-1.000550776744305384e-03,-5.213193375166115702e-03,3.772416710853576660e-01
3.035295203452383350e-01,-2.573930804352400625e-02,-2.429562787786423983e-02,1.249921078901433495e-02,1.346285262952243850e-02,-7.436790706190066907e-03,3.303377628326416016e-01
3.528912536328218108e-01,-3.539323532526661431e-02,-3.037201594013488881e-02,-1.178320128536524368e-03,-6.860631659846128756e-04,-8.975383528804074286e-04,3.858087360858917236e-01
3.857937221121147675e-01,-7.790838670031774438e-04,-3.949671978567903530e-02,2.727335986245297411e-02,-2.098229902493346181e-03,-1.723056312222816114e-03,4.100712239742279053e-01
3.085990674664955136e-01,-3.315955971813266956e-02,-1.718751037399586512e-02,2.465015718932452374e-02,-1.069146441831335663e-04,-5.946201527222088170e-04,3.367780745029449463e-01
3.410346185622707416e-01,-2.118436982925411827e-02,-4.144153458485799746e-02,-2.950933225966493332e-04,1.568246242286335066e-04,-1.380211092758663275e-03,3.727687299251556396e-01
3.510808371700250285e-01,-2.964079401696381733e-02,-3.337000983904611640e-02,-9.128211901840528261e-04,-5.896391010728432207e-04,-1.021633998858792860e-03,3.826085925102233887e-01
3.540614568681864083e-01,-3.022880410296627240e-02,-3.344791634051286211e-02,4.975908155548050158e-04,-2.005369288963363555e-03,-8.035428905090268416e-04,3.859289884567260742e-01
3.539838574620605138e-01,-3.099399911147424080e-02,-3.209822434962888993e-02,-9.186437420383950512e-05,-2.342966026633103095e-04,-3.414152711632351188e-04,3.855318427085876465e-01
4.100892794579798495e-01,1.218270808999105670e-02,-4.640353200115801546e-02,1.357220920337448740e-03,-1.293481435754109329e-02,-1.769815852826220771e-03,4.308023750782012939e-01
3.416256498847745626e-01,-4.212104922015477704e-02,-2.169605938190383165e-02,-1.949230689539753567e-03,-9.595763113291165287e-04,-4.809726771236837043e-04,3.739726543426513672e-01
3.506426524411083712e-01,-3.102292154603278340e-02,-3.230867645314092207e-02,2.158636511380371010e-04,-7.657143018064642816e-04,-2.744448561715175268e-03,3.823421001434326172e-01
3.701783185434399659e-01,1.353648490284048433e-02,-4.482209800932429600e-02,6.442234269205052155e-04,1.499742571562845969e-03,-5.307317760917373145e-03,3.892360925674438477e-01
3.421618642526938481e-01,-2.136757186652762930e-02,-4.224864811700715372e-02,-9.229823481532854778e-05,-2.019223606398609823e-03,-6.083102834981257267e-04,3.744247853755950928e-01
3.777770224088245477e-01,3.439422396454165642e-02,-5.552350753801202354e-02,6.972480117521104304e-02,-1.146310130136701973e-03,-4.246244571506881463e-03,4.141446948051452637e-01
3.438478035809499067e-01,2.759043419487978988e-02,-5.020990420839896440e-02,5.270446226449027050e-02,1.124217365205730165e-02,2.059195696406801359e-03,3.733653724193572998e-01
3.424689419212202934e-01,-2.320847559025912554e-02,-3.958384361534825202e-02,-2.414698277307612048e-03,-2.509908218127754505e-03,-1.147296788351938107e-03,3.741878867149353027e-01
3.595961291653365643e-01,1.080112942375657803e-02,-4.055074303299316396e-02,4.030962985306597163e-02,-2.618771673761191143e-03,-1.404246129430473770e-02,3.843084573745727539e-01
3.247739506392772202e-01,-2.486044790004920957e-02,-3.104635946048681094e-02,-4.902777427975615887e-02,2.053010083242088821e-02,-3.468742152015029390e-04,3.645837008953094482e-01
3.419077653826687602e-01,-2.245643704905744831e-02,-3.857910681171727862e-02,-4.265248927968131069e-04,-5.095037159066224128e-04,9.085799501335143627e-04,3.726922869682312012e-01
3.423817672314122262e-01,-1.984117143869723598e-02,-4.231285034599852057e-02,9.370557104919064167e-04,-2.029148614508949951e-03,-6.454741135162669636e-04,3.739871978759765625e-01
3.890757493014238011e-01,-5.189887455518121806e-02,2.824347921644994319e-02,-6.459351370484651099e-03,3.830901997361443878e-02,-7.458733293838583182e-03,4.125960171222686768e-01
1.853175437612020471e-01,1.671982641513478085e-02,-1.819035256153649083e-02,-8.829888920546423436e-02,-1.584710453292689867e-03,-8.823098409818848700e-03,2.432300299406051636e-01
1.238908347268131566e-01,1.348241122076452095e-02,-5.443259536060827963e-02,-6.721494653166817934e-02,2.331302363079446743e-02,-1.620519660776285550e-02,2.006806433200836182e-01
3.481572916521465944e-01,-3.313322602867238564e-02,-3.103474779538842321e-02,4.754353234062785004e-04,5.385292596685342268e-04,-3.211230143668232940e-03,3.802883327007293701e-01
2.275067862600536894e-01,-1.554299616487980762e-03,-3.071196127711842139e-02,-3.246338246939863698e-02,-4.089757460051313305e-03,-3.178648335635708092e-03,2.514759302139282227e-01
3.122501485812513855e-01,-2.952287965005612191e-02,-2.485096110680384829e-02,-3.943204509450159295e-02,2.187960843362492594e-02,1.829852692084027975e-03,3.483457267284393311e-01
3.482258131707881565e-01,-3.601523661956221312e-02,-2.596252115980568487e-02,1.521665945372055115e-03,-5.653442731175732216e-04,3.828648872524223912e-03,3.793829977512359619e-01
3.419143568796642052e-01,-1.989104748442008241e-02,-4.184626240744324099e-02,1.441672426261340586e-04,-1.846203326432298546e-03,2.599213277625422934e-04,3.732816576957702637e-01
3.361321662004619903e-01,-2.195217311301947416e-02,-3.624297801114725881e-02,-2.607673097736790580e-04,-2.862992296329236154e-06,3.990695910076502706e-03,3.655050098896026611e-01
3.468237440923564452e-01,-3.517608872788713370e-02,-2.804530899731910720e-02,2.170787502951581401e-03,-4.320338095343199654e-04,2.877138228061766525e-03,3.785370588302612305e-01
3.455952317820362163e-01,-3.562233328932362664e-02,-2.685112039348122592e-02,1.367238588799707128e-03,2.044758373751910207e-04,3.525861036117113999e-03,3.769655823707580566e-01
3.464564688385174396e-01,-2.710072092234563912e-02,-3.552697362045700857e-02,-2.306791019064834331e-04,-7.000317470637842541e-04,3.338981860063033793e-03,3.778872191905975342e-01
3.450876663973172498e-01,-3.859671000667386220e-02,-2.494128373532986109e-02,-3.308586570632130928e-04,-7.141817831463970548e-04,2.081871652776093925e-03,3.770618736743927002e-01
3.485925620581645235e-01,-3.524293335805545047e-02,-2.783104967367247551e-02,1.960054768499426125e-03,-1.007942912400278763e-03,2.872700195604031403e-03,3.802354633808135986e-01
3.487099812856362391e-01,-2.546249554751997546e-02,-3.546139237586601323e-02,1.630627587594793242e-04,3.495138088348227236e-03,4.974749788922996040e-03,3.794170618057250977e-01
3.512299973666422326e-01,-2.629217359671623400e-02,-3.816155598609699551e-02,6.078685070245206908e-04,-2.793563259130111675e-03,1.672248942340376181e-04,3.836266696453094482e-01
3.407078961947126450e-01,-2.512238749164599771e-02,-3.521600632452387414e-02,-1.583563175926095161e-03,2.798110759541189846e-03,4.724005921835206130e-03,3.711121082305908203e-01
3.528632782564446457e-01,-3.299959771239513451e-02,-3.029240164279578540e-02,-1.093443408135142585e-03,4.890429336342377083e-04,3.416214589414654553e-03,3.845675587654113770e-01
3.552018538737757303e-01,-3.294296925383036201e-02,-3.309707878279757876e-02,-5.342031789315896729e-05,4.973500347284824733e-05,6.383105384223585702e-04,3.882234990596771240e-01
3.485705553431712733e-01,-2.819684906471572883e-02,-3.334837869977730351e-02,5.884439235992323762e-04,6.167499571980579985e-04,2.385038109996523523e-03,3.793947696685791016e-01
3.275855513952302678e-01,-2.512558548096083255e-02,-3.506186031078267762e-02,-6.496960317908227929e-03,8.163755917374398638e-03,5.290211256695927927e-03,3.583560287952423096e-01
3.455594352422711180e-01,-3.277376732670297943e-02,-3.047589906152209371e-02,3.838061940893338427e-04,6.118360994645362589e-04,4.097170191445226664e-03,3.772583305835723877e-01
3.359939559231414075e-01,-4.129573755386853340e-02,-2.089934094317064117e-02,-5.644106149147367496e-03,-7.465884599445784782e-04,-1.947931676786987748e-03,3.676639795303344727e-01
3.419030504643451041e-01,-4.053254482565027406e-02,-2.127580617109919858e-02,-6.560247313932654565e-04,-3.024353153085988788e-04,-5.286868638177196107e-04,3.731832504272460938e-01
3.409202571976669982e-01,-4.152314361342815396e-02,-2.108796488187275608e-02,4.015693876647757725e-04,-5.016392809432312569e-04,-1.414780416422546649e-03,3.726559877395629883e-01
3.413713105928634639e-01,-4.140985427433141464e-02,-1.744726475246136110e-02,-4.246927756504939588e-03,-6.434020072633074181e-04,-1.172193838294278371e-03,3.714601993560791016e-01
3.515726706693279024e-01,-3.103497327849072396e-02,-3.282388921585790986e-02,5.465524096853553639e-04,6.485959769750437994e-04,-1.733267361678058737e-03,3.835197985172271729e-01
3.460145688216040849e-01,-2.539093261770017373e-02,-3.864655255689558588e-02,-8.869575202291350106e-04,4.565677073133608436e-05,-2.080000529331365450e-03,3.782278597354888916e-01
3.549452357358113264e-01,-3.153672446259231377e-02,-2.965549583700941016e-02,-4.466475316562221881e-04,-9.133446363951073902e-05,-6.215937946074034590e-04,3.855471014976501465e-01
3.562954943535495134e-01,-5.689006601725304924e-02,2.903902636810147542e-02,-3.284383971528566371e-02,-8.663562717783777900e-02,1.573065288907796178e-02,4.112142622470855713e-01
4.752416775636025270e-01,-6.068604182199946462e-02,1.671460408865579894e-02,-1.423080687403763256e-02,-6.916495598254356059e-02,8.750381422025702363e-03,5.166399478912353516e-01
3.495347467744628900e-01,-2.356111325565229953e-02,-3.721848116844639343e-02,-1.869941924354138010e-04,-6.043096533472016099e-03,-2.026084505218619589e-03,3.802690207958221436e-01
3.744801391023993564e-01,-4.917365679690621771e-02,1.232731186205564267e-02,-1.682885760633612629e-02,-2.673427431678027794e-02,1.554182717686020078e-03,4.002634584903717041e-01
3.421895741601017615e-01,-2.701269377607923294e-02,-3.510566921310631638e-02,9.608870683192819850e-04,8.162501740381237830e-04,-4.268448369200425647e-03,3.733941316604614258e-01
3.734254043000576617e-01,-4.063390284475737468e-02,1.770507447276464807e-02,-5.120154284263185931e-03,-9.851885996901911177e-03,6.924109890971838314e-03,3.888526856899261475e-01
3.293543708264745073e-01,-3.801841020133561733e-02,-1.974364654485299964e-02,-1.102758756342654169e-02,-3.496490011929718165e-03,-3.817000465149335796e-03,3.592050671577453613e-01
3.272145976332712647e-01,-1.434464449101410799e-02,-3.842149477435338745e-02,-1.316710761956016744e-03,3.090961511578525344e-04,-3.429412158116419435e-03,3.542694747447967529e-01
3.483428561311251448e-01,-2.339121741527214193e-02,-3.977432312821232996e-02,9.521142891127779874e-04,-2.500436206875400469e-03,-1.143115393993668523e-03,3.802238702774047852e-01
4.217701709776247032e-01,-5.881953428085093249e-02,1.249199751684676452e-02,-2.351389518657235819e-04,1.203612555585451167e-02,-1.034892568506708436e-03,4.496867656707763672e-01
3.289812466208958952e-01,-1.820980816445968986e-02,-3.852033856120315458e-02,-2.423410225354162171e-04,-5.174304207142099276e-04,2.361837129407522336e-03,3.578037023544311523e-01
3.470645384257327604e-01,-3.031924829232474083e-02,-3.330872219680078294e-02,6.668012060852346670e-04,3.427524345941078670e-04,4.216912931783488652e-03,3.789599835872650146e-01
3.431778324777363109e-01,-4.212573914121378604e-02,-2.082624705867261450e-02,-1.085523106799914095e-03,5.104354912163769830e-04,3.771884652927581338e-04,3.751139640808105469e-01
3.514998924367324640e-01,-1.968262500857534403e-02,-2.424277709405961434e-02,8.874300293428946836e-04,3.349753325594861421e-03,4.884428092488995315e-03,3.736274838447570801e-01
3.191141138754605144e-01,-1.920015411671993633e-02,-2.932742471368673942e-02,6.251924169486229805e-04,1.869324627141212626e-05,-8.084602160939650256e-03,3.437769114971160889e-01
2.305433180422156170e-01,-9.536673742017873212e-03,-3.247837531555747281e-03,1.356427692051075280e-02,-2.554001391969365031e-04,3.565374020930279272e-03,2.382402718067169189e-01
3.441771791079304421e-01,-2.316369707742632622e-02,-4.147438066881048435e-02,3.991482451960523124e-04,9.428588890642241281e-04,-5.858735953584208673e-04,3.768355548381805420e-01
3.970835418960233509e-01,1.099681137686456256e-02,-3.779038878359047837e-02,-2.276127132879750270e-02,-1.867585674573763940e-02,3.105451665100805031e-02,4.192528724670410156e-01
3.195525754460090129e-01,-2.111903962780489752e-02,-3.080438183279257669e-02,5.912101398308668284e-04,4.565352188826141876e-05,-6.252581033590060532e-03,3.457872271537780762e-01
3.424529183839943314e-01,-2.324660971827291478e-02,-3.862841922736412470e-02,-1.651152986506332267e-03,-1.499919950746983911e-03,-7.598523188719143217e-04,3.736502826213836670e-01
2.067117489800552321e-01,-1.121898293647903555e-02,-7.841609453910922123e-03,5.829866151218118797e-02,-4.996301722055397632e-02,-1.260632460013015425e-02,2.548156976699829102e-01
1.808718325922468173e-01,-2.152458409427743247e-02,-1.483414128519353059e-02,6.191600823526163810e-02,-7.276541247988088656e-02,-2.655445673584044125e-02,2.629744410514831543e-01
3.412549155214661400e-01,-2.204889853200359129e-02,-3.983402953787751333e-02,1.241759992257058685e-03,-2.665083686679730658e-05,5.328164995528554375e-04,3.725222945213317871e-01
1.565100630163225315e-01,-1.387924184396649441e-03,4.234482641980369388e-03,4.326685356924368092e-02,-7.531052756655883668e-03,4.325230080890592188e-03,1.729680746793746948e-01
2.295861207258675096e-01,-4.371362156825325807e-02,-2.483209373534089881e-02,-5.011004611340408310e-02,-5.749182196148082402e-02,3.363402895245631158e-02,3.012169897556304932e-01
2.375125031826827438e-01,-2.460110166309791013e-02,-7.618125259306107733e-03,5.518729839921580893e-02,-3.193062321576357887e-02,3.379002129979817473e-04,2.770134508609771729e-01
3.398470232542249447e-01,-1.963655794043561720e-02,-4.058872490442980152e-02,-3.469784838095220239e-04,-1.115940959545019991e-03,-1.212734125674992365e-04,3.704099655151367188e-01
2.025549649435896549e-01,-3.626148693420677693e-04,-3.434018736407339067e-02,8.699080265977042481e-02,-6.035152564432483269e-02,-6.042378737740675132e-03,2.880335450172424316e-01
1.451249374831081740e-01,3.045885232062665871e-03,3.883061176844573859e-03,3.838435624133853391e-02,-4.507910762088639806e-02,7.576111908932107487e-03,1.753763407468795776e-01
3.516419550818624673e-01,-2.685531526521012236e-02,-3.646530198169481429e-02,1.577256567445579427e-03,-3.237423553160362691e-04,1.155259753945894708e-03,3.834079802036285400e-01
2.064397827505515814e-01,4.081214793665161045e-04,1.714015710470584430e-04,-1.091845593326436952e-03,5.893838095261944964e-05,3.211048843029684022e-03,2.062338292598724365e-01
3.362519296949588177e-01,-2.040779341156323534e-02,-3.869740874044783063e-02,-6.340277607675005433e-04,-6.187816678151750096e-04,4.480873124215484921e-03,3.662327527999877930e-01
3.361132817338577938e-01,-2.103976578057778490e-02,-4.068949449905231996e-02,-8.474830838932532421e-04,-4.209293601871641304e-03,-1.446050920530289954e-03,3.674560487270355225e-01
3.520801510169631610e-01,-8.614833687178996557e-03,-2.198203285673194785e-02,-1.593054045099448696e-03,1.910721888862727553e-03,5.184390589003903468e-03,3.676958382129669189e-01
3.524589353133142366e-01,-2.128067653062645781e-02,-1.269555309940956223e-02,2.437677295277704270e-03,2.805392022439334113e-03,8.190423036050817340e-03,3.698500990867614746e-01
3.537197874117051777e-01,-2.397730388244698196e-02,-2.185477523049364490e-02,4.084391722611674857e-04,9.015283497134029492e-04,-4.293604203851703006e-04,3.766449391841888428e-01
3.429809213158671044e-01,-2.108155651704207711e-02,-4.076510139238193053e-02,8.219705803377782595e-04,-1.508715501125087706e-03,1.394164855844772909e-03,3.743122518062591553e-01
3.462564774436262538e-01,-3.255325906213227261e-02,-3.250719167657531439e-02,4.348538800960111486e-03,-4.761389433344980979e-03,6.274691722986902760e-03,3.791071474552154541e-01
3.534631075490262675e-01,-2.249123268255784347e-02,-2.229881053285867609e-02,1.748708534926806269e-03,1.338691435605064749e-03,2.428222244402699042e-04,3.758777678012847900e-01
3.538590037778365227e-01,-3.134428867723201839e-02,-1.517873870689023796e-02,-3.625161103278661673e-03,-1.262371815962660265e-03,-1.639925886704271616e-03,3.774495422840118408e-01
3.480186650728016584e-01,-2.703316160172308802e-02,-3.861591736970831912e-02,-5.973285334550501504e-04,5.468259541150224152e-06,2.547396592241820638e-03,3.810022473335266113e-01
3.710071323135051280e-01,-4.551363259865184863e-02,1.025662527805806801e-02,-2.552619060916015616e-03,-6.312046559374552730e-03,-2.635785441984522630e-03,3.918294310569763184e-01
3.506505908997656351e-01,-1.559531506225003694e-02,-1.462057245012157725e-02,5.203778034783356583e-04,6.271686568796353174e-04,2.584713679898315800e-03,3.657896220684051514e-01
3.517682829968979408e-01,-2.901093328877976663e-02,-3.527952821497098990e-02,6.966977201395393917e-04,-9.833162236701604390e-04,1.103754711240938734e-03,3.839623332023620605e-01
3.453769532911884488e-01,-2.755728710850721686e-02,-3.635253640908400752e-02,-3.740437217439921097e-04,-5.830574677273059944e-04,5.741023560241908900e-03,3.775416016578674316e-01
3.540272012171668536e-01,-3.137576220723869991e-02,-3.311577047792757522e-02,-2.804157479050024197e-04,1.548040234666203066e-05,6.728264963305969140e-04,3.862779736518859863e-01
2.659157484735676369e-01,2.010390116065231825e-02,-8.093466722543957159e-02,8.917700056385308161e-02,-4.433285304386429260e-02,-2.527798150519491513e-02,3.565662503242492676e-01
3.518176239562635921e-01,-2.268032521654164690e-02,-1.763734558925261764e-02,-8.677680484032548099e-04,-8.574555350266600291e-06,2.431331879854990198e-03,3.720289766788482666e-01
3.510743099754095597e-01,-1.723000017045031584e-02,-1.645332199103816118e-02,8.333578273473455375e-04,7.831841217339332922e-04,1.637960697202046683e-04,3.679220378398895264e-01
3.545823789295631245e-01,-3.231913370076064385e-02,-2.740207892402446443e-02,5.055647312810913592e-04,-9.502588238360248386e-04,1.609503201034710338e-03,3.844811916351318359e-01
3.236602766707202261e-01,-3.626853563876239472e-02,-1.231688182460775882e-02,9.116585043770162808e-03,-4.155781702340722791e-03,3.370382469748654797e-03,3.490512371063232422e-01
3.521942449827235588e-01,-3.407848551556458272e-02,-2.927328679105839493e-02,-2.139774738585939256e-04,-3.669269300534459908e-04,1.124264455669992660e-03,3.838983178138732910e-01
3.543511150019713618e-01,-2.963647108716663259e-02,-3.374431181598661067e-02,-5.807850669565566221e-04,1.439328055258749426e-04,-3.601448868254063414e-03,3.861096799373626709e-01
3.493052876492823144e-01,-3.508384533886202417e-02,-2.850773447855753373e-02,1.960719107664778062e-04,-7.250366801999303182e-04,-1.513603705832368548e-03,3.811548650264739990e-01
3.480690757489121601e-01,-3.092291656736181893e-02,-3.257752550218492860e-02,1.024887267145000065e-03,9.128477353614983074e-04,-3.567595473111321615e-03,3.798797130584716797e-01
3.528344346102824103e-01,-3.420349457043114771e-02,-2.893221661855174820e-02,2.466769677036646314e-04,-1.223498047994387491e-03,-1.161906045041648889e-03,3.844407498836517334e-01
3.540047569109752712e-01,-2.053189182929229806e-02,-2.635094188441827745e-02,-1.645785162049821348e-03,2.195186213447832772e-03,-1.292752603997752731e-03,3.775163590908050537e-01
3.493007823456379946e-01,-2.553900962464381030e-02,-2.432128526489660270e-02,1.304078208119680905e-04,-9.827792498765689031e-04,4.287026078474138308e-04,3.742370903491973877e-01
3.589357350874005093e-01,-2.669515799885621710e-02,-6.987295301933066360e-03,1.479579828273280058e-04,9.569686047565259882e-04,2.725947369581477667e-03,3.761977255344390869e-01
3.362676561492706218e-01,-2.907654523435387883e-02,-2.730295045495365058e-02,-5.584343209545148887e-03,-2.241462115020195246e-03,-3.435578593412251525e-03,3.646581768989562988e-01
3.572050628093704772e-01,-3.192836103545615423e-02,-2.489108531470959895e-02,6.961974870152423862e-05,-8.746735023057969002e-03,-3.610787316083169797e-04,3.859609067440032959e-01
3.119202550309764788e-01,-3.087108730746054852e-02,-2.025649363494888555e-02,5.492666863117727895e-04,1.598172370598834741e-04,-5.831335870600085937e-03,3.377617299556732178e-01
3.557170579714669656e-01,-2.992726749220797622e-02,-3.114655254568310383e-02,8.288541322662818737e-04,-8.536088404507947373e-04,-2.238293901181769539e-03,3.862803578376770020e-01
3.067233796741036245e-01,-1.872626292190440744e-02,-2.824580646332222611e-02,-1.563160335835445808e-02,-1.492344143762815503e-02,-4.167594500373563056e-03,3.325048983097076416e-01
3.512771846216566907e-01,-2.676468998163303303e-02,-2.875445317751684771e-02,4.847654682127045672e-04,3.335716665884896556e-04,-2.072074721256921079e-04,3.790422081947326660e-01
3.280731468491451253e-01,-2.918792957860716353e-02,-2.749716614964423100e-02,2.385125309657553272e-04,6.095638661896809942e-04,-7.070562287119162501e-03,3.566308319568634033e-01
3.430173790133766998e-01,-2.149660579345452627e-02,-4.000360132548014258e-02,9.108098514359012216e-04,1.651045685249932337e-04,6.858247906444032722e-05,3.741144239902496338e-01
3.317239602616188221e-01,-2.143871199235172775e-02,-3.494773370675813284e-02,6.964257593368776379e-04,4.051068706448306654e-04,-5.736895920243225908e-03,3.602470457553863525e-01
4.038029489956932450e-01,2.532559379196515359e-02,-7.839317760117989198e-02,-1.046545284159440259e-01,2.636448983929130796e-02,-1.260385560152201684e-02,4.782023131847381592e-01
3.541202116279955625e-01,-2.050012311644502927e-02,-2.155717727541758832e-02,-2.562682619968219711e-03,-1.842307822245231163e-03,1.529443179033308916e-03,3.751991689205169678e-01
3.363861292340760145e-01,-2.505804184982879379e-02,-3.497384868415021053e-02,-3.744458258830006894e-03,2.046067603394684958e-04,-5.292452211824998955e-03,3.666748404502868652e-01
3.533855014232233360e-01,-2.932855227320768643e-02,-2.943959391875791698e-02,-8.323219592961954467e-04,4.197309240009695908e-04,-1.681532745084788477e-03,3.827840685844421387e-01
3.432323740343620200e-01,-3.772373819422569774e-02,-2.364289350305576187e-02,-1.308173653369586664e-03,-9.993292491020200168e-04,-6.244725926272385631e-04,3.741269111633300781e-01
3.246551150708246181e-01,-3.139173074075557457e-02,-2.306730482683297390e-02,-3.128093558703210625e-02,-6.203899060703021995e-02,1.333248429223264468e-02,3.726795315742492676e-01
3.542019012478401785e-01,-2.049970477724274986e-02,-2.201010644220541268e-02,-2.549634569293323695e-03,-2.292480971605761076e-03,9.353097352771018447e-04,3.755095303058624268e-01
3.091131689538866856e-01,-3.609867910438019356e-02,-1.415884792654319158e-02,-9.575635671802973370e-03,-1.718365860752241582e-04,-1.728032313671245017e-03,3.352056145668029785e-01
3.602198937160719927e-01,-2.689074844408362308e-03,-3.008218675922233465e-02,-5.799205307443941818e-03,-3.387568670199085120e-03,7.610359439159552174e-03,3.777612745761871338e-01
3.437803270122249399e-01,-3.009049756355866578e-02,-3.245911156167535783e-02,-1.296022363306301248e-03,2.615391159764118281e-04,-4.296799201727940359e-03,3.751415610313415527e-01
3.247189780463988207e-01,-1.500976770234510593e-02,-3.781462964154855277e-02,4.960604145596061434e-04,-1.425647866319988233e-04,3.751711026170246113e-03,3.517473042011260986e-01
3.478557229670433681e-01,-2.086552662584037487e-02,-4.036558693247088714e-02,6.719059761809034574e-04,3.597361285954889416e-03,-1.949980172659887610e-04,3.789010345935821533e-01
3.274404403829803689e-01,-3.511845335337843155e-02,-1.982567990502737132e-02,-7.392748783619940839e-03,-2.608698948581871912e-03,-3.561522133350711241e-03,3.554725348949432373e-01
3.429608209995626544e-01,-3.164382914222033105e-02,-2.286125816272646660e-02,-2.391927192672969014e-03,4.161310958347911432e-04,-6.769721682340556698e-04,3.703172206878662109e-01
3.304006828293344356e-01,-3.488487536937015521e-02,-1.863526304418183788e-02,-8.536840346533559193e-03,-5.074696205873266419e-03,-5.988606767992159068e-03,3.580018579959869385e-01
3.419201214816038337e-01,-2.757440943921538046e-02,-3.249134591297841990e-02,9.245732873845950023e-04,6.152534677673465171e-04,-5.367261780380280269e-03,3.720985054969787598e-01
3.480771518311234214e-01,-3.899481065650861611e-02,-2.195063072727410081e-02,-1.298778126137769239e-02,-1.402664594714147584e-03,-3.196304115464230263e-04,3.795130252838134766e-01
2.996787044284538459e-01,-1.463407389307914974e-02,-3.052632044377276421e-02,-2.821268784023897819e-04,2.536909011051265497e-02,-3.527326630186096022e-04,3.255327939987182617e-01
2.756882563908483741e-01,-1.110290444928883902e-02,-2.204354229293774281e-02,1.642856225325029992e-02,7.703483972862282259e-02,-1.723358121143234471e-03,3.226890861988067627e-01
3.567260032905240075e-01,-3.417645116974796227e-02,4.222295328506403544e-03,-2.234243647808420961e-04,-2.348630245096730226e-03,2.964576062871358310e-03,3.732453584671020508e-01
2.655332080229156344e-01,-2.505800862383567029e-02,-9.959234384445125876e-03,1.731214773077895119e-02,-1.519333252299378103e-03,4.618909464697463704e-03,2.850503623485565186e-01
3.109423898270005093e-01,-1.639258632855071507e-02,-3.482366824605281908e-02,4.848444472779164273e-03,-7.029135499217234115e-03,5.586667487179098300e-03,3.373920619487762451e-01
3.068250448849705325e-01,-3.571854138605631834e-02,-1.247439594306115618e-02,-9.608371013293540847e-03,-1.087991290513826278e-03,-8.622475845366944520e-04,3.319593369960784912e-01
3.429339621632800927e-01,-4.107801278348971463e-02,-2.162963854599353475e-02,-3.370029189962343462e-04,-6.636621588653841483e-04,-3.608677488272440405e-04,3.746692836284637451e-01
3.398634915492917963e-01,-3.025059106315791668e-02,-3.116449919578567762e-02,-2.401876924883209787e-03,2.893060390694831337e-03,4.945725601442529235e-03,3.707280755043029785e-01
2.877433602827771386e-01,-2.195652390814621657e-02,-2.549728632893789870e-02,-1.900516427039728590e-02,2.849240147571418386e-02,1.142693310289972543e-02,3.177009522914886475e-01
3.423068422675035749e-01,-3.026277710530367315e-02,-3.040560382091467284e-02,4.977791504805365117e-04,-7.607966808314542547e-04,4.044095362305364684e-03,3.727101981639862061e-01
3.449265173855208255e-01,-2.713183798819471249e-02,-3.335636364724198222e-02,-5.102520969748541380e-04,1.881995437133699594e-04,3.903009012155170786e-03,3.752714097499847412e-01
3.508805006646964486e-01,-2.688251330096791403e-02,-3.494621031151401436e-02,-5.795232834522442891e-04,-2.191845864791212590e-03,9.709158275388408759e-04,3.818826079368591309e-01
3.508477311531649767e-01,-2.548982528421839255e-02,-3.605616700339742131e-02,6.128781665879129209e-04,-2.785357700725018398e-03,1.720186113144295649e-03,3.817740082740783691e-01
3.260338485224187899e-01,-2.720211212353162988e-02,-2.709225888486588296e-02,-1.350335150702769904e-04,-7.996499493887520881e-07,6.403073054135798720e-03,3.533551990985870361e-01
3.549253564334625688e-01,-2.426936245119420965e-02,-2.184006492614029571e-02,-1.710764791418436029e-03,2.930822880895771719e-03,-2.022674870168628472e-03,3.780478537082672119e-01
2.569908504742284827e-01,-6.927114580371512842e-03,-2.257211656496185825e-02,-4.339565902550002706e-03,1.806765671485876731e-02,2.375276562010226935e-03,2.740058302879333496e-01
3.535069087677464861e-01,-3.138327343417748883e-02,-3.245358021471889121e-02,4.625831452383712692e-04,-9.754120944085494915e-04,1.115005918307153919e-03,3.854358196258544922e-01
3.041590387053459965e-01,-2.606805291515026934e-02,-2.415243567783659229e-02,-1.251537795880747206e-02,1.165801976868227272e-02,8.578909437454415587e-03,3.309372067451477051e-01
3.355415448813593438e-01,-2.442680988445442014e-02,-3.582635752315602162e-02,-5.987916508489861574e-03,5.591178829907646544e-03,5.351251799748617602e-03,3.661938011646270752e-01
3.492817857097898493e-01,-2.960912264219756063e-02,-3.550298349367800310e-02,-2.306729087661218112e-03,2.970315860634134119e-03,4.123498893209134875e-03,3.819942772388458252e-01
3.471070406445482259e-01,-3.643463405656977017e-02,-2.656554922122938978e-02,-1.235060401198105563e-04,9.731606666221982380e-04,1.171764303551553086e-03,3.787128329277038574e-01
3.513987309041473606e-01,-3.656693045244979734e-02,-2.685130007527750107e-02,4.394959787936400302e-04,-1.385513809641213340e-03,1.187250495311805614e-03,3.832140266895294189e-01
3.508512092348939904e-01,-3.290246429222856706e-02,-3.334128118046483791e-02,-5.085541623096470696e-05,-6.908331626542545849e-05,4.632494679673132033e-03,3.840571343898773193e-01
3.114417034437096943e-01,-1.600119464185356666e-02,-3.489926903447049256e-02,-4.471109574369668167e-03,6.930712929168273903e-03,5.673586331817827982e-03,3.377346098423004150e-01
3.512874391585078526e-01,-1.698477730216421677e-02,-1.755941456625792485e-02,-1.036618857320337553e-03,-6.902007054266152053e-04,1.426757299344109410e-04,3.685662746429443359e-01
3.078511846413000685e-01,-1.886224042625865571e-02,-3.140093345155500759e-02,-1.793755344046854116e-03,2.108990223864346675e-02,7.388797021275563025e-04,3.351732194423675537e-01
3.479295456635364547e-01,2.562504762432651906e-03,-7.102857902141396229e-02,-8.513619865853190583e-02,-4.382397049282724805e-02,2.465848458195001383e-02,4.236038625240325928e-01
3.280505450779644949e-01,-2.717331482440604740e-02,-2.933845397177564651e-02,1.954749593276893958e-04,5.708713375621717132e-04,-7.163799556215278037e-03,3.565288782119750977e-01
3.545809187054265177e-01,-2.641716621446230095e-02,-1.386934101329989621e-02,-1.776587056809163755e-03,-3.404961405403925459e-03,-1.321283682210457316e-03,3.749476969242095947e-01
3.433955645324758277e-01,-2.269883776604009196e-02,-4.189143497441685793e-02,4.591356062727969950e-04,-1.393859468280265589e-03,5.693269287313397617e-04,3.760680854320526123e-01
4.614300348991040024e-01,1.712743285856094255e-02,-7.622590364271525365e-02,-6.862527074069466049e-02,-2.305269262814283251e-02,2.147862550892018843e-02,5.144932866096496582e-01
3.271846749926888842e-01,-1.014912513798851834e-02,-2.937176547135930682e-02,2.870064670664064510e-02,-3.633234406547179544e-03,3.238233148443324990e-03,3.509847521781921387e-01
3.282620371476552834e-01,-3.812368069598690012e-02,-1.811838670447071808e-02,-2.695319310676131362e-04,-2.170156505815405527e-04,2.500367279961386840e-03,3.568307161331176758e-01
3.325892439103043663e-01,-4.077820546593299844e-02,-1.817903229771933304e-02,-4.616281510635504223e-03,3.807640452574346970e-04,1.189205244044455687e-03,3.626910448074340820e-01
3.112361012111483083e-01,-2.497123037570850301e-02,-2.179946186777551032e-02,-1.841743968462060052e-02,-1.138818358998652976e-02,-9.088372427107728468e-03,3.370957374572753906e-01
3.738043913795794926e-01,1.859065385142907867e-02,-5.023943159019436666e-02,7.960320273418874243e-03,2.637856679869808943e-03,1.106987038969111520e-02,3.948954045772552490e-01
1.993888782892566935e-01,2.045626804481531780e-03,1.721529964152451742e-03,-3.828597021166746839e-04,8.615004145232671266e-04,2.062087291941600443e-03,1.975445449352264404e-01
3.490568821524380194e-01,-2.563784074607908248e-02,-3.831507548187043644e-02,-1.457629689899545694e-03,3.850818661002183320e-03,1.298493900868614688e-03,3.812648057937622070e-01
3.353837259082507183e-01,-3.829169975195859110e-02,-2.043595502681588849e-02,-1.037495114575531611e-03,-9.138417298289850960e-04,4.816905304487304959e-03,3.651783764362335205e-01
3.923760511444741583e-01,-1.052899904127779784e-02,-3.245315552633748490e-02,1.826498003781111892e-02,6.278339656365443736e-03,9.970367732503628011e-03,4.160093963146209717e-01
3.337401350537562705e-01,-2.729877765651858579e-02,-3.192609643692020938e-02,2.232068770386522508e-05,-4.864418233218247359e-03,6.151135869528897952e-03,3.636284470558166504e-01
4.564746609039974090e-01,-4.720026741851923724e-02,-2.058732269808671855e-02,-4.165372519175990912e-02,4.991081666328421595e-02,-5.000118684815494513e-02,5.110490322113037109e-01
2.905199859986986599e-01,6.545336606336965568e-03,-6.918299320756207682e-02,-8.758710240451555995e-02,4.140306558634035405e-02,-2.112951041265867524e-02,3.706451356410980225e-01
3.843503460032853813e-01,-1.124344677351143962e-02,-4.094056977817642218e-02,1.076137014907032827e-02,7.735109381176642762e-03,6.430100497854466211e-03,4.120379984378814697e-01
4.232407468868931155e-01,-5.291312009970230990e-02,2.031602153282938139e-02,-9.415211885735031913e-03,-2.538907889052620381e-02,2.551577193759042156e-02,4.487422406673431396e-01
3.945785786451748711e-01,-4.522291957585308775e-02,1.408991137212431410e-02,6.764358430146562295e-03,3.182220715583304344e-03,1.764977147677834757e-02,4.146802127361297607e-01
1.975114131934208039e-01,-4.406831024554809517e-03,-5.766235068925522345e-02,-7.402439168814703430e-02,1.515910582691297817e-02,4.080990601655272096e-03,2.674669623374938965e-01
3.644177604751369648e-01,-4.372061202113469713e-02,1.320422424398073891e-02,3.590465801094754484e-04,-3.260503184717946767e-03,7.319168115357031030e-04,3.829073607921600342e-01
3.137114785439957809e-01,-1.994622678223967327e-02,-2.806356647539140492e-02,-1.203532367534648328e-04,-5.977890390982496405e-04,6.517689107955435511e-03,3.379797637462615967e-01
3.653148698743918232e-01,-3.962553254378045620e-02,1.032506889381305804e-02,2.232363507968966598e-03,3.264978986322079110e-03,1.195608219977302260e-02,3.830411732196807861e-01
3.858606030840747714e-01,-4.770373472519251479e-02,1.873270827185237464e-02,-1.012025694461121152e-02,-6.044814371614017079e-02,2.246931429834937016e-02,4.199656844139099121e-01
3.501354305917663279e-01,-3.545511533583750596e-02,-2.879166562069698787e-02,3.131925489470292778e-04,1.061204777172508693e-03,1.666438989278584953e-03,3.823180794715881348e-01
3.512562986072612081e-01,-1.752001580907408540e-02,-1.952495493126171766e-02,6.541295668802086117e-04,3.827142035775042282e-04,-1.021367947184591415e-03,3.697894215583801270e-01
3.959204132200810355e-01,-5.599468811756649900e-02,1.502310077732377236e-02,-4.689687555155448717e-02,-4.743789081484178077e-02,2.922799276074652952e-02,4.394184947013854980e-01
2.732931996546119069e-01,-1.799470132542051182e-02,-7.574579078565693568e-03,-1.963730531241400512e-02,3.565904384251530337e-05,-3.385409545655252567e-03,2.882936298847198486e-01
2.983035530234718902e-01,-7.107938852121853390e-03,-3.144257941981978832e-02,-2.335738707352322946e-03,-1.486475084778943537e-03,2.192768904434926579e-03,3.183360695838928223e-01
2.146622230727018021e-01,-9.178674107462980736e-03,1.890880135591327393e-03,-1.605182331618959513e-02,-7.988638001832150046e-03,-4.220441917749345392e-03,2.208332866430282593e-01
2.424655671115187039e-01,-1.466789984506135236e-02,-7.326741136208098082e-03,-1.369467617869537905e-02,-1.599531918908147707e-02,-6.602638491138687095e-03,2.564075291156768799e-01
2.280861134230354470e-01,-9.935548838542279659e-03,6.352409851784202033e-04,-1.534112391873318840e-02,-9.279878317691600759e-05,-3.574343265524919551e-03,2.345088124275207520e-01
2.150825414380791722e-01,-1.919100461225441145e-02,-1.029974160345030476e-02,-4.917054652298275680e-02,-4.442445971209488254e-02,-1.112117373280809354e-02,2.577305436134338379e-01
3.523767967739019347e-01,-2.271398576705860317e-02,-1.938500633988396449e-02,-1.710333479481237779e-03,2.454221781224976773e-04,2.916433281938039064e-04,3.734497427940368652e-01
2.803418413784784513e-01,-2.435388739945307246e-02,-1.481085029528220187e-02,-1.275518162966343856e-02,-7.439751120046659769e-03,-5.228453878113555053e-03,3.012623190879821777e-01
2.654492418814836663e-01,-2.612702166435953988e-02,-1.075079886450792943e-02,-2.469488136544300411e-02,4.472259053840357650e-03,-1.152164760700177338e-03,2.875122725963592529e-01
3.551418022382827888e-01,-2.571657016702824650e-02,-1.866773202515031871e-02,1.948175602014689742e-03,2.936496071030009376e-03,1.060826791457041788e-03,3.774371445178985596e-01
4.124784305711933774e-01,-3.932347509552108766e-02,-8.194139217677143261e-03,1.418505751311988777e-03,4.272821836837620464e-03,-2.362681581920160132e-02,4.390503168106079102e-01
2.845421389052367744e-01,-1.623727156919439751e-02,-1.621393938570753201e-02,5.744113371465443384e-04,-8.048176470456044765e-04,5.468045065270634754e-03,3.009217083454132080e-01
2.464317760682107894e-01,-1.232874495360289369e-03,-1.345644100763805640e-02,1.185818379095954765e-04,-1.700471449130566779e-03,2.025817516924105586e-03,2.540385127067565918e-01
4.163575252434237872e-01,-2.048075951043090703e-02,-1.221678240158038942e-02,1.638579516101951530e-02,-2.774315387589393334e-02,-3.921155869951371831e-02,4.416029155254364014e-01
3.439122276271102674e-01,-3.586149932577090138e-02,-2.741791354139311299e-02,7.635167304132432341e-04,2.814316556557017786e-04,5.896849465467108448e-03,3.757646083831787109e-01
3.578803150752120632e-01,1.794328012833384944e-03,-2.803245375403243256e-02,1.616209485479346572e-03,-1.071105847156199721e-03,-5.330404169923139319e-03,3.720272481441497803e-01
3.507723793770469167e-01,-3.609725262454491213e-02,-2.528209855385787908e-02,2.588835992188358651e-03,-4.848150665283327415e-04,1.788603550786271130e-03,3.816168606281280518e-01
3.531111086583076375e-01,-3.316208228858316676e-02,-2.806513031947052705e-02,1.750313232187910694e-03,-2.512635550426350049e-04,1.463520802805839439e-03,3.837707042694091797e-01
3.432246603225541648e-01,-3.948708111181917224e-02,-2.249802814200954626e-02,3.881013508606206844e-04,6.221198677861855455e-04,1.131016507253298706e-03,3.745136260986328125e-01
3.594028492835789623e-01,-1.315281176246291261e-02,-1.839184271017929584e-02,-9.608954516681256653e-04,1.710586042127743619e-03,-8.960062675533522758e-03,3.755387961864471436e-01
3.425100001604512445e-01,-3.998054913130938415e-02,-2.211090117952269063e-02,-1.065048525016719524e-04,-1.076869996301091153e-03,3.928304623755145492e-04,3.738814592361450195e-01
3.515880127605093830e-01,-1.881296885467900748e-02,-1.694705209495611653e-02,-1.291273125063571161e-03,4.412526759642332059e-04,4.062630229101186173e-03,3.695461153984069824e-01
3.114061642012271314e-01,-2.891670642361207633e-02,-1.823163919208388439e-02,1.781231892054399189e-04,5.445391372172209013e-04,-7.986405170218910388e-03,3.353949785232543945e-01
3.076683738878300822e-01,-3.613728944694419298e-02,-1.612494690283240717e-02,-1.051273416740818555e-02,1.123486223227598444e-03,6.234525315158383207e-04,3.347521126270294189e-01
3.527961448692168434e-01,-3.512536432500060202e-02,-2.847244535521750719e-02,-6.490651097154783410e-03,2.065154030079085633e-04,3.222675075859482256e-03,3.848431110382080078e-01
3.506388319959713451e-01,-1.493528826711074120e-02,-1.603822936090892881e-02,-1.098409433017107908e-03,-4.458251558994864167e-04,2.220282000839174721e-03,3.661527931690216064e-01
3.421726948246282540e-01,-2.619553439082572543e-02,-2.696574932991710472e-02,-3.897358881074343764e-03,-6.655718438832379210e-04,5.117005766200062155e-04,3.688185811042785645e-01
3.342451713316901274e-01,-2.841007344929391554e-02,-2.935951512456699830e-02,-8.452055363116783046e-05,3.219010527520052719e-04,7.450022661278428437e-03,3.633605539798736572e-01
3.468218279787403380e-01,-2.865794317036421401e-02,-2.811130697708197346e-02,-8.192352993857890267e-04,-1.821415533574168033e-04,1.286070501842976731e-03,3.752161860466003418e-01
3.900771832419241969e-01,-2.939759097275501665e-02,-6.107793015501683520e-03,-1.925280748915614640e-02,1.345303904555231189e-02,-2.327751451902028770e-02,4.123257398605346680e-01
3.160866413786577178e-01,-2.416655171965606530e-02,-2.157043579991391180e-02,-3.293145816837782236e-02,1.029810787576015442e-02,-1.547867887946356063e-03,3.442011475563049316e-01
3.535862241471056100e-01,-3.201959407394261437e-02,-2.981089398635880516e-02,-1.036145730658351159e-04,-2.174076322040058756e-05,1.034561471042837145e-03,3.845104575157165527e-01
3.557634010399322588e-01,-3.105525058817334982e-02,-3.245437645556650819e-02,5.501210506398579621e-04,3.648465352521886371e-05,6.377524949619121702e-04,3.875228464603424072e-01
3.611479216874589615e-01,3.507037605171979544e-02,-8.480014382918071858e-02,-6.102666814706658727e-02,8.774100907429541185e-03,3.800449207713843536e-03,4.137990474700927734e-01
3.429819540900121977e-01,-4.046672113372096202e-02,-2.181967042892987707e-02,6.799301669136363451e-05,-2.743271693878387616e-04,-7.637287496485441445e-05,3.744738698005676270e-01
3.550440437649456382e-01,-3.236405219978635839e-02,-3.247997398239652056e-02,-5.338684786758486384e-05,4.970211649586837134e-05,-5.664671360822857665e-10,3.874661028385162354e-01
3.547855072275878374e-01,-3.106910852858865701e-02,-3.118986127530842811e-02,1.534644301737070462e-06,2.018138109727468969e-04,8.318392309414763533e-05,3.859151899814605713e-01
3.712204110546168390e-01,2.465345136571196749e-02,-7.530835351772285913e-02,-9.752171024187095139e-02,5.113219224833748938e-02,-1.818198721727629780e-02,4.495677649974822998e-01
1.688581148969959533e-01,-5.460411854586594282e-03,-7.261044531877203223e-03,1.150867086333750428e-02,-8.051691963986151723e-02,1.316869724797654646e-03,2.248456180095672607e-01
2.558139072442673356e-01,-1.452895843305793133e-02,-7.459809892695068445e-04,-5.643943563013671715e-04,-2.717399200759910115e-03,8.319361885501839549e-04,2.637693881988525391e-01
2.975334719006268447e-01,-2.895893849379643781e-02,-1.355623340542595756e-02,-1.181469249249685440e-03,-1.057573583850200411e-03,3.575190647850369496e-03,3.191419243812561035e-01
2.745056424674924833e-01,-1.379143145672218074e-02,-1.723074450582591510e-02,-2.365100283942669045e-03,-1.102372947001874605e-03,-6.906622832940663773e-03,2.903138101100921631e-01
3.791357901585362122e-01,-1.693356237019491561e-02,-2.166081595865809728e-02,-2.489768471286287269e-02,5.738459818494730247e-02,-4.325647951889176335e-02,4.196636974811553955e-01
3.413419624559267951e-01,-2.103032850436387102e-02,-4.221626169721329203e-02,-8.080613026385631906e-04,2.192410070864890450e-03,4.658676103343145723e-04,3.734390735626220703e-01
3.538966980601767620e-01,-3.295956303550520716e-02,-3.146999862558028105e-02,6.232258891264964277e-06,2.349658930601139896e-04,6.985023341347842279e-04,3.861157298088073730e-01
3.549379687977111120e-01,-3.140624802413272132e-02,-3.311480968208660447e-02,-1.277543906884739467e-04,-5.204891118322386295e-04,5.183653558218614650e-04,3.872034847736358643e-01
3.598843666910646055e-01,7.089787894898141873e-03,-3.275190039525402441e-02,4.132034944919683005e-03,2.702252693403239814e-03,8.856287343361321160e-03,3.747208714485168457e-01
3.580237182036059562e-01,-2.910720257054993931e-03,-3.277839895895434674e-02,-2.986979678063640242e-03,7.956766104585331597e-04,3.177306796185705873e-03,3.768354654312133789e-01
3.230641891189188208e-01,-6.806459243760251687e-02,9.190208408838884679e-03,-1.998538091349568238e-02,-1.028062961187281854e-01,1.064685518881347548e-02,4.024663567543029785e-01
3.600666336643039145e-01,1.725872614113456438e-02,-4.102351283488872569e-02,-8.675247845374395132e-04,2.239496914814247466e-03,7.862543353198383350e-03,3.756280839443206787e-01
4.007911487592566435e-01,1.371025752753321503e-02,-4.064426099724563479e-02,1.650346679966607994e-03,-2.996365509437875531e-03,1.293679237915445514e-02,4.175677299499511719e-01
4.116344440729647336e-01,1.024743733897798270e-03,-4.643720718447080786e-02,2.830144827539758982e-04,-4.409691555913691254e-03,1.900616912398792047e-02,4.375883638858795166e-01
3.641343576694577311e-01,1.690655399644032386e-02,-3.871153702220656023e-02,-5.965704099521155698e-03,-1.827670371928280264e-03,1.264545308726694288e-02,3.789052367210388184e-01
3.267693653823212641e-01,-3.927790905112940600e-02,-1.472395213093560806e-02,7.115319365789417360e-04,1.196300868437154188e-03,1.100832832918091858e-03,3.544221222400665283e-01
3.458120786215111986e-01,-3.815046795523402423e-02,-2.492592077526878391e-02,2.471290807222842426e-05,6.140666743905569876e-04,1.944597240508012760e-03,3.775405585765838623e-01
3.464908493645413312e-01,-2.341401329091322148e-02,-3.998557260515131495e-02,1.608775805902195027e-03,1.025721890177706125e-03,-1.546167291672380243e-03,3.784867525100708008e-01
3.198896393334397237e-01,-3.396732464995227962e-02,-2.029190435016445249e-02,-6.520802970487333747e-03,-3.245000252599994145e-04,5.573335843836464687e-03,3.475394845008850098e-01
3.632442075001447446e-01,-3.911897634516242617e-02,-1.009717006988303245e-02,-4.832632600254235539e-04,-8.291886630385263135e-03,-7.153541473106691650e-04,3.889339268207550049e-01
3.484525852266831536e-01,-3.904567266387756752e-02,-2.510949689223276882e-02,4.589305726415856407e-03,8.818516138009151618e-04,-1.187813103698922082e-03,3.808131217956542969e-01
3.327755338882022462e-01,-3.625667734917567553e-02,-1.964181382201057868e-02,-7.067549598755612159e-03,1.658519654661782475e-03,1.929728659483376241e-03,3.612460196018218994e-01
3.537779144477363191e-01,-3.315151306063093828e-02,-2.828561920102123928e-02,-2.766224105552510162e-03,5.636716361264763279e-04,3.223831467498093108e-03,3.845911920070648193e-01
3.099013099615440803e-01,-3.626120249280309626e-02,-1.863642974170759414e-02,-1.162184694053597540e-02,2.021165075962446517e-03,3.983141547113720586e-03,3.383831083774566650e-01
3.433879471474708400e-01,-4.198719146992357931e-02,-2.122281111496043815e-02,1.921486863678269555e-03,-2.857541356927064085e-04,3.865292172740210797e-04,3.754395544528961182e-01
3.487015815298189492e-01,-3.826374939819371379e-02,-2.343047136518119911e-02,3.462526759539873329e-03,-3.027483771013724087e-04,8.975280704107434010e-04,3.798169195652008057e-01
1.958169850660802791e-01,-6.969043876710448449e-03,4.581585092445383811e-03,4.746642029691464093e-02,-3.325397173890594100e-03,1.759713021707281144e-03,2.138105034828186035e-01
2.148245001911345264e-01,-2.308762675588965640e-04,8.427545429415261857e-04,-9.037654140293564092e-03,1.171250820936969427e-03,1.717115623234298982e-03,2.151210755109786987e-01
3.566802163288886884e-01,7.199108289810962624e-03,-3.397674335740083484e-02,1.381342608171482605e-03,-1.736169332638549164e-03,3.203927087354856498e-03,3.718443810939788818e-01
2.303440831033977676e-01,-2.077291475845954860e-03,-6.119040999763791788e-03,-9.112955621173538662e-04,7.671511798565372464e-03,-1.649238896154395619e-03,2.348672598600387573e-01
2.328830874424658859e-01,-1.390060258562321460e-02,-2.146879349948990767e-03,1.903444778301809082e-02,8.906523635597110924e-03,-3.065317422750506171e-03,2.439114749431610107e-01
2.128329485705556523e-01,-8.142859586746931111e-03,3.866021354827900436e-03,1.384803476748911258e-02,-9.414736027507980207e-03,3.073021833193539335e-03,2.172335088253021240e-01
3.361507221450348304e-01,-3.845349037702361361e-02,-2.005149666215938487e-02,7.742814866429502570e-04,6.542960616001589590e-04,4.591265244599072523e-03,3.658412396907806396e-01
3.337450699169596802e-01,-4.181491807571743879e-02,-1.938022694212770958e-02,5.607138318018497179e-03,-4.081645843692552328e-05,-5.980003940223660658e-04,3.649910092353820801e-01
3.594400960648285182e-01,-3.526047312086663665e-02,8.460747855196903977e-03,5.590095898257855037e-04,-6.829177277310777717e-04,-2.434064055629790811e-03,3.747844696044921875e-01
3.474654951306111461e-01,-2.580137717935304664e-02,-2.549195876282089879e-02,3.215565240532932204e-03,4.531800503836090795e-03,1.336874102015257618e-03,3.732435405254364014e-01
1.533952398625928748e-01,3.412747766672302729e-03,7.234169837493392707e-03,1.350561399891770688e-02,-4.177670056795533202e-03,3.918492826757378686e-03,1.502725332975387573e-01
3.012426835913135648e-01,-2.675731297335284808e-02,-1.751927537709881133e-02,9.784963310443758194e-03,2.255488686202995405e-03,-7.639568356709107791e-03,3.242172896862030029e-01
3.657130083918896379e-01,-3.577844853374001488e-02,-2.558726694674529067e-02,6.830099981498556757e-04,1.738426175830256812e-02,3.520116799207029332e-03,3.976842761039733887e-01
3.014412994612647445e-01,-3.041003645590334425e-02,-1.408465022021691826e-02,-2.718579571673849257e-04,-4.881152175976019494e-04,-8.883676131985047096e-04,3.240023553371429443e-01
3.598082366808076915e-01,-2.723392796192514176e-02,-2.748924595524324110e-02,7.711960491558061959e-03,-6.443326990967586290e-04,-6.499669268621936346e-04,3.874034881591796875e-01
3.544280236019521357e-01,-1.746912594080374248e-02,-2.786414624896019210e-02,-2.371497281783265312e-03,-4.082441885351926559e-04,1.585821071347741796e-03,3.772351145744323730e-01
3.021543978321296620e-01,-1.729244996968008763e-02,-2.947901043763156981e-02,7.242365041720363883e-03,-1.053000778704303169e-04,6.385769066073079640e-03,3.261402845382690430e-01
3.577116298226887259e-01,-1.376077089401397946e-02,-3.410839633834530926e-02,1.194470102109394284e-02,-2.253524723438910578e-03,5.461008053370553471e-03,3.827493786811828613e-01
3.007678056246724241e-01,-3.094289712018957750e-02,-8.268492291534992877e-03,-2.608583732070895696e-04,-2.709570094648722466e-04,-3.766254676155014053e-03,3.210416734218597412e-01
2.763853934992867578e-01,-3.037170021999321956e-02,-2.482063116835701855e-02,1.465206264058709074e-03,-3.371647437158387800e-02,8.932664320225996643e-03,3.099743723869323730e-01
3.484976518514973920e-01,-2.557937797378256883e-02,-4.051224552152407621e-02,-1.275883823872581927e-03,4.577453958287694413e-03,1.337727882030724427e-03,3.818583190441131592e-01
7.282874900395705509e-02,1.966426099492141893e-02,4.922203671085468440e-03,-2.832774881368296110e-02,6.751027067912286628e-03,-1.544963173831179594e-03,7.986750453710556030e-02
3.798772093496172175e-01,4.860800506754719974e-03,-5.690828296044919687e-02,-5.966135628016414061e-02,2.565048892736878500e-02,-4.150147367268659793e-02,4.306234419345855713e-01
3.211787376478528189e-01,-1.983839058899661278e-02,-3.509313109155931532e-02,-4.688413165091255552e-04,7.538758990171519001e-03,5.842644125168612590e-03,3.492865264415740967e-01
2.741210316354751320e-01,-1.208887727708352067e-02,-2.425109583866240370e-02,1.101965879303645410e-02,-1.199503063095087863e-02,8.844722097395977742e-03,2.942373454570770264e-01
3.060526473423307858e-01,-1.966607498602372661e-02,-2.973837715905935930e-02,1.303281587579738221e-02,-8.043266992502462465e-03,4.596025670292925441e-03,3.320269286632537842e-01
2.616806913098153053e-01,-1.014885323600010769e-02,-2.330924814267827661e-02,4.456437078856307493e-03,-3.872909701788656428e-02,9.078489769392787678e-04,2.867119908332824707e-01
2.378795380219906053e-01,-1.320664517437393493e-02,-5.830938125049395238e-03,-9.527811834782668517e-04,-1.972294998488621949e-03,-1.334391718418334680e-03,2.475206404924392700e-01
2.394438175122810819e-01,-9.634156458263695710e-03,-1.194560052823789853e-02,9.283858449089204060e-03,-1.718146999203907718e-02,5.702661275175818258e-03,2.527106106281280518e-01
3.550726558569665681e-01,-2.705349104921483949e-02,-2.773850881024780834e-02,-1.023427319097695246e-03,3.684227952087283132e-03,-4.342175463892527783e-04,3.825272023677825928e-01
3.545865682455940915e-01,-2.972117434321830398e-02,-2.990285174409793023e-02,-2.536165202989723827e-04,6.975992677181545301e-04,1.095182061586347016e-03,3.844054341316223145e-01
3.472272740845326888e-01,-2.390441390879949335e-02,-3.924439529708087515e-02,1.301061998327608356e-03,1.099989472419068927e-03,-1.081742101725746219e-03,3.790506720542907715e-01
2.988581990309995828e-01,-2.912071713480612889e-02,-1.394833867897422863e-02,6.622019409972269280e-04,2.624616782494253934e-04,3.925836314911642158e-03,3.207364976406097412e-01
3.536586746776872459e-01,-2.499132565434461495e-02,-2.184948460002464343e-02,-4.903017574843171402e-05,9.293554744176483768e-04,1.679885423523023557e-04,3.770924508571624756e-01
2.059775841059888757e-01,2.195332830943211300e-03,2.243748368000814120e-03,-3.207717837195974884e-04,-8.183059714059458820e-04,1.023180940983746921e-03,2.037714421749114990e-01
2.851218688610998031e-01,-1.783838581258437306e-02,-1.798281146249086637e-02,7.595325334885665199e-04,7.524947444074055452e-04,-6.244389473537060621e-03,3.032310903072357178e-01
3.412170468504191478e-01,-2.758531370017161533e-02,-2.825837629977220877e-02,1.272716762083450810e-02,7.697089712454202245e-03,6.143470135128155461e-04,3.700387477874755859e-01
3.536954792967897943e-01,-2.526883547915270700e-02,-2.449377512694400627e-02,-6.116615305094540720e-04,-1.166374931423067984e-03,-9.349912019066364093e-04,3.785877227783203125e-01
3.543580573652307941e-01,-2.771608600637545661e-02,-2.748582795800730283e-02,-7.185456392613781117e-04,1.101807854389010933e-03,7.571108985829702598e-05,3.819658756256103516e-01
3.543150745570372018e-01,-2.784091477686631566e-02,-1.749172031425286211e-02,-1.119028869054625999e-03,-1.432886723579092445e-03,-9.375631897706099066e-04,3.771045506000518799e-01
3.490736865624840535e-01,-3.922576672903649309e-02,-2.530460118888838705e-02,3.767565226946180228e-03,6.119829091041425074e-04,-8.619712113461045757e-04,3.815895915031433105e-01
3.556704082851607218e-01,-7.561298943348365720e-03,-1.530245821403070083e-02,2.434745103739415482e-04,-3.800628867645324715e-05,-1.478061171447308218e-02,3.680551648139953613e-01
3.245180451315226033e-01,-2.191593384398987654e-02,-2.552767963362806425e-02,2.781745769730087359e-02,-7.609981849118412772e-03,-3.267043325490193249e-03,3.518635630607604980e-01
3.479263218616313047e-01,-3.848902741950838147e-02,-2.356203380944854597e-02,2.190380946305015356e-02,-8.996946116653365810e-04,6.930908754376358637e-03,3.812577724456787109e-01
2.573019896740526002e-01,-1.693907674585343193e-02,-1.873070550388405975e-03,2.454653186633091577e-03,8.435940957623689826e-04,1.734140905701156768e-03,2.670817375183105469e-01
2.789865294750731861e-01,-1.768934078318196157e-02,-8.486461816848325790e-03,1.131095205635726259e-03,-2.204545355113543092e-04,-1.453794803484495090e-03,2.922008037567138672e-01
3.429430193314181308e-01,-4.208437167989709238e-02,-2.001611131516681241e-02,2.471922289064242256e-03,-7.182901938435016977e-04,-5.053286493509408402e-04,3.745088279247283936e-01
3.635797572025066260e-01,-3.811323056487114780e-02,-8.012769904143235422e-04,-3.181844478681519414e-03,1.084465596876174956e-03,-4.853110647386859287e-03,3.845335543155670166e-01
3.054878021785600306e-01,-2.750789029144579123e-02,-2.781820767656917326e-02,4.112190743174874014e-03,-4.318503276858493001e-02,2.246655096740782665e-03,3.415410220623016357e-01
2.947053544841517492e-01,-2.577575483718372307e-02,-1.711061549324416342e-02,1.104830450148407833e-02,-5.560391649426124454e-04,7.939750889815286317e-03,3.171158432960510254e-01
3.695235014633636572e-01,-3.394070752657873946e-02,-1.616562239512800425e-02,-9.126180716160802765e-04,1.219472204358480749e-03,3.839208797533113214e-04,3.948861956596374512e-01
3.281954404523447222e-01,-2.135964690770966734e-02,-3.768537131133328777e-02,9.273125130654009431e-04,-6.101658423046573071e-04,3.820340386972018859e-03,3.580635488033294678e-01
3.484150206953091633e-01,-3.917369150491598062e-02,-2.150732952420258970e-02,4.484499851818385223e-03,-1.210955666915964398e-03,-4.102003384442661524e-04,3.791504502296447754e-01
5.009711327140402570e-01,7.561223141573147899e-03,-5.801759067973202844e-02,-3.049088589276321287e-02,7.913862212248122530e-03,-2.021374448841308999e-02,5.332109332084655762e-01
3.570452237717982036e-01,-3.047662687714980390e-02,-1.124357425061478510e-03,-1.512118467475044581e-03,2.777286749567065005e-03,-4.072537805228516883e-03,3.738179504871368408e-01
2.946204107864079935e-01,-3.677278436296158026e-02,-2.430332137228369271e-02,-5.312925716486423949e-02,3.067141435171943844e-03,6.329471187117451450e-03,3.383211493492126465e-01
3.480655974273476061e-01,-4.007540043823282216e-02,-2.503120450624099491e-02,-3.872964185704457461e-03,-3.216197983030733704e-04,-9.750228122400038562e-04,3.809050321578979492e-01
5.262079669601793519e-01,-2.549824865034180932e-02,-4.269480981302889444e-02,-1.845837917341530687e-02,2.698746924349450932e-02,-4.366793770769954175e-02,5.684106945991516113e-01
3.947565269693135148e-01,-3.258094553376186808e-02,5.418485667982669840e-03,9.130203983233474603e-04,-3.224903831845639390e-02,-2.255113878358754043e-02,4.152961075305938721e-01
3.665404411840917920e-01,-3.703539720688747705e-02,5.236720285395707331e-03,-2.406149143860265936e-03,2.215949784167181753e-03,-7.343639348680396084e-03,3.844402134418487549e-01
3.718944157533181638e-01,-2.170666065309834192e-02,-2.121113941347993470e-02,4.302905181385546438e-03,-1.671663704839725963e-03,-1.116583487154433965e-02,3.939098417758941650e-01
3.629515176633427154e-01,-3.625839620323031975e-02,1.112610121148120690e-02,-1.370101465208008488e-03,-9.024568693759068162e-04,-3.002229312889040120e-03,3.777996897697448730e-01
3.279365546862973435e-01,-3.930040294087527863e-02,-1.443639083040113014e-02,-5.180991331953213640e-04,-1.084076476770601738e-03,1.146488553399544483e-03,3.554694056510925293e-01
3.339588848058303028e-01,-2.738661348149090680e-02,-2.819058090094847535e-02,2.211521125154041248e-04,-2.392654017373900522e-05,6.266136993486117433e-03,3.619111180305480957e-01
3.352066136441850808e-01,-3.556697878723660833e-02,-2.181039513775615002e-02,-3.502662888028362028e-04,-5.870756683607242406e-04,4.089072507499979560e-03,3.641610741615295410e-01
3.634803155649560247e-01,-3.472826181564270254e-02,2.643001514402387730e-03,-8.668621340257648064e-04,3.642304936134685249e-03,-1.205237804852208596e-03,3.809613287448883057e-01
3.634082794638839875e-01,-3.945994630795227054e-02,9.452558218158962910e-03,1.807027778721220676e-05,-3.689320550466517910e-04,-2.765666256946145308e-03,3.808061182498931885e-01
3.532549890963990191e-01,-3.055408366793430086e-02,-2.675473159327990125e-02,4.755443253095152298e-03,-9.570743935720141498e-05,-2.981769540306974942e-03,3.820473253726959229e-01
3.942558922688839673e-01,-2.438529921987725446e-02,1.160717766164959253e-02,-1.174124968174475835e-02,8.386430176640665909e-03,-2.355228616937798947e-02,4.046933054924011230e-01
3.383382094225673153e-01,-3.555622623333121179e-02,-2.495644797306098561e-02,1.236572161725213968e-04,1.748519737550350249e-03,5.046924918441465617e-03,3.688249289989471436e-01
3.143428282945365249e-01,-2.949758411912400957e-02,-1.754777320772381299e-02,-7.562217405819984589e-04,-1.247387348124163369e-03,6.059366765802847409e-03,3.381962776184082031e-01
2.304008699056539489e-01,9.251356282216349758e-04,-1.196113349532142156e-02,-1.196335341749207686e-03,1.615195666697722895e-03,2.186082366043676272e-04,2.362086325883865356e-01
3.978192241946831853e-01,-5.057626422409144951e-02,6.816043994471721046e-03,9.115938213346676342e-04,-2.889333840221471744e-02,-9.656566857706548254e-03,4.259162545204162598e-01
3.508606322977224079e-01,-2.593057806114840158e-02,-3.648206538820128464e-02,-7.349472816236556657e-05,2.203621523836463147e-03,-7.744050006626581164e-04,3.821976482868194580e-01
3.088075692927304550e-01,-2.495324570126358776e-02,-2.524461612764436480e-02,5.723026793035504434e-03,-6.579373736956187387e-03,7.911331009976093481e-03,3.345287740230560303e-01
3.546002048787623151e-01,-2.675426677859937818e-02,-2.674500562704271167e-02,9.799046769600990633e-04,4.371501369316570240e-03,5.966266001506955819e-04,3.814301788806915283e-01
4.024639811489732488e-01,1.037960048439409699e-02,-5.722877387781502567e-02,-1.677391819820596777e-02,1.307112069372183549e-02,-2.396348822475840440e-02,4.334612488746643066e-01
3.478145672607746985e-01,-2.114022860082770405e-02,-3.976907687980632544e-02,1.228989503222935537e-03,4.154767238589499902e-03,-2.290719629329980036e-05,3.786874711513519287e-01
3.878397739592259752e-01,1.612728477363345458e-02,-4.474086807946497935e-02,-1.478637192130757144e-03,5.633655993858599151e-03,-9.524231086827836506e-05,4.057121574878692627e-01
1.907419319824967263e-01,-1.471237093255296779e-02,2.240741382900007794e-03,5.743682454022926154e-02,-4.275854239882001355e-03,-3.370261538528087405e-03,2.213632315397262573e-01
2.782286834776681594e-01,-4.196304217324933750e-02,2.460518329312331998e-02,-3.100524039726105380e-02,1.175869535194805082e-01,-6.132996524917376860e-03,3.607164621353149414e-01
3.709823697218010974e-01,7.260346728769517810e-03,-4.456381881798604505e-02,-1.547704602655009670e-02,3.734590810376287214e-03,-1.445464500731744734e-03,3.931866884231567383e-01
2.125001233437692483e-01,-1.517252617037001539e-03,2.591075767645945049e-03,5.706759660981833120e-04,1.688417932165993483e-03,-1.012317709953011518e-04,2.120156139135360718e-01
3.727520099507986573e-01,5.148751441977683641e-03,-4.544628223219046581e-02,4.864165673652882764e-03,1.736902800607613862e-03,2.957584957009405397e-03,3.954708278179168701e-01
2.312676135167422153e-01,-5.010586943437284058e-03,-1.304419383967084234e-02,4.793153029407454203e-04,1.222518273573043037e-03,4.165268256423452532e-03,2.405146807432174683e-01
3.041251502535704532e-01,-1.885100404912967709e-02,-3.375507739645131067e-02,1.007525661386007680e-02,2.622383423922930099e-02,-5.995947153148530918e-03,3.344022035598754883e-01
3.485456780264483689e-01,-3.560043559043468697e-02,-2.605619118637086951e-02,3.867031923414370083e-03,1.676074262620595463e-03,-1.295396961609980753e-03,3.795408606529235840e-01
3.687974997895309692e-01,2.081497960901491917e-02,-4.516525020351033759e-02,3.163344316062371812e-03,1.160917834881288043e-03,-1.087845750952738623e-03,3.852827548980712891e-01
3.279949803091685712e-01,-3.917719902272090438e-02,-1.835290749824849965e-02,6.184224964923910189e-04,1.019768459252606672e-04,-6.695080933605831270e-04,3.572190999984741211e-01
2.782461347464331158e-01,-1.833174924125445526e-02,-1.849187786902586894e-03,1.274430213092030140e-03,2.552574197951098384e-03,-4.737856245555250104e-03,2.888486087322235107e-01
3.513668965372707675e-01,-2.683350450687943534e-02,-3.691252314419107838e-02,1.355048989547099616e-03,-1.242926031260576096e-04,-1.142584701022603989e-03,3.833516538143157959e-01
3.305681173348011814e-01,-3.603822115730431763e-02,-1.896815969279425085e-02,7.462608489520591512e-03,9.031536980298848338e-04,-2.197935129470161841e-03,3.586329817771911621e-01
3.401052720082114456e-01,-2.245027112798733682e-02,-3.344723466710342041e-02,2.422340228001459289e-02,1.672024802182684594e-02,-3.412078093665369544e-03,3.717370331287384033e-01
1.735563087442474617e-01,3.436039198492224500e-03,1.434277891786142622e-03,1.028808553031588038e-02,1.326639820002882726e-02,1.399562349202508680e-04,1.735829412937164307e-01
1.343392968373400831e-01,-1.257320404190791219e-03,4.556655504727148698e-03,7.457486367895227453e-02,3.896694369340828606e-02,6.216096383360266223e-03,1.974520385265350342e-01
3.777514985576935214e-01,4.372379117770358592e-03,-3.135173684249331627e-02,-5.825612613490251113e-02,3.409473532134782436e-02,-3.851744919906971432e-02,4.149051606655120850e-01
3.892649739831230971e-01,-1.732647613642276929e-02,-3.415705309074132390e-02,2.643703788809608629e-02,-8.937346871041288235e-03,1.822038572051343924e-02,4.192557334899902344e-01
3.989385514677186162e-01,1.491196487362317358e-02,-4.132434585410713068e-02,-5.117920137156301702e-03,6.143570434074418878e-03,1.020952286031488916e-02,4.156196415424346924e-01
3.405105040928614324e-01,-4.103567969223920198e-02,-2.088806888776359449e-02,-8.954902912850198470e-05,2.477982539248764883e-04,-1.346612661036478446e-03,3.718895316123962402e-01
4.199814272164316131e-01,2.349320201817794995e-02,-5.780972453151456136e-02,1.564211458351968606e-02,-6.616881116690458749e-04,6.280837581813164539e-03,4.437368810176849365e-01
3.652526224324764148e-01,1.388860544695490196e-02,-4.094002895639589634e-02,5.460673932338508396e-02,5.035593482462349252e-02,3.546904248230000473e-02,4.074980616569519043e-01
3.437510234937863896e-01,-3.805071030761891793e-02,-2.426928504734920944e-02,-1.255600100769491600e-04,-5.218946563333914858e-05,-2.338513937849370176e-03,3.751228749752044678e-01
5.145102936443873842e-01,2.051065100060506241e-03,-4.259281393168296015e-02,1.616016273927542088e-02,3.689440860741455275e-02,2.931656567189315499e-02,5.430756211280822754e-01
3.572680731184416647e-01,-2.805112931591735581e-02,-3.165958134742669072e-02,-6.788733790559737385e-03,-8.246798533556477925e-04,-1.854415232097114197e-03,3.873305320739746094e-01
4.360146664889359980e-01,-1.149534883880143354e-02,-3.884216932095108099e-02,1.509755384869746267e-02,-2.103270145753246678e-03,2.490603882660248972e-02,4.645525217056274414e-01
3.671319377017978058e-01,1.180574585517590869e-02,-3.620784794314080290e-02,-4.493650571342338099e-03,-2.757268376974905070e-03,1.378685376702896634e-02,3.824605941772460938e-01
4.004072529430717786e-01,1.085013759018349511e-02,-4.358563269510123961e-02,2.483023797738234326e-02,1.239272014649609073e-02,3.005732456854165457e-02,4.253757596015930176e-01
3.724317816796577918e-01,-3.322570482816145088e-03,-3.137851213026268682e-02,2.186626473997234366e-03,5.749609237873546741e-04,1.430675804656003115e-02,3.913438320159912109e-01
5.045550840240798918e-01,-4.604707425200102455e-02,-2.094649900269404674e-02,-5.026534472169640055e-02,6.075081169573788575e-02,-4.982045958169770833e-02,5.622013807296752930e-01
3.480198998266360588e-01,-3.540794045486148067e-02,-2.678827602387018336e-02,8.715797928697728049e-04,-4.185847204987867744e-04,-7.398981659750463249e-04,3.791973590850830078e-01
3.435872673796181442e-01,-3.848096882393889362e-02,-2.428542842718800499e-02,2.734180139757090566e-03,9.746496843212218257e-04,-2.322647223155174193e-03,3.752271831035614014e-01
3.712088210599304161e-01,2.083126279600416852e-03,-3.002539290761219171e-02,5.492168642626721114e-04,8.704831712163763838e-04,1.097002748219411128e-02,3.866536021232604980e-01
3.074508190355181858e-01,-2.984139279612044171e-02,8.664823303384625031e-03,3.028770566959079064e-02,8.166993750238649152e-02,3.427022063975856264e-02,3.585334420204162598e-01
3.015744139781407762e-01,-1.370901338923477542e-02,-1.775410533972097971e-02,6.073273286050061281e-02,7.134203344064722618e-02,2.461478224236261433e-02,3.589532971382141113e-01
2.307190491962474443e-01,-1.198690132781803086e-02,-1.269009596638320803e-02,4.906460685187169490e-02,8.287940598238521805e-02,2.703588331268973882e-02,2.984948158264160156e-01
3.558795086924946283e-01,-1.719050580307160403e-02,-2.606658363579669735e-02,1.192150314714303556e-03,1.474250911993204346e-03,-3.330173513020508094e-03,3.776446282863616943e-01
3.572010452322859075e-01,-3.642396689988325331e-02,6.320550007251818370e-03,-2.614291683052276556e-03,6.331093719609059284e-03,6.132741724708951417e-03,3.744275867938995361e-01
3.690165988963638455e-01,-4.727960660502245060e-02,1.740726854843212268e-02,2.197941765225305778e-04,4.515445715541686542e-03,-5.355475850688603059e-03,3.882079124450683594e-01
3.355357903117776042e-01,-2.240992379475748031e-02,-3.470921818181768592e-02,-8.794159011696262354e-05,-2.674348132879780749e-05,4.002010737422661418e-03,3.643171191215515137e-01
4.198144720419923481e-01,-6.776040499693658514e-02,1.010071736740103532e-02,-6.074181462515532148e-02,7.305486712006482863e-02,-3.902213469177056443e-02,4.873155057430267334e-01
2.204694883475333267e-01,1.373940073158802511e-03,-1.030861090949589109e-03,2.125627979050399071e-03,-1.296629940782321284e-03,6.520800194272913502e-04,2.203528881072998047e-01
3.412285574998191739e-01,-3.890813418141514379e-02,-2.401711419062835251e-02,-3.798937005858022894e-03,1.087093465001749259e-03,3.223200506921990345e-03,3.730188012123107910e-01
3.699165395905963938e-01,1.702626682240075684e-02,-4.395161852965637217e-02,2.631313098715161621e-03,-1.155111436117125167e-03,-1.178944100495898407e-02,3.875694870948791504e-01
1.843654280731414630e-01,-2.634739581180942092e-02,2.747537982657730776e-02,1.686124286240363312e-02,9.756173682444753414e-02,6.231750457985902117e-03,2.558904588222503662e-01
3.352248239130533047e-01,-5.409274008368308850e-02,2.280229443857348381e-02,-1.631914021399245504e-02,8.146638876270427543e-02,5.583920021954701975e-03,3.851586878299713135e-01
3.112321875716936859e-01,-6.755128058114379108e-02,1.299682239949621898e-02,9.083360898784895859e-03,7.605068787878221936e-02,3.316466325377002283e-02,3.746370971202850342e-01
3.557208578917693820e-01,-2.843951206283054645e-02,-2.311263129971535824e-02,1.209416348843672965e-03,1.793315611379407704e-02,-8.426148700723548688e-04,3.827956318855285645e-01
3.416709810593940300e-01,-2.168147029189515518e-02,-3.982852429258607052e-02,1.108741568376112778e-03,7.588578294379067467e-04,-1.219607143846281180e-03,3.727706670761108398e-01
3.950042095276590226e-01,-4.217925041537115560e-02,-4.204415525567800627e-03,-1.600354246505352948e-02,-1.377531417497596111e-02,1.382730413132447246e-02,4.217590391635894775e-01
3.587236037088462060e-01,-2.870218899246043676e-02,-1.791028484688828026e-02,2.976313049592427783e-03,3.865071285979433148e-03,1.225733597316908076e-03,3.822434246540069580e-01
3.588260436924816665e-01,-3.651724604520689699e-02,5.908666028450915153e-03,3.239642508003978010e-04,1.735019859562242101e-03,3.828489827447826427e-03,3.760010600090026855e-01
4.338211543331989550e-01,-2.394136405169039472e-02,-4.097943686420324472e-02,-1.252069676823198974e-02,1.039614944204756905e-02,-4.699271663469054700e-02,4.744003713130950928e-01
3.480822526247880355e-01,-3.924743595193336265e-02,-2.210450365899677139e-02,3.541713918772583340e-03,-2.576282020131348246e-04,1.765717774240465666e-04,3.790991008281707764e-01
3.555727137770446911e-01,-2.857997501854636635e-02,-4.944045240505012817e-03,2.329053866680625036e-03,9.694722954290767682e-05,4.080214557323477709e-03,3.729857802391052246e-01
3.256327103401585599e-01,-2.605539862421069053e-02,-3.311273214873630688e-02,-3.441340023857914431e-04,8.588884511862576385e-03,-5.944769431024815587e-03,3.557302355766296387e-01
2.849343175992734567e-01,-1.717554693383843700e-02,-1.716270882174614210e-02,7.498032799640553603e-04,7.636676851145276015e-04,-7.055712377365948827e-03,3.023562133312225342e-01
3.588606159993733002e-01,-3.415162936089932710e-02,1.674212953199416543e-03,2.731905163948077954e-03,3.998650966273996007e-03,2.393800713436095972e-03,3.764965832233428955e-01
3.574228682105287103e-01,-2.117569577196926067e-02,-5.032423810073904935e-03,1.452591673513182764e-03,6.173997749796440726e-03,9.379172311966846309e-03,3.713088333606719971e-01
4.100271535080456942e-01,7.008790956317623166e-03,-5.549976701285297409e-02,-3.092579432496535274e-02,4.564667637122480325e-03,-8.124570961836313082e-03,4.411949217319488525e-01
3.715230118927869141e-01,1.414785290505704562e-02,-6.948711054466211179e-02,-3.763869593847810058e-02,8.381252492400861898e-03,1.254627643686409208e-02,4.117448925971984863e-01
3.993040536865903878e-01,2.468901068281693922e-02,-7.235898470281953987e-02,-1.098467235052014435e-01,-2.449379327460382907e-02,1.240929667254391487e-02,4.738893210887908936e-01
3.204244610986252684e-01,-2.889898202125748550e-02,-2.169787635245173929e-02,9.009938184958700370e-05,4.991207513150085033e-04,-4.957271979715650694e-03,3.458868265151977539e-01
3.200119670134953798e-01,-2.832771243641640790e-02,-1.906425693542054822e-02,9.271667287571056524e-05,4.885611148946943311e-04,-6.685841342265442210e-03,3.439976274967193604e-01
3.156923912917680153e-01,-2.590450955384132614e-02,-2.720158464180069680e-02,-8.341125701856179310e-04,2.850482744918004770e-04,-6.878379351715345653e-03,3.424579799175262451e-01
4.208189867230001657e-01,1.047207798645233279e-02,-5.801726580611177297e-02,-1.316535639519474457e-02,8.412776148730440572e-04,-1.246667645625390217e-02,4.496310949325561523e-01
3.541803542118786563e-01,-3.036671286435013717e-02,-3.332959986665384733e-02,5.333088861982379723e-04,8.598137765040557868e-04,7.689016792333215004e-04,3.860433101654052734e-01
3.936009638905525465e-01,1.166914781295042003e-02,-4.997389294940027260e-02,1.776362322718844783e-03,1.551515322750159119e-03,-2.785156629429216216e-03,4.162393212318420410e-01
3.463003423075384224e-01,-3.556029215231593099e-02,-2.659311071548156602e-02,-1.328691054655872610e-03,7.900434413797151507e-04,5.585300502973770563e-04,3.774676620960235596e-01
5.557371572577977092e-01,1.775866241019061209e-02,-5.965545688404938485e-02,-1.297600312297438052e-02,3.841419545020353064e-03,-1.553978420381407245e-02,5.816655158996582031e-01
2.652579127808469273e-01,-1.406625434668876129e-02,-2.117836595952640732e-02,-1.893172998736401130e-03,3.435965351365398435e-02,7.591023498987359806e-03,2.894555926322937012e-01
2.090567594774654370e-01,-6.284366460806969923e-02,-4.900561037200865111e-03,-4.331061071144673424e-02,4.878644296493817728e-02,-1.665941857510152765e-02,2.741037607192993164e-01
3.805622009185072319e-01,3.001807469010242535e-03,-3.528755891463339345e-02,1.466367903679153747e-02,9.057456347461034091e-03,-3.038006259362071443e-02,4.026592969894409180e-01
3.205381354904415225e-01,-1.792845572563803169e-02,-2.144776950902796409e-02,-4.160581753404347244e-02,7.807279431012983939e-02,-4.496265374229064561e-03,3.732332289218902588e-01
2.939412531950340024e-01,-2.290424130093896005e-02,-2.309460650637341905e-02,-1.216567855250857283e-02,2.748441688299849833e-02,1.047446271362434053e-02,3.216997981071472168e-01
3.486710500645219257e-01,-3.281637485570626511e-02,-3.219990615370435516e-02,2.609002316636013330e-04,-2.117127087253746877e-04,4.220075580441344509e-03,3.812500834465026855e-01
3.563877936177275441e-01,-2.677213418617191421e-02,-3.301683415695894075e-03,3.492252274458232343e-04,-1.462275568679763512e-03,-2.979293463317936146e-03,3.720253705978393555e-01
3.227369111970563864e-01,-2.479201434948094529e-02,-3.734162602209450954e-02,-2.450708152318088404e-02,2.973091252926891165e-02,3.112827578004568989e-04,3.602069616317749023e-01
1.810058924501007915e-01,4.596050573902075997e-03,-1.506283949601690264e-02,-9.264854267182424941e-03,3.351455670262887265e-02,3.008802790147843513e-03,1.965433061122894287e-01
3.139214992123121051e-01,-1.848366155176056624e-02,-3.029285949062371364e-02,3.454246524068605687e-04,1.110647212952846959e-03,7.008605307348871397e-03,3.386879265308380127e-01
3.631342166483029765e-01,-3.501741362490407017e-02,-1.102382534521847979e-02,8.777769789338454778e-04,-1.524522057907714764e-02,-3.105948252583624457e-03,3.876542747020721436e-01
3.436200592332340764e-01,-2.375555546593868805e-02,-3.895147153947436935e-02,-6.109304177905612414e-04,9.066453132661868395e-04,6.275065156590643907e-04,3.752107918262481689e-01
3.533990000542885923e-01,-2.431332726410773137e-02,-2.654234047998033086e-02,-1.036166072876758487e-03,1.734609986125022697e-04,-8.837390308629439585e-04,3.788392245769500732e-01
2.724143796070163104e-01,-1.558573235790129685e-02,-2.101245266393970967e-02,-1.857872920747637505e-02,6.007963321084265618e-02,-5.532937635793040536e-03,3.106323182582855225e-01
3.529990860866522584e-01,-2.104173956132240897e-02,-2.098899413982771578e-02,-9.564396812986361140e-04,1.845339944828915612e-04,-1.426804230944626536e-03,3.740264177322387695e-01
3.543314341894213682e-01,-2.533844614056873779e-02,-2.636007458627850908e-02,1.049736653513079271e-03,7.277706332146589635e-04,1.091162887060480096e-03,3.801928460597991943e-01
3.533981482141564379e-01,-2.271225247478969589e-02,-2.228335563554773024e-02,-9.879960945955474239e-04,1.694303190395095391e-03,-3.671073639719143284e-04,3.759120106697082520e-01
3.329315193906189907e-01,-2.227965114214755515e-02,-3.827330982455939834e-02,-4.455943623797496104e-05,5.873846445955571466e-05,-3.240873468927230397e-03,3.635153770446777344e-01
3.464807784396369827e-01,-2.610222262321834630e-02,-3.662659009367688623e-02,-1.358154457693535992e-04,6.227107275990132178e-05,-1.295037069555629236e-03,3.779618442058563232e-01
3.717350137237548924e-01,-4.104180786242078716e-02,1.405305285974955964e-02,8.920265353350958874e-04,2.938277219675679112e-03,-3.336507537056659402e-03,3.882524371147155762e-01
3.248870099931582267e-01,-2.543881381885382265e-02,-3.233812357814297433e-02,1.407446244155527784e-02,-1.686952724295957828e-02,8.421746621965806034e-03,3.561651110649108887e-01
3.875741625036712157e-01,-4.375073109153579387e-02,3.913062669608974309e-03,7.929894504579439694e-04,3.802187713688493127e-03,-2.837647170982969189e-02,4.125716388225555420e-01
2.987817541457266080e-01,-1.441638876679827985e-02,-3.052366190545055535e-02,1.641861844108748658e-04,1.246726056955648832e-03,-1.514081266361479335e-03,3.215725719928741455e-01
3.417773331987197238e-01,-2.058947173218497739e-02,-4.141227934808411337e-02,-1.368584423726355219e-04,5.568567550837950735e-04,-6.036665524916241636e-04,3.732169270515441895e-01
4.049393850445582865e-01,-4.276087563848632311e-02,1.346305029143654575e-02,9.137319449594281592e-03,-4.659796914475570692e-03,-1.351949320261341438e-02,4.234254658222198486e-01
3.464443317933323940e-01,-2.602487852356422104e-02,-3.001244993901633351e-02,-5.463197712004891826e-04,1.024025258542962452e-03,-2.873980627649158387e-04,3.744846582412719727e-01
3.511444667580609913e-01,-2.860566670526948352e-02,-3.532978918044801797e-02,-2.505563591378792438e-04,-9.574334616361083542e-06,1.028533130464617720e-03,3.831608295440673828e-01
3.627179791638150963e-01,-3.929411478778127575e-02,-4.684228800663714498e-03,2.535836095491314588e-03,8.367458042299397852e-03,-2.459107965000295690e-03,3.861935436725616455e-01
3.545514371136521681e-01,-3.045512577006595500e-02,-3.187930276441702793e-02,-1.145952527023551748e-03,-1.099066405152763169e-04,5.722084166448997275e-04,3.857270479202270508e-01
3.474165560359888660e-01,-3.055585764154661321e-02,-2.893976244596460634e-02,1.622488708133338698e-03,6.893501376848060799e-04,-3.810123191044180804e-03,3.772370517253875732e-01
3.544876948409888540e-01,-3.108254528723411458e-02,-3.133409095795056110e-02,4.392639113308052659e-04,-1.825303467994987615e-04,-2.699845368763591609e-05,3.856969475746154785e-01
3.546820972513472503e-01,-3.272183821972529660e-02,-3.122997239691568949e-02,-6.034210574207804056e-04,3.118908398734470994e-04,6.258967413534690912e-04,3.866634666919708252e-01
3.529235344391596363e-01,-3.073478039002713880e-02,-2.811581387380079899e-02,1.893836624312663936e-03,7.398981644214631080e-04,-2.065385402550991550e-03,3.823885023593902588e-01
3.220251989746519272e-01,-3.138929071606777477e-02,-2.531950491911807988e-02,1.511924040520517057e-02,1.199683062026965161e-02,-6.262459054253339402e-03,3.521770834922790527e-01
3.501368835304332627e-01,-2.654355820153145307e-02,-3.063640913995818726e-02,-5.388734258786571441e-04,-4.532011990968392483e-04,-7.869665840767419958e-04,3.787478804588317871e-01
3.554721341678412916e-01,-3.190076882633796629e-02,-3.211574563594227216e-02,-6.465031200986977356e-09,5.196408400124966596e-04,-5.343475007158182802e-05,3.874814808368682861e-01
3.537108575410655154e-01,-3.343022514377444465e-02,-3.223733579679829986e-02,-6.193186504845984725e-04,6.656465974578979232e-04,2.976943824558020944e-03,3.865836262702941895e-01
3.547170029480833375e-01,-3.178632617080232037e-02,-3.243448937417878208e-02,3.646202061536419026e-05,-5.746648575933201554e-04,4.226501130898648929e-04,3.868297934532165527e-01
3.774696427826955136e-01,9.347821615158985464e-03,-4.199569561665020268e-02,1.202099838694221760e-02,3.050005292853914026e-03,5.367306780937505274e-03,3.969865739345550537e-01
3.827417731991768490e-01,1.758470924849392381e-02,-4.838649103749018132e-02,-1.140612115585868400e-03,-8.980166274454057934e-03,7.734910319362789041e-03,4.027493596076965332e-01
3.852487025865811709e-01,4.202634879113459343e-03,-4.311722981630719542e-02,2.609487428355738645e-02,-8.360620107682089838e-03,-5.190681356017123708e-03,4.096336066722869873e-01
3.875602677496987614e-01,1.728469227901696659e-02,-4.977990010700467094e-02,2.003875103268842710e-03,-4.055717873079047776e-03,1.430913671225112795e-02,4.087905287742614746e-01
2.962079085149589841e-01,-3.551838200422430258e-02,-1.225032322084185221e-02,3.949378161476687493e-02,1.934452838444146710e-03,1.474025234233504672e-03,3.279666602611541748e-01
3.534846628601545637e-01,-3.065362188706333146e-02,-3.551128891878985172e-02,4.527007612526463137e-04,3.979663672270532140e-04,2.178327357457039096e-03,3.866098225116729736e-01
3.524023991501104569e-01,-3.545278597960696554e-02,-3.090354692063065900e-02,2.354944808232044317e-04,-7.041166605346516798e-04,1.823414043434771169e-03,3.856157660484313965e-01
3.480038000786502828e-01,-2.823970278493406760e-02,-3.087588714302164083e-02,-4.786128452910161151e-04,1.579439316107701620e-03,1.347753869201774287e-03,3.775865435600280762e-01
3.343359951319233025e-01,-2.654162142299662519e-02,-3.192888396707724286e-02,-5.535853694610882623e-05,1.049665501041062779e-03,4.108193417133642299e-03,3.636753559112548828e-01
3.482196393005955737e-01,-3.064637457689331490e-02,-3.094281609716129089e-02,2.604142356129283552e-04,-2.113264202157675263e-04,2.383033956472369302e-03,3.790372312068939209e-01
3.478012900609457336e-01,-3.399066695705585395e-02,-2.698950173863701174e-02,6.352830021951928622e-04,1.967210542895742736e-03,1.160672916850637474e-03,3.783622384071350098e-01
3.533678169258837598e-01,-2.225517104106980448e-02,-2.283041234029933864e-02,1.482454510903225345e-03,-9.665727030410845109e-04,-5.496075203900597367e-04,3.759246468544006348e-01
3.487415270099837872e-01,-2.948471377541581062e-02,-3.013883870101113915e-02,-1.255573729134910064e-03,9.184780655797496630e-04,2.602549878268935451e-03,3.785901665687561035e-01
3.526989709860890998e-01,-3.064862540198320939e-02,-3.125818187137435755e-02,2.507062157890307496e-04,9.556649892907447322e-05,1.353301716052005563e-03,3.836601674556732178e-01
3.534582932098303543e-01,-2.634341737261014504e-02,-2.467805015480850628e-02,-4.531382688153940547e-04,-2.966725027358797898e-05,-8.919003321476458898e-05,3.789726197719573975e-01
3.434605453558181032e-01,-2.674379294958212361e-02,-3.541323256086267857e-02,-1.828709419433499953e-04,2.634643588588055346e-03,4.005044122091058756e-03,3.747064471244812012e-01
3.472647434475212846e-01,-2.703831869636813545e-02,-3.667714832226254273e-02,-1.246628706937599014e-03,8.567101837050816390e-04,9.786983180772677177e-04,3.792271912097930908e-01
3.289668492167437397e-01,-1.673181031989648404e-02,-3.595917496179551476e-02,-4.838109651245234115e-03,4.921008362634708873e-03,5.577825445705879119e-03,3.560341894626617432e-01
3.509107326933514903e-01,-2.680434668213504956e-02,-3.373502482135656844e-02,-6.193098839835888729e-04,2.941305581805449699e-03,8.829146975666882745e-04,3.812662959098815918e-01
3.443736731227104442e-01,-2.549775087604416735e-02,-3.828512002639211653e-02,-1.494316354998566874e-03,3.652903720823329724e-03,3.658384675567713518e-03,3.765434324741363525e-01
3.409412994598267077e-01,-2.248296368706612092e-02,-4.139271388690116127e-02,-2.013486262776241834e-03,5.634310670857589978e-03,2.218369156114614708e-03,3.734022080898284912e-01
3.357624261611872329e-01,-2.029230927605515933e-02,-3.855325139942825108e-02,4.191649888489044256e-04,9.410247494898611731e-04,4.932663236126569144e-03,3.656316697597503662e-01
3.410607359686416706e-01,-2.492148344802722071e-02,-3.804727996536957924e-02,-1.209827524910938408e-03,3.166885918298921205e-03,3.343174314589390534e-03,3.728097081184387207e-01
3.426158523745423401e-01,-2.239343254560269281e-02,-4.155880346891585586e-02,3.777885779504324077e-04,1.082620181336834700e-05,1.791237431570025587e-03,3.749729096889495850e-01
3.481790762361058333e-01,-2.807833645295407243e-02,-2.964998258668524733e-02,-1.541261207767054796e-03,-2.753176490795279883e-06,-6.448072485731694888e-04,3.770568072795867920e-01
3.388628904538898978e-01,-2.238582912351158583e-02,-3.831476079045426086e-02,-4.625223909662027049e-04,2.350723373742149517e-03,3.245909927558104924e-03,3.695368766784667969e-01
3.545683110401823268e-01,-2.652733585014691031e-02,-2.620430534580625581e-02,1.415555401601550608e-03,3.312412405952179788e-04,-3.919397151179324296e-04,3.809431493282318115e-01
3.380566207960404856e-01,-1.827314808407834446e-02,-4.270703665996117282e-02,3.879047850022848058e-05,4.064401122894985052e-05,2.928685269755277243e-04,3.691540360450744629e-01
3.571953323496006028e-01,-1.677625588748432595e-02,-2.452265821887375519e-02,3.372360471402977228e-04,-2.214814561520605032e-03,4.560346921446231661e-03,3.780067861080169678e-01
3.278195054541068743e-01,-1.462577474815213163e-02,-3.954616839899524616e-02,1.171962571971132700e-03,6.508392551633569766e-04,1.007189021455144867e-03,3.555729091167449951e-01
3.533328635904504633e-01,-9.647164085010512258e-03,-1.959279725781151726e-02,-1.057610223026778096e-03,-1.763132984787138275e-03,4.765279252278546013e-03,3.681634068489074707e-01
3.383345315581355872e-01,-1.851925609816068574e-02,-4.122842433965401288e-02,-2.421686762073835069e-04,-8.116670118632106766e-06,-1.587757220709744288e-03,3.687437176704406738e-01
3.258505920372949949e-01,-1.527592660296686611e-02,-3.829323535610193452e-02,1.124136426727939198e-03,3.258594904827541417e-04,-3.009477909077640408e-03,3.532423973083496094e-01
3.263574064595292090e-01,-1.810483954854405497e-02,-3.935185673771415815e-02,3.828104855638748364e-04,6.242179983898678937e-04,-9.109446339672174929e-04,3.555679619312286377e-01
3.729071897112811174e-01,-3.088376407424348047e-02,-1.547888323306539915e-02,1.887096572464066167e-03,2.826262878604805621e-03,1.028742950903214007e-02,3.967571556568145752e-01
3.324942486523206342e-01,-1.937036532135716360e-02,-3.642044416577649990e-02,7.062463321513781254e-04,6.985679688565874304e-03,-1.516792040892116829e-03,3.609065413475036621e-01
3.430175897904105820e-01,-2.268328146444056892e-02,-3.815968033620800726e-02,-5.326075134164131621e-04,-2.882141340812684020e-04,-2.513764223484377201e-03,3.737063407897949219e-01
3.553909743393501852e-01,-1.693131234197958745e-02,-2.354380932517585734e-02,2.688896991048320313e-03,-5.776790777767989949e-04,2.091094181643915993e-03,3.757198452949523926e-01
3.519836428915991133e-01,-1.930640186937665481e-02,-2.261783555923055355e-02,-2.619086979270589168e-03,-1.656712239034981550e-03,2.851503180993539190e-03,3.730280995368957520e-01
3.419681776928936157e-01,-2.477117980431955968e-02,-3.842143850802090532e-02,1.348332533233855554e-03,-3.439247444010958520e-03,3.309536878828418967e-03,3.738501965999603271e-01
3.324540881131166636e-01,-2.077734055848404204e-02,-3.613205648897935274e-02,3.641651062517938832e-04,-5.042769095360033786e-04,-5.200253050882980288e-03,3.612675964832305908e-01
3.470763204741182384e-01,-2.498295824910248819e-02,-3.795269198863721050e-02,1.136946591458468363e-03,-1.193334840310120203e-03,1.680222606748270429e-03,3.787326812744140625e-01
3.480184031221605911e-01,-2.728634592384365787e-02,-3.544996219918913893e-02,-7.057253149326467301e-04,-4.737563630345853396e-04,-2.061503040782882400e-03,3.794720768928527832e-01
3.472115180984075566e-01,-3.554124524339091762e-02,-2.850362580344456553e-02,4.247869168262806069e-03,2.699430468632878655e-03,-5.895478547629293478e-03,3.795204758644104004e-01
3.431671130470188014e-01,-2.707510185646255785e-02,-3.626890961422768456e-02,-7.920976243813401037e-04,-6.384802980354701901e-04,-3.874848961850054646e-03,3.749878704547882080e-01
3.529312575154383569e-01,-2.933139957356414862e-02,-3.418124742386369208e-02,5.162465616039599954e-04,3.538135952419335108e-04,1.078141062270161809e-03,3.847165703773498535e-01
3.478266093113274171e-01,-3.036404607269682643e-02,-3.287090984604806865e-02,1.412570909607683807e-03,-7.109862007626004858e-04,2.708810221972280264e-03,3.794891834259033203e-01
3.475599863826175917e-01,-2.671324091235832698e-02,-3.546045694025698469e-02,-5.349598953408387942e-04,-4.470454241901787237e-04,6.853146472953122043e-04,3.787263929843902588e-01
3.500751641681659199e-01,-2.894612353184475295e-02,-3.546227218646666457e-02,3.485317276543330699e-04,1.219446355666113538e-04,1.455343119856899146e-03,3.823298513889312744e-01
3.703668058546871200e-01,3.532430728848512391e-03,-3.512865740598999920e-02,-5.956269018193559653e-03,1.650118776154543311e-03,1.853579534708515693e-03,3.877747654914855957e-01
3.490826264978894589e-01,-3.374605794230883804e-02,-2.777545293106595259e-02,6.688922788934428126e-03,-1.458189910840964427e-04,-7.661731617849247208e-03,3.802869021892547607e-01
3.553628396186896965e-01,-1.710389822495977930e-02,-3.001075681866488543e-02,-1.590915139199094129e-03,-2.884788524136975684e-03,1.229922805182349877e-03,3.791339099407196045e-01
3.544459541977935668e-01,-2.962977913004588570e-02,-3.307332384291661320e-02,1.177812177855548951e-03,2.902850215755041767e-04,-8.428587130714896994e-04,3.858175277709960938e-01
3.471376033415588536e-01,-3.345319728797349623e-02,-3.087082853116729364e-02,-1.481432606326758090e-03,-1.408937838996449868e-03,-3.848936988436189085e-03,3.793813288211822510e-01
3.446617885210271903e-01,-3.481968439861216069e-02,-2.615732306924242745e-02,-5.784642184796586232e-04,6.287367141099715331e-04,-3.108766162396976295e-03,3.752668499946594238e-01
3.547083063531519809e-01,-3.346700718357983884e-02,-2.736766062896867080e-02,-2.393366859134968966e-03,2.105612684401310126e-03,1.331459539372097014e-03,3.852083384990692139e-01
3.255955770029875795e-01,-4.412464813305458367e-02,3.624248990778973500e-02,2.802554904336204689e-02,-9.351297428217457408e-02,-1.547326456983537726e-02,3.778189420700073242e-01
2.496902495489983220e-01,-1.389469935421192015e-02,-9.208919037582974365e-04,2.204454707262962828e-03,2.587561930478965845e-04,-6.541942639750233501e-04,2.573746442794799805e-01
3.251671244966356511e-01,-2.570082192275996436e-02,-2.876196077994799816e-02,6.170470623337774574e-03,-8.834300103550702526e-03,6.390558617933504888e-03,3.530759513378143311e-01
3.462066259948494151e-01,2.449220620238827528e-02,-8.170597838848478456e-02,5.691387104252737528e-02,2.730983768209207380e-03,1.634325689339797064e-02,3.993556797504425049e-01
3.553806148699939493e-01,-2.736043714186647824e-02,-3.197655306505875483e-02,5.531848655355483223e-03,1.713747584015498128e-03,8.752845748409924511e-04,3.852034807205200195e-01
2.175198259100023512e-01,-6.405316797847698806e-04,6.906406169042839105e-04,-1.043028984317123349e-03,-2.506056221908919512e-04,-3.106436723267922730e-03,2.175723016262054443e-01
3.553340971914093482e-01,-3.268526345728919869e-02,-2.986863912453963099e-02,1.092206950259862414e-03,1.833960815359859814e-06,4.989447391314215125e-04,3.866243362426757812e-01
3.346372020675493775e-01,-1.091638121410914986e-02,-2.456074885327175217e-02,1.843909335056117746e-02,5.346685819052063478e-03,7.355303784344564659e-03,3.543675541877746582e-01
5.120364608641270188e-01,-4.955188416031486298e-04,-5.547320848761222445e-02,2.014389788577796575e-02,-9.110287029280270815e-03,-2.078055254829321366e-02,5.446569919586181641e-01
4.184082838112412328e-01,1.621155822722519790e-02,-8.498050165622825225e-02,-6.464428294224570416e-03,-4.658364297617378913e-02,-8.945104584053108557e-03,4.685900807380676270e-01
3.708672735276830612e-01,-4.248603737031650396e-02,1.469378416735815651e-02,2.721163026824548626e-03,4.293262008918459667e-03,5.684413543245045441e-03,3.881616592407226562e-01
3.966680466071283440e-01,-4.434951212146773236e-02,9.876714514234358200e-03,6.583642540635167503e-03,-3.937370867236998639e-02,-2.231529376643722959e-02,4.240248501300811768e-01
3.566942894896666383e-01,-2.873276200642899125e-02,-2.647957842508280590e-02,-7.880516757821164064e-03,1.468666914531269923e-03,2.880097293109427871e-04,3.845564723014831543e-01
3.541747176165036537e-01,-2.762219893020353978e-02,-2.949331314124978287e-02,1.097411305870725192e-03,-1.518882841765527118e-03,2.641844357535838342e-05,3.827496767044067383e-01
3.616358946470662472e-01,-3.516807498007989974e-02,4.107885962186447193e-03,2.042405484658349219e-03,-5.182446817820248863e-04,2.655911501110810348e-03,3.787421584129333496e-01
3.137095430786171479e-01,-1.866827944506158077e-02,-2.932550174109832541e-02,-4.093669079898233946e-04,-8.831384582464638869e-04,6.508644790389920241e-03,3.380247652530670166e-01
2.277154851196390162e-01,-1.455972336625933894e-02,-5.944837683255160821e-02,-6.731408852118210551e-02,-2.691522131338902613e-02,1.884994572940587934e-02,2.973558306694030762e-01
1.039839047392282362e-01,-3.523141295819307017e-03,8.691061299827440578e-03,-1.059668858566772953e-02,1.698794609212864876e-02,4.441874304903337123e-03,1.079614311456680298e-01
3.753985467238636908e-01,2.423582969087742511e-02,-8.812506059640964895e-02,1.149384467889016659e-01,8.669660056506343047e-04,-8.208093139789346404e-03,4.639332890510559082e-01
3.661511741532989528e-01,-1.835488152835723641e-02,-2.860817971211004895e-02,-2.257017788451416186e-03,2.743474900783179470e-03,-2.078034047197098097e-03,3.897990584373474121e-01
3.261302629092152072e-01,-3.493452968221252841e-02,-1.543822154613158637e-02,2.819420066576113632e-02,-2.942330243523043256e-03,-4.058751949994872030e-03,3.552021980285644531e-01
3.617165576038968711e-01,1.802827763730756316e-02,-4.840467908936779695e-02,3.486307902192661845e-02,-4.598973272650995481e-02,-2.872550478194083740e-02,3.972834348678588867e-01
2.229497785498502083e-01,-6.635885407059838315e-03,-1.245465826873848325e-02,2.812035830589783292e-02,3.712730894102349993e-02,-5.994117561355570729e-03,2.463629543781280518e-01
4.305585214031016350e-01,1.714826618030113048e-02,-7.895499630669156055e-02,-1.444862507960102335e-02,2.273151892630471960e-02,1.209759007764054164e-02,4.716878831386566162e-01
1.990195432931653741e-01,3.725077077747052101e-03,3.135059482778743134e-03,-8.651098596659000713e-04,1.275202549977080173e-03,3.043625400014760680e-04,1.956090629100799561e-01
3.672391836547405086e-01,-1.968630422126443902e-02,-3.158790958137480676e-02,-7.902534544186948229e-02,6.228892107501671216e-02,-5.019597974594725703e-02,4.386247396469116211e-01
3.574121050413956446e-01,-2.598596522154630883e-02,-3.081823277874384814e-02,-7.637668717563616400e-03,-4.101355164440934390e-04,-1.606152448260620856e-04,3.860643804073333740e-01
3.566272288047995787e-01,-2.804438018197000226e-02,-3.121759391018816276e-02,-6.449629349407890767e-03,-1.831307450100424714e-03,5.484624931390656016e-04,3.864436745643615723e-01
3.523575881287734357e-01,-3.308295975023936575e-02,-2.944652703146463657e-02,9.052862984673056858e-05,-4.255540225204582343e-04,2.757812148575043004e-04,3.836362957954406738e-01
3.399395389511943311e-01,2.291383699994592460e-02,-5.025363898824300457e-02,6.984488455280815633e-02,3.852803144186129486e-02,2.338547940679916448e-02,3.870187699794769287e-01
3.626266836812322980e-01,1.446510222057981188e-02,-8.211219850495760086e-02,4.214861465862842355e-02,-1.205850506286492221e-02,-8.476572473541109029e-03,4.124917685985565186e-01
3.616721160619009723e-01,-3.418417034741655369e-02,3.765132921447422731e-03,8.148351059256267502e-04,3.281970708415525399e-03,2.941160011632062022e-03,3.783915042877197266e-01
3.536539689183401669e-01,-1.900833929210618556e-02,-7.783317493728292291e-03,-1.458239321270770467e-03,-3.513513177573938419e-03,1.225881919779859240e-02,3.678509294986724854e-01
3.506607359608779340e-01,-1.960671739105640521e-02,-1.470450968962999649e-02,3.377522600051655380e-04,7.924742779082559127e-04,3.121746390512120366e-03,3.678836226463317871e-01
2.757674481224233198e-01,-2.883813690419423370e-02,-4.079090636751278587e-02,-6.818031032719153173e-02,6.702214105855994197e-02,-3.771495230290662637e-02,3.581300377845764160e-01
3.630823215610167742e-01,6.951586108063678715e-03,-3.900291722815554807e-02,4.148041845940516302e-03,1.351502946318715098e-03,1.719631777639688756e-04,3.812662065029144287e-01
3.528980292970151922e-01,-2.654807935798925156e-02,-1.784524348038063479e-02,-2.364446160968009837e-03,-2.999637481808524377e-03,1.206287778689171851e-03,3.752345442771911621e-01
3.497016245137958279e-01,-1.435113376373856053e-02,-1.563119521401451495e-02,-2.976295978868188767e-04,-6.764834358539014672e-05,3.811794219749217380e-04,3.646954596042633057e-01
2.062539536326348510e-01,-2.725993965974199407e-04,2.398330014518140763e-03,-4.961487770779803800e-04,-1.054420152314770095e-03,-7.445160240360356113e-04,2.052181065082550049e-01
3.490526203670238359e-01,-1.520940673106727092e-02,-1.444377182535042103e-02,-1.867877686838131609e-04,4.728727549798013817e-05,5.005633936752398525e-04,3.638809919357299805e-01
3.432658048016826169e-01,-3.950134724915368989e-02,-2.367631722866883615e-02,-1.674722215105944358e-03,1.528010594728681235e-03,9.426128922279403003e-04,3.751291930675506592e-01
3.690961919310445927e-01,-1.356202621450439127e-02,-3.661930857915840498e-02,1.563119021119611929e-02,-1.611181076468282819e-03,-7.627262843082541601e-04,3.956318199634552002e-01
3.876639950893605580e-01,-4.995434898281889136e-02,1.784171327922576267e-02,6.672633445255898854e-03,8.291861831561640056e-03,1.676349177887609745e-02,4.094144701957702637e-01
1.295382172410495802e-01,3.209763092287570840e-03,-8.823819181629298514e-03,-6.467764055921655653e-02,-5.829250962870361798e-03,-9.279945730877144777e-03,1.747391074895858765e-01
3.508289737881326031e-01,-1.767300357065054728e-02,-1.441501843619744094e-02,-5.813613396940544263e-04,2.173829127596115253e-05,5.390011562345737792e-04,3.668864071369171143e-01
3.495060137763688624e-01,-1.447819660292207211e-02,-1.396943982359402647e-02,4.562987974572581203e-05,2.682013647714669136e-04,1.180597916055987386e-03,3.637361526489257812e-01
3.525100074955398455e-01,-1.185038593287299213e-02,-1.839795027401067151e-02,5.297015603651255742e-05,-3.597519258740773359e-04,8.480434612374597230e-04,3.676813840866088867e-01
3.498401424006713500e-01,-1.809039194305392395e-02,-1.502365684519632594e-02,-6.946598384834927389e-04,8.780511295890529484e-05,1.946925544441842262e-03,3.664243221282958984e-01
3.066763259289779220e-01,1.383110454793572142e-02,-5.945480934678146201e-02,7.823459575972201152e-02,-2.056708709606443197e-02,2.552428138146280168e-02,3.663004338741302490e-01
3.659157219165612429e-01,-9.774601295647195043e-03,-2.573032821376902701e-02,-3.453010399187720486e-02,7.290898721460009613e-02,-3.579504203192739042e-02,4.132314324378967285e-01
3.365402658094689969e-01,-3.507764730932552699e-02,-2.367525977820494898e-02,7.793220237640018783e-03,-6.829639362202204189e-03,5.737550293545842263e-03,3.666243851184844971e-01
1.653281052399619977e-01,5.047504428256195663e-03,-7.973547839082134603e-03,-4.146353342512869300e-02,-2.748326071421960254e-02,2.363620106278596904e-03,1.881139576435089111e-01
3.558370170721016357e-01,-2.974590988295461313e-02,-3.388180385675207407e-02,2.705770973069119428e-02,1.525416879254707855e-02,2.294183549232044379e-03,3.914029300212860107e-01
2.120398996739726039e-01,-1.690524879917165713e-02,-8.453597885238889331e-04,4.356428612523378235e-02,-3.357074297267862491e-03,-4.276176047126050046e-04,2.339334636926651001e-01
3.524883765243720934e-01,-2.389071569849982035e-02,-1.612656988021743398e-02,-2.646139840580347883e-04,-3.995818808946557168e-05,1.616922748353952612e-03,3.725685179233551025e-01
2.362871293392772298e-01,-8.604544412895223648e-03,-1.594970861554538544e-02,-5.512097531248687232e-02,-9.050392440457617760e-02,1.710893854481670973e-02,3.104684352874755859e-01
3.538447783880880326e-01,-2.102053503852965854e-02,-2.487397106866751084e-02,2.258643218109311276e-03,1.323512871303191268e-03,2.410129186949250138e-04,3.768343329429626465e-01
3.561580796209677935e-01,-1.470449120573161239e-02,-1.320273165260393844e-02,2.462868191698752360e-03,8.812554453936770772e-04,4.837836697335874681e-03,3.702365458011627197e-01
4.100522161324328674e-01,-2.139203778350715068e-02,-2.254775528499039505e-02,-9.996952321758617935e-03,-5.193743783413545638e-03,2.391052559976551695e-02,4.344421625137329102e-01
4.015862420974825597e-01,1.254778001451797853e-02,-3.323300423215311272e-02,4.179134255586358648e-02,3.350256348840096460e-02,3.409163217775754151e-02,4.281948506832122803e-01
4.339357160404979097e-01,-5.098572761731867686e-02,1.590504660701871908e-02,5.184807003603832815e-02,-6.941909443977639649e-02,-2.794392977661262073e-02,4.817164242267608643e-01
2.965103163693320054e-01,-2.821970813948004864e-02,-1.756075518934116508e-02,6.127011309065986955e-02,-5.753104315514361369e-03,-6.269772121900330387e-04,3.368448913097381592e-01
3.207108861662965604e-01,-1.427180625069304765e-02,-6.560022632767711914e-03,4.137618941077333273e-02,-7.697792437136205534e-02,-4.132757120189758243e-02,3.711148500442504883e-01
3.468247067989780885e-01,-2.565980378252588623e-02,-3.551344012794563354e-02,-6.342293272047537858e-03,-8.934950539301680233e-03,-3.164055608214257423e-03,3.780242502689361572e-01
3.545352013232456190e-01,-2.689243761955717460e-02,-2.630526613490363763e-02,7.503838216699941499e-03,2.174542612147595862e-03,1.042345874557893196e-03,3.813787996768951416e-01
3.546927948658469831e-01,-2.807317979001158759e-02,-2.662620692152045665e-02,-1.215851510748092905e-03,-1.105563117705379886e-05,7.392861829287645256e-05,3.820503652095794678e-01
3.491265463896238153e-01,-2.843222412878815275e-02,-3.343295029101012172e-02,-7.650937789279636889e-04,-1.002374447799050819e-04,2.638971114592822149e-03,3.801136314868927002e-01
4.105651299982336355e-01,6.050046098974748432e-03,-5.588458635922047280e-02,1.593750314182539388e-02,1.752141385985686931e-02,-2.758931443355302181e-03,4.407127201557159424e-01
1.836284356224579528e-01,4.636921178776440278e-03,7.071136631577323861e-04,-1.193200388703693181e-02,4.878514365534422637e-02,-3.596522532635090981e-03,2.009047120809555054e-01
2.993599533824144454e-01,2.078859576258088038e-02,-4.132892015251532492e-02,6.685599140572243138e-02,-3.906459178784428381e-03,1.295591424818834381e-02,3.357428610324859619e-01
3.919195566360890726e-01,-1.459532215827807899e-02,-3.091490643774497116e-02,2.156404466799089273e-02,-1.065105398317140253e-02,-2.265894796326929639e-02,4.188442230224609375e-01
5.463527000191890082e-01,6.713878019623198412e-03,-7.644889216382738661e-02,-2.234024047606971916e-02,4.725663289879888061e-03,-1.499219010377977890e-02,5.875734090805053711e-01
3.551563775622057495e-01,-2.437333437708183448e-02,-2.549257834993506888e-02,5.639811752538014542e-04,-2.063664759656736163e-03,-1.306847147601666870e-03,3.801153600215911865e-01
3.210752067466789428e-01,-3.686281849709666103e-02,-1.674484414081789385e-02,1.029601577584622445e-02,-1.173802576041325799e-03,7.573441330645701774e-04,3.487796485424041748e-01
3.939539765905979429e-01,2.263809287030099648e-02,-5.226299196262082503e-02,-9.441903292379122403e-03,1.078667434657369986e-02,-1.087452672270244891e-02,4.150528907775878906e-01
5.195103443202468974e-01,7.778766510458612338e-03,-7.870931504570594095e-02,-1.918876765395220382e-02,-3.042742816431774373e-03,-1.326514535697735989e-02,5.614876151084899902e-01
3.526079272610949111e-01,-2.106651476655893584e-02,-1.891533404207540459e-02,4.535552746952184119e-04,9.637218612032728230e-04,1.317581457496152284e-05,3.726080656051635742e-01
5.506584566118970514e-01,1.961318239675530206e-02,-8.221859010295823333e-02,3.949258269002969834e-02,-1.246278644984362069e-02,-6.183951528646037567e-03,5.930562615394592285e-01
2.168966746657992051e-01,2.020800430268143710e-03,3.261711931752384053e-03,-1.574148485469753684e-04,6.077515395012487043e-04,-1.586459161700467656e-04,2.142610549926757812e-01
3.542183120216781389e-01,-2.651276414829117911e-02,-2.562519245800984335e-02,3.823278893024534687e-04,-4.274134708547888510e-03,-2.035009923141830397e-04,3.803608715534210205e-01
5.271675220907685588e-01,1.679020060579092255e-02,-6.569994266035933395e-02,3.271814924046981959e-02,-1.216621776904040081e-02,1.332185105888344587e-03,5.595101118087768555e-01
3.755815846760277577e-01,-2.947356120280125724e-02,5.382018773451485716e-03,-1.298872243706335021e-02,3.127128358638071350e-03,-1.977029793807460328e-02,3.909913003444671631e-01
3.550827149444471531e-01,-2.767002388152633996e-02,-2.978736771453815990e-02,4.572687970796429982e-03,-2.237619663134015843e-04,1.167226726729469945e-03,3.839030265808105469e-01
5.340031477409732386e-01,2.067197975519757813e-02,-8.050621061645757415e-02,4.286879433647498849e-02,-5.527927754440296014e-03,-4.483327186686075078e-03,5.756292343139648438e-01
3.586438332600003775e-01,-1.745979260088725837e-02,-2.350643402284147143e-02,1.732385936414556921e-03,-2.775867282953186927e-03,-5.466221146846941999e-03,3.793236315250396729e-01
3.573384893284833330e-01,-1.645122778495741733e-02,-2.313601405147799883e-02,-5.535462355082816990e-03,4.898402465027601113e-03,-6.179228802120189865e-03,3.775455057621002197e-01
4.165563404665958980e-01,2.271206602344752468e-02,-5.622079546668512506e-02,3.130341222492942499e-02,-1.814250706769938038e-03,-1.162425220504209426e-02,4.424770176410675049e-01
3.619216155008746494e-01,-3.175146125158262445e-02,-2.957240033480346142e-02,2.176929729919610621e-03,-1.645567720550419194e-02,4.247228939118651361e-03,3.937081396579742432e-01
3.525078188015737801e-01,-3.090099524239794948e-02,-4.633672654372172905e-03,6.152468785205517099e-02,-9.191326056291891644e-02,-3.907312526221971144e-02,4.229672551155090332e-01
3.282045440482986298e-01,-3.308085784418204889e-02,-2.584374058259344964e-02,-1.181162498377451471e-02,-6.479851437456662921e-03,-6.649089896774234253e-03,3.586669564247131348e-01
3.633028582576569576e-01,5.812224419972977785e-03,-3.864150054145343294e-02,-4.515553088752924556e-03,2.473762097597751071e-03,-1.674389568724463659e-03,3.817792832851409912e-01
3.544483656581105535e-01,-2.587847036164861447e-02,-2.557627326996025907e-02,1.376860221512537195e-03,-6.672291862719821262e-03,-2.878100661017548179e-04,3.803592324256896973e-01
3.432246698538855556e-01,-2.009613843899427099e-02,-4.253764098654977399e-02,9.653385269393799806e-04,-1.633485490533505584e-03,-8.906065075050452083e-04,3.750630319118499756e-01
1.762588572394566122e-01,-1.129365327831598209e-02,7.547619059982760281e-04,4.295950629190460612e-02,-8.683789762606188012e-02,-1.056425985204007510e-02,2.481032609939575195e-01
3.390130282380416360e-01,-2.097450429105973679e-02,-3.956201948154189352e-02,9.677187441837356921e-04,-1.618314753166891305e-03,8.378429622047020835e-04,3.696492314338684082e-01
5.324174376875612236e-01,-6.881469368628689853e-02,9.571889603376959599e-04,1.016358548029130601e-02,-2.904135534882956726e-02,-2.526048180695351919e-02,5.737189650535583496e-01
3.306737669922559797e-01,-3.165912657369532313e-02,-2.527167437247501702e-02,3.718345804378834010e-03,-2.841322229240187455e-04,5.824244550162471258e-03,3.593814373016357422e-01
4.110786776619982930e-01,8.145635411596741093e-03,-4.969600434721724302e-02,8.143580726688750063e-03,-1.189348495486470441e-03,-2.903665494043049678e-03,4.350120723247528076e-01
3.528733563739894774e-01,3.721619320226042527e-02,-4.922844660229355740e-02,7.585734847763665745e-02,-2.595140069456234287e-03,-6.765436144047704860e-03,3.896402418613433838e-01
4.247478798670324407e-01,1.597211981854590457e-02,-6.208517795023421604e-02,3.006858549610717996e-04,-3.239551780744228619e-03,-4.667073375108081630e-03,4.529851973056793213e-01
3.545978896870380925e-01,-3.041963522411778031e-02,-3.856715056988277435e-02,3.439139701748158279e-02,5.553046740453013858e-03,3.639230170071974541e-03,3.938557505607604980e-01
5.301733223310409748e-01,-7.381585416797115107e-02,2.362126308911083328e-03,6.260513493369961741e-03,-2.672248533703940054e-02,-2.129982804445004763e-02,5.729016065597534180e-01
3.409002278920466034e-01,-3.739556734263782545e-02,-2.420559197814503571e-02,4.379427349762004922e-03,-1.132745933016840326e-03,2.991216011515424131e-03,3.719948828220367432e-01
3.554581864572016747e-01,-2.669564112580088966e-02,-2.778857830958836317e-02,1.146288321564390648e-03,-4.283245320805348193e-03,-3.529048531811497199e-04,3.827790021896362305e-01
3.748548186199735510e-01,2.139573421063431513e-02,-6.211484891136570541e-02,8.613444921880814356e-03,5.144589621884057898e-03,-3.599314906799867125e-03,4.022011458873748779e-01
2.649673878713337261e-01,-2.581840085825769238e-02,-1.489398164473348940e-02,-3.764448730212972133e-02,-3.967862874301034126e-02,-8.169703241175576419e-03,3.011208772659301758e-01
3.557098441693837820e-01,-2.764901491280027934e-02,-2.371146485296862783e-02,-1.293960502182735749e-03,-5.431829197325682701e-03,-4.927089262491454302e-04,3.815288841724395752e-01
3.631018126349028763e-01,-1.696890114392279880e-02,-1.677527439212722626e-02,3.422779958492843180e-03,6.147974870226301236e-03,2.040654591962626913e-02,3.818088769912719727e-01
2.442175473049690571e-01,-2.026218332583432091e-02,-1.707095875931911866e-02,-2.877108896424439288e-02,-3.743941572679767432e-02,-7.955407148662172259e-03,2.756701409816741943e-01
4.406139800276515639e-01,9.208209172193615455e-03,-4.215581909961121920e-02,-8.953177514196446196e-02,-5.546657702847873628e-02,2.258160818359220001e-02,4.956966340541839600e-01
3.393225908751638098e-01,-4.077949616696194268e-02,-2.063299302765206344e-02,2.326794772826249261e-03,-1.057843108985608233e-03,1.821177769206576143e-04,3.704665303230285645e-01
3.384979100725224455e-01,-4.082336922914292510e-02,-2.157357050754582506e-02,-4.757567334742377786e-03,-2.124164048178067438e-03,-1.646737517409464129e-03,3.701930642127990723e-01
2.548227001555400939e-01,-1.586929886897929520e-02,-5.461072181813089732e-03,-1.714190923038522770e-03,3.983724523534367995e-04,-4.558690886721727085e-03,2.657756507396697998e-01
2.541870440928651886e-01,-1.558783298560016684e-02,-5.940079678488918713e-04,-1.582534488153564470e-03,1.600446997055356190e-03,-1.696117358387621036e-03,2.626445591449737549e-01
3.575107133156350536e-01,4.168962193876885047e-03,-3.308412994847742539e-02,7.687873373439197766e-04,-9.696012809300245255e-04,-3.749142450934473802e-03,3.734273910522460938e-01
3.024007035373910690e-01,-2.359888244466051832e-02,-2.526173132276784972e-02,-1.280486904712795602e-02,-9.133445600495265077e-03,-8.417748951088221271e-03,3.282915055751800537e-01
2.356556516771393384e-01,-4.423949153278713964e-02,-2.241809969598994312e-02,-5.861393253297639272e-02,-3.977954845787072535e-02,3.189553607494934745e-02,3.013565242290496826e-01
2.792304995766170528e-01,-1.917312687346373057e-02,-1.898529391812894818e-02,-4.561013869904735618e-02,-2.902775820836497878e-02,-8.855615550088562216e-03,3.130377829074859619e-01
3.524107763342558819e-01,-2.129207130938934323e-02,-2.123328550986761099e-02,-9.437859300273842515e-04,4.036768064685487909e-05,8.942838498928007245e-04,3.736802637577056885e-01
3.725456594330850413e-01,-2.948187696158630078e-02,-3.184177279643551906e-02,-1.536712449982351181e-02,-6.828029710963393409e-03,1.599284875454534032e-03,4.042727351188659668e-01
4.068216174097148974e-01,-4.337892737220425121e-02,6.398334787408033186e-04,4.163677440328794437e-03,1.752042827164736194e-02,5.987190316870985921e-03,4.311395883560180664e-01
2.348639015006829533e-01,-1.972460098293683795e-02,-4.064233032543398960e-03,-5.205865012239462020e-02,-9.025699061346235258e-03,-1.640795632085642738e-03,2.635457813739776611e-01
3.602868846070436670e-01,8.903039398437062601e-03,-3.444049956345979213e-02,-2.630302308815351056e-03,-1.399411842428682730e-03,3.225711601426488936e-03,3.750164508819580078e-01
5.531660345577793514e-01,-2.597894948452364461e-02,-3.134615969001192104e-02,-7.067809591834797733e-03,-7.425560979876504042e-03,3.896548620745635128e-02,5.860173106193542480e-01
3.547440081557465263e-01,-2.766867871341785468e-02,-2.602999768254957158e-02,-2.260830621444129794e-03,-5.698726361668872246e-03,9.387680799982307854e-04,3.817471563816070557e-01
3.271056905330961828e-01,-4.479919954041372554e-03,-2.792401915405492985e-02,-9.652623055787820650e-02,-6.377773223055963059e-02,2.086908086200628745e-02,3.996669352054595947e-01
3.627931383385897823e-01,-3.912956229215874826e-02,-5.449001964134697618e-03,-6.911936386766504058e-04,8.958509482921723360e-03,-3.270784223577510017e-04,3.864993751049041748e-01
2.658106599187345376e-01,-6.140915390464118939e-02,-1.152888134048567215e-02,2.547016236357594818e-02,-7.341762848281374598e-02,-2.648795077524018424e-02,3.368389904499053955e-01
3.064440876240149270e-01,-2.278418675658450132e-02,-1.985445175609942825e-02,-7.219572737277793126e-03,-1.629863186168974826e-02,-9.007189038028466307e-03,3.295936584472656250e-01
1.655511410187838484e-01,-1.884973906721085224e-02,-5.508511034505715609e-02,-4.448796560692239860e-02,2.934550330847469912e-02,-1.832290375958368564e-02,2.269949764013290405e-01
3.284778792912139700e-01,-2.647059196544918058e-02,-2.608568134269378946e-02,-1.670442671352779379e-02,8.155674922618002306e-04,8.064045066244865433e-04,3.559395968914031982e-01
3.568799012866350484e-01,-2.794449522353020798e-02,-9.864422013424661850e-03,-9.510251935053760930e-04,3.594900355639920990e-03,2.387890947133116011e-03,3.761883080005645752e-01
3.891058038508297123e-01,-1.040345210447130020e-02,-3.873097556543808606e-02,3.249337949506765633e-02,5.333566012446265894e-03,3.030202768748077851e-03,4.183390438556671143e-01
3.472826976490169248e-01,-3.248840112987455564e-02,-2.619542042675940263e-02,-3.477758174076946499e-03,-1.036415171014996601e-04,-2.478168398953768670e-03,3.767367005348205566e-01
3.144723375906738339e-01,-2.802430245881945559e-02,-2.002660866344979640e-02,-4.353135530718664058e-04,-6.832514089191263785e-04,6.606336418556370965e-03,3.387648463249206543e-01
2.023592887002769458e-01,2.281401907731947509e-03,3.008536302084613423e-03,4.570142814312106588e-03,1.279752940023807595e-03,3.207260756641558950e-04,1.998851895332336426e-01
2.485914772598775968e-01,-2.555445406085765647e-03,-1.605464871508503755e-02,1.096878189836801142e-03,2.456887620112301832e-03,-3.692842319662854780e-03,2.582826316356658936e-01
3.636757344185226892e-01,-4.275171443788186587e-02,6.893916506343245043e-03,-2.636581535910914858e-03,-3.472686637124440881e-03,2.497497249598206685e-03,3.841176331043243408e-01
2.708681430185519989e-01,-2.565713019573211129e-02,-5.182016504306374838e-02,-6.971373658353605118e-02,5.383668876885142063e-02,-3.428889639664536859e-02,3.509588539600372314e-01
1.994678373650294601e-01,-9.256023530740786764e-03,-3.238760190855893839e-03,-3.793564000890045640e-02,-1.569628243048655416e-03,-8.664431544829480792e-04,2.160391062498092651e-01
3.164576434806310457e-01,-2.772205772729777196e-02,-2.300638116212611051e-02,-1.155456735652258919e-02,4.087069917161960560e-03,7.531489748465889679e-03,3.427530825138092041e-01
3.706766008640846599e-01,-4.581102350036050930e-02,1.437557509597507666e-02,2.843392124132822652e-03,4.307171450462594572e-03,6.323558523084389128e-03,3.901503086090087891e-01
4.657253458411523828e-01,-1.152365727445861521e-02,-4.837734244856897736e-02,-5.864594864653914497e-02,-3.206663936841688128e-02,4.170472107177967958e-02,5.151057243347167969e-01
3.568941514537072868e-01,-3.440499213651770916e-02,5.436293467490582731e-03,6.031657910106367820e-04,3.144349961836967119e-03,2.543188921264955861e-03,3.730450868606567383e-01
3.762609577116642900e-01,-4.304603654991803752e-02,7.910818960222082419e-03,-5.417376804376476673e-03,3.045082108194522739e-04,-1.540778305078584166e-03,3.964137136936187744e-01
4.084880007348659636e-01,-4.845876918706282233e-02,1.433218594421983849e-02,9.644096634143727552e-04,7.763090717968555536e-04,-7.957800788736845918e-03,4.292382895946502686e-01
3.987870278424217041e-01,-5.758708562964404143e-02,3.164277146924207584e-02,-3.206099553181547893e-03,8.270848815255587780e-03,7.484221457560495672e-03,4.194296002388000488e-01
3.445285272389794762e-01,-3.172541873069339990e-02,-2.620349201776339676e-02,-2.393296809038310356e-03,1.328829541585337245e-03,1.298563266347455892e-04,3.735537528991699219e-01
1.273408367074857772e-01,-4.468186765928928994e-02,-4.752033717218416553e-02,-3.657195836180969495e-02,-2.420843936342937860e-02,1.699730882261989585e-03,1.893871277570724487e-01
2.471015921464791432e-01,-5.280766562491823191e-03,-1.483344274420538011e-02,-2.029514420405481156e-04,-1.579283510971835275e-03,5.054408759250169497e-03,2.574554085731506348e-01
3.696005183089430823e-01,-4.626917380291262205e-02,2.399061960465527499e-02,5.086440033527852168e-04,3.141771342996849364e-04,2.461384769825541909e-03,3.855961263179779053e-01
4.229359911128536820e-01,1.762546014986171583e-02,-4.937842374822759561e-02,6.027691647026670908e-03,-5.210852268100031950e-03,4.158015956564424173e-03,4.429061412811279297e-01
2.577556213490883041e-01,-1.534263940544559890e-02,-7.134174968979362097e-03,2.076207319456994764e-03,-6.380644537885690401e-04,3.769379429286901818e-03,2.691934108734130859e-01
3.717363129872011673e-01,4.495010508114294367e-03,-4.312381904215961681e-02,-4.541885272118554098e-03,-6.156634340402628415e-04,2.178301358521643905e-03,3.933174014091491699e-01
2.123134603838361945e-01,1.878007486904781365e-03,7.537466861904373872e-04,9.922825065519340088e-04,1.898527813604383198e-03,-9.793777972645549643e-04,2.110392749309539795e-01
2.845085538923697310e-01,-2.577081606401654401e-02,-1.525032202699992678e-02,-1.306222841566057058e-02,5.634216620541026600e-03,8.206932526484049181e-03,3.064781129360198975e-01
2.945041744015334806e-01,-2.643240719723280452e-02,-1.779816391965749478e-02,-3.672447848109412077e-02,-2.004135227702872821e-03,6.292926931665905783e-03,3.232347667217254639e-01
3.544181508820452020e-01,-2.990479260537667883e-02,-2.430207061457409501e-02,-1.830799684044924578e-03,-5.172834227691115380e-03,1.813433668707428389e-04,3.816709220409393311e-01
2.540233358214524229e-01,-1.431517800662746032e-02,-2.808569764136514824e-03,-6.634661774577334378e-04,1.071420695605781320e-02,-9.902635656256670877e-04,2.634367942810058594e-01
2.175022577084201048e-01,1.334689315484166583e-03,-1.579458920040563430e-03,3.273897724000187932e-03,1.439890336303949886e-02,-1.497512767473766393e-04,2.191370874643325806e-01
4.210654240976604568e-01,-6.332954800536746975e-02,2.149409643752461796e-02,-1.588703983556206262e-02,-2.438139081159039490e-02,2.844011740017409612e-02,4.535553455352783203e-01
3.078001175050836813e-01,-1.452930700837577749e-02,-3.674908233794310641e-02,5.233204116159642243e-07,1.011929802246158347e-02,-1.880994782448448246e-03,3.344695568084716797e-01
2.979944610452450737e-01,-9.544758538350114896e-03,-2.923350623623355293e-02,1.392424641080485968e-03,8.745061808053070790e-04,-4.874069329885780989e-03,3.179661333560943604e-01
3.407096223782810074e-01,-3.916011756494108820e-02,-2.134486200517776711e-02,-2.845877917182975205e-04,-3.133280789604256334e-04,-7.712978014151667576e-04,3.712859451770782471e-01
3.600450946917752026e-01,2.007728243991305228e-02,-4.359470287565600510e-02,-1.568044938683965279e-05,-2.161753638647796738e-03,7.572803510195713064e-04,3.758914768695831299e-01
2.663486241399269927e-01,-5.407312954639498237e-02,-1.424375813752970510e-02,-4.465499537715029998e-02,7.449383379559036678e-02,-2.878071835187690636e-02,3.414812982082366943e-01
3.534676176866028419e-01,-3.269991000575039886e-02,-2.460034074852993080e-02,-1.774272627141541738e-03,8.238264854118000635e-03,1.720639672733309750e-03,3.824723660945892334e-01
3.717571665386005808e-01,5.994710526526697558e-03,-4.277886107710404673e-02,-1.041474392208083634e-03,1.892715295163594630e-03,3.551292802260124816e-03,3.924951255321502686e-01
2.747732995910298071e-01,-1.462257712467787685e-02,-2.602675058492169569e-02,-4.830388666867229536e-03,1.777548465155067911e-02,6.266089302649502542e-03,2.971801459789276123e-01
4.023453284450844158e-01,1.310572081560387736e-02,-5.188290981205731511e-02,1.607524314592855387e-03,-1.293626357822718264e-03,1.792885118224876728e-02,4.266195595264434814e-01
3.695863875485581040e-01,1.976549499960067457e-02,-4.048456233055128251e-02,-6.722885047864019664e-03,-5.102543128420027616e-04,9.560674690248949920e-03,3.840469419956207275e-01
3.395926834837791897e-01,-4.122626044045529792e-02,-1.894695366777535139e-02,1.198273530111148362e-04,9.641520321703082679e-05,-1.110693079462269067e-03,3.701875507831573486e-01
4.983536977674223878e-01,-7.000381577885861351e-02,1.788095608120418567e-02,-3.481077690300565797e-02,1.000954041246202159e-01,-2.751464116609795077e-02,5.628213286399841309e-01
1.451710697720642318e-01,-4.690544817596774274e-02,1.343934381954002555e-02,-5.507549188217743079e-03,8.033334330579940119e-02,2.353864082146062131e-02,2.237355709075927734e-01
3.711863557075271713e-01,-3.953834351889459753e-02,5.010946403639332525e-03,1.104790588574038708e-03,1.863048877690049940e-04,-1.605196507501071039e-03,3.903760015964508057e-01
3.726844063935885742e-01,-5.738766218168525612e-02,2.463524615584750110e-02,-6.651004663134058156e-04,-1.243780540378652301e-03,2.012951838616525093e-04,3.954997658729553223e-01
3.512416471481673019e-01,-3.693731488868098878e-02,-2.645505665931718875e-02,3.504074320765850764e-03,9.770392590383366466e-04,-3.804623167327461815e-04,3.830977976322174072e-01
4.102132032366178627e-01,3.409181143279944870e-02,-6.363110146650957644e-02,-4.037791121392559496e-02,1.751340627184415355e-02,-1.376765771800627855e-02,4.406276047229766846e-01
3.523413746954531800e-01,-1.955011129323502850e-02,-2.275279049107503671e-02,5.193767660270293443e-06,9.006299322515676220e-04,-1.765685617458039470e-03,3.735189139842987061e-01
3.542473665379517467e-01,-2.867680743979947322e-02,-2.723832758797367637e-02,-1.925365568326886483e-03,3.137084104541915217e-04,1.722961182703450960e-03,3.822335600852966309e-01
3.538025644900738564e-01,-2.165265333812926851e-02,-6.883964541017528749e-03,-4.028970480075206900e-05,-1.430819681515356576e-03,-4.125076388092065519e-03,3.683706820011138916e-01
3.398903407796174947e-01,-4.235299535111894387e-02,-2.008433880135201965e-02,9.473050881868775436e-05,1.221451448019718897e-04,1.055344270885373294e-04,3.716098964214324951e-01
5.249729455532321509e-01,-1.721832877950571494e-02,-5.787047181143503694e-02,4.950126453996509662e-02,-3.752502997544351904e-02,-3.826730898992342783e-02,5.776104927062988281e-01
3.541019484865513545e-01,-2.272844542739979601e-02,-2.530785800656462636e-02,6.119887019668919341e-03,-4.929705533946652021e-03,-2.508834088833228684e-03,3.783965408802032471e-01
3.619655741236539881e-01,1.194292375451561083e-02,-3.616106522830647707e-02,-1.971230902070114871e-04,-2.901121216749768736e-03,-3.228207220934509701e-03,3.764624297618865967e-01
3.630640102098277588e-01,-4.108503669442256645e-02,1.626023698679338048e-02,-1.335454357289672048e-03,3.907983101124730407e-03,-1.494586846535332072e-03,3.788228631019592285e-01
3.836775312685826167e-01,1.467833290888989617e-02,-3.870998937435488063e-02,2.464903223094637788e-02,-9.989187747834553030e-03,-2.655775008356792838e-02,4.036694169044494629e-01
3.575025399470668774e-01,-3.432755795960185097e-02,-7.525170810817743972e-03,-2.436436157777523408e-03,-5.974039998129215996e-03,-2.602673861629925620e-03,3.793315291404724121e-01
4.142881484682203741e-01,-8.020265828106748485e-03,-5.433608307036333351e-02,9.825164946633516139e-02,-4.408748918608332290e-02,-3.979924971687123086e-02,4.894816875457763672e-01
2.190534898348064641e-01,-9.092211725095236674e-03,-4.655404635044310679e-03,-2.260586608471844630e-02,1.743269657163566168e-03,3.353494845760118023e-03,2.294206619262695312e-01
3.571146317202896214e-01,-8.558578692852092384e-03,-2.596468607061200307e-02,2.186936399896938048e-03,-1.827947033622908182e-03,-1.679464508728447910e-03,3.747234344482421875e-01
3.576765898406573108e-01,-9.561741110288457524e-03,-3.423071701799898503e-02,5.746705252388254782e-03,2.833759095980215460e-03,-2.004457697912108601e-03,3.803513646125793457e-01
3.628594382338627966e-01,1.496999107503789450e-02,-4.286367113335992629e-02,-5.921955294147246938e-03,1.741060458217498236e-03,-2.578555058763047983e-04,3.802709877490997314e-01
3.591727847130490869e-01,1.686390515064321860e-02,-3.295715774770552331e-02,4.211243998198867244e-03,-8.272688474087054166e-04,-1.565014792692911647e-02,3.708122670650482178e-01
3.520765583615473870e-01,-6.348299891936415307e-03,-4.371549781752109842e-02,1.393036213399223913e-02,-1.269237325863658249e-02,-1.465106061261572078e-02,3.807458877563476562e-01
3.748559432715690143e-01,-5.496782368212801972e-02,5.920943577590098705e-03,7.173638994962615312e-02,-5.613278914676272935e-02,-2.139670950469840446e-02,4.342222213745117188e-01
2.928515018767448019e-01,-1.251807057217858843e-02,-3.094455182953556593e-02,4.173014283540820227e-03,6.239829172648942790e-04,-1.120847582423383621e-04,3.150721192359924316e-01
3.522924821666403861e-01,-2.559392773270283139e-02,-2.656582138607962995e-02,-2.373509191963037689e-03,-4.439049144841687939e-04,2.805771653391578454e-05,3.783964216709136963e-01
3.588922083327472645e-01,-2.979777271923564341e-02,-8.913751349591853002e-03,6.343166319149123270e-04,6.108194744512194900e-03,2.693259049331097298e-03,3.788582086563110352e-01
2.423048754850674613e-01,-1.023716467179455747e-02,-1.084330367066747847e-02,-1.464970042786955390e-02,-1.503623305502222937e-02,-6.653706340941885518e-03,2.557065486907958984e-01
3.644371766693249026e-01,6.841169097186100556e-03,-3.803157143048241373e-02,-1.860842736915422444e-05,4.413698164807783276e-04,-4.353848221307151864e-03,3.820892870426177979e-01
3.546491367099737224e-01,-2.596579645213392684e-02,-2.739553859510396316e-02,1.511434583295789358e-03,2.772840707017614858e-04,5.422828316050549427e-04,3.813422620296478271e-01
3.597803431508969640e-01,-2.537953809824494700e-03,-3.284398496810780888e-02,7.297003483433076379e-03,-1.555578201683423169e-03,-7.592066426817129779e-04,3.786055445671081543e-01
4.026650454797220946e-01,2.332230475045010687e-02,-7.819969950667551850e-02,1.161387965380553944e-01,3.631006666395229787e-02,2.027945185618897084e-02,4.882345199584960938e-01
3.692634053238188496e-01,1.240232518512383864e-02,-4.210274034005703769e-02,-3.627469320175789012e-03,-2.984854669633618847e-03,-8.203794898698484050e-03,3.873493075370788574e-01
3.645366788837554606e-01,2.561472565743461161e-03,-3.410214242478359914e-02,4.996588126873462848e-04,-5.983126960628666743e-04,-2.352958772672902269e-03,3.816543221473693848e-01
5.069356499557648998e-01,-1.582413269058430272e-02,-5.755005238502913789e-02,5.091750978795138438e-02,-1.704641193650801093e-02,-3.371049479070822863e-02,5.557789206504821777e-01
3.459847850996086160e-01,-3.013184464410559316e-02,-2.804754676377954614e-02,-2.891405061024441246e-03,-5.652760129498814179e-03,-1.520097306031925968e-04,3.752401173114776611e-01
3.962823343631117212e-01,-2.187311595480143089e-02,-1.439306130792733507e-02,-1.845047819591255286e-02,-8.729888643805387358e-03,-1.882148722708680555e-02,4.172466099262237549e-01
2.381921768506582437e-01,-1.932866547093210763e-02,-1.003343781695016645e-02,-7.569068412927305173e-03,3.471832407892896932e-02,-4.436532244944885531e-03,2.604931294918060303e-01
3.582356485666409185e-01,-8.334233487178599464e-04,-2.797144702671808258e-02,3.124798531259236935e-03,-1.012641364510774317e-03,-5.353928170820557338e-03,3.735369443893432617e-01
2.801913345024517055e-01,-2.776126726533177658e-02,-7.991296088166829903e-03,2.244345908944426256e-03,3.197917314735271364e-04,-4.031271470336622413e-03,2.986663877964019775e-01
3.529121275791820000e-01,-3.187690294644313083e-02,-2.688397208035248065e-02,1.859478204860127038e-03,8.362351102992535146e-04,-8.136894369381102946e-04,3.823359310626983643e-01
2.683583745148985233e-01,-2.481576144564731634e-02,-7.981457134739758374e-03,2.130594059583142477e-02,2.569663046771653199e-03,8.417861498434130348e-04,2.875462472438812256e-01
2.848604880090008229e-01,-1.793377472610049872e-02,-1.703820086371925224e-02,9.864378772660045789e-04,-1.019857816845664124e-03,6.855535147607754419e-03,3.025905191898345947e-01
3.097628699798179452e-01,-2.805624956274027637e-02,-1.940855625272816520e-02,2.771509267575986016e-04,2.476780779016791219e-04,6.648913752106497092e-03,3.337787091732025146e-01
3.555247976677809452e-01,-2.679208345209641018e-02,-2.953805766780295827e-02,5.340454087468903335e-03,1.430762582785261158e-03,-1.287702339065346598e-04,3.838167786598205566e-01
3.458243195459492214e-01,-1.511705823862202758e-03,-3.717043011955148413e-02,1.579269513520678569e-02,-1.354814775150280093e-03,-2.088665444296700904e-04,3.674959540367126465e-01
3.605768626737084204e-01,-4.696068974958267361e-02,2.154124933700553302e-02,-2.300787977250677834e-03,3.186546186505613640e-03,-1.898461860694697313e-03,3.780468404293060303e-01
3.755245511974220629e-01,-4.856329259454039704e-02,2.058433022386060851e-02,-2.541284320153353472e-03,-4.130184926060560119e-03,-7.909296690675514732e-03,3.944178521633148193e-01
3.772548454127512829e-01,-4.366215667425618618e-02,-5.698392415489805796e-03,1.908561982152508652e-03,1.371310188875820082e-02,-5.700819710981182981e-03,4.041105806827545166e-01
4.112074336189719403e-01,-5.689077294983529987e-02,8.729571323379814451e-04,5.349729924075064739e-05,1.427453241245103116e-02,2.177878012010543013e-03,4.427629113197326660e-01
4.080594373672900010e-01,-4.846415464935113770e-02,8.035562114371536113e-03,5.400682295499991195e-03,3.250281556291403917e-02,3.177452139963772570e-02,4.382901191711425781e-01
2.536667839894374277e-01,-8.279530679603006038e-03,-1.395974437421255987e-02,4.803418649351438125e-04,2.366963148425017642e-03,-4.411225221006266628e-03,2.649753391742706299e-01
2.035599861202431471e-01,1.741791624871771860e-03,2.224856469730973618e-03,-5.688365087749636465e-04,1.656114674299196321e-03,1.059888755962780805e-03,2.016082704067230225e-01
3.619915368034451464e-01,1.536144898964046657e-02,-3.974817599535343526e-02,-1.840846088413373993e-03,-5.369621635122006189e-04,-4.437928652036682298e-03,3.773092329502105713e-01
3.855360245348701809e-01,-4.740406406747468826e-02,1.034122746239771184e-02,1.493103822899806963e-04,-1.152445441556062405e-02,-9.965253129499613595e-04,4.076430797576904297e-01
3.668587491546775325e-01,-4.817310334337826516e-02,2.112476246420873227e-02,1.617227831159726058e-03,7.810426052981028072e-03,-8.451732664782621307e-03,3.856137394905090332e-01
3.758604774966293194e-01,-5.185829227251106954e-02,2.765278643459720409e-02,2.148689262486954549e-02,9.210042134706811212e-02,1.157905785564660242e-02,4.271905124187469482e-01
3.518213719830363129e-01,-3.356191052687829135e-02,-3.029316476018403814e-02,5.920088405512450224e-04,9.558649655439295945e-04,-8.296584689503635037e-04,3.837669789791107178e-01
3.601003857430664090e-01,1.899788305221286611e-02,-4.294387288525941537e-02,-1.258823306804316387e-03,1.722024267213296579e-03,1.668741953177405339e-03,3.759497106075286865e-01
3.416747274066191387e-01,-3.854030655276138861e-02,-2.447266707293843657e-02,-4.260796272301004516e-03,-1.209882315781900209e-03,-3.080219374116388402e-03,3.734969496726989746e-01
3.586056453639273611e-01,-4.926947978495244129e-03,-2.695724356368645047e-02,2.281404613921463910e-03,7.651857949988005009e-05,-3.004595947179927468e-03,3.750903010368347168e-01
3.549591586849373259e-01,-1.665756216176059179e-02,-2.505707833688225472e-02,2.099077509312920371e-03,1.115643711951646005e-03,-1.368356262877127661e-03,3.759168982505798340e-01
3.677276498686323780e-01,1.518267237460585450e-02,-4.294505755414745884e-02,-4.058270011987981027e-03,2.151249485290918171e-03,-1.876769995013224295e-03,3.850107789039611816e-01
3.551860298501272606e-01,-3.046794658545642909e-02,-1.566895341432650302e-02,2.869909361947850512e-03,-3.712441015655543186e-03,-1.809066968208404959e-03,3.785717785358428955e-01
3.639689239163135248e-01,7.370210887933187349e-03,-3.831726586038361471e-02,-3.357985367160198041e-03,2.679143398411598133e-03,-1.428827955470159464e-02,3.823740482330322266e-01
3.603414228217486359e-01,9.864435307973498657e-03,-3.697176766670762227e-02,4.655548481544285154e-03,3.657635929390126825e-04,2.895949894495496429e-04,3.761760592460632324e-01
5.177836852061994399e-01,5.810842035481517120e-03,-7.826260366733694962e-02,2.946525231802610278e-02,-1.107071606830012031e-02,-1.397658242825404462e-02,5.619485378265380859e-01
3.590569645813170285e-01,-1.351278744098582951e-02,-2.898562543971508476e-02,1.872674446667927858e-03,-4.902971903272501826e-03,3.966695441396956429e-03,3.807127177715301514e-01
4.459369881771214073e-01,1.619229992818910224e-03,-5.436129806501283079e-02,2.054857318986560294e-02,1.492219022793131802e-02,-2.539891064847257796e-02,4.788478910923004150e-01
4.898916670454782629e-01,-3.425463618781016129e-03,-4.086192401879201741e-02,-6.168618216976395896e-02,5.196067448461616500e-02,-4.976117219570235645e-02,5.386790633201599121e-01
3.563824125616008032e-01,1.887756258293150913e-02,-4.434863069526892576e-02,6.772866455862996959e-02,8.009597628459737620e-03,2.884642953000833218e-02,3.945840299129486084e-01
3.348985778151837844e-01,-3.877441516283650080e-02,-2.226649202172878428e-02,-2.999638626894197117e-05,-7.121930692566651438e-04,3.592927327422223115e-03,3.657536208629608154e-01
2.195682693498518800e-01,1.496089083595095182e-03,-6.929170343130550136e-03,-9.580010475219360305e-03,1.752755776757006223e-02,1.057710709290665598e-03,2.250868827104568481e-01
3.576406152769767144e-01,-2.216108808607741842e-02,-3.508577231081022596e-02,-1.976820344351094133e-02,2.800016660004858715e-03,1.336352801033818555e-03,3.879773616790771484e-01
3.092898516996467895e-01,-2.827726483622933218e-02,-1.810721267836257198e-02,-9.167946757165182120e-05,-8.644328905178905956e-04,7.331539575309463028e-03,3.328444659709930420e-01
3.674126412551149135e-01,1.419874159840228689e-02,-3.944259992326146214e-02,-4.154337704190265261e-03,1.961845440616200031e-03,-4.268407493100630744e-03,3.830173611640930176e-01
3.594646792316347761e-01,1.091242614639321984e-02,-4.271718480324884770e-02,2.855674409388501717e-03,2.822973423507739183e-03,-2.439663668213368219e-03,3.783169984817504883e-01
3.524135401952110946e-01,-6.516478021662358566e-03,-2.682264170908280065e-02,-1.991415692023911985e-03,3.246652367284823693e-03,2.608868053500229718e-03,3.695883154869079590e-01
3.578565158582173167e-01,-8.964345066760887049e-03,-2.846629593319272011e-02,-2.514457779950888053e-03,1.254256703460473934e-03,3.936172655537480678e-04,3.769824206829071045e-01
3.576479357453550834e-01,-2.257157212149174530e-02,-3.369333757946169072e-02,-2.001944022833866688e-02,1.737506009043445019e-03,9.312157815450305097e-04,3.874703645706176758e-01
3.604312777036782212e-01,-9.997664270392225827e-03,-2.840731268039428659e-02,-3.193157424360830617e-03,1.857910776398705686e-03,1.018205626231676389e-02,3.804312646389007568e-01
3.666163595144799614e-01,-2.758684263158042715e-02,-2.939787288708364810e-02,-3.594454858999857061e-02,-1.232682142856575055e-02,8.538500561777551210e-04,4.005588889122009277e-01
2.912476794798923851e-01,-1.391784587021849262e-02,-2.831795729449759769e-02,7.612530320523683118e-05,1.432977698832130177e-03,1.030470747903868087e-03,3.126294016838073730e-01
2.904674619897268384e-01,-2.742329296188895926e-02,-2.357955136316146338e-02,-1.979741562488200601e-02,3.037215062483733519e-02,4.395672234482773250e-03,3.222554922103881836e-01
3.480167777278708185e-01,-3.509617675809389992e-02,-3.230868088092572754e-02,2.786823204693902184e-02,1.794655772681283748e-02,9.589851949082380325e-03,3.863773047924041748e-01
2.016327369314361018e-01,1.288379281649886660e-02,-4.128922572142861014e-02,-5.452954740494514452e-02,3.730964635131066992e-02,-9.658315198278009245e-03,2.493236362934112549e-01
3.647001089127762108e-01,-1.175215941079713056e-02,-3.355432467348581915e-02,-5.490596851738832607e-03,1.667968881884435844e-03,5.082518516424355814e-03,3.880404531955718994e-01
5.268540475094892761e-01,-4.243952160680039554e-02,-2.441457164531529722e-02,-2.804858138943270435e-02,3.169431548235247115e-02,-4.774304472509365710e-02,5.712884664535522461e-01
3.635408667331674892e-01,1.824173245015596467e-02,-3.833556449240946296e-02,2.709045704004276085e-03,3.399087204844648260e-04,1.113291854185148935e-02,3.773099184036254883e-01
3.565248514560718229e-01,-2.099340562269638721e-02,-2.654649227935493294e-02,4.093014092286993005e-03,8.299848379733105064e-04,3.361946389363861670e-03,3.804385662078857422e-01
3.901759374822518223e-01,1.505840909830771790e-02,-4.842651362655367442e-02,2.846237519307425346e-03,-2.023994303979186320e-03,-1.196095688308028253e-02,4.111247956752777100e-01
3.404903178869990721e-01,-4.134287430277319708e-02,-1.955415074763067196e-02,-5.135341059025915096e-03,2.181496053319785950e-05,-4.114475705359406008e-04,3.715256452560424805e-01
3.092532953616391467e-01,-3.170535681212116597e-02,4.904340902401729818e-03,-7.349269654039509991e-02,9.318621892148173935e-02,-2.652801228588231794e-02,3.866218030452728271e-01
3.550266516880251633e-01,-3.156814826260354034e-02,-2.818361250321396727e-02,-1.319503234824000171e-03,5.867945880097507304e-03,2.185119730157188741e-03,3.850732445716857910e-01
4.443616521268056729e-01,2.330000790662398180e-02,-5.750004062101859992e-02,4.242489765841760130e-02,-8.906900945376697298e-02,-2.220874589398940183e-02,4.985203444957733154e-01
3.620864227890630005e-01,1.997436952843410773e-02,-4.579697366837978678e-02,3.204983064033231632e-03,-1.217133729240140079e-04,3.067173703828929027e-03,3.793768286705017090e-01
3.481708539204023123e-01,-3.976880472396207566e-02,-2.183280851767852027e-02,-1.138428941002455480e-02,1.111564919675844050e-04,4.294421155809450283e-04,3.798028230667114258e-01
3.578813823916187076e-01,-2.755322869141013653e-02,-6.810813999276132957e-03,3.775891531125293889e-03,2.844864955072022236e-03,-2.809635368785071054e-03,3.756141364574432373e-01
3.693805932202288145e-01,-9.252454994145425937e-03,-2.850637964671176583e-02,1.809241709157934433e-02,2.027242730463686693e-02,-3.591730941722062059e-02,3.963697254657745361e-01
3.563240937135893072e-01,-2.441866104505033275e-02,-3.037612784905913133e-02,-1.068293691450250202e-02,7.661189368850721340e-03,9.985099270289460836e-04,3.844349682331085205e-01
3.560312362244023032e-01,-3.017248882291767575e-02,-2.584662621166070040e-02,-2.306551046880115350e-04,4.386692420959415091e-03,2.599969361739098463e-04,3.841346800327301025e-01
3.543645971922162463e-01,-3.448533286024582645e-02,-2.732603145314729809e-02,-1.727630258988000281e-03,-7.078431436488958305e-04,1.161950672416089958e-03,3.853389918804168701e-01
3.462131254916601120e-01,-3.783711112313062341e-02,-2.417533934625729075e-02,-9.730557761534384086e-04,9.344987679794772902e-04,1.577680830388766787e-03,3.774219751358032227e-01
3.588999239407152375e-01,1.265884589886226430e-02,-4.404854060538096472e-02,1.125564783649112000e-02,-5.423074747077131878e-03,6.172887866541047416e-03,3.785705268383026123e-01
4.045643339551622808e-01,2.109921971905526217e-02,-4.965393067973339347e-02,1.451021893634078797e-02,2.147768505044867458e-03,-1.908121846530363985e-02,4.253476560115814209e-01
4.798156053373411889e-01,-9.173611054282160282e-03,-4.860100776817413704e-02,-3.132314111471936474e-02,-1.553404935851783464e-02,-3.264550951261936673e-02,5.165356397628784180e-01
4.240121590416329189e-01,2.266721218697353990e-02,-6.383465324672499275e-02,5.748637710258398120e-03,-3.918794807772168348e-03,3.474175777808242646e-03,4.510641396045684814e-01
5.778907754662713225e-01,7.147527086836330534e-03,-7.383273359034647765e-02,-2.526848171350593725e-02,3.029334199073896970e-03,-3.098457276958704182e-02,6.191508173942565918e-01
5.453102539913136093e-01,-4.139853111298844035e-02,-2.344499821799200800e-02,-3.336047952422935975e-02,3.532776315007726126e-02,-4.820751762490661091e-02,5.899752974510192871e-01
4.269285975590228488e-01,2.696627053670946905e-02,-8.487535808669244286e-02,-4.204436018053828161e-04,-7.786468434181565215e-03,3.390238276170062792e-03,4.662914872169494629e-01
3.958341329146249921e-01,2.523942549282096048e-02,-6.554541991715684413e-02,4.064011439179649604e-02,-9.787761855638902036e-04,-2.875986709419621110e-04,4.291674494743347168e-01
3.459142961250913917e-01,-2.653284586318468974e-02,-3.294856860368408635e-02,-1.119965636636073049e-02,-1.933726533113032733e-02,-3.033512584257332979e-03,3.777211308479309082e-01
5.477194424757054758e-01,1.954634975181984702e-02,-5.961313431607129232e-02,2.967608333667062781e-02,-9.939403040913466492e-03,1.145978875896212605e-02,5.747828483581542969e-01
2.783658241150349100e-01,-3.641675111740882986e-02,-3.931611606435490847e-02,5.842145583412451659e-02,-6.249311998788413536e-02,-3.375633460718392709e-02,3.540945947170257568e-01
2.288215791316210168e-01,-1.305970949070534015e-02,-4.046140198621192563e-03,2.722962575720126038e-02,2.384655327466802741e-02,-3.709742701074209351e-03,2.457218021154403687e-01
3.551163570478551024e-01,-2.590856373878519525e-02,-2.727191849493659781e-02,3.390230336020246503e-03,9.754632765643258922e-04,1.722488505052322493e-04,3.817574381828308105e-01
3.549150062664986338e-01,-2.477702979790485927e-02,-1.604195224710486256e-02,-6.335880604944331721e-04,-2.442274049732617251e-03,-1.916549886085500793e-03,3.754408359527587891e-01
3.461006540460100367e-01,-3.284828447327522993e-02,-3.044066930430708307e-02,-2.227333039052541760e-04,-1.169663233823321638e-03,4.460148766982871028e-03,3.778355121612548828e-01
3.360516606936514994e-01,-3.579465857167252185e-02,-2.195780117600565351e-02,1.090047095301551719e-04,1.899069446841452485e-04,4.185970221841858914e-03,3.651967644691467285e-01
3.540631006352840116e-01,-2.624796420624639359e-02,-2.588917378123600788e-02,-5.152498689269717838e-04,-2.796422620591192381e-03,4.732210660623202884e-04,3.801645934581756592e-01
3.541808529223247626e-01,-2.614625196712627719e-02,-2.423756113646211019e-02,1.111168456833762494e-03,2.308156712477759417e-04,7.299869436094533377e-04,3.793835639953613281e-01
3.687235426689248752e-01,1.397697631939638641e-02,-4.719415231880472184e-02,1.728707036764094013e-02,-7.040763042407714722e-03,5.465302952007146733e-03,3.904127776622772217e-01
3.688100205953949162e-01,2.123014535019093763e-02,-4.596081308791985509e-02,-4.544010171747632412e-04,8.330773544722302072e-04,2.798282159306549315e-03,3.856252133846282959e-01
2.426938569605385232e-01,-1.629763669195447018e-02,1.325539298764261131e-02,4.676476708571422614e-02,-4.916969135600510882e-02,-2.058884543944225834e-02,2.745569050312042236e-01
3.482282274650787546e-01,-2.355378294109020110e-02,-3.816392601356019543e-02,4.532514123759707201e-04,-3.554326926976163377e-03,8.525328368084381103e-04,3.793518245220184326e-01
3.906559258328486384e-01,-2.944632949252337650e-02,-3.299700445402170557e-02,7.184424965894156689e-02,-6.359741105309700548e-02,-4.606826327761470025e-02,4.604081809520721436e-01
3.416665522203315986e-01,-4.137226970658106073e-02,-2.181466598866618756e-02,4.461425766822726749e-07,-4.932522627990052269e-04,2.199008911563962460e-03,3.736644983291625977e-01
5.548875272371894818e-01,-2.443536089855466442e-02,-3.777538472029681738e-02,-1.993372864924207108e-02,-2.182477688002075825e-02,4.365704780675608299e-02,5.931778550148010254e-01
3.627819176364809883e-01,-1.035144156632242241e-02,-2.534211811955705551e-02,1.589723013191226761e-02,-1.373407243531724053e-02,-1.216292506722446536e-02,3.831639289855957031e-01
3.175899840436309240e-01,-1.924743656410657366e-02,-2.269142342926183664e-02,2.389345166022931871e-02,-5.993141169645047582e-03,1.544714904336753252e-03,3.412608504295349121e-01
2.645793646822952594e-01,-1.498426476850610312e-02,-7.027441292957403718e-03,2.481050293258889664e-02,-1.532255815838664366e-03,-3.935257460961305749e-03,2.790965437889099121e-01
3.503342804850112513e-01,-3.108803318220779155e-02,-3.123750759874954763e-02,-5.329736721522395282e-04,4.846299875271327514e-04,2.533718926592081182e-03,3.815243542194366455e-01
3.553448409646798312e-01,-8.185365163323521376e-03,-2.502448906906554194e-02,-3.923815567432260669e-03,2.776564351273963938e-03,-3.180041653945321709e-03,3.723693788051605225e-01
4.193203796851552867e-01,1.220811636889423957e-02,-4.783169780644769276e-02,1.099006165325226887e-02,-3.246420630784605400e-03,5.783692276572017024e-03,4.407747983932495117e-01
3.683244898454722804e-01,1.469639604665810839e-02,-4.067774793877729222e-02,-1.717341918466011846e-03,-1.045562354696445489e-03,4.597557138420728384e-03,3.844171166419982910e-01
2.445813007365301717e-01,4.728351900599572777e-03,-3.482688817388226998e-02,7.785640718809838656e-02,-1.814013195536342930e-03,-2.115765112024131298e-02,2.968487143516540527e-01
3.990905377031352397e-01,1.696008849567789967e-02,-5.103678612794945724e-02,-5.011833560143708066e-02,-3.270496255710114014e-02,2.346911777205012983e-02,4.347731769084930420e-01
2.065417688617886827e-01,1.412981472664393695e-02,-1.576483672493976529e-02,9.955109748779672474e-02,-1.718381891320258301e-02,-1.223798400291667074e-02,2.733762264251708984e-01
2.699246452363283089e-01,-1.048936581921391942e-02,-2.744045777500156436e-02,-5.151535388564974088e-03,-2.321632561159409774e-02,1.708511240333134918e-03,2.921952307224273682e-01
5.534631555593816366e-01,-2.230298565647675924e-02,-4.346219537970300029e-02,3.733591716444940173e-02,-1.431178325514940661e-02,-4.265973854512015995e-02,5.953091979026794434e-01
3.541936466672775952e-01,-2.748879127660272537e-02,-2.491153613883184681e-02,7.404617622440718815e-04,-4.058865865747723553e-03,8.193461159165019950e-05,3.804675042629241943e-01
1.577714452255956912e-01,3.464364049706958326e-03,-5.453929064200101207e-02,6.636929551540035610e-02,-4.465193762152111501e-02,-3.041995054585214936e-02,2.410345077514648438e-01
3.626244968938860946e-01,-3.815562343877254570e-03,-3.383150149477590074e-02,-1.895388402090248704e-03,-3.260242250462971111e-03,1.739524375283510536e-03,3.824003934860229492e-01
2.058072262034493782e-01,2.337392152133575818e-02,-5.412478075355289797e-02,8.585846456133450211e-02,-4.320663480989173078e-02,-2.008357911679566760e-02,2.869700789451599121e-01
2.113619018255355197e-01,-1.292474737788848471e-02,-5.982354700094975886e-02,7.072886864688737729e-02,-7.738578078563003448e-02,-3.595876565174335043e-02,3.160304725170135498e-01
2.512240379164264459e-01,-3.248135303992205625e-03,-1.684735068319653806e-02,5.332382630443663341e-02,-5.380740654072478646e-02,-2.384253631385232358e-02,2.955047488212585449e-01
5.115485246849357237e-01,-5.397912769108154096e-02,-1.319608223307733308e-04,5.678294887908701127e-02,7.640226895934225382e-02,4.290723085404495041e-02,5.700674653053283691e-01
5.562282460308787257e-01,-2.239049465019124496e-02,-4.451286820653244103e-02,-1.178543040342006770e-02,-3.514360523215930877e-03,4.207678266944915590e-02,5.948567390441894531e-01
3.286874488492491642e-01,-1.454192872106671586e-02,-3.992865421564043005e-02,-1.173712504115248826e-03,-8.458670411976801796e-04,1.141443767915976265e-03,3.566153943538665771e-01
3.509150403149683961e-01,-3.494948470259071072e-02,-2.532720433652779768e-02,4.259073180485942536e-03,6.279476027862634056e-04,3.417675739498226336e-03,3.812633752822875977e-01
5.141247626682445837e-01,1.853619743338391634e-02,-5.845157377909782070e-02,4.941422170294856170e-02,3.989164856907616297e-02,6.955498021095597554e-03,5.494850873947143555e-01
3.301785807903250825e-01,-3.826184196543569449e-02,-1.943386406924257903e-02,-1.700019064350122007e-04,-2.520425538986658005e-03,3.642859506773456994e-03,3.594785332679748535e-01
2.886566387287774482e-01,-2.867350977968213810e-02,-9.025519483516597496e-03,1.024558681842997277e-03,-5.579702240669640219e-03,1.152389842302328811e-05,3.081332743167877197e-01
1.338735936765141910e-01,-4.913195481754477345e-02,-5.153410958474159698e-02,2.827051594030149939e-02,-2.501707695686174182e-02,-9.314730918225922612e-03,1.961426287889480591e-01
2.969490538443131378e-01,4.650358383183672562e-03,-2.645446415502150650e-02,3.145672451123199265e-02,2.041295169650669209e-03,1.750119902153634763e-02,3.152742981910705566e-01
2.290144895145844184e-01,1.729944906932300713e-02,-6.366087017206770171e-02,1.049668467019061469e-01,-4.956345250932295277e-02,-1.924145658767938138e-02,3.317420184612274170e-01
2.283259612269887551e-01,-5.058405463634577104e-03,-1.219776015079143683e-02,-1.944855315342543939e-02,-2.009203415382899635e-02,-7.235534526624859235e-03,2.422567158937454224e-01
3.713409992858477948e-01,1.362880656201839735e-02,-4.736416125172648872e-02,1.059079518158744480e-02,1.877102259189875749e-02,9.127079983794557719e-03,3.938775658607482910e-01
5.474562498754754758e-01,-7.443350306184792764e-02,9.312169154770982837e-03,-1.049935628369342427e-02,2.755152762458173282e-02,-2.152464529502212329e-02,5.879434943199157715e-01
5.106480609749664001e-01,-6.922535318914091462e-02,5.824703615052800876e-03,-2.013254558295397151e-02,6.070695547483662136e-02,-3.046704028367671138e-02,5.598418116569519043e-01
4.954349185928806909e-01,-6.164563532702646564e-02,-1.411620612370989569e-04,2.241173761952392970e-02,-6.439282506342966506e-02,-3.276689558093346527e-02,5.450007319450378418e-01
3.593310987429724768e-01,-2.624114088385054444e-02,-4.537201380794469996e-03,2.595206771462825121e-03,1.133372248378311086e-04,-3.289275236131389540e-03,3.752616047859191895e-01
4.290128199745322224e-01,-4.877828433094585914e-02,1.000564197434317126e-02,8.023272178725702336e-03,-1.364047405631070575e-02,2.261770835195823365e-02,4.538055062294006348e-01
2.066140491173810989e-01,2.687740263826163267e-03,-7.159584323611109524e-02,6.314725881350224945e-02,-1.939439039429909431e-02,2.164241683704486163e-03,2.745133340358734131e-01
4.310573731013335741e-01,-6.347251983653001695e-02,2.276904417416536486e-02,1.022211254940891441e-02,-4.017636858156301699e-02,1.662551900004268640e-02,4.640404284000396729e-01
3.661085781244159398e-01,-7.851367094369421373e-02,1.522169072723922323e-02,9.183581472186589864e-03,1.084397310407657355e-01,7.052927014838391434e-03,4.477479159832000732e-01
3.061241285131526269e-01,-2.103626767976257694e-02,-3.269347380603410125e-02,9.220145505878633158e-03,2.550512482160518027e-02,-4.915183727231580563e-03,3.365451395511627197e-01
3.731228499974653667e-01,-4.267472967648003324e-02,5.067386782337590656e-03,-1.823115015943642826e-03,2.079875586144689769e-03,9.361857837418080530e-03,3.944638967514038086e-01
3.598577089865599432e-01,-3.994277391793221721e-02,-4.014655970461578072e-03,-2.510006144612973028e-03,6.984112612273593590e-03,6.653213493983257780e-04,3.833193778991699219e-01
3.882311098026230423e-01,-4.197531839404675114e-02,8.660853215061020682e-03,-7.449241489637433572e-03,1.697209287983688503e-02,1.832026897727194112e-02,4.097500741481781006e-01
3.611181842295778099e-01,-3.963408027132980793e-02,-1.336915789193235393e-02,-6.511924137459871274e-03,1.532055934275373607e-02,1.347737396023698797e-02,3.900548517704010010e-01
4.100904274791244419e-01,-5.246137171273024258e-02,-9.774199347515472036e-03,-5.532015669827693161e-02,9.907887642628757097e-02,-4.706242218565415136e-02,4.912298619747161865e-01
3.771783481169592167e-01,-7.412889099856390107e-02,2.101102532966343805e-02,-5.126948125490159852e-02,1.146802493306873783e-01,-3.454855974286540760e-02,4.698017239570617676e-01
3.271169554986170236e-01,-3.910566267485024450e-02,-1.852622846557788749e-02,-2.499195235657074754e-04,-3.113158284472870591e-04,-5.070837697074780624e-04,3.563805818557739258e-01
3.702947044882357042e-01,-4.539817667166243242e-02,1.766356440824534690e-02,2.326528764473515378e-04,-5.600516759091931501e-03,7.662087226814397710e-03,3.883727788925170898e-01
3.680679635887388335e-01,-3.988136200150846356e-02,1.608862321536964901e-02,2.593120231769099546e-03,-3.625218096271509358e-03,3.268936889902979929e-03,3.831631839275360107e-01
2.261947469427484647e-01,-1.007622544663264175e-02,-8.747420785306520008e-03,-2.133224763501783555e-02,-1.351256121834062442e-02,-7.568833342604024648e-03,2.399929314851760864e-01
4.785413509300190937e-01,-4.923878683325957906e-02,-6.548565152420554591e-03,-4.450964955017058106e-02,7.235340961506391000e-02,-4.953080774779313605e-02,5.355852246284484863e-01
1.134791009739333500e-01,-3.961133492687933522e-02,-4.412303810637190765e-02,-4.171657582247987467e-02,2.595477316099337878e-02,-1.017703910843054983e-02,1.780455559492111206e-01
3.595124812159938843e-01,-2.976454625732311010e-02,-1.146230514695523173e-02,3.433152986367627954e-04,5.457554198180018280e-03,1.529512993761073664e-03,3.805833160877227783e-01
3.602635666041071882e-01,-4.048985826670492560e-02,1.946990361510346490e-02,8.893173677306776513e-04,1.374705910833622655e-03,1.093384944140982605e-03,3.744075596332550049e-01
5.358874125605725958e-01,-5.986943815131379187e-02,1.721574902251729600e-02,-2.890893577002030118e-02,-5.048842949059244301e-02,-1.348024359023898902e-02,5.706521868705749512e-01
3.645273603615646896e-01,-3.604531696333973523e-02,6.494089226285387761e-03,1.334629233028856348e-03,-1.824681713503438496e-03,3.967599433131021973e-03,3.811699151992797852e-01
3.785055005634547221e-01,-4.997708566977451805e-02,3.681631454535150283e-04,1.052067152590723973e-03,2.678411438518590870e-02,-2.689784817843996270e-03,4.083345532417297363e-01
3.614540862886261863e-01,-3.960586502860674596e-02,-6.072703154052006003e-03,-8.731614237166172507e-04,6.517655977333797895e-03,1.510703148264603245e-03,3.855662345886230469e-01
3.970926013291459222e-01,-5.809798638625993106e-02,1.082598836945003473e-02,7.150609319699369887e-03,-8.796254757209555353e-03,2.255329649472938899e-03,4.254129827022552490e-01
1.482056423422488667e-01,1.409015754238561458e-02,-1.624397700196789085e-02,9.279077148526118646e-02,-9.741749729948767297e-03,-4.282963293302043117e-03,2.216878831386566162e-01
3.591715058219112078e-01,-3.386200187729029865e-02,-9.750862467173881942e-03,9.093609301191460988e-04,-3.103379768407666783e-03,7.413861319927648281e-04,3.815930187702178955e-01
4.021268187045407005e-01,1.515580572481306509e-02,-5.289799959479510316e-02,1.160898222907629689e-03,-1.893345970093800699e-03,1.405974641907131208e-02,4.258175194263458252e-01
4.671042606292010180e-01,-8.053355628300812308e-02,2.747690305701391833e-02,3.262311842603999538e-03,1.113681997477335150e-01,-5.526105951330071916e-03,5.382889509201049805e-01
3.637319981355645049e-01,4.114861705350525423e-03,-3.677473843237724638e-02,-2.045575182511501222e-02,3.203107427055614138e-03,-1.020855263152026628e-03,3.833931088447570801e-01
3.783740151992385226e-01,1.865651415644678512e-02,-4.948713770841309256e-02,-9.724189329502953838e-03,3.985332591819152562e-04,4.703785643680601265e-03,3.986266851425170898e-01
3.681152402646378219e-01,1.915750183049075295e-02,-4.340925397990871848e-02,3.069722612706797613e-04,2.411036319972170369e-03,2.112152581588525556e-03,3.841228485107421875e-01
3.601327254531304090e-01,-4.244823069439718211e-02,6.807784029431843131e-03,-1.129405792663639146e-03,-2.938596726642439712e-03,4.062839745184159551e-03,3.804566860198974609e-01
3.731744441833306225e-01,-4.926714728717096481e-02,2.320558769273871336e-02,1.664775502572946649e-03,1.995614732600396735e-03,-1.445902880707155636e-03,3.913058042526245117e-01
3.749209197479588807e-01,-4.294774642729495828e-02,6.464969661494956998e-03,1.470651678873488360e-03,9.715833794417606025e-04,3.924154884007451452e-03,3.955544531345367432e-01
3.791414403572563319e-01,-5.303545036299833759e-02,1.375576931767219513e-02,-1.350924184121904750e-02,1.247688300444678607e-02,1.018808709833386467e-03,4.042152166366577148e-01
1.594159489038692867e-01,-2.986778180230367785e-03,1.175728764019265404e-03,7.513151770688557274e-02,-1.885280994409627847e-02,-1.302478567365974831e-02,2.102984189987182617e-01
2.861182696919285506e-01,-2.722030988402598939e-02,-7.111668092154327381e-03,-1.748232407741745487e-02,-2.489712298621380923e-03,-3.413992890112264086e-03,3.053769171237945557e-01
4.035924150880976224e-01,-5.472364537455950972e-02,6.493196294829473025e-04,-3.604390954128549457e-03,2.147961401573270437e-02,-4.856859115473640028e-03,4.350118637084960938e-01
3.697118102284335239e-01,-3.670429641387987219e-02,-1.370572902738623200e-02,-7.688410333373869214e-04,9.400719180131040381e-03,2.389386572687336643e-03,3.957777321338653564e-01
3.705946610323526680e-01,-4.559196372103987982e-02,2.559896564155503262e-02,-1.054023828056465262e-03,3.463795098203529925e-03,8.978094484900641173e-03,3.859169483184814453e-01
3.723376896350688026e-01,-4.461857672173671907e-02,2.433430401033243040e-02,3.936155981796512029e-04,2.172171690243871259e-03,7.532246775428765723e-03,3.873519301414489746e-01
3.484933854804073139e-01,-2.874945332148357013e-02,-3.375398219962480462e-02,-1.359462651716307089e-04,5.433873549007250123e-04,-7.400598003962107320e-04,3.797732293605804443e-01
3.914858140019038535e-01,-4.162464284262334946e-02,1.103112450322166205e-02,-1.042388339678637860e-03,8.126117120540399252e-03,1.134340959731383602e-02,4.100474417209625244e-01
4.728180081091025166e-01,-8.346999217603168209e-02,2.681134318203670652e-02,-3.394463505668016134e-02,1.112717191168648978e-01,-1.791567738352601094e-02,5.493941903114318848e-01
3.562222489147129911e-01,-2.791686640948043419e-02,-1.439717478738428147e-02,-7.230727231065541862e-04,3.652385959617707525e-03,-1.761611377363138083e-03,3.776282668113708496e-01
3.609888829050583170e-01,-4.663176641684088630e-02,1.960756520219639198e-02,-1.117519961676558893e-03,8.293014538931346193e-04,1.206634403995676777e-04,3.788767158985137939e-01
3.324684231308722704e-01,2.631618405191105126e-03,-2.370838321196844234e-02,8.330657490265760967e-02,6.709325010930945743e-02,2.877460232693133252e-02,3.936780691146850586e-01
3.774717854549292650e-01,-5.149821880999649881e-02,1.685880152493512973e-02,-1.083479397715528085e-03,2.042953339346724895e-03,-9.941327522339700809e-03,3.995965123176574707e-01
3.725132299195513252e-01,-4.637847101991923737e-02,6.601560666848249603e-03,-1.883660818299814736e-03,1.001156512725583840e-04,3.059414961759064633e-03,3.951240181922912598e-01
3.616224391150940076e-01,-4.629780331010996397e-02,1.636865934643179366e-02,-1.011244896445217655e-03,1.712673113192558251e-03,4.208666327177553075e-03,3.805628716945648193e-01
3.639351691395177890e-01,-3.041491894645628746e-02,-1.403503330321273501e-02,-1.302665243957724841e-03,-3.184456574992860622e-03,-5.905469727282413976e-03,3.866018950939178467e-01
3.708486061319583582e-01,-4.186757036420474254e-02,1.462405112014893149e-02,8.810849460265100276e-04,4.263460544010149594e-03,4.640073467820938873e-03,3.877272009849548340e-01
3.606020447477089608e-01,-4.351257590640522643e-02,1.830733772846250551e-02,2.871792549197478908e-03,-6.724218686646177973e-03,3.373566260682179987e-03,3.772830963134765625e-01
3.897668316581424652e-01,-4.915579349574952794e-02,2.112203680096511049e-02,-4.473822265941882577e-04,9.764656487070776103e-03,-2.233795560076061709e-03,4.087139964103698730e-01
2.574465817175833893e-01,-1.515348147208865626e-02,-1.991530164541091552e-02,2.275283829309771369e-02,-4.103894808816272582e-02,5.549295586518062512e-03,2.869313359260559082e-01
3.551344713094101158e-01,-3.369036703549013745e-02,-2.969162228138494397e-02,3.843803171840749603e-05,1.124639247259623777e-03,-1.046825057152070979e-03,3.868501186370849609e-01
2.636652187530076907e-01,-1.566213892710925648e-02,-1.433239966998561821e-02,8.185920269694968790e-03,-3.093881581555538857e-02,1.438987722215705667e-04,2.841246724128723145e-01
3.506272631366562087e-01,-2.733883426386563009e-02,-3.916223356336306916e-02,1.312771829660408637e-03,-1.397692037622577654e-02,1.431126993790793160e-03,3.847913444042205811e-01
3.553369569521384053e-01,-3.498743770903720018e-02,-1.425985965751430662e-02,-5.803600630572715476e-03,-2.324768449655382433e-03,5.119601017457023557e-04,3.805395364761352539e-01
3.503842344816025522e-01,-2.839296881358194247e-02,-2.699682886418927619e-02,-1.614324783734981579e-04,-5.800510222703941267e-03,1.556514572366803637e-03,3.782242536544799805e-01
3.495039698121665261e-01,-8.599472880582048617e-03,-2.144777499134492560e-02,-3.354078515415753053e-02,3.384238796208187405e-02,-2.396702719445032576e-02,3.762157559394836426e-01
3.557929908495311433e-01,-4.139248377372478638e-03,-2.677007390886526617e-02,5.073059643853830049e-03,3.523747895833363036e-03,2.727252279665661177e-03,3.719485402107238770e-01
3.386640112223701649e-01,-2.059774178155279745e-02,-3.792636833655826933e-02,1.088709215706956570e-04,-3.115739786655874477e-02,2.980786854344021769e-04,3.721658885478973389e-01
3.398293904023056422e-01,-2.819563549588602336e-02,-1.728077422676696506e-02,-1.996612616750302778e-03,-7.620726349290736501e-03,-1.071519306697958640e-03,3.629521131515502930e-01
3.471668329673400222e-01,-2.750799954890170707e-02,-3.138116276203176125e-02,-9.231378083081897851e-04,1.205917428012741007e-04,7.632401139183305969e-04,3.766321241855621338e-01
4.934877667025120984e-01,-5.653604105900242316e-02,-1.464326648192554314e-02,-4.111829057500366452e-02,-7.137263854105697913e-02,4.819133642376970811e-02,5.554823875427246094e-01
3.677303822011945833e-01,-2.096806163565159697e-02,-3.189236155739272327e-02,7.545476493392100359e-03,9.995940654044020365e-03,6.426401808622572535e-03,3.950272500514984131e-01
3.977385548598097453e-01,1.504427456498319549e-02,-4.948541987310542400e-02,2.254914946532269107e-02,7.165450561944076632e-03,2.245129745023607612e-02,4.224993884563446045e-01
5.556926495078559070e-01,-6.102718748361357637e-02,1.127637445607615474e-02,1.463654272686697524e-02,2.451030091731633970e-02,1.510685876938005004e-02,5.866086483001708984e-01
3.661685224583310361e-01,-3.408575013499992590e-02,-1.046312762290324549e-02,4.676133683903316643e-03,-3.374068470967042524e-04,3.782113538654588523e-03,3.891212046146392822e-01
3.527023135672961440e-01,-2.349350899700305972e-02,-2.929733755130559114e-02,-4.375310008013643531e-02,-1.444600394545399874e-02,6.790046228609169024e-04,3.874413669109344482e-01
4.338680257218825442e-01,-8.029001629635529325e-02,2.438092460518848092e-02,8.530127264718311703e-03,-3.367217527629591534e-02,-4.469709300189318594e-04,4.744653999805450439e-01
5.089951417884738261e-01,-1.358557283363462376e-02,-2.797127450927686110e-02,-4.361078465242804181e-02,-3.149099999688483725e-02,2.893668314810420722e-02,5.403776168823242188e-01
5.578358761650507036e-01,-7.297285926082297536e-02,5.752963737892163865e-03,1.635541564902330200e-02,2.396705682906003984e-02,2.460128006374677490e-02,5.989974141120910645e-01
3.209544114286762562e-01,-4.216651852284467039e-03,-1.132491318374581613e-02,-4.877620387206423047e-02,-5.389299976688992355e-02,3.206226190372324369e-02,3.564166724681854248e-01
4.296282994577431680e-01,-4.608522549821464365e-02,-1.499004823649269236e-02,-5.761103845540432866e-02,-7.587975432061801195e-02,5.048509315405255715e-02,4.973473846912384033e-01
3.987505333452703860e-01,2.064155021763376674e-02,-7.691316842281006871e-02,4.484485589468685529e-02,8.373781028407745186e-03,2.306875733687574134e-02,4.440829753875732422e-01
3.961548029662995130e-01,-1.202793562777881853e-02,-2.577323376176743341e-02,-2.189391298333669827e-02,-1.140726755781982897e-02,3.178840508076734989e-02,4.210375249385833740e-01
3.565005905439165290e-01,-2.642203612744478680e-02,-1.414188324508164341e-02,2.524407987585990196e-03,-1.823860334970046557e-03,1.746262734596859632e-03,3.769833445549011230e-01
3.926805654214198249e-01,7.278640157276999867e-03,-3.846010365148000432e-02,2.044910388538411991e-03,3.482307087762489574e-03,1.262708100456830414e-02,4.108305275440216064e-01
3.686135696168319487e-01,-2.905360531616746345e-03,-2.166077975885738471e-02,-1.071562042119601505e-03,-1.389704827221065891e-02,1.848787760766918559e-02,3.833461999893188477e-01
4.769462014759488500e-01,-7.763114607185545024e-02,7.226087658785435019e-03,-8.777690365197196587e-03,-7.473380854486598446e-02,2.393209877143744405e-02,5.351651310920715332e-01
3.971034425307322646e-01,1.100754863257638605e-02,-4.083747611823221324e-02,2.308378422860668175e-02,1.576926825978239299e-02,2.924713570075934688e-02,4.203401803970336914e-01
3.334493369555376896e-01,-3.835120785114840003e-02,-2.271289270470533417e-02,1.231093351559445995e-03,-2.452587832835266784e-04,-3.261772703399886102e-03,3.642835617065429688e-01
2.546240201845085815e-01,-2.041534120390317564e-02,-7.488714654899211731e-03,5.795886434423935807e-02,-6.229480948398735674e-02,-9.276300875928494144e-03,3.069791197776794434e-01
1.769535106051712825e-01,-1.185003517326842226e-02,1.164097867062816039e-02,-3.216029422773519775e-02,-9.689347747287176127e-02,4.530177401742899179e-04,2.510615885257720947e-01
2.658557401833869793e-01,-1.252236270496900894e-02,-3.517672432711130281e-03,-2.754268336640317005e-02,-6.240589994202890012e-02,3.191498818731755560e-02,3.034529983997344971e-01
3.637246831361121702e-01,-8.461327530223855531e-03,-3.237013618395120917e-02,-8.559406952421794515e-03,-1.028208157624911634e-02,1.124836249293488868e-02,3.858874440193176270e-01
4.943514019382566071e-01,1.364092576302214366e-02,-8.036792119082319941e-02,5.391487989155538396e-02,2.277797100503175382e-02,1.860368868860492325e-02,5.444506406784057617e-01
3.376093803220216460e-01,-6.039755234829677355e-02,1.697238489742641798e-02,3.023655808665529771e-02,1.360963288337293520e-01,4.758860677342473255e-02,4.457636773586273193e-01
3.514306373448352061e-01,-3.452959063568683540e-02,-2.609456303334697913e-02,-4.434017506951591983e-03,1.120768639673028373e-03,9.816627121383360473e-04,3.818985521793365479e-01
3.710123007076717716e-01,-2.703878660270780943e-02,-4.072372716922334490e-02,-3.402643651068233688e-02,-7.616455523216400167e-03,7.546793607017541691e-03,4.097530245780944824e-01
5.024137061867941512e-01,-1.223611757425385749e-02,-5.228577615539323209e-02,4.381912963931072075e-02,2.334379440925000646e-02,4.375368085401357132e-02,5.479217767715454102e-01
3.553240161908018391e-01,-2.864404422655447702e-02,-3.779891446125152599e-02,1.983528118758316535e-05,-7.797493481225324305e-03,-5.085975835608054279e-04,3.888619840145111084e-01
3.270291773167200988e-01,-3.037117108658285436e-02,-2.468102245742015421e-02,-1.592869547064119928e-02,-2.475808879169053012e-02,-1.185990209589961319e-03,3.582429289817810059e-01
3.390856897337582443e-01,-4.264134245210471352e-02,-1.941142899528874866e-02,3.535509377488685757e-04,-3.189555006238210962e-04,-1.887895708087187574e-04,3.706595003604888916e-01
3.491331404482799772e-01,-3.916750648481517882e-02,-2.240959475211559693e-02,1.249284127385855842e-02,3.483418236632232425e-04,2.109612240993310236e-03,3.808320462703704834e-01
3.608016277134803995e-01,-3.937734695907357807e-02,8.016491866020644674e-03,1.489554994877175138e-03,-2.046923887765196397e-03,3.831275864530031203e-03,3.787962794303894043e-01
4.385034084465638804e-01,-3.800688679225194821e-02,3.796972674866949671e-03,2.034440962204074957e-02,1.723554976808430988e-03,3.059648480361736381e-02,4.614636301994323730e-01
3.966161662697393897e-01,-4.902430221315998149e-02,3.223044460040118409e-02,1.372079622704262944e-03,8.292318917503573028e-03,2.762584174168314539e-03,4.113662540912628174e-01
3.416958713928258118e-01,-4.185773685260174570e-02,-1.983802869592901641e-02,-1.518291385737215995e-03,-8.683058860014831060e-05,-3.613855088576438303e-04,3.730413317680358887e-01
3.574740221719449607e-01,-2.174097640813749122e-02,-3.064369652695492219e-03,1.067633080325378796e-04,3.453152346018830907e-03,4.262809376191289273e-03,3.703521192073822021e-01
3.406863107732217011e-01,-2.516018343502210430e-02,-3.171903654026991815e-02,-1.072871886797900805e-02,3.445818927528929328e-03,1.537663130547051995e-03,3.696947991847991943e-01
4.782538635466438426e-01,-1.228323633163250217e-02,-4.268075095005724462e-02,9.231345325831130655e-02,-6.696946384552328324e-02,-5.363015936794753025e-02,5.514620542526245117e-01
5.595585845044988016e-01,-1.919830216126872102e-02,-5.465544355369111873e-02,3.200131391958188631e-02,-1.037966583623390997e-02,-4.120766424431605846e-02,6.043405532836914062e-01
3.575958113700313801e-01,-7.167216101313322874e-03,-2.679580034281159318e-02,3.424212294598498636e-03,-2.819280093060648126e-03,-2.068049099761208598e-03,3.750586509704589844e-01
3.437304352461328372e-01,-3.395822870904088853e-02,-2.638570542551291198e-02,2.711025959076195785e-03,-3.955516589713365012e-03,1.946686027825031548e-03,3.740673363208770752e-01
3.478934807106218163e-01,-2.368191178928097385e-02,-3.695222238127657266e-02,2.334661747933812568e-04,-1.917935244617187569e-03,6.729559719761506447e-04,3.784016966819763184e-01
3.749548694351651501e-01,-3.177782415148111550e-02,-2.753734602771754081e-02,6.422704597119307558e-03,-1.322040908093435711e-02,-1.169709827263974667e-03,4.054342508316040039e-01
3.538282134955414437e-01,-2.257157282735811066e-02,-2.244686885386384945e-02,5.803873507318179628e-04,-1.835067505745974301e-03,-3.942828564792510504e-04,3.763528466224670410e-01
3.611233570058564601e-01,1.490036322365465016e-02,-6.873603296777888727e-02,5.034011012970415755e-02,-2.949472581689360773e-02,-2.749213775858471570e-02,4.102461338043212891e-01
3.630107129146948886e-01,-3.888338248473199865e-02,8.026349303696111992e-03,3.599443087202880247e-03,-5.324261748454320493e-03,-1.876518389863353169e-03,3.807901144027709961e-01
2.694247109211009850e-01,-2.796399521116171849e-02,-1.778482017716730146e-02,4.669322654262016148e-02,1.342017639672800702e-02,-1.086470313179765728e-03,3.043043017387390137e-01
4.639152927100047008e-01,-2.826765162032557344e-02,6.729994473817307865e-03,5.331296512697222822e-02,9.587742086285627741e-02,3.514043809887203162e-02,5.158027410507202148e-01
3.492781005527215155e-01,-3.008902530711191070e-02,-2.705319223796284756e-02,-1.177009365529706241e-03,2.250924938258149193e-03,-3.074300347330218269e-04,3.778843283653259277e-01
3.441045206928437517e-01,-3.918565067687235226e-02,-2.313351154319281955e-02,-1.177467700614434924e-03,-3.868277922586851577e-04,-6.734998484670710536e-04,3.755294382572174072e-01
3.333622830473301768e-01,-4.205423995064652698e-02,-1.920154244422817014e-02,-6.544699767230130298e-03,2.038207743604356201e-05,5.549341978724267599e-04,3.647052943706512451e-01
3.542513187915235506e-01,-2.123851041818669572e-04,-8.488939018701874284e-03,-6.253587954106779034e-02,-6.616705307825018756e-02,3.631517503546113218e-02,3.968243598937988281e-01
3.434935993630806594e-01,-4.186512424950866729e-02,-2.128075128201961652e-02,-1.730928565163978184e-03,-2.988322336732484089e-04,-5.276386809277775749e-04,3.755033910274505615e-01
3.524076189607935894e-01,-1.764965277923793985e-02,-2.688407288660427108e-02,-2.198154508414981896e-03,-2.265470112167220287e-03,1.254048031211172547e-03,3.748059868812561035e-01
3.031021040397977595e-01,-4.020580012061591990e-02,8.301964366757869085e-03,2.485981805300201825e-02,4.920965313217249421e-02,9.867157041090172595e-03,3.361117541790008545e-01
5.426036790925479192e-01,-1.089006909690637404e-02,-5.810927403970900240e-02,-5.513773610030207883e-02,-2.345567643128684820e-02,3.557505565145032550e-02,5.910061597824096680e-01
3.451622875758847964e-01,-3.033667375638934849e-02,-2.563512923086366802e-02,-4.115845957090020872e-04,-1.933108855423085670e-04,2.357292053718897475e-04,3.731714487075805664e-01
3.483646693142689044e-01,-3.884448034718693266e-02,-2.275162991932910828e-02,-2.998028243176536004e-03,-4.980142138492491195e-05,-7.621962478404774484e-04,3.794566094875335693e-01
2.302026631898079490e-01,-1.479921634149158893e-03,-1.494107185106480218e-03,-9.699257286686456883e-03,-1.761534000402726827e-04,-2.697564250892221446e-03,2.323451191186904907e-01
3.827845268451726124e-01,-5.875097009953542115e-02,3.172698286998622275e-02,-1.444864202327782177e-02,1.043915341117896411e-01,6.256515678149941403e-03,4.434265792369842529e-01
3.562744358669484024e-01,4.829542203887149387e-03,-2.824158427315512365e-02,1.095524725869347982e-03,-4.498927483982753401e-04,7.550068576773065129e-03,3.693306148052215576e-01
3.543205768055748273e-01,-2.729562385358644261e-02,-2.311135314358217507e-02,-1.698481813625884063e-03,-9.468452720728540249e-04,3.526577023823034506e-04,3.795568048954010010e-01
3.505179922878248755e-01,-1.915776655161180453e-02,-1.110665442830943705e-02,-1.246095933339107405e-03,-6.070140433529538893e-05,1.768216480301405824e-03,3.657358884811401367e-01
5.376141548388295721e-01,9.800691804668054674e-03,-8.136500208587255090e-02,-5.596204021103262649e-02,7.233209896806091187e-04,1.193086643098341393e-02,5.872312784194946289e-01
4.219786907139209675e-01,-4.143272788353732916e-02,-1.147117234302086342e-02,-1.635309389743269323e-02,-8.961957617444037127e-02,4.822274770264108057e-02,4.833599925041198730e-01
1.605853375228951663e-01,2.854695897700265661e-03,5.478971109883518098e-03,-1.782803349347929223e-02,6.551781737099344246e-04,-4.347979269548588499e-04,1.594593524932861328e-01
2.499984466177139486e-01,-1.845842185885586406e-02,-6.203658356596628010e-03,-4.121619226594199631e-02,3.288024357868163383e-02,-1.159879532752072654e-04,2.779731750488281250e-01
2.212183302451588007e-01,8.303498385707624996e-04,-1.677386447918052803e-03,-1.391361727976185439e-03,1.442342935653077515e-02,8.369150328005402033e-04,2.230736166238784790e-01
1.538659612879357819e-01,5.767958773098019742e-03,9.624694384546224335e-03,9.534233889419388430e-03,2.527000226146466303e-03,6.056171734022840940e-04,1.472062468528747559e-01
3.551139538673604434e-01,-3.303660993128348933e-02,-1.602224283851524933e-02,-2.809462968083498331e-04,1.514173506020311758e-03,4.996914813098203654e-04,3.799395561218261719e-01
3.041446879566543915e-01,-4.371471810988508677e-02,-1.067206021424625673e-02,7.062662392904342501e-02,7.214685605443926786e-02,4.826241454010506138e-02,3.849304318428039551e-01
2.952483898770086879e-01,-2.597718841617119301e-02,-1.805218187594236079e-02,1.492103224358226274e-02,5.630000056849497137e-04,-6.809641393116569637e-03,3.186078071594238281e-01
2.182485941499391624e-01,-9.979448852590527830e-03,1.290578974984482596e-03,-2.223200232148657071e-02,8.804126922908061832e-04,4.795920875776442209e-03,2.262676060199737549e-01
1.802498618392402718e-01,-3.432168086597742196e-03,1.573926923255003496e-03,-1.959720519908355815e-02,1.133524981191227909e-02,9.207735787038497620e-04,1.854313313961029053e-01
2.140035355850397336e-01,-4.493691777854302849e-04,2.889299604418360534e-03,7.231029707980207374e-03,-8.563401154873735363e-03,3.916058140740556401e-03,2.137944698333740234e-01
3.530350931902482281e-01,-3.102487104979076427e-02,-3.230443095756835303e-02,2.421108973974430562e-04,1.154565669352945279e-04,6.757898526316593853e-04,3.847033977508544922e-01
3.528296959412656753e-01,-2.810240638649741385e-02,-2.821219009744599382e-02,-1.046373662444932207e-03,-9.191222476281608964e-04,8.313243199974705089e-04,3.809973597526550293e-01
2.089132283361901099e-01,-1.107410829136332153e-03,-1.570884627182407567e-02,-3.663450631412389774e-02,6.867552173616656153e-02,5.565354522708143049e-03,2.562355101108551025e-01
3.769469529519213213e-01,-3.862163834296022946e-02,-1.897936789651996636e-02,-2.442753165698697063e-02,1.797748996788166992e-02,-7.686063420182035789e-03,4.097038805484771729e-01
2.714560088484997413e-01,-8.275633791172964937e-02,3.085329824718654329e-02,9.562967599318713055e-03,1.439279822143492704e-01,1.160681003520186785e-02,4.011930823326110840e-01
2.070667238185432968e-01,-2.581504663407621636e-02,-1.226461321917832192e-02,-4.790774928380157893e-02,7.844941265847883705e-02,-2.830221139043226017e-02,2.810930907726287842e-01
1.808513339842968415e-01,-2.052329138308855994e-03,-1.824327567821110163e-03,-5.093553273922454133e-02,3.540352299413253301e-02,4.248619760152557573e-03,2.121550440788269043e-01
1.856839666875759742e-01,3.079534947554446456e-03,5.023604944517090498e-04,-1.089057721735555220e-02,1.087806142991693155e-02,-4.251422983295244850e-04,1.858305037021636963e-01
3.358956352086324704e-01,-2.146891153236757388e-02,-3.944588790706352044e-02,1.326157338907341327e-03,4.624449325759944288e-03,-3.020312835744015049e-03,3.668156564235687256e-01
3.399389972136694915e-01,1.434443638152368972e-02,-4.299962287056355303e-02,4.411134252532947914e-02,9.994939113362962674e-03,-2.847513417426746248e-03,3.662410676479339600e-01
4.715378992278982939e-01,-8.457374269825246316e-02,2.996630996443841455e-02,5.842599186509010896e-03,1.162876686876334054e-01,-2.003561850446450993e-02,5.482314229011535645e-01
5.039668647845791938e-01,-8.588161148422612801e-02,1.181042417345282147e-02,-1.287874916004001433e-02,4.937050041065999678e-02,1.092578633632536322e-02,5.549860596656799316e-01
3.535116543699667879e-01,-3.272468018255794697e-02,-2.712259978532380322e-02,8.848229567049094735e-04,3.765804379477134703e-04,7.593615361155390707e-04,3.834718465805053711e-01
3.511148301236100555e-01,-8.550821250280832286e-02,1.492069768813313047e-02,-2.702985745928021370e-04,1.161941660406220489e-01,-1.308316440240445307e-02,4.448517262935638428e-01
4.259525056077377303e-01,2.159972883237826213e-03,-3.925206614417206530e-02,1.903966365220275889e-02,7.176300386318685415e-03,3.259177217229693169e-02,4.508812129497528076e-01
4.839185248997655009e-01,-3.389202149187464652e-02,-2.036174624166373071e-02,6.848753264018028752e-02,7.437271703767309172e-02,4.826743585916091345e-02,5.467718839645385742e-01
2.383751834820359294e-01,1.137116946495890513e-02,-5.565620740996987670e-02,7.303791032556238016e-02,4.560276392599661721e-02,2.479116677892143072e-02,3.087478280067443848e-01
3.577958714391300532e-01,-2.620069332643651383e-02,-5.655453730583237526e-03,4.785240203080092089e-04,9.433377097993573494e-04,2.044409510513959735e-03,3.741684854030609131e-01
3.410677682530638966e-01,1.708827012086942820e-02,-4.096862701766151860e-02,5.894101993513981008e-02,1.005341491454020799e-03,2.131346104606435601e-02,3.727338314056396484e-01
3.224411937167812048e-01,-1.074665798895392543e-02,-4.003270738416975227e-02,2.290518291410894094e-02,2.243398463399368797e-02,3.231870972009448593e-03,3.531921505928039551e-01
3.727004196757082721e-01,-3.522958856490704393e-02,-2.039458991904335994e-02,4.425471196828178327e-02,-2.392750931977306872e-02,2.535405332229107630e-03,4.101068377494812012e-01
3.722432595842586900e-01,-4.356356709566566732e-02,1.432952324157758806e-02,-2.094296348105806164e-03,-6.513328899450181522e-03,6.405935124663659358e-03,3.904332518577575684e-01
3.326383352657598103e-01,-4.108667375831867585e-02,-1.788206472119538426e-02,1.692895700398056383e-02,1.197052625367043107e-05,-8.719379790160297411e-04,3.638663887977600098e-01
1.518141103907552636e-01,-1.907703922816599007e-02,-6.114795182833240861e-04,-9.121318785622884243e-03,-7.781122772285488376e-02,-3.060960041090433513e-04,2.116667181253433228e-01
3.334454514711912010e-01,-3.552365215205810500e-02,-2.294716847479605359e-02,8.871547472015711699e-03,2.111316896990857693e-03,-2.623044827431160637e-03,3.632164001464843750e-01
3.416066636755634711e-01,-4.201800683972420347e-02,-1.967447572284733437e-02,1.730810469798742170e-03,-1.428406781313148631e-04,2.210271439869723525e-04,3.729675412178039551e-01
3.385853208782451662e-01,-4.245448989633468506e-02,-1.982679917634500022e-02,-2.686533073308922798e-04,-1.958438579752303735e-04,1.322269085474305342e-05,3.702453672885894775e-01
3.382504834715265307e-01,-4.104068069403021823e-02,-1.869373365767659778e-02,-9.648221754704635169e-05,-3.373376777534587150e-04,-1.355570477910196395e-03,3.686340451240539551e-01
5.735922191370560475e-01,-6.182142574569587934e-02,-1.924407888555407231e-02,-9.298504391170247206e-04,2.348003188766514121e-03,3.970131683523221711e-02,6.190773844718933105e-01
3.096814924991367346e-01,-3.407934304295168193e-02,-1.818453301544947776e-02,-9.094420120943726149e-03,6.852577368321734544e-03,6.361711511367604439e-03,3.368539214134216309e-01
3.552693828391612629e-01,-2.600946037040394176e-02,-2.740931348772646103e-02,-3.202260398984756867e-03,8.054832535993776757e-04,-3.386275765539979395e-04,3.820239603519439697e-01
2.928725441722567213e-01,-2.587084045397650134e-02,-2.734435786346352260e-02,-5.669242161385849854e-02,-3.352030606265196666e-02,-1.050448533244490064e-03,3.392424285411834717e-01
3.535143756879536858e-01,-2.386716302137961709e-02,-2.184713454069833749e-02,2.903946210144176497e-04,1.095586664148509581e-03,-5.439663357908870690e-04,3.763819038867950439e-01
3.540641637584727164e-01,-2.009229021499675527e-02,-2.211326695413329269e-02,-1.916484375116558891e-03,1.342533337836640528e-03,-7.492372270532161090e-04,3.751951456069946289e-01
3.524437418103497643e-01,-1.862081998703341013e-02,-2.071475348252771465e-02,9.764920626014353486e-04,6.509252680139641098e-04,-4.204948814636587265e-04,3.721221983432769775e-01
3.514732641187549578e-01,-1.944977895712005078e-02,-1.585014920901051116e-02,-2.348706596712000767e-04,9.493604931028632333e-04,-1.266470262846100363e-03,3.691467940807342529e-01
3.731303665452365137e-01,-2.095040819107579777e-02,-4.126552414416562176e-03,-3.889040267362451481e-03,1.524451972928872467e-03,1.289829368818645218e-02,3.866577148437500000e-01
3.351203220100950619e-01,-2.145634412456068341e-02,-3.943000700312926377e-02,1.094685473303761824e-03,4.537262898348599742e-03,-2.199801359841325500e-03,3.660038709640502930e-01
3.427032592297071800e-01,-3.139012853232636679e-02,-2.844819520472718910e-02,-6.554079646699374762e-02,-5.429873753621310140e-02,4.156596354470758203e-02,4.071473777294158936e-01
3.121690579661494658e-01,-3.343901070221533267e-02,-2.156139512903448852e-02,2.745022695285591861e-03,-2.516489296998059705e-02,4.833718009006348487e-03,3.427441120147705078e-01
3.078668773423761662e-01,-7.894360601281344425e-02,1.038101253360926290e-02,-1.801206608588836605e-02,-1.001606456309098170e-01,1.377242471206842518e-02,3.933044075965881348e-01
1.940718493154557633e-01,-2.351027174954427312e-02,-5.885546924901134680e-02,-5.510778960109409541e-02,-4.839802136712040986e-02,2.750104557851231965e-02,2.732917368412017822e-01
2.416496240422696673e-01,-2.825194791032627217e-02,-9.301788229493013205e-03,3.602870584102063622e-02,-1.812345914793907914e-02,2.896549094985447024e-03,2.701777815818786621e-01
3.460594338532078651e-01,-2.969326624672682935e-02,-3.015537470605303416e-02,-2.725323912107361409e-03,2.068813483124941495e-04,-2.146453075701114203e-03,3.760321438312530518e-01
3.549578894353477843e-01,-2.728923252474643735e-02,-3.630925051799410719e-02,-1.304372471577725477e-03,-7.296023720797316370e-03,-2.918903432209618825e-03,3.870819807052612305e-01
3.258778642964911820e-01,-3.837331455105624789e-02,-3.126498614506273421e-02,4.881255309131931480e-02,-6.547792860777276909e-03,4.918666984660784690e-03,3.707956671714782715e-01
3.989409223176302866e-01,-4.902309852711453364e-02,2.698860925359480856e-04,2.208516661275188031e-03,-1.749470920866700099e-02,1.936765563754311303e-02,4.278764128684997559e-01
3.124419057109091291e-01,-2.242314428277991656e-02,-2.067325631662780827e-02,-1.505894590626739860e-02,-1.857598690259588611e-02,-2.943465074973698834e-03,3.365905582904815674e-01
2.280273979378595883e-01,8.516405116154347754e-03,-7.150526894554870561e-02,6.104744406108011945e-02,-2.207150270162622566e-02,-5.033855500001516159e-03,2.913280427455902100e-01
3.531743962685335858e-01,-1.571512377591655074e-02,-3.498841542797417881e-02,1.354936364810997024e-02,-1.595411368680498682e-02,-9.541357071396649320e-03,3.809831142425537109e-01
1.983904789317951223e-01,-7.041301720345088944e-03,1.401517149439104881e-03,-3.342891780745166352e-02,4.208719902879094754e-02,-1.644055945149739892e-03,2.218415141105651855e-01
2.930194653203256339e-01,6.591216357342125076e-03,-2.327929652346735767e-02,9.585197354439771444e-02,-6.561714127635349947e-02,-2.716084552307956174e-02,3.663084805011749268e-01
2.251326602604659666e-01,-9.888942028488043046e-03,-2.997095662013449235e-04,-2.252179778561577694e-02,9.223243048389331497e-04,3.579846799657097293e-03,2.337437123060226440e-01
3.479927491732531797e-01,-2.316953939541224750e-02,-3.819277463027601072e-02,1.336969478656145236e-03,-3.020587846091180115e-03,1.062326856548006506e-03,3.789450228214263916e-01
2.501012429550301674e-01,8.357228680834660750e-03,-1.865370878586619652e-02,8.421496912397979928e-02,-1.556086287747708227e-02,-1.936269076954162671e-02,2.980388104915618896e-01
3.502130769817082823e-01,-2.574863339239186200e-02,-3.611160418221379120e-02,-3.930312272245609778e-03,-6.005279082523603054e-03,-3.353493170909164784e-03,3.814956843852996826e-01
2.703761892186966609e-01,-2.785866205175124843e-03,-2.989873313095663121e-02,3.809007868379953553e-03,-2.586828551123939585e-02,3.759508891611678750e-05,2.912213206291198730e-01
2.852252523883139212e-01,-2.646808222553515000e-02,-5.502479977138929890e-03,1.971020400705727343e-02,5.940467602243005955e-04,-7.870658338451764872e-04,3.036870956420898438e-01
2.733327448828879458e-01,-1.386168988578234673e-02,-2.093494560602263133e-02,-1.165967366112784362e-04,2.789280038744858334e-03,-8.234976511824518286e-03,2.911853492259979248e-01
3.543740758334239516e-01,-2.478501568502144980e-02,-2.766826161459312594e-02,5.194809117552728504e-04,-9.486876921503233084e-04,-1.245797686421163059e-03,3.806196451187133789e-01
3.194719258887194768e-01,-2.584548070423309252e-02,-2.655631329237995164e-02,7.014475760799367132e-03,-9.299883006968500537e-03,6.356015361555961835e-03,3.464366495609283447e-01
3.701390528847450789e-01,2.379248149201125540e-02,-4.570944634125637118e-02,-3.171359600624650173e-03,2.523734009715231791e-03,-9.130795653605845372e-03,3.862092792987823486e-01
3.711461518969895734e-01,-2.978062717315210772e-03,-3.629960614284225007e-02,-2.412245436427192316e-02,2.095540579939864263e-03,-1.506084796677780759e-02,3.949493467807769775e-01
3.267565939322813473e-01,-2.396833460227970614e-02,-2.577405253611356195e-02,-8.534308893406882326e-03,4.768054320875576846e-03,9.239590851343534514e-03,3.524022698402404785e-01
2.297643602282811448e-01,-1.588386989317280840e-02,7.855009324612152732e-03,-5.395532772879452210e-02,-6.689135567732805432e-02,2.051293009157746650e-02,2.801685333251953125e-01
1.051868576598589677e-01,-3.339958129517247437e-02,-6.311243453470694043e-02,-1.779378235420066637e-02,-5.529342986943847418e-03,3.589009598119996015e-03,1.590190976858139038e-01
3.685572149211988613e-01,4.062534799643108263e-03,-4.203979954034012256e-02,-1.202777108595852809e-02,-4.293516512746699525e-04,-3.771381172606790271e-03,3.902090191841125488e-01
3.464492813926277059e-01,-6.366228786776922943e-03,-1.973648826157484160e-02,-1.486401698825235568e-02,1.125150269325202873e-02,-1.700382142701214322e-02,3.623324036598205566e-01
2.696509733033727318e-01,-8.612048724947168887e-03,-2.354588677252117401e-02,1.295558010703595385e-03,1.390105036191146073e-02,-3.003769220469243873e-03,2.870900332927703857e-01
2.773463310255147030e-01,-1.538055289887978183e-02,-2.760663114048628186e-02,-1.477764643686734283e-02,-2.321744213426208195e-02,-6.199623782085570377e-03,3.029933869838714600e-01
3.691520997545114091e-01,6.733607587067369504e-03,-4.279349843191132541e-02,9.726833057750077557e-04,2.810152864571222129e-03,-5.354284740811658498e-03,3.896949589252471924e-01
1.073133821840236007e-01,1.411891879559279070e-02,1.026379080615869022e-03,-3.630912546676520747e-02,-1.289593524282355713e-02,3.136329545763706997e-03,1.206658929586410522e-01
3.622164747699632703e-01,8.527442213104613478e-03,-4.184545134467709815e-02,4.818879066750346440e-03,1.659422519301447137e-03,-2.793782245124020770e-03,3.815115094184875488e-01
3.413601495677560105e-01,-3.857739270117427344e-02,-2.228748339210834262e-02,-6.264457621162586613e-04,-5.763575089887112025e-04,9.519304364529754606e-04,3.720667064189910889e-01
3.508059053394947391e-01,-3.225353325222496403e-02,-3.097061026717934373e-02,-3.178350198699720773e-04,-3.549565890173477217e-04,2.527396040825292695e-03,3.824455440044403076e-01
3.480630101384513120e-01,-3.782758886183440472e-02,-2.273178474555834216e-02,3.684379490188484201e-03,3.659934729214170380e-04,-1.281233461943059003e-03,3.786293268203735352e-01
1.995018365274814631e-01,-6.229771327382738200e-02,-3.386480346849574108e-03,-4.618818770484302977e-02,7.904397672853528956e-02,-1.622354335996786107e-02,2.872631251811981201e-01
3.078999681520525056e-01,-1.582607240398285764e-02,-3.497763670601927721e-02,4.546499581068302702e-03,-1.471974995463672109e-02,-1.949311572862371430e-04,3.347795307636260986e-01
9.450711044872475708e-02,1.512669690884225690e-02,2.865457411171001834e-03,-2.957239170356965041e-02,8.643477112832313042e-03,3.550203646733346603e-03,1.015401929616928101e-01
3.352602420383625215e-01,-2.546879975129034968e-02,-3.457710847450262692e-02,1.461506787116780177e-03,-4.728614352078382849e-04,4.906581084841190633e-03,3.654768764972686768e-01
3.366507875830260788e-01,-7.634201349957114857e-02,2.428755105875422815e-02,1.684630171192400688e-02,1.084332067456351412e-01,3.361140499029455914e-02,4.226629137992858887e-01
2.820850528134318247e-01,-3.922432588462371195e-02,2.528052204047599727e-02,-2.258166828108162591e-02,7.522565962474501988e-02,-1.716554828550147932e-02,3.256762921810150146e-01
3.313916066320430343e-01,-2.184897205649807828e-02,-3.228259900280663897e-02,7.235036004558525677e-03,7.053600745286020546e-03,-8.867891393967186273e-03,3.593265414237976074e-01
3.541648827631679874e-01,-2.865834924085217117e-02,-3.013040323872009929e-02,-2.239457995343655840e-03,1.464895734598142861e-03,1.937751306833804385e-03,3.836040496826171875e-01
3.410216288341884616e-01,-2.669958693585455789e-02,-3.176223769988265055e-02,-9.497798907838861382e-03,1.069880675953393395e-02,5.272700129219237697e-03,3.712190687656402588e-01
3.625737529981366558e-01,-4.887384220207413588e-02,1.672375462959813097e-03,-2.332049027396877403e-03,-1.389662505063920736e-02,1.202445823145043696e-02,3.899696767330169678e-01
3.736289776055178868e-01,-4.176779818715534165e-02,-2.221232270762654726e-02,-7.077447266920988689e-02,6.278224463388076826e-02,-4.335820294749064691e-02,4.441906511783599854e-01
4.031079792497051506e-01,-6.267790237902298722e-02,3.190576817068171978e-02,5.724016798501279594e-04,8.464738681313917906e-03,-9.499220614923163826e-05,4.266881644725799561e-01
3.489493009515856614e-01,-3.272322814053391093e-02,-3.119461562687483869e-02,-8.793969804612403619e-04,8.727615912609107841e-04,3.492840114273015623e-03,3.809646070003509521e-01
3.397441496249525850e-01,7.280580667149399998e-03,-3.838836028462677685e-02,4.094589187953858594e-02,-2.118277711224300294e-02,-2.826538566838104893e-02,3.695586025714874268e-01
2.137745779197478546e-01,-1.295266127634468745e-02,3.857619885494573131e-03,-1.711168776975057967e-02,5.906631432072174948e-02,-1.275903402594841252e-02,2.443558424711227417e-01
4.963996506935985931e-01,-5.919629372862691974e-02,1.538258192739125341e-02,4.412284244686866252e-02,-3.971508508550062461e-02,1.658810153817728145e-02,5.331144332885742188e-01
3.513935355698371010e-01,-3.543754287993641783e-02,-2.895737139484302891e-02,-2.105532214780069834e-05,1.383313413530370918e-05,2.083173913502752838e-03,3.836490213871002197e-01
2.284948048688593691e-01,-6.456419108772090687e-02,-7.479454978296190548e-03,1.784307104271106587e-02,7.119548732796283919e-02,2.850950566087726012e-02,3.016835153102874756e-01
1.891366626009134688e-01,9.332914470215197822e-04,-1.300414618334005956e-02,4.529299874592668945e-02,-1.420340221921659188e-03,-2.252873372176255272e-04,2.107092887163162231e-01
3.801554605122418051e-01,-3.784341415146852405e-02,4.934984066856745732e-03,3.960168156596184826e-03,7.498770899048792099e-03,1.202702150661237417e-02,3.991508781909942627e-01
3.556869478517727390e-01,-3.782677914474710801e-02,1.492161192099837608e-02,-1.525383949223352428e-03,-1.531484715544356723e-02,1.345365355820962163e-03,3.709370195865631104e-01
3.566743631637575018e-01,-4.716886255089458579e-02,1.439304800648315286e-02,-6.432225041432832607e-03,-4.464162707725997242e-02,1.968753238095799149e-02,3.863720893859863281e-01
3.599887992295165429e-01,-2.586446917031895443e-02,-2.756305096737893257e-02,5.506418978816996108e-03,-7.127668733952546506e-04,-5.816789903412326011e-04,3.868262469768524170e-01
9.475082260693215574e-02,-3.124187059066893535e-02,-5.617783953344220038e-02,-5.645394648376139690e-02,-2.088260084450825269e-02,1.194298983501594462e-02,1.758835166692733765e-01
3.617552673869653401e-01,-1.329693818582136644e-02,-9.572807234349500760e-03,2.991932779281131910e-03,5.247371046838347243e-03,1.948636818702639828e-02,3.748731613159179688e-01
5.101338307606002598e-01,-4.319471358561999264e-02,-6.374717111053973539e-04,2.310207224836835493e-02,1.300947519031449978e-02,3.139792945832260707e-02,5.380536913871765137e-01
3.320020860408809393e-01,-2.059495057650781447e-02,-2.721283245956870878e-02,-1.571783230008170053e-03,-1.487936819885092923e-02,-1.284613186612681892e-03,3.569011986255645752e-01
3.576903905948119466e-01,-9.201691918491072819e-03,-3.171477727814342451e-02,-5.105181151258343826e-03,-1.977182488778079714e-03,1.739895046416215256e-03,3.787816166877746582e-01
3.544311083780681826e-01,-2.591528951750590726e-02,-2.414886273777713810e-02,-1.392184553162032108e-03,2.551345914781425958e-03,4.783419145434630610e-04,3.795005679130554199e-01
3.253169986964253857e-01,-3.167424085479902951e-02,-2.532146683897298911e-02,4.219760350390986542e-03,6.078710671804347584e-03,-6.368834168625776837e-03,3.542614579200744629e-01
2.996247805123154473e-01,-1.607080015890749447e-02,-3.023784808304155747e-02,4.254792053569288190e-03,-1.578797475271615305e-02,5.586158961453500937e-03,3.243957161903381348e-01
3.427802831060413613e-01,-3.671595882381134546e-02,-2.410310705575458012e-02,1.144268890685924689e-03,1.002263203267790602e-03,-1.075760351524227302e-03,3.733635842800140381e-01
3.388943505392872368e-01,-3.860591427919560226e-02,-2.198504525509709095e-02,2.483704060167900383e-03,-1.700155388269911679e-04,-2.600659582927282356e-03,3.695229291915893555e-01
3.698715982895345311e-01,-1.134891916147032220e-02,-3.891674060270858271e-02,1.732336118118870186e-02,9.991800592096052210e-04,1.020742837182546207e-03,3.968688845634460449e-01
4.954112010022954093e-01,1.578806633141055515e-02,-7.904762380100910368e-02,6.279913910776621644e-02,1.486709096774084873e-02,1.902218837983903760e-02,5.459829568862915039e-01
3.527837679548329608e-01,-2.945182897047676773e-02,-1.556971009965266162e-02,-1.841228601690495046e-03,-2.816152336883821772e-03,8.464446354425611075e-04,3.755351305007934570e-01
3.568324180304187077e-01,-3.337532544236251897e-02,-1.781060754659899437e-02,1.454349829158351100e-03,1.201484953386632373e-02,3.241580608291264563e-03,3.832777142524719238e-01
3.919087863496742985e-01,-3.375435802946943897e-02,-1.782527434692729451e-02,6.385156344652842542e-02,8.980414184347608464e-02,5.214116106821693741e-02,4.682349264621734619e-01
3.549419746068481762e-01,-2.717155368154286488e-02,-2.812509225065634721e-02,1.625920658032650387e-03,-5.161850402732033431e-04,-3.805436987732401904e-05,3.826026022434234619e-01
5.071824608456529937e-01,-7.365711820421755318e-02,7.889372145826717420e-03,2.971216870588395259e-02,8.824159741366720267e-02,3.937638385924092932e-02,5.721177458763122559e-01
3.702559034640175439e-01,-2.109039883458771469e-02,-1.559631502084585231e-02,-1.157796620094473598e-03,-1.060070209174812650e-03,1.399294366539552588e-02,3.893928825855255127e-01
3.539272986104127217e-01,-1.867569256092987962e-02,-2.768227212287557859e-02,-8.578883305298513288e-04,-1.029714845250683967e-04,2.174498910318838399e-04,3.771900832653045654e-01
3.573771418210326400e-01,-3.035396034427118028e-02,-3.309536671499171967e-02,1.817756751792502096e-02,-1.490592243630190633e-02,-5.824967379082062737e-04,3.912348449230194092e-01
3.549937565429283626e-01,-2.682261891079568139e-02,-1.454526111707710179e-05,2.312627920012104519e-03,5.300310725917607626e-04,-3.380952702976734118e-03,3.692124485969543457e-01
5.416605486047876283e-01,2.232956086684406705e-02,-7.965403875903881437e-02,-6.461612853511698729e-02,6.108358936643467144e-03,4.058236246535709170e-03,5.880098938941955566e-01
3.520549536431865634e-01,-1.890049137952401481e-02,-2.677070362214942212e-02,9.254564497863427414e-03,-1.375973242158913534e-03,-2.250610636223856261e-03,3.753227889537811279e-01
3.520863029152437318e-01,-1.305269717211732239e-02,-1.727136309968546612e-02,1.097381085018872288e-04,2.115097645931428381e-04,-1.679008601517449628e-03,3.672782480716705322e-01
5.559197677548375349e-01,-7.783912793334718527e-02,5.843721921028860455e-03,-1.573116831777212916e-03,1.824964947119963460e-02,4.055697913704288697e-04,5.971812605857849121e-01
3.621453067365738021e-01,-3.431673579646804528e-02,7.013939610206382236e-03,1.517228194421385047e-03,-4.824190821600315461e-03,-5.140952563417022086e-03,3.777040541172027588e-01
3.574981643483230442e-01,-3.013461809364714750e-02,-1.167197994965205043e-02,4.494467470864384277e-05,-3.608487072215249905e-03,-2.769927829237439718e-03,3.788210749626159668e-01
5.376251208288889138e-01,-5.653452591229474189e-02,4.173695399336846412e-03,-2.785856408587778811e-03,1.930389844144944286e-02,-2.202841463429008537e-02,5.685400366783142090e-01
3.704258454471909268e-01,-3.987209680461462069e-02,2.646717964759154329e-03,-1.883505419509964255e-03,4.591077288772183948e-03,-7.339435642236382187e-03,3.910784423351287842e-01
4.068303337527937047e-01,-4.120573958337656051e-02,5.672446390315277753e-03,7.279031993911198178e-03,-2.455585355819494241e-03,-2.056164591753517623e-02,4.282244145870208740e-01
3.602377535054712698e-01,-7.715667770143172510e-02,2.084507914297566156e-02,-3.464351781659212592e-02,-8.687587476993156865e-02,3.057958938917540795e-02,4.325516223907470703e-01
5.215036747807616502e-01,-4.138459946843081605e-02,1.086360399059876913e-03,1.320534661927264333e-02,-3.044151627575926444e-02,-2.764535226039807961e-02,5.480297207832336426e-01
3.557706673629437710e-01,-2.663860131238818263e-02,-7.150957210778297046e-03,-3.515523064768584158e-03,1.435338282108151054e-03,-2.922933281637871833e-03,3.731397092342376709e-01
3.627654779797176987e-01,-3.175681704816429862e-02,4.400574518929584178e-03,1.057129848123087787e-03,-2.914762338422775909e-03,-4.094837187589777522e-03,3.778484463691711426e-01
3.998211513052593591e-01,-8.374157118906899733e-02,1.232978026598219312e-02,-8.908217585255708004e-03,-8.367780464181635847e-02,-1.574712083356085909e-02,4.675403833389282227e-01
3.919961042179373467e-01,-4.417183673681179812e-02,2.254062807555107240e-03,1.399389141237814861e-03,-2.847082872366098888e-02,-2.030272092788573332e-02,4.193120300769805908e-01
3.252300575202519695e-01,-2.386882853123029058e-02,-3.373013936542498814e-02,3.891544330813520060e-03,-8.206374883677576212e-03,5.955740114243076103e-03,3.546318113803863525e-01
4.164797058064576007e-01,-4.347291858307675283e-02,7.539469281701516312e-03,2.857075843784475516e-02,-4.030287569413220500e-02,-2.990864413690953044e-02,4.479964375495910645e-01
3.647310148348025249e-01,-4.072958862148276515e-02,1.019421349020956102e-02,-3.141202609804381179e-02,-9.641152211652777304e-02,2.112496186353687508e-02,4.225262403488159180e-01
3.565028869815878854e-01,-3.073466617576744997e-02,-9.778824399887836583e-03,1.156541814564304542e-03,-3.691499309852321747e-03,1.447752861774445491e-03,3.772643208503723145e-01
3.515544937074385756e-01,-2.860061522269302658e-02,-2.713980453937067661e-02,8.097016125380012428e-04,3.267247772786075507e-04,-1.074783749308374110e-04,3.794298768043518066e-01
3.414941818330969325e-01,-2.772555068608259510e-02,-2.743219811779945561e-02,-9.382920179343645292e-03,-3.378324917331363905e-03,-2.449329706562711640e-03,3.695014715194702148e-01
3.651353123429452174e-01,-3.373132840554049494e-02,-1.311635451118134399e-02,-3.636532203417148189e-03,2.194760011110826695e-03,-3.661268749078555335e-03,3.890903294086456299e-01
3.535016986818422802e-01,-1.953919753766289458e-02,-2.788086426873792600e-02,5.057414890259234698e-04,6.007094832086423133e-04,-3.320530188864982278e-04,3.772837817668914795e-01
3.641086595301276096e-01,-3.898437503622262379e-02,5.472344917067412107e-03,-1.465147589157022191e-03,2.126296118297347788e-03,-1.734261563565175527e-05,3.828318119049072266e-01
3.519256834618977869e-01,-3.754061229294783364e-02,-2.729571736522876102e-02,1.395007977913463072e-03,9.599245351373029804e-04,1.242382502893533015e-03,3.844634592533111572e-01
3.590133319028200320e-01,-3.062831850959313318e-02,-3.077313783122939683e-02,-2.707338437883193352e-03,-5.477354430787211709e-03,-4.716173703198925891e-03,3.899433016777038574e-01
3.583830018200752643e-01,-3.301173970445964168e-02,-1.576221889517612218e-02,-5.947868228922540464e-04,1.572396829453512378e-03,-5.619941744028606563e-04,3.830736875534057617e-01
3.768611432463291888e-01,-2.454583000990628872e-02,-2.136124896925450933e-02,-1.759198148719785196e-03,-6.894515146578028076e-04,1.425163012852464356e-02,4.005988240242004395e-01
4.308100129527069888e-01,-1.739414324607463369e-02,-4.012527104952928747e-02,-7.861670862500026724e-02,-5.112264460812054878e-02,4.634636661303771082e-02,4.943866431713104248e-01
3.600309186490728286e-01,-4.880825200099950245e-02,-2.276577936747373188e-02,-5.446845504655620750e-03,-3.349296125204868219e-02,1.589689767169968427e-03,4.008022248744964600e-01
3.522118039769491227e-01,-1.550293197755303609e-02,-1.453706454523592817e-02,-2.232935376345200357e-03,-2.696106528993408085e-04,1.371979294950847767e-03,3.672611117362976074e-01
2.786892163454189886e-01,-2.106842646506015826e-02,-2.216283323945714145e-02,3.425625547959642442e-02,-3.505807462416893339e-02,6.561085045334819586e-03,3.122830688953399658e-01
3.549946762496464236e-01,-2.809403637935259379e-02,-1.403852694790289068e-02,-2.468774940317544717e-03,2.310906006427718325e-03,-8.619023279409801465e-04,3.763064444065093994e-01
3.671663273705770836e-01,-4.280101345655812350e-02,1.233181100683850007e-03,2.983379815520938085e-04,-7.278834462320499243e-04,-1.642166407949835830e-03,3.898327648639678955e-01
3.630487500353458130e-01,-3.726750913207588223e-02,-1.032039798266157216e-02,3.414093037000225789e-03,-1.009468674417104278e-02,3.913164604161127602e-03,3.880444467067718506e-01
3.600405286418296158e-01,2.673284665929809290e-03,-3.402826830764632549e-02,-8.035327212072498546e-03,-4.085841168262995329e-03,2.014611806036545154e-03,3.773993253707885742e-01
3.555883252592062505e-01,-1.019377782217650852e-02,-2.805151400670247153e-02,1.892367762258284538e-03,4.909164289476864937e-03,6.431992725888636617e-03,3.753060698509216309e-01
2.454839689558634963e-01,-6.018338368611667044e-03,-2.538789702074767396e-02,1.056190118637005855e-02,-3.098577024382280498e-02,-2.504890583668033244e-03,2.678318917751312256e-01
3.952179805891941622e-01,-4.624400399205247369e-02,1.407835787494199353e-02,3.184730363089759847e-03,-6.046850017087250333e-03,-4.530587382189138826e-03,4.148483276367187500e-01
2.998188082452047931e-01,-3.609322540085316278e-02,-3.786272856503425377e-02,-5.209018028086791902e-02,-7.327017870053907644e-02,4.158318483200356547e-02,3.779783248901367188e-01
5.016593581636410448e-01,-6.997318834177479463e-02,4.947708945140072423e-03,-2.837674691491000323e-02,-7.086969898388534306e-02,2.551078211135783536e-02,5.558645129203796387e-01
1.950698249293974507e-01,6.795173559775435912e-04,-9.504335887336234912e-03,-4.603869294051896738e-02,-7.452333285453906220e-02,2.387839630467327237e-02,2.541679441928863525e-01
3.551978456789465222e-01,-4.351112942389684379e-02,1.510623771533269044e-02,5.082932567283563949e-03,-1.463641110156907801e-02,-2.275122453760308923e-03,3.738572895526885986e-01
2.877628122709712244e-01,-1.202056033783432953e-02,-2.678257287544896781e-02,-2.166902926292204896e-03,-1.746308274968154731e-02,-2.977644173091099824e-03,3.089805245399475098e-01
3.473415357861299180e-01,-2.676438532904429346e-02,-3.253594855895797222e-02,-4.865423944777588425e-03,-1.092507313538444019e-02,-6.372502516497684406e-03,3.777547478675842285e-01
3.624569528372564298e-01,-3.578736864580639443e-02,8.843795577032076416e-04,-5.187493065200066318e-04,1.086169213464415308e-03,-3.192556525767231874e-03,3.812793791294097900e-01
1.690579383526121249e-01,-2.601410287969249668e-02,-4.784765046745063921e-02,-4.933983746051615743e-02,-4.593391503151608019e-02,1.501955753299447777e-02,2.389533668756484985e-01
3.679235405082517119e-01,-3.755136460553779032e-02,-7.665731888825272344e-03,-1.493803327237639041e-03,-7.287368905721179277e-03,9.952430058068415918e-04,3.916046023368835449e-01
3.749698635013020698e-01,-1.050608703059532911e-02,-3.999894159445896435e-02,4.408456471552404249e-02,-4.339214153554585805e-03,2.803609972015342223e-03,4.083389937877655029e-01
3.406563074662234958e-01,1.061003771852772615e-02,-3.649406139000593852e-02,1.010521034490831915e-01,4.680595931859453385e-02,2.854852458109477867e-02,4.078576862812042236e-01
3.547681038164888223e-01,-3.177588874682754638e-02,-2.778653053150806351e-02,3.491925927006216818e-02,1.304232756929649606e-03,2.262689166088659772e-03,3.893181681632995605e-01
4.864061578472747005e-01,-9.020243059956206677e-02,1.316594180068217379e-02,-2.365266764001193889e-03,-6.467534303591751521e-02,-1.876690608510287383e-03,5.441832542419433594e-01
3.974664276844783184e-01,-1.180852556886657911e-02,-5.227573894313516933e-02,2.962595657540606497e-02,3.644240016279562747e-03,1.002753670543771701e-02,4.343735575675964355e-01
3.406954972158418582e-01,-7.244800686540045498e-02,1.839170373297163708e-02,2.723882854863567821e-02,7.721067513592531906e-02,4.403297270616758630e-02,4.090679585933685303e-01
3.536698167063582754e-01,-3.139579442086556926e-02,-2.780165026741709955e-02,4.325925543189217994e-03,6.414252081400391263e-03,-7.269847900021692878e-03,3.837220072746276855e-01
3.640643533559868028e-01,-1.802378277473978829e-02,-3.125220686259502778e-02,1.955248352141217803e-03,-7.755104125606121718e-04,6.628939561985719604e-03,3.890576660633087158e-01
3.612545545437291783e-01,-3.680108330245557280e-02,-7.156361327141341766e-03,4.627749932444725177e-03,1.021071479927062979e-02,-1.559410331637470096e-03,3.845922052860260010e-01
3.622320962424855351e-01,-4.111467336248622595e-02,7.948486828301376539e-03,-2.354822611601920706e-04,1.694466911049794574e-03,1.898401798841530550e-03,3.812163770198822021e-01
3.448620738009238740e-01,2.012212540812251260e-02,-7.741857936900248260e-02,6.572225443536243439e-02,-6.980697072734583231e-03,9.158340997454996260e-03,4.000020623207092285e-01
3.235811871464161493e-01,2.559301892446320947e-02,-5.324175331471550643e-02,1.223525127768944620e-01,1.318147817992049511e-02,-1.767480507282777509e-03,4.049009084701538086e-01
5.081613051732523090e-01,-8.378182420855384560e-02,1.936150831017188767e-02,3.221521524744783843e-05,6.849964174819565821e-02,6.455157576609844503e-03,5.605192780494689941e-01
2.880337873852955588e-01,-8.508050742165901292e-03,-3.691493159781028544e-02,-7.157534735047164920e-02,3.068513256806837397e-02,1.653130939370556652e-03,3.396613895893096924e-01
2.694072765771200473e-01,1.166408299043825147e-02,-2.600973662883698800e-02,8.998873056568158779e-02,2.051782348516399679e-02,2.248194297527650320e-02,3.234721124172210693e-01
1.821456941911727967e-01,-3.575512816867687516e-03,3.722965973869993284e-03,-4.592579443023095398e-02,-1.570161049740453202e-02,-3.900690889403608114e-03,2.007559537887573242e-01
1.828241718446183550e-01,-2.219802652436619894e-02,-1.185766548173557144e-02,-2.384379333734250317e-02,-1.732117323114453628e-02,7.751547067990733828e-03,2.068983614444732666e-01
3.526415160978744745e-01,-1.351815655923385706e-02,-1.821518898031160294e-02,-2.926385144212115329e-04,1.813775370742879648e-04,2.698981565372333188e-03,3.685607612133026123e-01
3.458048086682625755e-01,-3.261821462082506451e-02,-2.507624839613631362e-02,-1.180140058957730286e-03,-3.103981119290942265e-04,-2.382305793055097592e-04,3.747151494026184082e-01
3.019665428708054322e-01,2.373672460158680886e-02,-8.000101301204698423e-02,-1.065213711144206987e-01,1.707114716435526730e-02,-2.150961581059544422e-02,3.915851712226867676e-01
3.539457656152496523e-01,-2.656048285435672063e-02,-2.829034937882188294e-02,-1.245840012332997699e-03,-2.477809769368544547e-04,3.111938868811263458e-04,3.813808560371398926e-01
3.378264668863299458e-01,-2.527520886625439500e-02,-3.587506506046195254e-02,-3.466635086359787406e-03,5.667845580630451185e-03,5.362677721002535175e-03,3.688125610351562500e-01
3.478666267436689719e-01,-2.713445641258244168e-02,-3.477844902912050062e-02,-5.339743681698757649e-04,-7.344201947501464078e-04,3.838827882228980793e-04,3.788847625255584717e-01
3.285577236112024457e-01,-2.537818717369594301e-02,-3.791398608324608732e-02,-5.035170164679435983e-02,2.656020245442635222e-02,2.192009844996302068e-03,3.736325502395629883e-01
3.695310244699139268e-01,8.149922525258590511e-03,-6.891806959530397125e-02,-1.000073725566199140e-01,-3.375707327843476685e-02,3.660443583388378608e-02,4.492542743682861328e-01
3.539399083847974414e-01,-2.494033589554911501e-02,-2.521012310058956540e-02,-1.290953141282242048e-03,-4.892338852172138175e-04,-1.000147753330200145e-03,3.790267109870910645e-01
2.533045138895478887e-01,3.579101794365874278e-02,-9.094984984766271707e-02,-1.259808026239133683e-01,-2.826156928985151112e-02,1.016868010992778501e-02,3.758497834205627441e-01
3.661316460408712836e-01,4.730010259011790952e-03,-3.040834417440649307e-02,1.417002185300291275e-03,3.284384492578488850e-03,5.671765826626252310e-03,3.803679645061492920e-01
3.542815042100622702e-01,-3.085413645395468363e-02,-3.127555699701600744e-02,3.313242858185316039e-05,-6.802160023274377021e-04,1.351506251189602632e-04,3.853484094142913818e-01
3.533294397384590391e-01,-2.319303838481093227e-02,-1.836083463433210716e-02,3.162626393812777289e-04,-5.047096886185535591e-04,-2.192283923599349076e-03,3.741504848003387451e-01
3.519560914157096598e-01,-2.045267185492047335e-02,-9.403029154220671204e-03,2.368902800401423512e-03,2.968990351752642549e-03,4.061590731160266352e-03,3.671350777149200439e-01
3.580865119577145150e-01,-6.738058699453763900e-03,-3.258681983723549225e-02,-7.203165068010941585e-03,-4.584782486581832472e-04,-7.143432696509398024e-04,3.786201477050781250e-01
3.521542727670327610e-01,-3.185499577694692053e-02,-2.938949889958034078e-02,7.547825564990885217e-04,2.660356652369134304e-04,9.691036785160295165e-04,3.827886581420898438e-01
4.006638273283589791e-01,1.922901798667350781e-02,-5.080458802136306184e-02,-2.848007600506614542e-03,6.600481774605062441e-03,1.102731743444125209e-02,4.214621186256408691e-01
2.982923597004880634e-01,-6.521088895362978088e-02,2.474688402861309477e-02,2.258444073625013107e-02,-1.449402418601429543e-01,-3.058335888308815614e-02,4.181940853595733643e-01
2.459086665221958679e-01,-9.448009903925955189e-03,-2.213870841525283906e-02,-2.213292400700840948e-02,-4.134441405018578902e-02,-7.139056684461474872e-03,2.745165228843688965e-01
3.538177033216732270e-01,-2.422672886951174331e-02,-2.124919646607678625e-02,1.395368208891220856e-03,-1.586639880518238765e-03,-1.122040348522007950e-04,3.765823245048522949e-01
3.721031156705306708e-01,1.739484201475327563e-02,-4.231166437632014055e-02,-1.021156263931385574e-02,-2.657170668980813168e-04,9.844784927622442922e-03,3.887994587421417236e-01
3.493394122900538856e-01,-2.655419509554526880e-02,-3.710254192978679200e-02,-2.057592921346869039e-03,-5.892774371418645768e-03,-1.286751850980559931e-03,3.814369738101959229e-01
3.534347867455922554e-01,-1.311676991821197902e-02,-3.240252968115586718e-02,8.849164653658096041e-04,-6.011959431857944467e-04,6.857952033923951597e-04,3.765714466571807861e-01
3.927200941923622568e-01,-3.609042281136057295e-02,8.789607990460024389e-03,-1.442608348378378617e-03,-7.232244422889324773e-03,2.742805666082928293e-02,4.111784398555755615e-01
3.896358587094049808e-01,-3.457589475824737746e-02,2.662134796520582158e-03,-3.073823950244759882e-03,2.402816737711694576e-03,3.715275536825454750e-02,4.119855761528015137e-01
3.747884856204722337e-01,-1.958848050235789673e-02,-1.811518653137969559e-02,-5.826700729732309063e-03,-1.251380557463554772e-03,8.647265302446641849e-03,3.940624296665191650e-01
3.800098707477464477e-01,-4.637171693520486526e-02,7.807896289828447633e-03,-1.797836758523248691e-03,-4.527167546423111312e-04,1.153846145813646265e-02,4.025484025478363037e-01
3.278886399108932315e-01,-1.818643050817916884e-02,-3.975406208340490077e-02,-3.122354261310874559e-04,-6.731753097903815577e-05,-6.387488688483739614e-04,3.573495149612426758e-01
3.668135952543175593e-01,-2.633103251538487788e-02,-2.750706754585555136e-02,3.447085306806490709e-03,-4.120918292833651748e-03,8.502926101650669062e-04,3.938466608524322510e-01
3.622443655719043698e-01,-2.804380350120860843e-02,-2.691829038213033876e-02,-3.571928100088591317e-04,-1.306013669836026889e-02,9.107050942821800067e-05,3.903830945491790771e-01
3.680785109662761401e-01,-6.399058402606347395e-02,-1.007241805651676314e-03,-5.333502818875411611e-02,-8.508276291004966685e-02,3.925529401614241687e-02,4.453217685222625732e-01
3.448546153281466520e-01,-2.711293434904554767e-02,-3.507664548443931163e-02,4.264075961293836616e-04,-2.363363272318107569e-03,-3.151272019340382695e-03,3.760752677917480469e-01
4.050124530052114369e-01,-4.780410784144079051e-02,-2.877705944866582044e-03,-1.684054781875567869e-02,2.409945386961202460e-02,-2.133906638484451765e-02,4.366658031940460205e-01
4.692252117228877806e-01,-7.014495528235009658e-02,9.483551039958904028e-03,5.516829832255736032e-02,9.556752008487925942e-02,3.343395118985142273e-02,5.423976182937622070e-01
5.644330257904721648e-01,-7.788356768683024622e-02,8.831668392319497185e-03,2.173803500972940062e-02,4.494989355850026458e-02,2.099079878766489313e-02,6.108947992324829102e-01
4.734158904905272358e-01,-7.031950285209850882e-02,4.360127956553438988e-03,-3.822460539988975503e-02,8.385389573622639703e-02,4.556437131657561923e-02,5.406712293624877930e-01
3.691051920515442952e-01,-2.160305107615920206e-02,-1.659460211723798317e-02,4.602498759483851683e-03,5.914161330319944385e-03,1.816895107200531753e-02,3.897178173065185547e-01
3.032762222354084547e-01,-1.822481478052059845e-02,-3.738683942354648071e-02,4.011294536700700693e-03,4.941199520866629974e-02,-6.131578660800137207e-03,3.426024019718170166e-01
4.177107052212937210e-01,-4.188904797903197919e-02,-6.384382000129168455e-03,2.556840787848011984e-02,2.407187415932242336e-02,2.859419487279876021e-02,4.498077929019927979e-01
3.015804063959935388e-01,-2.389784901753058688e-02,-2.857040198400984110e-02,-8.179960907471370626e-03,1.067011032767839658e-02,7.119828191648988266e-03,3.288967907428741455e-01
3.423184693457252403e-01,-4.942404932826718889e-02,1.102129383199085266e-02,3.217590286581723663e-02,9.752233824525770312e-02,1.047118839520333293e-02,4.066982269287109375e-01
7.049539190365569641e-02,-5.143291704552599430e-02,9.183084453477858775e-03,3.482063394382500093e-02,-1.524854362671213340e-02,1.786329866334459768e-02,1.282274574041366577e-01
3.606195165713984574e-01,1.524056267028592315e-02,-3.554030684890152614e-02,2.252833904173194741e-03,-2.505150414891352869e-03,1.302775856451447722e-02,3.740951418876647949e-01
2.489204910917878211e-01,-3.514399056578965119e-02,-3.033737176740494701e-02,-5.731981941506593403e-02,5.529528244601986109e-02,-3.705810349499049500e-02,3.201556503772735596e-01
2.327890602025654565e-01,1.297198594579052067e-03,-6.636626804945219837e-02,-8.999340281278733755e-02,8.703860298467145859e-03,-2.936270401259381477e-02,3.177114725112915039e-01
3.624079680658003344e-01,-4.829366829231684921e-03,-2.934991111948376252e-02,-2.224405797999058371e-03,-6.521235911539798296e-04,3.820878319321162168e-03,3.801700770854949951e-01
1.082626521169752359e-01,-5.267303392250076433e-02,-3.214435365660209265e-02,-2.360327121825617561e-02,5.543338508518857316e-02,-1.075070398120539375e-03,1.841502487659454346e-01
3.430165620361935175e-01,-4.164432286824704121e-02,-1.519038148508486397e-02,6.722556477311595821e-03,5.323278549828068529e-02,4.188018609680608899e-03,3.836370706558227539e-01
3.564204451956988762e-01,-1.077978525790782016e-02,-2.682936093591800630e-02,4.769836498802262036e-03,1.702855071632501226e-03,5.930996559276036952e-03,3.757252991199493408e-01
3.424902602697951215e-01,-3.348984522188580559e-02,-2.702775551765798645e-02,-5.864100439682014450e-03,5.637875933345345980e-03,5.896849533193498048e-03,3.731970191001892090e-01
1.366024846738884690e-01,4.310989879879847247e-03,-5.387967815061886490e-02,-6.545856493475246674e-02,3.327769450917547611e-02,-9.758039683680054879e-03,2.122443616390228271e-01
3.522110854523159973e-01,-1.278576919686963409e-02,-3.225954444662321174e-02,2.438954528105955789e-03,1.265407907684560837e-03,-1.405536746161000590e-03,3.751511275768280029e-01
3.576410582187707909e-01,-8.613500183173000702e-03,-2.657141294682557886e-02,-3.258769546613442779e-03,-2.364592229220789481e-03,1.970773787811577575e-03,3.756359219551086426e-01
3.504876218990268244e-01,-4.032639987738020904e-02,-2.665313311768197080e-02,-1.295935453257557497e-02,3.291459428973934984e-04,-2.930249995025712220e-03,3.848490118980407715e-01
3.473185209459089262e-01,-3.861030929081396557e-02,-2.683694935425232075e-02,4.005312477883710164e-05,-4.368856673391620414e-04,2.604318672935087425e-03,3.802064061164855957e-01
2.148259618134544524e-01,2.380412819916372102e-02,-8.775280409206270837e-02,-7.605536380346501757e-02,-1.788688306165275160e-02,9.462692309680343847e-03,2.980365753173828125e-01
3.522448675162627163e-01,-2.948236441424992305e-02,-3.225390397159721978e-02,-4.963776179227113658e-04,-5.756955365254596765e-04,5.249771315980054269e-04,3.831238746643066406e-01
7.407216842887703878e-02,-3.507186561443016021e-02,-6.029222158045020180e-02,1.676185305590864247e-02,-2.251734637068837988e-02,6.463351022500099866e-03,1.333807855844497681e-01
3.561282294458842368e-01,-1.997761400834766055e-02,-2.323258765625321742e-02,-3.486075855550538338e-03,2.890442729300164541e-03,-4.563548332809210482e-03,3.779079318046569824e-01
3.468447837522500854e-01,-3.543218516136523166e-02,-2.642438108211853098e-02,-4.161878441865707367e-04,-3.611569145122778181e-04,6.798391252436009795e-04,3.778566420078277588e-01
2.332223447353971302e-01,-1.418963515184025470e-02,-1.900888760427288382e-02,5.359975020546068475e-02,-1.484179362895120952e-02,-5.937575187597440678e-03,2.679806947708129883e-01
3.536730827221480356e-01,-3.328423665929491904e-02,-3.119312452628275611e-02,3.133248474178673476e-04,-7.790700247653663322e-05,1.003245135860997847e-03,3.859203159809112549e-01
2.805444291833665837e-01,-2.629815205790665689e-02,-1.588001939838934451e-02,1.873284159038650365e-02,9.126875735676038106e-04,-8.596514338079071227e-03,3.038768470287322998e-01
1.303565136428515570e-01,1.826266354995918773e-02,-1.086795172705737333e-02,6.059969393524344827e-02,1.130201806946480418e-02,-4.522933792923685727e-03,1.677514016628265381e-01
1.978269046415108423e-01,1.015952820048514338e-02,-2.212005340026183819e-02,6.013758001766685013e-02,1.380699173805005273e-02,2.671425801944952994e-03,2.318657636642456055e-01
2.085267584656925188e-01,-6.989698022578094694e-03,4.777157995303607518e-03,1.841998869903338845e-02,8.771043058170639381e-03,-5.901536754112526959e-04,2.128369659185409546e-01
3.966834779002116895e-01,6.398309790321021762e-03,-6.642228477798212127e-02,1.119741952364277926e-01,-4.222429527388555509e-02,-3.455475116046714118e-02,4.822774827480316162e-01
3.509856656251919005e-01,-2.970110989282009895e-02,-2.390485638677217195e-02,-3.193435728249332910e-03,1.464200147885538067e-02,3.996986415256772334e-04,3.787132203578948975e-01
8.278808158602464495e-02,-6.020479015297473119e-02,-5.131597308169725397e-02,2.969393271238372073e-02,-2.775705292988412537e-02,-1.607411150689002505e-02,1.580715626478195190e-01
8.686059671624485334e-02,-6.788797755924760868e-02,-5.772908927623669750e-02,7.337286916839074217e-04,-4.554216169375210508e-04,-7.574644638255242229e-03,1.505078524351119995e-01
3.567956187576263316e-01,3.623040342402350511e-03,-3.058472038673507032e-02,1.902507805493564973e-03,-2.142285093539603592e-04,8.208751377539952668e-03,3.717464506626129150e-01
3.526873233765556170e-01,-3.241958922655072128e-02,-3.050935477840086008e-02,-9.843051002540372657e-04,-1.551799612981280400e-04,2.568802242935319235e-03,3.841849863529205322e-01
1.043220229945097111e-01,-4.181480918044758882e-02,-4.722645501942450419e-02,6.032341814136188418e-02,2.220526346657305389e-02,1.446519763595501343e-02,1.876160800457000732e-01
2.278939115584105723e-01,-5.124311290067296021e-04,-8.252674231857451415e-03,8.134303921048016131e-04,1.594670635363677064e-02,-2.744361085903504211e-03,2.340614497661590576e-01
3.523549461850253861e-01,-3.046818210677343375e-02,-2.945511484379523259e-02,-1.367617545661321257e-03,1.302601633554887662e-04,9.612874683245153581e-04,3.823286294937133789e-01
3.480261435123622737e-01,-3.284307722062576596e-02,-3.013390758033540617e-02,-1.779494240786784129e-03,1.769079840066596805e-03,3.422080709234903532e-03,3.795930445194244385e-01
1.677625267325935088e-01,1.794697098012250705e-02,-7.170592137288928081e-02,1.076881859773803490e-01,-2.411256438270150543e-02,8.194133360147414641e-03,2.839888334274291992e-01
3.520395832336436492e-01,-3.326113278731393508e-02,-3.034619269490132498e-02,-3.300426338497631043e-04,-5.419569783637701119e-04,3.537538438475276064e-04,3.838536143302917480e-01
3.283295233366768096e-01,-2.698836408837240741e-02,-2.627429548588022801e-02,2.347173546211326484e-02,-2.466396701612365641e-02,8.350342704092396113e-04,3.598296642303466797e-01
3.665539014288970443e-01,1.722260902899311330e-02,-7.554525462018402138e-02,1.042973105688758118e-01,-2.819146072296311450e-02,-1.834619075201418884e-02,4.461756944656372070e-01
2.303463872445660199e-01,-3.020938369356018782e-02,-3.879830025973858565e-02,7.437495655161507901e-02,-4.267561566292180780e-02,-3.947774826242804458e-02,3.113438189029693604e-01
3.478437319153380169e-01,-2.243119477906291293e-02,-3.787792342784199184e-02,2.541428926369953601e-04,-8.992317854707743488e-03,-1.199800533677261669e-03,3.785614371299743652e-01
3.651836262841759440e-01,3.642228805282587967e-03,-4.541840542343156262e-02,6.342717544970401591e-03,-1.952490591936651906e-03,1.718149618714783985e-02,3.897105455398559570e-01
1.928619207970800331e-01,-1.429948860844922065e-02,1.481715324036986248e-03,3.135998117462687751e-02,-9.740477465725562445e-02,-9.737359294491527636e-03,2.675696313381195068e-01
2.375315043312483110e-01,-9.189340500079620777e-03,-1.151986432353568901e-02,1.657143731092367359e-02,-9.497641245177932887e-03,6.463659158347427255e-03,2.503425478935241699e-01
3.648875969049663048e-01,-3.328211158752192311e-02,1.613964381435184503e-02,7.429527366994605067e-04,-4.755608078680710962e-03,-1.433193188022065072e-02,3.768143951892852783e-01
3.554922057933588286e-01,-2.780405815189107566e-02,-2.630318919376559150e-02,4.348623185577672398e-03,2.043148542132748689e-03,3.498752747436906143e-04,3.826390206813812256e-01
3.146948631264660512e-01,-3.190450543602915690e-02,-1.726365745322834544e-02,5.944448571004634814e-04,-1.024423280465697108e-03,-6.483270653577193413e-03,3.397076427936553955e-01
4.341260729903808624e-01,-3.414961851161199546e-02,-2.169407478808318968e-02,1.550720117937200507e-02,1.097613664666899358e-02,-2.900947049122333879e-02,4.660602211952209473e-01
2.873392705219744991e-01,-2.932398027731292212e-02,-7.946966390914869671e-03,8.386171192578757618e-04,-4.006968095378529585e-04,-5.643286932819119253e-06,3.065385222434997559e-01
3.485575462617234166e-01,-2.620023420154132809e-02,-2.918552038878408084e-02,-8.871073392718823868e-05,1.351050528843455696e-03,2.389265732503663338e-05,3.762666285037994385e-01
5.447284746853868764e-01,1.198701009650721128e-02,-7.483758023437120377e-02,1.962043184834061024e-02,5.826711919229480771e-03,2.188278618232559342e-02,5.833526849746704102e-01
2.429131733420785422e-01,-4.619125413008046133e-03,-2.643351872423464755e-02,-1.408627197786943216e-02,-2.709279611755351438e-02,-4.640233376648394449e-03,2.645936310291290283e-01
3.612185874593741297e-01,1.093657972226891317e-02,-3.780644544840366938e-02,-1.890335827748637360e-03,-1.979789649140622360e-03,-6.172111638137063247e-03,3.772054314613342285e-01
5.458906405445251853e-01,1.687594287513505265e-02,-8.212447407926809495e-02,3.354718332201604009e-02,2.493993041025735664e-03,3.378768120783250031e-03,5.877580046653747559e-01
3.663279548290959697e-01,2.042641285720694921e-02,-4.271192329785794550e-02,4.306808006842992829e-03,-6.300791441558051004e-04,-9.718930137627550822e-04,3.814887106418609619e-01
3.602449198980517409e-01,1.999111614646670310e-02,-4.624170641813074578e-02,2.089146428584862970e-03,-5.751018033323600058e-04,3.886606649662903683e-03,3.778290748596191406e-01
4.312191361830669534e-01,-8.160884669165507921e-03,-5.375553106418240468e-02,8.116831232062908519e-02,4.908205446119713600e-02,4.270748842152111147e-02,4.976252317428588867e-01
3.552791094096973690e-01,-2.686499310819231989e-02,-1.243972998304504474e-03,1.326044255003247215e-03,-1.838041033768744205e-03,-7.732035599104108287e-03,3.702625930309295654e-01
2.799132032297929062e-01,-8.912532296731820458e-03,-2.245780670884610364e-02,-8.632427377978113894e-03,1.432328949212461136e-02,5.575433835616169440e-03,2.974025607109069824e-01
3.567108462205525465e-01,-1.438782545230582466e-02,-3.396315096770230468e-02,-2.002206622756098724e-03,-4.171597060053971106e-04,-4.368954120658942344e-04,3.812806308269500732e-01
3.742384021074832146e-01,-5.044252217876249444e-02,1.581408398405245719e-02,1.398768462659255628e-03,-5.130375527247910648e-03,-1.098864986933040418e-02,3.962991237640380859e-01
3.566483506378350654e-01,9.923850909077741589e-03,-3.565223962252175860e-02,3.172298531841594247e-03,-2.561848808088273630e-03,3.736585357164680377e-03,3.717380464076995850e-01
4.062167476559788160e-01,-5.504167849152932779e-02,1.121662494448313896e-02,2.722674975633598664e-03,-7.063759976453042738e-03,-2.342965834959574029e-02,4.340576827526092529e-01
3.426521612346627998e-01,1.189439276954890046e-03,-2.888622360515305521e-02,-6.175262548241372551e-02,-4.210330256841552515e-02,2.478089302003198824e-02,3.825853466987609863e-01
5.229236328420163726e-01,2.057051414784086263e-02,-8.311169502148191279e-02,-4.729309613336744184e-02,-1.101840478294153179e-02,4.695763987105044772e-03,5.677446722984313965e-01
3.430980656376740878e-01,-2.146405446647584037e-02,-2.557459160006178567e-02,7.548994526084629262e-04,-5.655641726336332539e-03,1.426813892888245899e-04,3.667679131031036377e-01
3.612649230072986772e-01,1.177828143810416561e-02,-4.295475534681891805e-02,2.225027115647915370e-03,-6.502945454704932553e-04,3.461211690404633265e-03,3.798909485340118408e-01
2.111775026371857655e-01,3.632576392452555036e-03,-6.292763471876725023e-03,-1.235724528342143497e-02,-2.123982160015379719e-02,-2.915472096559864820e-03,2.169570326805114746e-01
1.486113257642948382e-01,-3.289466248595269982e-02,-9.792780360544005303e-03,2.316398787145833998e-02,-4.483368956263120847e-02,1.775136893638916066e-02,1.946027129888534546e-01
2.863652681451181459e-01,-2.765934818876419898e-02,-1.098477524762410396e-02,1.911649885035905660e-02,2.511001129958900747e-04,3.894740666384394548e-03,3.078884482383728027e-01
1.044958037865612449e-01,-8.910157481610954389e-03,1.642837451642005162e-02,-4.173950438842769471e-03,-3.099900216472619568e-02,-2.956347094641939913e-03,1.165792122483253479e-01
5.655390233891395280e-01,-6.563382429811137619e-05,-6.719124221846378697e-02,-1.114494118317661993e-02,1.241856492373968586e-03,3.330191831358292331e-02,6.050498485565185547e-01
3.591475306057563821e-01,-3.291360633767864696e-03,-2.688052855697212196e-02,-1.942712786800442591e-03,8.526285484686335972e-04,2.901370222883551363e-03,3.748423457145690918e-01
3.608201302009622635e-01,-3.610217358989614711e-03,-3.320248637610470621e-02,-2.398856787184209301e-03,-4.278486007263318167e-03,1.336968136524746380e-02,3.808909654617309570e-01
2.108836561329152370e-01,8.673104623518800016e-03,-6.971331035151109856e-02,1.069047926746872074e-01,2.513221149943367649e-02,2.417901616038324597e-02,3.175196945667266846e-01
3.387713229012130900e-01,-4.126233572189272336e-02,-1.941536830898984989e-02,4.508104688409092509e-03,3.115692891405273147e-04,-1.111953188480505669e-03,3.696826398372650146e-01
1.852294307689495156e-01,5.394095473590834744e-03,5.266680473535997886e-03,1.314765815199431774e-02,-8.413628962907896899e-03,1.747816519900749098e-03,1.819444745779037476e-01
3.373175404753656625e-01,-3.509073792925393454e-02,-2.487495635871839195e-02,3.622634163927346967e-03,-2.270854991456666867e-03,-3.595068339218330817e-03,3.675343096256256104e-01
3.539637111509773004e-01,-2.666728497843365298e-02,-3.217711244862717090e-02,7.866387813665951315e-03,-1.582092115768357577e-03,2.458780667012708341e-03,3.836910426616668701e-01
3.361287237833694985e-01,-3.563098436246303624e-02,-2.520546364836856457e-02,-2.893728546261393683e-04,-2.167774981258690972e-03,5.295631730316227061e-03,3.667924106121063232e-01
3.267212492195284423e-01,1.345105222790460298e-02,-7.832179964862681643e-02,1.115811831541833610e-01,2.552576672656729773e-02,1.858178866221464956e-02,4.191083312034606934e-01
3.654590654669840899e-01,-9.242640595467643827e-04,-2.913532726938761197e-02,7.417140080461132349e-04,-2.798359085937022952e-03,-6.704342026834116813e-03,3.814821839332580566e-01
4.233389889418273100e-01,-4.446259224635790153e-03,-5.766800098537389063e-02,9.146256420608701865e-02,3.809178100420717444e-02,4.322146192087816807e-02,4.936128854751586914e-01
3.541528614616715198e-01,-1.978712768676443856e-02,-1.621238363713256581e-02,-3.353609045686477622e-03,-4.179273286292498231e-03,4.086173271603103091e-03,3.723484575748443604e-01
3.332632759631796171e-01,-3.830735452293770882e-02,-1.987037420303841562e-02,3.841201205282044652e-03,-3.410009602959177683e-03,3.010578795797438662e-03,3.628503084182739258e-01
4.632990874618153065e-01,2.816241140031081058e-02,-8.890987770569092064e-02,1.029534672307216292e-01,4.266284562795795605e-03,1.044930239498656835e-02,5.349511504173278809e-01
2.212145658031286211e-01,-1.045262226394914895e-02,-7.797286946438858335e-03,-3.007118657455234295e-02,-3.617001203448018398e-02,1.022186462314246362e-03,2.443406581878662109e-01
2.420955356742458542e-01,-3.787038865023358014e-02,-3.424024249920254448e-02,7.270266352718908476e-02,-5.108372974756886925e-02,-4.000638020467398720e-02,3.253690004348754883e-01
9.673427367365514118e-02,-2.182613441675798627e-02,8.301402998111301335e-03,-2.441271415243148613e-02,4.344455411545630058e-02,-1.974330883425331638e-04,1.372685432434082031e-01
2.236582031836340523e-01,-1.021288884937353314e-02,-1.148454895713152402e-02,1.015152943015973919e-01,5.334926739756082337e-02,1.365969568660378372e-02,3.082352578639984131e-01
2.137623093985849820e-01,-2.229942434265090589e-02,-1.078695040760942192e-02,2.869900702792687469e-02,2.455794823015821152e-02,-6.121272977677435188e-03,2.398595660924911499e-01
1.045368492025599283e-01,-2.138725180053058922e-02,-1.402278035512884852e-02,2.832978738860208318e-02,-3.859163862059397654e-02,-3.316645156309671466e-02,1.586173474788665771e-01
2.388468806459912164e-01,-4.711719793199245498e-03,-2.154700556087053853e-02,1.014559637722849648e-02,3.886496855972366299e-02,-2.527528393543517025e-03,2.618473172187805176e-01
8.938777475295262009e-02,-4.417711165051796396e-02,9.086399568869437879e-03,-3.348602275690648611e-02,1.109577826321830191e-02,-1.854514522094297471e-02,1.353791058063507080e-01
2.398028440207529144e-01,-2.703832288538554618e-02,-2.732717898179456983e-02,7.408696430205631567e-02,-5.244104892367832532e-02,-4.980232492333316191e-02,3.216193616390228271e-01
3.185685253275771789e-01,-3.372197067035245799e-02,-2.435993233235786426e-02,-4.950545776292353088e-03,-4.515912606579114419e-02,4.111187623652574549e-03,3.565674722194671631e-01
2.251977799805586766e-01,-8.871003779965316860e-03,-1.068902326158707727e-02,1.079274968049773707e-02,2.387961412559663071e-02,-3.529935361263121518e-03,2.394046336412429810e-01
3.527631495966489505e-01,-2.930209475639372618e-02,-3.152382839826725625e-02,7.493540036653729996e-05,8.798114169956121767e-04,-3.450456562553162981e-04,3.831844627857208252e-01
3.554478480337153745e-01,-2.731674606741238409e-02,-2.705861007533696960e-02,-6.267196965631125567e-05,-3.743579875806877025e-03,-1.040050008855724793e-03,3.826947808265686035e-01
8.831858097997664914e-02,-3.873231659636829083e-03,6.947719568367299176e-03,-1.193091503559404014e-02,4.490574907366518681e-02,-3.543497007905311441e-03,1.188827529549598694e-01
2.700506036111346431e-01,-9.306072859432384936e-03,-1.683115311922724067e-02,1.042998313226744037e-02,1.418339456633181694e-04,-6.106781773668205383e-03,2.839669883251190186e-01
2.853508748711246490e-01,-2.674591204091311680e-02,-1.218760827965252591e-02,-2.012482189199672061e-02,9.440330389683723039e-04,-8.356235794014614526e-04,3.070709109306335449e-01
4.399575741945024321e-01,-4.863375386842069825e-02,-1.149276548253744257e-02,-4.745027049450059597e-02,-9.085458306833711639e-02,5.221571967405729681e-02,5.115191936492919922e-01
2.502958204663203734e-01,-1.228139211815687526e-02,-1.690906758143218003e-02,2.410028527201036469e-02,4.728748059893610536e-03,-5.268009658826696036e-03,2.684699892997741699e-01
3.498746085593700816e-01,-7.764230778509628728e-03,-1.924211594279393034e-02,4.011776743056444817e-04,1.167794590468002394e-03,1.904025104099959934e-03,3.635349571704864502e-01
3.462841207748092454e-01,-3.748830745306064305e-02,-2.745691484137474658e-02,2.802419509650255769e-02,-1.026342146418068001e-02,2.467624944283874477e-03,3.823904693126678467e-01
3.567776525265913268e-01,-2.613860538718582038e-02,-1.535284071272563500e-02,2.238996512503727433e-03,1.048841916160669202e-04,1.360543285710253281e-03,3.776662349700927734e-01
3.619362345814609583e-01,-3.097031646822231976e-02,-2.798162175327165158e-02,3.803717538171690234e-03,9.501153941268127706e-03,-1.251751614036175804e-03,3.918279409408569336e-01
3.544541734128849320e-01,-2.741842389836990357e-02,-2.977544647843607950e-02,9.026066536802226058e-04,4.016027702637232281e-04,2.247512370792052294e-04,3.830605745315551758e-01
4.981584089374642144e-01,-6.522372149472752123e-02,5.239850861676581539e-03,-1.197003020487054023e-02,-5.231377852978820464e-02,3.225019310249214316e-02,5.426111817359924316e-01
3.656023839754417581e-01,-7.782698440804647344e-02,2.504211542246956301e-02,-5.932928046169579084e-02,-6.651657641353256323e-02,2.593466174015495590e-03,4.306389689445495605e-01
2.845931986041291273e-01,-2.733457048837416303e-02,-1.204596785898048861e-02,1.618032020748240776e-02,8.546439472347377650e-03,-7.466865901445366750e-03,3.064890503883361816e-01
3.136973670829817373e-01,-1.315422146787434410e-02,-3.631294426958642241e-02,3.375610881677411877e-03,1.222003266731297270e-02,-3.223726633622586366e-03,3.397809565067291260e-01
3.403036515740550660e-01,-2.089710013527412702e-02,-4.000818756686422284e-02,4.969931547807975979e-04,9.385288175217663172e-04,1.201008301569402525e-05,3.711300790309906006e-01
3.450286438794633592e-01,-3.234532418420102418e-02,-3.156815262955803281e-02,7.471585701247668299e-02,-6.167713481095343786e-02,-4.865373287320442358e-02,4.211645424365997314e-01
3.534757284548764589e-01,-6.146381295524924737e-02,5.194250732734009834e-03,1.881409836071353675e-02,-9.851674064528187502e-02,-4.114059587007645735e-02,4.292030334472656250e-01
3.453391357859393329e-01,-2.130684430760687587e-02,-4.260296892159196047e-02,9.856203149996910304e-04,1.933263337386946241e-03,-3.514039188930275013e-04,3.777637183666229248e-01
3.250150198600230689e-01,-3.933616044854387761e-02,-1.643252579186604834e-02,-9.841877009095156229e-04,1.237276259414282200e-03,1.602363754875460195e-04,3.534670770168304443e-01
3.668070897381248141e-01,-5.572526051792933699e-02,-4.236168323493744170e-03,6.570083452459604678e-02,-8.158115878129484910e-02,-5.126316445769445868e-02,4.474694430828094482e-01
3.428959021030685839e-01,-3.579583857625975862e-02,-2.719854363261020591e-02,-1.010785773363735186e-03,6.647809567331505092e-04,4.561331778018524671e-03,3.745563030242919922e-01
3.522702767859557937e-01,-2.719313526535452330e-02,-2.868379388453812240e-02,1.481625909541115687e-03,1.505097238551618237e-04,-2.297387288893965206e-05,3.802196979522705078e-01
4.099431071454127662e-01,-8.341399403001859003e-02,3.859764447595100123e-02,1.484219358481273995e-02,-1.308591310542694119e-01,-4.325755713474955036e-03,5.001820921897888184e-01
3.261462117074939160e-01,-2.089121460498735705e-02,-3.830579961654834165e-02,8.419242366902314045e-04,1.049206615949827351e-02,8.777649039759311727e-04,3.565339446067810059e-01
3.394102598730904807e-01,-1.958164636563156091e-02,-4.165143046830974138e-02,-4.233370316433272568e-04,4.366470970423819110e-04,-7.520556915073848365e-04,3.705238699913024902e-01
3.652620354474099829e-01,-8.317754413765937604e-02,1.649934009371552268e-02,1.880476936534562077e-02,-9.510154425578501436e-02,-6.941780300446281395e-03,4.412174224853515625e-01
2.287396110396232030e-01,-3.555914121241673942e-02,1.771929132929011413e-02,1.479642960059781784e-02,-1.156880002571006871e-01,-1.091465117718495165e-02,3.158739209175109863e-01
3.422708415093916878e-01,-1.981940419224650918e-02,-4.095302629892447199e-02,7.103477984518839631e-05,6.816029763928295113e-03,3.218339924855062617e-04,3.732933998107910156e-01
4.945518762311367222e-01,-7.700976980317136844e-02,1.262397428771266927e-02,1.867123437361082466e-02,-6.506334768454972994e-02,-1.761699679485533715e-02,5.460424423217773438e-01
3.370735331907359633e-01,-2.936010128777891137e-02,-2.760961149145094162e-02,1.217938522986117961e-02,-2.372053277815784275e-02,2.681933129189133409e-03,3.684966862201690674e-01
3.368987059369199510e-01,-6.297972539643578727e-02,3.312959235047679973e-03,2.473940064277526177e-02,-9.813499802437325448e-02,-2.732400285059956649e-02,4.132260978221893311e-01
3.551522695405947561e-01,-2.793388193953966203e-02,-2.754103417410552757e-02,2.066483635544003744e-03,-5.940434387840407005e-03,1.571693592704430983e-03,3.830544948577880859e-01
4.473133074858565150e-01,-7.717187305915454432e-02,2.431014954263049921e-02,-2.518301879949971442e-02,-1.214520416560116167e-01,1.514530589717772921e-02,5.282045006752014160e-01
3.461455846234791078e-01,-2.247917984840044903e-02,-3.094568561341029533e-02,4.499039852014089305e-05,1.228824063160090978e-03,2.110503299239293294e-04,3.729363679885864258e-01
3.456307283189028468e-01,-3.457144404359108192e-02,-2.734954881714979358e-02,2.398515908289349050e-03,5.734231357993336262e-05,3.426966744433701355e-03,3.767128586769104004e-01
3.457999329143984779e-01,-2.539054620349506797e-02,-2.312245272356855397e-02,-2.049398900462907761e-04,-9.803068890151913836e-03,-3.217808993240583049e-03,3.704930543899536133e-01
1.196887058294430206e-01,3.539664844522699694e-03,-2.475045555030835898e-04,3.434871955716618103e-02,-4.368906440656710431e-03,-1.053326503528048295e-03,1.324572116136550903e-01
3.472425492131939739e-01,-3.740529716776549995e-02,-2.672616861943080679e-02,8.244218213404418258e-04,-1.470955195847789077e-03,1.290428860092836293e-03,3.794388473033905029e-01
4.012300547045469234e-01,-3.704377183890980585e-02,-1.142267210026456925e-02,-2.951787213448889280e-02,-8.219891196147402143e-03,9.845196531224278610e-03,4.296728074550628662e-01
3.469486245823651394e-01,-2.862311279351606452e-02,-3.166094522669518629e-02,9.967542689872996645e-03,-1.109027226705669791e-02,4.626337660932032525e-03,3.780681490898132324e-01
2.680614453323074686e-01,-2.645910903572745720e-02,-7.914627052827444276e-03,2.243827819344282326e-02,-1.121047044728026257e-05,4.586365208351926223e-03,2.884407341480255127e-01
1.423539958311158538e-01,-5.855914403090589637e-02,-1.874844072585433313e-02,3.167567795019223236e-03,-5.924816851015730912e-02,-4.468020529510972894e-03,2.111244052648544312e-01
1.998571123571846186e-01,-4.292970185117217508e-02,-1.499905397380080219e-02,2.745806031389148860e-02,-7.714187013828711914e-02,-3.124714574666116740e-02,2.756591439247131348e-01
2.377820474392852990e-01,-5.430828941812251842e-03,-2.291194482519642861e-02,5.383531031712579171e-03,-5.672598957753280380e-02,5.013505696283553081e-03,2.711560428142547607e-01
3.531219493958702715e-01,-2.862005451531457467e-02,-2.054230118643257663e-02,-3.057557764370881070e-03,-1.318796496084971744e-02,4.716501373819454454e-04,3.784958124160766602e-01
2.376518413128469454e-01,-1.127688778247752655e-02,-1.382686230327734300e-02,4.800189704339166696e-03,-5.492542211645948247e-02,2.701960987736786671e-03,2.678585648536682129e-01
3.538001806031104146e-01,-2.679004605151255602e-02,-3.067873040715002331e-02,1.660341966629106259e-03,-7.871515619847042552e-04,-8.308128128069520611e-04,3.825653493404388428e-01
3.845271438342586223e-01,-4.523528579938779215e-02,-9.290204001915741694e-03,6.315582504245506601e-03,-2.135364647337658142e-02,1.218271515763943427e-03,4.147674143314361572e-01
3.619074855570063587e-01,2.014259152686104226e-02,-4.448415776485017958e-02,3.214629826092089797e-03,-8.324834496534922476e-04,-3.817447719207807313e-03,3.783435225486755371e-01
5.106505701864809676e-01,2.370577903346512971e-02,-7.718377719564156747e-02,6.421435678614333120e-02,1.549777337842531827e-02,8.829448257873255893e-03,5.565487146377563477e-01
3.621171554844435647e-01,1.884952694245230209e-02,-4.061614642027244759e-02,-1.720396452204096989e-03,-7.593470951779884891e-04,2.097669263550124789e-03,3.765704333782196045e-01
3.523761755950708952e-01,-1.805638450348451274e-03,-2.744865531701218275e-02,7.501305570286420730e-04,-2.688479948973078199e-03,2.064094455235613353e-03,3.677237629890441895e-01
3.746368625415451015e-01,-4.412895176004508202e-02,1.491332640119920339e-02,-5.967879858594142767e-04,-1.186993813144514949e-03,1.304085098243863358e-02,3.932447135448455811e-01
3.544204817167843080e-01,-2.836527764956359166e-02,-2.635493761604232321e-02,1.988340818430706786e-04,-5.242894616725052867e-04,3.908806553452335089e-04,3.817864060401916504e-01
3.493995032249382904e-01,-3.382432394338205639e-02,-3.030290011723180132e-02,4.563251423932143452e-04,-4.055629545549063546e-04,3.187661513888225429e-03,3.815167248249053955e-01
3.554273573026691668e-01,-3.095089902423070471e-02,-2.968104055364501059e-02,-5.895474111833302758e-04,5.607861124240058354e-04,-7.314914237939934083e-04,3.857495486736297607e-01
3.533115054288537005e-01,-2.406074656984119597e-02,-2.347494287399959356e-02,-1.089146431594395243e-03,-1.909787581355618623e-03,-8.880799821942713963e-04,3.771020472049713135e-01
2.050182340838237471e-01,-4.162464633684526127e-03,-5.817333612190139780e-04,-2.131127256553416380e-02,-4.085871336184161706e-02,-6.007352003288745669e-03,2.224847078323364258e-01
3.633291811629724699e-01,-3.250307822254477896e-02,-2.515987480161852030e-02,-1.130768307005448545e-02,4.894290431057018997e-03,2.984855958108098735e-03,3.928264379501342773e-01
3.545076880578775236e-01,-2.651602271143724265e-02,-1.852629540210221082e-02,-1.879749964632207882e-03,3.030279221494419899e-03,-1.082439613758932060e-03,3.771475851535797119e-01
3.548136708784608295e-01,-3.050472184947083942e-02,-3.179684919129918685e-02,6.540914312809036589e-04,1.330029213197652825e-04,-7.143252162353053256e-05,3.859678208827972412e-01
2.537308991247411161e-01,-1.177116741211461926e-02,-7.812755129397733200e-03,-2.297209430126458118e-02,3.615198697169072495e-03,4.355703340943502429e-03,2.667120695114135742e-01
3.521550287899375409e-01,-1.549091816202693983e-02,-1.677915075134739364e-02,6.996419455103670276e-04,1.399472426524581625e-03,2.410726954616035714e-03,3.683253824710845947e-01
3.528015261329437990e-01,-2.814217766200846627e-02,-2.981301619692225402e-02,2.609841602883971050e-04,-1.116164830222795461e-03,-1.312879221595897100e-03,3.817937970161437988e-01
2.576716785341367499e-01,-1.429486668621596235e-02,-6.636113460530917996e-03,-1.027174431495430371e-03,-5.884235507062382346e-04,1.329555396516172170e-03,2.682369053363800049e-01
2.695882409059821017e-01,-2.598853334287380690e-02,-1.214930714101017384e-02,-2.323763074205892343e-02,4.698818007655834088e-04,1.217056169988489211e-03,2.917047739028930664e-01
3.482433882619803689e-01,-3.276435537390887109e-02,-2.711494317507628926e-02,-1.121404803120083088e-02,6.004647796954928375e-03,4.182025843732862895e-03,3.789251148700714111e-01
1.875937378422886936e-01,-5.509731013802227073e-03,1.608807684828073015e-03,-4.314018480795114158e-02,9.188415364117073769e-02,-7.448411636419665499e-03,2.589261829853057861e-01
1.829796654604304296e-01,-1.565820732985431785e-03,-5.620254474467151207e-03,-9.111094584004850172e-02,3.523949050608248673e-02,-1.200204894719573978e-02,2.527507245540618896e-01
3.426821256809492455e-01,-2.616884851427728198e-02,-3.397284164997510514e-02,6.589551017609118939e-03,-2.587066444658168637e-03,6.166363207568288304e-03,3.731686770915985107e-01
4.209711407103355896e-01,-5.303534449458227606e-02,1.623283063223204814e-02,-7.422313453947608497e-03,1.281440839370774111e-02,-1.622905659419996566e-02,4.450783133506774902e-01
4.069735471998942034e-01,-4.980444248261398088e-02,-3.634533068557210811e-04,-8.317010795557514295e-04,2.387962467078808687e-02,1.080298243075069296e-02,4.365431070327758789e-01
3.698067431044007591e-01,-4.518661158064271599e-02,2.577062708950664249e-02,1.364528902649425092e-03,7.513191415358180802e-03,1.000317114244447976e-02,3.850750029087066650e-01
3.318961426055783148e-01,-3.605018082266364665e-02,8.650429494870229274e-03,-3.910665715707957110e-03,2.197373501588992251e-02,-9.715976920609301765e-03,3.503039181232452393e-01
3.576360524118605277e-01,-3.340214501162366845e-02,-1.267864800500079214e-02,1.503384784708391335e-03,-3.685541982830858009e-03,-3.326599883555745457e-03,3.812051713466644287e-01
3.505326705160650702e-01,-3.212476865884456023e-02,-9.966481240755303839e-03,-2.611676404339304935e-03,-1.584298716191922867e-03,-8.762737695931107056e-04,3.721141815185546875e-01
3.720196747751054467e-01,-3.616954220628387784e-02,4.250814408986336446e-03,-5.513918824538494370e-03,-6.544317274421109117e-04,-3.333765746764959150e-03,3.897164762020111084e-01
3.493848829905336073e-01,-3.182952146956874451e-02,-2.699871766176734078e-02,-2.869073277082585804e-03,-3.288785536793116266e-03,-1.410586346783669837e-03,3.789053857326507568e-01
3.533025212658534864e-01,-2.673270267064659089e-02,-3.502924715252181409e-02,9.299645155481583384e-04,-1.492977254784233140e-03,1.030865124834310156e-03,3.842669129371643066e-01
1.614555904130084429e-01,3.075133110720454366e-03,-1.893172059414402475e-03,3.692069043678183893e-02,-1.733842541015013800e-03,3.157544344916946976e-03,1.732751429080963135e-01
1.707404748793055760e-01,2.049717015394109110e-03,5.443893438029923093e-04,2.910584529810616994e-02,5.846806209219944372e-02,-3.254445057403555341e-03,2.038174122571945190e-01
8.963856850929391440e-02,2.052332833239021298e-02,-5.352854758685596237e-02,4.715661112959584900e-02,2.746090287816487646e-02,3.949483361390065256e-02,1.702697128057479858e-01
3.552860640569059369e-01,-3.213763468706221094e-02,-3.240814054419227652e-02,1.151481666061605110e-04,-7.362924954854367958e-04,-5.451082917316709244e-04,3.875623345375061035e-01
3.486034192065169957e-01,-2.957264084944699611e-02,-3.539259214756279581e-02,-1.758786019892769753e-03,3.234250574422825857e-03,4.209310032860137316e-03,3.812424242496490479e-01
3.549692870490790964e-01,-2.605346511786799102e-02,-2.762979013436819842e-02,1.111564514968305193e-03,1.753557340264954873e-03,7.307223837793493928e-04,3.818323910236358643e-01
2.740720170029889088e-02,3.496477828578934202e-03,5.898168283849663900e-03,1.809314877868193130e-02,-1.285565269197712530e-02,2.136299073056486999e-03,4.485137015581130981e-02
2.379207701546087461e-01,-2.104790178307695825e-02,-3.278714146182101774e-02,-6.943518291177090684e-02,-6.471492569792770821e-02,3.641521658106099124e-02,3.181959688663482666e-01
3.678446898110643293e-01,-3.094547651335696759e-02,-2.810701335886003904e-02,5.102316641706798779e-03,-1.098616771870054507e-02,2.265466569653532512e-03,3.979513645172119141e-01
3.449421041234366769e-01,-2.270511527857368983e-02,-3.216892449435840295e-02,-3.637583011580897271e-04,-4.503091491579049683e-04,-1.110878109007660142e-03,3.724756240844726562e-01
3.318852699040726884e-01,-1.723895120183571716e-02,-3.594256575862675440e-02,4.100542569007182073e-03,-5.553893332314189905e-03,5.575480189376233291e-03,3.591707944869995117e-01
3.481641477881201596e-01,-2.236717468251062102e-02,-3.718627697609558358e-02,-3.492947084291647165e-04,-8.523032602655853870e-03,1.595848835857566509e-03,3.784573078155517578e-01
4.220007701904801012e-01,-6.215152233320975217e-02,1.486820568202415482e-02,4.575809898910385490e-03,6.714334805407763673e-02,-2.102063036723507070e-02,4.668611288070678711e-01
2.416326506312385103e-01,-1.295671651419547099e-02,-1.093621618419569896e-02,-2.198449027925211685e-02,-1.070045154687938524e-02,-2.838361851975652970e-03,2.571440339088439941e-01
3.315552979441681036e-01,-2.009255875870932795e-02,-3.854018865089406387e-02,1.962375280056927445e-03,1.501458029802414283e-04,3.708687595581650846e-03,3.612983226776123047e-01
3.542637165092247797e-01,-3.286174203478570144e-02,-3.185759411962832410e-02,3.845157749463977296e-04,4.318545808219264323e-04,-5.131706619451825539e-04,3.866266906261444092e-01
3.454568691173465766e-01,-2.866958726352530906e-02,-2.760825645375442061e-02,5.914785022290488560e-03,-1.294379032984152404e-02,2.193283162883978305e-03,3.744284510612487793e-01
3.110160768340399784e-01,-3.648899016120016325e-02,-1.396838010690083787e-02,1.473812626652767563e-02,1.736189664755911303e-03,5.389192888905093961e-04,3.377905786037445068e-01
3.109893013240660475e-01,-3.601049189298588526e-02,-1.500180851406854310e-02,8.893787200464284282e-03,1.695196323314241750e-04,-2.914915763212011079e-03,3.373767733573913574e-01
3.547944413025960753e-01,-3.219245878821208606e-02,-3.247505742054929145e-02,1.861691180774079307e-04,5.788879851655420695e-04,-5.271005056386847496e-04,3.871307969093322754e-01
2.920641275159411299e-01,-2.551756151191927890e-02,-1.240534966677427076e-02,3.957476817769116362e-02,-4.601413223603403532e-03,1.436623610825793528e-03,3.188009560108184814e-01
2.189000080711007989e-01,-1.281769292996594312e-02,-8.099748988333974054e-03,-1.585433115946609586e-02,-3.034429379995508963e-02,-3.382558690176742607e-04,2.369364351034164429e-01
3.346425019476843565e-01,-2.352829262150540890e-02,-2.865812663650668668e-02,-1.317941577637002197e-02,2.078228861916618653e-02,-6.471097993643976868e-04,3.632740676403045654e-01
3.523870237585521870e-01,-3.491745139717306046e-02,-2.888965642216853591e-02,-1.327358022781877566e-03,1.244747569524973013e-03,1.482096157237500818e-03,3.843475282192230225e-01
3.509168337405167426e-01,-2.953456394007675234e-02,-2.798479476265569588e-02,-1.241041486789970115e-03,1.479545665569118127e-03,-1.669404670408449604e-04,3.796937167644500732e-01
3.204682946039544289e-01,-3.770839726596653119e-02,-1.566376372728818522e-02,8.444907699965273004e-03,-1.170409320806044783e-03,-1.392384249598322896e-03,3.480007350444793701e-01
3.534293291516963365e-01,-2.380157964993728781e-02,-2.385790525376654814e-02,2.368156585478206340e-04,-7.414155511725117539e-04,1.507920391343277658e-04,3.772615790367126465e-01
3.545222718388156280e-01,-3.297928860488466563e-02,-3.181284549892926528e-02,-5.052036268325784318e-04,-4.833556693399580079e-04,-5.724413655826904529e-04,3.869228363037109375e-01
3.517533481344137236e-01,-2.840270593630539464e-02,-2.696636608991492823e-02,-1.572374206891124972e-03,-9.434753969768524748e-04,6.642398484661747680e-05,3.794532418251037598e-01
3.537615134808275719e-01,-2.482697510307635413e-02,-2.727068198335863558e-02,1.674672880173227001e-05,5.854093317258880292e-04,-1.072003999025116731e-03,3.798221349716186523e-01
3.538706140298690239e-01,-3.305158502070457138e-02,-2.769279457830181590e-02,-3.778058737867647995e-03,9.125229620293459718e-04,3.179602463856983328e-03,3.843692541122436523e-01
2.684367335469773908e-01,-2.660925808471696630e-02,-7.179651228486877423e-03,1.907617082448844620e-02,5.127796690626141782e-03,-5.024016195026848042e-03,2.879988253116607666e-01
1.893012203443204533e-01,7.598790757048362599e-04,-3.742623555517299305e-03,6.205932522819597452e-02,2.872933093399894500e-02,-1.360491262408276662e-03,2.246169447898864746e-01
2.929049620694779144e-01,-1.138066263678987056e-02,-3.100294865835542812e-02,5.277349997317405065e-04,6.305867098142546113e-04,-3.444854302701231934e-04,3.145599067211151123e-01
2.349443342291804293e-01,1.480034804619333177e-02,-6.652540313299273866e-03,-1.012676021342415605e-01,7.586104187320125147e-02,-3.245814584801981484e-02,3.237854242324829102e-01
9.700952535887523431e-02,-9.039584355613028421e-03,8.389760450182713603e-03,1.358185332168703602e-02,4.919144841070993701e-02,-5.207019397494096896e-03,1.326497793197631836e-01
2.567504443031707884e-01,-1.340086635783618862e-02,-2.147963118994050680e-02,2.235402663171133161e-02,3.974797259608787992e-02,-6.935539257524347447e-03,2.856791913509368896e-01
3.322463789650405563e-01,-2.207833975616452227e-02,-3.829669338580801718e-02,5.516111022080001213e-04,1.038150149363486477e-03,-3.591873064831862736e-03,3.627650141716003418e-01
3.322158094285475038e-01,-4.104452920492757118e-02,-1.916144281560316909e-02,-5.377316926219201203e-03,-5.974198377825167211e-04,-4.843129700136501129e-04,3.629360496997833252e-01
3.054702152694163675e-01,-2.692848130871941525e-02,-2.790223589640156154e-02,1.683411965974982577e-02,4.299857883770479700e-02,-2.930092508763175712e-03,3.423975408077239990e-01
2.054580475499896697e-01,-1.679131365118881336e-02,1.993795009889123837e-02,2.936847508004603036e-02,9.050023470355636479e-02,3.445378925568425531e-03,2.641491591930389404e-01
2.955043423076308962e-01,-2.831171157560502527e-02,-6.067846616220173850e-03,2.374020255512722388e-02,7.501431706944633460e-02,1.348708562926903554e-02,3.424421846866607666e-01
1.173027003449964717e-01,-1.734073010532591330e-03,8.339045957263181708e-03,-8.993293084969867374e-03,3.420950964265539324e-02,-1.583514784683250076e-03,1.297427564859390259e-01
1.723077533927406257e-01,-1.355706208497380050e-02,2.360323483304761077e-02,-2.377174464997152195e-02,-8.665420957201606933e-02,-9.051278571338987680e-03,2.312741726636886597e-01
2.902434680467116390e-01,-2.448671379009691174e-02,-2.933742085826253343e-02,-1.398069447293805515e-02,-4.929527327081585641e-02,-3.417996662512755995e-03,3.294188380241394043e-01
3.548474231020795067e-01,-3.067951148623260238e-02,-3.109677065196300716e-02,3.455417048824230373e-04,1.126196098296525531e-03,6.616333718925758835e-04,3.857428431510925293e-01
3.532905124943372388e-01,-3.225113793156531017e-02,-3.147637138805975399e-02,8.380340384230083525e-04,-4.936623990436327363e-04,1.183165008435590462e-03,3.851639926433563232e-01
2.144650089078607991e-01,-5.756616244334961108e-04,-5.250546491899141244e-03,-2.682710254814497670e-03,-2.678662884858823076e-02,-2.752248023405000701e-03,2.224107086658477783e-01
2.715964919097205721e-01,-8.786538459042786409e-03,-2.898727743263156131e-02,3.425793152649915171e-03,-2.494910958907673934e-02,-2.637430440367353763e-03,2.942959666252136230e-01
3.527025052711108555e-01,-2.721273648375688303e-02,-1.786046318454687087e-02,-2.235463469317393575e-03,-8.573644203794990055e-04,1.310004380246076192e-03,3.753562569618225098e-01
3.553011171991228290e-01,-2.766142068091187456e-02,-5.533252252151954487e-03,-9.761683343046446450e-04,2.121319029968835122e-03,1.820875700713917673e-03,3.724271953105926514e-01
2.896962498041666390e-01,-1.688576019789560234e-02,-2.584436019322830513e-02,-3.948972013678122249e-03,-8.929856537767792007e-03,-5.677166803213883409e-03,3.117724061012268066e-01
2.376184107000185453e-01,-9.676252272161206536e-04,-2.386106588666611628e-02,6.847578548107986079e-03,-5.895573815898356995e-02,4.685808483616984532e-04,2.710684835910797119e-01
3.535934837615267723e-01,-3.054048028775510626e-02,-3.337323139607956124e-02,-4.809916835038349683e-04,3.344860528576531458e-04,-3.057234589031736401e-03,3.855958282947540283e-01
3.540535929042752938e-01,-2.517389371673947607e-02,-2.222738885683342436e-02,-5.800816404258464466e-04,-8.243985055000114821e-04,-9.933330982871239889e-04,3.777708113193511963e-01
5.296957883860111682e-01,1.485657338932422356e-02,-8.030386270324690878e-02,-4.611654032183952479e-02,-2.568294819759064061e-03,1.259874051808416127e-02,5.744418501853942871e-01
3.561337988650019049e-01,-2.699169018909369777e-02,-2.777299601088231706e-02,-3.678648755659718575e-04,3.402197418141819814e-03,-4.571254661036926550e-04,3.835633397102355957e-01
3.614029563423140079e-01,-2.724334725212390618e-02,-3.832743026943644105e-02,7.039734526026948311e-03,-5.024839894494251800e-03,-2.644730678613063397e-03,3.946162760257720947e-01
3.651617075286304193e-01,-1.384552347301151731e-02,-3.163574947016620231e-02,-5.549243267787822009e-03,-1.425645415175789705e-03,3.466033268204291116e-03,3.883814215660095215e-01
3.884501953746181124e-01,9.779895661318899203e-03,-4.101911630578131129e-02,-1.620856309278274898e-02,-1.277153354026141184e-02,2.676638280678883194e-02,4.106514453887939453e-01
3.696247332578039280e-01,4.127873797121428545e-03,-4.375589633399384892e-02,-1.873473710900861247e-02,-5.578443490153183436e-03,-2.464376199701462508e-04,3.931013643741607666e-01
3.717153663596280966e-01,5.789421280384676738e-03,-4.123254593013189750e-02,-1.383294008940779297e-03,1.300970646292178012e-03,5.976345978287979366e-03,3.917108476161956787e-01
4.039596663715857572e-01,2.498991053877794299e-02,-5.241391943140105703e-02,1.158904447138725362e-02,-3.701327665186745011e-03,1.144998439526020637e-02,4.240052700042724609e-01
2.353878384526973677e-01,-1.424554044907114236e-02,-1.109748235435233099e-02,2.280013381477606627e-02,2.026352495762327038e-02,-5.881897212093730246e-03,2.538425326347351074e-01
3.500517110202803206e-01,-1.209253581080471651e-02,-1.637490123061371983e-02,3.427297944749214563e-04,1.242485499325192942e-03,3.681306503350493739e-03,3.643669486045837402e-01
3.000054122297209358e-01,-3.041094013783060546e-02,-1.830737180921734875e-02,-1.626503554252674982e-02,2.088619186042212084e-02,5.459252328741319264e-03,3.278932869434356689e-01
3.722696195738021130e-01,9.052696205803734131e-03,-4.570429541516154992e-02,-1.722855925076376311e-03,2.280079110640755198e-03,1.675902753211358466e-03,3.935053348541259766e-01
3.255129869862506964e-01,1.550196278191268151e-02,-4.407887035204977044e-02,-8.036823794995975878e-02,1.068954722824837049e-02,-1.068360676003928499e-02,3.717388808727264404e-01
4.142429681828481147e-01,1.891003898713353171e-02,-6.671397588814090285e-02,-3.486571063452845870e-02,-6.268576490224123977e-03,-1.341603167021031794e-03,4.485975205898284912e-01
3.302453246175849899e-01,2.935918313224659959e-02,-8.262280787065551246e-02,-1.291493019962186295e-01,3.114411592120115702e-02,-2.289242591236980220e-02,4.373636245727539062e-01
3.470933911666226335e-01,-3.055314325068705927e-02,-3.343492488267310603e-02,-1.409286784895347980e-03,-1.347594796176975395e-03,-4.028608535591783092e-03,3.791748881340026855e-01
3.453042229260690488e-01,-3.800635760687612330e-02,-2.383538596519677033e-02,-6.876966008786500155e-04,2.725534218905353524e-07,-4.437475308258393173e-04,3.764278590679168701e-01
2.837854431632732544e-01,-9.686824235175625630e-03,-3.086451681723900720e-02,3.630672849937313824e-03,-2.062246613987053778e-02,-3.555605166407786299e-03,3.068270981311798096e-01
4.107068117447136846e-01,1.776942990668708977e-02,-5.858145579616383380e-02,-2.213802638536429071e-02,6.574127393534204278e-03,-1.656130573594596228e-02,4.389226734638214111e-01
3.738001449461974546e-01,2.761418242288622704e-02,-4.759521605803027078e-02,1.122085235445381517e-02,1.458954971935959820e-03,-2.392364976890989665e-03,3.897933959960937500e-01
2.437527680657714801e-01,-2.136533376848381849e-02,-2.282903808161614034e-02,-2.247236201926468974e-02,-3.702040677191532209e-02,1.454579026556428178e-06,2.762324213981628418e-01
3.907132465042187364e-01,1.724399609437804459e-02,-5.110174194402888892e-02,-1.068230548325334284e-04,8.068624684750341433e-03,-1.510104871975222023e-02,4.129829406738281250e-01
4.017178519515379187e-01,2.153352811566006109e-03,-5.179959730860428380e-02,1.796640958100216220e-02,-7.466776274767928517e-03,-1.237897314440722027e-02,4.309474825859069824e-01
2.840739159400700875e-01,-1.606440450406364240e-02,-1.534033058651926296e-02,-2.119406496622521158e-04,1.891433267557220501e-04,5.838816447408656275e-03,2.999478876590728760e-01
3.551932666248566739e-01,7.057421732256638491e-03,-4.064446314915656777e-02,-1.222043920831585376e-03,5.911708468367300566e-03,-4.762443986423480109e-03,3.745105266571044922e-01
4.445871896820788871e-01,-2.780428801312859188e-02,-2.912448690333246937e-02,8.279146597683584297e-03,-4.200413617555547735e-02,4.026216317116855514e-02,4.838810861110687256e-01
4.271959356393554841e-01,-5.691050785871684670e-02,-1.586378440998184591e-02,-3.534062135895994772e-02,-8.237187095193181097e-02,4.618291491440155300e-02,4.966625869274139404e-01
4.104881047996149501e-01,-5.831518914522393349e-02,2.671783869266217137e-02,2.467501072412022628e-02,-1.231240078912753944e-01,3.019634282602462472e-03,4.842270910739898682e-01
3.484077677916618265e-01,-3.860201132581803085e-02,-2.331758610064724180e-02,-3.164129675271614133e-03,-3.803521694927901710e-04,-6.750798210490535937e-04,3.796403408050537109e-01
3.918733286851693309e-01,-6.406286997465140964e-02,3.730212496434459624e-03,-3.853465912555628647e-02,-1.049655292025204745e-01,3.413721900231431183e-02,4.717716574668884277e-01
3.529116186871552596e-01,-3.434387105841191223e-02,-2.918035530510376674e-02,1.587026657613081293e-04,-5.122711552690220474e-04,-1.058171374827530887e-03,3.847052156925201416e-01
3.416697191854156657e-01,-2.101757857146979713e-02,-4.145284541062002615e-02,-1.260516525761787396e-04,3.469721286848234014e-04,-1.472974251186496891e-03,3.733339011669158936e-01
3.475003182935185175e-01,-2.311704193069563651e-02,-3.995763498799562163e-02,1.186770961824921110e-03,-2.729559989694680267e-03,-1.183545465925312044e-03,3.793587088584899902e-01
3.562971304780905291e-01,-2.795426335836595499e-02,-3.213122589545647223e-02,7.650547971527570795e-03,-1.362988518363714889e-03,4.029261280102630995e-04,3.865918219089508057e-01
3.516068880775962691e-01,-1.359496881898550336e-02,-2.677155632426558851e-02,7.540875180211296241e-03,8.673590634142816936e-04,9.467798975127051514e-03,3.725585937500000000e-01
3.642737950865286845e-01,-2.507786840029641029e-02,-3.417028193352053544e-02,1.519916915274863861e-02,-2.880721036391511373e-04,5.450444078338805530e-04,3.948565721511840820e-01
3.428048992995046951e-01,-4.075617036657983028e-02,-2.140744227912544373e-02,1.490947050959660816e-03,1.210779623585587616e-03,-1.349681702423164049e-03,3.742840886116027832e-01
3.647666636443226973e-01,5.859683504924245723e-03,-3.623444626347779862e-02,-1.452424128698491437e-03,-2.147439885452021285e-03,6.438404450801976479e-03,3.818881213665008545e-01
2.667847797741115801e-01,-1.350050892315866891e-02,-1.438189585114968416e-02,5.815845975275834093e-04,1.382867793727350202e-03,-6.468599372462109989e-03,2.809625267982482910e-01
3.103633981569154932e-01,-3.521699410933162855e-02,-1.198308896076888397e-02,1.305105595413719698e-02,-1.162591190317694258e-03,2.236209996153414818e-03,3.353602290153503418e-01
3.486538273457122639e-01,-2.777850096206604946e-02,-2.872573371394335218e-02,3.581957710593988362e-03,-3.817584426220939109e-05,1.181654117400583937e-04,3.769579529762268066e-01
3.510026597234179313e-01,-3.058821237715567132e-02,-2.799114914131795029e-02,1.036237410954152834e-03,3.370556057835347001e-03,-5.754232148210302504e-04,3.803493380546569824e-01
2.158239775528537630e-01,-1.236963107149657848e-02,-1.851750417678653393e-02,2.981202692517345709e-02,-1.938142873979269154e-02,-1.517608083897231674e-02,2.408259809017181396e-01
2.930704951181689610e-01,-2.764086425380088419e-02,-1.810292112260555863e-02,4.949027384791116011e-04,9.027838633723977643e-04,5.744034003550334798e-03,3.162119388580322266e-01
3.173788908858348745e-01,-3.315942244960962126e-02,-1.896616093907990686e-02,1.902137989669569137e-02,8.898707219030931471e-04,5.707414992743552358e-03,3.453821241855621338e-01
2.154953716456589619e-01,-7.908607002847567458e-03,4.400327691549868470e-03,1.770083491615578875e-02,6.981645832186217371e-03,-8.982354767339463140e-04,2.199990749359130859e-01
3.429131270814204102e-01,-3.872553921448232406e-02,-2.260971315493173761e-02,1.111882568928675456e-03,1.234720487631550939e-03,-9.185814224127024927e-04,3.738558292388916016e-01
3.147186620936512358e-01,-2.956640237547844552e-02,-1.978856530891856536e-02,4.280116545675520219e-05,-4.254320471787453959e-04,-6.585382196434696501e-03,3.396941125392913818e-01
3.211063672234457100e-01,-3.480411352754911314e-02,-1.982028995451226572e-02,7.194527761070917266e-03,-3.048898754907596558e-05,-5.583071475979116578e-03,3.490167260169982910e-01
8.829732483128099885e-02,-2.120173135196338002e-03,-5.862266427046571027e-02,-3.239731572589932100e-03,-3.067421130171296695e-02,-8.228070144435384314e-03,1.397640258073806763e-01
1.356469530897931874e-01,-2.359108152961836291e-02,-6.570654349412144435e-02,4.078751957358675573e-02,-1.150269957588669414e-02,-1.787844172176239477e-02,2.004583925008773804e-01
3.505310641703462404e-01,-3.034961546440390068e-02,-2.605337876750840609e-02,-9.284100090902284782e-06,1.521967996392425103e-03,9.939188171937144919e-05,3.787600398063659668e-01
2.291602003037829793e-01,-1.115913743098759237e-03,-5.596707564680641900e-03,1.680841812858447195e-03,-1.520888630780659403e-02,3.150712379829481626e-03,2.341178655624389648e-01
2.659212844310736013e-01,-2.571648002278517642e-02,-6.980405968260244842e-03,2.318530437598462224e-02,7.248465472610731743e-04,-2.195647173500431260e-03,2.856014668941497803e-01
5.388449933820016469e-02,2.203137080853831420e-03,-6.225269075597246460e-02,-1.406743379405308095e-02,-2.028698268828829296e-02,1.683601043737814260e-02,1.132934167981147766e-01
5.125910738434353853e-01,-1.470757079707715742e-02,-5.549364198038506113e-02,-4.409033237212033052e-02,-2.905823436692554079e-02,3.633509993813408001e-02,5.599460005760192871e-01
3.453842049701846828e-01,-3.861393984998409690e-02,-2.461019525888916148e-02,3.270476892954604599e-04,-7.764855630036844071e-04,-2.137234231537159246e-03,3.772122859954833984e-01
3.559617567647497816e-01,-2.846375460626451859e-02,-3.027198381309711972e-02,-5.543774690287262691e-03,7.529153796880582806e-04,2.244278508356846468e-04,3.854548335075378418e-01
4.032078051950371833e-01,-7.122011119129495471e-03,-5.020860453630393572e-02,-7.141259654338197316e-02,-3.621478407835673069e-02,3.950978037982678243e-02,4.602429866790771484e-01
3.526675529733034331e-01,-2.927127067597989907e-02,-3.020520888993649677e-02,1.036773893457815275e-03,2.853675007999247710e-04,-1.213478912108521129e-03,3.824169635772705078e-01
3.528260324786692270e-01,-2.959476428285537364e-02,-3.150259680828115805e-02,1.168776406884395702e-04,8.418970235255650476e-04,-2.872959726853419591e-04,3.833814263343811035e-01
3.534430458515873119e-01,-3.274255167214043527e-02,-2.964221697765770380e-02,-6.334558762508442353e-04,1.400708371690723630e-03,-1.063874251120867183e-03,3.846584260463714600e-01
2.622378239317220139e-01,-1.707743935696180715e-02,-2.088893413078274364e-03,-1.556647527582322209e-03,9.613189209523697720e-04,3.587434697596630657e-03,2.722201347351074219e-01
3.398223692741241808e-01,-2.542689350573362761e-02,-3.572486975718425217e-02,-1.475477032353473845e-03,2.176823669066703230e-04,-4.837649938056143469e-03,3.706093430519104004e-01
2.681088676653358913e-02,3.779342876044807648e-03,-5.113221884829552769e-03,-3.568682809855119268e-03,-3.814137882878806257e-02,-4.142595090712794699e-03,7.258321344852447510e-02
2.020124906418341026e-01,-7.210976446467468048e-02,-8.215922118771305793e-03,-3.289943743869833126e-02,-7.368194981981669722e-02,1.314829995922424388e-02,2.859432697296142578e-01
1.999618948407719810e-01,-2.331197040015525745e-03,-1.768182516018984574e-03,-3.531477234947046073e-02,-3.830287308365069171e-02,-5.300364653433994530e-03,2.214405834674835205e-01
2.681989009363848764e-01,-1.621670582951043049e-02,-1.203823832146366790e-02,-4.909707629665386588e-04,-1.407389903443511184e-02,-7.286844891147189682e-03,2.836820781230926514e-01
3.550026204983571798e-01,-2.811703384219813029e-02,-2.809276643888655722e-02,-1.258406052835853856e-03,1.503874205494439269e-03,-6.785815725260678282e-05,3.831225931644439697e-01
3.532387957459315331e-01,-2.962190989603974423e-02,-3.032269392518938123e-02,-9.092189060164426913e-04,1.321974919280181991e-04,1.350181834258368761e-03,3.832220137119293213e-01
3.266303006191782488e-01,-3.146462340777578248e-02,-2.559547813871645983e-02,-3.973212927717967823e-03,-5.295777918328692380e-03,-7.105380877914359815e-03,3.555948138236999512e-01
1.615965711183504072e-01,2.011046393098021856e-02,-2.683011469470605870e-02,-5.639044180925747995e-02,-1.191959880696051924e-03,8.341455842988381580e-03,1.965090930461883545e-01
3.378491304410026763e-01,-2.563106837089845769e-02,-2.876942062657905641e-02,-5.104646402500946645e-03,-7.434690918346024968e-03,3.499050749264325357e-04,3.653940260410308838e-01
2.608379165835877922e-01,-1.862912338372692267e-02,-1.196760238933583520e-02,-7.189099826719602682e-02,-4.692089745206471166e-03,7.921115303448292158e-04,3.030798733234405518e-01
3.503755575674823985e-01,-2.948966193993488027e-02,-3.128498858085618228e-02,-1.067761467955078911e-02,-1.495554862455258233e-02,-5.929497251561860471e-03,3.822320103645324707e-01
3.461273534634500271e-01,-2.945601755056290183e-02,-2.487310295402192506e-02,-7.444657840526679865e-04,-3.934154033979616683e-04,-1.470483140850633317e-03,3.733245432376861572e-01
3.538936299988797995e-01,-2.204191258049115199e-02,-2.308930614941676063e-02,-7.262736970340471707e-04,-2.352574659680074960e-03,4.067187081501184159e-03,3.765503764152526855e-01
3.482273838524960197e-01,-2.610921124005893823e-02,-3.097883557915376285e-02,1.289034562683784215e-03,3.864388189353894394e-03,-1.809533901384504902e-03,3.768740892410278320e-01
3.567504509434933357e-01,-2.834724621213216555e-02,9.957128689027094914e-04,-2.088785886475012440e-03,-8.397661023266797184e-04,1.369680364920148469e-02,3.720743954181671143e-01
5.609465073896265919e-01,-4.384371485861476847e-02,-1.983944467224710295e-02,5.634197926396796591e-03,-4.276664002619310159e-04,4.035724652599350509e-02,5.973372459411621094e-01
3.967463334116575480e-01,-3.119732848677114756e-03,-3.956733183433508438e-02,6.243374169993557744e-03,4.737425683978759017e-03,2.527100909117395780e-02,4.217767119407653809e-01
3.607155138827007890e-01,-9.350456937085638298e-03,-3.364212560968848909e-02,4.633655766168201344e-03,-2.360706843514747376e-03,1.285374937729578601e-03,3.829027414321899414e-01
3.552058394768562999e-01,5.434766728985934714e-03,-3.424901132547183980e-02,5.058221389843207093e-03,1.358286282100249409e-03,1.372015351164905615e-03,3.713257014751434326e-01
3.421760717091713033e-01,-3.429353650506444806e-02,-2.475165074179833113e-02,3.982840096851024241e-03,2.515321657835602014e-03,-3.707209131486549018e-03,3.719354569911956787e-01
3.529760345548499378e-01,-1.828591123985140454e-02,-2.488228735425473959e-02,1.304559451721957640e-03,6.019195768942304332e-04,1.413773199028386333e-03,3.746199607849121094e-01
3.523141857125396958e-01,-1.164168386996272675e-02,-1.910491068153624683e-02,-1.000706490995975726e-03,7.749590190845839777e-03,-1.435946776015443321e-02,3.688327670097351074e-01
3.534596414002310061e-01,-2.746176866262090011e-02,-3.180730351472305095e-02,4.358596191093966994e-04,1.147730651324082142e-03,2.767768633375674052e-04,3.831188678741455078e-01
3.445292066930495389e-01,-2.927486400377965481e-02,-2.651917133756773182e-02,5.167111996952899198e-04,3.682921670235011179e-03,-1.060669821198412065e-04,3.724896311759948730e-01
3.582191055114023470e-01,-2.871884265247856560e-02,-3.014599212256302563e-02,-4.474571913380613435e-03,4.080086456123898329e-03,3.204543960405575181e-03,3.878350853919982910e-01
3.542420121990458859e-01,-2.407067205500165730e-02,-2.615763504192411548e-02,2.125724822882927006e-03,1.018694208955008571e-03,-8.450431165840381793e-04,3.793852627277374268e-01
3.469054834503647600e-01,-3.298286248826104439e-02,-2.845085405895245168e-02,-2.093291013289246341e-02,3.745106035017280177e-02,-1.254706789390558309e-04,3.848848938941955566e-01
3.696058038854428962e-01,-4.683830462210922252e-02,-7.698224185230445604e-03,6.078219640496138922e-03,-5.499558966642614788e-02,-4.985753485398010951e-05,4.096857011318206787e-01
3.326647140244945455e-01,-1.887039657650463331e-02,-4.216064882780254375e-02,3.086764291532475223e-04,6.474834276784695482e-03,-1.054250106660922347e-03,3.639177083969116211e-01
3.942323277089820888e-01,9.983554197027066923e-03,-4.436110384068642221e-02,-2.253699853026377466e-03,-1.438086934942424898e-04,-4.902624873231183067e-03,4.142097830772399902e-01
3.401071912758123483e-01,-3.967918791768279552e-02,-2.075846873112574542e-02,-1.352468734518913040e-03,5.812508308426227351e-04,1.011294403943826994e-03,3.707012534141540527e-01
3.371388460888729566e-01,-3.036889294652908577e-02,-2.770018237536522876e-02,-5.331963004985180998e-03,-3.801743164581940747e-03,-6.271557908972674560e-03,3.665173053741455078e-01
1.724597630176095964e-01,-4.054930809415845105e-03,-1.249100099555079668e-02,-8.765704840127852560e-02,-2.649268666148417439e-02,1.391628642231115993e-02,2.417758107185363770e-01
3.689784398060897419e-01,-1.473147133256960672e-02,-4.935824282783468631e-03,-7.512950367014555042e-03,6.880265466328213883e-03,-2.560894502528673206e-02,3.819023072719573975e-01
3.265455133717361513e-01,-3.841314672430304333e-02,-1.483274531666006757e-02,-4.199531965877680462e-05,-1.254792180100489660e-03,-2.874033371723770484e-03,3.538000881671905518e-01
3.464621581477190237e-01,-3.133288792420108049e-02,-2.716085017716479699e-02,-1.649493019082681321e-03,-4.410242667526779277e-04,-2.679797439611858456e-04,3.757383227348327637e-01
3.878653986665148712e-01,-2.063240947790506707e-02,-1.714340788491183765e-02,1.415562789736183116e-02,1.538662165630724082e-02,2.549389102571511870e-02,4.107536971569061279e-01
3.535016525800452891e-01,-2.165979115135824307e-02,-1.447299699927800942e-02,2.244560380878489816e-03,1.652400414260196725e-03,1.591342402699946453e-03,3.716617524623870850e-01
3.612386928624526372e-01,-8.537665626076162972e-03,-3.655315172295647841e-02,-6.259203047392331021e-03,7.082969902175964734e-04,8.563923428384777499e-04,3.847078382968902588e-01
3.548383486142413501e-01,-2.606726856412253102e-02,-2.532920712106190297e-02,-9.014996091257221616e-05,-3.003262355847904561e-03,-1.123263040136143753e-03,3.805776834487915039e-01
3.517430462860773321e-01,-2.715420955472869213e-02,-2.911694645552004301e-02,9.722895990009568690e-05,1.096435657265656602e-03,7.768793904333762626e-05,3.798872232437133789e-01
2.534613530348646671e-01,-2.417343734452416515e-02,-1.100671275587318532e-02,-4.227206856448984668e-02,-1.149842638334530251e-02,-5.175793029883288265e-03,2.818451523780822754e-01
3.519714326053267617e-01,-2.644291088068298490e-02,-3.179698632114874579e-02,1.014954688680336079e-05,1.485536751320019628e-03,1.624480123765831166e-04,3.811283707618713379e-01
3.578896540095080625e-01,-3.584061864153514909e-02,4.987733347979028675e-03,1.610409183054287857e-04,1.460296956941723216e-05,4.252666719411496953e-03,3.750592768192291260e-01
5.168734208217737880e-01,-3.735096345912619631e-02,-4.070122647257665149e-02,-4.242466510108154620e-02,-3.237638468345783310e-02,4.638798289229531524e-02,5.692384839057922363e-01
3.384929076206299459e-01,-3.105837107088954552e-02,-2.820993333922602875e-02,-1.281168951023083698e-03,2.941924920162251574e-04,5.860583931834342265e-03,3.682822883129119873e-01
2.106539972983651754e-01,-1.126575293798910693e-02,-2.904837342769930886e-03,-3.085218454541475280e-02,-9.609137306955610469e-03,-3.185585744948569737e-03,2.250018864870071411e-01
3.566476421953407860e-01,-2.021919874072491963e-03,-3.471652310820638743e-02,-2.028068674573358862e-02,1.230425102030255867e-02,-8.635511558452305461e-03,3.786174356937408447e-01
3.883886723301296362e-01,7.735249302236651969e-03,-4.798005448856279553e-02,-6.256802225350259483e-02,-6.182082531999011886e-03,-1.559671093031879049e-02,4.263779222965240479e-01
3.529961539192549846e-01,-2.428722870206911910e-02,-1.878606634952270649e-02,5.888459710817448326e-05,7.660071680618789477e-04,-7.823732468688413943e-04,3.745679259300231934e-01
3.541330263473489448e-01,-2.065806999141539535e-02,-1.894188168347593626e-02,2.821240893126751408e-03,3.173014822742009655e-04,-1.723391096741625243e-03,3.739801943302154541e-01
3.241849788942229305e-01,-3.711142428306721253e-02,-1.679409936121242786e-02,-1.018460661827611663e-02,2.660897179846771440e-04,6.296749391265591680e-04,3.520225584506988525e-01
3.561218890310277607e-01,-3.036604478475385394e-02,-2.469711658795420428e-02,-2.499190906550227990e-04,6.721893368510038075e-03,3.081822997786118714e-04,3.838621079921722412e-01
3.406877818370713795e-01,-3.577619127545567101e-02,-2.503834364897086773e-02,-2.490356459638081929e-03,2.315636811646586569e-03,3.895538931541623392e-03,3.713195919990539551e-01
3.463932088498181683e-01,-3.999421389951646200e-02,-2.338397246374002147e-02,-1.040356601061074703e-03,8.683460560801228422e-04,8.428141266830623674e-04,3.783659636974334717e-01
3.541011734137165523e-01,-2.295547410687046042e-02,-2.467173631052213545e-02,4.854812704361787228e-04,2.014641324391505586e-03,-2.021255216121781075e-03,3.779509663581848145e-01
3.500810752083319821e-01,-1.530211499899403194e-02,-1.272430504120816708e-02,4.061574350892198414e-04,-1.068208362767139789e-05,-2.540572579161657057e-03,3.641284108161926270e-01
2.553660001540890567e-01,-2.744057726051551960e-02,-2.755443297970759653e-02,-3.424518254140575951e-02,4.595701106560202281e-02,-4.740873408518141846e-02,3.108196854591369629e-01
3.521960005646451175e-01,-1.719580150743396652e-02,-1.569865417320634449e-02,-4.534138829444368064e-04,8.702383649215486659e-04,-4.963147881940581548e-03,3.687496483325958252e-01
3.561960373668472402e-01,-2.631341024270958395e-02,-1.476755101506915802e-02,2.087002793181789474e-03,1.655701304390584661e-03,-1.592023290702652191e-03,3.769075274467468262e-01
3.278177231965968552e-01,-1.951872291447104280e-02,-3.758718704437852276e-02,-1.583655255429038382e-03,7.894317921186650919e-03,3.151112457326284665e-03,3.570282757282257080e-01
1.144411834616093360e-01,9.874180849902026991e-03,7.045858135235200104e-03,7.775742616084296843e-02,2.011908932175808865e-02,1.781881271241448055e-03,1.749300360679626465e-01
2.035223025536918584e-01,-7.795899687743781947e-02,9.365996198355798497e-03,5.757974482255631167e-03,6.651424750434466182e-02,9.095789479999023125e-03,2.754943370819091797e-01
2.992917443693547397e-01,-7.786128125675265133e-03,-3.085630808444203566e-02,2.375187873365442424e-03,1.209687473842928958e-03,1.378409597583017069e-03,3.192810714244842529e-01
2.517266973308422418e-01,-6.562563210058547369e-03,-1.989753882605178881e-02,6.872530849650433302e-04,6.406033670542213287e-02,9.041070193685231057e-03,2.879118919372558594e-01
1.308310517357709757e-01,-4.129093478005169127e-02,-4.751666796668958803e-02,7.895368809314597808e-03,1.979487263796982435e-02,7.394029753738169848e-03,1.796186566352844238e-01
1.270595381539034452e-01,-3.794135150358285413e-02,-4.933541032816184113e-02,-1.962758900562044245e-02,1.206742482589710785e-02,-9.843352534914803081e-03,1.764041334390640259e-01
2.009802380742864991e-01,3.384796982423290967e-03,6.064764161463551129e-03,-7.203636163325815569e-04,-2.570308313970480138e-03,-5.471069874144601357e-05,1.963236480951309204e-01
3.855706103742897461e-01,-4.418683355353125730e-02,-1.337829432521123185e-02,-9.724755244328272749e-03,7.564756865339659908e-03,-1.851441247659370987e-02,4.169942140579223633e-01
3.545500083492381105e-01,-2.783205388520249013e-02,-2.686576376032936975e-02,-1.647132644951726510e-03,-7.151968178335025433e-03,7.891202727185523107e-04,3.821137845516204834e-01
3.549490964361678991e-01,-2.348955160989324442e-02,-2.716069026849132761e-02,3.373217541098643725e-03,-1.301951297253695755e-04,2.489799382096698687e-04,3.803327083587646484e-01
3.576997744276763092e-01,-2.251964004835893540e-02,-1.062455498743314353e-02,-1.182424889027726498e-03,-5.022379410542717219e-04,3.820816641972833716e-03,3.744786977767944336e-01
3.548553622933038887e-01,-2.772373632677332944e-02,-2.576138009270673157e-02,-1.670400548319290416e-03,5.382271457742428917e-04,-2.732385836507029379e-04,3.816141188144683838e-01
4.136894341071956638e-01,-5.072498313664322578e-02,8.665396167814393147e-03,-4.018325601144153228e-03,2.468667509161884613e-02,2.675096857246765658e-02,4.423231780529022217e-01
3.535070655992874067e-01,-3.129632621992003982e-02,-2.907007435512204419e-02,-4.651711767279381737e-04,-1.332389994857436028e-03,-1.279822035349255979e-03,3.837093114852905273e-01
3.537056058058773989e-01,-2.826306536361011812e-02,-2.724314395567631331e-02,8.250498687109305640e-04,9.170059288007667998e-04,-2.240787828444621658e-04,3.814659118652343750e-01
3.540583605686823399e-01,-2.567997413803269069e-02,-2.815996950743807070e-02,-1.162669152621703759e-03,4.779499820485729692e-04,3.677129398964366870e-04,3.809911310672760010e-01
3.541129997736460200e-01,-2.574568241875202501e-02,-2.242758258159935347e-02,6.105724889295360532e-04,8.788042547120855814e-04,-1.757369606792694812e-03,3.782273530960083008e-01
3.511667046267945569e-01,-3.116611039239233771e-02,-3.114835447601965734e-02,-3.987262646646264411e-04,-3.224512298676215395e-04,-2.589822010715555050e-03,3.823512792587280273e-01
3.711040249464144236e-01,-3.941176772719059973e-02,1.423195952241858298e-02,3.613507139181296006e-03,2.523614226110615019e-03,1.146531255928756945e-02,3.870812654495239258e-01
3.610808018133507824e-01,-3.411751513277144765e-02,2.020132402983376707e-03,-3.797412696242460396e-03,-5.004179361534503816e-03,2.444441908610185243e-03,3.786058723926544189e-01
5.543063903192366748e-01,-2.167650182125374636e-02,-4.590641138542372879e-02,2.538324470397625154e-02,-2.615120249045610468e-02,-4.169404268032401301e-02,5.962374806404113770e-01
3.540192771558038354e-01,-2.670275857283491150e-02,-3.612535008827133520e-03,-1.791313554489558108e-03,-2.406420796446577352e-03,-2.667849941761059242e-03,3.697834908962249756e-01
3.590260048300603080e-01,-3.250911281695359478e-02,6.593394161575227841e-03,-6.273172834834315646e-04,-3.060623634722450977e-03,7.124844187329022055e-03,3.737650513648986816e-01
3.649029707653311250e-01,5.574459282872812338e-03,-3.736348195151134588e-02,-3.548024001147461783e-03,4.419561418747391382e-04,-6.640371471817103563e-03,3.828316926956176758e-01
3.575831030485034367e-01,-1.585978009525981780e-02,-2.722109385039736540e-02,2.515015939222004209e-03,1.374895214794439723e-03,-8.856583470580903792e-04,3.792867958545684814e-01
3.524383165320257305e-01,-1.783270948251516885e-02,-2.052218930177507339e-02,1.557889308226228630e-03,1.324657890797846212e-03,-4.286562960457368314e-04,3.716406822204589844e-01
3.529728457575931344e-01,-2.111488465116617697e-02,-2.039209390590465687e-02,-6.491038998609037231e-04,-1.671000408649476251e-04,-1.826097169873852665e-03,3.737420439720153809e-01
3.573525324361738198e-01,-2.484187684355679271e-02,-8.827096846705656530e-03,-1.621199611878306737e-03,3.827233390516995674e-03,-3.217148707738028308e-03,3.745546042919158936e-01
3.517016588221334450e-01,-2.801833069476858395e-02,-2.811154460642500963e-02,5.296612294168292394e-04,6.476636728170669620e-04,-4.041574096869043962e-04,3.797700107097625732e-01
3.517675969553612503e-01,-3.252248096126686416e-02,-2.869658527258125980e-02,-2.994811160536324686e-03,-3.914772549527874984e-03,-3.240978628113892757e-03,3.825279772281646729e-01
3.500382155264248341e-01,-3.046857822195006560e-02,-2.496694648656039295e-02,-3.665159768511807659e-04,2.249530675923298688e-03,-2.554598580619110021e-04,3.778069019317626953e-01
3.675076160712751894e-01,-2.570451640865076270e-02,-3.008867499145811975e-02,-5.595433540777086656e-02,-3.545498378843912890e-02,1.352349504872797301e-02,4.123971164226531982e-01
5.598207097548247857e-01,1.524763813727819661e-02,-8.179645746576919008e-02,-1.635894826018757797e-02,1.701145996002715460e-02,-8.405430143999130521e-03,6.005896925926208496e-01
5.117089916099235580e-01,1.783002849546475033e-02,-7.999095472819989228e-02,6.309008981271982397e-02,1.589582033390903731e-02,1.447028904411934089e-02,5.613594055175781250e-01
3.681182312756962616e-01,-9.625718104153468957e-03,-3.654315763737306377e-02,-9.055089160960734865e-03,-1.483410960757987600e-03,-2.421517017263853525e-04,3.922189474105834961e-01
3.513801627489845369e-01,-1.419520850321867589e-02,-2.738619902853492438e-02,2.335912105456997186e-03,-1.219307238514554231e-03,1.722138969625532762e-04,3.723742365837097168e-01
3.610017219607927763e-01,1.055257548206374463e-02,-3.917199843035518159e-02,4.003581027539260782e-03,3.896717282154397348e-04,-3.050773036255677827e-04,3.778384625911712646e-01
3.533138014192719889e-01,-3.855785530284319695e-02,-2.742941213200578154e-02,1.057656985780206123e-02,-2.205281005793548708e-03,1.867112322368604665e-03,3.868939876556396484e-01
3.677361048681203615e-01,9.215974633429477314e-03,-4.440165078486263406e-02,-8.795368077360986997e-03,-7.178332332147070640e-04,-5.312631643586000416e-03,3.885264694690704346e-01
3.557452012477469450e-01,-7.190955916284519356e-03,-2.681501543925696174e-02,-3.291365395428850777e-03,3.920439193726340914e-03,-2.112426208823784367e-03,3.732586801052093506e-01
3.576866959903582943e-01,-2.043498972919860490e-03,-2.633906112233347363e-02,-1.271464499690160271e-03,2.660687819893046806e-03,-3.174677817978617013e-03,3.725483417510986328e-01
3.535367958776156616e-01,-1.983989771555536019e-02,-2.621320074125987887e-02,7.324815586540691162e-03,-6.095181727946074809e-03,-3.122543653731172687e-03,3.770040869712829590e-01
3.522635534909213106e-01,-1.955379441810445318e-02,-1.806694088629928752e-02,2.110975485944044296e-03,-7.392825761874210859e-04,-3.135971693563718594e-03,3.711361289024353027e-01
3.400024296102431287e-01,-3.302861681542038075e-02,-2.578106698752438697e-02,4.634533300407190151e-03,-5.514314423744299610e-04,3.810317012280152720e-03,3.696079552173614502e-01
3.510064157268638629e-01,-1.771355707058294704e-02,-1.507152689095328513e-02,-8.520343142549378218e-04,-2.236509975057090972e-04,-5.686781046975318728e-04,3.674105703830718994e-01
3.504407634804650451e-01,-1.304561576946350332e-02,-1.558067570625301657e-02,2.621190058027148104e-04,-5.097899161446205283e-04,-1.854377835479870335e-03,3.647760152816772461e-01
3.496246688857597706e-01,-1.496822184577059622e-02,-1.556560527154204898e-02,2.938491575353396434e-04,1.352696544687964945e-04,-2.194394396688862975e-04,3.648925721645355225e-01
2.894097246845422911e-01,-3.318880893607151217e-02,-1.242530400949645730e-02,-2.660727213796540772e-02,3.356145010910811799e-03,5.351680986774146921e-04,3.161663413047790527e-01
3.589390779149106425e-01,-1.736942899704349563e-02,-2.994134337405102153e-02,4.005071235325966851e-03,2.373197790074826809e-03,2.776747840074095014e-04,3.828345835208892822e-01
2.891388240320047487e-01,2.932408566472327616e-02,-7.090753850141864878e-02,-9.749667704833057946e-02,3.922969953038353552e-02,-2.029061463608515525e-02,3.714304268360137939e-01
3.637633108346600141e-01,5.800631381957022104e-03,-3.711095374772821476e-02,3.583311891247061010e-03,-3.215535938762355988e-04,-1.239314183938638016e-04,3.812850713729858398e-01
3.676175152565187565e-01,-1.742489342449415890e-02,-3.135922835929769170e-02,-3.965740713509769214e-03,-1.282499719775953778e-03,-1.267228387967100954e-03,3.922678530216217041e-01
4.227521628418445254e-01,2.131436037234304970e-02,-6.435509709315020976e-02,-4.188743290590267974e-03,-6.974099811647298947e-03,2.404955050903354302e-03,4.506644308567047119e-01
3.483409014409494797e-01,-3.125325092303471441e-02,-2.594058267528370765e-02,-3.276290689569454767e-03,2.023909289108127146e-03,1.234734440071192513e-03,3.770309686660766602e-01
3.525080626434689002e-01,-3.023883315259359716e-02,-2.764708153738465457e-02,-4.135424755585469882e-05,1.072162460062326111e-03,1.229964382964893145e-03,3.814680874347686768e-01
3.572528946803019689e-01,-2.670909576703492383e-02,-2.848522719683094229e-02,-6.284158893074207226e-03,8.036284138528604262e-04,9.117782979524900700e-04,3.850127756595611572e-01
2.683548537392184685e-01,-8.611462388735391382e-03,-1.493954424806333281e-02,-2.315721068016925524e-02,-2.585609279119780129e-04,5.876098787947770137e-03,2.832235991954803467e-01
3.502966100931167448e-01,-2.794374868133256418e-02,-2.723641643590851702e-02,5.750417228148051738e-04,-9.845360672367424535e-05,-7.731718014442864927e-05,3.778885602951049805e-01
3.536259430539185900e-01,-2.868832112586827687e-02,-2.741743240375435486e-02,1.972174361492140190e-03,-8.769158880901049575e-04,1.391841173797599520e-04,3.816987872123718262e-01
2.747212163302502064e-01,-1.783102700078854908e-02,-1.489428277388239741e-02,-1.482177639891813035e-03,-6.191513147515814285e-04,-5.970515801683192944e-03,2.912918925285339355e-01
2.955202181933286321e-01,2.845384851585044950e-03,-4.449832475854648139e-02,-6.673448624487489378e-02,-9.898103911926071224e-03,-9.733666504022114169e-03,3.401395678520202637e-01
2.809896583227775024e-01,-1.506485723255981957e-02,-2.477448953382496710e-02,-7.493559763314963651e-03,-1.583543722579230928e-02,-9.483854157287498893e-03,3.029978573322296143e-01
2.780767022216291684e-01,-2.454319608531019270e-02,-2.117171406966489311e-02,-3.398764068521632764e-02,-2.046014944236210220e-02,-2.751535150688601186e-03,3.087295591831207275e-01
3.484651313397016392e-01,-2.552875845320609627e-02,-3.767244895402258043e-02,-1.757272339858291862e-05,-4.132866035028527618e-03,-3.144834505132600242e-03,3.803175985813140869e-01
5.407315805574158807e-01,-5.678780006894124099e-02,-1.358639624132426671e-02,-4.996713243739159260e-02,-7.818703384236194709e-02,4.776599280382278628e-02,6.047781705856323242e-01
3.539895449319198084e-01,-2.568908837490463393e-02,-2.671444263867187030e-02,1.232380894185929662e-03,2.433699328618198297e-03,1.732800522190492559e-04,3.802218139171600342e-01
3.666989238015721519e-01,-1.465437031210561902e-02,-1.795460945653248874e-02,-4.747040630488316183e-04,3.644959533361382537e-03,1.670772683137897521e-02,3.841585218906402588e-01
3.539963596353415953e-01,-2.132636789975070335e-02,-8.764593469479553534e-03,2.336466540821862704e-03,2.437300071262969367e-03,4.018439034099346996e-03,3.693140447139739990e-01
2.726990947095913054e-01,-1.717835514536404651e-02,-2.063690539456992934e-02,-2.925530198069803411e-02,-2.048232833429611266e-02,2.019464412187725036e-04,2.981103360652923584e-01
3.599718585384886205e-01,-1.713664919474561232e-02,-1.582096897803850211e-02,2.405051620124424097e-03,-3.684176557698050011e-03,1.595315831864202449e-02,3.775420188903808594e-01
3.520241001355839394e-01,-1.813062408208102050e-02,-2.704182679523908783e-02,1.600500376634794459e-03,1.972218022913532591e-03,8.858657974972339441e-04,3.747187852859497070e-01
3.615902908325547838e-01,-3.527333778029365097e-02,8.986592127526060736e-03,3.567199734260653211e-03,2.249386507358393933e-03,4.219041262296259129e-03,3.768305778503417969e-01
3.494985393891011927e-01,-2.601814027339879876e-02,-3.444503573273852148e-02,-2.402947241071592271e-03,-5.468840146010569940e-03,-1.376774024459547982e-03,3.799486458301544189e-01
3.527769613724321407e-01,-2.491547320972267721e-02,-3.169888420085281711e-02,1.833648938143732626e-03,3.295712802871277286e-04,-4.292222836139597823e-04,3.811438083648681641e-01
3.555078973605886317e-01,-2.784078748080742738e-02,-2.055670063148332116e-02,-4.245079301222336074e-05,2.022954715546422717e-04,-1.072444467656884660e-03,3.797637522220611572e-01
3.497514726299554289e-01,-3.191818669078166915e-02,-2.972278822254192931e-02,-5.406385612243502737e-04,1.279583197421376274e-03,-1.318090243551426916e-03,3.805911540985107422e-01
5.341663663343905188e-01,-7.994830838412730900e-02,3.849422718084055672e-03,-9.286840329828415647e-03,1.650205757660014663e-02,2.087266176430160880e-02,5.788611173629760742e-01
3.541740668368854039e-01,-2.733911923132126276e-02,-2.794023902623574140e-02,-4.135554227453616324e-04,-1.648040797312229182e-03,3.278331814321851158e-04,3.818258643150329590e-01
3.555735929784105132e-01,-2.757240020981799322e-02,-2.873082839068502592e-02,-6.758514824078573581e-04,6.399807450338374209e-04,-3.287388960544336373e-04,3.837303221225738525e-01
3.526216110740247878e-01,-1.858109338046295966e-02,-2.157835480286199314e-02,-9.707404062564862351e-04,-1.681586999399387571e-03,1.594001257187748150e-03,3.727357685565948486e-01
3.513251068916669051e-01,-2.904488661889964574e-02,-3.554585075266972205e-02,1.871508152501022036e-04,2.575764847565270016e-05,-1.683471643799655700e-03,3.836730122566223145e-01
3.522060680959112622e-01,-2.721590684070177013e-02,-3.675716651556637515e-02,1.105283962310411134e-03,-1.148860495281198678e-03,-1.356350992734422969e-03,3.842985630035400391e-01
3.439649706405038532e-01,-2.424241484993175377e-02,-3.859571371092679337e-02,-1.026484360705232426e-03,-2.906550906789402613e-03,-2.982394515046369893e-03,3.756632506847381592e-01
3.506156105167240189e-01,-2.521910717694936244e-02,-3.573433478416279674e-02,-1.271329982899653023e-03,-3.127207984256451852e-03,-1.182084745675522327e-03,3.812514543533325195e-01
3.415425330255287273e-01,-2.420661268697307800e-02,-3.870666294904204219e-02,-2.015496375739246767e-04,-3.176842542434507501e-03,-3.196484252940199038e-03,3.732922673225402832e-01
3.471515633057493666e-01,-3.293472261383453836e-02,-3.007166902058142077e-02,1.547127593484448735e-04,-1.143121301464326573e-03,-4.104659781438773150e-03,3.787348866462707520e-01
3.349834349178160142e-01,-2.751404920718436564e-02,-3.193735557689861282e-02,-1.001710483350915685e-05,-4.540085470986885037e-03,-6.015644080767020355e-03,3.649627864360809326e-01
3.819053733357014591e-01,-3.748324951093701118e-02,2.573165262291704503e-03,3.294001427024313439e-03,-2.859839261562082194e-03,9.335160985980977752e-03,4.012613296508789062e-01
3.623047247237284885e-01,-2.679924473195752221e-02,-1.486624649100684592e-02,-1.500407427426937636e-03,-6.747504636135517398e-04,7.177365199411795890e-03,3.834889531135559082e-01
5.045079192988650707e-01,-7.981690161984927867e-02,1.636893595249661049e-02,1.341282813395170900e-02,-7.283408847262314023e-02,-7.886926786315789223e-03,5.577850341796875000e-01
5.588075333694719760e-01,-6.949872227626952004e-02,3.878609274114930283e-03,-1.802268061560914278e-02,-3.201188084213081597e-02,3.022290791573582769e-02,6.006984114646911621e-01
4.076869805057186102e-01,-4.133508294471380240e-02,9.686413359428269754e-03,-8.210172490627080152e-04,-2.380281191854386608e-02,2.264304329493345425e-02,4.295975863933563232e-01
3.556089818335567143e-01,-2.548491894756460541e-02,6.027652216568507582e-03,-2.987947432754170518e-03,-1.961212379229336673e-03,8.072711402732725416e-03,3.666744828224182129e-01
5.192823158415182938e-01,-4.783393750250583554e-02,-1.664896102035223757e-02,2.009391272991624053e-02,3.478201641842752767e-02,4.392287974418972174e-02,5.617260336875915527e-01
3.600089840194802826e-01,-3.412617067052364783e-02,-7.928335252999269001e-03,-4.248390498224261218e-04,5.754194355512586186e-03,-2.974145380264483184e-03,3.818766474723815918e-01
3.609743648946700523e-01,-4.017319560181392690e-02,1.922502228816458381e-02,-4.803371239607294365e-04,1.191732868977833518e-03,-1.234800435605199354e-03,3.750061094760894775e-01
4.162070206951009599e-01,-4.213447688791768786e-02,-5.639830404143175713e-03,-4.913107397556385272e-03,-3.777974694022999576e-03,2.894681514790622620e-02,4.441967606544494629e-01
3.518962103500568595e-01,-2.743399883025027242e-02,-2.846516540310350951e-02,3.589382824569493750e-04,7.049087799386671111e-04,-3.770672449978040809e-04,3.798498809337615967e-01
3.578258551577707114e-01,-1.581348038407359713e-02,-3.073477055035628291e-02,4.251277702294672424e-03,2.066507106218388665e-03,1.291034772040403110e-03,3.814134299755096436e-01
3.455731278700280851e-01,-3.147810836959424874e-02,-2.774722689933672992e-02,-1.557361864263832538e-03,-7.451015711534009081e-04,-2.011716417356629490e-03,3.752278089523315430e-01
3.536505007507854126e-01,-1.605876080005161355e-02,-2.686866597139811463e-02,5.295204258994900583e-03,2.260017435502565449e-03,9.677781807668760531e-04,3.753672540187835693e-01
3.695095272608076020e-01,3.151547355194886380e-02,-5.104163417016860382e-02,-4.760773378621240091e-04,-1.796591075051232403e-02,9.515165359253100266e-03,3.875565528869628906e-01
3.438286231732421983e-01,-3.663908837119203565e-02,-2.626483270981258555e-02,-5.982742043578512421e-03,5.386151288524254665e-04,-3.747098907666348688e-03,3.755883574485778809e-01
3.548714564410556660e-01,-3.141592603623416524e-02,-3.198817411212001582e-02,-7.608154111921323990e-04,3.433763848136659044e-04,-9.978443673823540402e-04,3.865803778171539307e-01
3.218214315388690516e-01,-2.414005429115365087e-02,-2.922091275076607597e-02,-2.978104833009908529e-03,-2.357872780604488634e-05,-7.939451008737885562e-03,3.488390147686004639e-01
3.103531152467302046e-01,-2.381434955319039481e-02,-2.550315265769828588e-02,-2.950264191929551864e-03,-6.209103041471581916e-03,-7.775008264594708042e-03,3.354969620704650879e-01
3.478102933681214703e-01,-2.669066905710668069e-02,-3.511103878044372073e-02,6.391837698650956192e-05,4.588539607208831162e-04,-5.360648072848577190e-04,3.787833452224731445e-01
3.473859416047969662e-01,-2.788120863977744390e-02,-3.322331668238154290e-02,-5.355740567271842674e-03,-1.066378374949361434e-02,-5.188792819761161960e-03,3.786379098892211914e-01
3.053328836036420801e-01,-1.946693288326842297e-02,-2.904947759430334675e-02,-8.961208293611751252e-03,-4.683872081403415988e-02,-1.698250919513181415e-03,3.398975133895874023e-01
3.685236465215288582e-01,-2.156382626702924021e-02,-3.592060663295443268e-02,3.360445798843206960e-02,-4.654188810539760818e-04,-8.775453248971913298e-03,4.019878208637237549e-01
3.282524398569287016e-01,-3.326432217148306281e-02,-2.606940684295971922e-02,1.664297921560664237e-02,-1.556180595018367627e-02,9.822738314225358536e-03,3.605440258979797363e-01
3.575044203261987796e-01,-2.734450093790039005e-02,-2.738494291455759178e-02,6.903231296487822265e-04,-1.114547641615724546e-02,9.505421548830676011e-04,3.853583633899688721e-01
5.065095452757037986e-01,-4.247501059334751750e-02,-1.443936431061787484e-02,5.247511899274220903e-02,-8.058827947546509662e-02,-4.778473013824582893e-02,5.668980479240417480e-01
3.597110534997049469e-01,-3.016068541631711231e-02,-1.239787870219130617e-02,6.949669754305853571e-04,-5.297599180739563998e-03,-1.586288883122042659e-03,3.814229369163513184e-01
3.551071331149460164e-01,-2.637354140711442585e-02,-2.337757833552850384e-02,-1.856428921111808166e-03,5.739133444447755503e-04,-1.084902486570836141e-03,3.800111114978790283e-01
3.575514764413592061e-01,-1.308285451670082589e-02,-2.181964747188555598e-02,-1.463509420819237086e-03,8.887555142840192039e-04,-6.110198374505524527e-03,3.752400577068328857e-01
3.527155206697634715e-01,-2.701111008050310902e-02,-2.897815968407180254e-02,-3.155831249522700788e-04,1.515652901065489078e-03,8.396216447726434831e-05,3.807234466075897217e-01
3.375450431675427465e-01,-1.032828139948624435e-02,-3.145648994848831981e-02,7.221790093094479501e-02,-6.086878415219969252e-02,-4.396325113791796357e-02,4.017110764980316162e-01
3.435756349866458392e-01,-2.345159798619009250e-02,-3.864451099275331702e-02,-4.196454077456822276e-04,-1.440138064394361358e-04,-5.844069577876918106e-04,3.748568296432495117e-01
3.479452035540345767e-01,-2.572096288684311283e-02,-3.620197381265125025e-02,-7.186390708488179981e-04,-1.403254545840568104e-03,-4.022791295206037954e-03,3.790892362594604492e-01
3.408283839127529413e-01,-2.558946879368079186e-02,-3.523687847582199217e-02,-2.043098838893213712e-03,-1.062893543280081813e-03,-3.662957867694546961e-03,3.714111745357513428e-01
3.430128180732034959e-01,-2.050424522773167113e-02,-3.918112124316988631e-02,9.115689678711256638e-04,5.801485541271563266e-04,-3.955058245268839863e-04,3.732115030288696289e-01
3.423798705301672740e-01,-2.538491107861062801e-02,-3.594456074308041704e-02,6.424280885700057227e-04,-6.348283891504673607e-03,-5.122899558076391725e-03,3.734257221221923828e-01
3.435652352070548976e-01,-2.445632613265188993e-02,-3.711130368477338903e-02,-1.253369532357771635e-03,7.217448539624709072e-04,-8.984545209120761971e-04,3.745210468769073486e-01
3.360847663835309085e-01,-2.031759693398990652e-02,-3.943992813894059424e-02,-2.386890250255572360e-03,-4.070383333531003497e-03,-3.457316741914505300e-03,3.664781153202056885e-01
3.729792018255998487e-01,-3.636903648228373420e-02,1.992753158739452024e-03,2.291294028712958369e-02,-6.367530200393893558e-02,-3.280506477129786075e-02,4.126759469509124756e-01
5.203678494422028233e-01,3.164958282098839781e-03,-5.643893731989149676e-02,2.715494199196123726e-02,-1.175677772923334249e-04,-1.808459267708934989e-02,5.523333549499511719e-01
3.569154205596062335e-01,-5.213366721294501738e-02,2.534589921070552754e-02,6.438673073999978680e-03,-7.558008361820468812e-02,-2.211040726897673878e-02,4.004488885402679443e-01
3.537174294071382952e-01,-1.786890981311803350e-02,-1.838101318536491946e-02,3.077752485965494196e-04,-1.984973311429231481e-03,-1.918545111203304393e-03,3.718737661838531494e-01
4.576732103842847121e-01,-3.458626690992061548e-03,-4.445894247255102738e-02,-2.187559536905393787e-02,-1.464939663171783285e-02,-2.665825271660447054e-02,4.872797727584838867e-01
3.513928585348759515e-01,-1.154361729731903652e-02,-1.305285838511524577e-02,1.593269166402319897e-03,-1.806981023661991242e-03,-7.695086112900645717e-03,3.639615178108215332e-01
4.403055230983098922e-01,1.376914846806270853e-03,-6.560096787148014807e-02,2.423374505790310343e-02,3.426152672981836594e-02,-2.803475228058058960e-02,4.839257001876831055e-01
3.253001430494564250e-01,-1.786733267002071912e-02,-3.908168564094224862e-02,4.076550414139613302e-04,3.774643782221009805e-04,1.169970031152908372e-03,3.542584776878356934e-01
3.596210520860658177e-01,-3.867937892033804226e-02,-3.130688784731189278e-03,-3.319635037383730693e-03,-7.343787135263280669e-03,-1.114584217463389371e-03,3.820294141769409180e-01
3.469797522876288953e-01,-2.125165470973180981e-02,-3.953610755272390920e-02,9.616711135863344456e-04,-5.287241746595388626e-03,3.634323129417948322e-04,3.778209090232849121e-01
2.883009052463720856e-01,-1.271785028029895348e-02,-3.287886961280836462e-02,7.397151735596281183e-03,-2.702976458218671330e-02,4.467467930756115115e-04,3.153477013111114502e-01
3.542463500657201947e-01,-2.731759632461441822e-02,-2.562683270099946897e-02,8.284829755894226834e-04,-3.737616998902634248e-03,4.054013080389013562e-04,3.807797729969024658e-01
3.528915683787273716e-01,-3.103121940443276383e-02,-2.566390559295567142e-02,1.912132938777870526e-03,1.609411552626846022e-04,9.706461894612700538e-04,3.812856674194335938e-01
3.210217438404099899e-01,-2.554954837597145367e-02,-2.634400858742041995e-02,1.319311842904427774e-02,-1.395293265757508241e-02,1.048998206895065954e-02,3.490329086780548096e-01
3.436256502533198698e-01,-2.687415181109287232e-02,-3.569286722890294139e-02,5.194107987963421900e-03,-7.390150323094689735e-03,4.635059458967197982e-03,3.753990232944488525e-01
3.624682412029526235e-01,-2.595614775769491955e-02,-3.557071553294363642e-02,-1.388488607405502159e-02,6.997263717957772321e-04,4.063912677573971793e-04,3.940568566322326660e-01
2.902595357008901367e-01,-1.807239075222280555e-02,-2.504812787707925981e-02,-1.858818437903796269e-04,-1.818787368152490966e-02,-9.127539227271204078e-03,3.138638436794281006e-01
2.332481560161704659e-01,-9.580708592813583224e-03,-1.142472708563833927e-02,7.801261574131346938e-03,-1.565024909639097309e-02,6.077260975336402048e-03,2.458560764789581299e-01
2.152844369285265846e-01,-7.860143595702195896e-03,3.286220352273633294e-03,1.534116710310224133e-02,-7.505086197797333422e-03,3.287236456786217162e-03,2.198589146137237549e-01
3.648403757419005355e-01,-3.143806247210292892e-02,1.795326964556032134e-03,4.238884023339857879e-03,4.410218937950418326e-03,1.340987767443031775e-02,3.816059529781341553e-01
1.730860103945153772e-01,4.172371153137149902e-03,3.586788191025702677e-03,1.201477705707112986e-02,2.024837388130944563e-02,-1.565798609163580879e-03,1.740732192993164062e-01
1.350072637984075230e-01,-5.228682732177727943e-02,-3.155034746601979162e-02,8.223278040791100196e-03,-1.833299483115326256e-02,-5.368720462890122502e-03,1.814466565847396851e-01
2.042618769059356965e-01,-3.995639071668749542e-04,-4.324739451983500294e-03,5.191850610105555944e-03,-1.947644400465523701e-02,3.757175542154895490e-04,2.095813155174255371e-01
2.495298561408789140e-01,-6.426986127569478402e-03,-1.332263420288375133e-02,-5.747474311271414922e-04,-2.100040885902845073e-03,-1.347551513261774662e-03,2.595112919807434082e-01
1.814409263227767521e-01,-3.677050454835906201e-02,-1.484111440562872752e-02,3.183467490639571573e-02,-6.551900401786840689e-02,1.630532688851400389e-02,2.450061887502670288e-01
3.721038641099621569e-01,-2.901147116632965539e-02,-2.254702669744398924e-02,-1.877903703343051546e-03,-4.605278831272020812e-03,7.729763720753995287e-03,3.982408344745635986e-01
3.416347446531777243e-01,-3.210372128813662740e-02,-6.733844322799720228e-03,-3.608590567527995840e-02,-7.132116756829171011e-02,3.859663776204359104e-02,3.930371105670928955e-01
3.502140006739322131e-01,-3.562734860166807960e-02,-2.529702603026684482e-02,-7.680905586212916775e-03,-3.311812790822622581e-03,-2.674221364027399434e-03,3.810849487781524658e-01
4.416917952305326467e-01,5.157317921259507720e-03,-4.086290892891059068e-02,-1.025358258164607017e-01,-1.813096647233397238e-02,2.821223229299648499e-02,4.976790249347686768e-01
3.393939594108018043e-01,-2.552110661230549971e-02,-3.660994030837416702e-02,-3.797122997125963392e-03,9.487101752606219216e-05,-6.187689062102443320e-04,3.706438839435577393e-01
3.555146670736401560e-01,-9.957746660464561472e-03,-1.688606494712971418e-02,-3.054381005285434093e-03,-4.481105256739509844e-03,1.095929845643499670e-02,3.695926666259765625e-01
3.590278055217883679e-01,-3.414139857705339454e-02,-8.277423121580612664e-03,-3.807839394600540106e-04,-4.281445234920585631e-03,1.456292243867674625e-03,3.809774816036224365e-01
3.341625900652057113e-01,-8.424874599869736080e-03,-2.759899511797456184e-02,-4.823679176452569384e-02,-4.417711891692412129e-02,2.445283482237223943e-02,3.727353811264038086e-01
3.590574990306059644e-01,-1.988545550973566667e-02,-2.777009276515263192e-02,1.099643299357525722e-03,-1.008566997051117469e-03,-2.367231369530194444e-04,3.829551041126251221e-01
3.557515864873296296e-01,-4.804137054678137009e-03,-2.718933081212465686e-02,-7.917154688999846141e-04,1.406077233361059577e-03,4.115329614779539812e-03,3.723321855068206787e-01
3.505694558128300553e-01,-3.141470859320769082e-02,-2.715677705429986322e-02,1.875721592004815728e-03,4.485688667621104278e-04,-7.428644149018805197e-04,3.798899650573730469e-01
3.546681811606050005e-01,-2.076180578367667340e-02,-2.484161618161270790e-02,-1.313402874944443475e-03,-2.382705062589988466e-03,1.503979618401955201e-04,3.775159418582916260e-01
3.600520310553126935e-01,-2.702563485009631949e-02,-2.852058346717364912e-02,1.291521030795022944e-02,5.990543563738707708e-03,-9.440197755525265395e-04,3.886138796806335449e-01
3.552872224353307296e-01,-2.430977156314470533e-02,-2.256392995071695995e-02,4.421484394283942349e-04,5.896214682828493717e-04,-1.269488980874595345e-03,3.787356317043304443e-01
4.602504632571463583e-01,-3.082966797774636114e-02,-2.881166666123224918e-02,7.920438631802576013e-02,4.802300311448851056e-02,4.742477873295694590e-02,5.221673250198364258e-01
4.159557284711747904e-01,-2.287765568803015737e-02,-3.010925400909950089e-02,-1.625166897880563066e-02,2.114881858092166125e-02,-2.337788765923419845e-02,4.467373490333557129e-01
3.535994674953075734e-01,-2.270610549266263711e-02,-2.372890786580400535e-02,-3.595046444181163817e-04,7.711099481045486390e-05,7.083143319449375017e-04,3.768205642700195312e-01
3.694233514200080948e-01,-3.348110418161973079e-02,9.665161405105926473e-03,5.262410024638296095e-03,-2.365148021687823923e-03,-1.813835846806886865e-02,3.845733106136322021e-01
3.629531961066971291e-01,-1.414916683264585973e-02,-3.452948749005421702e-02,1.838680754330945452e-03,-5.023316907328543354e-04,-7.899339298078185412e-03,3.879498839378356934e-01
3.641153109703789137e-01,1.663473687832650594e-03,-2.985707394742384557e-02,6.175526598339635626e-04,-2.620332959636385937e-03,-1.435648131961629777e-02,3.800389766693115234e-01
3.545894781294642861e-01,-2.686949710283523252e-02,-2.130274174687765698e-02,-3.306093525690351025e-04,1.448393262782743558e-03,-1.527633953893485714e-03,3.787242770195007324e-01
3.204792574697780672e-01,-2.409021267819844159e-02,-2.888722872168203448e-02,-2.065805574838343144e-03,1.424739759562670743e-03,6.379103421078812994e-03,3.471959233283996582e-01
3.171598735467888175e-01,-2.919287060607320128e-02,-2.349749938338777100e-02,-1.882538223445240702e-02,5.602815910723838930e-03,4.716758214977697684e-03,3.453174829483032227e-01
2.560697060036879469e-01,-1.473490175090554077e-02,-1.161248284520295659e-02,-7.556315757777776199e-02,6.295534980886763332e-02,-1.440869190549358761e-02,3.195960819721221924e-01
1.793548233888107024e-01,-4.163789401844714133e-02,-8.180719328278650282e-03,1.427606466027776105e-02,4.644948078939140079e-02,-2.384607577012775800e-02,2.266127914190292358e-01
3.541506359998156661e-01,-2.842627638490857755e-02,-2.474151964353016320e-02,-7.151345762310187121e-04,6.961693469040471094e-03,4.195714083147382878e-04,3.809415102005004883e-01
3.427480116123934328e-01,-3.929248265841983612e-02,-2.245474710345768399e-02,-4.682706737907720246e-05,-5.404336611245407406e-04,-9.612360226816314994e-04,3.739109635353088379e-01
2.045472238187550640e-01,6.953525856317296916e-03,-1.799831948249958069e-02,5.799426009750000000e-02,1.470426986069571160e-02,1.447064143141817139e-02,2.365650832653045654e-01
3.537899612767008151e-01,-2.843753793258399498e-02,-3.309993411167286292e-02,4.029182418341281831e-04,1.500133969231635554e-03,-1.470458906694599183e-03,3.845977485179901123e-01
3.030328021453135290e-01,-1.489241363932858331e-02,-2.972744771889543336e-02,-2.414361066971207402e-04,-1.702985004628989479e-04,-6.183362058928673979e-03,3.257727921009063721e-01
3.310321884733486986e-01,-2.821895222818390780e-02,-2.959803780054670597e-02,-7.290908157234524470e-03,-6.109772148054104859e-03,-5.077698968269750250e-03,3.604268729686737061e-01
3.528190034410068621e-01,-3.331723482372286882e-02,-2.890153462058225875e-02,-6.060591533139535929e-04,-1.094540140615649082e-03,-2.697360726342244806e-03,3.839819729328155518e-01
3.491294500544787627e-01,-3.729710534656999199e-02,-2.694204894928670102e-02,-9.887342315494878839e-03,-2.223617668341184152e-04,-2.262550087608978557e-03,3.817591071128845215e-01
3.041072220850408181e-01,-2.667390158989885185e-02,-2.204758892058386599e-02,-3.452742894821595604e-02,-3.574333034032198264e-02,-5.603176856343232946e-03,3.397214114665985107e-01
3.507520951903819739e-01,-3.347305949465759212e-02,-2.805401287724124115e-02,-2.676568511521477782e-03,-2.956873697763960814e-03,-5.004364408073420402e-03,3.817054629325866699e-01
3.273498409400423803e-01,-3.918229276058085575e-02,-1.686065804404549007e-02,1.629044677742232030e-04,6.382404616714746921e-04,4.020197187601431878e-04,3.558992147445678711e-01
3.609962752384028306e-01,6.815255479419690676e-03,-4.232596704291280432e-02,3.727679087254336912e-04,7.066229285304106988e-03,1.628611556921282389e-03,3.813425004482269287e-01
3.515191645221738548e-01,-3.746689328719332579e-02,-2.395149910413499339e-02,-3.726117110586103787e-03,9.387010497440332300e-04,-1.304968387477456037e-03,3.824721276760101318e-01
3.521019775484311998e-01,-3.079489210317357117e-02,-2.797497038515378565e-02,-1.962333316001263331e-06,7.409711013815877944e-04,-1.930742032621434031e-03,3.815115392208099365e-01
3.419991621559874129e-01,-3.897116760138227831e-02,-2.301395723262489312e-02,4.331303624112206032e-04,3.598974873871203816e-04,-1.079268133307978352e-03,3.732535839080810547e-01
3.427119912989672890e-01,-3.919086127893831040e-02,-2.222026220228962012e-02,-1.776446449903807887e-04,-5.492650906814080820e-04,-7.678917548492520447e-04,3.737103641033172607e-01
3.480313129233414959e-01,-3.708396098612420921e-02,-2.510826703478652444e-02,-1.493681620414146936e-04,1.721530554742252059e-04,1.279705116255197648e-03,3.792759478092193604e-01
3.527160484205126845e-01,-2.683642738152261509e-02,-2.819351504953535037e-02,1.491731277281016987e-03,3.090146025884037964e-04,-1.645849085458658823e-04,3.802421092987060547e-01
3.534016702633077101e-01,-3.052767612953002918e-02,-3.040333993338031893e-02,2.217221601745607892e-03,-1.752224402004240802e-03,1.840964975870903022e-03,3.839116394519805908e-01
3.571127380787193495e-01,-1.886843421457978787e-02,-2.488582059372640432e-02,-1.198683139516342573e-03,3.150088268142575958e-03,-4.441232038997269642e-03,3.791486918926239014e-01
4.889783074029361298e-01,-4.806682917387108955e-02,8.577695405037000231e-03,5.555495776474893288e-02,-3.241857000158097392e-03,-1.809266384242155107e-02,5.210355520248413086e-01
3.797301580181479119e-01,-3.811262146623470293e-02,1.834752099112987866e-02,-1.199944380631330458e-02,8.179717282825663474e-03,-1.574661668224273947e-02,3.944178223609924316e-01
4.337089888918707614e-01,1.636082257696533371e-02,-5.788214252777848512e-02,4.967311115937222271e-02,-6.075835292531040106e-03,-1.834947606022568206e-02,4.681877791881561279e-01
3.752849213205824430e-01,-3.221354974050502640e-02,3.267966554835549653e-03,2.180957377885172233e-03,-2.744686470686411809e-03,-1.943788861280558444e-02,3.924610018730163574e-01
2.261505965916645322e-01,-9.559747474620031160e-03,1.886560584833671395e-02,-5.882703538662109599e-02,-1.011126981290241117e-01,2.919381231260942400e-02,3.054132461547851562e-01
1.872466126362442307e-01,-1.609817292033359493e-02,1.752226556239004640e-02,6.943170864013250079e-03,-6.086699531898483173e-02,-5.257491151989817854e-03,2.167598158121109009e-01
3.489681424545204025e-01,-2.432938105045620580e-02,-3.596569780761635360e-02,6.287906814913057398e-03,-9.494193328383599556e-03,4.237402946188912299e-03,3.798330724239349365e-01
3.583080463171637864e-01,-2.803288547925636420e-02,-2.193539979892658587e-02,1.328945916846463807e-02,5.612356360696588685e-03,-1.017881029546915603e-02,3.845463991165161133e-01
2.988243531369324524e-01,-1.372407297755416644e-02,-2.891212099648576839e-02,-7.614153586174957121e-04,-9.408163442449454014e-04,4.425468684009733512e-03,3.205110728740692139e-01
3.006636610782181807e-01,-1.687468016349939759e-02,-3.019075423311676221e-02,-1.000480689971401140e-02,-7.716104236015150779e-05,-6.419399387851795064e-03,3.250541687011718750e-01
3.099070811225947963e-01,-1.723975134039672230e-02,-3.371532759376730248e-02,-7.288744651919367226e-03,-7.428345133532514299e-03,-5.692091572156653470e-03,3.363161385059356689e-01
3.091986224832532493e-01,-1.662120954792249694e-02,-3.047990930276456290e-02,2.256717139206406916e-03,-3.551246614399718171e-02,-7.089130143491663774e-03,3.388443887233734131e-01
3.339161015426156953e-01,-3.343771164904729698e-02,-2.634248038167147365e-02,-1.126820689831670337e-02,-3.642845358975295260e-03,-8.598737353717239920e-03,3.647399842739105225e-01
3.622741154700105382e-01,-2.836745614274094329e-02,-1.915254966116528013e-02,2.318956009110436853e-03,-5.430650878639912971e-03,3.343220975742326826e-03,3.862954378128051758e-01
2.796667102504111213e-01,-8.659722725096380413e-03,-2.458134335291989325e-02,-9.171126601255538344e-03,-1.766458913661674360e-02,-6.207349916322000075e-03,2.987980842590332031e-01
2.956533672885786612e-01,-4.027464927174406739e-02,1.727569829005612401e-03,-5.127789911331142453e-02,-7.785145657445853573e-02,3.346459169227499614e-02,3.604615926742553711e-01
3.092881077503779053e-01,-1.324325963971942355e-02,-4.447738761560104948e-02,-7.209710529126450718e-02,-1.996390545465069263e-02,4.526028331124425097e-02,3.714985549449920654e-01
2.803584761450202967e-01,-1.482292206943347512e-02,-2.436130663245739125e-02,-5.008985608364384563e-03,-1.407253137235055587e-02,-9.104881733161852841e-03,3.015902340412139893e-01
3.099586647997888411e-01,-4.254050238023038277e-02,3.049092033491629383e-02,-6.865914240002374616e-03,-8.611004043292211363e-02,1.012924915682168053e-02,3.557243049144744873e-01
3.533616481346575355e-01,-2.757750527296468079e-02,-2.680946584009721856e-02,1.345176738576688697e-04,7.445541341016930208e-05,3.590581973506172834e-04,3.805563151836395264e-01
3.551363900103257087e-01,-3.014968059819841950e-02,-2.755325834229788162e-02,-1.243598244260525111e-04,-9.655291784870011305e-04,-1.392673974251737315e-03,3.840057253837585449e-01
3.554776644521340789e-01,-2.752756787020807505e-02,-2.765552352803732350e-02,6.116998055497202980e-04,6.794102807208102874e-04,9.648709176727300058e-07,3.830724954605102539e-01
3.549175089329040800e-01,-2.760498735792227265e-02,-2.833161808864334552e-02,6.205469766935331564e-04,1.232056218163209539e-03,-1.147734211709178372e-04,3.828938305377960205e-01
3.542578296715410135e-01,-2.802019341121733675e-02,-3.379578388864931671e-02,-7.502295847968814277e-04,-5.217561276605114581e-03,-2.669962045497993944e-03,3.853342235088348389e-01
3.482072907492067548e-01,-3.339266184753988953e-02,-3.327530973213252419e-02,-4.051999300170132379e-03,-3.320049792582095705e-03,-7.029446757783763648e-03,3.818433284759521484e-01
3.618183542739072944e-01,-3.552649973603613787e-02,1.629810121524954969e-02,-2.274677181607209428e-03,-1.292454861176568813e-03,7.927467500765230171e-03,3.744136095046997070e-01
3.550677103975227733e-01,-3.000876194397925079e-02,-3.143513161302566306e-02,-2.559018738468139755e-04,1.345768737922197530e-03,-5.617945605516021061e-04,3.858001530170440674e-01
3.456647933341031598e-01,-3.831512419221203003e-02,-2.381434836950169220e-02,4.160388008671372863e-04,2.756294444127649432e-04,3.661609781303897578e-04,3.769403100013732910e-01
3.503197218316582151e-01,-3.626632176080113457e-02,-2.475778732538946869e-02,-2.253880171000754128e-03,-7.122462621369263528e-04,-1.804732159778038103e-03,3.809970021247863770e-01
3.609755259228348834e-01,-1.027648485868146166e-02,-3.268370578426441075e-02,-7.975271153778943495e-03,-1.856205670479469782e-03,9.300236221688501677e-04,3.832135200500488281e-01
2.454702318922563353e-01,1.804571140841730592e-02,-3.699015738523842023e-02,-6.105265789973203516e-02,-4.348965229091304296e-04,-3.871011797829302346e-03,2.801699042320251465e-01
3.615842302582709666e-01,-1.840870150160192620e-02,-3.058814791803307620e-02,1.110137979377152050e-03,-4.440213087407808568e-03,-3.494637461475561847e-03,3.863554596900939941e-01
3.644649151695221190e-01,2.935245752607812397e-03,-3.117029111176380929e-02,-5.465870884450542595e-03,-1.585356738440742153e-03,8.452574490309715596e-03,3.801428079605102539e-01
3.485963108474351424e-01,-3.982949639459912317e-02,-2.141424059783084144e-02,-3.739489862727611927e-03,-1.154091132371152118e-03,4.628788713926941219e-04,3.796147406101226807e-01
3.659240735089231977e-01,-7.164005629870240366e-03,-4.737517897463372485e-02,-4.483354496233983751e-03,2.942793155759964793e-04,6.304744373891188122e-03,3.949604630470275879e-01
4.284897964422330063e-01,-3.766877837642101934e-02,-2.194392258049393529e-02,-5.192334152938701819e-02,5.951451768869758796e-02,-4.298327812693109734e-02,4.842287898063659668e-01
3.621242173587387869e-01,-3.925554809331280315e-02,8.446186515043405119e-03,5.153107739983513354e-03,4.272712806695872986e-03,1.002385411955947821e-03,3.799633085727691650e-01
3.503366267642975540e-01,-2.597243459795639531e-02,-3.212238997670885388e-02,9.558224748179415271e-04,-1.411525984959593550e-03,-9.253438637737940479e-04,3.794362843036651611e-01
3.669551430991599972e-01,-2.881430915449706420e-02,1.762592833239040591e-04,-3.878988637912592422e-03,1.609071139805684503e-02,-1.714840384587691668e-02,3.843232989311218262e-01
3.621307212301746459e-01,-2.887729493572582795e-02,-2.564335345229354357e-02,7.297276155815512566e-05,1.282402704915827120e-02,-1.986676885016848589e-03,3.900493085384368896e-01
1.826742194427977972e-01,-2.602879796171975180e-02,-8.249136967901873896e-03,-5.355424547651808226e-02,-4.172139515021779099e-02,1.750828051530564991e-02,2.343250215053558350e-01
3.501905987442974766e-01,-2.816009805812530464e-02,-1.284913023620146144e-02,-1.413168987116832521e-03,2.061828447197152931e-03,-2.671538323010224899e-04,3.709578514099121094e-01
3.506817311348485733e-01,-3.187089769285775254e-02,-1.306696612858743167e-02,2.100569867009672003e-03,1.117449097210548165e-03,8.986742463699606961e-04,3.735318183898925781e-01
2.870779439763867513e-01,-1.100190211752996583e-02,-3.334848214735611216e-02,4.740823733852578444e-03,-2.792382529503381616e-02,-2.975887742325060664e-04,3.137179315090179443e-01
2.363354965626636994e-01,-1.230963413956577546e-02,-4.459814085959384888e-03,-2.273492496639549498e-02,-1.543813371407985529e-03,-9.726494783098399953e-04,2.479814887046813965e-01
3.467509301636601537e-01,-2.232690987773153224e-02,-3.806534957771420813e-02,-3.066272610612840442e-04,-5.082321045372964821e-03,-1.063683496371098033e-03,3.773009777069091797e-01
3.553038675226008469e-01,-2.591109544920025543e-02,-2.683805038919034880e-02,-1.507220551150551500e-03,2.278027761326920086e-04,-1.903965909330125497e-04,3.816885650157928467e-01
2.631727052458783800e-01,-2.323787769460100572e-02,-2.677697899522434033e-02,-2.195332451576040983e-02,-6.161506647989699326e-02,-9.907898153197761820e-03,3.101399242877960205e-01
3.805818274441701288e-01,-3.764508145016354224e-02,2.695423619880177313e-03,8.258808504783662213e-03,-2.533604141945833971e-02,3.057235035228144174e-02,4.057141840457916260e-01
2.855522191091312001e-01,-1.782977011159120329e-02,-1.655073430799507139e-02,-2.117977821479233920e-04,4.779967595797435676e-04,6.360485446705200531e-03,3.029462397098541260e-01
2.709730094246274312e-01,-3.777403388381014859e-02,-1.857842315971830471e-02,-7.258279305738510323e-02,7.526544579631712362e-02,-4.443294222945549932e-02,3.584535121917724609e-01
9.750528311471268195e-02,1.765069035319598995e-02,-2.029432893337630717e-03,-7.547500279489503805e-02,-1.185758953757829609e-02,-1.185550785834585397e-03,1.607826650142669678e-01
2.751877684590314788e-01,-1.143825065254479301e-02,-2.440160704405799907e-02,-3.564730100175796806e-03,1.957709109649343263e-02,2.783070610156734501e-03,2.953799366950988770e-01
3.000262395217915268e-01,-2.880734172431531626e-02,-1.813390622875556135e-02,-3.510534973564158052e-04,4.843362993652058565e-03,6.315041269758713167e-03,3.239229023456573486e-01
1.273319413985825876e-01,-6.909025211399399957e-02,-4.669853864573781516e-02,1.151363655497202217e-02,2.165156513568780583e-02,1.600826666913369306e-02,1.930225193500518799e-01
2.884759130226756119e-01,-3.098275845197473455e-02,-2.177228385179633130e-02,3.956179049528543712e-02,-3.449800602634974650e-02,6.450421996305263569e-03,3.280043900012969971e-01
2.839393896239459369e-01,-2.057965548136406198e-02,-1.378323248560876790e-02,-4.312978405785813929e-02,-1.113684269382216388e-03,2.851553662906403976e-03,3.103498816490173340e-01
3.560927167506387492e-01,3.979913116906624859e-03,-3.000582393344017329e-02,1.411534684315456176e-03,3.259662974940211329e-04,-7.124296823590031691e-03,3.704913258552551270e-01
3.373262133201904711e-01,-3.116232704991347968e-02,-2.405868959594531509e-02,-5.255501373723913891e-03,-1.999241189465645122e-03,-5.113998126083788183e-03,3.652259111404418945e-01
3.542371254920983481e-01,-3.051350564161850465e-02,-2.703515412679097230e-02,-8.887369585401706817e-05,-1.170472933403279674e-03,-5.398421022005857892e-04,3.830298483371734619e-01
4.112417411200066653e-01,-5.088242656043739931e-03,-5.230874694451487228e-02,-5.949689009995462116e-03,6.973059022870672571e-03,1.359354668693300502e-02,4.427484273910522461e-01
3.599148587966788937e-01,-2.300155102443890431e-02,-4.329206978539243411e-02,-4.882975383726279733e-02,-3.012953796597935691e-03,5.508643287199112282e-03,4.025885760784149170e-01
3.544599985403453779e-01,-2.693641002480054447e-02,-2.716215287516440813e-02,-4.435676768936831250e-03,-9.692772200479001996e-04,-7.026076553572092051e-04,3.815923035144805908e-01
4.795002315107813051e-01,1.433098401970167579e-02,-6.520953977932322787e-02,-4.124664290129519822e-02,1.386901119977912086e-02,2.609481028842847855e-02,5.171388983726501465e-01
4.004363647055402819e-01,-3.580112013008868166e-02,-3.195288435495929891e-02,-2.391951983681353880e-02,-2.010212331447746095e-02,1.550061782858100194e-02,4.385073781013488770e-01
3.566785648997177760e-01,-1.945206124038786899e-02,-2.941972322628141900e-02,-1.303564264717932235e-02,-1.580976904762388920e-03,1.915747798896706364e-03,3.819044828414916992e-01
4.132886643937444537e-01,1.075212026941441135e-02,-5.530854978978744230e-02,-2.096765269101167478e-02,7.676893337972603634e-03,2.170131193141538323e-02,4.426060318946838379e-01
3.380569035570766823e-01,-3.825819392627233251e-02,-2.015041977486506375e-02,-5.692306283090060350e-03,-1.636356890751363997e-03,-4.013444620227216500e-03,3.678046762943267822e-01
2.808357275090221927e-01,-2.810913800692402265e-02,-1.269891801256491093e-02,2.065124643456003103e-03,1.846991352213184917e-03,-1.248897425851547933e-03,3.015811741352081299e-01
3.487526934930700317e-01,-3.707061652220977610e-02,-2.221353084899560515e-02,1.435634916949617493e-02,9.510884838996216516e-04,5.465405599173614806e-04,3.794339001178741455e-01
2.285609851309811646e-01,-4.949604777238630904e-03,-5.837254139422404231e-02,5.666751626524983709e-02,3.631830636541236168e-02,1.513656268975918304e-02,2.900587022304534912e-01
3.442959348483628501e-01,-3.097151933111205735e-02,-2.255593364288754898e-02,1.321647260798148715e-03,1.708258832609091740e-04,9.245500731882162326e-04,3.711418509483337402e-01
3.487980945091368468e-01,-2.287281583485262226e-02,-3.914211528506605919e-02,-5.194928722541168820e-05,3.143506748321670159e-03,1.350923160580091726e-03,3.801130354404449463e-01
3.153547375631545191e-01,-2.008125326713064429e-02,-3.525721958032582148e-02,1.277747521147736052e-04,9.120681549134101312e-03,-4.980560234196827925e-03,3.437472879886627197e-01
3.536188862259909693e-01,-2.376263100992762056e-02,-3.746733143267566568e-02,-5.103548884128085699e-04,1.338794770193231162e-02,-3.414412864686551443e-03,3.851622939109802246e-01
3.726773823438762623e-01,1.924745123473831088e-02,-4.579139424452643992e-02,9.500476853169008418e-03,4.914805500721682388e-03,-4.153991163071375954e-03,3.905437886714935303e-01
1.728459692832320649e-01,-2.259723097383471713e-02,3.948067842424440865e-02,3.525720123960721791e-02,9.022292468857091852e-02,1.783157544142934328e-02,2.429457604885101318e-01
3.652050536810467207e-01,5.732183927295853021e-04,-3.147253285797219080e-02,-2.088566773079933490e-04,-2.578909326630666847e-03,-1.377611582039283029e-02,3.824364542961120605e-01
3.903034197405177430e-01,-4.586896552468416877e-02,-2.581433540337285670e-02,2.283190867048708397e-02,4.312555847578571772e-02,9.117977910800715430e-03,4.350793063640594482e-01
3.597860351723849992e-01,-2.932093353807257996e-02,-2.789491983658468066e-02,-1.521437971571100445e-02,1.374139592791116891e-03,-2.454090825156495675e-04,3.892963826656341553e-01
3.467689558294462793e-01,-3.976530706814329630e-02,-2.185579406142557080e-02,-2.941921318489553426e-03,-1.108999069224220159e-03,-1.367547806842919235e-04,3.779372274875640869e-01
3.558534841095644108e-01,-2.990483406631805341e-02,-2.746394577563845973e-02,-7.812426942776045519e-03,-3.113535922663705161e-03,-1.967709327556265743e-03,3.848345577716827393e-01
3.065978871285356400e-01,-3.594045095949160995e-02,-1.352551373918677025e-02,-1.017797827050355257e-02,1.408256594001981374e-03,1.587580220193063763e-03,3.323872089385986328e-01
2.553491958203673029e-01,-2.159288851086885175e-02,-9.549677466741929299e-03,-1.736493193872256507e-02,1.186228384639511496e-02,4.299508245953924390e-03,2.736583650112152100e-01
3.129833065125523506e-01,-3.267612526688332131e-02,-1.795904123891337023e-02,-1.021400656721545459e-02,-4.982645583349149324e-03,-6.238525886482518441e-03,3.392847776412963867e-01
3.188866726285968789e-01,-8.752343012046193138e-03,-2.446320006294158689e-02,-8.057491718314567508e-03,-9.180103004176806691e-03,6.371340025546500321e-03,3.366170227527618408e-01
3.661572882038866550e-01,3.667662773935459475e-03,-3.801815761699023355e-02,1.429927935853998397e-02,-1.080489724119291887e-03,-8.483334297591235001e-03,3.861086964607238770e-01
3.245994601583578887e-01,-3.685445936087192176e-02,-1.328569927019415675e-02,-9.382317536218109238e-03,-2.012566940517003609e-03,-6.382132132848210076e-04,3.506605923175811768e-01
3.545527372694385893e-01,-1.582326680810564046e-02,-2.341293426867352423e-02,-2.788697147604639152e-03,-7.346587689115289697e-04,-9.040617925342496562e-04,3.742651641368865967e-01
4.076934250611065624e-01,8.730685980897490150e-03,-5.191342285608813167e-02,-2.799141430941206113e-03,8.811376385462499697e-03,-9.269291160222375980e-03,4.330795407295227051e-01
3.638215468125417518e-01,-2.087019334544804039e-02,-2.229374899023128798e-02,-5.416225251324711248e-03,9.757230503413109358e-04,2.369286428808934156e-02,3.877013027667999268e-01
3.602304427892139005e-01,-5.167857900171879404e-03,-3.604315530488508279e-02,-7.229516510078333805e-03,7.816283490399733884e-04,1.356545953951869554e-03,3.819884061813354492e-01
3.543011812188288645e-01,-1.374780326171609612e-03,-2.661317773362487094e-02,-2.655419498324912159e-03,4.815792491464472797e-04,-6.666996483921040946e-03,3.691534399986267090e-01
3.543667718358607388e-01,-1.837791536783478508e-02,-2.714691049951484247e-02,1.616182501510368252e-03,-3.563079617370239378e-03,-1.107003254477105037e-03,3.772713840007781982e-01
3.555060622125621461e-01,-2.615599876567320514e-02,-2.438699818686235199e-02,4.821797154797735239e-04,-9.535079654846361288e-03,3.447819280429233191e-03,3.811863064765930176e-01
3.545338380226713548e-01,-2.755772253781679781e-02,-2.688057462366102990e-02,3.521683809479457701e-03,-7.214930609829401861e-03,1.029794223580636752e-03,3.820107877254486084e-01
3.076308978072270217e-01,-1.271113798803748252e-02,-3.434826167441112910e-02,3.641120861025070980e-03,-1.514582516935070525e-02,1.426742240716597420e-03,3.327950239181518555e-01
3.553166693676435561e-01,-3.033562670131276229e-02,-1.546034065342880015e-02,1.672390399537462304e-03,3.303422828831614755e-03,1.211077333103878322e-03,3.784941434860229492e-01
3.500854651443868759e-01,-2.768285148144816743e-02,-1.259094557587073226e-02,1.404059587381109283e-03,9.811982200526774348e-04,2.876418680043791188e-03,3.704983890056610107e-01
3.543111395805440544e-01,-2.914209463786263110e-02,-3.105070221514791284e-02,6.983162840276153785e-05,-1.173454330661672946e-03,-1.016730559142606325e-03,3.844205141067504883e-01
5.185666873913347130e-01,9.642200453675142668e-03,-5.938289052365963716e-02,-4.173990296308260906e-02,2.195931022784248024e-02,1.801606647594802824e-02,5.536643266677856445e-01
1.921909941869829885e-01,4.155102017860401453e-03,3.771456592439187405e-03,-1.069326964032983954e-02,-3.651966804993878393e-03,-5.911068062265622787e-04,1.892455518245697021e-01
3.436484123459871420e-01,-4.004022783515373551e-02,-2.125640057714733855e-02,-4.780775152991755461e-04,3.731552744590610699e-04,-8.003148759947115512e-04,3.746540844440460205e-01
3.139453493774601034e-01,-3.715254243491239450e-02,-1.580340099089198869e-02,-1.178826619462256323e-02,-8.032456135229775612e-03,-4.238482355975846903e-03,3.418979644775390625e-01
3.364181112901845627e-01,-3.381809517882830574e-02,-2.042098434249320360e-02,-3.803142911320831626e-02,-4.173243469058634148e-04,-7.792788135125407536e-04,3.696427345275878906e-01
3.471100797396683979e-01,-3.964819903523089661e-02,-2.322343405909180203e-02,-2.185972526702163223e-03,-1.010838476898406847e-03,1.011344691433743335e-03,3.788400590419769287e-01
2.669791457143820823e-01,-7.771856637213955810e-03,-2.306166948837924668e-02,-5.534466315861017068e-03,1.876771042544508883e-02,4.413961191445320634e-03,2.848329544067382812e-01
1.667753246459637295e-01,2.777971921807703692e-03,5.851503316243414354e-03,-1.100921747814700459e-02,-9.322260355796644499e-03,-3.673219874521733378e-03,1.645154356956481934e-01
3.314164424692773170e-01,-3.992028610810258171e-02,-1.710768171743623500e-02,-1.225234599827656513e-02,4.286499550080909680e-04,-6.840590538643141500e-04,3.610990643501281738e-01
3.547689561096260547e-01,-2.928439808359192820e-02,-3.032665158426867125e-02,4.615723608026867097e-04,6.104530138583445439e-04,1.350971711358723952e-03,3.845849335193634033e-01
2.878449192350001073e-01,-2.947181999191150759e-02,-2.080859558176337276e-02,-1.928184944878956128e-02,3.955135335599478663e-02,9.858182535807859942e-03,3.226698338985443115e-01
3.563644491014912874e-01,-1.911745762759570200e-03,-2.602245566831254409e-02,-1.432715194585080024e-03,-9.652172882479647612e-04,2.451045939346415542e-03,3.709560930728912354e-01
3.474746799923338902e-01,-2.780121764429235864e-02,-3.101996161088013682e-02,-2.307258836711365522e-03,4.175831807960789168e-04,-4.633426726765544967e-05,3.769174814224243164e-01
3.649009682532015630e-01,-1.499500821441759890e-02,-1.758374470251305999e-02,-2.212330538812646175e-03,-2.012292421144973222e-03,1.589898844432489911e-02,3.822254240512847900e-01
3.605734374992736746e-01,5.226554791043336312e-03,-3.418667468803310294e-02,3.937231934518749081e-03,-1.351426905095750274e-03,2.381309124347219877e-03,3.766950666904449463e-01
3.638608502110963205e-01,-1.713299559775449676e-03,-3.398166898480975417e-02,-1.468186289521613078e-02,-1.909982072209336773e-03,6.856506044267007653e-03,3.837718665599822998e-01
3.574437244529738988e-01,-1.608055239697725458e-02,-1.568777788904665571e-02,1.764190316662654114e-03,3.096884040980106296e-03,9.501251931085851268e-03,3.737415671348571777e-01
3.447832236544394191e-01,-3.259883664189877628e-02,-3.064202927956091727e-02,-2.343384503045159569e-04,-1.261128116432362481e-03,4.148302120441808849e-03,3.764826059341430664e-01
3.522889311680332813e-01,-3.421145073768827594e-02,-2.892439717199804528e-02,-1.049860985900033386e-03,2.124247988523406258e-04,1.321472053038770392e-03,3.838954567909240723e-01
3.546392420330956030e-01,-2.973203608259986086e-02,-2.750207846652255594e-02,8.331087294361637537e-04,8.365440828249374929e-04,2.860082661854626454e-04,3.832669258117675781e-01
3.551473846104238885e-01,-2.803946657656769537e-02,-2.757788842452338351e-02,-1.589156235436388039e-03,1.023759778834948961e-03,2.111522078735004635e-04,3.829704523086547852e-01
3.537952185091585156e-01,-2.434049769550025721e-02,-2.423359824502682724e-02,-5.446031265189772100e-04,-1.081182039131848779e-03,-1.758142847763150777e-03,3.781003654003143311e-01
3.541222152937361645e-01,-2.714080247306380200e-02,-2.753595165715577719e-02,-5.098482203995911843e-04,1.986368210113386833e-03,-7.200852918279530531e-04,3.814793229103088379e-01
3.643022739711253011e-01,-2.445897363675506031e-02,-3.372520056560829316e-02,1.471782285860833567e-02,2.845582709089198095e-03,-2.061656834725613101e-03,3.943480849266052246e-01
3.553508100516493684e-01,-1.662730071012627486e-02,-2.876381669469749158e-02,-4.258588763533644080e-03,1.324449143099375994e-03,-2.719596251825700389e-03,3.783006668090820312e-01
3.439495720608308216e-01,-2.606275962714602046e-02,-3.133551816691640401e-02,9.438870274991173741e-04,-2.543983563855524432e-03,1.964193671862761968e-03,3.727218508720397949e-01
3.621818318845532736e-01,-2.859172202717938371e-02,-3.078578686075980619e-02,-8.958496830637374675e-03,-2.637644883771603829e-03,-1.100997153118845337e-03,3.922135233879089355e-01
3.507339259737224380e-01,-2.691808022373293197e-02,-2.968164561470956753e-02,-7.941501317920208504e-04,-7.404646591208852895e-04,1.066322617259575457e-03,3.790505230426788330e-01
3.536300357085704338e-01,-2.506270774441113347e-02,-2.198972764323975371e-02,8.327733195188294487e-04,3.181586891626318270e-04,-6.522453233643149204e-03,3.773379623889923096e-01
3.025890702396554222e-01,-1.776063176909717378e-02,-2.922100724404497196e-02,-2.175430184301658382e-02,2.372322633538917133e-02,9.691651959068499009e-03,3.313857316970825195e-01
3.647012573284408310e-01,5.549275396450559228e-03,-3.947232605778949743e-02,-1.291786418959431706e-02,1.366411423446078867e-03,-1.219877109601326810e-05,3.843083381652832031e-01
3.835129425535519498e-01,-3.157072467884020073e-03,-4.546727818698884094e-02,-4.372223452501551588e-02,2.229985997804677725e-02,-4.337959093173698877e-02,4.248953461647033691e-01
3.621105097538051543e-01,-6.510462638063208018e-03,-2.813843038105379168e-02,-8.415098607017668098e-03,1.478990541146986068e-03,-8.289067030778730916e-03,3.804560899734497070e-01
3.533243767161378113e-01,-3.102906457075715885e-02,-3.549378311379761120e-02,-3.455445150291642110e-04,-3.446729973255561476e-04,1.926506022842098143e-03,3.866204619407653809e-01
3.529250724984291931e-01,-3.038106378861440970e-02,-3.311576130089033398e-02,-3.453563864842837091e-04,-3.443329899609360169e-04,3.093902034622708391e-04,3.846820890903472900e-01
3.548246369815042933e-01,-2.978011992050855206e-02,-3.387055173003944430e-02,1.117212538519499199e-03,7.238079346772471976e-04,9.823559518819015030e-04,3.866768181324005127e-01
3.512843412978799984e-01,-3.278324587365302745e-02,-3.120589345671465065e-02,-1.214128605121654527e-04,2.792913834593040569e-04,2.119672180525400147e-03,3.832992911338806152e-01
3.558125641828274732e-01,-2.631373019899491128e-02,-2.670789694666098057e-02,1.663938257622346855e-03,5.366010167288428603e-04,1.563162240652216301e-04,3.823356330394744873e-01
3.530907883346264264e-01,-3.544115874623587903e-02,-3.116687869763012930e-02,3.730032084808932542e-04,3.297290250539790875e-04,2.069857672602069560e-03,3.864301443099975586e-01
3.541741066047292552e-01,-3.499567421501120768e-02,-2.767158808730124653e-02,4.065248942665036780e-03,-1.513960042467228694e-03,3.170118190082195624e-03,3.856722116470336914e-01
3.484106875459695440e-01,-2.763262848092115642e-02,-3.516640148748251260e-02,1.500745406163965468e-03,-1.447978517776576761e-03,2.590807262319104898e-03,3.799099028110504150e-01
3.618026953025580417e-01,-1.632134602455642680e-02,-2.680186656055313921e-02,1.554653784568625586e-04,-1.280452016087836858e-03,4.503361209683487583e-03,3.835575580596923828e-01
3.387511794909920937e-01,-3.793156201363584445e-02,2.366285238754385623e-02,1.579976771594518783e-02,8.149188737622586887e-02,2.762387738791244329e-02,3.813700675964355469e-01
3.001865585583077811e-01,-1.946055043655189887e-02,-1.227094270218141714e-02,5.287158776316458475e-02,4.632125733536670426e-02,1.217655108682121588e-02,3.394050896167755127e-01
3.536733595785478412e-01,-7.133422287655999394e-02,2.467509949993952623e-02,-5.263145370394745753e-02,8.575981464596116322e-02,-2.611661036169182076e-02,4.259873628616333008e-01
3.626500917194314111e-01,-3.138715962196353404e-02,-2.558912906837437773e-02,6.588257078548231862e-04,4.468953664125443342e-03,1.013722008150126728e-03,3.912526369094848633e-01
5.053663952901139567e-01,-1.945610138780395904e-02,-3.689713605604724722e-02,6.098111258303856586e-02,4.832876781848835512e-02,4.798854946913425762e-02,5.567477941513061523e-01
3.536717717028413088e-01,-3.194187778712578862e-02,-1.613569916451426667e-02,-3.321625814783599456e-03,-1.879052300671483784e-03,2.371601926771389323e-03,3.780386447906494141e-01
3.431881215076771907e-01,-4.075698829139198787e-02,-2.093565151971166216e-02,1.501360492431292768e-03,-8.194318572768381900e-04,1.338033152746394283e-03,3.744470179080963135e-01
3.389113743005567891e-01,-3.575332270146561187e-02,-2.562842248967950320e-02,-2.378270748561954863e-04,-1.622942461558551409e-03,4.888720419857515986e-03,3.698140978813171387e-01
3.424209305007470117e-01,-3.859689388918172148e-02,-2.250482908360065815e-02,4.507654305040437615e-04,4.209254212670521115e-04,9.314079372707449386e-04,3.732370734214782715e-01
3.471190506505713591e-01,-3.801951906175113360e-02,-2.505377375843942378e-02,1.200592050254565375e-03,-9.584936024830945957e-04,1.811223397223339984e-03,3.788444697856903076e-01
3.413717412762083403e-01,-2.958867762716255179e-02,-3.342179980220680302e-02,6.446726729115786689e-03,6.435416761626100088e-03,-7.548378001877313094e-03,3.734543025493621826e-01
3.395261771740908929e-01,-3.853166692437173801e-02,-2.197673172966133071e-02,3.004312820467516278e-03,-1.800695804606559545e-04,3.437899698866638508e-03,3.701428174972534180e-01
3.483762932901873222e-01,-2.978066392009379171e-02,-2.624634640998033119e-02,-4.574430453248328398e-04,1.354365231861994509e-04,-1.243740444950303939e-04,3.764032125473022461e-01
3.563097928214457588e-01,-2.671255475580233685e-02,1.172830830618309950e-04,1.750279895459651291e-03,1.290510005380207268e-04,3.104947381731890284e-03,3.703885674476623535e-01
3.641172115289492695e-01,-1.524662488153386009e-02,-3.782761756019906163e-02,-2.446556437853364407e-02,-5.326356790511149741e-02,4.039437471088544451e-02,4.101159274578094482e-01
3.650713287345152547e-01,-1.288556677063146250e-02,-1.661502469193024134e-02,-3.050294303009176006e-02,-3.808532001233819880e-02,3.172936521801025117e-02,3.929859101772308350e-01
3.571437008233430133e-01,-3.618257596213347860e-02,1.252853571351489337e-02,-1.172788237530783583e-03,-1.498689647860100950e-03,-2.899197147915382258e-03,3.714230060577392578e-01
3.573691929068591455e-01,-2.678475634837895747e-02,1.276200946322081364e-03,2.506826331624296793e-03,-3.336887758029892515e-03,-6.584105479431209829e-03,3.711660802364349365e-01
3.376593627240730977e-01,-3.030120605588529359e-02,-3.164182783890673312e-02,-2.132522217792568245e-02,-1.253131201261344172e-03,3.736766342646921559e-03,3.705414533615112305e-01
3.428699580335675123e-01,-3.640696593549630489e-02,1.480610847072144631e-02,-3.182676574386575363e-02,5.459754229372676404e-02,-2.716161553040916457e-02,3.758252263069152832e-01
4.224502855656748768e-01,-7.087067553172429757e-02,1.107535686756322413e-02,-8.806815541472919409e-03,4.154567913701975174e-02,-2.619367689121379975e-02,4.659658372402191162e-01
3.679380702273490900e-01,-3.799181022416708853e-02,7.347535500125457197e-03,-2.049423755096235842e-03,-8.748435195747070181e-03,1.018514221288104905e-02,3.859838545322418213e-01
4.231092384898063608e-01,-6.414375674988365139e-02,2.146447711058180330e-02,-4.339434312202384257e-03,3.821782748025234072e-02,1.248959455634236250e-02,4.560018181800842285e-01
3.953197615821932298e-01,2.827186502173649474e-02,-6.057522145641391909e-02,3.883484637825915242e-02,-3.178238959227493773e-03,1.011660424278489762e-02,4.243711531162261963e-01
3.253977938930208147e-01,-1.439765216086005828e-02,-3.687560513436299869e-02,-5.683100871533733160e-03,-1.214420122508685224e-02,-2.318711991568111249e-03,3.523628413677215576e-01
3.585692793446297877e-01,-3.683267496245595796e-02,1.446455051464679009e-03,-3.104272988010785966e-03,-4.069180305722887477e-03,-7.823853982065302748e-03,3.780668973922729492e-01
3.574238103796102406e-01,-3.314435720894678972e-02,-7.559571979942975029e-03,1.714837853656220345e-04,-4.309510074059671493e-03,-2.209320164302705416e-03,3.785180449485778809e-01
3.517044093140629935e-01,-3.699554117463085823e-02,1.780697150426965858e-02,-3.066343401925124279e-02,-8.945221167674086149e-02,2.728549770682332440e-02,4.023040533065795898e-01
3.770290506580827317e-01,-7.538785457717639416e-02,1.345418949074944637e-02,-2.814657832286009825e-02,-9.176664984201830799e-02,2.702865948359484127e-02,4.496799111366271973e-01
2.058744778431574329e-01,-3.486971164886305818e-02,2.142643012500678595e-02,-1.820296875028180189e-02,-9.762734571805178896e-02,1.987590331928015125e-02,2.799045443534851074e-01
3.707246331183781107e-01,-2.842772101717597200e-02,-2.107659234859415864e-02,-1.662536972013471497e-03,-1.775649672607285644e-03,4.997260488673841740e-03,3.956451416015625000e-01
3.567981618390888010e-01,-2.767007716942909701e-02,-2.600713856200645435e-02,1.762502894117270666e-03,-8.204579349739900274e-03,-1.281726785311576361e-03,3.839211463928222656e-01
3.614403834645004143e-01,-3.699485690212292455e-02,7.680311371717013502e-03,-3.032437620782178506e-03,-4.929416763859151979e-03,3.965249278156378690e-03,3.782776892185211182e-01
4.269954544235897709e-01,-6.324146523436938172e-02,2.140843111839405011e-02,-4.458033708146987364e-03,-1.914146531862500125e-02,-1.202352832178153752e-02,4.556224644184112549e-01
4.713688188552448421e-01,-3.738807409461472608e-02,4.184825953615550764e-03,-5.023883355394194450e-02,5.147770175928635672e-02,-3.130732990975052671e-02,5.078125000000000000e-01
4.228433512905343528e-01,-2.887280960779448069e-02,2.349796659442127122e-04,2.079256489993867862e-02,-1.451726620970928208e-02,-4.220411736797024388e-02,4.461155831813812256e-01
3.647997479469099469e-01,-3.310033769610828958e-02,1.045560169420250984e-02,-2.501828339380823135e-03,6.400561483540742093e-03,-1.268574230298923251e-02,3.788339197635650635e-01
3.932957761158984988e-01,1.722680823199196354e-02,-5.200797232970505446e-02,1.054348293558705733e-02,-4.954318523431412019e-03,-8.929506757925221097e-03,4.158181250095367432e-01
3.615384070407855477e-01,-4.169506135063671959e-02,2.482152276195112584e-02,-3.684407296095201095e-03,4.327447089708040366e-03,-7.719503841676775106e-03,3.748008012771606445e-01
4.251952605280872044e-01,-4.450236044056818385e-02,-4.749455777430411363e-03,-3.957458112518846306e-03,8.370540111398717953e-02,-4.677141240900538344e-02,4.807845354080200195e-01
3.629851668091189643e-01,3.178464121691912392e-02,-9.065908558431243214e-02,-1.158403582554876354e-01,3.820687476662236459e-02,-1.171035996637160344e-03,4.581266939640045166e-01
3.249638547022102864e-01,-4.689532192711287628e-02,2.391388627882132245e-02,5.503198394341465849e-02,-5.163619276035352063e-02,-2.388553474685248951e-02,3.684537112712860107e-01
3.616936750334187600e-01,-2.188724129142710639e-02,-2.962272999566750720e-02,-6.366549616002286499e-04,-1.411017492524287284e-03,-3.491878915691098376e-03,3.875630497932434082e-01
3.682420236991340023e-01,-1.646184779997483805e-02,-3.276430965633192471e-02,1.580658390766233800e-03,3.260153123739941913e-03,-5.164635771865279910e-03,3.932605385780334473e-01
3.109663178598170430e-01,-2.223136887470858469e-02,-2.827330233404165560e-02,2.676523410176327895e-03,-1.646720912140173894e-03,-9.203416169433204300e-03,3.366810083389282227e-01
3.152118467566342730e-01,-1.861716764841037097e-02,-3.396267973061917189e-02,-2.898114321585656137e-04,1.293971151486153319e-02,-6.285483366327287644e-03,3.426676988601684570e-01
2.228153989552698333e-01,-8.455186104147402459e-03,3.937565643576806940e-04,1.640466570570090279e-02,1.584410934063434093e-03,-2.102646079718223024e-03,2.287925332784652710e-01
3.489860803374749687e-01,-2.939167741881038021e-02,-3.504356135617189838e-02,1.307702351153602286e-03,1.945179942527598942e-03,-3.702482839997813489e-03,3.813106715679168701e-01
3.267465967661768445e-01,-2.143156247476685206e-02,-3.207439186983698787e-02,8.922030350883241798e-03,6.992840239671931774e-03,-8.650937813381805522e-03,3.544811904430389404e-01
3.586645335054126638e-01,-3.373314490224557649e-02,-1.477845300934929607e-02,7.433619106743012683e-04,-3.453220227173787495e-03,1.382044636745254637e-03,3.833283185958862305e-01
1.176915418203435953e-01,7.582687612634704533e-03,-1.129222908379162033e-02,-3.026051887038689464e-02,-1.197704373606574562e-04,-4.260266078807178522e-04,1.315530389547348022e-01
3.404173094056905935e-01,-2.038498401494975854e-02,-4.150720953383923995e-02,1.345638163508594163e-03,8.333614055312645941e-05,5.478716949479204039e-04,3.718222081661224365e-01
3.566386765732367792e-01,-2.775712972798610734e-02,-1.503222258778474929e-02,-2.440672745410267432e-03,-2.985935529801374538e-03,1.726006395300305274e-03,3.782647252082824707e-01
2.665281519951475109e-01,-1.395770701273948977e-02,-2.379325566032597372e-02,-2.340942213467702218e-02,2.685164075178053666e-02,5.248145759154703577e-03,2.922626435756683350e-01
3.517349731730506357e-01,-2.817573561945263538e-02,-2.703652444310619685e-02,-1.595462750866359289e-03,-9.073944784699701938e-04,-2.136377951703244979e-04,3.793558776378631592e-01
3.869082443237250590e-01,-3.830550844151348056e-03,-2.125896814746860986e-02,8.246209370961743446e-02,-5.814092078499195904e-02,-2.431380232656877444e-02,4.382979571819305420e-01
3.546262546622007128e-01,-2.755348862442191793e-02,-2.593479799801590158e-02,6.530425023490648954e-03,-1.215185413549071426e-03,-1.923724639162727277e-04,3.815466165542602539e-01
3.263765473996718680e-01,-4.053150346971337581e-02,4.813973645229813192e-03,1.930937462195100179e-02,-4.416872433895323996e-02,-1.532880185549900451e-02,3.573740422725677490e-01
3.436292616471481876e-01,-3.020395232151473763e-02,-2.947121297251528715e-02,2.117254220296043571e-02,-6.600945426500330268e-03,2.880928981845241876e-03,3.754708170890808105e-01
3.324286856165000748e-01,-7.108919136926933335e-03,-1.749623958184118311e-02,2.436427919695340755e-02,-3.058782429737726127e-02,-2.599311234794937642e-02,3.543094694614410400e-01
3.541282807468358329e-01,-1.745013180809612541e-02,-2.839927841688180687e-02,1.024988992539668103e-02,-1.198847367534563611e-03,-7.355818269117747263e-03,3.778103888034820557e-01
3.522336509430669116e-01,-1.975525463861510511e-03,-3.820221240663657092e-02,9.216647660140565163e-03,-1.863594857439549585e-02,-1.183695379102982399e-02,3.759327232837677002e-01
3.221601575246011984e-01,-2.929003731017376655e-02,-3.486006877087000078e-02,4.320735820780084030e-02,-2.152646658681569083e-02,-2.195704662233921925e-03,3.640207648277282715e-01
3.452836541414880389e-01,-3.059387354311174367e-02,-2.658704066092590357e-02,2.438109263651875441e-03,1.160468586546539206e-03,-2.525706495524067483e-03,3.739450573921203613e-01
3.552376025958026706e-01,-2.695283003587053972e-02,-1.815656557736666787e-02,2.722266030074929188e-03,2.574769060767709197e-03,8.280737225453131027e-04,3.779275417327880859e-01
3.533134948640639372e-01,-2.704329455548121208e-02,-2.396714705633024023e-02,-2.294135303061554682e-04,-1.145198223931419464e-02,1.692592972864751574e-03,3.793585598468780518e-01
3.664824610052597742e-01,1.086465530387131784e-03,-4.431489799932708529e-02,9.173692074606987906e-03,-4.819963111986536389e-03,3.854532490093116621e-03,3.905531167984008789e-01
4.204607839376699463e-01,-1.557680597217944718e-02,-9.996010739875382800e-03,-6.966436210860331435e-02,-6.878774702623295656e-02,3.704974880518407954e-02,4.696798622608184814e-01
3.570439252530184793e-01,-1.485908735372329370e-02,-1.923101593556306166e-02,3.101894525751013043e-03,1.369893913599307166e-03,1.196189565514605736e-02,3.747274279594421387e-01
3.586888542712597383e-01,-2.380546475074596380e-02,-9.781159050900045671e-03,6.122333098772070152e-04,7.172721603789717943e-05,5.081355626094168770e-03,3.757831454277038574e-01
3.890083554670962229e-01,-3.545224770818042326e-02,-3.949249217223116393e-03,-2.376327302041868639e-03,-1.417422922944097316e-02,1.114041066716747914e-02,4.108277559280395508e-01
3.438386056492191423e-01,-3.432943617778833056e-02,-1.858207938636535772e-02,-2.135986162886455847e-02,-1.397795035565175051e-02,9.282548709358802441e-03,3.735201060771942139e-01
3.830204196872453171e-01,-4.536732522596639838e-02,-2.196368828447370358e-02,-5.557967119897891384e-02,-3.356373916973739296e-02,4.693182704298458352e-02,4.396505653858184814e-01
3.502825047025412974e-01,-2.534727431544167575e-02,-2.926864012701493878e-02,-2.219257652215751112e-04,1.820870538847520464e-03,-1.861029949672422779e-04,3.776192367076873779e-01
3.001764324187955468e-01,-3.099740653784829880e-02,1.094875284776022917e-02,2.843269394865036159e-02,4.014922106705336863e-02,2.450576773004039394e-02,3.265070617198944092e-01
3.561213651564796301e-01,-2.943421375427388020e-02,-2.728601824601953330e-02,-1.140619398574101780e-04,4.309283242172695649e-03,1.166017238427579424e-03,3.845637738704681396e-01
3.253847437125825248e-01,-1.839760275349486274e-02,-3.953430328842721941e-02,-3.618469821629848710e-04,-5.974287042387817648e-04,9.938167380038691844e-04,3.548294007778167725e-01
4.249688267213435067e-01,-6.972226956147090093e-02,2.101446454812563869e-02,-2.546624512607672391e-02,6.476394331543557092e-02,-1.743957217772687442e-04,4.717992842197418213e-01
3.502753976196739116e-01,-5.148750521727676888e-02,2.988253618263329858e-02,-5.099979885022069663e-03,7.839685962903848726e-02,1.155922548348463190e-02,3.927596211433410645e-01
3.713526230677393070e-01,9.846249318761240987e-03,-4.286737788348291001e-02,-2.206568277600850624e-03,9.395568849068075806e-04,-2.450759018114013598e-03,3.905856907367706299e-01
3.442891592569796155e-01,-4.860243192938537571e-02,5.725534851356711696e-04,3.318234843126992295e-02,5.340792039477045006e-02,4.138192056125004903e-02,3.930131793022155762e-01
2.054826420889076521e-01,-5.333828623858360984e-02,3.334303378394135736e-02,-4.323314596170230867e-02,1.126079840626592332e-01,1.086844758493960526e-02,3.099521696567535400e-01
3.542406017730043710e-01,-2.029770095843050348e-02,-2.459740624834619305e-02,1.997282346847914936e-03,2.102083564841999378e-03,7.426444621180906336e-04,3.767422437667846680e-01
3.511609155259775572e-01,-1.543478252612157098e-02,-1.865438649938896964e-02,4.783233751541755277e-04,-3.279968056902496463e-04,3.625329844963863252e-03,3.682709634304046631e-01
3.557580384792815020e-01,-2.812548486233013012e-02,6.179503612407544200e-03,-2.765107700274046804e-03,-1.970736463704379857e-03,8.007293772190926182e-03,3.682406842708587646e-01
3.691879459835643584e-01,-2.827716737224580945e-02,-2.734882231936391905e-02,-1.641495118895650029e-02,-1.635238975720989044e-02,1.768669666472813410e-04,3.990251123905181885e-01
3.502524064069469367e-01,-1.325894621646514504e-02,-1.633638784741314742e-02,4.919662040353403121e-04,-1.195858045282076321e-04,-2.399127520112329104e-03,3.650844991207122803e-01
3.521255422215917030e-01,-1.724465079180498295e-02,-1.257028577010801951e-02,-2.763581962127641210e-04,-6.333159482522793954e-04,-2.062807705064788073e-03,3.670746684074401855e-01
3.506329202028755643e-01,-1.553405684623462846e-02,-1.475737134481056034e-02,1.150967727434181387e-03,2.737204302339094270e-05,-1.045850201269085244e-03,3.657891750335693359e-01
3.500903448943318841e-01,-1.282227094939109024e-02,-1.528026910289206897e-02,1.999314927410493048e-04,-1.805115146843973761e-04,-2.713284261052272515e-03,3.641784489154815674e-01
3.515353204969692835e-01,-1.721651209395411164e-02,-1.759545170362089572e-02,1.236587783598786048e-03,-9.580767642165149197e-04,-3.909310855350598985e-04,3.689520061016082764e-01
3.632641691625157487e-01,-3.005265105677723536e-02,3.003656893597383970e-03,-2.912385805966951138e-03,1.967003141396969808e-03,-1.321818658013629820e-02,3.786165118217468262e-01
3.528996712357925780e-01,-2.067285364162751993e-02,-1.047100499378994520e-02,-3.191054498429609244e-04,-6.452719771610266773e-04,-1.761091386586294879e-03,3.685922324657440186e-01
3.497914713330819714e-01,-1.761110528687900856e-02,-1.466572219689074585e-02,-5.383989507571048175e-04,-1.159028928523756137e-04,-1.298203754629523527e-03,3.659469187259674072e-01
3.595780801360123902e-01,-8.674536868477134011e-03,-3.461774139398096639e-02,5.208112896866825582e-03,-1.944067442986030243e-04,-9.304164063715886050e-04,3.819957673549652100e-01
3.515599775285739303e-01,-4.627090390457583302e-03,-1.914400050651948737e-02,1.854032788606773205e-05,-1.635067809243321690e-03,-5.945385875663003993e-03,3.638196885585784912e-01
3.715763748973111569e-01,-3.298167968217724511e-02,-2.969266184042965162e-02,1.254138034270327676e-02,-1.175488303623622478e-02,-9.113236594746259439e-03,4.043302834033966064e-01
3.533637862772414096e-01,-2.834237035592587772e-02,-3.294225075821116677e-02,2.433070749441981762e-02,-3.360763750699984759e-02,-7.007109772626421255e-03,3.908813297748565674e-01
3.758711813048027928e-01,-3.041187217861396341e-03,-3.072704007209164923e-02,-2.096348258027869518e-03,1.182002087299275804e-03,-1.201111095263981444e-02,3.940580785274505615e-01
3.572037010790103939e-01,-1.950373461555124366e-02,-2.709356074852803387e-02,-3.517979206843197156e-03,2.226114331686357591e-03,-6.262838065915750461e-04,3.806289732456207275e-01
3.471090165505486547e-01,-3.805511451457327388e-02,-2.273744347393763521e-02,-1.081773406018440332e-02,-6.378998334700273012e-04,-8.966097886393152366e-04,3.782075047492980957e-01
2.933551847110903443e-01,-2.938376581472457172e-02,-1.223921624605855962e-02,-1.064354666118124413e-03,-1.511486631425165879e-03,-5.520661835551130946e-04,3.145350813865661621e-01
2.005036508622362879e-01,1.768303554398722999e-02,-1.024756980983144994e-02,-5.944338809088121900e-02,5.095125684509300285e-02,-2.759761915653098641e-02,2.449149042367935181e-01
3.403709057045881115e-01,-2.558033478465604471e-02,-3.271246458827470338e-02,-1.930864459572113523e-05,-3.669101966069730422e-03,-3.322571977701493408e-03,3.696683645248413086e-01
3.404515850903158114e-01,-2.980278006577696814e-02,-1.046871003644012088e-02,-6.393484480362690570e-02,-5.719884908441841276e-02,3.473935290674606824e-02,3.949711024761199951e-01
3.639177744094935774e-01,-3.056408307553795667e-02,-1.998266159010086973e-02,-2.935490016995164625e-03,2.518226860821946855e-03,6.859542328364502846e-03,3.895378708839416504e-01
3.399192497157333404e-01,-3.210673824451878988e-02,-3.191597439950380477e-02,-5.093274519969633388e-03,-4.895141313673839062e-03,-5.910442964146079073e-03,3.722726404666900635e-01
3.733217505615214482e-01,-2.782749508066054145e-02,-1.872855782176863215e-02,1.069817802527690495e-05,-2.935671098458549413e-03,1.158259161023832834e-02,3.972175717353820801e-01
3.532080895864163073e-01,-2.206459793463766417e-02,-1.813452913361657259e-02,1.263419979896650801e-03,1.443839095048428693e-03,3.184001591535744538e-03,3.733786940574645996e-01
3.797430973039981894e-01,6.118228750305931829e-03,-3.348303334717725455e-02,8.956293604234163291e-03,-1.105216420051268302e-03,1.896447007222858833e-02,3.965893089771270752e-01
2.519253501012588270e-01,-9.206115281090498925e-03,-4.115428598312015351e-02,8.611702312804986326e-02,1.373488304434969821e-04,2.740738501382862860e-02,3.194604516029357910e-01
3.663477452364907183e-01,-3.388875944157157538e-02,-1.200011403374817709e-02,3.500717876014350360e-02,3.306873722543959837e-02,1.075641612250140787e-02,3.990137577056884766e-01
2.174214832913406170e-01,-3.551028394528139842e-02,-1.029884676709266755e-02,4.579398260409939941e-02,7.480798578924229003e-02,2.200110222573960217e-02,2.876898348331451416e-01
3.678015806726581682e-01,-2.997541648581800167e-02,6.550316241946685381e-04,1.039368806868019163e-02,1.141710417092180879e-02,1.327431139085188602e-02,3.849992752075195312e-01
3.651838874865806495e-01,1.840408934578532940e-02,-4.205724476380687249e-02,-4.182911660288434266e-03,1.975542362892545873e-04,-4.937601969436310537e-03,3.807943165302276611e-01
2.964792810705162429e-01,-1.249593602375663470e-02,-2.923744156645477488e-02,-1.577854965686903551e-03,2.256788851494057752e-02,3.079150843911939795e-04,3.200849294662475586e-01
3.550263219899287837e-01,-2.513703573214493003e-02,-2.612561123372933447e-02,-6.080477858841320637e-05,-1.732752626995508628e-03,-8.594066022599893342e-04,3.806733787059783936e-01
3.497435678702148221e-01,-2.496251256739254187e-02,-2.485597645903583897e-02,2.012770408119440163e-02,1.189863160365170480e-02,4.640383207685624435e-03,3.769209980964660645e-01
3.266353508015585327e-01,-2.565660129585950466e-02,-3.044244683333571788e-02,7.175339786153245997e-03,7.405043475169134984e-03,-5.487292117242402803e-03,3.552855551242828369e-01
2.905765727403482046e-01,-2.806115433933056846e-02,-1.603982863571060125e-02,6.924224031901128618e-02,3.916846462491332427e-03,-4.634213715837195817e-03,3.351686000823974609e-01
1.599657899361316971e-01,-4.043337684164829970e-04,-3.452805390389487861e-03,4.996428330761012310e-02,8.101540221216832136e-03,1.764694248597052585e-04,1.841277778148651123e-01
3.088123800293799404e-01,-2.528771702013263289e-02,-2.499731999512508351e-02,4.969012733214307059e-03,5.427550944693812496e-03,-7.503091019233471513e-03,3.344506919384002686e-01
3.444012965699468354e-01,-3.210238287780559086e-02,-3.045752278634022980e-02,1.876560470927776149e-03,2.031113822956482663e-03,-5.927963187862231483e-03,3.758547604084014893e-01
3.583276116230023622e-01,1.285292999899581567e-02,-3.870326636984156021e-02,4.080013811091990836e-03,1.566316453546311941e-03,-2.009434287371349853e-03,3.740208148956298828e-01
3.470701350256267248e-01,-2.295562175016260809e-02,-3.907740601591344620e-02,1.101826264841709955e-03,2.488719899270654384e-03,1.270436397522908259e-03,3.783801198005676270e-01
3.237272372004854626e-01,-1.741682083301471229e-02,-3.845291761902921990e-02,-2.768202066030487382e-04,1.142672659260240801e-02,2.537367299316733299e-04,3.526900410652160645e-01
3.490024853446831443e-01,-2.713285278465940586e-02,-3.860366938090359357e-02,9.954922470038413736e-04,-1.111554179697733531e-03,1.044335586122899532e-03,3.820129632949829102e-01
3.431487177526633126e-01,-2.361327303789090282e-02,-3.892092101372043866e-02,-1.602297434683445194e-03,2.309591419248149813e-03,1.240320314052914367e-03,3.746882379055023193e-01
3.555503479677936673e-01,-2.232183557687397735e-02,-2.736090409117447608e-02,-9.268362676289519653e-03,1.489232725903958526e-02,-2.333547390941229788e-02,3.837624192237854004e-01
3.524098875689612997e-01,-2.212247590774549244e-02,-1.046398205957366212e-02,1.543097642601588696e-03,9.488191285651449095e-04,2.388924957302031651e-03,3.688778877258300781e-01
3.551832874069056900e-01,-2.674949902377962707e-02,-2.528334489365577364e-02,3.895500094168132584e-04,2.900837589628906324e-03,-9.288453164998742434e-04,3.812389373779296875e-01
3.554607460852586276e-01,-2.625455236050325269e-02,-3.297207440305913173e-02,-1.352941282954547679e-03,-1.437354418430532256e-03,-5.676292316601724321e-04,3.851344287395477295e-01
3.525966748796450778e-01,-2.225078014267353743e-02,-1.127046983040369543e-02,-4.965525279265962499e-04,1.823146774875863876e-03,3.375157857522480265e-03,3.695404231548309326e-01
3.563721897839891573e-01,-1.944108767014413042e-02,-2.470297533856663508e-02,5.884726401313540405e-03,-2.713898231105677742e-03,3.750383777836542067e-03,3.786937892436981201e-01
3.543808603700367432e-01,-2.108104763628768086e-02,-2.436289099457722429e-02,-1.896313129264521561e-03,-1.346211560048398868e-03,5.959018814531260103e-04,3.771364688873291016e-01
2.341469220255393835e-01,-2.742515614479659747e-02,-1.130488415730115936e-02,4.674019316727794082e-02,-7.116127564129795524e-02,-2.222395109640940350e-02,2.961260378360748291e-01
3.713556036901206614e-01,-3.107179561119924327e-02,-3.062817605267939558e-02,1.234159591489735440e-02,-1.208432439314741785e-02,-1.024883058259110601e-02,4.037073552608489990e-01
3.511574044818511209e-01,-2.559908020559856223e-02,-3.342256907285440226e-02,-5.544980095146246593e-05,-3.922818975030586443e-03,3.046170741985721516e-03,3.808256983757019043e-01
3.452362955035522818e-01,-2.752754671048238122e-02,-2.848070570521710199e-02,4.081542444083200404e-03,-3.239719834661271974e-02,2.490161431391892111e-03,3.775267004966735840e-01
3.673530627155456307e-01,-3.518480448725982979e-02,-2.446258994032390888e-02,4.284797924499000703e-03,-7.462259929761785524e-03,1.859772500426964828e-03,3.975778222084045410e-01
3.573491182441589364e-01,-2.986444132421570141e-02,-1.855551607492342270e-02,-9.176386131444229551e-04,4.751244276259695629e-03,-2.588713782913423626e-03,3.818031251430511475e-01
3.546710500582132553e-01,-2.647878360137340126e-02,-1.927434868298974480e-02,-2.549297892833350069e-03,3.986300322418848477e-03,-6.411875885591937713e-04,3.776897192001342773e-01
3.466152007815713754e-01,-2.262467521071337417e-02,-3.210962251265772616e-02,1.513745375420632070e-04,-4.856983643862415687e-04,-7.705349203416024268e-04,3.740759789943695068e-01
3.276876641911400934e-01,-1.776432242963266184e-02,-3.534949216733485056e-02,-5.242629852348642573e-03,-5.813647808013722683e-03,-5.384634287388580069e-03,3.549534976482391357e-01
3.248032155434188994e-01,-2.561022594555753540e-02,-3.140520112721761903e-02,-1.172903633700446077e-02,-2.183395013285788222e-02,-6.050671660064277195e-03,3.560990095138549805e-01
2.614839564639441227e-01,-1.097577742661498545e-02,-1.567264519350558549e-02,-1.612577722826900872e-02,8.262381399212950089e-04,6.868189315025917917e-03,2.765135765075683594e-01
3.411515258104954040e-01,-2.437648858524821271e-02,-3.552876919076061735e-02,1.383115072504460309e-04,-1.743202610998487601e-03,-2.651632566117978138e-03,3.712705671787261963e-01
3.549368763396780757e-01,-2.689928419284812189e-02,-2.681214701921566523e-02,-1.271871100217019735e-03,-5.316431669504532477e-03,-6.541145062675990428e-04,3.819116652011871338e-01
3.583336930837666134e-01,-3.057294619868936025e-02,-1.671190729273513975e-02,1.959377074312576919e-03,3.704095910643113131e-03,1.093437593118619378e-03,3.822382986545562744e-01
2.376839265170462012e-01,-1.805732806299295556e-03,-1.222711087858369128e-02,8.595618699299882939e-03,9.980120524440804896e-04,-1.401292524382368636e-03,2.453370094299316406e-01
2.579955141365427029e-01,-1.125319238345061368e-02,-2.318128385284998205e-02,-1.553447477747197823e-03,2.108485098547440914e-02,-3.918407013408847436e-04,2.778311967849731445e-01
3.043584413650796683e-01,-1.433494768164123023e-02,-2.928707857932480452e-02,2.704614779587887451e-03,6.674692787324329295e-04,-5.097118011901310107e-03,3.265813887119293213e-01
2.418461678524062575e-01,-6.658276753175568219e-03,-1.338823999831706413e-02,-1.307451355947917247e-03,2.323964953654650278e-02,5.779110974749597507e-03,2.553384900093078613e-01
1.698952183308568564e-01,-2.345734647377120674e-02,1.104262635758915256e-02,3.034241771956880385e-02,4.918846302636769446e-02,7.721192512886660211e-03,2.051929682493209839e-01
3.065233247304810504e-01,-2.848320623615493985e-02,-1.799731953973918164e-02,5.199603132993555095e-04,7.419630429143172362e-03,-5.445362979859945385e-03,3.302747607231140137e-01
3.000555148899820557e-01,-1.307346585965001029e-02,-3.102173418217507583e-02,-1.459479333416601908e-03,2.576536445659774119e-02,-4.495177906341259579e-04,3.255619406700134277e-01
4.374792744274087763e-02,6.743102193781626980e-03,1.170345467704731780e-02,-1.958474330403167651e-02,3.209517327581873358e-02,2.708094926744187333e-03,7.398238778114318848e-02
3.427468825257313778e-01,-2.671693614808859363e-02,-3.343122615249119467e-02,-6.735234419147283170e-04,-1.367697544005374135e-03,-5.585214672506495608e-03,3.730011284351348877e-01
4.130984618509973560e-01,-6.661343817270357071e-02,1.878446192136751236e-02,4.207267903219631677e-02,6.484760563170000047e-02,2.368230508775732990e-02,4.648208618164062500e-01
2.608223752341736201e-01,-1.025854947132982808e-02,-1.493030480597168363e-02,1.457003563367405968e-02,2.955277507461075148e-02,-7.499773920354269735e-03,2.796404957771301270e-01
3.911591085219298103e-01,-9.515466610421463578e-03,-1.089769173059082497e-02,-4.262136455633613874e-02,-5.284093059555196314e-02,3.652983641973293893e-02,4.229957163333892822e-01
3.926619107742942427e-01,-2.585688977897515617e-02,-3.201434544572145935e-02,-2.102166145394263400e-02,-2.092157309273012106e-02,1.695454485548420626e-02,4.257630109786987305e-01
3.574300710541621351e-01,-2.125273059172855250e-02,-2.226836762870887387e-03,1.557289568034744571e-03,7.132169167689910404e-04,1.126724660715300655e-02,3.700642287731170654e-01
4.887536927191243885e-01,-4.120518270320461252e-02,5.134584536119396470e-03,-4.131926459844830618e-02,-7.163490608203092191e-02,2.814045624712751062e-02,5.304128527641296387e-01
1.799761948035991099e-01,2.762843407248277705e-03,1.715134213588168088e-03,-2.276666982119339780e-02,4.469720202788024510e-02,-3.268195339218883666e-03,1.979188323020935059e-01
3.317297421578745409e-01,-3.178926190791994677e-02,-2.712015752428062476e-02,5.577686350573202514e-03,-6.411117233265730981e-05,6.257455696813554215e-03,3.614987730979919434e-01
3.312381850317935306e-01,-2.407142980782134289e-02,-2.830077663403390842e-02,1.227754549800196167e-02,-4.665731789888019794e-03,2.118371120998573760e-04,3.581664264202117920e-01
3.040834230743881816e-01,-1.592719605774606251e-02,-3.619042211839615386e-02,7.702449876473003217e-04,-1.190625804444254976e-02,2.783773935534217389e-04,3.312538862228393555e-01
3.424027665216476946e-01,-3.156993293104642939e-02,-2.435522663946304567e-02,8.805856065060287813e-03,-1.335091559947534402e-02,9.642687618808046951e-03,3.718276917934417725e-01
3.337949682589610445e-01,-2.204879859396599584e-02,-3.432955105578999744e-02,7.023456866949048111e-03,1.881014893361655435e-02,-4.627176571190470995e-03,3.638946413993835449e-01
4.113235138921528256e-01,-5.660136536618917691e-02,5.206632060162169617e-03,1.759533039006128813e-03,2.907389982681861385e-02,1.646278083218904315e-02,4.440840482711791992e-01
3.076742360805824195e-01,-2.258958207825348397e-02,-2.089940946639942676e-02,1.497268676831468165e-02,4.887353941812058039e-02,-5.047630900829450963e-03,3.412238061428070068e-01
3.533752404366154454e-01,-2.880807919765035474e-02,-3.314663186644944970e-02,5.761980947031039623e-04,4.510790208339263358e-04,-8.486440354767676433e-04,3.843758702278137207e-01
2.764631884919162008e-01,-2.049813585782071790e-02,-2.516139222063265568e-02,1.784823177746984457e-02,-3.509740438305675864e-02,7.036074979438986313e-03,3.072332441806793213e-01
2.662652570969474275e-01,-1.548389408985058335e-02,-1.275229953181512832e-02,1.164427325526849397e-03,-1.114107028109790308e-02,6.162021853483538349e-03,2.812663614749908447e-01
3.495080138930593550e-01,-3.633878531793860445e-02,-2.687767075135180650e-02,1.339902081422578509e-02,-9.774794313648544914e-04,1.717261607042100326e-04,3.819139599800109863e-01
3.408648960405600836e-01,-4.210653280638854135e-03,-2.333097417475177293e-02,8.577565438517045782e-02,4.172445776069144685e-02,1.801546047965804989e-02,3.928225040435791016e-01
2.256137745626296265e-01,-9.696325292729970902e-03,-8.577808146306348247e-03,-1.672771820897244258e-02,1.997134298969641467e-02,4.829093215190970526e-03,2.391963005065917969e-01
2.313200020299704951e-01,-8.557255703968119631e-03,-8.412406520599824411e-04,1.437639960739826514e-02,-4.094586986848846016e-04,3.103281755510005520e-03,2.374851107597351074e-01
3.449114762308213011e-01,6.583661464872520019e-03,-6.522327473307742984e-02,8.175658147871059378e-02,4.919718762070279111e-02,2.431344147499174546e-02,4.159364998340606689e-01
1.788110940465192367e-01,-1.541939224887177440e-02,8.920456901456451371e-03,4.449884730230906082e-02,1.038144995002112381e-01,1.478722060174542802e-02,2.692937850952148438e-01
2.434874732692644816e-01,-9.952525384114466189e-03,-2.621596962089338401e-02,-4.642715403847061210e-03,3.129805970613568078e-02,-6.802228535214004633e-03,2.678811550140380859e-01
3.570166966479645931e-01,6.343482042095699436e-03,-1.740638080010825650e-02,-5.112376649019319957e-02,4.199662831004868230e-02,-3.265483364558716128e-02,3.849613964557647705e-01
3.536905237878129049e-01,-2.962641295158438548e-02,-2.498847278312280040e-02,-2.747945318198155877e-04,-1.760657238725229362e-03,1.552556530502959182e-04,3.810317218303680420e-01
3.490951466545679782e-01,-1.813744928681915169e-02,-3.113979650054746195e-02,-7.937946653081559556e-02,1.618723600554477365e-02,-3.973677938710339780e-02,4.052531719207763672e-01
4.746724959061089377e-01,-2.951357605660642758e-02,-2.256316109879932807e-02,5.753567372119351188e-03,5.411470947002239296e-02,-4.038500198381055062e-02,5.143198966979980469e-01
3.593668568152273979e-01,-1.631522700256740621e-02,-2.764726107680173794e-02,-6.430230775796467318e-03,-4.545944900596766546e-04,-6.374591820984333232e-03,3.817974030971527100e-01
3.458227252915594963e-01,-1.700069322630945456e-02,-2.800069806189439681e-02,-3.695238214679551041e-03,3.018409363719663031e-05,-1.259978880701351830e-03,3.685086369514465332e-01
2.970654445007042121e-01,-2.637154049099632580e-02,-3.479011950844734802e-02,-1.743322046102111292e-02,4.783596284990922209e-02,8.378336996245582674e-03,3.396945893764495850e-01
3.490294832504304834e-01,-3.452205942790370630e-02,-2.631110796614619107e-02,-4.943669119012979521e-03,5.236687172376145762e-03,4.435377369739910459e-03,3.797953128814697266e-01
3.088226155673174378e-01,-2.843308092526591890e-02,-3.536345029472701129e-02,-1.057591866721616959e-02,4.343957077879401912e-02,3.392380479114635514e-03,3.495108187198638916e-01
2.043922000652307058e-01,-2.320758221379812247e-02,1.863844047110902596e-02,-4.438774881783251469e-02,8.877638925291359007e-02,-1.287144783439873354e-02,2.721767425537109375e-01
3.700794452398862844e-01,-4.259698766560646166e-02,1.584120839846712980e-02,-1.140530937518952287e-03,1.500928671265566250e-03,-1.002392618007352711e-03,3.868002891540527344e-01
3.462784210206028002e-01,-2.592437770246255879e-02,-3.304788163745125962e-02,1.044469881910321156e-03,1.448688795041783986e-03,-3.244679433082130800e-03,3.758699297904968262e-01
3.530782378730201732e-01,-2.758583422982846534e-02,-1.788320112708141618e-02,-2.933829814157054919e-03,-2.727632983226846528e-03,1.532304892321959553e-03,3.759800791740417480e-01
3.065326818638778317e-01,-1.836320889315530558e-02,-3.054332622766489647e-02,-1.530402674999819732e-02,2.448540803297550444e-02,7.097008058754481451e-03,3.351347744464874268e-01
3.740737018399835634e-01,-4.646239613499858478e-03,-1.616374596054873103e-02,-4.156102919958403787e-03,-4.133198132982781291e-03,1.894255647448757351e-02,3.861384391784667969e-01
2.913278052919217043e-01,-8.824702606914341940e-03,-2.914636403398132569e-02,-5.453216037987991538e-03,2.196618332385889133e-02,3.636229654775824209e-03,3.133377134799957275e-01
3.604214948100949445e-01,-3.631038202729772180e-02,1.632763633577945239e-02,-1.324833838201492676e-03,1.704602955163070106e-03,1.093712788405044878e-02,3.737065792083740234e-01
4.022044051376060247e-01,1.710064834749316920e-02,-3.646547729839427765e-02,4.763769134002418526e-02,2.569228418072974640e-02,3.205972637865601993e-02,4.285726845264434814e-01
3.614716370832281589e-01,-3.365332008361668348e-02,3.641517545982103643e-03,1.590754176211755036e-03,8.644922709913441597e-03,8.487727799359684813e-03,3.784526884555816650e-01
3.623001686733234861e-01,-3.056512505293554338e-02,-1.169104897123904307e-02,-1.782850572892744848e-03,-5.728913888241894507e-03,5.435513417020725567e-03,3.840325772762298584e-01
3.387111670535188357e-01,-2.601295700381672793e-02,-2.638164418984828563e-02,-4.312945611125183765e-03,4.978403241625304135e-03,-2.698505280219716269e-03,3.651168346405029297e-01
2.916981437900078022e-01,-2.703098029150799442e-02,-1.685920221833020483e-02,-1.557797981898548581e-02,1.110797213793527326e-02,5.189232296761526163e-03,3.156400620937347412e-01
3.552343656571589903e-01,-1.253758209232705423e-02,-2.799982928119654213e-02,4.877225057171014240e-03,3.284558769435984033e-03,1.915187895614990426e-03,3.758943974971771240e-01
2.767896256467480831e-01,-2.430302121909086455e-02,-1.466202703565076815e-02,-1.552580233859743655e-02,-6.447795053182344034e-03,-5.152298767194184517e-03,2.979503571987152100e-01
3.456843712896885967e-01,-2.941382005280956946e-02,-2.677599476094974507e-02,-4.528408532076875007e-03,3.036132179988568301e-03,-1.066362629885694554e-03,3.739100992679595947e-01
3.290804468242733982e-01,-2.458173357916362822e-02,-2.030179184749797416e-02,-8.911247232523750866e-03,-4.429518232285328469e-03,-3.500818023724523373e-03,3.520162701606750488e-01
1.949684324009163527e-01,-4.809171450378735280e-03,-5.170171960861516536e-03,4.259082517531627421e-02,-4.369926947679732276e-02,6.395658751999966883e-03,2.264439612627029419e-01
2.829664950095123199e-01,-3.443887314132559885e-03,-2.844992516065703025e-02,5.519315028558843123e-03,-1.892369139609979128e-02,1.157870174416128755e-03,3.016420602798461914e-01
3.375932602584772457e-01,-2.396642984464650294e-02,-3.391408547226051895e-02,-5.378831898518363595e-03,-8.782189266945116327e-03,-2.750011032489794397e-03,3.670993149280548096e-01
3.040599942648636866e-01,-1.800456859972587864e-02,-3.126070744527431611e-02,-1.469018200085107570e-02,-1.864663504768664104e-02,-4.304696762652041563e-03,3.315369188785552979e-01
3.391082742162995767e-01,-2.733500922308063075e-02,-2.617432063522531771e-02,-9.076082196611268138e-03,-1.139174330312596808e-02,-2.468047506489156294e-04,3.667333126068115234e-01
3.333164884033509856e-01,-2.118093216305808046e-02,-3.556306422809424328e-02,1.570687518920918469e-03,-8.532008794393636589e-03,4.659990727732568790e-03,3.623045980930328369e-01
3.319464604859082013e-01,-2.020814285291322454e-02,-3.828776872832570510e-02,-2.164966870269363457e-03,4.594338577477455560e-05,-3.552279222897045206e-03,3.616054356098175049e-01
3.656207318076719059e-01,-5.812561615347600075e-04,-3.238563588708809338e-02,-8.793890841328810826e-03,-2.910756545072855361e-03,2.268285624162643538e-02,3.854389488697052002e-01
3.410528175995103939e-01,-1.968749173330383573e-02,-4.291373521271865665e-02,2.330067834108363769e-04,2.066123089237182915e-04,2.094417208373534466e-04,3.728968799114227295e-01
3.203943263700758659e-01,-2.026836486887742539e-02,-3.396412150493297033e-02,8.809787217903382263e-05,-5.827547363175670722e-03,5.428241843309773891e-03,3.479864597320556641e-01
3.459395559067330317e-01,-2.355147888640124476e-02,-3.842033045753664999e-02,5.130583721599667364e-04,2.640722214866378565e-04,5.316258029944290675e-04,3.771477937698364258e-01
1.956091825143030649e-01,-3.317688188260461968e-03,-4.821395027390512622e-03,4.062059127569606770e-02,-4.454236060215337883e-02,7.418018907657311471e-03,2.257000952959060669e-01
3.532694700440446867e-01,-2.018290515079315672e-02,-6.977233965084594924e-03,4.188435942166427296e-05,1.770187514217816654e-03,-4.276545482365207325e-03,3.671153187751770020e-01
3.622116652977159235e-01,-3.076924679011627806e-02,-1.717794170296405021e-02,1.934740923838759730e-03,-1.032665299471710336e-03,-1.051345946054206082e-03,3.863875567913055420e-01
3.505635783212038281e-01,-2.887716527901915131e-02,-1.330020723631761270e-02,-1.466941774179758313e-03,-2.765540598645020200e-03,-1.031624870381547517e-03,3.719408214092254639e-01
3.558577904153232274e-01,1.902452187460268451e-03,-3.450073603913145215e-02,-7.516581816294714375e-04,3.255175352756647586e-03,-3.132951614979239113e-03,3.735741078853607178e-01
3.531845219372308220e-01,-3.586605112898905157e-03,-2.731092393931774942e-02,-3.299132920691691482e-03,-2.734381576819756594e-03,-1.014497455051310663e-02,3.696978092193603516e-01
4.088839222094581838e-01,5.400878802992725713e-04,-3.103127028702359902e-02,7.667842795209466001e-04,1.483265311998280397e-03,1.713076693172189274e-02,4.260541796684265137e-01
3.589092065563803668e-01,-2.115206900154742442e-02,-1.255586966760335876e-02,3.699540070399496530e-04,-1.555799540159520048e-03,-8.136596720401408078e-03,3.761112391948699951e-01
4.346460739761549008e-01,-6.582491923385627719e-02,1.981717878981187342e-03,1.289133420904485169e-02,-1.032017129305950326e-02,-4.013246208829106959e-02,4.762180447578430176e-01
4.236700005301809457e-01,-5.996936679044367891e-02,1.834670053208017904e-02,1.401282773954642263e-02,-2.901955790754300046e-02,-2.031519505160521086e-02,4.544417560100555420e-01
3.917128279132345847e-01,-4.715546712220702874e-02,-1.032051120533891697e-02,-4.789348364335710602e-03,3.087543470380318955e-02,-1.211127284725438576e-02,4.256350994110107422e-01
3.600343735811583068e-01,-3.325243688281837029e-02,5.880114396487501338e-03,2.445470882229531118e-03,-7.492214621166490285e-03,-2.536698337777216778e-03,3.755278885364532471e-01
4.290145820272466270e-01,-6.383316801314894984e-02,2.529511050406904604e-02,4.998280198612961925e-03,3.536303774340687073e-02,-1.420702652136108211e-02,4.597262144088745117e-01
3.838216188194292777e-01,-5.111689530306934293e-02,1.717142860807249760e-02,-3.708148730511169611e-02,-9.352224165569604508e-02,9.092808935643749077e-03,4.413003027439117432e-01
3.669929129308050486e-01,-3.748808721725829796e-02,2.213901044449684274e-03,2.339897112873880018e-03,9.432398142796816730e-04,1.980887586325041656e-03,3.862037062644958496e-01
3.318974311558495760e-01,-2.185575009811538405e-02,-3.567351116150191404e-02,-1.742498372035839512e-03,-1.054254757086178426e-02,-1.345066908515493752e-03,3.613423407077789307e-01
3.322247750355862284e-01,-2.060906130434422834e-02,-3.533495798109295705e-02,-4.158170027850203142e-03,-1.361768493008883724e-02,-3.107616147254054005e-04,3.612656295299530029e-01
3.603572643775098672e-01,-3.242279666161698715e-02,-1.054418964553108240e-02,-3.615338602601833942e-03,-7.405492131992664692e-03,1.550163547098977251e-03,3.825863599777221680e-01
3.720149312402876718e-01,-4.506460935861456019e-02,2.287254265374101536e-02,4.333075365832444667e-03,5.592642472158469323e-04,1.371294171869329517e-02,3.884031474590301514e-01
3.549374738667364082e-01,-3.571283601228963933e-02,1.492523085845341713e-02,2.470081567544797456e-03,9.012657108648451654e-03,-1.732741211016582128e-02,3.695305287837982178e-01
4.285750675132110055e-01,-2.747221824882720154e-02,-2.060369748044577065e-03,-2.385628284666180699e-03,6.002427845529128766e-03,-3.302248036745317888e-02,4.476968944072723389e-01
3.347104783360159708e-01,-1.144704002145821575e-02,-1.053596014213942222e-02,7.261509256160804393e-02,-6.376013814492136056e-02,-4.438545599234191424e-02,3.917085826396942139e-01
4.675378015560957556e-01,-5.624756934044947143e-02,7.209410422090944959e-03,7.431710620104821363e-02,-1.183258074981585750e-01,-5.342943605491323050e-02,5.588168501853942871e-01
3.574655821405128830e-01,-2.806568430157396765e-02,-1.816479570509785257e-02,8.598506201142905401e-04,-3.451874751371218457e-03,5.684878954642087583e-04,3.807285428047180176e-01
3.524528913607503644e-01,-2.076164027516627653e-02,-1.430024582548455880e-02,1.673922199276580043e-03,-1.392778112499656841e-03,-5.690986857408538357e-04,3.700466752052307129e-01
3.517085368707018045e-01,-1.996402059954049957e-02,-9.012015968200948191e-03,1.310037455265495232e-03,-1.024489260185030594e-03,-3.786402997219578091e-03,3.663893938064575195e-01
3.263358201045717388e-01,-3.225190831197768948e-02,3.616111860656176513e-03,-1.394135171671188889e-02,8.351446487041444544e-02,-2.351710051369274371e-02,3.744009733200073242e-01
3.526297072100560981e-01,-3.396194788785747432e-02,-2.896986585626315502e-02,-2.124082525330625798e-04,5.906828136625398313e-04,1.186230622783421979e-03,3.841269910335540771e-01
3.516001011548990918e-01,-1.671913724485848962e-02,-1.850255514828039183e-02,2.792254711690897711e-04,-1.475066414825901306e-04,-2.918917756244026641e-03,3.692491948604583740e-01
3.808477722981974400e-01,2.011460958647202923e-02,-3.982696679072575408e-02,4.830663467463539723e-02,1.107295141699136433e-02,2.871701185972238418e-02,4.064317345619201660e-01
3.537712082982262807e-01,-2.767564900939045724e-02,-2.481021426682342157e-02,5.574218937382092011e-04,1.156587382913381460e-05,-1.062720726406933157e-03,3.800279200077056885e-01
3.539009058744571057e-01,-2.226072410092350129e-02,-2.493526166066073468e-02,8.315123460296326447e-04,7.213176574582877009e-05,1.115089977493585602e-04,3.775088191032409668e-01
3.530032118371200234e-01,-2.065301942176933636e-02,-1.882987266312488583e-02,1.229279408081815090e-03,-8.111182447217240004e-04,-1.478105717235008972e-03,3.727655112743377686e-01
3.468847611223646599e-01,-2.132011540406766881e-02,-3.976048079157160076e-02,1.216282717251496647e-03,4.038261394216443798e-03,2.333245024567512859e-04,3.778336048126220703e-01
3.269423760009129154e-01,-2.020442743893244297e-02,-3.423602343377907253e-02,-1.482061060324702494e-03,1.208969271884532785e-02,2.681808280085554944e-03,3.550288081169128418e-01
3.560794260983059512e-01,-2.932465842144854618e-02,-3.343046067444260805e-02,-7.629011133242702891e-04,-2.189433627238548171e-03,2.674543994931472533e-04,3.874943852424621582e-01
3.120246671757627155e-01,-3.536414097210641150e-02,-1.872134247701040533e-02,9.579000353535729179e-03,-2.340484175340060927e-03,4.171759904785950733e-03,3.398799300193786621e-01
3.458207271984829467e-01,-2.479506663674976852e-02,-3.864323117689205667e-02,-3.194897684069697950e-03,5.508428041591346795e-03,4.630943382191853031e-03,3.779764175415039062e-01
3.460776037796841620e-01,-2.495386751500727751e-02,-3.986606492896044296e-02,-2.195378746695353118e-03,2.456008885115447491e-03,2.292464327042330417e-03,3.787716329097747803e-01
3.427641266223195871e-01,-2.092825030570449885e-02,-4.086158217094071343e-02,-7.211554497656422810e-04,1.249131133810550860e-03,1.042685830577059830e-03,3.740702867507934570e-01
3.307694753423033318e-01,-1.960748516782007123e-02,-3.839993517078044150e-02,-2.135135753381277746e-03,-3.312271515242150690e-04,3.652467025665622792e-03,3.602161109447479248e-01
3.489150828682247019e-01,-2.615290865274610965e-02,-3.003072684673335768e-02,-5.180361060207917942e-04,-6.117155107622921414e-04,5.169251003363756029e-04,3.770254850387573242e-01
3.431128947814262586e-01,-2.107753903782152993e-02,-3.994478966642195372e-02,1.312725708908611276e-04,2.034693913205033310e-04,6.392182353290569051e-04,3.739830553531646729e-01
3.423802406141649435e-01,-2.325976135335558470e-02,-3.891137025843896535e-02,4.978115237665232300e-04,4.188758099151229544e-04,8.349755943861095122e-04,3.737162053585052490e-01
3.472621733004099820e-01,-2.550112335995111112e-02,-3.819264605309313776e-02,-1.191636565788533469e-03,8.099069669830471227e-04,1.262111784709565778e-03,3.792828619480133057e-01
3.575490521943192612e-01,-3.622697972361751950e-02,3.271689041561970379e-03,-2.946181679809473011e-03,6.305837579059171173e-03,-4.199190566342055064e-03,3.758514523506164551e-01
2.717957929834938779e-01,-1.207010728186161397e-02,-2.408362156037988089e-02,-1.318564351616636132e-04,3.443922889408364968e-02,2.848576832798575993e-03,2.961705327033996582e-01
2.927136117989849184e-01,-4.972688157615018367e-02,1.213787767236786108e-02,1.304614486743072010e-03,1.076499150700409857e-01,-1.503850169848715106e-02,3.679087162017822266e-01
3.528407116623497042e-01,-2.987470741983322409e-02,-1.531025224269347285e-02,-2.664236528927149423e-03,2.953478682987650209e-03,-8.664931110880944249e-04,3.757111728191375732e-01
3.624109675736462699e-01,-3.435929893383524170e-02,8.335743385822574902e-03,6.765163856786289521e-04,-3.020025518697541482e-03,-3.983198648067100278e-03,3.773403167724609375e-01
3.537532435310627443e-01,-2.753750013844050160e-02,-1.574444822060588889e-02,7.413555110409639605e-04,4.953091250192699852e-04,-1.616336021412802422e-03,3.755467236042022705e-01
3.544713196374403852e-01,-2.702227647397703603e-02,-1.797187764179938863e-02,-2.013423998251771038e-03,3.109670961919269640e-03,-8.762318264170452500e-04,3.771075308322906494e-01
3.653353795147315508e-01,-3.954226197813034971e-02,5.336405128978927159e-03,2.431435857887803784e-03,4.057432270747843121e-03,1.483701317040089307e-03,3.845040500164031982e-01
3.578635012067588606e-01,-2.623016698554367365e-02,-3.749014486060214812e-03,1.087424258221637678e-03,3.448931080897898105e-04,-1.972850311530617226e-03,3.733819127082824707e-01
3.607640183549443158e-01,-3.272364897880861156e-02,-2.688534296802339019e-02,9.666728758263916799e-04,-9.378072009374315010e-03,-7.349869587808916752e-04,3.909444808959960938e-01
3.543848636309203659e-01,-2.368700298157680462e-02,-1.500556788469609160e-02,-3.620302056572283363e-04,-2.208759060694457516e-03,-7.870245677848221886e-04,3.738293647766113281e-01
3.572712344900083603e-01,-1.518377345556853886e-02,-1.158454568673200624e-02,2.545701549235078465e-03,-1.336288101573331923e-03,-1.251514193204464331e-02,3.713351786136627197e-01
5.358393029771564287e-01,6.146997886919775000e-03,-4.902577825691212254e-02,-3.136931367628387202e-02,-4.053704703979832402e-02,2.335692590431991469e-02,5.677685141563415527e-01
3.436832932759698034e-01,-4.151677661409053366e-02,-2.119510388444403870e-02,-5.009272147955491118e-03,3.520134442439668411e-04,-1.900378361045027735e-03,3.755670785903930664e-01
3.533314416275119552e-01,-3.355961098205659243e-02,-2.793475836595959994e-02,-1.549780398954833530e-03,-4.355820410518779391e-04,-1.416164066377204652e-03,3.841274678707122803e-01
2.655153313488145539e-01,-4.255251461486778131e-02,3.421664379836784897e-02,1.372542773866463825e-02,1.462724528880293973e-01,3.167521998855905158e-02,3.806720376014709473e-01
3.279218679431174510e-01,-1.990636461702266491e-02,-3.757601117131620372e-02,-1.536629488254608478e-03,7.883467987156760753e-03,3.106778800838596536e-03,3.573026657104492188e-01
2.727144355605484183e-01,-1.700640194737737532e-02,-1.912337102479720607e-02,4.571037033920694742e-02,2.764577442172384131e-02,-2.862356631742305098e-03,3.051913082599639893e-01
2.946128264621031834e-01,-3.427017010715951995e-02,9.590238249540292137e-03,-6.932873722858841348e-03,5.522299568963678906e-02,6.146867087127045465e-03,3.241436481475830078e-01
3.350232723641890509e-01,-2.051335881259366833e-02,-4.127183042849749683e-02,-4.730113412920771343e-04,5.648302307622401520e-03,1.744302058326674528e-03,3.665011823177337646e-01
3.631428203800210475e-01,-3.567944765963695919e-02,7.900849000056359150e-03,-2.592005525427056121e-03,3.845502026433850326e-04,3.247404426909537411e-03,3.789853453636169434e-01
3.394635802524308965e-01,-2.573212577987793459e-02,-3.621429624307540007e-02,2.049874388307509985e-03,3.823972047594699367e-04,4.770184712956236812e-03,3.706577122211456299e-01
3.189136626414784126e-01,-3.406921469405249647e-02,-1.952669833522643894e-02,8.406489740035615749e-03,-2.889781380496673027e-04,5.560233848988167457e-03,3.463814854621887207e-01
3.238484658412102979e-01,-2.442651180367474972e-02,-3.122277522688907125e-02,-6.897924603414692934e-03,-3.392875535972227595e-03,-7.274307869345549363e-03,3.521997332572937012e-01
3.518699322544513453e-01,-2.569969046232717380e-02,-3.400747467152398507e-02,-3.590528832814182799e-04,-4.404103031038251320e-03,-3.184841699710696389e-03,3.819078505039215088e-01
3.206227772392200026e-01,-2.438313836797351142e-02,-2.800347520459969819e-02,-6.931070643348156979e-03,-3.315251769834550127e-04,-7.836396539929393543e-03,3.473037481307983398e-01
3.339492250397548267e-01,-2.114878292659558290e-02,-3.521027427156939171e-02,1.905470155804518846e-03,-9.228269335133010634e-03,4.229139101497730174e-03,3.627748191356658936e-01
2.662571699085309884e-01,-6.372935028326517926e-03,-2.778203723179639706e-02,-3.372316950885931937e-04,-2.525668009029277336e-02,-5.194999690439994731e-03,2.874322533607482910e-01
2.933093253428215030e-01,-1.148808294901744465e-02,-3.053785094524641419e-02,-4.538580132985534435e-03,7.673813032392650009e-04,-7.988063926294413513e-05,3.148559331893920898e-01
3.264952561718274526e-01,-1.659764480894393435e-02,-3.917871495794242320e-02,-1.434841737694493450e-03,6.367851459953980178e-04,6.660818391908860606e-04,3.549348711967468262e-01
3.438741857124237300e-01,-2.081800844819275964e-02,-4.205918181496942632e-02,2.623505497328784751e-04,-4.283528047704437611e-03,-2.049848890320999165e-03,3.758535981178283691e-01
3.809862147850612279e-01,-4.050679186541389365e-02,4.842715208384390513e-03,-1.353784444027627404e-02,-1.122475232924723121e-01,2.770508002054235253e-02,4.486083984375000000e-01
3.586191567885024245e-01,-3.339389504094883443e-02,-1.318148054362083821e-02,-2.242605756522977022e-03,-3.443347817586283184e-05,1.023526351471419757e-03,3.823316395282745361e-01
2.669057471894231148e-01,-1.850167007602920854e-02,-1.847329376421397162e-02,-4.932949226920688678e-03,-4.193776629117786092e-02,-2.430752430917575927e-03,2.946461439132690430e-01
3.639803139177560376e-01,-3.332613107628026872e-02,-1.972642439362665145e-02,3.302243742617026051e-02,-4.094991732287049657e-02,-1.879015064246249839e-02,4.024865925312042236e-01
9.675082634348833310e-02,-1.976325758737046412e-03,1.278809488429931071e-02,-4.602421024938118180e-03,-5.366317014724138884e-02,2.200747805870929309e-03,1.312428116798400879e-01
3.187662990674091090e-01,-2.499575110114812815e-02,-2.804740002980202207e-02,4.587947148814981377e-03,-8.840335683511187429e-05,7.703949091434064179e-03,3.456470966339111328e-01
3.551192726339188477e-01,-2.504537810725709912e-02,-2.691264773724683090e-02,3.036786261318042378e-03,6.911598600759940409e-04,2.127747066972419943e-03,3.811576962471008301e-01
3.576627115323122719e-01,-3.216967752608318465e-02,-3.052809031616698920e-02,1.324813717661895568e-02,1.748328231951172540e-02,1.127640474319364060e-02,3.913528323173522949e-01
3.314761927656915685e-01,-3.668583362688024319e-02,-2.028903984021254714e-02,2.282498107061986872e-02,2.425676003133980362e-03,-8.187863798265029901e-04,3.624335229396820068e-01
3.483789715558643918e-01,-2.174484014527230946e-02,-2.288921000379040560e-02,2.002645588828307131e-04,5.064626395841901382e-04,4.147166306022393063e-03,3.707681000232696533e-01
3.817499640535045868e-01,-3.132751423206861507e-02,-2.821859259948963916e-02,2.321390157918707883e-02,2.932708560039352930e-02,1.761791504379097914e-02,4.177158176898956299e-01
2.610798350949873337e-01,1.126092822767534030e-02,-3.696383777517589508e-02,-9.155453649856311327e-02,4.151064580704486723e-02,-7.067909012031019234e-03,3.274882137775421143e-01
3.215975245928033299e-01,-3.393848656521675222e-02,-2.005811372259555525e-02,-6.635986547866297436e-03,-1.880345417844281753e-04,5.561840693821868201e-03,3.491254150867462158e-01
3.016154474325894452e-01,-2.899752149487794251e-02,-1.657736051653543874e-02,-5.638069461592622959e-04,6.305480589076483365e-03,5.868824200047959017e-03,3.249253630638122559e-01
2.722479524249546978e-01,-1.691520696655905709e-02,-1.802338099792445691e-02,-3.389265357887517871e-02,-8.930406771281743442e-03,-4.084370891477641201e-03,2.960953414440155029e-01
2.197585268193922026e-01,-9.183352236231220878e-03,8.518073536510906152e-04,-2.182796602802189456e-02,-1.788315150355406034e-03,1.725065116829248768e-03,2.273005098104476929e-01
2.280599015921470907e-01,-1.113623805453628490e-02,-2.059371715721908247e-02,1.990776149213540486e-02,4.225834156347661741e-02,-9.935401267579491939e-04,2.571296393871307373e-01
3.556117560919349052e-01,-8.756917269359204559e-03,-2.659780992632534979e-02,-4.782076670033034820e-03,3.439616527143095175e-04,7.755621722196478704e-03,3.739423751831054688e-01
3.554953596817378991e-01,-1.473194050186230064e-02,-3.243188514164033198e-02,3.627676012338271715e-03,1.248703265320837879e-03,-1.876510173414918563e-03,3.794591724872589111e-01
3.454966218977967296e-01,-3.306344484680687201e-02,-2.857126678771260142e-02,3.995502344952156851e-03,-4.677818133825291380e-03,3.950234010211181243e-03,3.765470683574676514e-01
3.522682636105863851e-01,-1.721990752293026117e-02,-2.821582832151045550e-02,-1.813656163638775395e-02,-3.907219708597924231e-03,4.019135024383454851e-04,3.764815628528594971e-01
3.994515060996308708e-01,-5.753896101950078945e-02,1.233031320824495847e-02,-4.252016684210469487e-03,6.883068120421047265e-03,-2.076582271412143882e-02,4.281149804592132568e-01
5.018490579628570591e-01,-1.163838832706048931e-02,-2.240014836947576415e-02,-4.558881262832808340e-02,2.247972422824224756e-02,-3.881096677726794675e-02,5.306421518325805664e-01
3.557195594092223412e-01,-2.104193358480621612e-02,-2.114844163985327152e-02,3.024239889940571937e-03,-2.208677279690830862e-03,-2.783895012371207563e-03,3.769014179706573486e-01
3.737499379906588093e-01,5.578881855945794221e-03,-2.412566507844871033e-02,-9.642403508606837981e-02,6.271010035909857505e-02,-3.868560616978260203e-02,4.376628994941711426e-01
3.418317681784003303e-01,-2.597785674961589075e-02,-3.235150343628107050e-02,8.688342932671477316e-04,-2.544732293676851137e-03,3.549457394595053467e-03,3.711176514625549316e-01
3.541996816654489622e-01,-2.440447471689471959e-02,-2.080121393510084293e-02,1.785636808762028436e-03,-1.478401393874889148e-03,-5.508102407994865720e-04,3.768380582332611084e-01
3.467384921783283058e-01,-2.736612545517100314e-02,-1.179566199014053796e-02,-7.610838146192672963e-04,-5.037056251145195584e-05,-6.601345405610409625e-04,3.665716648101806641e-01
3.920796835880858144e-01,-7.715260062029882793e-02,1.240562736900586993e-02,2.495901920300149304e-02,-3.967351698845004299e-02,-2.119064621629811185e-02,4.405836462974548340e-01
3.553435208785453159e-01,-2.218997894748658828e-02,-1.804779422166763458e-02,-2.876624065325133258e-03,2.534157814085089694e-03,-5.639891274940884471e-03,3.756652772426605225e-01
3.441526188665438579e-01,-2.933062684518125685e-02,-3.005307967173825867e-02,2.790768928361762359e-03,-5.998200757760962891e-03,3.714292122660558474e-03,3.740758895874023438e-01
3.467381735743403914e-01,-3.835972459125630563e-02,-2.447622173687657998e-02,3.697116550244023379e-03,-1.798558822754413766e-04,3.340586439267666068e-03,3.784458041191101074e-01
3.534904311167622604e-01,-2.054654315753914884e-02,-2.452531504842664356e-02,-1.982646488475615226e-03,1.487216724480610458e-03,-3.096261904000432996e-04,3.760670423507690430e-01
3.063321736966548303e-01,-2.413685413431299054e-02,-1.843189217111783351e-02,6.524281263638178827e-03,-8.047926328362660364e-03,8.522779708662791068e-03,3.284766972064971924e-01
3.176998559058942240e-01,-2.804377213555850346e-02,-1.890500313181742165e-02,-1.169680069086570051e-04,-8.234578420127144222e-03,7.506774773942492471e-03,3.418113887310028076e-01
3.998114146301102179e-01,2.371069336809311645e-02,-5.237864539294481703e-02,1.127221234191743381e-02,-7.343972071175309396e-03,-1.692783352469705987e-02,4.210240244865417480e-01
3.458225158242733688e-01,-3.647699705272061665e-02,-2.477432860289058292e-02,-7.221014659317909288e-04,-6.435843208212211480e-04,1.001916653186124811e-03,3.765923082828521729e-01
3.511520815745183821e-01,-3.042443016205917394e-02,-2.669784361437751996e-02,-7.876674445904790480e-04,5.009940733525970486e-04,3.373694222069417730e-05,3.797303736209869385e-01
3.543313498249606730e-01,-2.487375823401169472e-02,-2.810443241329244057e-02,4.032152280804323155e-03,3.538009205244041326e-04,-1.098171937796501695e-03,3.808999955654144287e-01
2.930757010100779603e-01,-2.941131366864191410e-02,-1.141412858527068863e-02,-1.135429554182402091e-03,2.099239162392127229e-03,2.001596405633937047e-03,3.139219880104064941e-01
3.058641584460300988e-01,-3.193075732980343862e-02,-1.769922008447415152e-02,-2.866765416739251726e-02,1.661336006199369900e-02,6.628977864271522712e-03,3.360445499420166016e-01
3.319706994564231572e-01,-3.877776130804733157e-02,-1.949698059584306642e-02,9.572258613372196790e-06,1.552697374500108026e-03,3.511755284145244745e-03,3.615550994873046875e-01
1.811023316541201522e-01,-8.291931100821034462e-03,-2.916645094936290428e-03,-2.746450306199177752e-02,2.874493821954759564e-04,7.695036232656623718e-03,1.931885480880737305e-01
2.996693123567504835e-01,-3.224412300094064987e-02,-1.823393324893265999e-02,-2.807416877479733397e-02,-7.220137213064827669e-03,-2.710074638728630567e-03,3.290221095085144043e-01
2.605644378650840975e-01,1.142654973139785313e-02,-2.175427023519785341e-02,-1.010635683185710787e-01,7.744601283370232403e-02,-3.907694122174989321e-02,3.530629873275756836e-01
3.485513200631349950e-01,-2.829136731245959768e-02,-3.336677645866928388e-02,-9.536998155285349664e-05,4.689796782532724582e-04,2.319732947340472258e-03,3.794280290603637695e-01
3.485889246632409288e-01,-2.884584388503380614e-02,-3.028084105290576589e-02,-1.377007344700752721e-03,6.237438228537801844e-04,1.470268041754428743e-03,3.781719505786895752e-01
3.459649244841776494e-01,-2.546468190126613407e-02,-3.895127521564017981e-02,-6.754226024850455354e-04,-4.071822553392646167e-04,1.773030965330013933e-03,3.783681392669677734e-01
3.511523771727966814e-01,-2.837419720031819637e-02,-3.551768524554971274e-02,3.071996007394390128e-04,-7.859061339269720855e-05,1.673416748459608146e-03,3.831596076488494873e-01
3.211557957922090423e-01,-2.398101520037906886e-02,-3.081267617200197928e-02,-6.343772794314880489e-03,1.454094336798825160e-02,6.486635571713425009e-03,3.498645722866058350e-01
3.543726395548170705e-01,-2.314122978566601763e-02,-2.179294842833490176e-02,-1.522798382307180825e-03,-1.632743529660816918e-04,2.321211563550649721e-04,3.768510818481445312e-01
3.568176808991937454e-01,-2.565597059902241517e-02,-2.643171120944873276e-02,-6.105056492419209772e-03,5.951857089833961952e-03,-1.204915542886241637e-04,3.831468820571899414e-01
3.688671561081869332e-01,-1.992198065681849428e-02,-2.680664335380802954e-02,-9.763931240016432075e-03,1.688398739668106607e-02,-1.622036075690472257e-02,3.947297632694244385e-01
3.526366646654061632e-01,-2.020512951041064653e-02,-1.627964873270332236e-02,1.591667262961713554e-03,1.777028112644011247e-03,-6.435701400996350977e-03,3.710851073265075684e-01
3.483498488746728516e-01,-2.764134109960453278e-02,-3.413472986634538686e-02,1.449223454576081989e-03,8.396113264514816054e-04,1.051016903994872551e-03,3.792950510978698730e-01
3.525425691475650436e-01,-2.077381975886880006e-02,-1.500885923705025382e-02,1.249676207681439449e-03,-1.604713937442799618e-03,-1.308041703632167310e-03,3.704912364482879639e-01
3.035904002755311359e-01,-2.481322598198609786e-02,-2.499558074295069043e-02,8.889419499928970583e-03,-1.062469514283152609e-02,7.840715521816928046e-03,3.296498358249664307e-01
3.487558944848721532e-01,-3.622992172831618340e-02,-2.351552107817467263e-02,1.121048811121156362e-02,1.449768455176644356e-03,-2.551484415688312895e-03,3.793200850486755371e-01
3.435300434221766896e-01,-3.880953146257795638e-02,-2.321612385701335435e-02,1.240643271485538518e-03,-3.756269749477249265e-04,8.632370990322371521e-04,3.747959434986114502e-01
3.418991369267546099e-01,-3.837719228198302468e-02,-2.481344821129397027e-02,3.585531335262585363e-03,-1.274088674707758240e-03,3.371834420528523231e-03,3.737828731536865234e-01
3.526608562653644752e-01,-3.295817900078346074e-02,-3.039177281092844685e-02,3.725917014006999693e-04,3.295499017460815040e-04,3.284536657219440771e-04,3.843436539173126221e-01
3.443561645766384793e-01,-3.841686348446848864e-02,-2.495849564413818444e-02,3.177559144054966679e-03,-1.632673607338402727e-03,3.322290737487114225e-03,3.763193190097808838e-01
3.471893160188085359e-01,-3.541199462860097902e-02,-2.660967048256560052e-02,5.173729512138475900e-04,5.838195881545241769e-04,7.719417699540734269e-04,3.782817423343658447e-01
3.515004101131243841e-01,-3.526409686770373697e-02,-2.893481108052559092e-02,9.921012159758897404e-04,-6.808576211254218106e-04,1.171582389082821089e-03,3.836500644683837891e-01
3.443969343281780282e-01,-3.697004286960753339e-02,-2.501954848561815936e-02,-3.663103573845632489e-04,-1.556833081481449280e-03,1.252964471971705065e-03,3.755508661270141602e-01
3.485313020793121552e-01,-3.405352235863759458e-02,-2.787537038381315835e-02,-6.533511346802610160e-04,-9.728983270841130848e-04,1.102115395916789670e-03,3.795436918735504150e-01
3.513706616603848865e-01,-3.105809926197700133e-02,-3.296560923630992290e-02,-2.695586731291328740e-04,-1.308591340104910605e-05,2.002340114725536385e-03,3.834020495414733887e-01
3.480987864635249340e-01,-3.854831257152643853e-02,-2.500514709147977355e-02,2.786617577327559370e-03,1.619199249736969805e-04,3.323409205274568436e-03,3.801308870315551758e-01
3.264358711208144581e-01,-3.424892141619542696e-02,-2.374895323529710445e-02,8.437511962322683315e-03,-8.089008344949228865e-03,6.400056505069150019e-03,3.562995195388793945e-01
2.676627759201095635e-01,-2.649116787322693123e-02,-1.006104054175523121e-02,2.184975108615807085e-02,-1.566691006594308480e-03,3.861495671608148380e-03,2.888734042644500732e-01
5.679900393754832438e-02,-4.240855842372385359e-03,-5.276900525924107382e-03,-1.795387053238244393e-02,1.014307916707508743e-02,6.737841240508115649e-03,7.212519645690917969e-02
2.563131143586225846e-01,-6.000553717604689696e-03,-1.780795364736556530e-02,4.309271822831004656e-02,7.240305941196455153e-02,2.674715039832296221e-02,3.090128004550933838e-01
7.488984241964137534e-02,-2.427380183863322993e-02,-2.872943849151776002e-03,4.574472263583574672e-02,2.887769968139741739e-02,-2.056896753436604844e-02,1.349740326404571533e-01
2.711728753199401654e-01,-1.071320148655045823e-02,-1.568723654413578528e-02,1.255097479194667437e-02,-7.705658681476065027e-04,6.802265109077513562e-03,2.854816615581512451e-01
2.919998294657693561e-01,9.161857636900250235e-03,-4.106001196527037100e-02,9.460223575847245825e-02,-7.139847200613339689e-03,-2.133857365272244858e-02,3.536833226680755615e-01
2.595209320616300719e-01,-2.227312215692492381e-02,-3.134498607954547267e-03,4.042494429069262013e-02,3.618746283261749068e-03,-1.942929435760948516e-03,2.816632091999053955e-01
3.526983489747401723e-01,-3.502209753807786208e-02,-2.748357937328083089e-02,6.799586047782548576e-03,2.375736085956885527e-03,-1.762960368990276966e-03,3.842214047908782959e-01
3.048662547480492369e-01,-3.484927417793193261e-02,-1.646397745263065981e-02,2.768754632786234876e-02,-8.560293576261594067e-03,3.303753799621266755e-03,3.347406089305877686e-01
3.386687452600791182e-01,-3.571195696312698398e-02,-2.064273689645773624e-02,5.382994365692537336e-03,7.151488771512708870e-03,-6.802679673501559054e-03,3.675942718982696533e-01
3.372137881882917854e-01,-2.550215283979978542e-02,-4.199045499407086379e-02,2.119407641482764365e-02,-1.018206644616561837e-02,-5.716261560451806750e-03,3.735932409763336182e-01
3.544115437749336128e-01,-2.966136066992688947e-02,-2.774231595536091888e-02,-1.322173091373798556e-03,-1.754776301583874131e-04,2.669671191604496355e-03,3.831518590450286865e-01
3.330206241439812032e-01,-2.929766678575126959e-02,-3.026135976770782943e-02,5.828867241356527895e-02,-1.083695061212164822e-02,5.408795436427696595e-04,3.770550787448883057e-01
2.997904333614200834e-01,-2.496193348162645265e-02,2.252444367220729493e-02,5.751797597624619396e-02,1.193202800688832887e-01,3.542528882059776257e-02,3.856157958507537842e-01
3.607909557015173685e-01,-3.058614011217786199e-02,5.221573347999608483e-04,-1.758709009988227920e-03,-5.828218567317734050e-03,3.571689678629004841e-03,3.769855797290802002e-01
3.556708969697520706e-01,-2.661320877825587572e-02,2.083567562452891264e-02,5.800407846337621298e-02,1.115897436548093369e-01,3.450857873743261306e-02,4.257656037807464600e-01
3.127515146362558895e-01,-4.059701061636838970e-02,1.800881108786153706e-02,-2.081006947224553830e-02,1.005687351855934081e-01,-1.145091092975464298e-02,3.736526370048522949e-01
3.548561559317306435e-01,-3.183544365935164766e-02,-3.291126353753537348e-02,-8.678133728605492872e-05,-3.059087309208170075e-04,-1.419006546329607639e-03,3.872388303279876709e-01
3.180227747098633984e-01,-2.460723532605382791e-02,-2.878219175128002294e-02,1.372795669218667899e-02,2.907463889712650490e-02,4.074379652612578062e-03,3.492769598960876465e-01
3.437143905076001649e-01,-2.526638053775043247e-02,-2.637545862680590325e-02,2.188889833289936037e-03,7.348829643497452671e-03,-6.024374228856699959e-04,3.697766065597534180e-01
3.592474485086835090e-01,-2.779186754458112807e-02,-1.703175714856575151e-02,-1.565278334907980714e-03,4.832015895306012538e-04,1.824843076869128939e-03,3.817966282367706299e-01
5.010623548388968285e-01,-1.408601300118997313e-02,-2.140509891206054949e-02,7.804308908022310198e-02,2.923108542347066345e-03,3.801930561493584854e-02,5.402185320854187012e-01
3.576653947569000125e-01,-2.716857327293176194e-02,-4.619011217748381082e-03,-7.131792004878850658e-04,-1.473738992102037503e-03,-8.603326884454408482e-04,3.740830123424530029e-01
3.573441867788995085e-01,-1.188844114923617856e-02,-2.759040415516042510e-02,3.607704994548649804e-03,-7.454344313170191069e-04,5.972464425924674030e-04,3.773840963840484619e-01
3.587679684145708148e-01,-3.074361883603035639e-02,-1.394745070230823947e-03,2.572562970984384936e-03,4.492918795370992417e-03,6.069777263977860562e-03,3.759519159793853760e-01
3.579802075868656619e-01,-2.704523111360479515e-02,-4.317185685394353545e-04,1.769132874910191253e-03,2.517439020802203064e-03,6.881916539447540532e-03,3.726613521575927734e-01
3.576247335238591507e-01,-1.948879608937326147e-02,-2.910492070952294674e-02,5.622453261846026111e-03,-1.000757497949292599e-03,4.623145537152526831e-03,3.822242915630340576e-01
3.225129628743346188e-01,-2.439273734104374647e-02,-3.083409599322761707e-02,7.545119114209125968e-03,-1.647465481291260359e-02,6.989310351360367331e-03,3.517828583717346191e-01
3.984294182917131333e-01,-3.704355030075762167e-02,-1.036930655421047787e-02,-1.119229384328912849e-02,-6.794743568349952828e-03,1.519517799334002724e-02,4.241925179958343506e-01
3.529261494728131443e-01,-2.685337649604827015e-02,-1.576838825534368493e-02,2.681543182339843952e-03,-4.154010083545800133e-03,-1.426188522767707269e-03,3.744662404060363770e-01
3.330103801365907890e-01,-3.430795108551906725e-02,-2.321966496667363100e-02,-7.145227735479096551e-03,1.562775479971700594e-03,3.433293739034955216e-03,3.621720969676971436e-01
3.578732490174489911e-01,-2.695339773150481899e-02,-6.223280347838089366e-03,-2.602473460836774669e-03,2.488275003869424608e-03,-1.813645434982832970e-03,3.749567270278930664e-01
3.538727841770637483e-01,-1.434679579187331244e-02,-2.114507138598142877e-02,1.528904608883522578e-03,-1.156112543894517687e-03,-9.139264553839093102e-04,3.716835379600524902e-01
3.481204272845828673e-01,-2.727157471864874450e-02,-2.836304101699704816e-02,-3.800228130674169515e-03,4.815874978172572608e-04,2.132341730818726553e-03,3.760156035423278809e-01
4.060271232109249895e-01,-3.773943619155462059e-02,7.781276373626438980e-03,-1.532180544950707130e-02,3.528740875856848508e-02,-3.255402870167071333e-02,4.317632317543029785e-01
3.545817055316667354e-01,-2.952486015622915461e-02,6.141947647764350871e-03,1.849817184385025605e-03,8.348682666946614754e-04,-7.302783561268927359e-03,3.678076565265655518e-01
3.587764703993991389e-01,-3.612379130496851110e-02,-1.494611602094922387e-02,1.332037857660507696e-02,1.996553948640296047e-02,2.068610725880217285e-02,3.886432051658630371e-01
3.880097937922933893e-01,-3.542238697014066240e-02,5.216858073675167962e-03,9.288141420859844996e-03,2.261273897052539644e-02,2.881186052992571606e-02,4.099043607711791992e-01
3.555537415661537137e-01,-2.945909546895661424e-02,-1.697051174800764950e-02,-2.270447375073471937e-03,-2.882101228622192552e-03,1.112887728455886661e-03,3.789811134338378906e-01
3.281118267838464830e-01,-1.805672599287902469e-02,-3.836364850561774231e-02,2.993391013960652381e-04,3.783258757870351175e-04,2.221855983241594057e-03,3.567774593830108643e-01
3.331758377937058535e-01,-1.990894079750446521e-02,-3.638221405430872024e-02,2.401332586538419342e-03,6.354552921338871806e-03,-6.077363157756659855e-03,3.619474172592163086e-01
3.431958809459033088e-01,-2.168930319220055414e-02,-4.103880638643284118e-02,1.276587897911193349e-03,1.676659043648189278e-03,-1.299571469819680138e-03,3.749591112136840820e-01
3.410991154771788603e-01,-1.921475069000874725e-02,-4.219031795690658670e-02,2.921643116544324348e-04,1.635548556721035064e-03,-9.934707100398556471e-05,3.723448514938354492e-01
3.386484407037103073e-01,-1.945253589678586081e-02,-4.268300939446953435e-02,9.064381333859834083e-06,-3.830910910064578038e-04,-3.046765425839777826e-04,3.702641427516937256e-01
3.458541478549084780e-01,-2.584057725988084253e-02,-2.934795157423622514e-02,6.624916759954231280e-04,5.825270605411796013e-04,-7.670340245168445975e-04,3.734662532806396484e-01
3.417006281033144188e-01,-2.086326290780785020e-02,-4.082374775545402623e-02,4.274656265651091778e-04,1.095377284304564509e-03,-4.280687742922636421e-04,3.729512691497802734e-01
3.497703224899686991e-01,-2.600547370862368868e-02,-3.016512349554373307e-02,3.342892850229399801e-05,4.521263904803463004e-05,1.161273046420533426e-03,3.778781592845916748e-01
3.550718574825435514e-01,-3.169638508046834779e-02,-1.639038427679748167e-02,-9.852623932050496702e-05,-1.373292907752030577e-03,4.897092045521995703e-04,3.793553411960601807e-01
3.517310312148873575e-01,-3.239587545157429638e-02,-2.883650014690727903e-02,5.364501699554462570e-04,-4.172751815103665704e-04,-3.937863117803746572e-03,3.824222981929779053e-01
3.561912799474571956e-01,-2.883252818229189995e-02,-2.929865623907712546e-02,2.658427712110610595e-03,5.049545537254020687e-04,2.400782857257552014e-03,3.853080272674560547e-01
3.449865667470685127e-01,-2.944284853428863480e-02,-3.178507740577937724e-02,-6.907004042513345933e-04,-2.509100726601665339e-03,3.981809220711894290e-03,3.756963610649108887e-01
3.544270958052870291e-01,-1.257037619240791715e-02,-2.780344270785869987e-02,1.093782414486665563e-02,-3.061053694914601334e-03,-5.211915230512879742e-03,3.754706382751464844e-01
3.526782204816305555e-01,-3.236188663890010586e-02,-3.092471406272478962e-02,1.359765900839408036e-03,-9.025297171419458756e-04,2.216290555753444233e-03,3.843531012535095215e-01
3.534098428138470749e-01,-2.413141868241572285e-02,-2.090116546668749353e-02,1.757494422907413586e-04,2.114817404350557875e-04,-1.550492432545174694e-03,3.759464323520660400e-01
3.554486992398198653e-01,-2.387868178867480484e-02,-2.849400352175335271e-02,1.541727572543134459e-02,6.516021103529243217e-04,-1.167208379440152485e-04,3.825907409191131592e-01
3.549982299737883262e-01,-3.019595045340800477e-02,-2.978904665844325783e-02,1.059737896703918849e-03,-2.365424425966548009e-05,1.650005803720801462e-03,3.850058615207672119e-01
3.504970103494676192e-01,-1.536469310778237896e-02,-1.573494143007694857e-02,3.303692117421768598e-04,-1.086058413075014937e-03,1.077630462597323939e-03,3.660570085048675537e-01
3.575225516354160749e-01,-1.804191007029395943e-02,-2.504365909538963653e-02,1.276030084652688551e-04,-1.171971139478120410e-03,-6.540586888398113030e-03,3.792885541915893555e-01
3.422510945930678505e-01,-5.241836133754132487e-02,-7.772781923672908433e-03,-1.852360863191088863e-02,4.850379815931482597e-02,-4.699335716202213131e-02,3.935089707374572754e-01
4.136139682592857580e-01,-4.387571083281482931e-02,-7.616593881261873866e-03,1.152478682002813348e-03,3.586367436153362585e-03,-2.254300416339935151e-02,4.422561228275299072e-01
3.216856414674412190e-01,-3.285231851388667468e-03,-1.493924505973759365e-02,-5.060294638935371181e-02,2.920168302023469498e-02,-4.184843307615966623e-02,3.535861372947692871e-01
3.536093466542911123e-01,-2.672623832130868737e-02,-2.544181048989957450e-02,1.502950808387672416e-03,-2.362938653351399649e-03,-2.922832275058611620e-04,3.797263205051422119e-01
3.355628841437364729e-01,-3.463594030935093770e-02,5.735358647108473873e-03,-2.953636368068324192e-02,4.538575380398916087e-02,-2.487565716137788915e-02,3.665853142738342285e-01
4.301302324308174940e-01,-3.355062897918714704e-02,3.548644487503471723e-03,-7.736505041280601624e-02,7.392860642734432053e-02,-2.496011667366890285e-02,4.851756989955902100e-01
3.645744955631629591e-01,-3.935199115473464460e-04,-3.895563396410978152e-02,-7.306466348939799973e-03,4.022484173602876648e-03,-9.393341534877185442e-03,3.863107860088348389e-01
3.468507996115164915e-01,-2.325389599905380855e-02,-2.668482000794300535e-02,-2.571746291760135337e-03,-8.074449250586787359e-05,-1.101509942739259569e-03,3.718636333942413330e-01
3.515097209367886721e-01,-2.905201965152864885e-02,-2.768738691818639630e-02,5.991755920293432690e-04,4.374341014971543226e-04,7.569899386403620631e-04,3.798857033252716064e-01
3.487077818602002943e-01,-3.886159025529375977e-02,-2.322045839779598997e-02,-2.639559393035634943e-03,1.044653950979365989e-03,9.439415653408780686e-04,3.800256550312042236e-01
3.410644364835482278e-01,-3.412542479052199651e-02,-2.511811430209640039e-02,-3.611291072077880970e-03,1.052085024147641264e-03,3.955820399769633712e-03,3.708887994289398193e-01
2.993212624190347837e-01,-1.961850232590865717e-02,-2.718522364688735760e-02,-1.865233604708741583e-02,4.780359646762906770e-03,5.268801023588880021e-03,3.246362805366516113e-01
3.397603667355040824e-01,-4.000882709211292521e-02,-2.101573969906492256e-02,-1.530434633980962827e-02,3.791034858236685045e-04,4.706633136861156086e-03,3.716745078563690186e-01
2.887114361365075155e-01,-3.354198584165168917e-02,-1.199769156764876610e-02,-2.716106760320933025e-02,2.417478021763281529e-03,-1.166105629657324724e-04,3.155938088893890381e-01
3.290026574247320590e-01,-2.781883128834888863e-02,-2.066496327199587868e-02,-1.601538358494334832e-02,-2.028521728872734881e-03,5.458842402695472662e-04,3.544048666954040527e-01
3.045985171499447364e-01,-1.592663814685732482e-02,-3.001384078114691101e-02,-4.319552543681675141e-03,2.246875051494530819e-04,6.032320678038001482e-03,3.280479013919830322e-01
3.094240835357079944e-01,-3.606679807884669020e-02,-1.376086622398757509e-02,-1.059639922217019657e-02,-2.403073829337474166e-04,2.080361955029073808e-03,3.354176878929138184e-01
2.730002603710305342e-01,-2.301859416410081960e-02,-8.116474001970533370e-03,-1.926919515306915048e-02,-5.225846620076982085e-04,4.117302378272394078e-03,2.908668220043182373e-01
3.583529802531889019e-01,-7.948583315054824627e-03,-4.435132266084645947e-02,-2.187107154618801383e-02,1.041218574058987503e-02,-1.676840031018794405e-02,3.891531527042388916e-01
3.527805052647108308e-01,-5.272280746973251331e-03,-3.105692316817995624e-02,-6.893348857337645852e-03,6.621308914454047219e-04,1.893013343054859724e-03,3.718245923519134521e-01
3.720076655847440183e-01,4.872119610242531262e-03,-3.827655421270120817e-02,6.824045867389754577e-03,-1.118977833230986978e-03,-3.026356984767320651e-03,3.907206952571868896e-01
5.006896063094001814e-01,1.206417797163378269e-02,-6.757974088006538094e-02,1.305326372177980504e-02,-3.042002177629406917e-02,-2.280330451421027846e-02,5.374581813812255859e-01
3.419707868573824139e-01,1.723446225714519997e-02,-7.735312652062006911e-02,-4.841210489569566788e-02,9.805169128279797239e-03,1.694598116038591520e-02,3.915324211120605469e-01
3.571282409443983230e-01,-1.760713986571507683e-02,-2.987674059522299475e-02,-3.150492235505483133e-03,-1.624039462560873366e-03,7.695366440590785569e-04,3.810701668262481689e-01
3.718896327335012852e-01,1.095357118743367497e-02,-4.056843522421882398e-02,3.302368625703486910e-02,5.022654642605466763e-03,2.564083588698675212e-02,3.960369229316711426e-01
3.631997466606195490e-01,6.595977890455545500e-03,-3.493354279929702932e-02,-6.077482492242780761e-03,-2.062692817805450614e-03,3.632783224026507195e-04,3.792420029640197754e-01
3.557593985864823116e-01,-2.739486182956535343e-02,-2.847255863279626875e-02,6.218942090092653696e-03,3.140123698111061453e-03,-1.298867209519603046e-03,3.838905394077301025e-01
3.432377274132384359e-01,-3.843043286886335674e-02,-2.233791270437182619e-02,2.708716189359542271e-03,8.324903214012048785e-04,-1.835423457352996493e-03,3.739274740219116211e-01
3.626695567571489032e-01,-1.435493210687505128e-03,-2.947067428623309504e-02,-5.111507008631154328e-03,1.212859295762376988e-03,1.210466226093940938e-02,3.795900046825408936e-01
3.669987274849835224e-01,1.834603556038708061e-02,-3.944801447151294327e-02,2.922309062040261488e-03,-1.079858083756360517e-03,1.500811801394610380e-02,3.817771077156066895e-01
4.237182753256633072e-01,1.595255949875068469e-02,-5.622320146767620375e-02,1.069515949698213078e-04,-2.466928835689473094e-03,-5.481835953324272828e-03,4.483541846275329590e-01
3.758634955879106565e-01,8.693190971711256543e-03,-5.328328144685884338e-02,2.402974844753313910e-02,2.723582188965747997e-02,-6.971674512142521070e-04,4.066572785377502441e-01
2.974238288258579388e-01,-2.362683784874414217e-02,-1.784697894706632759e-02,-1.304596787481649041e-02,2.741192760399722614e-04,-8.523462489024675667e-03,3.193431794643402100e-01
3.633922428888531897e-01,-8.529474130848924140e-03,-3.289374202440090156e-02,-1.082514508912909949e-02,-1.426201084304581316e-03,-4.050691902494999233e-03,3.852114379405975342e-01
4.215112131447139587e-01,2.239192131826350796e-02,-7.712720806460052203e-02,-6.904922243824898609e-02,7.517420584558485303e-03,-3.238232180526093296e-02,4.759611785411834717e-01
3.818048331286088004e-01,1.453970756213132653e-02,-4.535328530595902907e-02,-8.450353431927849768e-02,9.331900701660369307e-03,-4.595106308842442089e-02,4.341494441032409668e-01
3.703690589758817375e-01,1.304744954702041770e-02,-4.391939118346416260e-02,-6.843236006010411723e-03,2.167095204516665281e-03,-8.184128558669848813e-03,3.894033432006835938e-01
3.808172329835708969e-01,-1.070220521472792230e-03,-3.762289154094816679e-02,-5.949926542745106800e-04,-1.233449938804016474e-03,-1.438071320907197137e-02,4.021929502487182617e-01
4.086943189853510239e-01,2.611517967454246580e-02,-4.569563918057575891e-02,-1.963444120643638088e-02,1.329269331948700061e-02,-5.392223611563630274e-03,4.251714646816253662e-01
3.635075194176828339e-01,1.160150644895362182e-02,-3.617786353923480025e-02,-6.407081068176802762e-04,6.678360476866125736e-04,-2.378674322546059632e-03,3.780927062034606934e-01
4.822433894825531864e-01,1.640030408344556045e-02,-8.287096263208892921e-02,-9.499499228848300170e-02,1.306003472809203272e-02,-2.385031377655453394e-02,5.499088764190673828e-01
3.965094588393613950e-01,1.018759225405302393e-02,-3.539256380647745615e-02,-6.141406230753571928e-03,8.024320589220133772e-04,-2.763469101189327745e-02,4.139285683631896973e-01
3.725672232153495189e-01,5.234003191115638165e-03,-4.052280285467813048e-02,3.282634743819555414e-03,-3.005025519541469018e-04,1.745323951314036674e-03,3.922717273235321045e-01
2.017812429170977306e-01,-3.072137398881719106e-02,-4.186011561333119468e-02,-7.336803193232459275e-02,3.237095046549164773e-02,-2.421779196560459174e-02,2.789678573608398438e-01
3.474138559896274292e-01,-2.658079564530463346e-02,-3.657220893313362087e-02,-9.018174242375472886e-04,-1.341699183815771486e-04,1.092733832470913847e-03,3.790971338748931885e-01
3.514835665867625525e-01,-2.712081625784379391e-02,-3.668767991291319031e-02,1.177191113466859998e-03,-1.344720945808597281e-04,1.091925675855884162e-03,3.834874927997589111e-01
3.340537425037253261e-01,-2.741600560938370346e-02,-3.163903421099434343e-02,-2.027330501679341771e-04,-4.899741114516996572e-03,5.951198269057410457e-03,3.638449013233184814e-01
3.549030269880467103e-01,-2.954809889394424682e-02,-3.393981055491199217e-02,1.205676174271575179e-03,1.211510157619755253e-04,1.122521000562025925e-03,3.866762816905975342e-01
3.514903851551239300e-01,-3.007071647572950868e-02,-3.380882903921725302e-02,-1.107195847882127410e-03,7.279720509823222208e-04,1.224470092536928062e-03,3.834565579891204834e-01
3.433708418988881683e-01,-2.632541045417260972e-02,-3.272393221700722887e-02,3.999193298585188537e-03,-5.010238221839370849e-03,6.872831836385969416e-03,3.732917904853820801e-01
3.505927999215721069e-01,-2.421036348063379529e-02,-2.275636498986932654e-02,2.137129850112857912e-03,-1.981911628839760041e-03,-7.110897479439317811e-03,3.743150234222412109e-01
2.961875297042880772e-01,-2.357115123012554214e-02,-2.082538961870036842e-02,1.114679180435337348e-02,-3.675044342924066454e-02,-2.050645921188081139e-04,3.252688646316528320e-01
2.801008438429525294e-01,-1.163736579570918972e-02,-3.138648271782734644e-02,-2.389572624536027892e-03,5.069657842939345044e-02,7.135933006136966923e-04,3.146297335624694824e-01
1.058563275067150589e-01,2.086370988588956421e-02,-5.287841212745580943e-02,-3.178691683687630276e-02,2.927021754653385405e-02,-2.352320892322646954e-03,1.566755920648574829e-01
3.533809489990856201e-01,-3.168674131578810838e-02,-3.094408156044037295e-02,1.340170588363987858e-03,-3.931536733950308530e-04,2.231729687954684977e-03,3.847239315509796143e-01
2.902840434231837019e-01,-1.762496950652643612e-02,-2.486923144299155175e-02,-1.589415877491469814e-05,8.263210743141284620e-03,7.191820504326339181e-03,3.121714591979980469e-01
3.289149493735226693e-01,-2.442193662194785952e-02,-3.070094363384678893e-02,-6.228113252477409550e-05,-3.199371270991895814e-04,6.927107273983745470e-03,3.567201495170593262e-01
3.377171223943519762e-01,-2.172838823230513472e-02,-3.815914538463760497e-02,4.549802964301399941e-04,5.671506167126622207e-03,3.252924996417133618e-03,3.681112229824066162e-01
3.455114150540444240e-01,-2.521912616931842877e-02,-3.439179883613799338e-02,-1.459309333032904202e-03,3.593566456823274816e-03,2.610669508617234624e-03,3.754882812500000000e-01
3.103894850245061399e-01,-2.474322961387392938e-02,-3.772512878472300546e-02,-1.170772862626821495e-02,1.947944680744404314e-02,1.130795180482036926e-04,3.440679013729095459e-01
1.937472792429902890e-01,-2.711472052492613916e-04,-8.437642768754666234e-03,2.671255126908852334e-02,5.640314444040665787e-02,5.289929580463946512e-04,2.257869690656661987e-01
3.477343356164848132e-01,-2.522734160244252677e-02,-3.679028419476798595e-02,-2.860163704075202856e-03,5.266791683009242747e-03,1.712048287589089781e-03,3.790292739868164062e-01
3.548238240476259131e-01,-2.738384908795721273e-02,-2.515863165971812809e-02,1.003095599507008019e-04,3.954858999332998629e-03,7.154406152226380463e-04,3.811635375022888184e-01
3.501119089102268100e-01,-2.687418113060857650e-02,-2.771040074043940038e-02,1.109748901706232875e-04,-1.160849184292469562e-03,-2.754042107676864335e-04,3.774105906486511230e-01
3.270878876601236995e-01,-2.366937188287102090e-02,-2.831644358852217214e-02,-5.562440604508872739e-03,1.312229269592878750e-02,4.562729032050783645e-03,3.540538251399993896e-01
5.337003949429739436e-01,-8.221513103198918593e-02,1.058335309845145900e-02,3.253122152936980139e-03,-1.432016244738040095e-02,-1.803558840384077242e-03,5.757292509078979492e-01
3.612149709320829349e-01,-3.907581971254708852e-02,1.219068798156218436e-02,-4.824640871536188969e-04,-4.938333190935080726e-03,-4.608571431345394407e-04,3.773777484893798828e-01
3.601751651925657605e-01,-3.409026649415711208e-02,-8.536918952966598972e-04,-2.940416076302674632e-03,2.982654976955013797e-03,-2.381571517937338713e-03,3.788343966007232666e-01
3.636259558763468291e-01,-4.421014111771592869e-02,8.271822632848174761e-03,-2.122781994914004714e-03,-5.247212651908074628e-03,-4.409541458700679331e-03,3.844932317733764648e-01
3.228253852349248776e-01,-3.183032397436397209e-02,-3.533695423226665411e-02,-2.699668113232829569e-02,3.437945906013785413e-02,3.987922529183425893e-03,3.644401729106903076e-01
2.956745425636692071e-01,-3.023156656499736972e-02,-1.243119190236258165e-02,-1.802374431943764373e-04,-3.503561635711290555e-03,-7.843306443686726441e-04,3.174415826797485352e-01
3.377459029286090098e-01,-8.497345536286413092e-02,3.569064345418940243e-02,-2.940702456987125124e-03,1.074978412332331934e-01,-2.101764406013343495e-02,4.222119748592376709e-01
3.517487684254286262e-01,-2.614486814884953159e-02,-1.768563966055647363e-02,1.066118722459091480e-03,6.507659490550165432e-03,8.123434664078620776e-03,3.741749525070190430e-01
3.542706952746673132e-01,-2.921371212527434924e-02,-3.038882638837603345e-02,-2.131749510946223756e-03,1.577089132713869893e-03,1.499040047875746864e-03,3.841095566749572754e-01
2.900133937026012632e-01,-9.718667256322879866e-03,-7.923081540052376304e-03,-5.900862144979103496e-02,4.928026679440111746e-02,-2.708694298277757734e-02,3.305104076862335205e-01
2.139913183260373775e-01,-7.229515897854824069e-03,-7.017734952359189204e-03,-8.241783835513884215e-02,8.489302023310102419e-02,-2.055272307975240104e-02,3.035748302936553955e-01
3.891409529058799666e-01,9.410472063012847999e-03,-4.390452050950149898e-02,6.301658337364780989e-03,-1.029202060812268527e-03,-1.085369434964496976e-02,4.095836579799652100e-01
3.553946662898848641e-01,-2.245798888433753193e-02,-2.847604897647579292e-02,-6.721444201215105371e-03,1.327609884062428617e-04,-2.408456934037609635e-03,3.810981214046478271e-01
3.598778932537872177e-01,-2.075423863351683051e-02,-1.321096819693451385e-02,-8.129183491361215283e-04,-2.217760595316948667e-04,-8.176158600679432620e-03,3.771858811378479004e-01
3.582215438018812037e-01,-7.666273118869165737e-03,-3.272209801732389733e-02,-6.251011367293485450e-03,1.386083040128464981e-03,-1.685998940840398178e-03,3.792107999324798584e-01
3.621508682465056084e-01,-1.427388145095540017e-02,-2.188951243061551533e-02,-5.178490433236569886e-03,8.271488331694382156e-05,-6.692380523116090753e-03,3.805721104145050049e-01
3.539608405350290199e-01,-1.290506352389561573e-02,-2.234435658475605879e-02,2.222610070209761046e-03,-4.115912160298083183e-03,-7.346867599419087264e-03,3.719814717769622803e-01
3.646226592088126495e-01,-2.401930268283614112e-03,-3.158962839997847549e-02,-6.060877305377629322e-04,-1.660062752085365466e-03,-6.497143752499293275e-03,3.826324343681335449e-01
3.236981594944335905e-01,-3.232927270821711607e-02,-2.652562422065254943e-02,-5.631361223074939255e-03,8.288007507298557341e-03,5.647666027152367131e-03,3.537228405475616455e-01
3.536402835789371757e-01,-2.931223057014153976e-02,-2.954728176496027037e-02,-2.290106716770670247e-04,-6.757470610670898411e-04,2.026183390028097903e-03,3.830881714820861816e-01
3.948658543587955649e-01,-3.878135362713663881e-02,-1.563635702775295622e-02,8.933055893955130916e-03,2.277910028141733392e-02,2.001578302048464403e-02,4.260830581188201904e-01
3.576336300567872772e-01,-9.157363500766735331e-03,-2.396840948944747862e-02,-3.705629627319365939e-03,-9.658859613551828375e-04,2.000774832545975171e-03,3.744910657405853271e-01
3.553059859938795806e-01,-1.968455317115233583e-02,-1.851229773959134350e-02,4.735133792206733683e-04,4.929701135461389810e-04,9.057559373640703196e-03,3.747361898422241211e-01
2.888213374410537604e-01,-2.047235993964839629e-02,-2.250665302794109535e-02,2.758993379238326715e-02,4.939582447476172089e-02,-6.657288240368760407e-03,3.256260752677917480e-01
3.513385636467554196e-01,-2.009020561814073291e-02,-1.639439344936091669e-02,-5.979303741245254027e-04,8.022630000287397055e-04,1.172690665513223193e-03,3.696043789386749268e-01
3.532889158464282975e-01,-2.902398533129796343e-02,-3.170643845462042809e-02,-7.578146819976322966e-04,-6.002624523121265080e-04,-2.633372438906157005e-04,3.836650848388671875e-01
2.692536157501640437e-01,-2.601048221737417565e-02,-1.135673062617087448e-02,-2.291592067582212330e-02,1.262693070177152996e-03,-8.279062517589641512e-04,2.909487187862396240e-01
3.520523606102922698e-01,-1.829934354430004517e-02,-2.683133368735052260e-02,1.410329721902577526e-03,2.452037642978284557e-03,1.041156949468213582e-03,3.747269213199615479e-01
3.568162746559990772e-01,-1.398563599088772924e-02,-2.978329218564329528e-02,-2.874463481280290205e-03,2.482691170887179385e-03,3.234138384230075391e-03,3.790462911128997803e-01
3.522617858643341537e-01,-1.527134796852880338e-02,-1.967602280684382920e-02,1.369005498841481538e-03,1.858653278045933541e-03,2.342073949871108056e-03,3.697990179061889648e-01
3.655478633559181012e-01,1.237090727225270692e-02,-4.179038466906662141e-02,1.100755007882956403e-02,3.273013513998391990e-03,5.886410185181289480e-03,3.837909698486328125e-01
3.470191230194457632e-01,-3.180785802505708970e-02,-2.549751380991618910e-02,2.086567423017865962e-04,-1.215015218520814136e-03,-3.508338411220801286e-04,3.757181167602539062e-01
3.864495921031458336e-01,1.110258896173976773e-02,-4.004816472923033999e-02,8.689612683225794720e-03,-4.789812809491326463e-03,2.288085355869314691e-02,4.056685864925384521e-01
3.434388365539840504e-01,-2.839356194338180095e-02,-2.640857689983505674e-02,-1.011841382864047886e-02,1.734431345322361400e-04,-1.691279568707569929e-03,3.712694644927978516e-01
3.589250313098057421e-01,-1.802927835809828294e-02,-2.999934445049529108e-02,3.720313377367957461e-03,2.775594291770464277e-03,1.201157855484846163e-03,3.831696212291717529e-01
3.261776946799261334e-01,-2.485075316558715830e-02,-2.660304584215872348e-02,-1.311811627239396240e-03,-5.269915339648789145e-03,-8.234704860892280015e-03,3.523223698139190674e-01
3.636196810198227825e-01,-2.266142090601755421e-02,-6.859424267271735376e-03,-2.739575143284492947e-03,-1.900255458360314113e-03,2.065100122202628494e-02,3.803570866584777832e-01
3.545696905425892997e-01,-3.443552025228938107e-02,-1.039820527022158880e-02,6.848010653283867835e-03,-2.141027060829372129e-03,-4.195904895609337860e-03,3.778352439403533936e-01
3.637837748748148914e-01,-3.432241710855854500e-02,4.274417729033946900e-03,3.272543002494814404e-03,-1.818826298700497446e-03,-4.906449977365131762e-03,3.804298639297485352e-01
3.598562863764421804e-01,-3.330605880979542466e-02,-1.030765359979002316e-02,2.798211672414229433e-03,-6.881128030808454990e-03,-1.772504463763089396e-03,3.824113011360168457e-01
4.061926653555615330e-01,-4.880810745344527080e-02,-1.147903037226555290e-02,-1.124208673988546202e-02,-2.158414254616564457e-02,9.435454907373937508e-03,4.398616552352905273e-01
4.101395268267995498e-01,2.623311479346310260e-02,-5.139101749486710280e-02,-1.553927157966844552e-02,-1.688040659581355185e-02,-5.050410316929846918e-03,4.299602508544921875e-01
3.632020137592566478e-01,1.619043095909561414e-02,-4.683173797381773307e-02,-4.355237373424176647e-03,-5.153588540706377855e-03,-2.278133490411878969e-03,3.826361298561096191e-01
2.259726526359276400e-01,-1.568846529822517932e-03,-5.762169271699868478e-03,3.624821291507520672e-03,-1.475077674509148867e-02,-1.391196094168566533e-03,2.311814278364181519e-01
3.499145803955038825e-01,-2.633465116954816776e-02,-2.798051059024517229e-02,-1.336317953703497908e-04,-3.770268665182521274e-03,-1.739142069586832118e-03,3.771435022354125977e-01
2.790524253429632617e-01,-8.750645842840007460e-03,-2.437190712020594063e-02,-6.646293766582669037e-03,-1.590556348062608163e-02,-6.118421709533694575e-03,2.976142764091491699e-01
2.412753329759509957e-01,-2.065287209946919944e-03,-6.740150624264376611e-03,-8.711297485615217967e-03,-1.145178585335257168e-02,-1.286017974309740502e-03,2.469820827245712280e-01
2.646579520844657418e-01,-8.397149675157464244e-03,-1.488844977314533746e-02,-9.253138623109622221e-03,-4.088585121754277824e-04,-5.558736205768109902e-03,2.769905626773834229e-01
3.182024709452223599e-01,-5.046107576444941456e-02,1.501194028163889416e-02,-3.535497118665875162e-03,-8.931979015945837319e-02,2.213652406287929322e-02,3.761697411537170410e-01
3.297558063209186097e-01,-3.153398719168359898e-02,-2.615012788211640293e-02,-5.016621601909541928e-03,-1.478148467939327353e-03,-6.137159789767739591e-03,3.589000105857849121e-01
3.210764103965674243e-01,-2.282915418474645852e-02,-2.731306926104143384e-02,-4.546819099703313521e-02,2.361963241496495974e-02,-4.489330887589808652e-03,3.574484288692474365e-01
3.634236122259998925e-01,-2.692324267074497346e-02,-3.270785973922049616e-02,-1.183383445213214910e-02,6.808092945275815919e-03,1.876160815352658200e-03,3.939947485923767090e-01
3.424822317841297870e-01,-3.259008263767382285e-02,-2.684199096429193410e-02,-5.221115300763655431e-03,1.753201653132503181e-03,2.894919605268601003e-03,3.723875284194946289e-01
4.333321455527071042e-01,-7.417632719299263599e-02,1.139961217039567321e-02,7.230088214453445419e-03,3.191468597658311812e-02,2.917579521565197981e-02,4.766798913478851318e-01
4.976233366692972560e-01,-5.835587628586597075e-02,2.411243504486595968e-02,3.428037605250216363e-02,7.838313679297272130e-02,1.805730232372303179e-02,5.412934422492980957e-01
3.129594910893718773e-01,-4.032618707296253824e-02,-3.496101115804486903e-02,-2.089686330885728860e-03,1.978512342298866661e-02,-7.486928921784538789e-03,3.525616824626922607e-01
3.688474223636618032e-01,-4.577649416808110550e-02,1.040951749026332307e-02,-3.696310631148542677e-03,2.215320373950278952e-03,-1.290568150408533251e-03,3.896594643592834473e-01
3.451664880475337482e-01,-2.736940196527096192e-02,-2.940028012955417380e-02,9.726402371719911240e-04,-6.849053438386537053e-04,-2.753311945133050096e-04,3.735614418983459473e-01
4.093696234996134220e-01,-4.641386444246722864e-02,1.287899312672591279e-03,4.917358984057437765e-02,7.420811607744515204e-02,4.685744023552089466e-02,4.675830304622650146e-01
2.597808581106563763e-01,-1.489211458973231650e-02,-1.076004632402853545e-02,2.624324509919707948e-02,-2.627137386767655278e-02,7.090265576847989623e-03,2.803833782672882080e-01
3.312110933748204089e-01,-4.096466477220592206e-02,-8.908394758531584801e-03,-1.140323112978732130e-02,4.560165874257435248e-02,1.011372779811248179e-02,3.668069243431091309e-01
3.213063804457598760e-01,-2.959066768922549717e-02,-2.535195480826735182e-02,-4.997465161863639659e-04,5.301134614464904186e-03,-7.735892988071831240e-03,3.491760790348052979e-01
3.062432562374397538e-01,-2.777206489407935130e-02,-2.794367257545338212e-02,2.739830830404786643e-02,1.904208100231415124e-02,-1.864270026480539235e-03,3.390778899192810059e-01
3.273673530093653694e-01,-3.829522230052651022e-02,-1.441202441897043718e-02,3.557063409781827676e-04,1.128121544867298140e-03,-3.270499042614608953e-03,3.543763756752014160e-01
1.909123221633631240e-01,-4.428225560817483641e-03,-1.119864938592579628e-02,8.932297544796163891e-02,-3.767084150953910887e-02,-9.517286337148885000e-03,2.607510387897491455e-01
2.569607038541405486e-01,-1.686658885259420537e-02,-2.864385333951641188e-03,1.037026161050666430e-03,6.734426706636608990e-05,2.219834720775158915e-04,2.671079337596893311e-01
2.736945201618172785e-01,-2.631613026101055353e-02,-7.373560200777826146e-03,2.058568043366065803e-02,-5.371005391254222473e-04,3.994348938613202782e-03,2.932614386081695557e-01
3.092055188468324500e-01,-3.128687776033015067e-02,-2.266305973421700592e-02,2.226585100424304658e-02,-6.906002948737076375e-03,5.398774242931005454e-03,3.388080894947052002e-01
3.541122178023550227e-01,-2.324630425498441788e-02,-1.612873123205763037e-02,8.749601171717965014e-04,2.268399762788009342e-03,-1.843344017496397142e-03,3.738878965377807617e-01
3.534970416020886685e-01,-2.810356702667166084e-02,-1.690562317825694549e-02,1.615115126585482414e-03,-2.530397102954261204e-03,-1.563005429812441729e-04,3.761627078056335449e-01
3.555475210540872122e-01,-2.904288782746108910e-02,-6.773449254002361641e-03,1.312905718340074985e-03,2.343942636934874969e-03,-5.103769809413756693e-03,3.740867376327514648e-01
3.541109442205077062e-01,-2.381734578368030486e-02,-2.387389107735699012e-02,-3.000186061281459788e-04,1.728190830321841773e-03,-1.080665974948598384e-03,3.779734075069427490e-01
3.513192405048061184e-01,-2.289506413341757529e-02,-2.736931682062471172e-02,-1.165148963584075343e-03,1.202927025596258305e-03,-9.375892329685904482e-04,3.764860630035400391e-01
3.553438676820305231e-01,-2.649847259449697456e-02,-7.716777360740390002e-03,2.333352786891175826e-03,-2.263906395069602458e-03,-1.829430497297729634e-03,3.728624880313873291e-01
3.568430211725558965e-01,-2.076065865033061009e-03,-2.815903299994743092e-02,2.333077514629688064e-03,-9.823962773213583324e-04,-4.855691398786350817e-03,3.727664947509765625e-01
4.286318115818926744e-01,-3.963063075674144731e-02,5.390112588608525490e-03,-2.898807400307630566e-02,6.633010661767434202e-02,-3.543111667424704569e-02,4.687228798866271973e-01
3.814474001341677245e-01,-3.146422109477856055e-02,-1.362204725275956152e-02,-1.704104905517809035e-02,7.043388135983718462e-03,-1.788001845991324737e-02,4.067262113094329834e-01
4.228588360402533164e-01,-6.474341600228913918e-02,5.069733262216602476e-03,-1.559283099728467001e-02,1.755411416827135779e-02,-3.144564627040916105e-02,4.617457389831542969e-01
3.559582662247403606e-01,-2.277114184338899228e-02,-1.195474971307658452e-02,-3.101375301948757195e-03,4.112082072239199408e-03,-7.931997286817940584e-03,3.737978041172027588e-01
3.565931371279752460e-01,-2.902611199731164326e-02,-1.113960691206603015e-02,1.290925656575781216e-03,5.077556942220205066e-03,-7.187325524262665015e-03,3.773089945316314697e-01
4.263969583219047732e-01,1.917940996570727252e-02,-6.210192429882863130e-02,-9.429425553219560399e-03,-3.193718487471465008e-03,-5.705017542759475112e-03,4.537917673587799072e-01
3.662603903256306248e-01,-3.178466842541716186e-02,-6.451881020848343473e-03,5.362087228412767840e-04,-1.641664932736237024e-04,7.234557183174550148e-03,3.862071931362152100e-01
3.540101042184772284e-01,-2.727198450612353109e-02,-2.593563398289969180e-02,8.414128943658878408e-05,3.798823202886422723e-03,-4.003487219338663894e-04,3.806731998920440674e-01
2.931441075050140732e-01,-2.154470440924168007e-02,-2.224983531460356101e-02,1.357758641759009705e-02,3.154409821873736808e-02,-9.385360338441643344e-03,3.210200071334838867e-01
3.581249468147956194e-01,-3.470391071983758291e-02,6.581711742215862193e-03,-4.147978694214141007e-04,-2.773596143326502277e-03,3.681672267817247095e-03,3.739854097366333008e-01
3.597100148919722962e-01,-1.304159698005380452e-02,-2.191234087720303481e-02,-9.335828105296851108e-04,-7.167762597057947618e-04,8.148516757395085630e-03,3.775346279144287109e-01
3.230056387498533299e-01,-2.398723488530735137e-02,-2.670936292260461808e-02,-4.870399869016954486e-02,2.993909873699859142e-02,6.679426006118861087e-03,3.623467385768890381e-01
2.675380452485913718e-01,-1.550001974742216959e-02,-1.018574149102312310e-02,-3.431260259408521352e-04,1.271670922175159590e-02,6.055109145482017417e-03,2.814784944057464600e-01
2.356755056502960743e-01,-1.713496447816191537e-02,-6.849519133466222542e-03,-4.260226739428414622e-02,4.159630085306425216e-03,3.008619842716052459e-03,2.587326467037200928e-01
2.555342469426509222e-01,-2.148477033066124864e-02,-7.453070143455337027e-03,-1.830491155244493365e-02,2.666788179568634932e-03,5.700797110553300524e-03,2.723479866981506348e-01
2.916927302757993390e-01,-2.606027596022422732e-02,-1.665571755742308035e-02,-1.444353033861655450e-02,3.960544997239739658e-04,8.025051080721276944e-03,3.144624233245849609e-01
2.958318160407432673e-01,-1.795163388341881883e-02,-2.413946572652952982e-02,-4.146210751498200691e-04,9.847253578741662489e-03,7.896260901860524192e-03,3.176766633987426758e-01
2.702398265351897977e-01,-1.896368079912683080e-02,-2.178460493805846332e-02,-2.529213883757047351e-02,4.113069624719917217e-02,6.993072603531359788e-03,3.026605844497680664e-01
2.923215697526331258e-01,-2.993589540242543034e-02,-3.118922817762710686e-02,-1.466002921726918679e-02,2.987278135653471944e-02,1.374570007568260560e-03,3.279983401298522949e-01
3.106973309579306175e-01,-2.671854943427426354e-02,-2.462104900309769473e-02,-1.091089651619794008e-02,1.096551723862391504e-02,8.870905165488976798e-03,3.377870619297027588e-01
3.568232836221522097e-01,-1.707989950905575149e-02,-2.989595408212802896e-02,-2.621451663601219451e-03,1.455788221822091038e-03,-1.616002186052911205e-04,3.805086910724639893e-01
3.615932073926839130e-01,2.986112828723352930e-03,-3.465434311095103026e-02,-4.164805039142170998e-03,1.351309745743458929e-03,-6.432000986248511461e-04,3.789099454879760742e-01
3.784751630495272190e-01,-1.545271229236330757e-02,-4.226790934641849740e-02,4.661078441406566603e-02,-1.063346997212263542e-02,-4.102467602302363632e-03,4.163758754730224609e-01
3.503516087458130035e-01,-2.883723258136530743e-02,-2.717468806421396987e-02,1.047581282904624434e-04,-1.531621764707883542e-03,5.378458835710052182e-04,3.783707916736602783e-01
3.521474463295042878e-01,-2.757223375332557014e-02,-3.693426399017171735e-02,1.177150325686729827e-03,-9.485724228973042849e-03,7.151962005890801508e-04,3.848444521427154541e-01
3.284478088437096654e-01,-3.240069279221402532e-02,-2.535849114276975125e-02,3.982406483019452527e-03,-2.265601191429293757e-03,5.538786276958586677e-03,3.575962483882904053e-01
3.645804883651162509e-01,-2.658540872000514366e-02,-2.814627863712598765e-02,1.742568848719674296e-02,-2.884826919252069920e-03,-2.171710695172376947e-04,3.931409716606140137e-01
3.552246298254462809e-01,-2.653189211554612958e-02,-2.741050532494285208e-02,4.576049861432770170e-03,-9.686504730950246805e-04,7.523065565037920536e-04,3.822846710681915283e-01
3.370875193882713616e-01,-2.839400715042933454e-02,-3.742893240042161063e-02,4.021223189330724868e-02,-4.007001295889569409e-02,2.518137867286792449e-03,3.829456567764282227e-01
2.738523404340565959e-01,-2.258886596810329161e-02,-1.588481174960122699e-02,-1.405019701333857368e-02,-1.419048548921077180e-02,-8.848176328617564715e-03,2.955777049064636230e-01
3.586944510405318809e-01,-2.952557548137613175e-02,-1.130805367445333887e-02,1.140228912651716862e-03,4.728225474044655055e-03,1.243715115818749177e-03,3.795390129089355469e-01
4.102127933450046005e-01,-3.251753783721758606e-02,3.962700704444349631e-03,-2.154671913245465378e-02,3.255877523434375087e-02,-3.285660529527862500e-02,4.347432851791381836e-01
3.556168369440098620e-01,5.685158092827574672e-03,-3.154492542610073946e-02,2.896523074226207235e-04,-1.731326023098631126e-03,-7.151907645450411750e-03,3.701741993427276611e-01
3.578200502172239061e-01,-4.156570002964266042e-03,-2.074575815591941930e-02,-2.189359147385803311e-03,-4.954488157020265444e-04,-4.382523930113341529e-03,3.706479668617248535e-01
3.644148661772328435e-01,2.388500034259888327e-03,-3.860453731155802370e-02,-3.797689143347306173e-03,2.690193900438253918e-03,-1.075950888534493157e-03,3.842558264732360840e-01
3.555213961113711796e-01,-2.804476542840558806e-02,-2.783375155033096515e-02,6.543187042128481047e-03,-1.667594655873716556e-03,1.102551063115309428e-03,3.836437761783599854e-01
3.439238867732898886e-01,-2.655159587609257077e-02,-3.011421064078831367e-02,9.147639028900840866e-03,-7.994735056383603725e-03,1.047866597687474761e-03,3.728682398796081543e-01
3.835871792994982044e-01,-5.674373768031371057e-03,-3.634987121648272645e-02,8.784563825002388027e-03,9.597381857064884655e-03,-9.263935220300036077e-04,4.060994386672973633e-01
3.732178568550883480e-01,1.134557108488365440e-02,-4.042197251648055323e-02,1.273402204708083468e-03,1.184848992021187916e-03,-9.151293997602951216e-03,3.906724750995635986e-01
3.733131230772860354e-01,2.109509427880866539e-02,-5.787967589933132317e-02,7.148138664368617473e-03,3.584239226328736483e-03,6.237437002567312871e-03,3.980194032192230225e-01
3.599720479650097005e-01,-1.655851198560298609e-02,-3.691521344326731402e-02,4.016952522493782984e-02,-2.320574166788986689e-02,-5.390258250865091923e-03,3.954719007015228271e-01
3.855144100259006446e-01,-3.469397512884386803e-02,3.242207345542619246e-03,-2.242462512699976498e-02,-3.226500691679359822e-02,2.947467535410928929e-02,4.114742875099182129e-01
3.564883930460291395e-01,-2.679936858255654863e-02,-1.224537888613697056e-02,-8.674377232754085145e-04,-3.569213217013529442e-03,2.355998780519879404e-03,3.762978613376617432e-01
3.509761712798312172e-01,-1.970040223250932310e-02,-1.798031588524423574e-02,2.011869512551327666e-03,-2.440866545615979349e-03,5.462859045884319378e-03,3.699811100959777832e-01
3.516378723338554058e-01,-2.718758257862563532e-02,-2.980388396575756049e-02,-8.156114090598104872e-04,4.550279620961209708e-04,-5.135138293085692463e-04,3.801448345184326172e-01
3.644168409427971933e-01,-3.221276269993311736e-02,-1.987628514269229596e-03,6.284983802499184789e-04,-4.728699634437863626e-03,3.433384799793685969e-03,3.825494050979614258e-01
4.219749903289081172e-01,-7.060366533852341364e-02,1.755606467668655024e-02,5.269312554822139227e-02,6.678747434057648313e-02,3.110947398652326099e-02,4.812432527542114258e-01
5.635400630928826260e-01,-4.067363467300311175e-02,1.001821642171973892e-02,3.396963328881607430e-02,4.780246546666373081e-02,3.308882049420558413e-02,5.921290516853332520e-01
3.494115669237179977e-01,-3.840833198815690741e-02,-2.285081299443567082e-02,-3.044079093900147522e-03,1.221189623406777392e-04,-1.176891572746601453e-03,3.803219497203826904e-01
3.574013981615014046e-01,-2.792754653658091613e-02,6.168060738369757212e-03,1.813490082331885734e-03,1.910491684599392639e-03,8.130804587769466935e-03,3.697594106197357178e-01
3.585702015649415708e-01,-3.037342112198060384e-02,-3.735452666452976356e-03,2.007186699488934870e-03,-7.997508510934716805e-03,1.048474243825307968e-02,3.770408630371093750e-01
4.087548744502725873e-01,-4.630607892743479614e-02,-9.221068419656031079e-03,1.950460791361018770e-02,2.528846795976905787e-02,4.587328171263529292e-02,4.482775032520294189e-01
4.015071227278816379e-01,-1.657132834061328386e-02,-1.307930101499216180e-02,1.517904381102103128e-02,2.099892383207511287e-02,3.800360461500234405e-02,4.238970875740051270e-01
5.038493976204041491e-01,8.162303467825759995e-03,-4.961629358553129587e-02,3.361947622611701630e-02,-2.054409817322075740e-02,2.081327448571954411e-02,5.325793027877807617e-01
4.342074348053942545e-01,-2.628453733070629239e-02,-3.057824884697987744e-02,8.094099777225065989e-03,-4.707200709196311846e-03,-2.534534722134441226e-02,4.650147259235382080e-01
4.110961993802876302e-01,7.198853156153955934e-03,-4.015561058336708511e-02,-1.932053572563572144e-02,1.974054512871269845e-02,-3.134370699640041946e-02,4.355893135070800781e-01
5.437770340800200941e-01,7.257411466109697784e-03,-4.968851931069323546e-02,9.949864760110535555e-02,2.261264515878666850e-02,-3.003695727147806874e-02,5.963131189346313477e-01
3.615612412893229322e-01,1.066682023208337382e-03,-3.972831802818446723e-02,9.656110648296366283e-02,-2.392270045124454333e-02,-2.021923407888009255e-02,4.210016727447509766e-01
3.556281806556217395e-01,-1.388672573431112833e-02,-2.886826918906740258e-02,-4.062720038340110300e-03,2.830622194201978803e-03,-1.639377067043569394e-04,3.773264586925506592e-01
3.378251309449797346e-01,-3.707188026152399840e-02,-2.126128401470575580e-02,4.689729692274633571e-03,8.635418844971378630e-04,-2.169611858233798374e-03,3.673591315746307373e-01
3.089865977246624706e-01,-2.402722846093904852e-02,-2.950507289555101553e-02,3.691947868310806180e-02,1.387603467203450680e-02,-1.651116794024399615e-03,3.426767587661743164e-01
3.635767790383167553e-01,4.726521932448796148e-03,-3.376064404516798678e-02,-4.382870300422698519e-03,3.896771152890690388e-04,3.904505382342430241e-03,3.796968758106231689e-01
3.598267046180451123e-01,-2.338488569762570135e-03,-1.827680017370628129e-02,3.483489122702756145e-03,2.651711782676767753e-03,1.742020063649836817e-02,3.716959059238433838e-01
4.666663315423475455e-01,-4.676875268885821724e-02,-3.347353641667161206e-03,1.607489586164026138e-02,6.217679573247066049e-02,3.881258185982835313e-02,5.099992752075195312e-01
3.573571623855248403e-01,-3.071692788854582523e-02,-1.087630015300217190e-02,-5.745150357537435505e-05,4.411104844079766045e-03,4.635350919963295534e-04,3.786219060420989990e-01
3.535552353783129043e-01,-2.256493684089613816e-02,-4.579132186525641801e-03,-1.723681751436419076e-03,-6.303774500001026095e-04,4.582847425223840650e-03,3.675570189952850342e-01
4.194789466943467104e-01,-4.845950938049073398e-02,1.334383373947611862e-02,-4.360496067519407763e-03,-2.035405055031292570e-02,2.069607209507947146e-02,4.432276785373687744e-01
3.385373287181133728e-01,-1.842539388913327913e-02,-4.250449988378784960e-02,-1.526797428988624285e-04,-6.890450428307434011e-05,6.012735475112086130e-04,3.695926070213317871e-01
3.437405231220897472e-01,-2.520185356140025590e-02,-3.690037929214418089e-02,1.864140255956409521e-03,3.731010360415597422e-04,1.094896974851362762e-03,3.749478161334991455e-01
2.708083112815581894e-01,-1.108815791175687959e-02,-1.579553659419535849e-02,6.477531697645749244e-03,-6.724749988399862525e-04,5.334953571249517225e-03,2.846530973911285400e-01
3.334281234139817585e-01,-1.923887098640028603e-02,-4.123053369138912627e-02,4.391556055230165945e-04,-4.793349400760317860e-03,-7.952909999577328654e-04,3.642592132091522217e-01
3.388300782443338099e-01,-1.962839387887344023e-02,-4.246920346440499761e-02,2.294760758424052691e-04,2.665226485654556207e-04,1.701693694366810522e-04,3.704080283641815186e-01
3.390093875224685638e-01,-1.970013754346586210e-02,-4.247270381345602530e-02,2.994984013378793638e-04,1.329572147276714155e-04,2.883365466311266738e-05,3.706213235855102539e-01
3.046368606041888749e-01,-1.622969102402423147e-02,-3.179159941626663599e-02,4.250132465550178484e-03,-2.286548410947461876e-02,5.511984717324785663e-03,3.315186798572540283e-01
3.385632386205735811e-01,-1.977928159182232304e-02,-4.135254199629578853e-02,-3.088496959283396786e-04,-2.000215420605581571e-04,7.103239215504059817e-04,3.696042597293853760e-01
3.416387934381099889e-01,-2.188619272217126599e-02,-4.137060735360631458e-02,9.912179678831364513e-04,-4.238496147048946387e-03,1.610735107587960967e-03,3.737348616123199463e-01
2.232624465248504719e-01,-7.845565522888439669e-03,-8.553454479903424557e-03,4.554447898386405902e-02,-2.677030012440704404e-02,2.004903559391536284e-03,2.489174902439117432e-01
3.476215737745553258e-01,-2.505212356132399676e-02,-3.702487010457874983e-02,3.385570611526921032e-06,3.512817221855162768e-05,1.157919064662410501e-03,3.788073062896728516e-01
3.446425795696615446e-01,-4.050071694016699198e-02,-2.677997752759245231e-02,-2.546870098830244719e-02,-5.344353680557824282e-02,7.645231857145561721e-03,3.923380076885223389e-01
2.278728407758169316e-01,-8.413049522566481975e-03,-1.007637295979228742e-02,1.817942128876658472e-02,-2.184981643840614926e-02,5.524767655618435282e-03,2.423676848411560059e-01
3.564156812872711910e-01,-3.011757617083782312e-02,-3.463464672972138558e-02,2.449092145248446192e-02,-3.162490584067313010e-02,-4.551509368726132550e-03,3.950143456459045410e-01
3.174566021099088919e-01,-2.819394793082904971e-02,-2.352095664775527561e-02,-1.224346246027287102e-04,-8.318695368114657762e-03,7.576135626809207303e-03,3.438906073570251465e-01
2.953620712706399587e-01,-1.803415158940437080e-02,-2.495002951968061655e-02,5.987231090515320259e-04,-1.067209611819190142e-02,7.679589042406204970e-03,3.177296221256256104e-01
3.013654703690428205e-01,-1.270989218816571953e-02,-2.975672317688596302e-02,3.685835607845884890e-03,-4.084131766225849330e-04,-4.936525793390454664e-03,3.231134116649627686e-01
2.693901310369183344e-01,-6.411441474735879442e-03,-2.493727136351389650e-02,6.291395970291993427e-03,1.862266986659894680e-02,-3.346624308895749991e-03,2.875967919826507568e-01
2.963286315998346909e-01,-1.799483571838576823e-02,-2.821438774863771481e-02,-4.457535010712487637e-03,1.028339768535744408e-02,9.391607665199140295e-03,3.205579221248626709e-01
3.010572297505919037e-01,-1.274592393096492249e-02,-2.950706100834715739e-02,-3.242525647247334730e-03,9.071196626817142582e-04,4.694266976540735319e-03,3.226657211780548096e-01
3.261392630393840086e-01,-2.015554811311126571e-02,-3.765677658806085293e-02,1.875871487754834335e-04,-2.939898235483815966e-04,4.186459180697164710e-03,3.554432690143585205e-01
3.244542370460448133e-01,-1.606738562077328347e-02,-3.539327383965112928e-02,8.035827885664065685e-04,1.063765676959640451e-02,-3.936907798152682741e-03,3.511371016502380371e-01
3.304171757401432319e-01,-1.693893180223382533e-02,-3.873895870506402495e-02,4.627324375564022957e-03,-7.890716651395062115e-04,-3.221328442210304264e-03,3.588887155055999756e-01
3.081645114785891426e-01,-3.294139956475050646e-02,-1.679577711831868603e-02,-2.100499103230442019e-02,-6.388335318206923678e-03,-3.846488665468000053e-03,3.355547785758972168e-01
2.941875520172886893e-01,-3.012271515257891608e-02,-1.327991868814488996e-02,-4.279068210536673619e-04,2.315235047679348439e-03,7.948845015746752816e-04,3.162547349929809570e-01
3.662533281102705041e-01,-1.316349698500485221e-02,-3.103759736930813973e-02,9.113444741994531847e-03,-1.879580935859583891e-03,-1.746273057268141193e-02,3.901703953742980957e-01
3.420180898354090449e-01,-2.587348721647075855e-02,-2.560351098091642741e-02,5.802666665042093171e-03,1.577883038146652914e-02,-3.415549044438300624e-03,3.689551353454589844e-01
3.540640626668246638e-01,-2.406208756409924931e-02,-2.149348536378983821e-02,-2.054241095387901624e-03,-1.148953526875087479e-03,3.333461560393617055e-04,3.768709003925323486e-01
3.532441488926655881e-01,-2.431251752974317171e-02,-2.343590434520004262e-02,1.447143910899507859e-03,1.905985954942655131e-03,-1.064734429157318312e-03,3.771464228630065918e-01
3.600418236088703816e-01,-2.611829031197221429e-02,-2.565216069126730059e-02,5.158282505810567187e-03,4.415224814116014765e-03,6.442893405817821072e-04,3.861080110073089600e-01
3.550466407406716041e-01,-2.838712557225198108e-02,-1.566955874977421503e-02,-3.347988002546412284e-04,-3.502984947870897876e-03,-9.400752547105867838e-04,3.772885501384735107e-01
3.551455319152944101e-01,-2.731633317480378076e-02,-2.795451197954573752e-02,1.161150587118110538e-03,4.697918231475064522e-03,-7.476913597250383660e-04,3.828752934932708740e-01
3.128592076731130933e-01,-3.481910436118376695e-02,-2.437371377007729878e-02,4.655407362090381584e-02,2.678120146579101440e-02,1.145189222393306261e-03,3.549861311912536621e-01
3.509460622225040183e-01,-3.479611582049055296e-02,-2.663675919608332610e-02,2.700570003064573996e-03,1.030763008492831733e-03,-1.667656541696475219e-03,3.817716538906097412e-01
3.556986333195609751e-01,-3.202599857627413948e-02,-3.224957116854318406e-02,9.850679808228574858e-09,1.815450640843654429e-04,2.330410964999055264e-04,3.878368139266967773e-01
3.545139264441090621e-01,-3.082797327480252259e-02,-3.225436695951339194e-02,4.838319439441348859e-06,1.842988153020934459e-04,2.302123383517834510e-04,3.860574066638946533e-01
3.557293600856164528e-01,-3.256606893235544642e-02,-3.194292838854909111e-02,-2.133665401092669795e-04,-8.723478875243569745e-09,1.755971089717131561e-04,3.879845440387725830e-01
3.543306045775769797e-01,-3.317487363492066521e-02,-3.106777744087207971e-02,-3.569476407142106326e-05,-1.058194985486908806e-04,1.073963072142262477e-03,3.864607512950897217e-01
3.550134849207091103e-01,-3.033720052727942318e-02,-3.145787818936021663e-02,-6.335378596673367632e-04,-1.944602408831664730e-04,1.137361807081401394e-04,3.859139978885650635e-01
3.534903340418293904e-01,-3.209868817168570754e-02,-3.137770640495293750e-02,1.297482398190602645e-03,-6.747894343426776758e-04,5.630603473986420726e-04,3.852385878562927246e-01
3.658989331891322472e-01,-3.748980719590011557e-02,-2.200435591400073942e-02,-1.273872664121216899e-02,-3.327047894477347389e-02,1.013290924204811837e-02,4.010377228260040283e-01
2.717134655962719636e-01,-5.032101080604894916e-02,1.552107000623034749e-02,1.517904450221476895e-02,-6.892740370340079414e-02,2.160870240168814155e-03,3.190550804138183594e-01
2.955537673012723632e-01,-4.419743007241277999e-02,5.208602463029718410e-03,-1.803372362708560370e-02,-9.045062208918855373e-02,2.694984089094572613e-02,3.588656485080718994e-01
2.803384005821786262e-01,-3.422109594093564189e-02,1.213827983011600553e-02,-1.984883815471632715e-02,-6.324507438431362094e-02,5.959863661558394143e-03,3.159151673316955566e-01
3.552359469318240315e-01,-2.813273658790257925e-02,-2.704318713537340324e-02,-1.074209673810226596e-03,-6.334126984827812869e-03,-7.181294886196198848e-04,3.829887807369232178e-01
4.911498948871468317e-01,-7.771419445442251384e-02,1.785437484516971818e-02,-1.460518791289722867e-02,-6.705430940448062205e-02,1.497840226699463304e-02,5.414572954177856445e-01
3.635939609399656547e-01,-2.986352996083171951e-02,6.765004706410032709e-03,-1.877210955162092899e-03,4.335653900361713213e-03,6.067351105018601795e-03,3.767175078392028809e-01
5.190215004886092887e-01,-5.600553230275462369e-02,9.023457466566187080e-03,-4.342429005271421921e-02,-7.698461354754172412e-03,2.454006557477461659e-02,5.523883700370788574e-01
3.779534583469545406e-01,-2.672783009994769698e-02,6.843576756496161373e-05,2.271881228521575261e-03,-4.550829444809635464e-03,3.579381108059481731e-02,3.969410955905914307e-01
4.412280875667914937e-01,-2.841764651311351475e-02,-1.895498084295538233e-02,6.557371689704568837e-03,8.108058308850292148e-03,2.929974160077043061e-02,4.680963456630706787e-01
3.621919920390850312e-01,-3.187673644580463206e-02,4.950944474343549340e-03,8.925297909983030773e-04,6.057755091117805746e-03,1.148875695193143226e-02,3.776800930500030518e-01
3.649858228911956326e-01,3.189297959773629287e-03,-3.227320502429642524e-02,2.666302643962223558e-03,-2.709807908775706872e-03,-5.857177357511061423e-03,3.809603750705718994e-01
4.311920257636056575e-01,-2.587892285138163051e-02,-1.894889707240296484e-02,1.612505195988602272e-03,8.718069449059203183e-03,3.275297357316193925e-02,4.574368298053741455e-01
4.570579106353510612e-01,-4.363619771428428606e-02,-8.601427668388950121e-03,3.622100156477783828e-02,3.462256361294710483e-02,4.718674028891606947e-02,4.985901415348052979e-01
3.900104299348647885e-01,-1.457204954882382331e-02,-9.482324142214393348e-03,1.284958660273259959e-02,5.151435054885990239e-02,4.692863892776809320e-02,4.203773140907287598e-01
4.004246437893816957e-01,-4.428320900764809442e-02,2.175145777875697739e-03,-5.056818430878114862e-02,-3.064699692818947246e-02,3.513597819721793469e-02,4.398361146450042725e-01
4.274451084421032609e-01,-2.867144895374837410e-02,2.830739051952718688e-03,8.386448111075951728e-03,-1.391509284027471136e-02,2.988469548042200011e-02,4.451260566711425781e-01
3.654123517508848784e-01,1.019521483978896859e-02,-2.991670924702474754e-02,-4.359675552715492654e-03,3.127458224801135450e-04,-2.067546733746527393e-02,3.786507248878479004e-01
3.430097517682396679e-01,-2.245459203685937211e-02,-3.962444097513870278e-02,-5.575425135875857179e-04,-5.629703401244198248e-04,1.042757834721934210e-03,3.743515908718109131e-01
3.422151862437813885e-01,-2.196949347262047714e-02,-4.139569613175941853e-02,-3.660448180841814462e-04,-6.647517803560786572e-05,2.159509248816932764e-03,3.742953240871429443e-01
3.471086046911525669e-01,-2.345060086131309229e-02,-3.972550778062772237e-02,1.273632126614250354e-03,-1.087090545754570200e-03,1.144674294606105175e-03,3.789751529693603516e-01
3.428789788554428286e-01,-2.052201343173895576e-02,-3.900533077750503730e-02,1.236149292884960831e-03,-2.692123155084499755e-03,3.372711877016905738e-03,3.730673193931579590e-01
3.481343865871842636e-01,-2.234828051066112264e-02,-3.865486698043849034e-02,2.774530192265265544e-04,-3.464702992125579667e-03,1.011426177467410507e-03,3.789511024951934814e-01
3.503837415290969592e-01,-2.655081790168101197e-02,-3.061471630894366247e-02,1.960716348099339219e-04,1.117361363674710664e-03,-2.558488564494312660e-04,3.789882063865661621e-01
3.392099541588530220e-01,-3.190180912783993628e-02,-3.191586230451845529e-02,5.029990943223007320e-03,-5.262440592730391851e-03,5.880583346722147511e-03,3.714725971221923828e-01
3.445826870135414999e-01,-1.668199050486027235e-02,-3.073305142968435488e-02,-3.886997322755250152e-03,-2.283139784983332678e-03,-1.312638845104577116e-03,3.685809075832366943e-01
4.874105109155869586e-01,6.326483537939908697e-03,-5.933779478576259314e-02,2.104657604234265716e-03,-3.384673587895776353e-02,-3.031210968085392213e-02,5.230203270912170410e-01
3.649980301536920324e-01,2.669302567551273819e-02,-4.161110660910746772e-02,-6.399868038535039272e-02,6.537155108088953809e-03,-1.558557767751631712e-02,3.941672146320343018e-01
3.564146791262239322e-01,-2.473854202791181400e-02,-3.674924609176694057e-02,-3.061846254711965420e-02,1.187313291108519839e-02,-2.137654543648760674e-03,3.914703726768493652e-01
3.721742057943230875e-01,-2.323169337497327236e-02,-4.682719019766193314e-02,-1.585002527160361482e-02,9.566141133782282355e-03,-1.016677846472172943e-02,4.093539714813232422e-01
4.289312038161173235e-01,3.625758101640175202e-03,-4.076087306698647494e-02,-5.835552619963332854e-02,4.457861008437230543e-02,-2.465501349655625438e-02,4.687581956386566162e-01
3.832800547370165956e-01,-3.375869272013146127e-02,-3.027232357360865045e-02,-3.281877944493232641e-02,3.154298821444216638e-02,-8.842226447849790144e-03,4.230013787746429443e-01
3.411632001771133238e-01,-3.853372677008798375e-02,-2.204379934779779338e-02,-8.849500541815561762e-04,4.371597437083716946e-04,2.534846187112126462e-03,3.717562258243560791e-01
3.626436226912267968e-01,1.022390135166224845e-02,-4.113392382080946486e-02,-2.956859670099459044e-03,2.207393624080063437e-04,-3.145531898735988430e-03,3.807792663574218750e-01
3.470697773105815842e-01,-4.000685074154139431e-02,-2.281098219653465708e-02,3.158084759674840199e-03,1.169707229039907564e-03,1.358326764827043689e-03,3.788237869739532471e-01
3.389324385993339739e-01,-3.956308737024968880e-02,-2.032127849864989733e-02,2.803927763095977795e-03,-4.411355742582211050e-04,1.038128405119552412e-03,3.692879378795623779e-01
3.549316137659512815e-01,-3.271696683432531727e-02,-3.126038688105456376e-02,3.672535096399495475e-04,-4.847100207429061577e-04,1.131745866724947645e-03,3.869287371635437012e-01
3.443492030981497587e-01,-4.065440114703425256e-02,-2.048634882319941286e-02,2.292199840641718535e-03,-3.940345363941577441e-04,9.959696299050714401e-04,3.753517866134643555e-01
3.266308253434228037e-01,-3.859388673421429439e-02,-1.944020265015472537e-02,-1.039180723790777972e-03,-3.890619004049627495e-03,3.387839041903894979e-03,3.561511337757110596e-01
3.900065562308591138e-01,-3.888246420455832020e-02,9.085896456795000686e-03,-4.457245797267644916e-02,-4.188978416816702133e-02,2.850030380330274490e-02,4.234794378280639648e-01
4.513571767465322515e-01,-6.238981245535904496e-02,5.746681169966433300e-03,6.902364597914301646e-03,-5.431863799964954664e-02,3.507870827970645949e-02,4.962455630302429199e-01
3.719444072745998198e-01,-7.993397774522126298e-02,1.217518580571509690e-02,1.466287864893309201e-02,-3.446151242611550369e-02,8.817563963808672245e-03,4.189237058162689209e-01
4.367564915629846833e-01,-5.845783575968122037e-02,8.879529268266322939e-03,-4.076290333299170156e-03,-1.319673236885980649e-02,2.787833278526538616e-02,4.683257937431335449e-01
3.599767405048113766e-01,-2.804663841512025635e-02,-4.710796283295792808e-03,1.752818687975696548e-03,-6.502448154138897908e-03,1.317926022969482386e-02,3.777684271335601807e-01
3.697184206354815483e-01,-8.934271588066367009e-03,-2.449478740657334841e-02,3.312180696615703128e-03,-2.403948084952759173e-03,8.849439915986108754e-03,3.870364427566528320e-01
3.586702736938312541e-01,-1.677080173114550710e-02,-1.296908198432977777e-02,2.972380558670409140e-03,1.031668363813938085e-03,-2.056662829873718776e-02,3.752889335155487061e-01
3.543442338031446148e-01,-2.705258606210642069e-02,-2.743796876039480970e-02,-1.216746570840391770e-03,5.763868672721220859e-03,-4.777601130230854989e-04,3.817269504070281982e-01
3.280630730348656487e-01,-4.034441395836260713e-02,-3.306713776186007148e-02,3.393777295700848955e-03,3.043398410678887361e-02,2.419198097040874476e-03,3.686825633049011230e-01
3.298956210151785529e-01,-3.475089831936964413e-02,-1.715899348766550259e-03,-4.300466681663022220e-03,7.284988101987662293e-03,-3.807915177861829256e-03,3.496719896793365479e-01
3.612616437848313322e-01,-3.634901773427423599e-02,-7.587797717470090575e-03,-5.775402434087824506e-03,1.119343446629338795e-02,6.965296966568732331e-04,3.846596777439117432e-01
3.478511305157572231e-01,-3.931658897945547460e-02,-1.045363622435119266e-02,-2.423412171265268075e-02,1.975391226742172560e-02,-1.221001680149769696e-02,3.780699670314788818e-01
3.565134140381623351e-01,-3.810711529034421785e-02,-1.605235220310338717e-02,-1.837127524988405730e-02,2.480838466336951140e-02,-4.519461060346609445e-03,3.878513574600219727e-01
3.007430290855884758e-01,-1.238332174189990531e-02,-3.579731227552743200e-02,-4.861436484407613209e-03,3.768037197395257554e-02,4.095176148631619883e-03,3.321272432804107666e-01
3.678054028163061928e-01,-3.406345883059824775e-02,-1.125011411414783558e-02,-4.531512983961978863e-04,-8.459870793103483038e-04,-4.948721131231807215e-03,3.910591900348663330e-01
5.401708927402470994e-01,-2.151520499759579375e-02,-2.049595437340390180e-02,3.868876974651327960e-02,-2.357492645124220979e-02,-3.633696273767964002e-02,5.701217055320739746e-01
4.135152509927608189e-01,-4.521668471614651019e-02,-1.725408370575368111e-02,2.688064502897833524e-02,-2.564019034528236540e-02,-4.554806717860949289e-02,4.568953812122344971e-01
3.613067276164371178e-01,-3.395612260439512253e-02,5.993784786330141889e-03,1.095851676932272289e-03,4.798835009122049029e-03,-2.693039515756720254e-03,3.770045638084411621e-01
3.585119103865451740e-01,-1.588159886983922520e-02,-1.908087612347275641e-02,1.725729983868905682e-03,-3.147000391989511221e-03,-8.861164083916390696e-03,3.763678073883056641e-01
5.247921599620370969e-01,-6.317016951742293607e-02,1.398117918151536854e-02,1.124050402534342019e-02,-1.981269773645288543e-02,-1.017616902824831221e-02,5.551191568374633789e-01
4.110770124223176447e-01,-5.550414909512599304e-02,1.442258152447301045e-02,2.013968448787521563e-03,-8.043119914119291596e-04,-1.200053725837050070e-02,4.363569319248199463e-01
4.023249082650556252e-01,-1.457809133996179618e-02,-1.881789566403224701e-02,3.825884996301150837e-02,-1.998905890579479733e-02,-4.216875009641114780e-02,4.318775236606597900e-01
3.517591594710372527e-01,-1.910233258146454283e-02,-8.975545502637405360e-03,6.521370893009352521e-04,-2.567544119912883869e-06,-4.548746582929531247e-03,3.659897744655609131e-01
2.543536439339392219e-01,1.232225495627792267e-02,-5.984927497414455067e-02,-7.891282741107567833e-02,8.050013066415543164e-03,2.245757928664312425e-02,3.188178837299346924e-01
3.494220923197337569e-01,6.323566814950512538e-03,-3.925901699341524664e-02,-2.462028010370551426e-02,-2.461607614507286407e-02,1.861575126950157366e-02,3.743122518062591553e-01
3.282299320646555607e-01,-4.128588840269259430e-03,-2.500916107306361269e-02,-4.893343026709650462e-02,-5.819603263770629920e-02,3.028957127890106321e-02,3.713949024677276611e-01
1.790021461954398041e-01,1.105872489060195918e-02,-1.292334672976760968e-02,-4.813271479485150411e-02,-4.172055340987350369e-02,1.810127634351314796e-02,2.143894135951995850e-01
3.229971474589500846e-01,-2.828709005276988653e-02,-2.552466366963718203e-02,-4.275733003387527766e-04,-5.305035143084215962e-03,-7.758875739601180793e-03,3.502904772758483887e-01
2.328481820180856032e-01,-2.044490588082713278e-02,-1.750047529474235697e-02,-3.633135127780877383e-02,-2.386714991914987171e-04,3.379613589381610852e-03,2.596431970596313477e-01
3.273626547873913495e-01,-2.428524913799065543e-02,-2.854780915256011076e-02,-3.181602804908253285e-03,4.542469636711158124e-03,6.099674746591480720e-03,3.540864586830139160e-01
3.300933958050099037e-01,-2.965103946040761884e-02,-2.648011560862117975e-02,-1.253252567125989758e-02,4.007714110965109391e-03,6.839133021582460489e-03,3.590892553329467773e-01
3.359012359713614004e-01,-2.094907586086444673e-02,-3.109743728431738075e-02,-1.363462537060433633e-02,-6.279067420169656818e-04,7.856773344421700417e-03,3.630573749542236328e-01
3.159085133887673535e-01,-2.821516367702914252e-02,-2.558951696777517215e-02,3.247643231651070703e-05,9.125833801832895081e-03,7.773214719213380336e-03,3.434466123580932617e-01
3.407477852861349188e-01,-3.669226892820851016e-02,-2.342177451750565575e-02,-1.096872497555214895e-04,1.873120581948926368e-03,4.906095193677789158e-03,3.710944056510925293e-01
3.313871055317104131e-01,-2.420678000395509732e-02,-3.418514871308966918e-02,-3.639040237773318899e-03,5.956922685082170592e-04,5.800536025432887800e-03,3.608830273151397705e-01
3.419741291283371898e-01,-2.566116143038774111e-02,-3.504990418232784011e-02,-1.369795862975079674e-03,2.414023306799658545e-03,3.292308645061610764e-03,3.724931180477142334e-01
3.457001441422284382e-01,-3.700987706609287775e-02,-2.496846323488510766e-02,1.068494257463734921e-04,2.212026617709102476e-04,1.122365225658253536e-03,3.768388926982879639e-01
2.990385974295719507e-01,-1.304742669625373608e-02,-3.060094778286581718e-02,-7.060910216952773558e-04,3.881731859187053562e-04,4.756872800628804128e-04,3.212267756462097168e-01
3.517728330371563961e-01,-2.770809062602938577e-02,-3.728533906892994576e-02,2.871997341448712451e-03,1.213444984139013146e-02,-2.082451940528227269e-03,3.849822878837585449e-01
2.579814883476722609e-01,-2.163612109047426124e-02,-2.599727571633442258e-02,1.865075356770376849e-02,3.291633182313358913e-02,4.183935881800421482e-03,2.894321978092193604e-01
3.414872555171195589e-01,-2.734710747093635486e-02,-2.677192891719976098e-02,1.174407163746848254e-02,1.369526150469060552e-02,-5.269140435124057727e-04,3.698706030845642090e-01
3.393036227723669196e-01,-2.606010673544803535e-02,-2.679008486780493081e-02,-6.921482822338351562e-03,4.389739286615376972e-04,1.365940866824447890e-03,3.659341335296630859e-01
3.496865283996584695e-01,-3.215922243464694463e-02,-2.713235121638132852e-02,-6.617862205822248314e-04,1.845938086874600488e-03,1.442451744199069099e-03,3.793807327747344971e-01
3.561752244662971800e-01,-2.986664949734640917e-02,-2.750431341783146633e-02,-5.712368216955555737e-03,1.696889948768201626e-03,1.781871834815433554e-03,3.850168883800506592e-01
3.547706214586741624e-01,-1.486499242672581489e-02,-3.025150230628198544e-02,2.747419162573982131e-03,-2.209240674561753579e-03,-8.190058421208627716e-04,3.776161074638366699e-01
3.563533246122734255e-01,-2.962314837584220650e-02,2.738983704908937167e-03,-1.461334266445341165e-03,-1.929175561326455790e-03,4.213782255455369649e-03,3.709514439105987549e-01
3.627557814600211872e-01,-2.884644143303508046e-02,6.570460853688370184e-03,2.382466079324716251e-03,-4.209032277954946957e-03,6.681690658575535798e-03,3.754216730594635010e-01
3.605715425685540043e-01,-2.719917988189260449e-02,6.774841391421732029e-03,2.503441403731123099e-03,3.112910592017937694e-03,7.913720584138222991e-03,3.722660243511199951e-01
3.563950310787406539e-01,-2.836323377464725071e-02,-1.127844330716781807e-02,6.278606643015198756e-04,-3.462844735810627350e-03,2.599684439131604019e-03,3.765829503536224365e-01
3.660968964370873158e-01,-2.723387123526394005e-02,-4.382130361937935925e-03,-1.315123531737603458e-03,-1.493368888799081334e-02,2.252783216366338256e-02,3.852787911891937256e-01
5.250883321465326103e-01,-4.893539072800665024e-02,4.079431959164242505e-03,-6.447055747565655359e-02,-3.544532008525388272e-02,3.398623254108847080e-02,5.670852661132812500e-01
4.033024818935677658e-01,-4.699736678586821648e-02,1.905417194000610936e-02,-5.562078114258763722e-03,1.385880499302356156e-02,1.239943432523127331e-02,4.225162863731384277e-01
3.557626483099238790e-01,-7.131341717335121233e-03,-2.853362180656182634e-02,3.539307214742014318e-03,-2.962350427356394075e-04,6.513952864155413017e-05,3.741052150726318359e-01
3.635962920375086505e-01,-1.329437498726418476e-02,-3.778231502896636784e-02,7.870764250423233077e-03,6.347979139202021993e-04,-5.834630831750453606e-03,3.900829255580902100e-01
3.585953460029720485e-01,-1.195418334988840314e-02,-3.404197536315159422e-02,2.091898570640216698e-02,6.822744980907724782e-04,5.904618023531665156e-05,3.837885558605194092e-01
3.792131254730686241e-01,2.242537682588044423e-02,-4.998917702952643261e-02,1.012729713177057747e-02,8.878681648093482339e-04,3.983681806772420772e-03,3.984164297580718994e-01
5.472504114945346831e-01,-3.274665491681510998e-03,-6.276391079744425561e-02,7.032394855482365648e-02,-2.426936459808140545e-02,-4.228663432968651076e-02,6.011114716529846191e-01
2.761673829455927875e-01,-2.274151658514655949e-02,-1.176248748716236803e-02,-1.034088737394468077e-02,-1.162883568309586862e-02,-7.599987679362305015e-03,2.951018512248992920e-01
1.031039471062731305e-01,-1.959676592224884190e-03,-5.808712661835098434e-02,-3.310881484094268384e-02,-8.093076442390231481e-03,3.470417306448402017e-02,1.648751646280288696e-01
1.165355014181369137e-01,2.547848591740202451e-02,-6.055516703935816258e-02,-7.514889778910747997e-02,-3.121641158635772573e-02,2.174167733885577075e-02,2.116853892803192139e-01
1.469262282228707694e-01,-2.570135706692503602e-02,-5.132148262538858974e-02,-4.441481358831968207e-02,2.936224843620628688e-02,-9.658917708853040004e-03,2.089587301015853882e-01
2.326676652687679758e-01,-2.225036510863423467e-02,-2.371672075676115043e-02,-6.425289733850435281e-02,-3.945930834907214468e-02,3.973384443314720293e-02,2.952150106430053711e-01
4.035191430005860003e-01,-5.788460103655571065e-02,9.384298430557741488e-03,3.449405220778333989e-03,1.875035685614812042e-02,-2.289268727993469012e-03,4.329971671104431152e-01
3.485729259194701446e-01,-2.861693672525505994e-02,-3.370448086448801783e-02,2.524244649203092900e-04,2.592552813879990667e-04,6.812047359640938451e-04,3.797615468502044678e-01
3.493325367345095911e-01,-2.830872769897999075e-02,-3.023233893656687710e-02,-2.136226293477532824e-04,2.650085086587482784e-03,1.505779918623803386e-03,3.786437213420867920e-01
3.294426839201838320e-01,-2.223825991483840969e-02,-3.635249544286059398e-02,-1.582759267910344939e-03,9.517860342724768219e-03,1.774950580281251184e-03,3.593482077121734619e-01
3.350113855899577997e-01,-2.693923897686242852e-02,-2.458093503601929686e-02,1.502256242879575980e-04,1.349192693801732484e-02,-1.465785218548175915e-03,3.615423142910003662e-01
1.609781435018447504e-01,4.329645551952795990e-03,6.608928838962711827e-03,-2.413489653086672501e-02,9.945610687078040857e-03,8.146434892499716850e-04,1.619664132595062256e-01
3.580198857133752299e-01,-3.065395309171300986e-02,-1.722055169266295538e-02,2.397752251257330002e-03,-2.041158463384867318e-03,-9.992967781133298404e-04,3.821771144866943359e-01
1.476706024852068033e-01,3.156793223986716079e-03,-2.198847622809016467e-03,3.869030115834649203e-02,-4.598734137052425813e-02,6.143752587987220265e-03,1.806528419256210327e-01
2.724148082865927023e-01,-5.383553296917489850e-02,1.699460431925889359e-02,-3.717075166557558957e-02,9.628888211588439161e-02,-1.022210301322070726e-02,3.473052680492401123e-01
2.726283639691856608e-01,-1.335934919403630738e-02,-2.326167775191535780e-02,-1.272892174749489999e-02,1.082696326004115896e-02,8.495210817524398439e-03,2.928706705570220947e-01
2.729645331891459303e-01,-6.736245093676582196e-03,-2.516018369062970883e-02,9.391523792709446841e-04,1.532441579395173170e-02,2.997011042924540604e-03,2.906187474727630615e-01
2.177997239143989183e-01,-1.119718815185359595e-02,-3.017831568434520273e-03,-2.377150582067550158e-02,8.376980184184063417e-04,-6.468800487592228556e-04,2.287620007991790771e-01
3.506670865335086984e-01,-2.769811936009702880e-02,-3.576954197203566221e-02,-7.637996250853096953e-04,1.094283045995773744e-02,1.550304573704866995e-03,3.829458355903625488e-01
3.557144843960801661e-01,-2.308693222104288290e-02,1.102703550566019874e-03,-1.037132678835696493e-03,-4.534187928482165788e-04,1.056501305767193824e-02,3.677652478218078613e-01
3.510591691547114146e-01,-1.651403469476894759e-02,-1.262597678924809452e-02,-1.789782019705317634e-04,1.787928887638065063e-05,1.745973339630132234e-03,3.656573295593261719e-01
3.616363818806049291e-01,1.106806184566176687e-02,-3.596554061258144808e-02,-4.423922108228416084e-04,3.012695317479740544e-03,1.729207920452325783e-02,3.775230646133422852e-01
4.202386500666576707e-01,-1.220798649068582931e-02,-2.119336410160646555e-02,1.076949591959580968e-02,1.505569933950634195e-02,2.507024805195370507e-02,4.403294622898101807e-01
3.580136987338820576e-01,-2.640608823450973919e-02,-5.364434580978350020e-04,2.082115591444385922e-03,2.164589844237392417e-03,3.107792529903102147e-03,3.722352087497711182e-01
3.478314469204942250e-01,-3.065963280496802890e-02,-2.838478105216948877e-02,2.425409110823366441e-03,3.092017733167014368e-03,-1.849917272219777720e-03,3.774337768554687500e-01
3.537332817746301483e-01,-2.233208891084995096e-02,-8.095120896332824723e-03,3.313716900328412054e-04,1.162215821207709769e-03,2.051268326978388564e-03,3.691758811473846436e-01
3.611388670509291798e-01,-1.764084308246444133e-02,-1.497841626731005737e-02,1.242581701807444388e-03,1.874332288782088775e-03,1.342066192218173588e-02,3.781906962394714355e-01
3.525910295205501588e-01,-3.512530837129507200e-02,-3.035120000583552136e-02,6.947060970060200914e-04,6.296401366516201368e-04,-9.086631119719565386e-04,3.853580951690673828e-01
3.556082941305368506e-01,-3.112849603496706252e-02,-2.985044651900364832e-02,-5.882209375898641212e-04,-5.257320601052251595e-04,6.607101941124980020e-04,3.861034512519836426e-01
3.535863061172947464e-01,-2.495614141472540792e-02,-2.682003955691172892e-02,9.152236401752648519e-05,-8.453479345890350504e-04,1.243163387456906440e-04,3.794807493686676025e-01
3.552140255317427497e-01,-2.724014351168899117e-02,-2.997558534329944346e-02,1.451365726457407935e-03,-5.493791621565191283e-04,-2.226422312859588641e-04,3.838388025760650635e-01
3.537837995464628849e-01,-3.383875512278147757e-02,-2.825197404010637570e-02,-8.429303361241215729e-04,3.120922465640923646e-04,-1.736773055946557115e-03,3.848744928836822510e-01
3.536969875689317533e-01,-2.841883668774763949e-02,-2.744867930300121106e-02,1.219218965064902769e-03,8.740223265097827677e-05,-2.850026994861674674e-04,3.816378712654113770e-01
3.522059587805531633e-01,-3.113620706966549467e-02,-3.134004428320066871e-02,-6.625906752491427442e-04,-4.494644702582042354e-04,-1.234657189738794887e-03,3.834525942802429199e-01
3.506531061748563438e-01,-3.372837533604497451e-02,-2.943072420610681750e-02,-6.753693796428430866e-04,-9.399302976140014310e-04,-8.777789818583749430e-04,3.822590708732604980e-01
3.470004224448869912e-01,-2.928555376733107951e-02,-3.283711501529743004e-02,-3.244744434191128724e-03,-2.688264815739927101e-03,-3.198816137213822495e-03,3.781853020191192627e-01
3.564515879876336557e-01,-1.385189669391584388e-02,-3.259597016125079239e-02,-2.838377041162137935e-03,-1.475651446276500479e-03,5.020934162998853031e-04,3.800637722015380859e-01
2.525345559579335042e-01,-2.344215435817351145e-03,-1.472613145063110529e-02,-3.068433354103888323e-03,-1.650126522025925765e-03,-2.654697747767367690e-03,2.613999843597412109e-01
3.631529105001471969e-01,9.379596117262190003e-03,-3.928616746929528003e-02,-4.496336511219489566e-03,5.430682609121005849e-04,7.655317170699917767e-04,3.805310130119323730e-01
3.635542596767462054e-01,-1.351124043438117761e-02,-3.722394115378527268e-02,7.907536318545385981e-03,-3.199667847042972444e-03,4.010089501417749003e-03,3.898056745529174805e-01
3.572695341008447212e-01,-1.421571684945843739e-02,-3.428834806177455397e-02,-4.582562882227816584e-05,-9.811895223702479015e-04,1.111875899650936013e-03,3.819260299205780029e-01
3.363556693633236727e-01,-8.031632800413995854e-03,-3.148945930516963698e-02,4.121947600348084551e-02,-3.524467772755809740e-03,-9.025668166724861927e-04,3.638245463371276855e-01
3.564552673043069331e-01,-1.299167507625928475e-02,-3.269234715843105654e-02,-2.050517242032302585e-03,1.464812524092207364e-03,-3.626181770312546628e-04,3.797064125537872314e-01
3.521672152144614265e-01,-3.491649673012695021e-02,-2.650254256154668808e-02,-3.331839229313844890e-03,-5.790024144344625614e-04,-3.104816435012747113e-04,3.829912245273590088e-01
2.580655509506463718e-01,-2.761014151673563122e-02,-2.805269222301884358e-02,4.386393415138906127e-02,-5.710698645351618141e-02,-4.559404697130606948e-02,3.217599093914031982e-01
2.371633840533075022e-01,-2.547374704787347399e-02,2.011155730593355839e-02,2.902167359394786789e-02,-9.269817544200625870e-02,-3.848412320112398234e-03,2.956923246383666992e-01
2.117952848302582514e-01,-1.418830012436118893e-02,-2.776569043310445073e-03,6.487779781547543811e-02,-8.928156086749233777e-02,-1.503904394159652838e-02,2.929836809635162354e-01
2.268649037230820731e-01,-3.546391613763702488e-03,-1.000431629122244814e-02,1.160614037168277574e-02,-2.248056255857215982e-02,4.009739277927323528e-03,2.378813028335571289e-01
2.417007357500177145e-01,-2.043833337049189014e-03,-2.264456749816524950e-02,7.485537942635131850e-03,-4.815916035522777722e-02,-1.357915127970447076e-03,2.683070302009582520e-01
2.895113292660675963e-01,-1.231159069788814731e-02,-3.106757099062268379e-02,-4.147495135348511219e-03,-2.804526237303316127e-02,-4.624381261340948339e-03,3.155712485313415527e-01
2.693698529833691846e-01,-6.544489314870130525e-03,-2.810446975248298562e-02,-6.650981852812637820e-05,-2.239931324292838630e-02,4.529285050337558856e-03,2.900155186653137207e-01
3.672547975148549027e-01,-4.385881693254992109e-02,7.541799619791844655e-04,4.537788834505175097e-03,-3.779178037033603665e-02,-1.902435093590857176e-02,3.976127803325653076e-01
1.953774990393410960e-01,4.082087303823728197e-03,4.558021880618323696e-03,-1.181022548038429716e-02,-3.457984097257360036e-04,-1.124115843120763710e-03,1.921606361865997314e-01
2.071988672729816461e-01,-2.987707738157929782e-03,-5.998414493006407056e-03,-4.081166607701866567e-02,-2.640445984597924317e-02,-3.838141139914440919e-03,2.279316335916519165e-01
1.775250582001483834e-01,-9.195924309351191650e-03,2.902301801136208947e-04,-9.271678135911525301e-03,-2.340780498611769872e-02,8.664281768852848814e-04,1.873162239789962769e-01
2.243338142190381967e-01,-1.350261890702511569e-02,-7.115434691187319527e-03,-1.333988105112684890e-02,-2.059392546084761952e-02,-6.602105619408467699e-03,2.387986779212951660e-01
1.757129211438588634e-01,-6.115850301558256596e-03,-9.078931983573956810e-03,-1.727469944039438515e-02,3.644073117928557648e-02,3.405618086333128160e-03,1.962729692459106445e-01
2.664358891828029208e-01,-2.651781164638460087e-02,-1.409268531527563262e-02,4.724196665215737306e-02,-1.050979410849345666e-02,5.239239808295726927e-03,2.990742325782775879e-01
1.986897735971088486e-01,5.626729467033853016e-03,5.347884672350269875e-03,3.513613397730053385e-03,3.993486124518015774e-03,4.659527270290067676e-04,1.934238374233245850e-01
3.432684810577736334e-01,-1.926886671750813185e-02,-1.202109970098441671e-02,9.731141674667516742e-03,1.925157792051944081e-02,1.294701815494049037e-02,3.616035282611846924e-01
2.490020193345236499e-01,-2.292894136278854356e-02,3.970610056889839479e-03,-9.997304799498145031e-03,6.193651003677662359e-02,-1.842973628082591672e-02,2.831649780273437500e-01
3.981516660587332557e-01,-5.141315792531792050e-02,8.085515477512322802e-03,3.588120962902644102e-04,2.068859087589320842e-02,2.696654900697676577e-02,4.270434975624084473e-01
3.575795650638207701e-01,-2.941937141208356143e-02,-1.880303417116674369e-03,1.035703256509529560e-03,3.603017061350829824e-03,5.211342196026620167e-03,3.741558790206909180e-01
3.633397775137223173e-01,-3.209309902267809544e-02,-8.271494520632749481e-03,2.572259926375995362e-04,1.032972144485948089e-02,5.887308139675672021e-03,3.846284747123718262e-01
2.497693363391730315e-01,-1.450070552858442885e-02,-1.811843698017601145e-02,-3.212276628171693155e-02,-3.912225319331656681e-02,5.123557276620913179e-04,2.801711261272430420e-01
3.557083090343341469e-01,-2.878962325371847708e-02,-7.548689340872966058e-03,2.473632899999748686e-03,3.955468113794940663e-03,-4.854732498107110087e-04,3.744178712368011475e-01
3.630252302863887226e-01,-3.381230734500129120e-02,1.753383710051070743e-03,-1.165329807525412528e-03,-5.041938752082377427e-03,1.074753004592895415e-03,3.804141879081726074e-01
3.541298101255192510e-01,-9.361507440264454916e-03,-3.615124449222603675e-02,-1.093260708338257385e-02,-9.538683080793858640e-04,-1.173638370616329198e-04,3.780777752399444580e-01
3.653747018805409974e-01,7.915275554293249582e-03,-4.935581506503430860e-02,-1.109299565683290710e-02,5.025122686376698455e-03,-9.553154231589093721e-04,3.898422420024871826e-01
3.660409257251462378e-01,-6.210596776568211297e-03,-3.824629599869705521e-02,-4.733918335445325316e-03,3.821553299672245455e-03,-1.255886356920630532e-04,3.894020020961761475e-01
3.240352553327538465e-01,-1.447635909788648478e-02,-3.605207268341734106e-02,-6.176882072127769241e-02,-1.788861530917014095e-02,6.859693714606667284e-04,3.671060204505920410e-01
3.181427309312848117e-01,-2.450626310463718815e-02,-2.922638110588207661e-02,-3.345055854754185737e-02,3.176569891455153366e-02,-5.096130172618387830e-04,3.541648387908935547e-01
3.714541321750551850e-01,-1.682439163427829065e-02,-5.473352014480487027e-02,-2.384963477466048656e-02,8.734105162842682735e-03,-1.544862939734618218e-02,4.117861986160278320e-01
3.580117855649271319e-01,-2.553119334197398449e-02,-2.679724516266798751e-02,-1.801348577180854685e-02,-4.518421633476763996e-03,7.764848422220774812e-04,3.855242133140563965e-01
3.650963056835070941e-01,2.185253064893734332e-02,-5.424708905985148322e-02,-9.464236943892484488e-02,-3.278643439994481656e-02,7.742314101307197147e-03,4.242692291736602783e-01
3.608938839430883561e-01,1.271114528423623879e-02,-4.743552978703596823e-02,-4.254936162572822006e-02,2.274278172176203219e-03,1.604957560196886360e-02,3.898852467536926270e-01
3.759802385858852514e-01,2.179081745265296077e-02,-5.535276356091867189e-02,-9.017001927811850448e-02,2.949838300725333290e-03,-1.234281203264222387e-02,4.284854233264923096e-01
3.614147279495684151e-01,-1.209417180263511193e-02,-2.095329490371472536e-02,2.028539890104547570e-03,2.029109274746598596e-03,8.795412606141429432e-03,3.783558011054992676e-01
3.525174710642490772e-01,-5.819672222549671092e-03,-2.107781475841991048e-02,1.211158247554343283e-03,-5.164393430171683192e-04,3.843445814774545163e-03,3.662723004817962646e-01
3.555170970445394318e-01,-1.928489694463550452e-02,-2.341115947238647799e-02,-3.613925455838157622e-03,-3.741146443230201554e-03,4.899553293403771832e-03,3.770852386951446533e-01
3.662374106967288268e-01,-1.486807833570383264e-02,-4.155529099461158227e-02,4.661235347268811308e-02,1.614082447053572997e-02,-1.923559188785732305e-04,4.042574167251586914e-01
2.348059646623123775e-01,-2.739858981770022794e-02,-1.887962587165122053e-02,-7.519095050034994843e-02,-3.300798234902310030e-02,-9.231925124806126138e-04,2.946561872959136963e-01
3.505043919070618963e-01,-1.305097782861608380e-02,-1.148587474785370266e-02,-2.002352023483770695e-03,-1.399862757613646279e-03,8.318804741455887095e-03,3.630860447883605957e-01
3.539448423750906070e-01,-1.383654249270727110e-02,-2.058047744318344807e-02,-1.384381315684471469e-03,-2.055471450575867970e-03,8.871247786425368259e-04,3.712272942066192627e-01
3.521345591569465250e-01,-1.516599710988730809e-02,-1.711020028623888578e-02,1.174129925107756777e-03,1.308749105223169047e-03,4.447174423144171530e-03,3.683696389198303223e-01
3.561679651755174092e-01,-9.349705703022737069e-03,-1.970080577494290330e-02,-5.899422419587524967e-04,2.339527663339890061e-03,5.671204469175040834e-03,3.709552288055419922e-01
3.525896357446691165e-01,-1.309069944648405537e-02,-2.026703939648688557e-02,1.626020888948889699e-03,5.822920077614866449e-04,1.099932841323988421e-03,3.693378269672393799e-01
3.527465151956445388e-01,-2.178888595975167486e-02,-9.552819211727736626e-03,2.808861357928612158e-04,-8.999193251688613476e-04,2.939610540836632910e-03,3.686085045337677002e-01
3.491894231807685101e-01,-3.541975274404599028e-02,-2.744348222852427410e-02,-3.970523717156666083e-04,6.454617954242036684e-04,2.510145516913418404e-03,3.807108104228973389e-01
3.412325210628749939e-01,-3.592333595340269081e-02,-2.629960172639986271e-02,1.091302629290479529e-04,-6.863061845114149613e-04,5.046063312302258644e-03,3.725417256355285645e-01
3.495764933474395098e-01,-3.862760824174391039e-02,-2.716889680753362124e-02,-6.079282446506094340e-04,6.563989694323877581e-04,9.421293847028898698e-04,3.826100826263427734e-01
3.544707491352472317e-01,-3.311141203074946526e-02,-3.119342341642533656e-02,-1.648605365251988250e-04,-5.399702187332460022e-04,1.136898195756369133e-03,3.866329789161682129e-01
3.471175478593498953e-01,-3.855998787242470582e-02,-2.462178968914655042e-02,7.187234189196106942e-04,-1.334696355180469253e-03,1.206560902298793158e-03,3.789156079292297363e-01
3.460458513787531554e-01,-3.253419037417684678e-02,-2.831150305590884875e-02,3.940512224441509830e-03,-5.101094286195240711e-03,5.057362746726530578e-03,3.767538070678710938e-01
3.279880583384959247e-01,-3.332463501979687770e-02,-2.567929518846520653e-02,1.174353190407412609e-02,-6.490931895302273422e-03,6.959718395100485469e-03,3.585085868835449219e-01
3.537752915414371091e-01,-2.958360636899132201e-02,-2.728551469139708918e-02,-1.738352608469479962e-03,4.484689226127426906e-05,1.629624364211887139e-04,3.822270035743713379e-01
2.096669434680011324e-01,3.694780538992442631e-03,-3.496177470551198319e-03,1.370380187326063377e-02,-2.203930394227914674e-02,9.312276345866113067e-04,2.144307643175125122e-01
1.940357584955674786e-01,4.125629998714061553e-03,4.649855317216566863e-03,1.553652731805999984e-02,-3.980715819269865286e-04,7.423888686385067938e-04,1.915537863969802856e-01
2.854030461434160504e-01,-2.313020911615752684e-02,-1.563924098515240280e-02,5.309303314615161640e-03,-4.052922167698079633e-04,7.907922899310601203e-03,3.053036928176879883e-01
2.296864178197302597e-01,-9.683692692117926160e-03,-8.843569031005832359e-04,1.511203161193116346e-02,-2.785452521180366227e-04,4.010427625737989638e-03,2.366490662097930908e-01
1.581167725847629213e-01,-3.467613400826616288e-03,7.415447766836009980e-03,4.790370458814435101e-02,3.364700690746698537e-03,3.063753701464476571e-03,1.772451400756835938e-01
2.802347681253339329e-01,-1.630780746031978978e-02,-2.693472826480079740e-02,7.878442113340313954e-03,-1.776506906409149045e-02,6.298007178672345580e-03,3.040620982646942139e-01
1.995433959452446171e-01,2.438385600196990577e-03,3.658609179466199013e-03,1.535631348186729641e-03,-1.152222612632688298e-02,3.985155357222594974e-05,1.975265145301818848e-01
2.511656681909006927e-01,-1.377761482411966887e-02,-4.349736134273252119e-03,1.618953118382104699e-03,-8.355576741112365679e-04,1.014106736377895805e-03,2.603824436664581299e-01
2.661605182298689698e-01,-2.545373499626750469e-02,-4.578156143549394486e-03,2.260971622556368771e-02,-7.747035191768886133e-04,-7.352898643634915620e-04,2.844715416431427002e-01
5.290384381400476538e-02,5.420907465742943326e-03,3.547344619120464115e-03,1.761157600797963116e-02,-2.127533278014109158e-02,-4.479630740955214789e-03,6.852535903453826904e-02
3.506659514724386195e-01,-1.709335755650664979e-02,-1.345740610930531989e-02,-2.857463595117084058e-04,6.808686567350258996e-04,-2.112550220035553077e-03,3.659754097461700439e-01
3.578198553759416867e-01,-2.914899586284908084e-03,-2.630213675930354045e-02,1.370722954756703384e-03,-2.397248651861468276e-03,-3.106725572894488210e-03,3.730481863021850586e-01
3.592687492628547918e-01,-1.704286929665288497e-03,-2.981492890267406493e-02,-2.997684470136032561e-03,2.173552705604716619e-03,-3.737856310995964996e-03,3.759281337261199951e-01
3.527854066466132865e-01,-1.668810689321750806e-02,-1.565629611089686124e-02,-1.753972097339834453e-03,5.292072109629497633e-04,-3.990759450764337288e-03,3.690370619297027588e-01
3.653104803224553332e-01,8.554947121005407329e-03,-3.529965967125625603e-02,4.900199789659664094e-03,-2.292699381826161439e-03,-1.996488769914390744e-03,3.807136416435241699e-01
3.731180100324688054e-01,-5.690811609759122147e-03,-2.075964849763017872e-02,5.296110209575170076e-04,-7.173189562512417025e-04,-1.278124756784000324e-02,3.872000277042388916e-01
3.089920940151572593e-01,-1.438903167170080266e-02,-3.588134464076461749e-02,1.024475024966967464e-03,1.646418829866201292e-02,2.741281891267181511e-03,3.358963727951049805e-01
3.458991194813756387e-01,-2.377080040933896021e-02,-3.752735727229242202e-02,3.683404690726876885e-04,-2.161372316695546144e-04,4.090860694144416083e-04,3.767380118370056152e-01
3.502505250205123488e-01,-2.710479372988072733e-02,-3.530127630929094651e-02,-5.120943213840471351e-04,-8.039029128449194476e-04,6.569423239207315864e-04,3.815248608589172363e-01
3.507267083426180432e-01,-2.571954302231893585e-02,-2.764795194466254658e-02,3.247233132169566718e-04,1.006062199738040619e-03,-2.400292966306952149e-04,3.774188160896301270e-01
3.511156722229363258e-01,-1.729821914130785787e-02,-1.745669273016411949e-02,9.578382598652318992e-04,5.262344836211714201e-04,5.793120653024037017e-05,3.684980273246765137e-01
3.550757981146743236e-01,-1.746661668198840056e-02,-2.396133962181740129e-02,-3.091784938713518574e-03,-1.914151070804169714e-04,9.800995179396680516e-04,3.758739829063415527e-01
3.523905996978424771e-01,-1.397080565668284979e-02,-2.156388290730457125e-02,1.050400253578139334e-03,2.328426386986985619e-03,1.294548536327404763e-03,3.702495694160461426e-01
3.703688166907188606e-01,-1.357212122634923746e-02,-7.305818819656223484e-03,-8.209297852504387344e-03,-6.443711781587168654e-03,2.958565358251891500e-02,3.847033977508544922e-01
3.542390786426943272e-01,-2.504938955175703419e-02,-2.247937450969011985e-02,-1.319850814255787812e-04,6.696200624939787445e-04,-7.155438784589556594e-04,3.780138790607452393e-01
3.521959073633271209e-01,-2.279187184472619698e-02,-1.833444345650714347e-02,-9.397351687609521807e-04,-1.988495613280594123e-04,2.041923943804029896e-03,3.727995455265045166e-01
3.547168336754917828e-01,-2.669096156861699987e-02,-2.661781772223353881e-02,-2.152393671363130295e-03,1.892079530806273788e-04,-4.424715375707442117e-04,3.813903629779815674e-01
3.546875969282360375e-01,-2.700213980221538579e-02,-2.568261298565721606e-02,-1.062328199878490248e-03,6.346430982615105295e-04,-7.071672141278907394e-04,3.810396790504455566e-01
3.558071328558823354e-01,-2.558916670134708804e-02,-2.468049544631897851e-02,2.129300671561972468e-03,5.674326497334974571e-04,1.647423493243930582e-03,3.809725940227508545e-01
1.979839585870488694e-01,-7.405917988617988224e-02,2.182445932784427001e-02,-3.259132130173875153e-02,-7.712479459339983967e-02,1.352734884938671354e-02,2.805296778678894043e-01
3.536401150360757861e-01,-2.006122407583407763e-02,-1.959942647555634743e-02,1.726601259217706678e-03,2.388758578714092213e-03,-6.549513871704576440e-03,3.736777901649475098e-01
4.038734896709234024e-01,-1.374933400366118441e-02,-2.585869086005013195e-02,-1.018364207621194335e-04,9.838546491061406912e-03,-2.423323714590964670e-02,4.262215197086334229e-01
3.532765506226193675e-01,-6.569538196577490163e-03,-2.058589769068469577e-02,1.702214289715891973e-03,-1.275413076934899675e-04,-4.617747382188746967e-03,3.671540617942810059e-01
3.525152036200160377e-01,-8.614035791032953471e-03,-1.981755710754004585e-02,-1.963139754405503375e-03,1.500691838915088182e-03,-4.818549522746653352e-03,3.669792115688323975e-01
4.217907111468970904e-01,-1.189203470114857941e-02,-3.191475967064089092e-02,-1.707180190666737155e-03,-1.595028091340788086e-03,-3.016144478828969647e-02,4.471136927604675293e-01
3.730128194970114275e-01,1.544908975172233634e-02,-4.451551620243046625e-02,4.812838828521460478e-03,2.690522491232272186e-03,-1.121015834326525608e-02,3.916081488132476807e-01
3.545618816310272536e-01,-3.400327425900706579e-02,-3.033149469453960689e-02,-8.262219554002059188e-04,-6.017080462653505522e-04,8.616162234579685447e-04,3.867492675781250000e-01
3.504653165387093261e-01,-3.516628826760653803e-02,-2.879478584565525745e-02,-1.542801407176989882e-04,2.910177221729171927e-04,1.573427399694075652e-03,3.824957907199859619e-01
3.545648877901091955e-01,-3.325601852204562725e-02,-3.110102030095740488e-02,-1.347140364899426844e-04,8.984089571190713170e-05,8.499029357771473213e-04,3.867508172988891602e-01
3.547004034204704892e-01,-3.156455570803357036e-02,-3.293584031911145349e-02,2.209985276644821164e-05,1.675457464946680103e-04,9.865056983334602198e-04,3.869563043117523193e-01
3.547704275358132264e-01,-2.586411922792888896e-02,-2.783742303852757005e-02,-3.903359297533723696e-03,-1.574710908338694082e-04,1.247447585961798232e-03,3.816911280155181885e-01
3.474417642516532401e-01,-3.382769424468110020e-02,-2.845097438682581137e-02,-5.250034541910032765e-05,1.107211098688180547e-03,4.215520605936749939e-03,3.786849975585937500e-01
3.523014303365736288e-01,-3.144020877168968164e-02,-3.225777263278217788e-02,1.672138607419029505e-04,8.355665672311030599e-04,2.606685254533887535e-03,3.841804265975952148e-01
3.534523879333676954e-01,-1.882276556947529156e-02,-2.243133450923714967e-02,1.323860054301764528e-03,-1.202842846851742134e-03,-1.939914104308655294e-03,3.741204142570495605e-01
2.602761490806532185e-01,-2.110626118888173086e-02,-2.587622178397350203e-02,-2.845554911234934869e-02,2.468527648100738228e-02,-3.291036414082095657e-03,2.912571728229522705e-01
2.792391846520817511e-01,-1.205103912383351239e-02,-2.625760747673709650e-02,7.430964527157317770e-03,1.926131284345302189e-02,-5.719312081725948758e-03,3.009432554244995117e-01
2.868069109362345603e-01,-7.128605150523339984e-03,-2.801436808471405304e-02,7.461876452446320959e-03,2.168481304271474217e-02,-2.848930888685674914e-03,3.075312077999114990e-01
2.761651869757170141e-01,-1.127223099727928113e-02,-2.053396676038103663e-02,8.130922175335822746e-03,1.174764691844622927e-02,-6.256178140338596039e-03,2.934246063232421875e-01
1.735859313940315007e-01,-6.206648186223767683e-03,6.534072875635475730e-03,-2.934257415708661082e-02,8.575396348109500314e-03,2.317195268813208430e-03,1.817049533128738403e-01
3.543098897711947637e-01,-2.596705332352558515e-02,-2.450950792986017479e-02,-2.955730143268296261e-03,-3.488929857603522040e-03,9.331178211285543833e-04,3.796363472938537598e-01
3.544493516331009286e-01,-2.246066205183916420e-02,-2.476337692385249811e-02,6.638548784654142525e-05,9.246076328088795489e-04,-1.200459157392440735e-03,3.780757486820220947e-01
3.439049020143518653e-01,-3.950036496141384745e-02,-2.274725962009715996e-02,-1.923397104663108126e-04,3.846501422981337239e-04,1.368707095479478747e-03,3.753174841403961182e-01
3.474370423141757147e-01,-3.730711601991731907e-02,-2.302128051946561449e-02,-3.405859343469975348e-03,1.408111497237913255e-04,1.581930385770127703e-03,3.778599202632904053e-01
3.465663089396647245e-01,-3.094846287778496574e-02,-2.606126242353315470e-02,-2.203377577073185531e-03,4.929739392445569787e-04,6.545023990656401820e-04,3.751171529293060303e-01
3.548169329224498125e-01,-1.355799178694205853e-02,-3.206438658878435488e-02,2.092347640377511045e-03,1.432225030257406684e-04,-1.073818736483214947e-03,3.779900968074798584e-01
3.371345374673575535e-01,-3.338595194516646991e-02,-2.354698129064100587e-02,-6.222422271285871394e-03,5.738453341622811767e-03,2.922954774817600448e-03,3.660290539264678955e-01
3.579279158749725798e-01,-1.414707926543798400e-02,-3.612450073140269224e-02,3.435304923568500458e-03,-1.988847077873907160e-03,6.384995588859964559e-04,3.835994601249694824e-01
2.923318518516213604e-01,-2.595910639513447637e-02,-1.907077121211721293e-02,-5.704485791251877325e-02,-2.997680404023747580e-02,-3.109872957237717547e-03,3.341425955295562744e-01
3.538217630086967769e-01,-1.540646428446890148e-02,-3.457955617075125776e-02,3.241126483285428051e-04,-8.239205870974321624e-03,-3.294770227682004577e-03,3.794902861118316650e-01
3.569604003661501213e-01,-2.612333685629145141e-02,-2.703806834263566827e-02,-7.214687154494352217e-03,3.553313513017007999e-03,-5.601761609564489457e-05,3.837947845458984375e-01
3.541243172575253562e-01,-2.778215405924006065e-02,-2.534381535245003314e-02,-1.565890877998290295e-03,-5.173087540357201083e-04,6.602231286204716249e-04,3.807055950164794922e-01
3.537627539716015623e-01,-2.296321982680563090e-02,-2.549931169436536749e-02,1.033000934075452683e-03,-4.807614153405069014e-04,1.336461447504040494e-03,3.780126273632049561e-01
3.531954913504481430e-01,-2.210873373845581580e-02,-2.239131569637520247e-02,-1.332808419883137153e-03,9.578657204259912340e-04,-2.809304483850335113e-04,3.754566609859466553e-01
2.163046987640981911e-01,-1.116903562587555354e-02,-6.457063597238160702e-04,2.350039074217905380e-02,5.184116066942015847e-04,-7.998644625145752071e-04,2.260990738868713379e-01
3.570368212182489787e-01,-2.135633969894479289e-02,-2.452786955971442140e-02,-3.045274503571949055e-03,2.273059699128067955e-03,-2.280435481656993297e-03,3.800663650035858154e-01
3.540061318391868328e-01,-2.628812729487411959e-02,-2.538689255449880222e-02,1.391876612386819809e-04,-2.589947339547537652e-03,1.296399834223015048e-03,3.798776566982269287e-01
3.522748944854390274e-01,-1.895947274332762666e-02,-1.092256408958755531e-02,-9.562023273387294364e-04,-2.292301443976569437e-04,-9.416093120226311924e-04,3.672894239425659180e-01
3.239095853920454515e-01,-2.485886167094861210e-02,-3.132425689172455008e-02,5.765931624649500709e-03,-4.452405613630047373e-03,7.294024285160126062e-03,3.524982035160064697e-01
3.324197714374373391e-01,-2.025607555506608870e-02,-3.848419874504840910e-02,-1.556421220736025051e-03,-1.153132053841427959e-02,-3.849816100769425618e-03,3.627558052539825439e-01
3.504865735410038208e-01,-2.738770763893130789e-02,-3.086889274877699374e-02,-1.839415730590359972e-03,7.983595126877942412e-04,5.005063602467202128e-04,3.796437084674835205e-01
3.463806660772676960e-01,-3.003723864492804929e-02,-3.341389676866246550e-02,-3.426152860770219008e-03,-2.955128728579056903e-03,-7.332111319776290180e-03,3.784118890762329102e-01
3.601038484612765767e-01,-1.893149665895360600e-02,-1.936923178251465094e-02,-6.163345780856816468e-03,-9.766423408656564956e-03,2.106738671223162829e-02,3.815304934978485107e-01
3.587208465456662720e-01,-2.701445539312963273e-02,-2.039078150140519186e-02,1.547019078159298433e-03,3.192814203611625372e-03,4.714628321570897844e-04,3.825167119503021240e-01
3.548712895640094289e-01,-3.179932900073864643e-02,-1.314675025010186848e-02,-1.658244998068833216e-03,2.287285783740182574e-04,1.736033743062607862e-03,3.777130246162414551e-01
2.020305297238352282e-01,-2.308238111489589739e-02,1.355585284329052093e-02,-8.491882073751044410e-03,-7.588416175142763398e-02,1.473133419469686498e-02,2.488233000040054321e-01
3.058200375600648169e-01,-1.847929230080060103e-02,-3.190188874929689167e-02,-1.353742802685784646e-02,-2.347281038359748037e-02,-3.384049220381429770e-03,3.345746994018554688e-01
3.437038827226089333e-01,-2.096198709351002054e-02,-3.718131875335070613e-02,-3.073409542194991198e-03,-1.411190211862356839e-02,-6.955144499387912443e-04,3.738798201084136963e-01
3.403221784914728931e-01,-2.739681791927586763e-02,-2.613034362746147199e-02,8.335805865798667086e-04,-9.900993335257820063e-03,5.533700286279958573e-05,3.674905896186828613e-01
3.087520492900513447e-01,-1.785010238864245813e-02,-3.250830997929873845e-02,-5.326516285956062538e-03,-2.301857336768873413e-02,-5.504156429263207077e-03,3.368037939071655273e-01
3.568076766880813877e-01,-2.965093967056853241e-02,-2.437675814109452332e-02,-6.265256930019883451e-03,-9.903785636994753838e-03,1.848724365374665630e-04,3.843851387500762939e-01
3.453843746755160260e-01,-3.699358866668400747e-02,9.216188690589502408e-03,-2.975104814790910379e-02,-2.769842325811198991e-02,2.001897124269198455e-02,3.699160814285278320e-01
3.516157262998490518e-01,-2.895690293433647589e-02,-2.873128496000090792e-02,-5.097718250432026026e-04,-4.943144790820932621e-04,1.594055030288018876e-03,3.804718852043151855e-01
3.457432064903542823e-01,-2.515276759663473416e-02,-3.693153068736004796e-02,-1.516214265788670256e-03,-1.013054608073402389e-03,6.855291961803387270e-04,3.769385218620300293e-01
3.534801378697025598e-01,-2.935415576641547952e-02,-2.823116579516660174e-02,-2.297086481443903348e-04,2.164926338454718855e-03,1.630958981067698061e-03,3.823030591011047363e-01
3.456646773909397008e-01,-2.728070108399704985e-02,-3.514814241538849471e-02,3.534673064594688000e-04,2.750001330345012811e-03,3.815720146984615761e-03,3.770292103290557861e-01
3.422202203395477982e-01,-2.447514576844420087e-02,-3.841498493854650365e-02,-4.706229698752679123e-03,5.836226058010846908e-03,4.420038348892987683e-03,3.741640448570251465e-01
3.503455787865433213e-01,-2.582715860716527922e-02,-3.412366658062757074e-02,-1.903168063427715124e-03,3.141416105669050073e-03,5.633955898692483448e-04,3.804433047771453857e-01
3.516608971156446328e-01,-2.712120692204209038e-02,-2.958281520968922274e-02,-3.483710359870903581e-04,-1.375370670100585155e-03,4.822520001169555075e-04,3.800277411937713623e-01
3.545598556420164749e-01,-2.599094857827291549e-02,-2.478893618940905541e-02,-1.407830501610598053e-04,3.510564334017131534e-03,-4.591724922609288924e-04,3.800007998943328857e-01
3.517466154152795177e-01,-3.647617212488593608e-02,-2.678896026052651758e-02,-2.579863640240960022e-04,-1.563204858852304925e-03,-1.161734201677090163e-03,3.834860622882843018e-01
2.982305637718213887e-01,-2.584542148520882487e-02,-3.337081841885336519e-02,2.512634150271726360e-02,-2.361286306667049334e-02,7.690626665703250223e-04,3.333003818988800049e-01
3.555527998511094911e-01,-1.942493738458350716e-02,-1.924749927188007526e-02,4.349837513483782031e-03,1.641927144009240787e-03,5.573084745678032192e-03,3.750997483730316162e-01
3.390669644803746552e-01,-3.319588834790448972e-02,-2.554117760532201298e-02,-3.274715785803389029e-03,-2.655691442428867368e-03,-6.873740207148310369e-03,3.687597215175628662e-01
3.550623505629993959e-01,-3.105698778375526325e-02,-3.033186133946125240e-02,-9.495544163258652984e-04,1.664413518568399434e-04,-1.124320976979175128e-03,3.857658207416534424e-01
3.482053820084778928e-01,-3.507582177808277191e-02,-2.853447254282079348e-02,-1.843885306878294012e-03,-7.150516119867805559e-04,-2.904209281025304634e-03,3.801014721393585205e-01
3.473174428503530975e-01,-3.633389596236707986e-02,-2.666237473667754099e-02,3.263727097354150362e-04,9.695602153904051175e-04,-1.166183514116321453e-03,3.789176940917968750e-01
3.314495213726886269e-01,-2.041411807183923788e-02,-3.378628577568271174e-02,-1.555284961955043710e-03,-1.101455224371026241e-02,-3.594693693737491865e-03,3.593076765537261963e-01
3.691731927709855920e-01,-2.228443039347863253e-02,-3.493139172563089478e-02,-1.559576749047342226e-02,-1.258556070427344249e-02,8.423595541570896503e-03,3.997092843055725098e-01
3.400002825164344378e-01,-2.226917544235834656e-02,-3.908605111998875170e-02,2.885603643081082796e-06,-2.422038789933114201e-03,-3.343079736487506066e-03,3.710328042507171631e-01
3.325414644514096407e-01,-1.935383672565035851e-02,-3.683469333389133293e-02,3.270927003632852345e-04,6.935983943841844690e-03,-4.181811223044613716e-03,3.612262606620788574e-01
2.401358828239837373e-01,-1.289459572448739544e-02,-2.456584317981799770e-02,-1.175106419292688657e-02,4.895322891596165515e-02,1.157795478195940836e-03,2.733520865440368652e-01
3.607722447316735193e-01,-3.487681413535329011e-02,-2.480414382667495143e-02,-1.305140863352770297e-02,3.375743286941933902e-02,-6.207908268754470981e-04,3.957085609436035156e-01
2.828768622724966431e-01,-5.349184525066058571e-02,1.710807625847667046e-02,3.637729010180258682e-02,1.137537494366950008e-01,-6.101656425614572672e-03,3.705158829689025879e-01
3.537234069801247216e-01,-3.092502747412168018e-02,-3.406400948842921994e-02,-6.048354542821150369e-04,4.906392023179376475e-04,-2.503486315228698258e-03,3.862541913986206055e-01
3.478700962922401940e-01,-2.901760585897544820e-02,-3.502686278238012485e-02,-6.130192357088731217e-04,-2.058905377170125190e-03,-2.488519431321106236e-03,3.799706399440765381e-01
3.475046596143475663e-01,-2.483597021218972301e-02,-3.827507155732481903e-02,-6.192859142101951944e-04,-9.969706733314377158e-04,-1.234993932632360214e-03,3.792502880096435547e-01
3.463428207883935128e-01,-2.701911302343645849e-02,-3.564959744570875277e-02,-4.501072951267707785e-05,-1.080692543943482988e-03,-2.916949671278219053e-03,3.777895569801330566e-01
3.479638150490007020e-01,-2.695079466061403584e-02,-3.564943984902943508e-02,-7.178511861947680815e-04,-9.628720283237197052e-04,-6.460209115696758340e-04,3.793461024761199951e-01
3.519667816762206414e-01,-2.598908139238254034e-02,-2.550759979458502857e-02,-7.673922011635106412e-04,-2.514190908556333381e-03,2.405465534773118443e-05,3.777427971363067627e-01
3.554897639825038147e-01,-3.426194055992864973e-02,-5.240856798381876569e-03,1.706692923825574304e-03,-6.550331667866083132e-03,-4.200186713714273946e-04,3.762653172016143799e-01
3.630652775858013714e-01,-3.420137509925066932e-02,5.037878107308491060e-05,6.658274363034062931e-04,-7.199556058183393184e-03,-6.469896355648712023e-03,3.816664814949035645e-01
3.693091494813664499e-01,-3.999033498077533832e-02,2.180731715001005266e-02,1.874623432834106838e-03,-6.577075460333640933e-03,-1.141328155835135034e-02,3.828607797622680664e-01
3.650509438902627690e-01,-3.524992667829679460e-02,-1.074654320449217049e-02,-3.071268666643351894e-03,-1.301184603976446134e-02,-3.369593818686591764e-03,3.893620073795318604e-01
2.331692859860474976e-01,-7.795271479028600958e-03,-1.171135480017361508e-02,6.502184651902826254e-03,-1.560719781602392525e-02,7.214631589176984106e-03,2.450237423181533813e-01
3.567085453166831122e-01,-9.458347524923527150e-04,-3.685587526752895360e-02,-5.273369240534338080e-03,-1.045615952284535254e-03,1.208287891541171173e-02,3.775900602340698242e-01
3.557777071341854946e-01,-1.492762128848865166e-02,-2.852267321742263384e-02,2.097110555610932816e-03,-2.114760888577656150e-03,-9.318314067826785488e-04,3.777250945568084717e-01
3.616253075505375669e-01,-7.273130858820475719e-03,-3.637764023341885644e-02,-6.466938064537957644e-03,-1.264828736105692419e-03,1.211339001785684662e-04,3.844477236270904541e-01
3.537052367319512003e-01,6.077247230233714936e-03,-3.509524391811269517e-02,-2.513661715702705801e-03,-4.968298643358900341e-04,6.661306128850536662e-03,3.701431155204772949e-01
3.870452493968667418e-01,1.054403059216574290e-02,-4.451049579657137545e-02,-1.651014756524965890e-02,-5.372456290503979225e-04,2.143727933177691503e-02,4.095235764980316162e-01
3.558462806066174933e-01,-3.480772136212256784e-03,-3.269978068262430204e-02,1.714797019356870816e-03,4.606004078976815019e-03,2.914900548971887696e-03,3.749224245548248291e-01
3.571504740113787824e-01,-1.677415446592028792e-02,-2.762925845319469387e-02,2.543273372174482613e-03,1.659064914447979169e-03,7.045255050238776514e-04,3.795070648193359375e-01
3.373174674923161698e-01,-3.909192279172729600e-02,-1.960917737607195677e-02,2.407606731911139837e-03,-1.723659000483858828e-03,2.966468805834079903e-03,3.671278059482574463e-01
3.561394668504213046e-01,-1.349103110818139495e-02,-3.407818583884586472e-02,-3.046333267796572705e-03,-1.258559854968002885e-03,-1.466219041373359542e-03,3.803935050964355469e-01
3.399547317696796633e-01,-3.790570438316412383e-02,-2.452705015632189456e-02,4.493558014810713347e-03,-5.555822152429081701e-03,1.184114680944884247e-03,3.715637326240539551e-01
2.335193615739937778e-01,-1.842082714711062996e-03,-6.568535637434025354e-02,1.229002900256652708e-01,-3.227183676403796303e-02,-2.328685246341534107e-02,3.529332876205444336e-01
3.562990327387106082e-01,-3.050280421299367273e-02,-2.665313153388285117e-02,1.789334315560142663e-02,2.045750218352331267e-03,5.954270276425972395e-04,3.861548304557800293e-01
3.082667627665761079e-01,-3.535854332697077607e-02,-1.892310013391999834e-02,2.761316727825928463e-02,2.936884182011095497e-04,-1.322050748699863136e-03,3.391073644161224365e-01
3.373666107866584163e-01,-3.426376949714635134e-02,-2.233663768259197546e-02,4.462350828631478014e-03,2.245542180502585862e-04,-1.440564117115827750e-03,3.659030199050903320e-01
3.439004277798828335e-01,-3.082685537842244639e-02,-2.475944187684622766e-02,1.330970060680612341e-03,-1.355477932582159397e-03,-2.577667504735209857e-04,3.717455565929412842e-01
3.704694612941508147e-01,-2.978578372413684394e-02,-9.431362706393692230e-03,5.592044643784988868e-03,-2.216151127933401258e-02,-2.059586593027963944e-02,3.940956592559814453e-01
3.696312725984990388e-01,-3.437649045558877070e-02,-2.615704048178346675e-04,2.141320872586172964e-03,2.213577135674173278e-03,-1.263073072049297231e-02,3.887293040752410889e-01
2.374674911256878795e-01,-2.519694139482692163e-03,-5.696115915769586757e-03,4.380475195989603880e-03,-1.381139901120774158e-02,3.686528687360615154e-04,2.428919076919555664e-01
2.522411458570032461e-01,-1.849711688873773019e-02,1.134419856236604240e-02,4.319757198315208463e-02,-6.617104118187337736e-02,-2.442047176009915985e-02,2.943357229232788086e-01
3.753882190624024950e-01,-4.334180903427975462e-02,-3.011417969254989724e-02,1.523422924973322559e-02,-3.499805990567567138e-02,-5.742327782006196105e-03,4.176610708236694336e-01
3.504975038973642265e-01,-2.866818959995184879e-02,-3.345515140103094698e-02,1.095662450867033837e-02,-1.212200287853503963e-02,5.066769976120397666e-03,3.827304244041442871e-01
4.586255309125056856e-01,-2.890756883673809008e-02,-2.034514602947570805e-02,-7.702230047367504030e-03,-7.211394862891883084e-02,-4.299468743403437460e-02,5.048883557319641113e-01
4.341966233308467982e-01,-5.431874849829348983e-02,4.055653812663290170e-03,5.971062974669928171e-03,-2.240682387204100470e-02,-2.818734090863548800e-02,4.664062559604644775e-01
3.810980114715343259e-01,-5.022338335695852862e-02,1.729648753322543531e-03,2.984470931502417046e-02,-6.408411577008610305e-02,-3.641598642724009488e-02,4.304644167423248291e-01
2.885301572080625210e-01,-1.733463418520699018e-02,-2.882941022667809272e-02,1.668131649885009476e-02,4.987712367477572378e-02,-6.231211987332675208e-03,3.249857127666473389e-01
3.408110624135680666e-01,-9.633776235982882685e-03,-1.846984284914027219e-02,2.427149840027860786e-02,-3.971011593785736538e-02,-3.082730801855679964e-02,3.678793013095855713e-01
3.546943202153939878e-01,-7.294358472626799594e-03,-1.775869064537793918e-02,-1.403494468987134098e-04,1.878834880132789365e-03,-1.442577917614014903e-02,3.681959211826324463e-01
4.969754701121653628e-01,-3.412965524715624865e-02,-1.417118012021489903e-03,5.169685218685962647e-02,-6.760650467130913110e-02,-3.640065068139013843e-02,5.398829579353332520e-01
3.534643738365567112e-01,-2.417490258997434527e-02,-1.740677761612796637e-02,-2.130561001015669753e-03,1.055515635197100356e-03,-4.550081487185561949e-03,3.744067251682281494e-01
4.018366608796533623e-01,-1.271232699430130397e-02,-3.513417389132794666e-02,-1.680626374211691317e-03,3.405415088991519193e-03,-2.523025894851788076e-02,4.284874796867370605e-01
3.085918390443784243e-01,-4.487445429246436635e-02,1.354413116738403811e-02,2.354545687886542768e-02,4.629177731960031073e-02,1.916596495425833963e-02,3.419007360935211182e-01
1.855209016683318224e-01,-5.755126182423464520e-03,-7.205004732485087438e-04,-6.353634823257442443e-02,7.113441406307138837e-02,-8.216665005064353183e-03,2.512813508510589600e-01
3.275829152651976162e-01,-2.489918907361282630e-02,-2.953002140658497754e-02,-5.889400605366297385e-03,7.958816424605276788e-03,6.959642046543383989e-03,3.554388284683227539e-01
3.381411322705017430e-01,-2.510212242858930742e-02,-3.436395577645015575e-02,-1.002720666160819042e-02,1.474395233658597551e-02,8.265755960689891851e-03,3.695328235626220703e-01
3.658888387431674105e-01,-3.193482330657673729e-02,-2.676825417564859810e-02,-2.697721309227086445e-02,2.231618798305387563e-02,1.275414272197415971e-03,3.998965024948120117e-01
3.380184631856731903e-01,-1.928982113773552998e-02,-4.107363985284623320e-02,4.405497758132842067e-04,-1.304709559195847972e-04,2.650080352520162120e-04,3.686843216419219971e-01
2.047105851702987478e-01,-3.623686694289418586e-02,-6.202471839347453719e-03,-7.349722591493776380e-02,5.152906969181351299e-02,-3.081453307844950890e-02,2.806080877780914307e-01
2.925620920282113735e-01,-2.598035801483480900e-02,1.225583774897416600e-02,-1.045177753055370924e-02,1.092275945409821869e-01,-2.159759071168466243e-02,3.581487536430358887e-01
2.778289369586102175e-01,-7.054528970040374602e-02,1.987933181508906577e-02,-4.403511211475850257e-02,1.114894968311852530e-01,-2.459145523660925120e-02,3.781016170978546143e-01
2.916570878124666866e-01,-1.227295429647796976e-02,-2.802937587440232359e-02,-5.261394196500679410e-03,2.176144914466388025e-02,1.489857867190275565e-03,3.145170509815216064e-01
3.504569368900316562e-01,-1.529724604595536497e-02,-1.488505690345895416e-02,-4.219091918703966751e-04,1.914752729815154091e-04,-3.284281748163420870e-04,3.655495941638946533e-01
3.519613036607970868e-01,-1.679513570832319447e-02,-1.258631663596562755e-02,1.185739841878893528e-04,6.184812937339732777e-04,-1.813969085546518565e-03,3.666852414608001709e-01
3.522508317384216991e-01,-2.049373760809675149e-02,-4.191768269964896154e-03,6.330539288903786355e-04,6.589830751613489287e-06,-4.706827796340766132e-03,3.649595379829406738e-01
3.536016801581420843e-01,-2.974804657237470340e-02,-2.876447524493569441e-02,-7.711643359607958225e-04,2.070977091991727491e-03,8.254162910933193162e-06,3.828780353069305420e-01
3.522979481319665207e-01,-2.011692521809235745e-02,-1.415979934321684452e-02,4.626809247386666447e-04,-1.488113590987983053e-03,-6.444595592002091457e-04,3.694838881492614746e-01
3.520779094562010436e-01,-1.162747587940701766e-02,-1.862733565672503033e-02,5.024436560641991020e-05,9.164806225228069652e-05,-5.897928382524599651e-04,3.672568202018737793e-01
3.510890104990805893e-01,-1.708405614191785271e-02,-1.536303913325490211e-02,-1.124367724300576795e-03,8.934943234733981263e-04,-3.535275942997889460e-03,3.673750460147857666e-01
3.743826213584878215e-01,-8.228126793692530638e-03,-7.590988742712301285e-03,7.776728076397620981e-03,-7.188843775682811701e-03,-2.709838430627692710e-02,3.855996131896972656e-01
3.510121763650063675e-01,-1.700275585351604390e-02,-1.744542630144571560e-02,8.645381110767801341e-04,-6.354178047153915361e-04,-2.325234081478271637e-04,3.682413697242736816e-01
3.497615492695789197e-01,-1.437076307321483171e-02,-1.749472612843253061e-02,6.540987701080119887e-06,5.863858706138300831e-04,-1.426444709692240107e-03,3.657140433788299561e-01
1.832613309568413562e-01,-1.196666222110462363e-02,7.842054439349641082e-03,3.240210210486934445e-02,7.843685828500418511e-02,3.678193391432231854e-03,2.372476309537887573e-01
2.794348843583025488e-01,-1.393634820204052438e-02,-2.529707635745241656e-02,1.153628462243945642e-04,2.164559432977045117e-02,-6.826072664606763589e-03,3.017848134040832520e-01
3.439163244487971616e-01,-3.225312078586733966e-02,-2.601807684665130571e-02,1.856155865992472134e-03,3.538850532617785448e-03,-6.284896725105160696e-03,3.733139336109161377e-01
2.378685749101197566e-01,-9.542277527670312010e-03,-8.565700850542881661e-03,1.463229716142106646e-02,2.045449438281722598e-02,-4.615225494626534752e-03,2.508641779422760010e-01
2.429127225841219706e-01,-5.374969701040052672e-03,-1.690813361355562872e-02,7.851547340899616215e-03,4.478417875454079877e-02,-3.734828249326500784e-03,2.662461102008819580e-01
2.628676665521336719e-01,-6.359406050046437220e-03,-2.031990461084581812e-02,3.251802873421660118e-05,1.124982227128734288e-02,3.598754864459743387e-03,2.772276699542999268e-01
2.195401372364204629e-01,-9.409892634371377906e-03,-2.912772622793172173e-03,-2.151598139123351433e-02,7.177237242090782690e-03,3.147871713744729988e-03,2.292288988828659058e-01
2.721141255635934342e-01,-2.678620479408397315e-02,-7.598624948535553925e-03,-2.249130246603373018e-02,5.675820721698619933e-05,4.497760878588633222e-03,2.924938797950744629e-01
2.689878841064197168e-01,-2.439653362015299642e-02,-5.752999814130341227e-03,-1.613084092887646925e-02,9.339015233817687532e-05,-3.877605510872393548e-03,2.859685719013214111e-01
2.137651144522471625e-01,-9.108141580066536624e-03,-2.638745457629904090e-03,-2.090123861550881659e-02,4.332070389294439931e-03,3.448520813493084584e-03,2.228790074586868286e-01
1.307116298210420635e-01,2.063924997141412115e-02,-7.421045234205767005e-03,-5.988628488287070506e-02,2.741882437823635679e-02,2.954490917271928706e-03,1.703896671533584595e-01
3.512184453867897016e-01,-1.812620156249653003e-02,-1.574832129479669662e-02,1.729681281036627295e-04,-1.618009115191804505e-04,-5.678632347942528819e-04,3.681630194187164307e-01
3.501498382895863459e-01,-1.563163103067133353e-02,-1.278966059796524113e-02,5.497535230773069933e-04,1.812274529600828039e-04,-2.899619757880707825e-03,3.644047975540161133e-01
3.510344845977752537e-01,-4.650463975868268651e-03,-1.696822689967003583e-02,-3.371512746055873788e-06,1.442903328312526733e-04,-5.146689184909429213e-03,3.621108531951904297e-01
3.507691256705950944e-01,-1.438494286074490369e-02,-1.655843296610137738e-02,8.593170964754413908e-05,-9.706056265026140643e-05,-2.441701573127460102e-03,3.662701249122619629e-01
3.506985367545459864e-01,-1.547533190801883562e-02,-1.576482315498722864e-02,-4.816486904363968509e-04,-6.482752414830261984e-04,-3.600872513842666520e-03,3.663744628429412842e-01
3.523761744824592257e-01,-1.548592767290754568e-02,-1.720311353816345035e-02,-4.252308769121767359e-04,2.117648828881928125e-04,-3.427558694624778524e-03,3.687723875045776367e-01
3.501882357430958770e-01,-1.557707898431254234e-02,-1.269231814869689612e-02,-6.139143975198205726e-04,6.469555392184577283e-05,-2.294567026081184916e-03,3.643547594547271729e-01
3.585984924245362859e-01,-2.052035668984281136e-02,-5.081027240435104231e-03,-4.438075954557613167e-03,-5.525973040359080657e-03,1.317990911616879687e-02,3.725425601005554199e-01
3.538940275897486942e-01,-2.171861571400229840e-02,-1.832097036267946177e-02,2.386160313024414566e-03,6.602576679738703666e-04,3.140608427162312928e-03,3.739895522594451904e-01
3.715137218918055373e-01,-2.163483387612222253e-02,-2.494044833384342907e-02,-2.367111664115101755e-03,-3.262729480882919659e-04,1.229808496969571688e-02,3.954075872898101807e-01
3.505062624469849064e-01,-1.465696489387946500e-02,-1.752823989529872506e-02,6.064866061015203660e-05,6.371875919915882336e-04,5.263804129112228036e-04,3.666101098060607910e-01
3.491264314763891652e-01,-1.470333769287496262e-02,-1.487396486049324951e-02,3.369925086692291490e-05,-9.808368881861326185e-05,4.652400019652003118e-04,3.639160394668579102e-01
3.512078377124214779e-01,-1.917503394977743136e-02,-1.118189010212972123e-02,2.503046973241401297e-04,-1.965535545264242095e-04,1.012559044984344923e-03,3.664563000202178955e-01
3.525262009560412579e-01,-2.153003538490141922e-02,-6.731119056093332054e-03,-1.663183315531208844e-04,-1.564527999446367265e-03,4.023738693932518012e-03,3.669570088386535645e-01
3.753642381271315442e-01,-2.489995394078317603e-02,-4.354243132318574849e-02,3.005115906655717734e-02,2.253856087157356594e-02,7.010087585114252104e-03,4.152125716209411621e-01
4.271309774288375438e-01,-1.083324881677352747e-02,-4.471146651832447194e-02,3.346217335439669732e-02,3.693854828376611117e-03,4.771893182756570956e-02,4.669359922409057617e-01
3.440858488472076648e-01,-2.807577129143212780e-02,-3.275434125113410588e-02,-2.865208950139721406e-03,-4.148198810818681803e-03,-2.409376021938768042e-03,3.746478557586669922e-01
3.558889397410109900e-01,-2.854629419476403807e-02,-2.901476242202719047e-02,-1.277031656257657244e-03,-1.683708868469507153e-03,-3.312184206059461729e-03,3.847298622131347656e-01
3.586776885987183472e-01,-2.595252530042310712e-02,-2.475729452022132349e-02,1.925314822643903970e-03,2.883275382933920172e-04,4.476808018665818113e-04,3.840495645999908447e-01
3.509615169230241860e-01,-2.904755264383368507e-02,-2.716767507052375574e-02,1.275206940181143524e-03,-1.088100692107547286e-05,1.031074998269268912e-04,3.790791034698486328e-01
3.526844012821050423e-01,-3.245792038663025680e-02,-3.129758542716171155e-02,-5.241942611707662908e-04,7.160905884148913115e-04,-1.916762247087094298e-03,3.845808804035186768e-01
3.546995815260470253e-01,-3.176737689611147664e-02,-3.156155162864940356e-02,3.246318363922491091e-05,6.040190503268767991e-04,-8.581286205032557591e-04,3.863683640956878662e-01
3.484543692005540039e-01,-3.569945544805774862e-02,-2.670084636169003933e-02,-3.294100286290411734e-04,-4.494343267798723337e-04,-6.489364997953473834e-04,3.797373771667480469e-01
3.530520729625093446e-01,-2.831386661402851557e-02,-3.191430655593030519e-02,-7.400959936931909584e-04,-2.029756341767717173e-03,-2.324019785284113862e-03,3.832182586193084717e-01
3.567079981145471756e-01,-5.085334547030445629e-03,-1.577356989989198155e-02,2.068029960131437337e-03,-4.066564429913188325e-03,-1.494923468924411712e-02,3.682505488395690918e-01
3.545505175819799737e-01,9.958843901297642631e-05,-2.774218899157793183e-02,-1.949488680064872127e-03,1.095776279373962786e-04,-7.689722274554316311e-03,3.694157600402832031e-01
3.925067486045237808e-01,-3.772424420707401471e-02,-3.242190136058578642e-02,2.118463372747485599e-02,-1.848238703236334060e-02,-2.050919644011463608e-02,4.318317174911499023e-01
3.621553274272747980e-01,1.699099431041990738e-02,-4.474174120001286892e-02,-2.589368716475661230e-03,2.184449006160548400e-03,-4.386478239519597377e-04,3.798582553863525391e-01
3.544914062163554980e-01,-2.643028071689756953e-02,-2.631945647026320834e-02,2.330703811967378258e-03,3.188333234210103252e-04,5.887530708549638427e-04,3.808894455432891846e-01
3.198030029099808713e-01,-3.569710414947510624e-02,-1.239166460291318828e-02,1.141296282248627572e-02,-1.379649184173439239e-03,2.206464618742614431e-03,3.450354635715484619e-01
2.474884770188850169e-01,-2.768735102448349750e-03,-1.342579896622567159e-02,-1.594116340594040190e-03,-1.277127188174952480e-03,3.820353515980604237e-04,2.557776570320129395e-01
3.720180337456402420e-01,7.277738753769996682e-03,-4.073219619548498760e-02,6.918022820831174965e-03,-1.107327356291486946e-03,-4.151949592446271668e-04,3.911513388156890869e-01
3.585085858282812676e-01,1.239182597518541373e-02,-3.971690131110616750e-02,3.222123616610503456e-03,-8.385129969970259774e-04,-2.910666443681176122e-03,3.749753534793853760e-01
3.697468141566783162e-01,5.482027541132111770e-03,-3.958631762803466181e-02,-4.378649636901879409e-03,-6.519238395777654906e-04,1.922210245788955746e-04,3.888389170169830322e-01
3.602284859996461308e-01,7.970301640455146330e-03,-4.254817863626716989e-02,8.649760000129074963e-03,3.620262703202615021e-03,-6.438616204617372829e-03,3.805543780326843262e-01
3.624006951947478794e-01,9.840980970102747305e-03,-3.706314398058566106e-02,-4.437008375512289764e-03,-1.905457621801488928e-03,-1.772439091792861509e-03,3.783044219017028809e-01
4.799779283342706648e-01,9.313890735227065010e-03,-5.395023095514442368e-02,6.755317624249546071e-02,-1.009622056734116140e-02,-2.893820600235133891e-02,5.213554501533508301e-01
3.976737218020825471e-01,2.473606905338950057e-02,-6.110963965427915201e-02,4.777023748534227343e-02,2.730846077574906449e-03,1.423896901487401237e-02,4.312118589878082275e-01
3.930838735697558817e-01,-1.188486256898876881e-02,-4.087104462902590996e-02,5.830081815445344040e-02,2.037972961191586441e-02,4.387900390544774432e-02,4.402242898941040039e-01
3.546362868556781067e-01,-2.311955012800728793e-02,-1.678104067455118975e-02,-2.425242280012701156e-03,-4.491009921260615337e-03,5.700305200392580263e-03,3.748611509799957275e-01
3.369809554177539690e-01,2.637374959689914311e-02,-4.743197759335790464e-02,5.891502458622911720e-02,-2.218334872200325176e-03,-8.822839742708607144e-03,3.681167662143707275e-01
3.574912217660836666e-01,-2.112207017102482598e-02,-2.793350058414495463e-02,3.509745748638194718e-03,-5.219250769156971335e-04,2.819363608789427801e-03,3.821451663970947266e-01
3.423110114760115619e-01,-1.286104184282280127e-02,-2.475588369912767872e-03,4.525349789429740366e-02,5.023761306241211061e-02,3.870733133902903161e-02,3.752016723155975342e-01
3.697186113093338111e-01,-2.810933331687884285e-02,-5.365861393597237683e-04,-1.492251122545293351e-03,9.602192896421058756e-04,1.565836688913323574e-02,3.857500851154327393e-01
3.796009371261723775e-01,-3.024651683386567202e-02,-4.457687182122249681e-03,1.905401663117959124e-02,1.316665875821709797e-02,3.346897334501376664e-02,4.037824571132659912e-01
3.596935245467977049e-01,-5.865084700218597957e-03,-3.263640939550760400e-02,6.910334554205884924e-03,2.904543873609895677e-03,3.595353915994883593e-03,3.799258172512054443e-01
3.578987356216534743e-01,-2.923983808687419250e-02,1.824053090904581564e-03,1.826093836314362801e-03,-3.825772456719072137e-03,-1.299720965136315874e-02,3.733308315277099609e-01
3.637644876534534832e-01,-2.858391276672092585e-02,-1.796902228655958278e-02,-8.792030546183918997e-04,-9.009106102897271665e-04,-2.359967817253760033e-03,3.871778249740600586e-01
3.692623708317263054e-01,-5.334208824664316007e-02,1.832164067841028643e-02,-4.336159240680506795e-03,6.676130063175350973e-03,-1.447377574999441502e-02,3.927637934684753418e-01
2.359853539805892297e-01,-8.953571014382086246e-03,-1.138597220117912312e-02,1.697387310954003026e-02,-1.130809044663920460e-02,6.183884873060836035e-03,2.489165663719177246e-01
3.340598989542217789e-01,-4.307285487356041220e-02,1.539861308471163204e-02,3.137404128534687642e-02,-9.064373776965585494e-02,-9.719283226687644786e-03,3.892065882682800293e-01
3.686614459743259298e-01,-4.245076396466768154e-02,2.153476540554283281e-02,-9.965019212298479451e-04,-5.923976628053146017e-03,-9.427555894149175497e-03,3.836366236209869385e-01
3.797494689785967936e-01,-2.104362953953764492e-02,-2.591030832746268886e-02,-1.723472556276280099e-02,-4.192527920788440866e-03,-2.582608950578944851e-02,4.068834185600280762e-01
4.133297789828841440e-01,-3.530027885304160007e-02,4.726361552491037399e-03,-9.716029152003374456e-03,1.485483195169030532e-02,-3.533822616515602116e-02,4.354371130466461182e-01
4.208748666566589081e-01,-6.550597822137069204e-02,1.500944728923542248e-02,1.779224345211417174e-02,5.717143771347588110e-02,-2.788176482087868086e-02,4.658062756061553955e-01
4.772722241527386777e-01,-3.915814611307733006e-02,1.227451276660018742e-03,-7.165012913001288231e-02,2.739423155841569368e-02,-3.719494466694946849e-02,5.189199447631835938e-01
3.749954775874083657e-01,-2.536949194003146335e-02,-1.000353111213067581e-02,-7.836132954119863839e-03,2.629471973501341583e-03,-2.472792273749788161e-02,3.954941034317016602e-01
3.674920747074202354e-01,-2.306004423979998719e-02,-1.568874872718392655e-02,1.707734566964706421e-02,-1.081751659984093311e-02,-2.054428590008213623e-02,3.901263773441314697e-01
1.399122423112270641e-01,3.747930832618998065e-03,-5.143945236161222290e-02,5.688851516459217383e-02,-1.143693463787360913e-02,-4.720420506440021341e-02,2.142123878002166748e-01
3.558048680714468448e-01,-2.750129545106885787e-02,-3.228929166772770420e-02,7.324352738422960918e-04,-2.846658176996876097e-03,2.410522109157756197e-03,3.857786357402801514e-01
2.876374051069435778e-01,-1.713753934674314139e-02,-2.492397326235200328e-02,4.397262381037339574e-02,-3.465875733876631198e-02,3.740673781106015287e-03,3.236787617206573486e-01
3.466687728859005890e-01,-3.068138479994664269e-02,-2.579974923069405790e-02,-3.558712865042951232e-04,-3.001350297981777450e-04,5.984124596837573159e-06,3.749340474605560303e-01
2.869893929474960359e-01,2.160969147230243359e-02,-7.360635351340211185e-02,1.100854437559511123e-01,-3.446216635264744838e-02,-1.817263122128892627e-02,3.816686570644378662e-01
3.227677144324203606e-01,-2.836444625299555655e-02,-2.391064377808102548e-02,1.186222720543583277e-02,-1.464047973599516550e-02,5.896759593713829517e-03,3.505983948707580566e-01
3.482674752931412820e-01,-3.717760916635801105e-02,-2.477339378680154525e-02,1.334438147339452019e-04,-2.616704649430540348e-04,-1.298066977881059394e-03,3.794021010398864746e-01
2.633445676920350698e-01,-2.410352397250307976e-02,-6.344165945682572749e-03,-1.685562602930363099e-02,-3.897758687199643843e-03,-4.558433269561964520e-03,2.807083129882812500e-01
2.272979158645404285e-01,-2.964509021670405642e-03,-1.987838875584847786e-02,5.768467328978414688e-02,-4.928101053287226030e-03,-1.214198621802410616e-02,2.601906955242156982e-01
3.917971502293310926e-01,-3.832837417398690660e-02,-1.068561743068774383e-02,2.342947719615834715e-02,-3.355888728081228567e-02,-7.607664161735685701e-03,4.231799542903900146e-01
3.611745026484563525e-01,-3.027693353896859785e-02,-1.267349427937250472e-02,-1.354187110289337961e-03,-4.774071746611449271e-03,-6.121787728919059722e-03,3.831964433193206787e-01
4.288083989004747298e-01,-4.052002419974842784e-02,-7.141564015264695309e-03,2.560675634996972816e-02,-8.899789452473774731e-02,-4.136820080634337482e-02,4.863957464694976807e-01
3.578003350809610406e-01,9.051156008702640476e-03,-3.643545631762928894e-02,5.005826577093176744e-02,-2.899535930382757948e-02,-3.069369180359693416e-02,3.904157280921936035e-01
3.968877338211605488e-01,6.481582314684153356e-03,-3.689533490094132340e-02,1.131220844780573276e-01,-2.862413222119767481e-02,-2.838462066380113835e-02,4.631393253803253174e-01
3.404138475284237964e-01,-1.930737337071497528e-02,-4.290617500867524581e-02,3.869747214759897895e-04,2.362322917918589153e-04,1.795040170633538845e-04,3.720832765102386475e-01
3.436157616812898774e-01,-2.063005880257995361e-02,-3.961122953808912661e-02,-1.144546136184553843e-03,-2.773569532783271094e-03,-3.417452155635843699e-03,3.741806447505950928e-01
3.104374095896945129e-01,-1.935521108512107402e-02,-3.615094589392153779e-02,-2.419585532117898060e-03,-1.160892360707418448e-02,-3.536423984275698616e-03,3.391810059547424316e-01
3.077963923592875184e-01,-1.347101483038916359e-02,-3.610147101303187722e-02,-2.777291714455739887e-04,-1.131516262033723137e-02,-2.373692768710988690e-03,3.337612152099609375e-01
3.364547492415788099e-01,-2.115893762934845101e-02,-4.131153535696652224e-02,-2.056375613865823234e-03,-4.409995998247247771e-03,-2.019548893444044792e-03,3.682170510292053223e-01
3.037442112466225419e-01,-1.132993423212017015e-02,-3.652378077384044186e-02,-1.969164630252814158e-03,-9.355173409822798575e-03,-6.177379329783339512e-04,3.288156092166900635e-01
3.447398372662230925e-01,-2.999382854760318518e-02,-2.297242601683330276e-02,3.334555948188481865e-05,-6.096401261926223756e-04,-1.323850506656794974e-03,3.712813556194305420e-01
2.268427972070803655e-01,-9.360086878051496195e-03,-3.166641931105676488e-03,1.479689002827862948e-02,-3.356046537708915704e-03,3.667073893120087295e-03,2.347301095724105835e-01
2.161083654629279704e-01,-1.530288884574508568e-02,-9.809032624352717611e-03,4.129142766986493296e-02,-5.481052187059821772e-03,-3.292832154048938847e-04,2.398236989974975586e-01
1.974320283054536718e-01,-4.299456093171241666e-03,-3.818857689851060111e-03,4.167550024250404189e-02,-3.693385888004328127e-02,5.277377391927649819e-03,2.235739082098007202e-01
2.979433190441710400e-01,-1.306662666312434495e-02,-3.008285822848535962e-02,2.763087951240746662e-04,-1.784288594128197528e-02,2.924932832196335594e-03,3.213875591754913330e-01
2.157596226414895679e-01,-8.259572913464297006e-03,3.318756682986812034e-03,2.439117364180831346e-02,-1.054432779996509507e-02,-9.919663437337708804e-05,2.232560366392135620e-01
2.341886259625560185e-01,-9.266844682497346608e-03,-9.826200812262972373e-03,1.431920621569416144e-02,-5.939403185878967817e-03,6.040632552835065693e-03,2.454332411289215088e-01
3.123032627056034904e-01,-2.260937965526438331e-02,-1.664958740748623267e-02,1.604232775443279260e-02,-2.749547245754488389e-02,-6.944328371111822308e-03,3.367353975772857666e-01
3.234074679280896647e-01,-2.572529037847373634e-02,-2.581493826147857051e-02,3.421956706581276431e-03,-3.648320931574956100e-03,7.977664780159630237e-03,3.495582640171051025e-01
3.472857162869195102e-01,-3.802950659358556029e-02,-2.470517291061508081e-02,-1.146534709458824422e-03,-1.179412590154054873e-03,-1.721052998151816884e-03,3.788512945175170898e-01
2.212105432973560937e-01,-1.075210860654318701e-03,-7.142912588836008991e-03,-1.745314074970724487e-03,2.047008352928035221e-02,2.573837619528798314e-04,2.281730622053146362e-01
2.043325116094225069e-01,2.062827074254286464e-03,4.366794895073480842e-03,1.347912601333051651e-03,1.006515423521015667e-02,-1.447540324015559807e-03,2.019107937812805176e-01
1.951877940342103268e-01,3.872280961827900825e-03,4.734618135029608488e-03,8.081815973248723806e-03,8.460595819302361639e-03,-1.195042332288498476e-03,1.919697076082229614e-01
1.410172147972886814e-01,9.157477649364476058e-03,8.362881968574209512e-03,1.057617748880325913e-02,5.358385460948937237e-03,-1.120414882642212272e-03,1.338576376438140869e-01
2.164808568034548852e-01,-1.132331494486965573e-03,2.448886504634165129e-03,-1.223110966841267286e-02,5.409615486310992774e-03,1.872705009731846304e-03,2.171085327863693237e-01
1.174500717332209732e-01,1.192334785004259268e-03,-2.039908628833464466e-02,5.759764882760942672e-02,-1.573687760092621485e-02,8.161008346773416383e-03,1.654915213584899902e-01
2.204025663201520102e-01,3.692207227360452815e-03,-8.112314627873457029e-03,3.881249091890465533e-03,1.495236890989681822e-02,-1.746336586477920940e-03,2.244681417942047119e-01
1.570040943878307504e-01,8.174045955480560566e-04,7.185705019730918852e-03,-9.774565174178483085e-03,-2.945753096839871799e-03,2.730288203985254888e-03,1.541921347379684448e-01
3.522088622575255124e-01,-2.665920360834897473e-02,-2.659563506550885470e-02,-5.562619902000851815e-04,9.766321079917377954e-04,2.362296794076280482e-04,3.788415193557739258e-01
3.554390621371171788e-01,-3.223208095603802281e-02,-3.205548492101187308e-02,4.473362511388657807e-04,7.989928595148248564e-06,1.182404073849592421e-03,3.875890672206878662e-01
3.483161925203317466e-01,-3.018574629465517467e-02,-3.061905179703056090e-02,1.393335046315668634e-03,-3.543153088473435450e-04,2.861726153591412792e-03,3.787593841552734375e-01
3.545744813074343527e-01,-3.376713242024842465e-02,-2.983226844312897308e-02,-7.300843160221671870e-04,-1.071286072849527045e-03,1.048656396644439106e-03,3.864000141620635986e-01
3.527365251221184494e-01,-2.974687738355163980e-02,-3.285669147200309670e-02,3.243852919740971403e-04,9.043809425920762077e-05,1.802844889810677512e-04,3.840483129024505615e-01
3.478447034048249287e-01,-2.675109174460230110e-02,-3.562346320101178465e-02,2.727845311711297950e-04,-5.067988623425773729e-04,5.418432361693241916e-04,3.791123330593109131e-01
3.559243647970168345e-01,-2.487264994262966544e-02,-2.743747298009852065e-02,-9.307830702304908249e-03,3.277668266113175949e-04,2.138340062698288531e-04,3.824264407157897949e-01
3.703136446751796318e-01,-4.900087668682912012e-03,-3.177913562927292546e-02,1.697330181538692865e-03,-1.216686460653487820e-03,-1.202535408752779950e-02,3.899232447147369385e-01
3.381524671993326736e-01,-2.686241557013149817e-02,-2.890183879202765094e-02,-4.974530074301942648e-03,4.711326899780951191e-03,4.052658295649852471e-03,3.662984371185302734e-01
4.321787240396139929e-01,-3.646622007414357380e-02,-5.339415085022253260e-03,-6.451857635711640525e-03,5.620283081876518809e-03,-2.497440194223096363e-02,4.561801552772521973e-01
4.332540023176831845e-01,1.476931091222849490e-03,-5.126463291139735090e-02,-2.008498464665972941e-02,2.358703096803797805e-02,-2.320996480765973730e-02,4.652752876281738281e-01
3.574198605508938087e-01,-4.166805843836635104e-03,-1.636319929609261759e-02,-4.537242858619123208e-03,2.297791807499571532e-03,-1.557128100608705552e-02,3.689291477203369141e-01
3.703524099470558717e-01,-2.399821355253201061e-02,-1.713330618568040253e-02,-1.359503607303273829e-03,7.725585631913937067e-04,-1.436054553882137701e-02,3.917631506919860840e-01
3.751766201421566360e-01,-3.249864560883031217e-02,1.803211994935438600e-03,-5.485411697760748419e-03,4.217358461513348849e-04,-1.273876532189206767e-02,3.923892974853515625e-01
3.586000759561847051e-01,4.990497627827827909e-04,-2.977351912711304061e-02,-2.249366677859898026e-03,2.101715167255300849e-03,-4.198063885265623102e-03,3.742655515670776367e-01
3.576198842423549684e-01,-4.999838496140718291e-03,-2.036270131007578144e-02,1.611011405102643571e-03,-7.078541904147834986e-04,-4.459513526110783430e-03,3.706331253051757812e-01
5.074063712373930723e-01,-5.731223645285693502e-03,-3.526198058822130332e-02,-2.708033853881740977e-02,2.654133457421745113e-02,-3.039584512854342710e-02,5.351828336715698242e-01
3.586414991195397417e-01,-1.030197453784853501e-03,-2.878860194462432021e-02,-3.815319413313466961e-03,2.124186564632137182e-03,-1.189322765766526527e-02,3.749662935733795166e-01
3.576650595905942476e-01,-2.968487649530729411e-02,-1.364947956660456097e-02,-1.010815625309316023e-03,-6.084395293653645058e-03,-2.860617373362064984e-03,3.797689676284790039e-01
3.629300026846139504e-01,-3.706377804475874393e-02,-1.432265750127531545e-03,1.139636360422425273e-03,-1.328145010111955390e-02,8.128080614967777423e-03,3.843742012977600098e-01
3.639537799767590398e-01,-3.913868281972632257e-02,1.242019591806338419e-02,3.621278710823171826e-04,-2.805666504851210812e-03,-3.251199294260629941e-03,3.800191879272460938e-01
4.554253845468026474e-01,-7.191692557229917293e-02,1.185321707139488923e-02,-2.289869054409710003e-02,-1.602346456410343525e-02,3.138814712500374859e-02,4.962164461612701416e-01
3.627430452211071188e-01,-2.958347363735205904e-02,-1.069528229297289634e-03,2.035658446282541823e-03,2.798467561919845518e-03,1.287806178325688784e-02,3.795784711837768555e-01
3.591601910458770419e-01,-2.832186292864316557e-02,-1.828427004845201154e-02,1.906015252743014504e-03,4.065816165938897046e-03,1.712062908106653765e-03,3.826525807380676270e-01
4.331696587167230827e-01,-5.088104683677013851e-02,8.843088274795407600e-03,8.238492044264101102e-03,-9.836977470643354805e-04,3.193295841979726379e-02,4.606823325157165527e-01
3.585332386339673549e-01,-3.766323077660654883e-02,-1.418608395330892002e-02,-2.298364756025451927e-02,-2.303726947815469897e-02,1.035966651930315952e-02,3.895126581192016602e-01
4.041950750481815846e-01,-5.438821338245355963e-02,1.864573946200576149e-02,5.306801091153938443e-03,-1.490788897188151732e-02,-9.884369045934187498e-03,4.280008971691131592e-01
3.015736245117060510e-01,-3.153209293842010319e-02,-1.605684805164313278e-02,-2.358784238056464699e-02,-4.795596951426341417e-03,-5.158498527933600558e-03,3.284235000610351562e-01
2.571879824897332356e-01,-7.643045791847019599e-03,-2.133067729476170737e-02,-9.057949376889293247e-03,3.583997525539694973e-02,4.001740423314944020e-03,2.794556021690368652e-01
2.703930569980669274e-01,-2.206879156450468338e-02,-1.923217704871194034e-03,-8.407914327470528137e-02,6.532479987740735794e-02,-2.301165019388251576e-02,3.400683403015136719e-01
3.251888108565400004e-01,-1.975360383522026253e-02,-3.399271341882942332e-02,-3.811695885265469798e-03,1.301404008048715269e-02,2.355991261028773237e-03,3.530836105346679688e-01
2.801010819844507171e-01,-2.654448729128018603e-02,-1.421751664504142254e-02,-2.086059201914376368e-02,1.374921209990493526e-02,7.919552518108496919e-03,3.040792942047119141e-01
2.647082563907853237e-01,-6.257843026529319452e-03,-2.372133778581686503e-02,-2.830084126293930138e-04,1.733257850838632042e-02,1.140976252513722531e-03,2.817179858684539795e-01
3.433454915464607127e-01,-4.080845640788874351e-02,-2.121354444764247948e-02,-1.460209883955652021e-03,-6.426765449091758437e-04,-1.267892782975038601e-03,3.747575283050537109e-01
3.699898639567820724e-01,-1.890200190440791128e-02,-2.095632380187775756e-02,-1.017226545701159154e-02,7.001521096893805612e-03,-1.013238740122992393e-02,3.909034430980682373e-01
2.929772381885267230e-01,-3.399103210892004401e-02,-2.772186769731586897e-02,-4.120190880769668967e-02,2.429802717879706725e-02,3.010659403580076207e-03,3.343484699726104736e-01
3.178613035089793426e-01,-1.933802086998467895e-02,-3.276408547397016702e-02,1.222013783795120913e-03,1.583431286106589883e-02,7.168827436429131561e-03,3.454297780990600586e-01
3.147617018549422330e-01,-1.307489468081010631e-02,-3.572314336115900435e-02,-3.716448708780500237e-03,1.240289467262873507e-02,3.777087318539438469e-03,3.405296206474304199e-01
3.021731365028690330e-01,-2.317548714165226786e-02,-2.473288631371631241e-02,-1.135436656770393363e-02,6.495586146803595563e-03,9.385518873065714154e-03,3.273200988769531250e-01
3.543365660322456145e-01,-3.695440753885237406e-02,-2.723401644417422496e-02,5.830683587146376357e-03,4.521903501089003484e-03,8.279912614975654117e-03,3.869994878768920898e-01
3.540413234541147092e-01,-2.746794012817208031e-02,-2.921400094122555968e-02,1.445043410234376764e-04,-1.459682415760910415e-03,2.533025947378351496e-03,3.824189007282257080e-01
3.547393167878256648e-01,-3.186517161902585604e-02,-3.126450954020393302e-02,3.036936319854040668e-04,2.609157587640119802e-04,6.092522703169039660e-04,3.863065838813781738e-01
3.554985073652401351e-01,-3.092439854946113509e-02,-3.043705803354918027e-02,-7.166841730557633886e-04,4.885795823754595420e-04,-4.096117074690212921e-04,3.861830532550811768e-01
3.537325489095090592e-01,-2.760993045021678527e-02,-2.794575454367054235e-02,4.940560080029730546e-04,-1.266419302107127907e-03,2.151056379755242646e-04,3.815179467201232910e-01
3.541819479421309813e-01,-2.949834235016488004e-02,-2.952085195826936737e-02,1.073690771275797543e-03,-1.914874836663871922e-04,7.695205719968825761e-04,3.836985230445861816e-01
3.535834045634869693e-01,-3.279899597010266232e-02,-3.316548028498941814e-02,-8.495511565573489379e-04,7.652451501064779296e-04,2.015354646939038381e-03,3.865866065025329590e-01
3.531273828765780221e-01,-3.033930108902391232e-02,-3.311693487689471027e-02,5.074418933149354473e-04,6.252826846935244333e-05,7.309128376644376084e-04,3.848661184310913086e-01
3.532482012962625539e-01,-3.230923125297222032e-02,-3.224037129238085941e-02,-8.107305340672516436e-04,6.961022311358320289e-04,2.764827581589874433e-03,3.855572044849395752e-01
3.563312767297923123e-01,-2.937822525742586621e-02,-2.736878728899358459e-02,6.124224601959335837e-03,1.405536000371956787e-03,-1.098321498094996648e-03,3.848673403263092041e-01
3.628127786802841648e-01,-2.561811267735258912e-02,-9.648260951069742575e-03,-1.864907349398475279e-03,-3.213933105562150581e-03,7.572077986519890926e-03,3.809774816036224365e-01
3.310885701443895268e-01,-2.084589562719185718e-02,-2.704801162125908265e-02,2.520812555936055230e-02,-6.699338042327376407e-04,2.965145660540977578e-03,3.577892482280731201e-01
3.552595450180388581e-01,-1.312480455088721465e-02,-2.756628363760946221e-02,1.044745270753155708e-02,2.801730187020547592e-03,3.090923922437809925e-03,3.763180375099182129e-01
3.640332170692993641e-01,3.820916765241233470e-02,-4.592044458796815110e-02,1.423480430979885969e-01,-1.889132665724291976e-02,-2.941683051377495632e-03,4.500400722026824951e-01
1.543205483684547408e-01,6.123068867259412462e-03,-5.857688679936259857e-03,6.687844201807434386e-02,3.404572169105214707e-02,1.363156828625708764e-02,2.033089250326156616e-01
3.527355823037067184e-01,-2.280202139940640249e-02,-1.896532783800322641e-02,-1.503930996826737150e-03,-3.426673243798222150e-04,4.441681242121798959e-05,3.736435770988464355e-01
3.514569414281430437e-01,-1.782010157254587668e-02,-1.909324182404870118e-02,6.447728193796411220e-04,-4.312492858086045162e-04,6.350953766118310395e-04,3.699193298816680908e-01
3.513376038413733582e-01,-1.700535524488569483e-02,-1.720518623930408775e-02,-1.109037732463089313e-03,1.089386623219576770e-03,-1.306355453958701343e-04,3.684528172016143799e-01
3.540532573833228280e-01,-2.220460389854000960e-02,-2.629393796669626804e-02,-5.176162308625949227e-04,-4.675501156487404020e-05,1.506111660808001716e-03,3.783291578292846680e-01
3.538146068587301185e-01,-1.630382664214133359e-02,-2.285908952314999465e-02,2.652523352432975545e-03,2.674896273235891661e-04,-1.993542025936390245e-03,3.734837174415588379e-01
3.433744988196780756e-01,-3.984475567081405267e-02,-2.240956882834019281e-02,-5.920783620552297691e-04,6.235605305824878843e-04,-9.847380338393434129e-04,3.748127818107604980e-01
3.528325593174483910e-01,-1.489208203084896320e-02,-2.026354063844040820e-02,-1.791686697566700816e-03,1.762493722657154562e-03,-1.947235233534074525e-03,3.704805076122283936e-01
3.515023088649165128e-01,-1.097683140730756901e-02,-1.941572474912126034e-02,-1.368674943063160829e-04,-3.307125111228302860e-05,-1.205795892302131880e-03,3.667774200439453125e-01
3.505217636995489605e-01,-2.825370225887427478e-02,-2.704482197581770109e-02,-1.066910363812113589e-03,4.243507841785786137e-04,-4.037949721697974128e-05,3.781777024269104004e-01
3.514522512203066551e-01,-2.834350145473882310e-02,-2.568479626183839404e-02,1.073459367771613035e-02,5.267893759608214058e-03,-3.615088419165298959e-04,3.790401816368103027e-01
3.482415245108986812e-01,-3.570801024094150122e-02,-2.677074355491074198e-02,3.761146582806336545e-04,-1.726364756294987500e-04,6.288246802909062310e-04,3.795620501041412354e-01
3.468120683797350501e-01,-3.265744366427833500e-02,-3.047437073478109770e-02,6.733589625289716600e-04,-1.928906336779225798e-03,2.924865835968501904e-03,3.784331679344177246e-01
3.528052729538974641e-01,-3.538110221609780393e-02,-2.869258243815545062e-02,1.395538849411649511e-03,2.214045426082432997e-04,3.047570882268506830e-03,3.849296867847442627e-01
3.566621580042595996e-01,-2.945658463753558776e-02,-2.244412088400857264e-02,1.570812215554010308e-02,-1.900022522001385342e-02,3.135011797482181901e-03,3.850739598274230957e-01
3.515048393643321334e-01,-2.962240834035070880e-02,-2.984271481510461510e-02,-2.265418240682179319e-04,-2.027427469992027875e-04,1.111214437583246889e-03,3.812426626682281494e-01
3.523617673836385578e-01,-1.996088314062061109e-02,-1.787276095081638538e-02,-4.566827541387078913e-04,-1.157777567647293128e-03,-5.839761411431164482e-04,3.712906241416931152e-01
3.519824210224758443e-01,-3.133329693104172642e-02,-3.241438736885415839e-02,2.083487514887125038e-04,-7.769839170878052982e-04,1.166771528621396046e-03,3.838652670383453369e-01
3.527740019319292042e-01,-3.317585537551981378e-02,-3.065911337665630509e-02,5.147752013850549844e-04,-6.587242186503863882e-04,3.174775694164091566e-03,3.847396969795227051e-01
3.783538985705954816e-01,-2.226415843304963005e-03,-3.152893101498938089e-02,-1.662750026840614098e-03,-9.781936378612465788e-03,2.801449667607781857e-02,3.993767201900482178e-01
3.563790974271147660e-01,-7.993009310111320875e-04,-2.773684668965528677e-02,2.893589360235242908e-03,1.471077138529056170e-03,6.569420067185987970e-03,3.715974092483520508e-01
3.716800580163359680e-01,-9.668925008957052203e-03,-2.021800047068844641e-02,-4.808873550876559613e-03,-4.600105483387796970e-03,1.696073120957744540e-02,3.880168497562408447e-01
3.562197852325310055e-01,-4.409408578009865742e-03,-2.227408634472760607e-02,-1.318642301148444150e-03,-1.326343212997552982e-03,4.352593920193821402e-03,3.699762225151062012e-01
3.572024451003560919e-01,-6.743982017257704742e-03,-2.694183048780479650e-02,5.514790385355287277e-04,9.355383134965024935e-04,2.649051078533001639e-03,3.744869530200958252e-01
3.593762530917814502e-01,1.240631617876157555e-02,-3.877562114584875985e-02,3.595647880185578495e-03,-9.981830496790384784e-05,4.728582630741466272e-03,3.753294646739959717e-01
3.654984891130912406e-01,-3.630523350771566737e-02,-8.134501416849931887e-03,-1.697579452048174776e-03,6.028144451434047299e-03,5.703815276839344951e-03,3.887621164321899414e-01
3.315904385431669432e-01,-2.660163707184010073e-02,-3.071644694916422780e-02,6.007203626494547234e-03,7.353123543420591116e-03,-5.834447224327846647e-03,3.607838451862335205e-01
3.234439523520366566e-01,-1.385481237196146964e-02,-3.746270792271993999e-02,-2.185784825354884341e-03,9.020360288056892412e-03,1.494066860145364930e-03,3.500797450542449951e-01
3.517939295546751999e-01,-3.017252583614535300e-02,-1.404333819574465902e-02,-2.597223245788711499e-04,6.664903885412468837e-03,-5.134551183191397167e-03,3.744466304779052734e-01
3.525215820797502064e-01,-2.788360514997631490e-02,-3.263479318024925524e-02,-8.675453518836020658e-04,-2.086838823013156038e-03,-8.306818493874633565e-04,3.828256130218505859e-01
2.776212946619428523e-01,-1.118749782910742618e-02,-2.471742997340060921e-02,4.833533163578001939e-03,1.570205326887539471e-02,-4.508483133975497124e-03,2.972740828990936279e-01
3.843662587970709255e-01,-4.833884412438346767e-02,-6.593195680340085962e-03,4.572760004032241053e-03,1.724632062671053664e-02,-5.133280035884260455e-03,4.146648645401000977e-01
3.191474467249940106e-01,-2.525790171162223263e-02,-2.910593328674920821e-02,6.639767892252478911e-03,3.111842641510831082e-04,7.531319178623670403e-03,3.467821180820465088e-01
2.740042840459138707e-01,-9.976517745996865694e-03,-2.996049520099224039e-02,-2.820228651674452393e-03,-2.325599130039534418e-02,1.778918064495062061e-03,2.972800135612487793e-01
2.928167415680306140e-01,-1.190281535587350836e-02,-3.049515396853003102e-02,2.466458338219036910e-03,7.705217914208685416e-04,-1.346033217296269200e-04,3.144601881504058838e-01
3.379478298647878298e-01,-2.392919322707520724e-02,-3.591809063277254244e-02,1.258121915553181511e-03,2.031117434997201923e-04,5.248712785460337392e-03,3.681368529796600342e-01
2.966307931901127626e-01,-2.839186608534419176e-02,-1.821293221214138891e-02,6.080046747332695789e-02,-4.639715468004464161e-03,-2.366053950271949577e-04,3.370308578014373779e-01
3.548196921742570176e-01,-2.807355577316916762e-02,-2.052059926842000892e-02,-7.200179579210063937e-04,-3.436899337417145643e-03,-3.713122670622712868e-03,3.792765140533447266e-01
2.497771430373451618e-01,3.535294495726824804e-02,-5.515856003584318490e-02,-1.230907602197711670e-01,-3.642381808374611785e-02,-3.020799018783947715e-03,3.507696986198425293e-01
3.300907837127605160e-01,-2.565844166041547636e-02,-3.571169789862646549e-02,-6.058667727734314001e-02,-2.118678458165819400e-02,4.637771858587436992e-03,3.777014911174774170e-01
4.109729798138725965e-01,5.146462563207693242e-03,-5.451629277677411123e-02,-9.180367952454716873e-02,6.946580619499860554e-02,-4.341392363673988314e-02,4.877315759658813477e-01
3.200989012634518627e-01,2.834802585341264503e-02,-7.146100697063148544e-02,-1.012839909806641375e-01,3.521008443914280112e-02,-2.707285014138896898e-03,3.983922302722930908e-01
2.546022274536009489e-01,1.321549698971746789e-02,-3.804533962797460034e-02,-7.276596607110075166e-02,-1.852375284932794661e-03,2.532260797946263471e-03,2.986353933811187744e-01
1.169535349578039729e-01,2.992622112193847606e-02,-2.221960766298913814e-02,-8.712490575684533889e-02,-8.460718183606070336e-03,4.532505768136296147e-04,1.944702267646789551e-01
3.364926474202611373e-01,-6.489716967545106074e-03,-4.554619401260925904e-02,-3.241384205000134855e-02,1.498150287357690987e-03,-6.284813717924554212e-03,3.685582578182220459e-01
2.885125927553390257e-01,-1.217902451643385064e-02,-2.757923433051825968e-02,5.624226373569272269e-03,1.894368919755083300e-02,-5.563999861510610274e-03,3.107212483882904053e-01
2.532365974161345790e-01,-1.501591707890355398e-02,-1.988946187781560904e-02,2.903616712268910355e-02,3.978447700366523343e-02,-1.048437707688996794e-02,2.844257056713104248e-01
3.539765057064517273e-01,-2.689673418896465495e-02,-3.213576892396596829e-02,2.917931635978009315e-04,6.018424916042246697e-04,-3.072138481090544780e-06,3.835213482379913330e-01
3.486863817286752765e-01,-2.221896811930140769e-02,-3.841621181296106524e-02,9.987431653958208071e-04,-5.351822380572714838e-03,-1.212399833681977257e-03,3.793864846229553223e-01
3.493984015585689940e-01,-2.565787258793236769e-02,-3.408309736511419552e-02,-4.213543793816093845e-04,-5.803087344488651322e-03,-2.542941248830514738e-03,3.794984519481658936e-01
3.718921319223951194e-01,-9.554860650248603315e-03,-4.345501931102935256e-02,-5.502153813740000288e-02,5.230384031436861175e-03,-5.201164981996903372e-03,4.108861982822418213e-01
3.749455788418299407e-01,2.530453016441454317e-02,-4.484367966948482609e-02,-1.379846487542525646e-02,3.998697332588000385e-03,-2.975947298674648002e-03,3.903101980686187744e-01
3.857252949007714538e-01,1.968659281680337769e-02,-6.402575077472774656e-02,-1.337398553159063752e-02,2.473925108008475943e-03,7.983217921213869861e-03,4.151869416236877441e-01
3.573554222672690739e-01,1.456316573149181448e-02,-4.344681787150575514e-02,-4.988580472012548589e-02,8.580437059778087214e-04,-1.031439796146536858e-02,3.854143321514129639e-01
3.718568738498260751e-01,-1.292322887948976762e-03,-3.843089426176635182e-02,-5.862079175043423407e-03,-1.713524111836014531e-03,-7.704096804425753994e-03,3.934053778648376465e-01
3.893652651822626654e-01,-3.227232647534383769e-04,-4.729538450597581267e-02,3.894665206403851755e-03,-2.387561520733006044e-03,-1.355964053418115545e-02,4.159111082553863525e-01
3.424173243926799670e-01,-2.702381075768309215e-02,-2.541638319107633603e-02,4.035711635695248163e-03,9.152163061277427195e-03,1.706882564149705744e-03,3.690587580204010010e-01
5.259212384586385847e-01,1.643571263454834952e-02,-6.300916870818212834e-02,-3.279930889436517144e-02,-3.228380975270016273e-02,3.635581546320422420e-04,5.592114925384521484e-01
3.600760652817749374e-01,1.855853678650896954e-02,-4.651701982660066959e-02,-3.882706092082558597e-02,5.249632402539779891e-02,-2.480800031373480916e-02,3.971523940563201904e-01
2.895796413929642710e-01,-2.169847421350809547e-02,8.973341641574414385e-03,4.451160885566493586e-02,5.076300215628615220e-02,2.694546995607432702e-02,3.227073550224304199e-01
1.679322674376516056e-01,-2.383248021974208875e-02,7.558329335878362365e-03,2.471302289891721959e-02,6.860088174636301550e-02,4.171794137152966438e-03,2.184996753931045532e-01
3.344027673870328399e-01,-3.345057156094988216e-02,-2.438085433262696111e-02,1.933504753000102674e-02,6.353506116254827030e-03,-4.745545779161238452e-03,3.652015924453735352e-01
3.107738615376943736e-01,-3.406079606891559974e-02,-1.835220216054649078e-02,1.915651057972799637e-02,2.390678071581768972e-03,-3.889116170395951876e-03,3.389753103256225586e-01
3.147649927709560425e-01,-2.849645466865619037e-02,-2.705865894735764998e-02,4.140130205849838763e-02,1.869645447729147147e-02,-6.260088795187713009e-03,3.516324758529663086e-01
3.398532624248542522e-01,-2.858574966248877969e-02,-2.962185490518243203e-02,6.748718980837026954e-03,4.474591691808689313e-03,-1.004017592422031674e-02,3.696339130401611328e-01
2.302143890088736711e-01,-1.750110764849756306e-02,-1.786661205975874356e-02,3.372050419685965195e-02,3.820368194228045827e-02,-1.534890885950782394e-02,2.644809782505035400e-01
3.549948977634319602e-01,-3.026002450612921835e-02,-3.028320967511696771e-02,-4.903326812568395768e-04,9.701759776581690350e-04,1.052581890125036312e-03,3.852754235267639160e-01
3.543576726564420243e-01,-2.244399408708463994e-02,-2.568627567833353664e-02,1.912857789708047665e-03,3.355101225470834476e-04,-1.183966008494235752e-03,3.784537315368652344e-01
3.546583444601530410e-01,-2.566657044923212339e-02,-2.731872163485821181e-02,-3.442389803018833087e-04,8.122501612634390553e-04,-1.088429444524385750e-03,3.811613917350769043e-01
3.549280692879333565e-01,-2.834696798399277684e-02,-2.723281080386208419e-02,1.062298085651885689e-03,-6.982634172490321655e-04,4.361743892007875940e-04,3.827262520790100098e-01
3.548318978659854017e-01,-2.610514096782176607e-02,-2.572245136742551397e-02,7.117097582391643121e-04,1.510504882107881501e-03,7.345618770557762068e-04,3.807589411735534668e-01
3.531867513017571958e-01,-2.793558676327176360e-02,-2.743955107128967508e-02,2.430804901557750280e-04,-1.146304512002062608e-03,1.687822334725187952e-04,3.808800876140594482e-01
3.509733707004514813e-01,-1.715525710905096979e-02,-1.699327262642713610e-02,6.628755178376376234e-04,-8.343246658497175967e-04,-7.215108667211610639e-05,3.680523037910461426e-01
3.538118762097334224e-01,-2.090345204897786635e-02,-1.966992339818446345e-02,8.423901235591079763e-04,-2.527069490039618969e-03,-2.079246234412152755e-03,3.741458654403686523e-01
3.545364027573775223e-01,-1.874601766235681199e-02,-2.581661792854733628e-02,2.345396625496170076e-03,-1.740828489536402120e-03,-1.185885202966463969e-03,3.769070208072662354e-01
3.546329971814222159e-01,-2.570609102595577955e-02,-2.629973006898600474e-02,-2.888147922613822777e-03,-6.650933177709314047e-05,1.121126146148273888e-03,3.806740939617156982e-01
3.544665497086811334e-01,-2.790579008863147692e-02,-2.771894827019732999e-02,1.163219158617890799e-03,-8.829903239352091156e-04,8.272444402652444101e-05,3.822873532772064209e-01
3.532242580435178692e-01,-2.128768488105350909e-02,-2.122894664301008816e-02,-6.246995670961304886e-05,-8.109537074211917206e-04,-8.270257591867017895e-04,3.744879662990570068e-01
3.542237605052178107e-01,-2.689184275986389316e-02,-2.976077508953062223e-02,-6.479427316810530777e-04,-4.055320306872202949e-04,5.973158381823533408e-04,3.825618326663970947e-01
2.917822973449484270e-01,-2.094060680515412443e-02,-1.776230379244700397e-02,-1.937031875185074581e-02,3.566650389425601864e-02,5.685297748783292061e-03,3.191405236721038818e-01
3.519327918073968942e-01,-2.812204705206763911e-02,-2.683433547336225300e-02,5.031599869847327511e-04,1.533960843461227306e-03,-4.728664388554179436e-04,3.794237971305847168e-01
3.544318105118826057e-01,-2.748798463641977108e-02,-2.540328223069260316e-02,-1.020030791456221853e-03,4.072986489878259930e-04,-8.666620792638137514e-04,3.808894455432891846e-01
3.748142754864750015e-01,-4.702745457803919615e-02,1.006161372360828143e-02,7.929633668220582333e-04,2.455361639893109509e-03,-2.109709673843732959e-03,3.964345753192901611e-01
3.661620312789855003e-01,-3.571299990152343451e-02,-9.126249894937182860e-03,-2.406039979133842589e-03,-1.938512852265900522e-03,2.945875483199961523e-03,3.893334269523620605e-01
3.618057083947175956e-01,-3.769476684532760413e-02,3.706289495280706836e-03,-2.735567401906375640e-04,9.516613139958132045e-03,9.571963995134663214e-03,3.812108635902404785e-01
3.740658085444508174e-01,-4.053582516829667970e-02,1.046264009696287745e-02,-5.805323002337215690e-05,2.145931635617626468e-03,2.934032150302535004e-04,3.916189372539520264e-01
3.644949838056908420e-01,-3.728489798576195557e-02,1.050090008116104368e-02,3.703894845299847589e-03,-5.351109316047240189e-03,-9.232063745294689450e-04,3.803167045116424561e-01
3.663570105782460451e-01,-3.916993667635293441e-02,1.600933498336842842e-02,9.804529537741353377e-04,5.159245976365597550e-03,1.505120181409399724e-02,3.819457292556762695e-01
2.330929174223509426e-01,-1.007512001441006333e-02,-7.125168462818964876e-03,1.725350427524751512e-02,1.276978513173459076e-02,-4.563611730652793012e-03,2.446769177913665771e-01
3.363996416346565210e-01,-1.830239139764633371e-02,-4.145864027321588541e-02,1.715428785050295783e-03,-2.994215717086120675e-03,-4.771519137733187159e-04,3.668783307075500488e-01
3.549145714511413585e-01,-3.109647934956516480e-02,-3.051823372439513293e-02,-1.233458821084524150e-03,-4.974438241471335412e-04,7.673537908077754073e-04,3.857314288616180420e-01
3.551081629669625706e-01,-3.081400895805022633e-02,-2.756817627275476301e-02,1.765578063703347462e-04,-1.091646596262842422e-03,1.429142937006723296e-03,3.843222856521606445e-01
3.544720209738945749e-01,-2.786186648809466093e-02,-2.765184798456493676e-02,-1.297467776291226461e-03,5.217205617425036811e-04,-8.780156834458494497e-05,3.822366297245025635e-01
3.519679507495891979e-01,-3.220431156728040256e-02,-3.143351630168775279e-02,6.988232446470199824e-04,-2.864873068425351959e-04,1.225410693091868748e-03,3.837955296039581299e-01
3.450600425347314371e-01,-2.066332850959465284e-02,-4.171775085169268649e-02,6.207990426283824248e-03,-8.912918662687771554e-03,2.278067373385123107e-03,3.771822750568389893e-01
3.554035705397952660e-01,-3.198491926034502386e-02,-3.240122350012691887e-02,-1.565180779525155038e-05,-4.669774421343176945e-04,1.124712226695233049e-03,3.876025378704071045e-01
4.330938767223701524e-01,-3.273822769195419702e-02,-1.656947685586523944e-03,1.035364757984702120e-03,-2.453941812003839276e-02,-2.281683379442952034e-02,4.548170268535614014e-01
3.894234447674053690e-01,-4.068419561154601460e-02,1.154552899545868705e-02,-1.127482853886118547e-02,-4.643880334449331480e-03,-1.715474054823866445e-02,4.081483185291290283e-01
3.662526317492365013e-01,-3.005310693005122658e-02,4.601682186849115341e-03,-3.257439311373308967e-04,2.266848182506079386e-03,-6.524407797856406240e-03,3.803534507751464844e-01
3.665322587871980287e-01,-2.962199051814301543e-02,-1.020093617328873825e-02,3.766635019564731728e-03,-4.815780654674525936e-03,-1.278422750693283469e-02,3.875875174999237061e-01
3.714207732270092821e-01,-3.374420811954809141e-02,-1.284566520609956020e-02,-1.386711201248180553e-03,7.071460068656942877e-03,-4.090425022976785369e-03,3.953909873962402344e-01
4.764830550487980099e-01,-2.654687434397823287e-02,-2.570590876559625260e-02,5.024849673643979470e-02,6.209680300802705721e-02,-4.918082517530765474e-02,5.282194614410400391e-01
4.206090730692715884e-01,-5.060572153958922681e-02,7.051738451286426734e-03,-1.781648109722432441e-02,3.831554644011696265e-02,-2.771187564461966707e-02,4.537169635295867920e-01
3.355292039243425450e-01,-2.184350016750324919e-02,-3.588724382464267282e-02,5.646661102659615268e-06,1.004480458005649161e-02,-5.574819215556634129e-03,3.651400506496429443e-01
3.470535489764992043e-01,-2.144253624451586404e-02,-4.092032999886327516e-02,1.354138886556394659e-03,4.107371579857721153e-03,-1.010035841608128079e-03,3.786890804767608643e-01
3.285772879203294750e-01,-1.965847480112059564e-02,-3.520377642260427709e-02,-1.357774582708651690e-03,9.903521418425218284e-03,3.720346761719590424e-03,3.567415475845336914e-01
2.812349516855744413e-01,-9.648225322288553341e-03,-2.378327716408171200e-02,9.085409412894446951e-03,1.204180033194742101e-02,-5.070315729487837042e-03,2.994732856750488281e-01
3.125653413595109176e-01,-3.661055699120197016e-02,-1.537967455583842680e-02,7.830656961763951540e-03,-7.120225946241089381e-04,-1.327827374304151433e-03,3.393405675888061523e-01
2.973831600543171971e-01,-3.228678934069953432e-02,-1.096214629186764711e-02,9.331961081689705076e-03,8.085355732858274733e-03,-2.808739659949002765e-03,3.202935457229614258e-01
3.437478286840721653e-01,-3.916236679912418750e-02,-2.140381420439174676e-02,1.471342806337463428e-03,1.609785888709825861e-03,-3.109365905572521703e-03,3.744047582149505615e-01
3.388327992875850847e-01,-4.275557654476100367e-02,-1.877142156151143104e-02,1.564234848181501880e-04,-3.670858292199844657e-04,-1.004292753640361868e-03,3.701842129230499268e-01
3.513465277838518364e-01,-3.891346476592955073e-02,-2.618796485560598297e-02,1.255566600065118922e-02,1.399564947923530528e-03,-1.096973233588762050e-05,3.846782445907592773e-01
3.476367848267094551e-01,-3.082135431564927974e-02,-2.594001661371034273e-02,9.075483383987005461e-04,-4.648831233518865673e-04,-1.625500976726741958e-04,3.760454952716827393e-01
3.520102933247482024e-01,-4.313988312857258700e-03,-1.983646324362103863e-02,-8.514684494710761625e-05,1.312058673571086772e-03,4.880442656374977400e-03,3.644387722015380859e-01
3.570626471873984964e-01,-3.297628991209305971e-03,-2.861117062811913136e-02,-1.191940114469576453e-03,-1.261676307223999049e-03,1.495989026595059314e-02,3.745700716972351074e-01
3.559776523884581878e-01,5.224532217043859061e-03,-2.687158654702123672e-02,4.454575183660174423e-04,6.044746106379422562e-04,6.750692839202144385e-03,3.680409491062164307e-01
3.558683922747449269e-01,1.314583749169012661e-03,-2.555523705099765897e-02,-1.479185893766329658e-03,-2.057173061953706302e-03,8.882240481862362091e-03,3.690706193447113037e-01
1.727941130125797142e-01,2.006052193385093885e-03,6.576017597218986044e-03,-4.470107709242454597e-02,9.927952197596944320e-03,-1.982960586888890542e-03,1.863088756799697876e-01
2.642245470138365193e-01,-2.652898742477695360e-02,-4.754624999055115375e-03,-2.243267026746703294e-02,4.342383471352614065e-03,4.612736053387670246e-03,2.833916842937469482e-01
3.265715648501294477e-01,-2.666403319519977666e-02,-2.925796171428324266e-02,-4.451441983231384236e-02,2.494910717237142431e-02,-8.690732780742770839e-04,3.653937876224517822e-01
1.916913545742305325e-01,4.125036793353153985e-02,-2.613366058810959180e-02,-1.081030780795867452e-01,-4.296960864773454944e-03,7.981389048551680229e-03,2.694730758666992188e-01
3.374124586632055167e-01,1.774897548007500769e-02,-5.812036445287974140e-02,-1.078765959073476055e-01,3.176921136443483333e-03,-2.745792186567334175e-02,4.115795493125915527e-01
4.443669891783648129e-01,2.107530573753288450e-02,-5.574195237675089176e-02,-9.593935486471866225e-02,3.359377774934900300e-03,-1.210843872524806908e-02,4.956608116626739502e-01
3.418608755426805201e-01,-3.465508584545604065e-02,-2.497771462408560073e-02,-1.777513044580735641e-02,2.908138944192316562e-03,5.726379160135601151e-03,3.732101917266845703e-01
2.459044957413658306e-01,2.158023984473343704e-02,-4.269403724963488633e-02,-1.179382019083687616e-01,1.239124113930579162e-02,-2.543509063064803774e-02,3.361555337905883789e-01
3.322278835021768018e-01,-3.505072844009293753e-02,-1.800473708215188928e-02,2.266235970107947223e-02,1.714439274673738856e-02,-3.538243108822660462e-03,3.624687790870666504e-01
1.888455250734269453e-01,-1.622907719369334756e-03,-1.350481078045685790e-02,3.560107642143953838e-02,3.634755191476921055e-02,1.873619361592683899e-02,2.179481834173202515e-01
1.785786861202550424e-01,-4.212959535354304785e-03,2.848066351838499100e-03,1.757010766315843242e-02,2.877766263280482489e-02,-1.017307072499089261e-03,1.886415630578994751e-01
2.072387716499903554e-01,3.717083182503383432e-03,1.840367551192961804e-03,5.414312309338342386e-03,1.163897491603625538e-03,-1.806691793420466398e-04,2.046916186809539795e-01
2.204650767020092939e-01,-1.875622246964719908e-04,-1.328990964239139261e-02,-4.464046905306365623e-03,3.723249489078349350e-02,-2.549662635888115558e-04,2.365778535604476929e-01
2.248681834985721550e-01,-1.163931923518700395e-02,-8.847096155986625132e-03,3.515327723875139726e-02,-2.181034797210150422e-02,7.444977639624424798e-03,2.461378276348114014e-01
2.332029156515049162e-01,-1.013068772651404270e-02,-5.355824453593574508e-03,2.075491143855158829e-02,1.131768745609730911e-02,-5.010226033197218848e-03,2.445895224809646606e-01
2.629727846227836174e-01,-1.371288007481931415e-02,-6.984776804355150026e-03,3.713459578471972047e-04,8.352541709577877144e-03,-5.473055696850215660e-03,2.739310562610626221e-01
2.888819024381588108e-01,-1.806772151005886506e-02,-1.674927922398866675e-02,-1.683186081209637683e-02,1.125821103981898899e-02,9.868713992083576192e-03,3.087676465511322021e-01
2.686809318186379469e-01,-1.430045108915073415e-02,-2.041307055197011389e-02,-2.351851945243150707e-02,4.385943180333992664e-02,6.461723093012765838e-03,2.990002632141113281e-01
2.976143940098808782e-01,-2.320694932162731261e-02,-1.781730234118142353e-02,-1.123761413465396153e-02,-4.665364973322115799e-04,8.136184345027139969e-03,3.190679550170898438e-01
2.342883870315947414e-01,-1.327771730580351583e-03,-6.549379515516734473e-03,-8.433193877374997593e-03,1.796042232058767465e-02,1.894298992512175733e-03,2.407579421997070312e-01
2.413282867786216424e-01,-9.987663635627433423e-03,-8.103945228490505581e-03,-1.962618998071632287e-02,2.380225125927158333e-02,5.925322490494685894e-03,2.562232911586761475e-01
2.450530016679568213e-01,4.880616770270296279e-04,-2.109975789352575015e-02,-8.610045899504736519e-03,3.685538757940136356e-02,3.052970023120330206e-03,2.643539011478424072e-01
2.618152901791308551e-01,-2.273602686812557783e-02,-1.420859742372931889e-02,-5.295240605163182429e-02,2.452848630921409048e-02,2.878177778681062331e-03,2.980894744396209717e-01
3.950247638052630794e-01,-2.101367060711262225e-02,-3.611986533703320790e-02,-3.001502453527993969e-02,-8.753357326021020748e-03,1.107957520016792687e-02,4.276701807975769043e-01
4.436618744377143764e-01,-7.551369516284073269e-03,-3.801830356015606371e-02,1.456406835585801265e-02,4.242495270153946035e-02,4.403069027677306013e-02,4.797090590000152588e-01
4.021130088555439075e-01,2.295980178845608011e-02,-5.845106749932296730e-02,7.779178910687052986e-03,2.203669949409752318e-03,1.524179133107677817e-02,4.267846345901489258e-01
3.599961968675796653e-01,7.011893595144313984e-03,-2.935074078729449365e-02,4.510414610843671568e-03,1.197183052366723472e-03,8.157137984015567014e-03,3.728545904159545898e-01
3.661156713265996676e-01,1.324442808315698383e-02,-2.458591797439863003e-02,-4.085430817129912483e-03,-3.912181951998370578e-03,2.499937124029829108e-02,3.758581876754760742e-01
5.147210134663136039e-01,1.164577811390490880e-02,-5.976395319884841850e-02,2.503329216526064757e-02,-6.551221224435206832e-03,1.999270676467621716e-02,5.452672839164733887e-01
3.778701025789079071e-01,1.640533295924534452e-03,-2.988798200881556677e-02,6.237696384092279722e-03,3.853829798767082447e-03,1.511644292561850102e-02,3.940196633338928223e-01
3.473934972783893627e-01,-7.472125745105945294e-02,2.762373216749361426e-02,9.254922356918257598e-03,9.236370888614740815e-02,-2.886633533567890819e-03,4.139192700386047363e-01
3.256999971152877427e-01,-2.093334562279197675e-02,-3.614080966417929086e-02,1.086402348589456763e-03,8.923802949011936519e-03,5.690405988152270455e-04,3.548249900341033936e-01
3.269067507927277960e-01,-1.832436301484396957e-02,-1.416597342437625473e-02,-3.047586589661741702e-02,4.533349796150770022e-02,-1.590110989745199127e-02,3.570384681224822998e-01
3.567474547645396732e-01,-4.712433068467825059e-02,3.610011786962658009e-03,-7.211158925909353160e-03,5.861913510157483465e-02,-1.693672355819634406e-02,3.956278562545776367e-01
3.995340050403154430e-01,-5.613673739682645270e-02,8.807003210560382378e-03,2.606249568023231988e-02,9.530032696790775859e-02,-1.766903459841790563e-02,4.609569907188415527e-01
3.418976609717344073e-01,-4.216046256159605710e-02,-2.106314622274613191e-02,-2.208531836269237141e-03,7.025343913317692824e-04,3.658793917840737686e-04,3.739781379699707031e-01
3.420527247263804305e-01,-3.977885132353320419e-02,-2.135764686997423945e-02,-3.124373243879862653e-03,7.734524870199631971e-04,2.484677772808362682e-03,3.730288147926330566e-01
3.512942659813421686e-01,-3.606959763178485545e-02,-2.687826536235260466e-02,-8.591518475174765232e-03,1.078913086626749097e-03,2.240158160802456760e-03,3.831642568111419678e-01
3.355253707062537671e-01,-3.602849783579470389e-02,-1.943784038417256665e-02,-8.701353616415413716e-03,7.134202339975515700e-03,6.827994511216018726e-03,3.642566502094268799e-01
3.066673465282241384e-01,-3.593553650244118991e-02,-1.382078553418542022e-02,-1.030144343263095404e-02,2.361661958887479869e-04,2.306336805339384132e-03,3.326014280319213867e-01
3.063313864438104162e-01,-3.684971229556988082e-02,-1.285788334337696626e-02,-1.225598129680424524e-02,2.376972405747712429e-04,-2.497230179166563552e-03,3.325429856777191162e-01
3.431316169639565539e-01,-4.224500265630248830e-02,-1.991216975388232502e-02,-2.388554680328370660e-03,-7.054892665523757739e-04,5.090836565183553229e-04,3.747355341911315918e-01
3.496162614487288711e-01,-3.553315882008689641e-02,-2.712500298974082624e-02,8.931258968249849734e-04,3.319048637450750286e-04,6.387622319206385851e-04,3.810200989246368408e-01
3.331310852549110302e-01,-4.162257735370036849e-02,-1.828734527429309864e-02,-7.068703831164337842e-03,-2.386969553014173912e-04,1.540029925490292526e-03,3.638640642166137695e-01
3.598678584193555907e-01,-7.790883453811431325e-03,-3.443413388308463885e-02,5.708372818969939359e-03,-1.773732244110797635e-03,-1.178501961338362632e-03,3.818243145942687988e-01
3.521439969000546566e-01,-2.835482349444354289e-02,-2.626899464494467096e-02,-6.361963881698267992e-04,-5.803566960753450124e-04,8.965493813614602988e-05,3.794631659984588623e-01
3.555253972997564071e-01,-1.186068849757462851e-02,-3.623569599654075102e-02,1.047477071032601979e-02,-4.267489241050611941e-03,3.720563878240215876e-03,3.807190954685211182e-01
3.548499297925017393e-01,-2.711210273329620057e-02,-2.848819098039226394e-02,5.822072506915386587e-03,-1.585257992242409620e-03,2.058458099212551900e-04,3.827947974205017090e-01
3.902967583463401446e-01,9.954424404245432179e-03,-3.638678935935804604e-02,3.818684893379845069e-03,-4.396988494015553403e-03,-1.944206967944085360e-02,4.070246219635009766e-01
3.741982819844625330e-01,-2.188403930729976299e-02,-4.475269263868061898e-02,3.556576285199505166e-02,-1.380929527948138516e-02,-6.578114461254159356e-03,4.134715497493743896e-01
3.555313426942424138e-01,-2.739723254848602796e-02,-2.694916675088548930e-02,3.347564685102825954e-03,-4.281051581684461359e-04,7.115446483288644878e-04,3.827513754367828369e-01
4.167999797222331493e-01,3.396297400063526262e-02,-8.047426811884267339e-02,7.181844521783629920e-02,2.397525861697119912e-02,2.451036608776181562e-03,4.697733521461486816e-01
4.288668798769272317e-01,-4.202355945350788602e-04,-4.185716073715242680e-02,4.947655243291626016e-03,-3.017198998460336994e-03,-2.657967256266852846e-02,4.538865089416503906e-01
3.551396650752041695e-01,-3.216824764077758081e-02,-3.191220215077897326e-02,-5.305530407546934710e-04,1.149880728402234047e-08,-9.309793554813335429e-05,3.871810734272003174e-01
3.551422303775325640e-01,-3.200034915987029494e-02,-3.209959353439037488e-02,1.051839717284748158e-08,-5.355545763000557884e-04,-8.436683847104691836e-05,3.871933519840240479e-01
3.539894257623777962e-01,-3.216882836323553541e-02,-3.085989647902448452e-02,-2.415727713208547451e-04,-6.017204271911897901e-05,-3.549616271733770263e-04,3.855061829090118408e-01
3.540618620471712719e-01,-3.114639096160123910e-02,-3.253403984894809309e-02,-9.799533310251116059e-04,-6.429024605685314383e-04,-8.759295221021239130e-04,3.859122693538665771e-01
3.530975591672699254e-01,-3.114159297407861904e-02,-3.287117701762215516e-02,-7.370154476822215247e-04,1.707136312533385721e-04,-1.004668075056138182e-03,3.851130306720733643e-01
3.535605725696321922e-01,-3.142840292948309577e-02,-3.133868890809804464e-02,-4.835677942457081158e-04,5.165188777783765589e-04,-1.522584457221233751e-03,3.849551081657409668e-01
3.513805735617661075e-01,-2.697529728786751679e-02,-3.832248729606879678e-02,5.904947806839392624e-04,8.913520228845557818e-04,-9.862906820110304597e-04,3.841634392738342285e-01
2.395190773781932514e-01,-5.143780070617567923e-03,-1.783810617130233978e-02,1.023776566145265937e-02,4.528044456256277023e-02,-4.225023966813038108e-03,2.639049589633941650e-01
3.455037268557974439e-01,-2.531724581362176929e-02,-3.667235813956851165e-02,2.513764650291757437e-03,6.226757978918590801e-04,-1.295784964495579452e-03,3.766603171825408936e-01
3.512816362805382675e-01,-2.703865350334674900e-02,-2.921049447047252556e-02,2.485444114131011347e-04,-1.841818906878720668e-04,-4.123631009932159151e-04,3.794119358062744141e-01
3.514158596276687474e-01,-2.714931553504512651e-02,-2.880081538221862525e-02,-6.240785432077515906e-04,-7.633138157326095543e-04,-9.614040936329538880e-05,3.793975114822387695e-01
3.543777123600188594e-01,-2.722193673015138593e-02,-2.792372899680267695e-02,1.757487689824527646e-03,3.885081176349684177e-04,4.031724536498244469e-04,3.819643855094909668e-01
3.543112987366636712e-01,-2.154199826253377914e-02,-1.591119964872517167e-02,3.543306751089730748e-03,7.083720845944213931e-03,7.536180983040612416e-03,3.735500574111938477e-01
3.462629486522815769e-01,-2.613656535629657607e-02,-3.713601083834450201e-02,2.328153536488007571e-03,4.475540961934573736e-03,-3.954277893854270948e-03,3.781822919845581055e-01
2.889435087054937901e-01,-2.858163818590317429e-02,-1.113572082162957166e-02,1.279741911547020846e-03,-5.647938762365301880e-03,1.633420056092290762e-03,3.093471825122833252e-01
2.301586962973090900e-01,-2.433893979249673878e-02,-9.285876811529161778e-03,3.890394185244011593e-02,-2.667900649004023572e-02,7.648969368066922681e-03,2.607988715171813965e-01
2.681593786518557954e-01,-2.457096090516461273e-02,-1.142960350020387483e-02,1.760805398551165343e-02,5.495295413830090505e-04,9.688972873741556443e-04,2.880116701126098633e-01
3.598238656608270802e-01,-2.741824302156953275e-02,-2.790581028279534581e-02,1.648287123797375839e-02,9.576904393162558732e-04,2.271366551467973152e-04,3.885401487350463867e-01
2.745306773308091586e-01,-1.596923455103571587e-02,-1.743911383972526763e-02,2.343618293374535172e-02,-4.900911858867360721e-02,1.155071337762523902e-02,3.067133128643035889e-01
3.095680672419067747e-01,-2.431489733116648511e-02,-2.524826907056612613e-02,5.646758569101369314e-03,-8.685935756050325307e-03,7.519851312850683867e-03,3.350850343704223633e-01
3.379384109293593341e-01,-2.422717127212317689e-02,-3.556258869874653894e-02,8.321198534383754397e-03,-7.759695856881880169e-03,3.888485117612939471e-03,3.685531616210937500e-01
4.749442098549619962e-01,-9.633768962279881665e-03,-1.599312482975404071e-02,9.261561154782795013e-02,-6.182736020899577689e-02,-4.306880170891849019e-02,5.298145413398742676e-01
4.251098140538818737e-01,-1.807223294170517969e-03,-3.630057339742001621e-02,-2.423326408523887587e-02,9.034882941805787160e-03,-3.401316797692031935e-02,4.512771666049957275e-01
2.993742071517473957e-01,-2.136368563389945407e-02,-2.866534765920983330e-02,1.323685557579236480e-03,-5.919923321064875232e-02,4.727346066542923841e-04,3.402757644653320312e-01
2.231048658908674209e-01,-3.050418891785090791e-02,2.137469687047197087e-02,1.768926200294227476e-03,-1.170939951112159871e-01,-1.849261638330544719e-03,3.082282841205596924e-01
3.923361951600675135e-01,-4.463293153067732222e-02,8.386479629426402127e-03,5.299831684404556105e-03,6.657425020351470527e-04,-1.233237998334727088e-02,4.136750996112823486e-01
2.277224907780162899e-01,-1.865923192632112926e-02,1.340584276091601190e-02,2.229572912174938859e-02,-8.404404516473189257e-02,-1.733728717280168252e-02,2.782357335090637207e-01
2.486690296412928936e-01,-6.612934826592462012e-03,-1.697886645405713435e-02,-3.427252884102056918e-02,-3.935035834516907582e-02,2.540421233567359636e-04,2.758476734161376953e-01
2.564772332613289851e-01,-2.273223514191846650e-02,-1.892625804170738890e-03,4.620884132088332735e-02,-2.682255417893015473e-03,-4.757604175142291641e-03,2.811918556690216064e-01
2.261956278906686046e-01,-7.188081378173144520e-04,-6.797670376998271591e-03,1.633465073778479163e-03,9.995994283658129337e-03,-3.742147360628689159e-03,2.307731956243515015e-01
2.138811137666760953e-01,-5.634847976930409952e-03,-1.349030270879116034e-02,2.297650454066731129e-02,4.119741959463415343e-02,-7.334335961892369561e-03,2.383488714694976807e-01
2.670118418601061805e-01,-1.835827490030533804e-02,-1.638753933323527923e-02,4.188658534652672100e-02,1.582522029420376647e-02,-5.705187321161394806e-03,2.949407100677490234e-01
1.456155314851986793e-01,1.604095592098466611e-02,2.426080999123447768e-03,6.226432198455492117e-02,3.110129054838063623e-02,2.364904919573117964e-02,1.869473606348037720e-01
7.642068493983771027e-02,1.350550624069156436e-03,-2.692320780517509782e-02,1.204323657785891927e-02,1.324123314883052238e-02,-2.366139035914369138e-02,1.058212593197822571e-01
1.551200988256193902e-01,-3.890142966730272822e-02,6.805466871407921114e-03,5.448892211484695353e-02,3.256623985190033876e-02,2.341664181844970924e-02,2.111851722002029419e-01
3.713123907885414465e-01,-3.741431256312371945e-02,1.671465260503025851e-02,-3.567775601137021697e-03,-4.237007341443912306e-03,1.670268102662210430e-02,3.857362866401672363e-01
4.232608566173660103e-01,-5.255381742545592316e-02,3.254572638292180242e-03,-6.831421188495950684e-04,1.512344164868992475e-03,2.316029846655750721e-02,4.523020982742309570e-01
3.650690274809961222e-01,-3.571398879958592731e-02,7.902788522156090067e-03,2.308393483807979520e-03,3.262303241603470988e-03,3.296490295928499164e-03,3.809581398963928223e-01
3.577374423576601958e-01,-3.112843641920451376e-02,-2.139596230523177489e-04,8.263466337861509947e-04,1.136319481486762787e-03,5.844080248443953539e-03,3.745119273662567139e-01
3.572663078556788108e-01,-2.943694773353469629e-02,6.460788815250140260e-04,-2.040261798708348836e-03,-2.833221161972716406e-03,5.873738045129951735e-03,3.727616667747497559e-01
3.484660216443494218e-01,-2.545537680411391612e-02,-3.864098445989072594e-02,-1.298694466719050103e-03,-1.375064653020070370e-03,-1.721279387017850097e-03,3.807112872600555420e-01
3.512569744960803986e-01,-2.712451023252185345e-02,-3.722692220564285948e-02,7.494968333176993446e-04,-1.352997826411624126e-03,-9.612887809446759267e-04,3.835454583168029785e-01
3.485501144153358988e-01,-2.723662662251444266e-02,-3.532175627931263828e-02,7.614910927803182497e-04,7.418276189453270903e-04,-2.640593953784102586e-03,3.799258172512054443e-01
3.134210171545750434e-01,-1.912200707005913547e-02,-3.618596022590039873e-02,-3.041450266142007100e-03,-1.154293461716060509e-02,-3.460574055372993632e-03,3.420729935169219971e-01
3.475370375646128496e-01,-2.726212509291880970e-02,-3.400534348804268303e-02,-3.497453965991722245e-04,3.751561546651143992e-04,-1.142584600706647710e-03,3.782220780849456787e-01
3.408644381275480195e-01,-2.504461292251636273e-02,-3.727837934998737279e-02,-6.534064917924925107e-04,-4.588747415799056435e-03,-2.961591801671995244e-03,3.722986876964569092e-01
3.347946906787391819e-01,-2.736365293409784294e-02,-3.108007952066380031e-02,1.614975183187391410e-04,-7.854389009371876354e-03,-7.071421686084763264e-03,3.644908368587493896e-01
3.347472492278535383e-01,-4.108351814719599093e-02,-2.101448417996254481e-02,5.082849977559408816e-03,8.074055217515471033e-04,-1.935759014029893570e-03,3.663327395915985107e-01
3.309109066854468151e-01,-3.791942539240816812e-02,-2.094811943638205665e-02,-1.068271883199300835e-04,1.990586893778627849e-03,-3.731886255460131144e-03,3.607187271118164062e-01
3.510040936473233786e-01,1.140126266105213892e-02,-3.840880482364597559e-02,3.087687609276765222e-02,-1.536531769469071107e-02,-1.303320315364188582e-02,3.725651502609252930e-01
3.419207384758386481e-01,-3.544517486665427208e-02,-2.491323083331214994e-02,2.932186992684204189e-03,2.521043000589915425e-03,-3.566432439185072880e-03,3.723232150077819824e-01
3.517726450587067011e-01,-2.680093835580807382e-02,-2.702464207411289787e-02,-6.609904856998947986e-05,-1.048054814639273876e-03,-7.293167507842933861e-04,3.786919713020324707e-01
3.405002079998131759e-01,-4.133589625789935162e-02,-2.129153813895326430e-02,-3.071134897936096675e-04,1.017443817447314953e-03,-1.568009664826182370e-03,3.722333908081054688e-01
3.451646264048595092e-01,-3.545739625229618608e-02,-2.266705281848824249e-02,4.003290730677660364e-03,-2.300079904940107128e-04,-1.076224834527714485e-03,3.744598031044006348e-01
2.792441293325571561e-01,-2.713531570430596784e-02,-7.110459311153422002e-03,2.263097247874995555e-02,8.584461576687237722e-03,-4.146938905460874000e-03,2.999055087566375732e-01
3.420148858326623742e-01,-2.548050200312668156e-02,-2.779016732796385503e-02,9.865864664791090463e-03,8.651443408021899234e-03,1.155770366255359565e-03,3.693609833717346191e-01
3.468064705758849287e-01,-3.240758230737347811e-02,-2.531273433586825328e-02,1.419329977080261524e-03,-6.958691267939965275e-04,3.110971441965823883e-04,3.757272362709045410e-01
3.457976267689988337e-01,-3.197598633194476125e-02,-2.347213422884597556e-02,7.741206864395844224e-04,1.339233136633061205e-03,-7.119258433207760299e-04,3.736059367656707764e-01
3.007295754137352395e-01,-3.495439155302057510e-02,-1.127819379616300244e-02,1.013610939441544380e-02,-4.288056238896995227e-03,3.240850119068221843e-03,3.251022398471832275e-01
3.481499145305143039e-01,-3.083982074214072777e-02,-2.749087164931079963e-02,7.763359568556509873e-04,-1.528328127279935745e-03,1.171199691863274942e-03,3.773435354232788086e-01
2.877291414464178132e-01,-2.550536965828861802e-02,-1.306539044665913640e-02,1.260959589068723179e-02,-2.734352459168824107e-02,6.320568453843418942e-03,3.117913305759429932e-01
3.571468727655371378e-01,-1.740196896794368731e-02,-2.800870477978431583e-02,-1.763299828808155209e-03,-1.767143155921109185e-04,-5.688885630172946023e-04,3.799769282341003418e-01
4.136721437209290309e-01,1.441790240006701751e-02,-5.541513986535784309e-02,-2.183961048667627542e-03,-5.359095178183531649e-03,-3.179475372229305288e-03,4.385117292404174805e-01
3.474658800039063800e-01,-2.509713004103886203e-02,-3.707386508045718010e-02,-1.806262747150933401e-04,-9.265824051613736755e-05,-1.129999458190559082e-03,3.786986768245697021e-01
4.321646216479380631e-01,1.583858945278185382e-02,-7.927687923623005783e-02,-3.478483177053336498e-03,-2.907721019916582189e-02,1.523790093376218777e-02,4.745973944664001465e-01
3.538912719246788408e-01,-2.752264284877611877e-02,-3.395638426862743198e-02,-1.279508593142578404e-03,-4.959256104189932284e-03,-2.462841540748358319e-03,3.847970664501190186e-01
3.479024389403541084e-01,-2.481917526226026793e-02,-3.895429041201337039e-02,6.113452134066470450e-05,-2.669685164771164361e-03,-3.366270337554459844e-03,3.800592720508575439e-01
2.258466864820841691e-01,3.612696932713260756e-02,-4.080946224986409243e-02,1.080357283591539541e-01,-1.846036809908347190e-02,-3.387219941804210481e-03,3.042713701725006104e-01
3.549376691883626700e-01,-2.703172232041423095e-02,-2.732911191887163471e-02,4.004201787155134244e-03,1.248083316109974659e-03,-7.911922596036180316e-04,3.821896910667419434e-01
3.494947908646002799e-01,-1.479029160893571837e-02,-1.488173394439470942e-02,6.093393335462880844e-05,-3.705348540210755379e-04,3.243084896548089810e-04,3.643318116664886475e-01
3.607576255611015248e-01,-4.101752694439214642e-03,-3.711251596961831489e-02,6.348211380815570355e-03,-1.644902374777872534e-03,-2.270930841298355197e-03,3.826236426830291748e-01
3.662401955215384697e-01,7.069410208308563037e-03,-4.006754827532221785e-02,-3.319947908813498591e-03,-8.573375629104011339e-04,1.853988017770627408e-03,3.849692940711975098e-01
3.788561309636750418e-01,-1.731054969343728822e-02,-3.001007621980825157e-02,8.615398563212963920e-03,3.069134662611488953e-03,1.897378180502016023e-02,4.043159484863281250e-01
3.575557123995261044e-01,-2.902387883131590796e-02,-2.798522416708548732e-02,5.878068155230593318e-03,-1.757445700196594990e-03,-3.186567182997821282e-05,3.862075209617614746e-01
2.646982511976677666e-01,-2.458442309475336596e-02,-8.027865813855256105e-03,1.819641983119494114e-02,1.521958011031589392e-03,2.174371783417260293e-04,2.831421494483947754e-01
2.584719124046404026e-01,-2.672564609818535442e-02,-2.196071985401837345e-02,4.352704865559120506e-02,7.536824510703650504e-03,2.249251599356711685e-03,2.930372059345245361e-01
2.755340792172524811e-01,-2.254603867175350440e-02,-2.337294286976973612e-02,4.288566727082714081e-02,2.310801034202536464e-02,-3.463411696616582568e-03,3.102489113807678223e-01
2.282618884530356607e-01,-1.503806400561633061e-02,-1.898694837405923153e-02,4.745647583157578536e-02,3.632950989980755774e-02,-9.994156475562029560e-03,2.668083906173706055e-01
1.627064822637548369e-01,-2.464313609681677286e-02,-5.355512882653011564e-02,3.462810174484343140e-02,-2.744354059006599497e-02,-2.123512160306556887e-02,2.203678339719772339e-01
1.488061403935745097e-01,1.314475386361629861e-02,-4.850691511876094320e-02,7.028457780457857129e-02,5.148325568426760646e-02,2.218076187285340263e-03,2.309865653514862061e-01
3.508891917664675453e-01,-4.936067140764360817e-03,-3.981090510952536854e-02,1.616939162852082737e-02,-6.139387268950957481e-03,4.526322931231453219e-03,3.757607042789459229e-01
1.801478557802047575e-01,2.241466503526988452e-03,-3.237380085652817596e-02,7.242707363733501269e-02,9.415606407711307399e-03,9.334885235638813381e-03,2.350991368293762207e-01
3.546744793302641918e-01,-3.087675733288580693e-02,-3.105907532601689947e-02,1.975489687300484895e-04,-6.876765247142727034e-04,6.335526294243290176e-05,3.856444358825683594e-01
3.525989254935505968e-01,-3.247660585557587964e-02,-2.960041126730403316e-02,7.293472319722899911e-04,3.678395777785623119e-04,4.475889994140155870e-04,3.836489021778106689e-01
3.593090420564353793e-01,-1.917300622713058456e-02,-1.292268917988925736e-02,-1.301941010919322990e-03,1.720105159503050075e-03,-8.169544634583057047e-03,3.756811022758483887e-01
3.495286116020607792e-01,-3.622174052184370940e-02,-2.843139314072568036e-02,-1.491191420247486767e-03,1.309166216478744931e-03,3.807266319242248644e-03,3.819871544837951660e-01
3.565134707288563076e-01,-1.393997915348776928e-04,-2.915252504805421196e-02,3.802917487461485516e-03,-9.790591276043318376e-04,-4.578674667999955289e-03,3.721556067466735840e-01
3.550343843655511811e-01,-3.204299230563897871e-02,-3.025421315894294416e-02,2.352741032106519907e-04,1.068153021485470375e-03,6.539482778392687436e-04,3.861924111843109131e-01
3.532457081880019945e-01,-3.184828083602989079e-02,-3.108235151711874478e-02,1.059873038559745479e-04,-5.049508242572244270e-04,6.740813630629269304e-04,3.847143948078155518e-01
3.566589788716488241e-01,-1.428572772867089946e-02,-2.833252430475519112e-02,-3.921600079751150474e-04,-2.709355058584890291e-04,-3.908847538993488746e-03,3.782253265380859375e-01
3.526147920999704310e-01,-7.578414654154763674e-03,-2.196098157605100298e-02,1.349184484830844542e-03,-7.762509237753032441e-04,-3.680237242469668740e-03,3.676607310771942139e-01
3.568973005555762246e-01,-2.869599194706395906e-02,-2.814064638325020073e-02,-7.984410858086186252e-03,-1.853203127786457946e-03,2.006216013436189861e-05,3.855773806571960449e-01
3.541380529405144806e-01,-2.187439890121675723e-02,-2.284727004188943922e-02,-3.737776176037142057e-04,4.996384783199887304e-03,-9.677877179341352193e-03,3.769727051258087158e-01
3.653179595434750682e-01,1.492736058253157916e-02,-3.855832054264360376e-02,2.732571247872448306e-03,-2.205735640459849985e-03,-6.281237310510888981e-03,3.801717162132263184e-01
3.561932704132807492e-01,-1.992589962302920847e-03,-2.628536594709093843e-02,-1.148183049469366857e-03,2.544887136997399553e-03,-3.948245174470300586e-03,3.710238933563232422e-01
3.570012013497509962e-01,-1.262367550380924519e-02,-2.653168869607314129e-02,-2.058500249321414208e-03,2.500494588440183973e-03,-6.103449530168891801e-03,3.769614696502685547e-01
3.541514368915876232e-01,-1.530978943670957548e-02,-2.655347506085117826e-02,2.790367475592640117e-03,5.872161169858440772e-04,-1.777650743269231946e-03,3.752545714378356934e-01
3.698665077669340273e-01,-1.821615300254603165e-02,-1.184043045934332627e-02,-3.339089616753300287e-03,-1.428220464749043296e-03,-1.285916794751973923e-02,3.856295347213745117e-01
3.562598279618678920e-01,5.057893784759404099e-03,-3.103439385639397696e-02,5.478009856762366828e-04,1.344151660400997152e-03,-7.464048815151953786e-03,3.708026409149169922e-01
3.608606973140898733e-01,-3.482000467146037503e-02,-3.214743100559216971e-02,4.084853652231114352e-02,-1.909481091688632753e-02,-6.280414773529308103e-03,4.021577537059783936e-01
3.932991381778872531e-01,-1.639683583050186022e-02,-4.634819049430813354e-02,1.965566006366607776e-02,-6.894425054263967484e-03,-1.488636762600126749e-02,4.277677834033966064e-01
3.656311984479194699e-01,-1.279773551567209289e-02,-2.796657659206805424e-02,9.584083161890473435e-03,-4.283726532432223164e-03,-5.078921431373303527e-03,3.867646455764770508e-01
3.531812702771193746e-01,-2.827138254992112021e-02,-3.023075873078753806e-02,2.468033338811258682e-03,-3.172657594858960001e-03,3.547089631096116569e-03,3.825488090515136719e-01
3.749484674982651033e-01,-1.196467478204923940e-02,-3.557421443331731936e-02,1.048795461956560397e-03,5.057876825642983881e-03,-3.382610500887243878e-03,3.993850350379943848e-01
3.529695947570570813e-01,-2.688538235554222000e-02,-3.115772204717631721e-02,1.018009726469606318e-03,-3.753536627046185833e-03,1.133645602223952095e-03,3.820734918117523193e-01
3.039470237865686819e-01,-3.265035252059869664e-02,-1.826172293124882218e-02,-2.306967688917708689e-02,-1.088047835481488305e-02,-4.271985639194870489e-03,3.326682746410369873e-01
2.919868817366350067e-01,8.238192518015566290e-03,-2.630652360121771283e-02,9.237717276869711336e-02,-6.885366028179099041e-02,-2.864188642516016930e-02,3.657770454883575439e-01
4.143380012974831605e-01,-1.414165972550376904e-02,-1.784410479104189817e-02,3.466375848684098010e-02,-2.782145894301051026e-02,-4.099342253678019132e-02,4.429031014442443848e-01
2.444804170011289080e-01,-8.578204802167921361e-03,-1.184582383710103271e-02,-1.195045260290875100e-02,1.286463803955116558e-02,5.821657267828398395e-03,2.567155063152313232e-01
2.659191449151988573e-01,-2.264684271921170444e-02,-7.928063784460176455e-03,-2.029336540302640116e-02,3.849195936442849179e-03,5.221872894089985874e-03,2.839037775993347168e-01
2.736996492233777500e-01,-2.566572549542818493e-02,-7.160027231836313399e-03,-1.752368116518979169e-02,3.854555382881178166e-05,-3.404073477655474283e-03,2.921953499317169189e-01
2.672164349083828161e-01,-1.766431617245721453e-02,-6.196434038841611147e-03,-2.008504782487229023e-02,-3.073900173244400232e-03,-4.163259980860705908e-03,2.816241383552551270e-01
2.060637298999712097e-01,-8.819263267352245306e-03,1.958589558023027255e-03,-1.844952366043766182e-02,-1.264055760602993822e-03,1.356933348473916227e-03,2.121470123529434204e-01
2.801059129938676673e-01,-2.310599351810059543e-02,-1.074876322228317249e-02,-1.758564324773342902e-02,9.677257879457971598e-03,4.427807204358280048e-03,2.993506789207458496e-01
2.805124297370973352e-01,-2.113637360529134479e-02,-1.677357698096208771e-02,-4.460270083542543229e-02,1.837774987735822652e-02,9.281490401258800371e-03,3.113436400890350342e-01
2.335499445668644258e-01,-1.114824910083575538e-02,-8.865280189590749038e-03,-1.209348693138662459e-02,1.393857776095132686e-02,4.803859496897191529e-03,2.457938492298126221e-01
8.531427703737967660e-02,1.689090939980835912e-02,1.269294434162474006e-03,-6.792137074016889320e-02,2.263550565513574447e-02,2.536808482030490381e-03,1.462566852569580078e-01
1.751558192711284989e-01,-2.331547863554542244e-02,-1.480245082511469357e-02,-5.403327127974451305e-02,5.719388030241537302e-02,-3.074715887149334637e-02,2.432737201452255249e-01
2.096666345112325192e-01,-6.089699591265734790e-03,-1.777100137476582409e-02,-3.486988706183356823e-02,6.960324677529305948e-02,1.165310127493745075e-03,2.596020102500915527e-01
1.669740045915741045e-01,-3.680063147339285301e-02,5.981604949888627565e-04,-5.541995712588040218e-02,-3.045867853596059133e-02,1.270369105055393563e-03,2.174948155879974365e-01
2.664100105590695433e-01,-2.256867591651556815e-02,-1.238569642219233824e-02,4.122794903272644640e-02,-1.009530402384231119e-02,6.690138988631418038e-03,2.936136126518249512e-01
2.140510854232648141e-01,-1.130953054721973994e-02,2.066815261778931490e-04,2.209312541939729632e-02,-1.345964199300057201e-03,-7.664378028393937278e-04,2.231507301330566406e-01
2.657354084983816200e-01,-2.495602007567614133e-02,-2.929160289177112908e-03,2.135245321314192465e-02,-4.214011700786172293e-03,1.191135397278279351e-03,2.828585803508758545e-01
2.812889150225231782e-01,-2.575981801253100778e-02,-1.296920013718873277e-02,1.815626292092025612e-02,-1.159070537439645977e-02,6.212509103973821480e-03,3.033528327941894531e-01
3.089566048781905439e-01,-2.558775982207919797e-02,-2.306143380664726905e-02,7.532938236821499350e-03,-6.768643588692786761e-03,7.747853487797996298e-03,3.340193331241607666e-01
3.017351066385541292e-01,-2.910624979785800259e-02,-1.695958964429887528e-02,1.510683755875522137e-04,-5.175716166625637243e-03,6.031331228208214497e-03,3.252299129962921143e-01
2.971299045961907082e-01,-2.594925543033255178e-02,-1.380971401968703050e-02,1.397314533488962229e-02,-9.379867676063703349e-03,6.043108678985002064e-03,3.186922073364257812e-01
3.025714322782837584e-01,-1.186559238175884101e-02,-3.563618048745639810e-02,-3.112737692594358570e-03,-1.046174800831245477e-02,-1.464633644898597972e-03,3.275269269943237305e-01
3.038006847341256922e-01,-1.634880623221908469e-02,-2.900889850010010540e-02,4.758348596477095065e-03,-3.109765640363705325e-04,5.882397703343133014e-03,3.269267678260803223e-01
3.410484022740341015e-01,-2.118206127263447258e-02,-3.964784609202479104e-02,-4.990964285050999809e-04,4.611858465098221693e-05,-6.269948680629552516e-04,3.718100190162658691e-01
3.428630667975593460e-01,-3.127997772379817465e-02,-2.305080582109278464e-02,-1.026835119597421190e-03,5.954349186205609582e-04,4.891280308486622985e-04,3.701037466526031494e-01
3.459754872658586389e-01,-2.553647351374527252e-02,-3.122205604221786612e-02,-1.859712678125281885e-05,-8.267381448634374737e-04,-1.385123417413464347e-04,3.743899464607238770e-01
3.037726720765804855e-01,-1.452486796337584818e-02,-2.886535277804058719e-02,1.427299927475937777e-03,-1.995648123627077539e-02,3.202770828779182184e-03,3.275899589061737061e-01
3.340952512424436582e-01,-1.829441525497685350e-02,-4.135926831735500797e-02,2.188973455416553626e-04,-5.253218844250301216e-03,1.428924644134523967e-03,3.645920157432556152e-01
3.352122489375607972e-01,-2.022949664564180350e-02,-3.883136486231072992e-02,2.103765336594079060e-03,-3.935151309306735186e-03,3.414151962777716310e-03,3.652279376983642578e-01
3.443193688288980758e-01,-2.253116309153216368e-02,-3.063535432201733300e-02,1.491354158965606269e-04,-8.200553080801102320e-04,1.300817482296959867e-03,3.709786832332611084e-01
3.581235162411513517e-01,-1.544497377008249850e-02,-2.888519136097600359e-02,-2.579975418436001970e-03,2.660608036262775405e-03,-5.516890748075572396e-04,3.805220425128936768e-01
3.556816575085974264e-01,-2.893954030583523185e-02,-2.823041081879631986e-02,8.092831393436097920e-03,3.330564020123770973e-03,-4.792556918790124069e-04,3.845668733119964600e-01
3.308993842444590827e-01,-3.182719197993594262e-02,-3.743412392336187278e-02,5.797756910589800528e-02,1.113662261428264091e-02,-1.320073128357463713e-03,3.796014785766601562e-01
3.635911894829054192e-01,-1.811557217943624010e-02,-3.138579517742076663e-02,2.075382909242765722e-02,6.671430923099706811e-04,-6.977319845313711445e-03,3.903601467609405518e-01
2.595967293399805698e-01,-1.970047192615967391e-02,-1.008930690093787219e-02,4.770323836358175695e-02,2.355892014381202773e-04,6.317324448861035176e-03,2.869871258735656738e-01
3.472448596005334176e-01,-3.135151451887974172e-02,-2.555109774602964956e-02,2.289917434432471805e-04,-4.494564211178582371e-04,2.073108223836294219e-04,3.757309317588806152e-01
3.469785726324497444e-01,-3.126104495261664007e-02,-2.747848216039702751e-02,1.771033815819491046e-04,-1.997002692612512374e-03,-1.204627127220558928e-04,3.763786554336547852e-01
3.040345577659695486e-01,-3.531588445621561267e-02,-1.329639378843799902e-02,9.949055527014813785e-03,4.031498393760228095e-03,-1.259879695008009250e-03,3.294263482093811035e-01
3.683527708461982741e-01,-2.042582165771614222e-02,-3.120195883628476552e-02,-1.018428703302476411e-03,3.742181968905751335e-04,5.482999598296926444e-03,3.943959474563598633e-01
3.634395937606675897e-01,-2.612153449911047698e-02,-3.579440471960215753e-02,1.455435278303092786e-02,2.925727606273548654e-03,-1.505324181282176928e-03,3.953322470188140869e-01
3.968830612660137480e-01,-2.430463489473094763e-03,-3.860632718148007680e-02,-5.932771498267753324e-03,-5.137975847906471084e-03,1.206044953462560854e-02,4.193168878555297852e-01
3.519778235049108583e-01,-2.723784357682682011e-02,-2.663566034062553323e-02,-1.804208828327088371e-02,-1.864614798857039228e-03,9.599990502023551938e-04,3.802187144756317139e-01
3.375651069274887561e-01,-2.515385150897916922e-02,-3.098063654045835058e-02,-5.159261762295011544e-02,-1.196057635698958080e-02,8.525846163034844424e-03,3.772865235805511475e-01
3.547646621938645994e-01,-1.927384681395599708e-02,-2.768850287673438326e-02,-1.846595409128636359e-02,1.514373875779315886e-03,-1.730910583168023692e-04,3.796748220920562744e-01
3.568398425042184074e-01,-9.283619617086624753e-03,-3.174685282438813316e-02,-5.112236075211496616e-02,-6.333987516130248257e-04,-7.850257714927928732e-03,3.883321583271026611e-01
3.602085167159036483e-01,-1.687122268142851600e-02,-3.155990866293503783e-02,3.652784354441469296e-03,-1.672538609570058598e-03,1.534894078409797507e-03,3.847066164016723633e-01
2.243173166167250487e-01,9.012882750959592959e-03,-6.184867488933062929e-02,-7.104513861656097662e-02,-2.596060377733200308e-02,2.607169037946107867e-02,2.929803133010864258e-01
3.555278146312583210e-01,-4.172897078282861161e-03,-2.974177372070033187e-02,2.887692905152602039e-03,5.113557416941467808e-03,5.860424797377700688e-03,3.734193444252014160e-01
3.655689845925639281e-01,-3.052907574377608513e-02,-4.639590907981522294e-03,-1.113510573386493948e-03,-4.888225881600059830e-03,1.136493017069581737e-02,3.844113051891326904e-01
3.580923645415816092e-01,-2.773868982647298420e-02,-2.490578489591230293e-02,-1.617924328948937285e-03,-3.368100721164818401e-02,1.202427244312830219e-03,3.888393342494964600e-01
3.596786523122385004e-01,-3.133369476738759318e-02,-2.939729053750139709e-02,1.110136389790570329e-03,-2.178406517239233828e-02,-3.243760471070107013e-04,3.918735682964324951e-01
3.789540715010681349e-01,-5.364795456350518466e-02,1.377269990260117372e-02,-8.871956473602204615e-03,-2.744506118814572793e-02,-6.033270258777112885e-04,4.062273502349853516e-01
3.885843856045800848e-01,-3.778500920007349384e-02,-9.642976412644749251e-03,2.790863305233217372e-03,-6.358042714562274315e-03,1.593236585554994728e-02,4.141136109828948975e-01
3.601741514313604453e-01,-4.321278384878385337e-02,1.495424875569995038e-02,-1.759558584156428566e-03,-1.576447221987536257e-02,7.694652316838359544e-04,3.786782622337341309e-01
3.560631482236668033e-01,-1.490285912618385944e-02,-3.163050461785238410e-02,2.401038141801582065e-03,-9.565116661650328086e-04,1.261109490073827498e-03,3.796390295028686523e-01
3.645204056030398321e-01,-3.747160035223862096e-02,1.443121575962548475e-02,2.351214176481076189e-03,3.695615229431014302e-03,5.977327904458286205e-03,3.789349496364593506e-01
4.190567384502232318e-01,4.766990949880256512e-03,-4.851664181582915347e-02,-9.278496168316652942e-03,1.530671317395270164e-03,-2.117616941921240253e-02,4.451523125171661377e-01
3.687908570900432226e-01,6.626770760306183172e-03,-3.914950753942014749e-02,7.727631949545290429e-05,-2.433359220082787454e-03,-5.014367995961383287e-03,3.872079849243164062e-01
3.037510992016976274e-01,1.754307610516131488e-02,-4.281588769250310733e-02,-6.758611281792342718e-02,1.031927995773609420e-02,-1.293120089707526336e-02,3.425758481025695801e-01
3.743496497253754329e-01,1.765877263960413668e-02,-4.752718753809956342e-02,6.427143272590245260e-04,1.740804192904594084e-03,-7.552633029694559965e-04,3.933711647987365723e-01
3.729977531097545818e-01,1.961514268365037450e-02,-4.771473674684242883e-02,8.086038617236614504e-03,-6.347531155423480950e-04,6.363765042435101833e-03,3.918222188949584961e-01
3.702078357478537085e-01,1.258004423921962878e-02,-4.296328167136115317e-02,-3.566177332283101270e-02,7.107492801517135625e-04,4.488618358890254963e-03,3.933494389057159424e-01
3.624624245802163247e-01,1.663954372145376448e-02,-4.473922937630694929e-02,-5.932224033768980932e-04,7.018991049304130689e-03,-1.351016723894782031e-03,3.804488480091094971e-01
3.748078818476456298e-01,1.621045602577794731e-02,-4.305830590111286993e-02,4.520940988709706539e-04,-9.946214915877702768e-04,-2.395029513927358911e-03,3.916366994380950928e-01
3.611312442341572115e-01,-2.696517831980990709e-02,-2.981762583665173438e-02,1.517076080255891010e-02,-5.188564745433383750e-04,-7.047813288976405137e-05,3.904168009757995605e-01
4.158162499038851601e-01,1.554880726198420993e-02,-5.779430763506476776e-02,-3.379465839453653191e-03,-8.849536066736147285e-04,6.332927971933207008e-03,4.417092204093933105e-01
3.632580952198988800e-01,-2.810237155849115709e-02,-3.066290941359570144e-02,-1.275277270561909690e-02,-1.917311799523759366e-03,-1.015580940552814537e-03,3.932857513427734375e-01
4.051662145972478868e-01,-4.631055428586824951e-02,2.230215299495671988e-02,1.358334733594144953e-03,1.040790609644747303e-02,7.739379314798114883e-03,4.219859540462493896e-01
3.466517574918579481e-01,-3.496952772738270987e-02,-2.302825158273283379e-02,-7.934053087123320649e-03,2.706767849755836882e-04,1.593681823235450950e-03,3.760545849800109863e-01
3.593556504257892636e-01,-3.856859242019144984e-02,-7.426785406345476348e-03,-1.848102735580686978e-03,-4.851088774775164959e-03,-1.509833537366458381e-04,3.834088444709777832e-01
3.711984237074881232e-01,-4.390498636692008461e-02,1.769996860272539385e-02,4.386534861762307873e-04,3.053111366825538974e-03,7.922436403647631527e-04,3.880257904529571533e-01
3.682055005490719735e-01,1.787963567546949073e-02,-4.304868453214211188e-02,-2.040702010682086866e-03,-1.082578173221043956e-04,1.222951665993341104e-03,3.844505846500396729e-01
3.678576069395961268e-01,1.117823569981016285e-02,-4.570006611317015133e-02,-6.087866722494232781e-03,-5.439647232202940615e-04,3.279358510628853449e-03,3.884417116641998291e-01
3.574607687773617704e-01,8.420460763076217936e-03,-3.783889810167997969e-02,9.452221549929275962e-03,1.042398884624979325e-03,-5.642010074127940152e-03,3.748095929622650146e-01
3.558159269953888315e-01,-3.005479097312629966e-02,-2.713474611716673590e-02,-7.965447201865162238e-03,1.730811620419678374e-03,3.716795251272710164e-04,3.846787214279174805e-01
3.733993085218137997e-01,1.785296458745241899e-02,-4.759406837593524453e-02,9.218423405992278320e-04,-1.797157819572943547e-03,-1.514567258416568175e-03,3.924093544483184814e-01
3.730139877988916108e-01,2.802742285518715348e-02,-4.779108492513109430e-02,1.228735126466549109e-02,-1.634141506695562223e-03,-2.891626230466208623e-03,3.891099691390991211e-01
3.478010981027596094e-01,-5.146644666277316871e-03,-3.139589182586627336e-02,1.469987489190206428e-02,-3.983412595444197832e-03,-4.272483454238182321e-03,3.677993714809417725e-01
3.572103867053732507e-01,-1.248582477496235077e-02,-3.704952114593809687e-02,-3.305082129539119867e-03,-4.659182711689562745e-04,8.078397803938816796e-05,3.826136589050292969e-01
4.206978257130267185e-01,1.482298365041651023e-02,-5.713346284275883091e-02,9.702902062313809722e-03,-3.768693492972994066e-03,5.312131238111792754e-03,4.466845989227294922e-01
4.550120039473379840e-01,2.330335258796892295e-02,-6.394859891611046065e-02,1.154850550813798192e-02,8.222683851840851058e-03,6.687295660303792764e-03,4.820682406425476074e-01
3.522951092420032460e-01,-2.910940268777603701e-02,-3.553805670944187867e-02,6.120765477276588547e-05,-4.221664771704639182e-04,-1.549895773404194122e-03,3.846692144870758057e-01
3.472759992249824235e-01,-2.470612840156249934e-02,-3.526198218514256522e-02,-3.600064997647224260e-05,-1.735675212231575955e-03,-1.945389110877803959e-03,3.773978054523468018e-01
3.545278544928037734e-01,-3.174103274084999482e-02,-3.315004880591743142e-02,-1.173578544441150520e-04,3.420990519517621116e-05,-1.085613150891017809e-03,3.869799375534057617e-01
3.551766755249812779e-01,-3.059594356879372090e-02,-3.386729899341497929e-02,5.865000837402643960e-04,-7.724317585902462473e-04,-9.529633486973741741e-04,3.874258100986480713e-01
4.097462655359402350e-01,-6.330237262869603532e-03,-3.340539484275195647e-02,1.033378197998982562e-02,-5.256912884640999430e-04,2.402734158294577566e-02,4.326328635215759277e-01
4.084989138108020557e-01,-1.091654685052551033e-02,-1.540867613095284194e-02,1.726101757610020923e-02,1.168635441467385204e-02,4.040781654411226137e-02,4.289702773094177246e-01
4.134328698944630398e-01,-1.358764437728113283e-02,-2.716121532451493126e-02,-2.508657901729206569e-03,-6.716054480408873220e-03,3.291612019419454249e-02,4.378716349601745605e-01
4.135320385502299079e-01,-3.565207306753342964e-02,2.618998411397149839e-03,-5.816989721482090057e-03,9.731466914259660414e-03,3.876037709171838846e-02,4.369588196277618408e-01
3.714248303919881478e-01,-3.324267319002069399e-02,3.836349712239367493e-03,-1.281912086626408806e-02,7.644284895888957959e-03,2.925455068425008784e-02,3.916142880916595459e-01
9.971979473341366362e-02,-4.787306409296847309e-02,1.688098972936312794e-02,1.858603239074648264e-02,-3.016174746603355033e-03,2.601600814243253124e-02,1.396911442279815674e-01
3.889607459384091248e-01,-4.178776009153975513e-02,-1.335687454935666207e-02,1.183221086214069837e-02,3.741571323276705191e-02,-5.032186785223155719e-03,4.228496253490447998e-01
1.691356193702815980e-01,1.183884347801020254e-03,2.175846646115829619e-03,1.638831615247146253e-02,1.690114006952796177e-02,1.319095328507731814e-03,1.723660677671432495e-01
2.474685094196966140e-01,-1.244670407568761183e-02,-2.196677275686106934e-02,-1.763825807425227141e-02,-5.602857622167574381e-02,-2.331467307096673873e-03,2.837044298648834229e-01
4.468133027324409090e-01,-4.944354739175535474e-02,-1.486264216145063988e-02,-1.295733404767844890e-02,3.885719719367026342e-02,-9.262115153142550308e-03,4.853827059268951416e-01
2.140522452784729412e-01,-6.529258091307124645e-03,-1.071418030469546701e-02,2.424338356055541835e-02,4.266848904291910966e-02,-6.052844053629951107e-03,2.386037856340408325e-01
1.606624564582384840e-01,-3.474713276622788671e-02,2.139689826469661632e-02,2.860996936549852626e-02,-8.573293065864463769e-02,-3.122964694219783864e-03,2.343101203441619873e-01
2.189881079616045334e-01,3.278053137795167160e-05,7.387853365298097108e-04,-7.384636446250147923e-03,-6.833123186708638108e-03,-7.100477109668998279e-04,2.193001061677932739e-01
4.119432676404836124e-01,2.146298002281435413e-02,-7.672077245562367032e-02,-5.574290779547733110e-02,-3.833601720538718644e-02,2.029775532573456151e-02,4.641341269016265869e-01
4.141644627861701955e-01,3.327110398259107427e-02,-6.540857434791924607e-02,-6.500100276945296185e-02,-2.276135687164390978e-02,4.925836766158049607e-03,4.546496272087097168e-01
3.527742389931661227e-01,-2.053835742999551850e-02,-3.111336929823338426e-02,-1.618883570850052425e-02,-2.029484873782520533e-03,3.080296110636902146e-03,3.798012137413024902e-01
3.287458824201726637e-01,6.482904655777943503e-03,-4.096600170666911400e-02,-6.448630512117771441e-02,-1.467346655013242879e-02,1.630119468184390921e-02,3.678510785102844238e-01
3.539036966816329621e-01,-2.971430007876177393e-02,-1.397918534609776664e-02,2.029845420368974795e-06,-3.797613029972452502e-03,-1.051234418887160484e-03,3.760593831539154053e-01
3.571610059639334089e-01,-1.414724810068426764e-02,-3.352456725681826621e-02,2.924309513589024977e-03,-1.053039825218427458e-05,8.497533558810402071e-04,3.814027905464172363e-01
3.656508098124385264e-01,7.492396631948450292e-03,-3.584399124194120878e-02,-5.663844373073053480e-04,9.332925906409201330e-04,2.593846953214147717e-03,3.817074000835418701e-01
3.606031794697178716e-01,-1.076370764211559417e-02,-3.386393146382221664e-02,-5.991248907897715574e-03,-2.352615031395739048e-03,1.088816350718036690e-03,3.836058974266052246e-01
3.643813709594209693e-01,5.502663570952553984e-03,-4.037887211242208174e-02,3.141085054904396191e-03,1.869479094938502652e-03,1.649463585206562997e-03,3.839442729949951172e-01
3.126071871878466912e-01,-2.078686742827873246e-02,-2.632418214646614629e-02,2.990637315801362994e-02,2.896100889766715925e-02,4.380616772288000414e-03,3.439263403415679932e-01
3.396607903388706995e-01,-3.274591669218063217e-02,-2.943090177781851335e-02,4.173907588893402063e-03,5.007141442464448436e-03,-7.185894480837392434e-03,3.711409568786621094e-01
3.443039255736628501e-01,-1.741291064995106885e-02,-1.493216120300622229e-02,1.521191304492455765e-02,1.740918086639498680e-02,1.617655843072509508e-02,3.637806773185729980e-01
3.412587870860994688e-01,-3.190634377547790779e-02,-2.659341878431645267e-02,5.636035667574125496e-02,4.186744314906221814e-02,4.670209127964543294e-02,3.982828259468078613e-01
2.304834122767404347e-01,8.940822441501489193e-04,-1.730637467337504953e-02,8.312757117725511069e-02,3.409777042897395999e-02,1.878901409503437245e-02,2.872260212898254395e-01
2.336169943613636280e-01,-4.265936755857563378e-02,-4.852495172528337175e-03,5.733492091331592044e-02,8.405719691748279876e-02,5.163439628785619628e-02,3.261439800262451172e-01
3.313497283088771006e-01,-4.371433907360358639e-02,1.266945202199859510e-02,3.607064677133470232e-02,6.300879584789997878e-02,1.686422899745974868e-02,3.733248710632324219e-01
3.534866070044354602e-01,-3.919993781741382133e-02,-6.621336903919944339e-03,7.750053261724357268e-03,1.077366039091322975e-02,-9.633075657267535161e-03,3.785203993320465088e-01
3.457921756528966051e-01,-3.951151027623611700e-02,1.713547156083611300e-02,-4.098839838030940430e-02,6.195663447498916954e-02,-3.383224737757366957e-02,3.870806097984313965e-01
3.698324544737624509e-01,-3.283136141172524058e-02,-1.124246791633290443e-02,-3.018669154476877770e-03,1.685478317392825887e-02,-6.068200915133666051e-03,3.935749232769012451e-01
3.504305182779708927e-01,-3.185286402340670175e-02,-1.128544697435299171e-02,-3.390964069023202736e-03,1.610802028100577835e-02,-1.336860788010433426e-02,3.742326498031616211e-01
2.783197815380287210e-01,-2.742253163325437948e-02,-8.840058011513343694e-03,1.924528440018094533e-02,6.097658423312806407e-03,-5.746058336197349542e-03,2.991052567958831787e-01
2.531976311945920433e-01,-1.996603069372604455e-02,-5.547027462623185801e-03,3.506696459511399883e-02,9.053756346958121565e-03,-4.556973504726529421e-03,2.736509442329406738e-01
2.156862949481101466e-01,-8.692076472016932454e-03,1.904595585665691537e-03,2.333770517237445871e-02,-7.441735495041686133e-03,1.014658592889785107e-03,2.233460396528244019e-01
3.983981358404524165e-01,-4.276013826688029873e-02,-1.083523196780233899e-03,7.308146995878008270e-03,-1.876842485784980738e-02,-5.553171044068798932e-03,4.234159588813781738e-01
4.061402314200259767e-01,-5.428968517176141484e-02,7.892748993496540022e-03,6.220168561290212970e-03,-9.862887964812466768e-03,-8.815548171447820658e-03,4.334429204463958740e-01
3.464243777173586780e-01,-2.489298655564500806e-02,-3.144992754048273054e-02,-8.802536513345844693e-04,7.130956366119613231e-05,6.137535712943656321e-04,3.746435046195983887e-01
3.387284960109521736e-01,-3.205079194800625197e-02,-2.795777639860280717e-02,-5.072619948695521446e-04,-3.816640419103330129e-02,-1.723906827454689929e-03,3.746413588523864746e-01
3.556563279188297844e-01,-2.784540273623595241e-02,-1.875576231883779865e-02,-1.022494699854030291e-03,2.811898375243550817e-03,-6.504402318738295580e-04,3.790757656097412109e-01
3.181297906920637630e-01,-5.334749598821630912e-02,1.833016370754544933e-02,-1.970746802632501737e-02,-1.033579411423527772e-01,-2.211325519623693996e-03,3.869558870792388916e-01
3.605996533728448306e-01,-7.931443770315929620e-02,2.096566491500984064e-02,-5.266750757892783852e-03,-7.079878158017385847e-02,-9.704120920078412871e-03,4.181734025478363037e-01
2.421881762542789918e-01,-3.208075334719508176e-02,1.558897700933933872e-02,3.988143064408777860e-02,-8.940213202187385910e-02,-1.147402606753139889e-02,3.058860898017883301e-01
3.689578214665926170e-01,-4.098382912413631174e-02,2.165173226589728328e-02,2.809744499133363937e-02,-7.439300818269034554e-02,-2.021214908783392286e-02,4.080384671688079834e-01
3.530626256221520154e-01,-2.852119064935890180e-02,-3.037892655746740611e-02,-4.644448471675617640e-03,-5.796906578540989528e-03,-1.736483755822700471e-03,3.827441930770874023e-01
3.507041233773590116e-01,-3.350738097954603090e-02,-2.745056013182536891e-02,-3.061430658383211198e-03,-3.112413997384699208e-03,-2.117257321903320399e-03,3.813118040561676025e-01
3.529251141539545000e-01,-3.252456922985130783e-02,-2.955275113356173322e-02,1.244606640637824571e-03,-3.279625805820674499e-04,-5.021871689462611369e-04,3.839798569679260254e-01
3.423997772920985283e-01,-3.239870018578944189e-02,-2.658807852393366145e-02,-3.257834371481182437e-03,-3.601964197760959552e-04,-6.201372547029105307e-03,3.721255958080291748e-01
3.535036039318463774e-01,-3.285751637633269051e-02,-3.129024478234038176e-02,5.984038258898774932e-05,-2.479569153745437649e-04,-1.192296297892136763e-03,3.855856657028198242e-01
3.535020822094294135e-01,-3.177403656154892397e-02,-3.117024444890437174e-02,4.306909938309813352e-04,5.434273067856260639e-04,-5.839155705906162687e-04,3.849777877330780029e-01
3.478629743532175578e-01,-3.318149393566161010e-02,-2.817233353345116598e-02,-9.283501462304911359e-04,-7.546685853861729177e-04,-2.581298227540322621e-03,3.785968124866485596e-01
3.154096620973362297e-01,-2.875706942850000947e-02,-2.541739099678672065e-02,4.159253656692501013e-05,-7.376600893199511400e-03,-7.329698729051732121e-03,3.429823815822601318e-01
2.714240451574158053e-01,-1.626681251761961933e-02,-1.221133482194124154e-02,-1.250308744663526130e-02,-1.356429492440061092e-02,-3.391068103437362962e-03,2.875260114669799805e-01
3.511831758257389358e-01,-3.820623052490362825e-02,-2.696870137167259318e-02,-8.412859474170650623e-03,-2.408812747149719023e-03,-3.852981199478670783e-04,3.841936886310577393e-01
2.309064870143101855e-01,3.520764113835729570e-02,-3.363854434077517830e-02,-1.026499054231195668e-01,1.485594859810567339e-02,-6.419514682249705811e-03,2.981739342212677002e-01
1.916291296291696145e-01,8.825791998587045883e-03,-3.104809675884950826e-02,-7.285444798368903574e-02,1.206621100851634244e-02,-2.081583947463664513e-02,2.448592633008956909e-01
3.532330235924914241e-01,-2.101347554666230244e-02,-2.302678441052546932e-02,-1.508328739332966562e-03,2.319762669161806214e-03,-4.260456122247600202e-03,3.753603398799896240e-01
3.541963031944700968e-01,-2.420377569987661182e-02,-2.572305609445488250e-02,-6.024467992494149946e-04,2.050883122741205961e-03,-2.759052966987419185e-04,3.791803717613220215e-01
3.536778688027757411e-01,-2.065702204993385971e-02,-2.582245240194505631e-02,-1.714245209550237063e-03,2.034456827069825412e-03,-7.955936962280904089e-04,3.769748210906982422e-01
3.535265439814079258e-01,-2.429556562115206542e-02,-2.796582500352490230e-02,-8.795731523089202804e-04,1.643360254326096384e-03,-1.100681362289923377e-03,3.796890676021575928e-01
3.545246746276715100e-01,-2.714150600622669551e-02,-2.481334595232395634e-02,-2.584237494846860399e-04,-2.178108031360278737e-03,1.330438747828517404e-03,3.805333971977233887e-01
3.550137026653343852e-01,-2.763612104549020843e-02,-2.818742312522470872e-02,8.585234255415324922e-04,4.633020649397077625e-04,-1.391650800221251160e-04,3.829295635223388672e-01
3.537946690510322956e-01,-2.012866026540705011e-02,-2.080264193435207853e-02,-2.095490564523352309e-03,7.775736404078098345e-04,-2.571802123613140759e-03,3.743073046207427979e-01
3.542475016568991109e-01,-2.267376076901464477e-02,-8.453428815074992553e-03,-3.227326876548480047e-03,2.786473018802582136e-03,-3.848861674081645399e-03,3.701498210430145264e-01
3.528469939342708805e-01,-2.823451720156699984e-02,-2.734480182123436021e-02,-1.670672823826216229e-03,-6.905938931406425865e-04,1.396360980999950049e-05,3.806503117084503174e-01
3.482998897956842699e-01,-2.668134887627404694e-02,-3.818913682687102851e-02,-7.526874902928992013e-04,-7.243088758963580525e-04,-9.199416842424721101e-04,3.808731734752655029e-01
3.495164482146664309e-01,-3.201483703193352959e-02,-2.697270130259540877e-02,8.724770682418520312e-04,1.026425548813484972e-03,-1.133120728943482229e-03,3.790476322174072266e-01
3.615612076128620900e-01,4.791490842600470978e-03,-3.196258819414143915e-02,-2.350513946781322434e-03,-6.735565747318096293e-04,1.008316823694258534e-02,3.769233226776123047e-01
2.586599477662925306e-01,-2.236718545279237080e-02,-1.131792262817941930e-02,4.302577610494163346e-02,-1.998515993613688216e-02,7.264955629367163444e-03,2.879295051097869873e-01
3.493270703988068382e-01,-3.692920289752896212e-02,-2.645761417149827821e-02,2.547781992006547700e-04,7.212852905645065951e-04,-1.809220651324003250e-03,3.811435699462890625e-01
3.389175577237672488e-01,-3.623197618734155800e-02,-2.375442413352743531e-02,6.963076042447769592e-03,1.503760886772950679e-03,-5.609769591574046387e-03,3.694029748439788818e-01
3.364478388354353311e-01,-3.986251267770341000e-02,-2.075746308921325167e-02,4.527826784605382821e-03,7.902677303405589593e-04,-2.627066639160140129e-03,3.672453463077545166e-01
3.491223241032761493e-01,-3.050306208439251821e-02,-2.626716955210187110e-02,-2.359464383106606145e-04,-1.677499333516466716e-04,7.108496682342844454e-05,3.775256276130676270e-01
3.735579449393975349e-01,-4.106957561560581338e-02,8.866434643125781223e-03,8.066744738541190918e-04,-5.438408580192042457e-03,1.089468532318901492e-02,3.926213383674621582e-01
3.714908799818798513e-01,-4.993427028272254264e-02,2.066440477427615441e-02,1.730828894889895053e-03,2.208417253538002070e-03,1.752079438484667115e-02,3.921426236629486084e-01
3.642621311498610570e-01,-3.939254976675393705e-02,1.701727879949047062e-02,-3.239062151657915410e-04,-7.961875196351190717e-04,8.631650666406262898e-03,3.789126574993133545e-01
3.647017150239636463e-01,-3.531655022333718419e-02,8.365884512584381705e-03,-2.347053914928320592e-03,-2.445147544335465536e-03,3.877998944596088102e-03,3.801691532135009766e-01
3.715274453333531901e-01,-3.842517483763752129e-02,6.399777410171780812e-03,2.827358734935437028e-03,1.785416699013381205e-04,4.158146705398734801e-03,3.895770311355590820e-01
3.649875094389410379e-01,-3.907588910767312296e-02,1.422016103996198710e-03,-2.255193598628639235e-03,2.341627485692482098e-03,1.761762584719470741e-05,3.854546546936035156e-01
3.512539890009176435e-01,-2.866108706221254243e-02,-2.674000522170605354e-02,3.808843024756230610e-04,3.594433490943435387e-03,-6.574881955311590986e-04,3.790116012096405029e-01
4.105061603628281652e-01,-5.187274992354876102e-02,1.061574265946538254e-02,-6.924143856692929061e-03,-1.604868843800213258e-03,-7.438094789698740557e-03,4.348830282688140869e-01
3.542195728702065560e-01,-3.203662500409534819e-02,-1.317028707061129733e-02,1.699227973890609419e-03,-3.030300343281409903e-03,-6.372373963433956281e-04,3.772266805171966553e-01
