sxx,syy,szz,sxy,sxz,syz,smises
-2.761742616033090181e-02,-2.761742616033090181e-02,3.562348523206646522e-01,9.255209675967675534e-37,4.854500360193278882e-37,4.854500360193770838e-37,3.838522732257843018e-01
