sxx,syy,szz,sxy,sxz,syz,smises
0.000000000000000000e+00,0.000000000000000000e+00,0.000000000000000000e+00,-2.318253844179638366e-68,-7.121675809319848797e-68,-5.872004142509328013e-136,0.000000000000000000e+00
