sxx,syy,szz,sxy,sxz,syz,smises
2.335144154715200482e-02,2.335144154715200482e-02,-2.269188830943041912e-01,-5.385765000548553551e-52,-2.612679839981344665e-52,-2.612679839981344665e-52,2.502703368663787842e-01
