sxx,syy,szz,sxy,sxz,syz,smises
4.384940903216814900e-02,4.384940903216814900e-02,1.544611819356643823e-01,3.089237088086575552e-52,1.571968965112455314e-52,1.571968965112329201e-52,1.106117740273475647e-01
