sxx,syy,szz,sxy,sxz,syz,smises
5.553333333333861088e-03,5.553333333333861088e-03,-1.110666666666589898e-02,4.900000000000001577e-03,-1.539999999999999425e-01,-1.539999999999999425e-01,3.776845037937164307e-01
