sxx,syy,szz,sxy,sxz,syz,smises
7.267187387965612366e-02,7.267187387965612366e-02,-4.453437477593104044e-01,-2.457149639536946473e-51,-1.238112862287264662e-51,-1.238112862287264662e-51,5.180156230926513672e-01
