sxx,syy,szz,sxy,sxz,syz,smises
8.821246616627903547e-02,8.821246616627903547e-02,-7.164249323325583285e-01,6.224760595747835770e-51,2.832266071065296890e-51,2.832266071065296890e-51,8.046373724937438965e-01
