sxx,syy,szz,sxy,sxz,syz,smises
-1.460849953572174731e-01,-3.436209777145168842e-01,-3.081423499227820550e-01,-3.269630620481762950e-02,5.529993830753317935e-02,-1.134980280159640122e-02,2.145663946866989136e-01
-1.258463444392743658e-01,-3.221663849652851574e-01,-3.479290910188473918e-01,-5.219962578031422072e-03,3.148685024707865987e-02,2.970239841010540241e-03,2.175901830196380615e-01
-1.729314188636276450e-01,-3.169562710163328356e-01,-3.156126769808545451e-01,-2.602331670075979340e-03,3.475251432161646087e-02,1.039075049150502443e-03,1.555577665567398071e-01
-1.200749087523714786e-01,-3.680871333887725805e-01,-3.315173321639195425e-01,-3.170891669917560302e-02,4.757290228528463644e-02,2.673091149212125303e-02,2.563731372356414795e-01
-1.873859943523760729e-01,-3.235480079758852323e-01,-2.847228790470651694e-01,-1.121997460249772247e-02,9.824322785295476479e-02,-1.750232222693236250e-02,2.121622711420059204e-01
-1.633423601113668244e-01,-3.766145782946835885e-01,-2.782452181760312615e-01,-3.243474699698855809e-03,9.827283562760683044e-02,-4.046944999300025603e-02,2.609591186046600342e-01
-2.870194370337098011e-01,-2.528041987189832973e-01,-2.700997229139425193e-01,1.655529468251320732e-02,1.238629634190150861e-02,2.115902942008902540e-02,5.919168144464492798e-02
-2.841951552454034524e-01,-2.517848279941731771e-01,-2.688546933495855606e-01,1.167257583160818610e-02,6.793288773619900536e-03,2.550822282573761077e-02,5.733909085392951965e-02
-2.889806596668311189e-01,-2.470152752099475102e-01,-2.727897447443919376e-01,3.631169133026532561e-03,2.726881106042839883e-03,1.006721183358748849e-02,4.134841263294219971e-02
-2.951854818952217019e-01,-2.522162388624224483e-01,-2.577327352222644752e-01,6.004964635052092298e-03,1.918851432123226588e-03,1.836845868552696576e-02,5.264193564653396606e-02
-2.888275466739014252e-01,-2.536119986150375261e-01,-2.605997013943083251e-01,4.345187079085966429e-03,3.205977351126482536e-03,1.707728801807981145e-02,4.478018730878829956e-02
-2.838767697774208787e-01,-2.607638257604493748e-01,-2.597935654636229774e-01,6.715301267320003716e-03,2.820132694952877730e-03,9.448822219026231997e-03,3.137771785259246826e-02
-2.854013201797948041e-01,-2.513651841116684715e-01,-2.642366582842259892e-01,2.612762588582129026e-03,4.391652904316579314e-03,7.700358835527935930e-03,3.379739820957183838e-02
-2.680073506691587615e-01,-2.535925172552245810e-01,-2.796891073472945188e-01,-1.348995400186113122e-02,-8.767989466372090590e-03,1.012034047764289769e-02,3.995591029524803162e-02
-2.638876324233007664e-01,-2.875134212481867957e-01,-2.563889940723684258e-01,-1.679676587804536554e-03,7.779552712740729625e-03,-1.449864555356902211e-04,3.133145347237586975e-02
-2.663821749495702274e-01,-2.643645063873842349e-01,-2.666777941819585274e-01,-2.329222411824142386e-02,-1.972512265463704367e-02,2.307650031112799816e-02,6.631103903055191040e-02
-2.743153431020713962e-01,-2.505458870570487218e-01,-2.745307754626980512e-01,-1.937992259011093316e-02,-1.379025372793582851e-02,1.829995836408045487e-02,5.720207095146179199e-02
-2.602483605974098002e-01,-2.701360059685496973e-01,-2.706049306512391395e-01,-2.217267675456611672e-02,-2.090992711828664266e-02,1.561802774746418737e-02,6.017431616783142090e-02
-2.671580965988491485e-01,-2.549809134317410075e-01,-2.786424588696573834e-01,-1.377422166110552418e-02,-1.003284487618125338e-02,1.072114832443441836e-02,4.044764488935470581e-02
-2.789269273936810789e-01,-2.448589994504902501e-01,-2.824401794372712882e-01,-3.254856614892633060e-02,-2.086289444190420755e-02,2.697995807315037645e-02,8.922117948532104492e-02
-2.646663998831997877e-01,-2.667323659855461160e-01,-2.727097591349906258e-01,-9.903450697042192902e-04,-1.095451362156937142e-03,1.577307493074507020e-03,8.145712316036224365e-03
-2.627524994084690646e-01,-2.631165524519508137e-01,-2.780948780682487298e-01,-2.243136580405951513e-02,-1.771881858355209630e-02,1.688823540279038929e-02,5.947218835353851318e-02
-2.452227548925718925e-01,-2.703297552647179192e-01,-2.811121907344206194e-01,-2.617059858656591020e-02,-3.821987193166861280e-02,2.866826230598770037e-02,9.959880262613296509e-02
-2.691313618270862462e-01,-2.577834736292176632e-01,-2.777382082520253315e-01,-9.809721313679641702e-03,-7.965103405717021898e-03,7.535911507285927846e-03,3.082064725458621979e-02
-2.800341885184079449e-01,-2.633094548613086339e-01,-2.620094818550393612e-01,-1.467739743084095841e-02,-1.159305035276818156e-02,2.468684764578877103e-02,5.639985948801040649e-02
-2.718731034454428541e-01,-2.525336514698527934e-01,-2.773064430472084729e-01,-1.725055276373369667e-02,-1.158844273356047019e-02,1.429426550718817732e-02,4.916515201330184937e-02
-2.719658840892508755e-01,-2.607002337101540501e-01,-2.676560241552181085e-01,-9.410996720113432024e-03,-9.729275754833621725e-03,1.034697334407527758e-02,3.110937029123306274e-02
-2.827725265424834711e-01,-2.548627445960184312e-01,-2.631352485457436052e-01,-1.298338400132978930e-02,-1.162102217902422074e-02,1.792899235000378066e-02,4.991695284843444824e-02
-2.808911079995580207e-01,-2.504796129968309137e-01,-2.751644381164073394e-01,-1.298553830543436489e-02,-1.646365939227147079e-02,1.712661937313280855e-02,5.461217090487480164e-02
-2.621478884580339952e-01,-2.911168553922144908e-01,-2.514709802999517407e-01,4.269185286226840834e-03,-3.181580898062282697e-02,1.195953933284472741e-03,6.601668149232864380e-02
-2.515134291856095938e-01,-3.044796156620948602e-01,-2.395062281122446457e-01,7.869466669489800711e-03,-5.033769458905345412e-02,-6.548598775369340007e-03,1.072457656264305115e-01
-2.401421634038714004e-01,-2.974472893928723494e-01,-2.672254919567992326e-01,1.264440483054293752e-03,-3.194943372472908161e-02,-6.092668405612432399e-03,7.512541115283966064e-02
-2.415467771501947636e-01,-2.734026327984497295e-01,-2.900987401053337078e-01,-3.594117977278884525e-03,1.215940073026604718e-03,-2.254348588968208607e-03,4.340344667434692383e-02
-2.334427029900510708e-01,-2.925273782959405544e-01,-2.823370641639157408e-01,-2.582766887049331894e-04,-1.147366579691245711e-02,-2.068428966189419030e-03,5.831569433212280273e-02
-2.349654685339025439e-01,-2.978141928438557406e-01,-2.714182254882819834e-01,3.777053388391710988e-03,-4.482652250177743963e-02,-5.650890765388835203e-03,9.567969292402267456e-02
-2.626269918514204660e-01,-3.065460813112179106e-01,-2.322444340465198431e-01,-7.933183312269569479e-03,-4.915727081758625855e-02,7.440293395266608240e-03,1.085843071341514587e-01
-2.184419487404001825e-01,-3.121271089801674337e-01,-2.745094249569735023e-01,1.019338031816451008e-03,-3.051821329958036288e-02,7.697754846284494967e-03,9.819749742746353149e-02
-2.514764145735509659e-01,-3.045758340281899956e-01,-2.489363844765090095e-01,-8.457937513059210141e-03,-6.930675837928781946e-02,1.092198798625194749e-02,1.339538544416427612e-01
-2.874802487930404604e-01,-2.584653737116717753e-01,-2.564076576433398924e-01,-1.709507245215084216e-03,1.352857941179025402e-03,-9.768319446828285443e-03,3.473211452364921570e-02
-2.847940838128200092e-01,-2.619320238205851692e-01,-2.575871357972240872e-01,-1.093223336625940385e-03,4.907436205814697579e-04,-2.557499221537139298e-03,2.578401193022727966e-02
-2.855367639241309652e-01,-2.671628185769714392e-01,-2.501810128253862953e-01,-2.217449489079937382e-03,1.735349083287224519e-03,-6.279200605737812746e-03,3.286452591419219971e-02
-2.236673283892734454e-01,-2.779934683650124860e-01,-3.056995110532906290e-01,3.885283406283819574e-02,1.762063496418632760e-02,-2.018916691789033550e-03,1.034235656261444092e-01
-2.991764186934924297e-01,-3.042673722122039570e-01,-1.935210267047303145e-01,4.656250737765006871e-03,-1.642698816093871722e-02,-1.025508279927956311e-02,1.136527433991432190e-01
-2.348059442394733187e-01,-2.618525991494067284e-01,-3.216058522144184528e-01,5.815783768887897165e-02,2.625643166445609019e-03,6.724804844518515907e-03,1.273634582757949829e-01
-2.630380961916566895e-01,-2.758423960062514335e-01,-2.644947846971976713e-01,-5.554864079754983286e-04,-5.564095164033142126e-04,1.617965141324737791e-03,1.253507286310195923e-02
-1.615321312041171908e-01,-2.782111616832092515e-01,-3.686248706793689989e-01,8.025331481496957020e-02,4.325283986366185857e-02,-1.608116171179439910e-03,2.393323779106140137e-01
-2.073434697557585693e-01,-2.628946494926783783e-01,-3.221659280139326786e-01,8.258107156974760221e-02,3.183804979994320911e-02,2.574696825022561655e-02,1.880962848663330078e-01
-3.073013300916476731e-01,-2.193964933001147921e-01,-2.812431838290045394e-01,8.583569115606632868e-03,-6.792358897848725999e-03,3.821684496879944326e-02,1.041953638195991516e-01
-2.927475860910068173e-01,-2.441808595825968875e-01,-2.645808910503294475e-01,-1.967236796997120455e-03,-1.450901369151760042e-03,2.465310822495617518e-02,6.021111458539962769e-02
-2.955214360924016126e-01,-2.485767348520241393e-01,-2.638536363005847818e-01,-8.501002749553785917e-03,-5.860051907692525111e-03,3.475085628126452220e-02,7.525096088647842407e-02
-2.955677536327591115e-01,-2.276296904727367065e-01,-2.794005721757074068e-01,-2.632189723066590686e-02,-1.466422642583727412e-02,2.760114794861180665e-02,9.374276548624038696e-02
-2.945451142310857029e-01,-2.352269397507813498e-01,-2.797457752530502217e-01,-1.437711300513060120e-02,-8.417198895041980503e-03,2.044969479330230322e-02,7.033504545688629150e-02
-2.950903224559704441e-01,-2.388185879881540574e-01,-2.725589264223010622e-01,-1.229564238609497269e-02,-3.220336588813615345e-03,2.087841246168822135e-02,6.479718536138534546e-02
-2.990719620137559098e-01,-2.435702445178319908e-01,-2.625925860021154912e-01,2.184156216238507600e-03,-2.903995712836391404e-03,2.558865433939934084e-02,6.626059114933013916e-02
-2.794319871896390195e-01,-2.737306405612982552e-01,-2.464742203096859652e-01,-1.001353311167046956e-02,-1.551972649773728299e-02,1.707428665310276386e-02,5.318653956055641174e-02
-2.929385899597160559e-01,-2.654002099330979303e-01,-2.459364902177925694e-01,-6.750137932466783279e-03,-1.457046281961952780e-02,2.012877435803004170e-02,6.051684916019439697e-02
-2.897817293332954902e-01,-2.717822360561150119e-01,-2.479782996561381292e-01,-7.385256295074846267e-03,-1.469164643198195286e-02,2.852821176962733879e-02,6.761511415243148804e-02
-3.029832732170642529e-01,-2.736549152251231409e-01,-2.170633385812187344e-01,-1.370327935939328473e-02,-1.747704892450203593e-02,5.227758941638015189e-02,1.241008341312408447e-01
-2.899921094724438042e-01,-2.182584596250002618e-01,-2.936089559331923060e-01,-1.614053650498220582e-02,3.397765781377268084e-03,-1.139173504834970971e-02,8.138640969991683960e-02
-2.760116517996666907e-01,-2.818879889580991893e-01,-2.474389153095690186e-01,-1.049238668570704608e-02,-1.562370067906502721e-02,2.479354918964721613e-02,6.265433877706527710e-02
-2.815675747893612302e-01,-2.926143147217571960e-01,-2.224743669127666745e-01,-1.650291796194994220e-02,-3.217906112418983389e-02,2.951496423982176431e-02,1.039410382509231567e-01
-2.576221796295053990e-01,-2.810191036324691805e-01,-2.687837842862148552e-01,1.193324296073057685e-02,-2.101867799126599934e-02,-9.034968483846151505e-03,4.907447099685668945e-02
-2.847443208604282239e-01,-2.383987581762185837e-01,-2.807106635016690666e-01,-7.416740834119606510e-03,6.673449981476090205e-03,-1.874684494849474317e-02,5.770789459347724915e-02
-2.667643215361598652e-01,-2.813655958217982089e-01,-2.592371144388951887e-01,8.638060913958335585e-03,-1.811898210697634320e-02,-1.102726285401812827e-02,4.419621452689170837e-02
-2.591256188015748640e-01,-2.918154229647526021e-01,-2.474141990462663809e-01,2.100201530299041289e-02,-3.486182038221424806e-02,-2.408113260180014606e-02,9.109127521514892578e-02
-2.804334019216956353e-01,-2.576583385444206620e-01,-2.674898348211016685e-01,-1.131793393070221199e-02,1.159830484910956416e-02,-9.259086628171412162e-03,3.790105506777763367e-02
-2.634654416348539141e-01,-2.737677403411167831e-01,-2.683573415291510833e-01,2.085893056271423754e-02,-1.913568413954641265e-02,-2.012022381316722411e-02,6.081075966358184814e-02
-2.687532448132561314e-01,-2.723986165815610039e-01,-2.631256616479589749e-01,1.158369984797886360e-02,-1.711139223475173499e-02,-1.327253625548562889e-02,4.330010712146759033e-02
-2.632277681725395113e-01,-2.789779224713500594e-01,-2.571423347914026381e-01,2.624017970330849367e-02,-2.792729158170782766e-02,-3.116509671009868448e-02,8.775065839290618896e-02
-2.203112239061196242e-01,-2.587248189367610252e-01,-3.270902442652115494e-01,-4.662047585048123555e-02,2.712431323411966435e-03,-1.252161090201084348e-02,1.256520897150039673e-01
-2.483297190803721854e-01,-2.589035399469168386e-01,-2.996461593227224274e-01,-5.042085464772487480e-02,2.309841494062565490e-02,-9.950307072478889459e-03,1.082912534475326538e-01
-2.757499035848239299e-01,-2.645270956517755123e-01,-2.640076072133706320e-01,6.122001623436927695e-04,-6.284949087475509002e-04,1.708026135650247241e-04,1.159518491476774216e-02
-2.648156764383733375e-01,-2.491685723286135856e-01,-2.965150660057661591e-01,-2.954355248740551942e-02,-2.530595498339722744e-04,-2.380123655697736172e-03,6.619168072938919067e-02
-2.625885180597909430e-01,-2.535261902187658234e-01,-2.899582685945588101e-01,-2.954016559980490036e-02,6.907962653249513640e-03,-8.023349762345171948e-04,6.198562681674957275e-02
-2.451044315116729377e-01,-2.603812941568078854e-01,-2.935502268986541208e-01,-2.300481251956070644e-02,2.965756088005834772e-03,-3.042360589188811051e-03,5.900929495692253113e-02
-2.449224985356570627e-01,-2.603132186801999093e-01,-2.938730578269939109e-01,-2.262595536548613409e-02,3.473140764636547216e-03,-3.153312233817259953e-03,5.900395661592483521e-02
-2.395926819804372887e-01,-2.755610211288475053e-01,-2.902440265157337218e-01,-2.798319962087303381e-02,3.001268765436763530e-03,-3.325216621433936624e-03,6.668438762426376343e-02
-2.435457508415117822e-01,-2.615460728049389671e-01,-2.986606602179984749e-01,-2.006793377938952475e-02,6.757242542185848411e-03,-1.023239626869828015e-02,6.347307562828063965e-02
-2.880793476178220569e-01,-2.757897271797885019e-01,-2.411705617038196747e-01,6.643974596696394959e-03,-1.330311582984147235e-02,-2.113790432239179631e-02,6.147159263491630554e-02
-2.838048683669802674e-01,-2.641970311242999303e-01,-2.517556805055342073e-01,6.435201959061903447e-03,-9.257986696949159142e-03,-1.474794916758337057e-02,4.262716323137283325e-02
-2.838034869438122443e-01,-2.641168708949110377e-01,-2.525376284097526902e-01,6.822092068429606686e-03,-7.302968922455859921e-03,-1.729008978310305616e-02,4.411419481039047241e-02
-2.997753338316264116e-01,-2.479188448115916821e-01,-2.531633078754177979e-01,1.515402858519246040e-02,-1.712520957020367829e-02,-4.079693861602503441e-02,9.490291774272918701e-02
-2.864097847649758610e-01,-2.649790210882064234e-01,-2.529152881835148858e-01,1.084170450895761105e-02,-1.216806275573609208e-02,-1.402639887811999928e-02,4.743815958499908447e-02
-2.858342168379512938e-01,-2.589192582942916876e-01,-2.641625892890968053e-01,6.703568786569196088e-03,-5.305714385890237736e-03,-1.850297313392352053e-02,4.309441894292831421e-02
-2.622967215242503203e-01,-2.805188376255915994e-01,-2.618341349383420669e-01,-7.409724920505611099e-04,-1.055662334218745741e-03,1.437200917990895345e-03,1.875835470855236053e-02
-2.895241640401596817e-01,-2.557915015582943319e-01,-2.614472025688372447e-01,8.925575864810594492e-03,-5.307020971307551717e-03,-2.352412366614541755e-02,5.443107336759567261e-02
-2.822985028343648062e-01,-3.111070602277084540e-01,-2.150167948785827732e-01,-1.635159263362295909e-03,3.145051229943041787e-02,-1.147984306053773801e-03,1.013628616929054260e-01
-2.861501577110835970e-01,-3.091229015780335154e-01,-2.078459465022681196e-01,-7.534977924914094960e-03,2.848223608696244524e-02,-2.411257488760575052e-02,1.131655797362327576e-01
-2.908547583343538689e-01,-2.909036734487612796e-01,-2.250333898087813478e-01,-1.244705041770151864e-02,3.418136498881949037e-02,-2.447717480968042078e-02,1.005134582519531250e-01
-2.703316915409875731e-01,-2.665811531579163063e-01,-2.678885859623724164e-01,6.470011401766139359e-04,-1.164475677463481249e-03,6.574622646210911948e-05,4.026059061288833618e-03
-2.782319779764115264e-01,-2.932289674180473815e-01,-2.286197999420310767e-01,-6.954361868540427129e-03,3.145579358905385009e-02,-2.527235363628605250e-02,9.197758883237838745e-02
-2.773435171039556613e-01,-2.898424296428788738e-01,-2.334426289603427074e-01,-6.012815341243205047e-03,2.227858304683594248e-02,-1.439857062911630362e-02,6.965377181768417358e-02
-2.892112037959406190e-01,-3.015700065458468693e-01,-2.066567572343805947e-01,-4.399382660793110626e-03,3.020694239871397901e-02,-1.695273424942580348e-02,1.079160720109939575e-01
-2.707735965210579798e-01,-3.008113687742169917e-01,-2.227030503237457382e-01,-1.315812787421821034e-02,-4.433144829222168681e-02,1.650147000495174460e-02,1.090372130274772644e-01
-2.494892054889000510e-01,-3.036352882641264461e-01,-2.419215828232960108e-01,-5.729564334644598848e-03,-4.934227710926896576e-02,5.472425023147707221e-03,1.043605804443359375e-01
-2.565057327574013502e-01,-2.909173266846974415e-01,-2.632429089606704853e-01,-1.443475667716994162e-02,-2.515107544160703756e-02,1.450354475507244570e-02,6.443279236555099487e-02
-2.743674178043438716e-01,-2.935794647773325994e-01,-2.416580525085057773e-01,-9.077154126822365582e-03,-2.538985905938771423e-02,1.013157315836569865e-02,6.750173866748809814e-02
-2.587873720692811519e-01,-2.925905739096381630e-01,-2.584327614578394439e-01,-4.262882573354588589e-03,-2.818465825671563618e-02,2.538659460339632700e-03,6.009779497981071472e-02
-2.706429910546557238e-01,-2.728800055763051513e-01,-2.613994445542808243e-01,1.143348083659635750e-02,-6.334925689710078911e-03,-9.618845762830643270e-03,3.002098016440868378e-02
-2.650822875292764280e-01,-2.728034063481460936e-01,-2.656786692295959318e-01,6.999646373948516243e-03,-6.831163504623621874e-03,-1.206795064991177981e-02,2.791509404778480530e-02
-2.657066410604561613e-01,-2.728816808061526600e-01,-2.641292212865484212e-01,6.576978513147749804e-03,-6.068757295124358256e-03,-6.315353703455297597e-03,2.062032930552959442e-02
-2.624173965029216182e-01,-2.794681966186906563e-01,-2.614084501171379249e-01,5.711316805416716096e-03,-8.994040341175889644e-03,-3.549992821836011215e-03,2.621629461646080017e-02
-2.902631576694160165e-01,-2.323010630414931443e-01,-2.759274594292949190e-01,-2.307343958054513394e-02,1.863748138821210570e-02,-4.246881223231182417e-02,1.038470417261123657e-01
-2.642431473611910331e-01,-2.833030477193477226e-01,-2.550981753042418365e-01,9.834803502005471515e-03,-2.195590518636217348e-02,-1.074117794545031285e-02,5.199698731303215027e-02
-2.891995993129474751e-01,-2.783246380029038014e-01,-2.363911786902050394e-01,-1.590325911265096787e-02,-1.920904857045979339e-02,1.640689706298275805e-02,7.075285911560058594e-02
-2.798792558562231414e-01,-2.702779184771427756e-01,-2.514390759457895697e-01,-1.327696373558145786e-02,-1.264263779029935544e-02,1.737248622247358418e-02,5.041545256972312927e-02
-2.919927527188603267e-01,-2.638641049564560692e-01,-2.494952431404829085e-01,-5.264360853376746051e-03,-1.510772027179626414e-02,2.123872439522152614e-02,5.935471504926681519e-02
-2.844151802542855823e-01,-2.784851053170396828e-01,-2.447629472384039162e-01,-5.933640174604919507e-03,-7.692177875857750605e-03,1.347457385571100910e-02,4.690575972199440002e-02
-2.814920800676894430e-01,-2.832097372479374098e-01,-2.409184449712567788e-01,1.709370355945732944e-02,4.509489467350307618e-02,2.126243997024659591e-02,1.002615019679069519e-01
-2.770625380027505469e-01,-2.762799149316406133e-01,-2.520791150662837210e-01,-5.193641122177091070e-03,-1.151152536837200292e-02,9.283837453847761101e-03,3.663697093725204468e-02
-2.806175067258071532e-01,-2.801626663924434157e-01,-2.461388777566248520e-01,-1.953220005229158122e-03,-8.511572576327319437e-03,9.331059532821837921e-03,4.078347980976104736e-02
-2.761166476860182906e-01,-2.816751866278592309e-01,-2.487441137855286588e-01,-1.251482159547283660e-02,-1.383908251546406114e-02,2.143284557132376505e-02,5.792087689042091370e-02
-2.612767683195088564e-01,-2.637544929582042452e-01,-2.804235225020063615e-01,6.313168622061632752e-04,-6.501657606843282101e-04,-1.878639677244356172e-03,1.839425601065158844e-02
-2.448637548873357495e-01,-2.477966541574664894e-01,-3.045113115833269490e-01,-4.552205977829393291e-02,6.136511947351229457e-03,-4.522690979782450701e-03,9.890703111886978149e-02
-2.589269506127807041e-01,-2.467807602053797011e-01,-2.934716708035340349e-01,-2.246416758025782806e-02,-2.654015228110327088e-03,9.795500121834088345e-04,5.743153020739555359e-02
-2.590790946525858840e-01,-2.552907490638851584e-01,-2.900108355151119199e-01,-1.088309397144795847e-02,-3.725256221668772454e-03,-1.933740273654513582e-04,3.854055330157279968e-02
-2.635665831769680723e-01,-2.468923391768523823e-01,-2.910770766590845549e-01,-1.944313901987250459e-02,6.314718142978078576e-03,-2.709984865074145481e-03,5.262452363967895508e-02
-2.603115728514048821e-01,-2.464609028163189386e-01,-2.929224460733673707e-01,-2.317678694734572400e-02,-1.486015534094258872e-03,8.893687834848503209e-04,5.768431723117828369e-02
-2.561015765915405362e-01,-2.576442477116248631e-01,-2.886458233418888186e-01,-1.115694263246453169e-02,3.168910213479534874e-03,-1.668202032763698578e-03,3.772544860839843750e-02
-2.866302187997021855e-01,-2.894231043118203894e-01,-2.295642716935290817e-01,4.774522510738009838e-03,1.163495515515019542e-02,1.746181537510575060e-02,6.937543302774429321e-02
-2.840499314482037851e-01,-2.373824974754223105e-01,-2.840483357909328599e-01,2.654281271090812213e-03,-2.808344191704132548e-03,-2.347660967795901256e-03,4.731918871402740479e-02
-2.985633743947679886e-01,-2.762418295231591769e-01,-2.250381975161242221e-01,-7.445459975576624451e-03,1.311764940636392547e-02,-4.170579399590976927e-02,1.008149310946464539e-01
-2.854373024775221368e-01,-2.617608904765922340e-01,-2.513850689343942180e-01,-5.938640761039391466e-03,5.876690573862640085e-03,-2.073141408110798153e-02,4.911899566650390625e-02
-2.835537821040663986e-01,-2.642037539146574465e-01,-2.625527258256178387e-01,-1.271850899124536520e-02,9.794761818995363634e-03,-1.759058347399378858e-02,4.593992233276367188e-02
-2.936510931431559057e-01,-2.612212411326216843e-01,-2.456663489063457273e-01,-2.129427833506794543e-03,1.324509796045883698e-03,-2.006047229009333757e-02,5.499297007918357849e-02
-2.870494576187372915e-01,-2.688495658169091640e-01,-2.482326267723518609e-01,-1.314303928753577863e-02,7.232228297918722945e-03,-1.837418694133003544e-02,5.309883505105972290e-02
-2.868171558817015909e-01,-2.626185905670550547e-01,-2.512170551300223487e-01,-1.723404455178222799e-02,1.745029119361675776e-02,-2.719134573110008890e-02,7.081065326929092407e-02
-2.831114703143209899e-01,-3.195623921954942603e-01,-1.870897073336777738e-01,2.734149593465718189e-02,7.704086748368596527e-02,4.360802528054773947e-02,1.995055526494979858e-01
-2.914417952119778832e-01,-2.579061183657387346e-01,-2.503042911168105733e-01,-1.003937312371580570e-02,8.342621565574002279e-03,-3.092957504411888991e-02,6.941500306129455566e-02
-2.549720427935977529e-01,-2.857588095269322226e-01,-2.664629411043468732e-01,4.937573218646884241e-03,1.084977917616884897e-02,3.282750373193194307e-03,3.441975638270378113e-02
-2.545665621271979706e-01,-2.808038499439190483e-01,-2.700647778128814624e-01,6.556742625084766886e-03,1.031140381843993932e-02,9.445987483110710597e-03,3.517935052514076233e-02
-2.931971158123160004e-01,-1.661961594926353036e-01,-3.613164271889036105e-01,9.066242132800368669e-02,-6.147814673510397510e-02,-4.561261650207744378e-02,2.676937580108642578e-01
-2.682860531792581327e-01,-2.663617368093932902e-01,-2.708105873591526991e-01,-3.348627493404864562e-03,-3.082371921559628070e-03,3.488184169270216409e-03,1.065736915916204453e-02
-2.658573495755962024e-01,-2.674347305491160398e-01,-2.713328406842663854e-01,-2.090923504506921222e-03,-3.407438252975554614e-03,2.261966408089917564e-03,9.334316477179527283e-03
-2.672966566906070929e-01,-2.693791470806052857e-01,-2.668575998928197079e-01,-4.246516424180759620e-03,-2.726357268036859200e-03,4.644742507331608462e-03,1.210630219429731369e-02
-3.558797176911304150e-01,-2.086363523142336363e-01,-2.185223508671930992e-01,-1.570093695925239494e-02,-2.651727473218390765e-02,1.153604961863329004e-01,2.511889338493347168e-01
-2.721431583279914079e-01,-2.699834717866816947e-01,-2.623214568675362734e-01,-5.722509739377979604e-03,-4.908168747829529284e-03,6.014065037297628390e-03,1.894563063979148865e-02
-2.722307217274360647e-01,-2.666942931139431594e-01,-2.632237011332673737e-01,-4.296252339282259809e-03,-5.713830078478481130e-03,4.700021712610429406e-03,1.677794009447097778e-02
-2.623431853688957816e-01,-2.802750004058144340e-01,-2.622497093228026710e-01,-3.060613815328225296e-04,-9.301503225608588046e-05,1.029861471909846241e-03,1.807550154626369476e-02
-2.697663224860231135e-01,-2.680960756133644041e-01,-2.695709581472424121e-01,-6.200118212424101001e-03,-6.268613399996022552e-03,6.937883970014471248e-03,1.949654333293437958e-02
-2.738918410224625566e-01,-2.622146314605935391e-01,-2.683386789465478373e-01,-4.542513959218954893e-03,-6.011772992415441788e-03,5.580293426101817084e-03,1.913363486528396606e-02
-2.711339713901055881e-01,-2.696055858734416888e-01,-2.665796237795962642e-01,-5.994682234642347528e-03,-6.429004459747713306e-03,6.971469645075930276e-03,1.984253898262977600e-02
-2.686626850154144597e-01,-2.710259802031149134e-01,-2.640888246348553348e-01,-4.931535619728236522e-03,-4.647398626326666379e-03,4.110372749789585611e-03,1.502515561878681183e-02
-2.686166618870777234e-01,-2.715903837541916443e-01,-2.656413680351200624e-01,-3.489228694537138339e-03,-2.780963087531968230e-03,1.887258633728273582e-03,9.846509434282779694e-03
-2.711412930639930385e-01,-2.653313466747578842e-01,-2.674557450654902468e-01,-1.248963801786555621e-03,-2.473539251033120799e-03,1.802497593908586934e-03,7.662102580070495605e-03
-2.689859450676506669e-01,-2.681113398952131854e-01,-2.672403663136247998e-01,-1.759782676979668604e-03,-2.234311526693715660e-03,2.327055466550296842e-03,6.542002782225608826e-03
-2.682272683887603759e-01,-2.676850770691915349e-01,-2.692789587280457475e-01,-2.928741677054993563e-03,-2.616369533286822587e-03,1.808329242459986996e-03,7.618999574333429337e-03
-2.967168810079559016e-01,-2.593755277207853704e-01,-2.559918270021633857e-01,3.792299126450559936e-03,9.759081170414159959e-04,2.552218955050676585e-02,5.943337827920913696e-02
-2.732702033440623235e-01,-2.400632379251988746e-01,-2.905299424919987050e-01,-3.588500892963523287e-02,3.402122772853940352e-02,-2.352539663512466864e-02,1.047359108924865723e-01
-2.684650144164313357e-01,-2.533090201479415993e-01,-2.803560965570975339e-01,-1.751339304426626983e-02,1.729895381537689333e-02,-1.114638476919857860e-02,5.236379429697990417e-02
-2.617311303292353397e-01,-2.699873887374955594e-01,-2.734920167267207436e-01,-1.969911376904854433e-02,1.438461171426444821e-02,-1.315832874072728718e-02,4.912967234849929810e-02
-2.546014895180174209e-01,-2.612858352779888205e-01,-2.941238582388303602e-01,-2.726363951355502066e-02,8.989965445919855663e-03,-9.443523943366947601e-03,6.389392912387847900e-02
-2.581743554780792094e-01,-2.439135090943156114e-01,-2.951743638950713455e-01,-3.795462531612433382e-02,1.894805035941938762e-02,-2.006759890542578889e-02,9.331075102090835571e-02
-2.640532106899300957e-01,-2.689266388793881135e-01,-2.779786704029335587e-01,1.508113993435779981e-02,-1.576701619500096158e-02,-1.599282735048710921e-02,4.842761904001235962e-02
-2.684114560437534380e-01,-2.538077955768379690e-01,-2.817394687785910179e-01,1.984951388027645508e-02,-1.271619793355140485e-02,-1.001898478961207699e-02,5.053509026765823364e-02
-2.690391769613932893e-01,-2.564442195522542711e-01,-2.816386138365107872e-01,2.390000293887097407e-02,-1.065113513458899701e-02,-1.370829332124652924e-02,5.562185123562812805e-02
-2.232945752863643718e-01,-2.720892782829850143e-01,-3.018932167970284075e-01,4.311784432577617232e-02,-2.073311890309843808e-02,-1.335837476341526255e-02,1.101174056529998779e-01
-2.675155235252195118e-01,-2.524835154723191755e-01,-2.897629031594285420e-01,2.410776774733308994e-02,-1.115408130090862239e-02,-1.274416282879026370e-02,6.049268692731857300e-02
-2.358674241376381708e-01,-2.745777893590932717e-01,-2.963908794374022215e-01,5.610136847895556833e-02,-1.130492473460284301e-02,-1.786883377723168242e-02,1.166279390454292297e-01
-2.495202011559015387e-01,-2.732923154899597473e-01,-2.849117851734710993e-01,2.805484558952493768e-02,-1.656665382560511268e-02,-8.572320596071401899e-03,6.619202345609664917e-02
-2.967117325103844627e-01,-2.162698357072745936e-01,-2.798627215016823433e-01,-6.538760504497798109e-02,-4.797932047417085427e-02,7.241368336987473453e-02,2.021467536687850952e-01
-2.409088919953606411e-01,-2.488218326623111709e-01,-3.044557311100508090e-01,4.680916744633466242e-02,-1.295306404602176650e-02,-1.021554109849701249e-02,1.048221588134765625e-01
-3.095919983298484612e-01,-2.719746187129645776e-01,-2.288776288563912908e-01,3.258695549945470060e-03,1.037791808222837502e-02,3.823668527090465230e-02,9.815654158592224121e-02
-3.143396895576001659e-01,-2.765228854001555714e-01,-2.240934387689375307e-01,1.084534681963548325e-02,5.267761003964075740e-03,4.171922180926243562e-02,1.087164431810379028e-01
-2.952269287388896712e-01,-2.755336153123739695e-01,-2.384585729663136755e-01,9.887475316813910779e-04,-1.655494893267098720e-04,1.869719079740096712e-02,5.953390523791313171e-02
-3.006321597824445635e-01,-2.709341722782425133e-01,-2.282453794221343812e-01,-9.394612943083081077e-05,-1.517190441537321320e-03,3.117669631915177125e-02,8.303593099117279053e-02
-3.049433940538257004e-01,-2.745614158991089848e-01,-2.255107412627591068e-01,7.232980177616049437e-03,1.288266812153980177e-04,2.966750997274750917e-02,8.727411180734634399e-02
-2.983884441315654001e-01,-2.754174095990682414e-01,-2.308908325487697144e-01,-2.272429053106802665e-03,3.473028516959279603e-03,4.337380095661157176e-02,9.606582671403884888e-02
-3.085807575741301712e-01,-2.711412655027545249e-01,-2.253573904745448941e-01,-8.545448039007275468e-03,-3.537882084123093046e-03,3.031512158957366115e-02,9.069535881280899048e-02
-3.037879087043813264e-01,-2.837375314231025958e-01,-2.237123446171975227e-01,-9.103505712257542459e-03,-7.950524367899051981e-03,4.898911945019201325e-02,1.133429482579231262e-01
-2.803253599102819571e-01,-2.634788432526073976e-01,-2.647885601439037284e-01,8.426937222910645467e-03,-1.190059353321274403e-02,-1.726133373086041062e-02,4.237014800310134888e-02
-2.760511427290532893e-01,-2.554692033087782033e-01,-2.712455672452800393e-01,1.791854624194052711e-02,-1.253445099078793340e-02,-1.927180542216317197e-02,5.381978675723075867e-02
-2.758115439505747224e-01,-2.678906027079887564e-01,-2.614199510256360326e-01,8.803175133413346232e-03,-8.245922839323509279e-03,-8.719786078077057176e-03,2.864335291087627411e-02
-2.686013310787010999e-01,-2.652565470670955605e-01,-2.723980278375472408e-01,-6.267862396312237280e-03,4.478414385034568471e-03,-3.567726084756508466e-03,1.595351099967956543e-02
-2.755301790669193451e-01,-2.633500184606049621e-01,-2.666752825729706844e-01,8.210027550538919958e-03,-8.869371272078374613e-03,-8.090110211532986623e-03,2.744944393634796143e-02
-2.633285322667749950e-01,-2.737311941133445115e-01,-2.672022323756259587e-01,2.160559987092654927e-02,-1.422073146308680536e-02,-2.259072692360024684e-02,6.017507985234260559e-02
-2.603703638607730020e-01,-2.809474001725744685e-01,-2.625846798646420122e-01,-1.064581294732537195e-03,-3.289345468830419308e-03,2.071697489019267736e-03,2.077230624854564667e-02
-2.625797931278032737e-01,-2.783551916674711357e-01,-2.636480620042341294e-01,-6.652173351489893555e-04,3.886036367605384006e-04,-1.574556844098426965e-03,1.556824613362550735e-02
-2.802328099074907208e-01,-2.651255886368551473e-01,-2.627023500402801415e-01,1.995049500662888359e-02,-2.021639584185492070e-02,-1.956572055165715224e-02,6.196237355470657349e-02
-2.660394774680108210e-01,-2.783188440979908473e-01,-2.685184523237239551e-01,-2.089609171954124114e-02,2.499772174154956880e-02,-2.174223212084846341e-02,6.876961886882781982e-02
-2.625539460041795281e-01,-2.838670417514551625e-01,-2.531407253051364825e-01,-1.430508889076161777e-02,2.512885348918326989e-02,-1.700190042330847195e-02,6.417912244796752930e-02
-2.727376183625438988e-01,-2.810357000754559187e-01,-2.507702782394140573e-01,-1.317379720073122776e-02,2.784406846924431661e-02,-1.726593904588713188e-02,6.689222902059555054e-02
-2.718062830486230874e-01,-2.820081182562364508e-01,-2.523659644195584417e-01,-8.111081421924418167e-03,1.585066700218502184e-02,-1.065819686096184521e-02,4.440970346331596375e-02
-2.713611269009114646e-01,-2.749320760338229142e-01,-2.593784652465113694e-01,-1.063048603089161367e-02,1.347271755503729775e-02,-6.720636622224026961e-03,3.490258380770683289e-02
-2.398116483660800713e-01,-2.974200326533494865e-01,-2.716906223380693430e-01,8.897897895416546563e-03,2.840341747826535812e-02,6.876990230921816750e-03,7.278844714164733887e-02
-2.352751508537841985e-01,-2.971653231768287551e-01,-2.766710889976847221e-01,4.350498077378926569e-03,1.884306793114800399e-02,5.911811049594919640e-03,6.487548351287841797e-02
-2.569971202279092148e-01,-3.166359902485448852e-01,-2.321632262066135044e-01,1.856480998981288946e-02,4.503694600740240639e-02,3.313266847655235714e-02,1.267550438642501831e-01
-2.189762175929442223e-01,-3.194763929936456082e-01,-2.622309979205293962e-01,2.862773201109877069e-02,5.261322483003998129e-02,8.439807104231948284e-03,1.363852471113204956e-01
-2.264475597767287574e-01,-3.023140533668469132e-01,-2.722075855649192522e-01,9.434872823746477677e-03,3.713296643502031480e-02,6.806953780637957190e-03,9.444934129714965820e-02
-2.633717946165209933e-01,-2.943996742343206185e-01,-2.535081276196315958e-01,7.578297901501759859e-03,2.770741924315430274e-02,5.280467953000723101e-03,6.265074014663696289e-02
-2.575475676677708714e-01,-3.069781182083186066e-01,-2.410319321089189892e-01,1.737264186009298411e-02,5.652591879825921012e-02,-1.070293181656134301e-03,1.184353157877922058e-01
-2.620491252703434082e-01,-2.957441616134114937e-01,-2.527312715020272327e-01,7.419750628402999038e-03,2.619440062064873689e-02,5.639963500029437568e-03,6.209000572562217712e-02
-3.024061678590413971e-01,-3.002390263572020657e-01,-1.958089746699481493e-01,-4.390286816825272539e-03,-1.374168763695630957e-02,2.625914832675114996e-02,1.175993233919143677e-01
-2.779873540316358249e-01,-2.569481878415828535e-01,-2.704157167642770587e-01,1.451656383510493975e-02,9.181455687947528629e-03,1.697824188357585293e-02,4.572249576449394226e-02
-2.803806169382734859e-01,-2.661389471579694854e-01,-2.582357225164964576e-01,8.762603185582515386e-03,1.446025275208930386e-02,1.798982632352104025e-02,4.697221517562866211e-02
-2.748275788034497125e-01,-2.746337725420677223e-01,-2.530371973433824251e-01,1.019345195143148142e-02,1.193248935065254271e-02,1.331369969652863340e-02,4.172854125499725342e-02
-2.738177872285331160e-01,-2.769903008225702568e-01,-2.561080387459733210e-01,1.375615481166675078e-02,1.705842899665037382e-02,2.198217392610620630e-02,5.718564242124557495e-02
-2.756616387957364633e-01,-2.719685354125031540e-01,-2.533295232536078578e-01,9.625811023024807497e-03,1.211440641101762562e-02,1.173984609151042247e-02,3.951714560389518738e-02
-3.066542526808538338e-01,-2.132684132720816528e-01,-2.861269539384777016e-01,-3.090844957990691866e-02,-1.373413893126548824e-02,5.518035463283620101e-02,1.406833976507186890e-01
-3.000573844083896935e-01,-2.528439163078824992e-01,-2.559031806858494962e-01,3.156373730455637461e-04,8.380857474155303148e-04,3.218926359989853631e-02,7.214488089084625244e-02
-2.764578693289469480e-01,-2.313304205981409623e-01,-2.963153371357153398e-01,2.123446221960219663e-02,1.205763049374965158e-03,-4.687524621259966419e-03,6.891959160566329956e-02
-2.900218402430121967e-01,-2.535510877059313217e-01,-2.642417635611405413e-01,-2.124003361990039682e-03,-2.463134520136391493e-03,1.242564620691747647e-02,3.936285898089408875e-02
-2.919144024418664496e-01,-2.334894184809772899e-01,-2.732132996894015564e-01,1.117904195327154397e-02,6.638197244001081687e-03,2.050758100114305482e-02,6.662875413894653320e-02
-2.899089958648594090e-01,-2.344240560933558981e-01,-2.734544193798453815e-01,6.909478316575572328e-03,5.757057611966600111e-03,2.123511032154170100e-02,6.349641084671020508e-02
-2.857943032670613448e-01,-2.543246488484373069e-01,-2.608972037794815568e-01,9.934399647624044677e-03,9.256545814380021456e-03,1.953308322346538825e-02,5.024394020438194275e-02
-3.035781323996635250e-01,-2.470072329671599010e-01,-2.453155555471314697e-01,8.424234804740039426e-03,5.869315358667768177e-03,4.997323677727403407e-02,1.053899973630905151e-01
-2.973004341170238929e-01,-2.525695998005489384e-01,-2.575782866303333307e-01,5.043334343772574654e-03,3.598518324722908487e-03,2.930593995434268434e-02,6.703402101993560791e-02
-2.829524018264959473e-01,-2.544931271627144942e-01,-2.632057790392523522e-01,1.181398577010248259e-02,7.099124450663497898e-03,1.619254596971583804e-02,4.465852677822113037e-02
-2.780463853873766378e-01,-2.389248130687688376e-01,-2.923145715158241842e-01,1.531445600134069204e-02,-3.268712941825316527e-03,3.068083364621173627e-03,5.528257414698600769e-02
-2.973370175793667580e-01,-2.346099239185032714e-01,-2.721231541337224002e-01,9.388290758199501103e-04,1.302293388163373172e-02,2.356479764834535501e-02,7.187606394290924072e-02
-2.964367753432837205e-01,-2.545637697130692656e-01,-2.567090224642182839e-01,-1.295848635044070767e-03,2.119983624757575298e-03,3.072818889328539360e-02,6.722579896450042725e-02
-2.958353211511845493e-01,-2.599329137537632062e-01,-2.550118290979147551e-01,-7.052669085493359913e-04,3.470386829039507834e-03,2.099118820193661070e-02,5.337969213724136353e-02
-2.962879827919691067e-01,-2.406965940657136149e-01,-2.727400648970156882e-01,-5.689440034493208238e-03,-2.168050510328116062e-03,5.798364471827685551e-02,1.119525134563446045e-01
-3.096881057849488195e-01,-2.472099145862691749e-01,-2.401156465758119696e-01,-6.806324887731122000e-03,-4.049196365121398092e-03,5.040613465549680788e-02,1.104879677295684814e-01
-3.119287383809322134e-01,-2.330094869461046825e-01,-2.724310173505664623e-01,7.257864601454293643e-03,7.374629522962848974e-03,5.863676329270524346e-02,1.237222030758857727e-01
-3.079194146860564363e-01,-2.398708130093604451e-01,-2.608195554043646891e-01,6.474524320441283481e-03,2.274717808550173748e-02,5.313417084818261582e-02,1.174381151795387268e-01
-2.749925736134248844e-01,-2.695568441097296319e-01,-2.591598084989675255e-01,1.525659185972292817e-02,-2.151336183364203555e-02,-1.609613739645101085e-02,5.530083924531936646e-02
-2.601825047464705887e-01,-2.882154885185030380e-01,-2.583450697941446772e-01,1.000612301461129353e-02,-2.273002400522668512e-02,-1.742320858947342399e-02,6.001472473144531250e-02
-2.577998817964470279e-01,-2.572532832854553253e-01,-2.865487373453523556e-01,9.785774341776727267e-03,2.139848912462142920e-03,2.731005392109170978e-03,3.414536267518997192e-02
-2.756386919690894666e-01,-2.600933074114348820e-01,-2.690439654165254213e-01,1.463161773160074133e-02,-8.022233616327964500e-03,-1.387717366235920007e-02,3.994597867131233215e-02
-2.665769568331353701e-01,-2.706134153779152784e-01,-2.686129015626790850e-01,4.617862168084099946e-03,-5.601402891797491006e-03,-4.057005646443140150e-03,1.482224836945533752e-02
-2.679176573953037099e-01,-2.712844413710965297e-01,-2.656814188246117148e-01,4.357210584720203062e-03,-2.640427294286666528e-03,-3.090102373322154393e-03,1.141851767897605896e-02
-2.891808922895654499e-01,-2.125407192439371373e-01,-3.012272494722663674e-01,5.034406557931701831e-02,5.491896680437167999e-03,6.329307143682840961e-03,1.214755252003669739e-01
-2.714551186508393776e-01,-2.720893718925324056e-01,-2.605242719687045905e-01,6.841579112164005924e-03,-7.312659686239949414e-03,-6.535892185985116808e-03,2.357581071555614471e-02
-2.623533384927201895e-01,-2.819548639886935715e-01,-2.605414392263552537e-01,-9.078004653539704753e-04,-9.722799850977478873e-04,3.984283186619287545e-04,2.070756629109382629e-02
-2.840066152473851857e-01,-2.740492719757562368e-01,-2.449390134402886776e-01,2.253640530246537113e-02,-4.266650762913158645e-02,-3.638824714140303368e-02,1.104250475764274597e-01
-2.832395153991862924e-01,-2.657992868363716066e-01,-2.513336012459684854e-01,8.770719307103559334e-03,-8.603121536636962330e-03,-1.670735739975686210e-02,4.534233734011650085e-02
-2.808358706001460869e-01,-2.790189281660045983e-01,-2.415448669361810463e-01,1.292432623012506124e-02,-1.983790149260599919e-02,-2.006059248649320198e-02,6.606601923704147339e-02
-2.956484011928636191e-01,-2.640353584458924319e-01,-2.445224602985330287e-01,8.280418881224773167e-03,-4.204759762057259063e-03,-1.851535400647794094e-02,5.730785802006721497e-02
-2.868801901383793429e-01,-2.808497831418709789e-01,-2.328850048877494361e-01,9.137357382263708999e-03,-1.317577640440062425e-02,-2.002612794283019360e-02,6.782807409763336182e-02
-2.932260677264738602e-01,-2.771684830565612212e-01,-2.327214939070493815e-01,5.451736772492938969e-03,-1.356193347362848363e-02,-1.941005614876710125e-02,6.868977844715118408e-02
-2.147793197164646617e-01,-2.934886529235573582e-01,-3.000906089784121655e-01,5.839525920356626772e-04,2.668344896643913555e-02,-5.504442307675581209e-03,9.479620307683944702e-02
-2.121266196686752981e-01,-2.984679117609115306e-01,-2.911393768024764794e-01,3.003394674952825777e-03,1.419580131819722299e-02,1.692002432147208385e-03,8.669476956129074097e-02
-1.975062283506575367e-01,-2.997228100196133727e-01,-3.048507592086366347e-01,-4.109865072849697501e-03,1.860147256026334350e-02,-5.416104672024413258e-03,1.103422269225120544e-01
-1.845461149156621405e-01,-3.168272292563796833e-01,-2.932178064927148942e-01,-6.454005948197344064e-03,5.741635008817987107e-02,-8.958959483247088892e-03,1.587081551551818848e-01
-1.687366224265348658e-01,-3.215891653714340603e-01,-2.903182752012516410e-01,2.516252324997003340e-02,7.367027430113218256e-02,1.724182010412026941e-02,1.965582817792892456e-01
-1.968729199553574116e-01,-2.986295956877685343e-01,-3.065038627683061012e-01,5.179569142328383641e-03,1.836666894305339498e-02,5.574831801782794381e-03,1.113705858588218689e-01
-2.660375383947270467e-01,-2.672467245362729060e-01,-2.696266431357085547e-01,7.957409200501971286e-03,-8.328874435935421441e-03,-7.975513265946275465e-03,2.447247132658958435e-02
-2.599960485568891255e-01,-2.742439548595353993e-01,-2.785635026504222345e-01,2.479962268420338525e-02,-2.039079107162677928e-02,-1.264288599364672694e-02,6.208985671401023865e-02
-2.551981289356154425e-01,-2.788353600890450257e-01,-2.729720815322419503e-01,1.788531550847569790e-02,-2.324170751621252098e-02,-1.155698752257663074e-02,5.861212685704231262e-02
-3.137180853282739990e-01,-2.661133257348269887e-01,-2.338058857564175308e-01,-1.738458879123475770e-02,-2.585020250348089160e-02,5.525806726829307625e-02,1.300757676362991333e-01
-2.998138029950562777e-01,-2.721106908437276872e-01,-2.413557347038167988e-01,-2.817373131007546924e-02,-2.326834238494143725e-02,4.978861104546801475e-02,1.183536201715469360e-01
-3.019162598745436243e-01,-2.908685064681478805e-01,-2.203215148959932757e-01,-5.059620558804855603e-03,-1.957136858218316844e-02,2.849120570564508265e-02,9.767024964094161987e-02
-2.617177549278863480e-01,-2.809249691945566174e-01,-2.617135309771598806e-01,1.364452251529144023e-03,-8.815953733003332364e-04,-7.150671003814045804e-04,1.945376582443714142e-02
-3.367508391713165405e-01,-2.832082160348593503e-01,-1.674146053581725968e-01,-2.860916592342470366e-02,-4.255309940254287104e-02,9.524218581492535640e-02,2.399496585130691528e-01
-2.996838464421685000e-01,-2.029800831272418615e-01,-3.014162838296337021e-01,1.643653821165498921e-02,2.950199445493708467e-03,6.837836829185212593e-03,1.024646833539009094e-01
-2.529964312880150779e-01,-2.891176563841753033e-01,-2.591657537073486228e-01,-8.880693673957757925e-03,-2.242913723004847856e-02,8.199068988911631731e-03,5.538440868258476257e-02
-2.606763808729304355e-01,-2.835785550827909507e-01,-2.598693832471445364e-01,-4.284997383000714068e-03,-1.006033132597671659e-02,4.999984521543454977e-03,3.126270696520805359e-02
-2.506060366517640081e-01,-2.855173966583364198e-01,-2.665154035881079353e-01,-1.583552026757829509e-02,-1.721572625748436780e-02,1.070294473882646424e-02,5.386638268828392029e-02
-2.528310470778523111e-01,-2.811017277046800045e-01,-2.708404669107160601e-01,-8.517878613043584207e-03,-1.206204678482508327e-02,6.118609953251534679e-03,3.716027364134788513e-02
-2.677593587449036971e-01,-2.809576557557812992e-01,-2.558240365338261824e-01,-8.926102643932270347e-03,-1.914242904661734787e-02,1.174642688362974828e-02,4.718508571386337280e-02
-2.709411647862772776e-01,-2.652812072341907412e-01,-2.694637590415740469e-01,2.514617297772439326e-03,3.626809001845626018e-03,4.413874795301340331e-03,1.194712519645690918e-02
-2.569657947378701235e-01,-2.793875165562712537e-01,-2.676101448275170491e-01,-1.023491798760555772e-02,-1.090836399567944766e-02,1.013895453309604164e-02,3.683753684163093567e-02
-2.675831074866173998e-01,-2.779134711600896868e-01,-2.590001098707546134e-01,-1.022467894944229308e-02,-1.510909002371966375e-02,6.819686352615404040e-03,3.751080110669136047e-02
-2.688575132487573960e-01,-2.624573135254958944e-01,-2.745275885061558285e-01,6.589098007331496351e-03,-5.087591292886667858e-03,-5.388777818470371316e-03,2.011014893651008606e-02
-2.594271399599521466e-01,-2.613310328340590627e-01,-2.839065049956843168e-01,-7.889608650123257740e-04,-1.731871434255342467e-04,3.979365321726108218e-04,2.363663353025913239e-02
-2.731668359117463973e-01,-2.716640010768243130e-01,-2.568838750638351431e-01,8.976149588632893403e-03,-8.394442381885188625e-03,-1.078631291512497162e-02,3.232754394412040710e-02
-2.709826397546116761e-01,-2.694131188936958465e-01,-2.658748101077663684e-01,8.461745571240884140e-03,-1.087154203188797630e-02,-1.304718225285638605e-02,3.317526355385780334e-02
-2.661502024169418723e-01,-2.627166142262634674e-01,-2.731049536939995082e-01,1.198412333615119299e-02,-9.711241566344440759e-03,-1.209603298437685569e-02,3.516763076186180115e-02
-2.613563680364144881e-01,-2.574522456599325215e-01,-2.852191430713618137e-01,-3.377650026055901630e-03,-1.091978015782531057e-03,5.625573151238110392e-04,2.676919102668762207e-02
-2.649753001467356484e-01,-2.562608935112696273e-01,-2.851629577528204118e-01,-1.025576101425345124e-02,-3.396327267907014915e-03,4.304871949989345914e-03,3.263661637902259827e-02
-2.661601318898441648e-01,-2.478023756036504821e-01,-2.880208596140695354e-01,-6.748592972945596791e-03,-1.694840888294879685e-03,1.512741513474292988e-03,3.699088469147682190e-02
-2.666119920983545666e-01,-2.494742949135253796e-01,-2.855615053031387851e-01,-6.781507308276461636e-03,-2.226732700925599610e-03,1.649347344312306540e-03,3.374223411083221436e-02
-2.679939480613607317e-01,-2.625643343906209903e-01,-2.740783389951315652e-01,-2.107677103626997422e-02,1.564360837344703700e-02,-1.318524233971639890e-02,5.184540897607803345e-02
-2.504967501871585012e-01,-2.689435339217813303e-01,-2.876687452478816076e-01,-4.695791565390516203e-02,1.554341932359680836e-02,-2.969383114749612335e-02,1.049830392003059387e-01
-2.615498763486514555e-01,-2.538547080239438869e-01,-2.858298455389083337e-01,-1.796970456102488234e-02,1.090899756657344281e-02,-1.001192402089770908e-02,4.961891099810600281e-02
-2.682403224205162640e-01,-2.693956583541908811e-01,-2.671473877548242726e-01,-9.548269575714826360e-03,1.552727268762512519e-02,-1.475402768569194709e-02,4.066488519310951233e-02
-2.751346550607119967e-01,-2.636677941921242718e-01,-2.596430936322321470e-01,-1.983123796246526530e-02,2.237473067992704068e-02,-2.936871712236005516e-02,7.391293346881866455e-02
-2.707413729223258625e-01,-2.634139855591889900e-01,-2.686159819516882319e-01,-9.023317301746137942e-03,8.564597426217233564e-03,-9.191018889570025732e-03,2.757492661476135254e-02
-2.729885219911451499e-01,-2.615648352698567436e-01,-2.677537304614434066e-01,-1.624088304375440051e-02,1.085044129833260228e-02,-1.120310357478404920e-02,4.023837298154830933e-02
-2.703290402103427637e-01,-2.631327645929110726e-01,-2.705762686399428296e-01,4.829201154152806819e-03,4.654251854670523464e-03,5.415360952177492374e-03,1.662993617355823517e-02
-2.659605685508442674e-01,-2.703994196319329246e-01,-2.696872972754558173e-01,4.676750188531454688e-03,4.078373404621794124e-03,4.474860012401657601e-03,1.387940905988216400e-02
-2.720333436866486099e-01,-2.712538919857160891e-01,-2.608897714243587074e-01,8.484427497582758965e-03,6.362938645842717254e-03,7.003159340586766375e-03,2.450818382203578949e-02
-2.570744782529265082e-01,-2.576797923199375395e-01,-2.878154329234072217e-01,9.657986500443587960e-03,1.527334585074911462e-03,1.100268881841550469e-03,3.488875180482864380e-02
-2.667904029449281178e-01,-2.659962407185893496e-01,-2.719634628200379156e-01,2.799181651808265326e-03,3.227913695106936209e-03,3.788210395701875101e-03,1.137170381844043732e-02
-2.693034400646294735e-01,-2.623788696759725703e-01,-2.729803242142641029e-01,5.373715654821861927e-03,5.019753345969629743e-03,4.194389143964749600e-03,1.737621799111366272e-02
-2.669313635073290447e-01,-2.714122170202534767e-01,-2.668073094770108677e-01,4.175868086114307640e-03,3.107727656574781321e-03,2.817644790243241729e-03,1.121401879936456680e-02
-2.893003371108158750e-01,-2.240637220808123220e-01,-2.968055593876295917e-01,2.830114096338956151e-02,-8.184981073246383812e-03,-9.794486351337842317e-03,8.771203458309173584e-02
-2.873317363129897495e-01,-2.158982777095127259e-01,-3.086121083544658972e-01,3.201181239443631060e-02,-4.857185975476600512e-03,-4.391953583166467029e-03,1.013836115598678589e-01
-3.096887123841411960e-01,-1.913669422677257426e-01,-3.034846289471266889e-01,2.725732116322903895e-02,-4.506755472367320048e-03,-1.389817294899441807e-02,1.271760463714599609e-01
-2.940793085424669995e-01,-2.139363087448148681e-01,-2.998301555609285129e-01,2.093204030568639532e-02,-1.049337422152415121e-02,-1.584358534674093488e-02,9.651271253824234009e-02
-2.997794855352818866e-01,-3.070990345526385390e-01,-1.976488744693037369e-01,7.751006180223205672e-03,-4.245262227053989146e-02,-1.588307549344604788e-02,1.325726658105850220e-01
-2.730603081596312820e-01,-2.994710000484433476e-01,-2.317026198407500792e-01,1.028433961195179824e-02,-4.539033890788145287e-02,-8.131903196174834411e-03,1.009792238473892212e-01
-2.759863558978463138e-01,-3.175835226216400242e-01,-2.153348922574499225e-01,2.259724009827841426e-02,-4.801499845320730125e-02,6.678263915459795030e-03,1.285063326358795166e-01
-2.855440724638477201e-01,-3.051039450404363085e-01,-2.212357055590861432e-01,-3.693284261843486800e-03,-2.423395593173774398e-02,-1.463624760783727424e-03,8.709316700696945190e-02
-2.765408588115382815e-01,-2.967974879260118493e-01,-2.318098716728746178e-01,5.572133310021543107e-03,-3.118470483571387369e-02,-9.161477771098681770e-04,7.956389337778091431e-02
-2.844623414662842409e-01,-3.024883755659091844e-01,-2.027184436443665028e-01,1.229598877873708945e-02,-3.991898475946111663e-02,-2.498637730861994963e-02,1.248504221439361572e-01
-2.651626967005447089e-01,-2.753406633840858597e-01,-2.656796454236352578e-01,-1.801008522864350550e-02,4.176976689472541165e-02,-3.484133292437521096e-02,9.973756223917007446e-02
-2.618331262267630244e-01,-2.900679694633499506e-01,-2.518637374260168649e-01,-7.801921100883221771e-03,1.735941062620974945e-02,-5.970132597685476154e-03,4.869973286986351013e-02
-2.639080212437869277e-01,-2.867955991042100972e-01,-2.497580319354593403e-01,-9.499218103275622674e-03,1.828443654556036538e-02,-1.085858017649715679e-02,5.172345787286758423e-02
-2.642742869804646788e-01,-2.844209211129091197e-01,-2.505146519771190849e-01,-1.056581169864364775e-02,1.819690158726295845e-02,-1.069738772340540767e-02,5.043825879693031311e-02
-2.776103012349254162e-01,-2.799732399195289378e-01,-2.380422527087264761e-01,-1.920187564264435806e-02,3.439202942670651492e-02,-2.778477873229379461e-02,9.292612224817276001e-02
-2.633861626671867295e-01,-2.804442310688227691e-01,-2.618033515123001087e-01,-1.355870510211293692e-03,-8.275880715553736921e-04,7.296141522501380181e-04,1.815625466406345367e-02
-2.809463964385073287e-01,-2.976911261180207324e-01,-2.206004561776611361e-01,-1.613059171231090091e-02,3.852580657562246907e-02,-1.995392101061752715e-02,1.065845787525177002e-01
-2.575475860617293389e-01,-2.903927584173428555e-01,-2.558592299652495683e-01,1.769878020736655351e-03,1.021684163253370504e-02,-1.403524856087457070e-04,3.820626065135002136e-02
-2.555170975214444140e-01,-2.882189248084514599e-01,-2.642519447876467975e-01,1.421043071063437559e-03,1.244989664332410949e-02,1.470705027606581186e-03,3.657332807779312134e-02
-2.649350876145878941e-01,-2.916301662583543619e-01,-2.445321350394824567e-01,3.358316780982264615e-03,1.958059934929529816e-02,2.789695874742401365e-03,5.367446318268775940e-02
-3.794945858422221763e-01,-1.641260137234138439e-01,-2.920393728093888530e-01,3.321973338616503874e-02,-1.438801926282335178e-02,-1.175811876810185230e-01,2.839095592498779297e-01
-2.686622328182087238e-01,-2.870877304739405389e-01,-2.427552941489992955e-01,7.393106353554739288e-03,1.949885923560483805e-02,6.543720809564774858e-03,5.404690653085708618e-02
-2.581532437304945304e-01,-2.852759637015861438e-01,-2.608536632660135024e-01,5.578242065953161952e-03,1.119267358586033614e-02,7.362003517118385215e-03,3.607584908604621887e-02
-2.561854751618347081e-01,-2.839853084970336838e-01,-2.642327441280302169e-01,2.837330724190502591e-03,7.370363444145667728e-03,2.751961870786730300e-03,2.870042808353900909e-02
-2.916427050290238410e-01,-2.798068676227670748e-01,-2.346206580140243747e-01,-1.359647845182161349e-02,-8.960916085364718092e-03,1.792256864018772905e-02,6.690171360969543457e-02
-2.962355164244365180e-01,-2.838615089608610420e-01,-2.251002134324191772e-01,-8.665183894875767151e-03,-1.124581024836677351e-02,1.549378728910960970e-02,7.521935552358627319e-02
-2.790404009350450076e-01,-2.639849584228462498e-01,-2.667591085210359036e-01,-1.729474273719596236e-02,-1.576471691991912158e-02,1.979624924843498973e-02,5.487416312098503113e-02
-2.750962132680246919e-01,-2.789874291377641979e-01,-2.533720561213009814e-01,-5.614994123203115133e-03,-9.908894393215350593e-03,8.426469552696925353e-03,3.426037356257438660e-02
-2.775212889656227255e-01,-2.762770985421443282e-01,-2.534805905633887857e-01,-6.969726381150791357e-03,-9.573843700658299025e-03,9.016552123880208769e-03,3.484527766704559326e-02
-2.770951876794837676e-01,-2.337873420095325505e-01,-2.940374341742071906e-01,1.705548952877037824e-02,-7.875166791005912964e-03,-1.366825102893462311e-02,6.719768047332763672e-02
-2.772058150093696383e-01,-2.840890134087524777e-01,-2.484961129766156962e-01,-1.502179221916589286e-02,-2.085412663250457710e-02,2.008871987952231403e-02,6.528060138225555420e-02
-2.860137071777997808e-01,-2.238205181394260501e-01,-2.935497237742284438e-01,-2.592876614678528771e-02,7.009817468376965469e-03,-1.677567681513459155e-02,8.603521436452865601e-02
-2.733593778385312034e-01,-2.283305794319809845e-01,-3.024444103910417514e-01,-3.058459476228582441e-02,-1.174242724798496866e-03,-1.159040985793445642e-03,8.365174382925033569e-02
-2.634367157186154884e-01,-2.517942471059280152e-01,-2.892088834895221727e-01,-1.471290918761877439e-02,8.983289973718288496e-03,-1.351914874606093171e-02,5.039457231760025024e-02
-2.607437801009307443e-01,-2.423923704179504479e-01,-3.005402473049818557e-01,-6.146067397899783458e-02,4.387231685409289338e-03,-8.534399327303520896e-03,1.194125190377235413e-01
-2.730083707943600224e-01,-2.397023377299456748e-01,-2.970724376151511748e-01,-1.812850578818547831e-02,4.290231354850183344e-03,-2.614523361589927378e-03,5.959448963403701782e-02
-2.574359494335520804e-01,-2.572612872028564035e-01,-2.966942265414992952e-01,-2.619666311617400989e-02,3.940490717446794300e-03,-2.591550178805142757e-03,6.061044335365295410e-02
-2.598666043751688415e-01,-2.447459920848573667e-01,-3.007802845440556982e-01,-2.024059491331681865e-02,4.225569771819631844e-03,-4.418128166590730259e-03,6.214799359440803528e-02
-2.926959044882443406e-01,-2.574709631577357105e-01,-2.603599161133515194e-01,-7.422163683589031585e-03,1.038060901273491973e-02,-2.242223715638298406e-02,5.607304349541664124e-02
-2.950162622386253708e-01,-2.594203763781971483e-01,-2.491419114566159887e-01,-1.955345806021583505e-02,3.007546652864111214e-02,-4.282961538479657104e-02,1.053675785660743713e-01
-2.681244144431875753e-01,-2.497840319502785678e-01,-2.789337873789606292e-01,-4.479751262975433662e-02,3.307338342563601735e-02,-3.138867198435832395e-02,1.136186793446540833e-01
-2.935492626031901975e-01,-2.563288815439465074e-01,-2.543522387085230263e-01,-2.146995531181367101e-02,1.921400877152095246e-02,-3.208619422525060133e-02,8.391553908586502075e-02
-2.782758231610932276e-01,-2.517054937734852782e-01,-2.751616777607114317e-01,-1.017757455444361948e-02,7.472639460543955073e-03,-9.515371283317194256e-03,3.718646615743637085e-02
-2.783994343208321398e-01,-2.522456679266873447e-01,-2.751697257831793308e-01,-8.038884580057963081e-03,9.937511639901985133e-03,-1.023491119504032175e-02,3.760818019509315491e-02
-2.899076161664514983e-01,-2.403315033842060577e-01,-2.747899508237423016e-01,-1.505398588589756947e-02,1.524196798879973169e-02,-3.155858179697994259e-02,7.938206195831298828e-02
-2.865561464778401124e-01,-2.530513379205431845e-01,-2.651138952276111960e-01,-1.313970394798295686e-02,7.259511521604445142e-03,-1.699473075454243851e-02,4.905551299452781677e-02
-2.878193075963985104e-01,-2.498722124894179886e-01,-2.716290830188679006e-01,-1.244870938391097123e-02,1.429782250864839940e-02,-1.974663052630733565e-02,5.775565654039382935e-02
-2.621840041183498005e-01,-2.548110258883728996e-01,-2.892697709900740599e-01,-1.262277409012111350e-02,-1.792863163389513083e-03,3.819705460540785582e-04,3.841596469283103943e-02
-2.730034021272043643e-01,-2.347363212032191337e-01,-2.962557058834833223e-01,-2.888877647488250627e-02,-2.837777628174831691e-03,-7.286824428234970827e-03,7.471260428428649902e-02
-2.564160873804529062e-01,-2.636856895126714062e-01,-2.882900953949583678e-01,-1.165313398974219573e-02,-3.370423281791605236e-03,2.467297256341953113e-03,3.601134195923805237e-02
-2.578003270370056166e-01,-2.575759336473268934e-01,-2.953319519687304107e-01,-2.845268348022626792e-02,-6.808366197794448946e-03,4.878605079332242432e-03,6.368849426507949829e-02
-2.368213323711703400e-01,-2.758019968472680272e-01,-3.037778563231252615e-01,-3.943093197802730043e-02,-3.809825003212982675e-02,1.837391410343290274e-02,1.158632189035415649e-01
-2.219567750170752252e-01,-2.853712450099693543e-01,-3.018272473613312079e-01,-2.255598295571872511e-02,-1.281444977901751749e-02,6.136047923405673482e-03,8.641553670167922974e-02
-2.366365262362658539e-01,-2.716651214164346184e-01,-2.979678569423473977e-01,-5.469700835908417047e-02,-8.889735364461838485e-03,3.737002113334875024e-03,1.099747717380523682e-01
-2.670728425651622828e-01,-2.890543615638097585e-01,-2.493336220575642082e-01,1.746533892337726697e-03,-1.308414252448411759e-02,-2.266613534663275680e-03,4.154455661773681641e-02
-2.418118940011641516e-01,-2.652623692664382582e-01,-3.074532057442164734e-01,-5.502362404428201570e-02,-2.364417442299192318e-02,1.476881928163076285e-02,1.213823705911636353e-01
-2.416994239888584639e-01,-2.616502374109273554e-01,-3.002935032111574976e-01,-2.354153545275390613e-02,-8.887691335059976806e-04,3.970677276362895823e-03,6.614062190055847168e-02
-2.866817756662336514e-01,-2.610027670450650872e-01,-2.580000296400365989e-01,-4.878489078561440949e-03,6.158467196161615531e-03,-2.564570700485126545e-02,5.388711392879486084e-02
-2.960595856554948946e-01,-2.561362261761639947e-01,-2.432525611761612305e-01,-1.850305531835256048e-02,1.796535536835050170e-02,-4.133389750898738141e-02,9.692805260419845581e-02
-2.980142099840747960e-01,-2.819156865006010038e-01,-2.199624337747373981e-01,-7.673816080031040793e-03,4.098274538190629229e-02,-5.560343674144026943e-02,1.399477422237396240e-01
-2.634886714280939013e-01,-3.279365657048807225e-01,-2.165366548791024526e-01,3.010843231946853677e-03,-4.790530147061067973e-02,-1.139644692522075176e-02,1.291726231575012207e-01
-2.962893210644824138e-01,-2.734777440192118214e-01,-2.373050164717705190e-01,1.095876531691704304e-03,6.982597174621486651e-03,-6.252819303914276816e-02,1.205536797642707825e-01
-2.983658824380714947e-01,-2.582708427212884184e-01,-2.538596332586336990e-01,-3.059901093568076318e-03,6.747651905848131224e-03,-2.619773167063108726e-02,6.346324831247329712e-02
-2.563537533474760655e-01,-2.610314840346432685e-01,-2.894102811665078545e-01,-1.324337732656447400e-02,-1.569320650595214120e-03,9.684362242986302698e-04,3.868266567587852478e-02
-2.617429458910884299e-01,-2.587284525711393557e-01,-2.834369309738472564e-01,2.920044025470054996e-03,-1.668724124771967833e-03,-6.642574995875927778e-04,2.409087307751178741e-02
-2.602257804100105432e-01,-2.445510298492823420e-01,-2.936726368652159413e-01,-2.326814153330435814e-02,-3.775153917585784107e-03,4.306690446750316599e-03,6.009391322731971741e-02
-2.648641897389303335e-01,-2.533809352533937242e-01,-2.890197659917529416e-01,-1.218061326581615714e-02,1.807693983820359354e-03,-2.876720129647907138e-03,3.837282210588455200e-02
-2.644234216676772942e-01,-2.863611444723198618e-01,-2.549103353757737889e-01,-2.320679524626742193e-03,-1.985376287559871382e-03,1.463520674872970280e-03,2.854584716260433197e-02
-2.637076506559855593e-01,-2.439682668793206888e-01,-2.928374374960852622e-01,-2.176885826267176832e-02,3.409042856952924569e-03,-4.365145138385254607e-03,5.767902359366416931e-02
-2.516568115306435649e-01,-2.519471932632396105e-01,-2.998764492779359414e-01,-2.433110050297743188e-02,-5.019712723593226095e-03,-3.453214135969774525e-03,6.479652225971221924e-02
-2.829873220063950368e-01,-2.748469260842307249e-01,-2.450981318734457293e-01,8.575146402979908627e-03,1.930472910163576541e-02,1.537045564964858307e-02,5.692796781659126282e-02
-2.695027775304781326e-01,-2.890614412285515411e-01,-2.467379673671712681e-01,1.564949826106079534e-03,-6.475520110779884632e-03,-3.027739576662100552e-04,3.846357390284538269e-02
-2.769427299456894143e-01,-2.869358258189415589e-01,-2.378473402964834116e-01,1.446760136107471187e-02,2.770088770295978456e-02,1.804476543837063574e-02,7.697913795709609985e-02
-2.890069960224027068e-01,-2.758190901546509477e-01,-2.404997696227206549e-01,1.049578963651628082e-02,3.898805044064778715e-03,2.132627044771706268e-02,6.023022159934043884e-02
-2.889431610139671092e-01,-2.928970015399395277e-01,-2.207189193455167953e-01,4.675969501498343159e-03,2.041101704409928330e-02,1.500877594610084895e-02,8.325347304344177246e-02
-2.696941860242825784e-01,-2.869739805187723758e-01,-2.483043753928039776e-01,1.470685157008731108e-03,-6.530129130801772160e-03,-6.820214060221983874e-04,3.551814705133438110e-02
-2.891187569973900917e-01,-2.440376246253813664e-01,-2.729045486189060621e-01,1.221939532919892471e-03,-2.196282827020259489e-03,-3.731101284558968091e-03,4.031088948249816895e-02
-3.126387933343704462e-01,-2.859454644726386330e-01,-2.082086740330840180e-01,1.016474325818336050e-02,2.491472214464382842e-02,2.504568938445862064e-02,1.135105788707733154e-01
-2.965040946330633753e-01,-2.760534591955314809e-01,-2.361018317277926715e-01,5.530004582461127763e-03,-3.465490312182524621e-05,1.788786053990828670e-02,6.231428682804107666e-02
-2.581086975171874576e-01,-2.908224804119624585e-01,-2.570574896885328697e-01,1.889448022736080115e-03,3.030392739289799325e-02,3.099146314730623179e-03,6.245153024792671204e-02
-2.680738134411745910e-01,-2.691593702942725597e-01,-2.674006673208603191e-01,-1.326964181724976351e-03,-1.423847111936683016e-03,8.805656825616885218e-04,4.006620496511459351e-03
-2.432683769621367398e-01,-2.868895339898092645e-01,-2.740157630533396893e-01,-1.579223873363341324e-03,3.968371474676866441e-03,-7.102314654647465773e-04,3.953744471073150635e-02
-2.592691505513036732e-01,-2.968901011049520644e-01,-2.554817477038855977e-01,8.372007626080649884e-03,2.753845364217653510e-02,7.168288441701952882e-03,6.489753723144531250e-02
-2.425153125797028242e-01,-3.075112650327388453e-01,-2.443424940392587841e-01,7.359115615331708604e-03,5.122448273410350195e-02,5.846215955211652056e-03,1.106611937284469604e-01
-2.416665880983275005e-01,-2.867046129495101625e-01,-2.815267836962946912e-01,1.421965773701451378e-02,1.580641606543492159e-02,7.867538026614146959e-03,5.799873545765876770e-02
-2.509686010333460060e-01,-2.814548289521848767e-01,-2.723696867401544930e-01,1.119806967174746815e-02,1.244329565293941613e-02,1.271953923746104061e-02,4.539862647652626038e-02
-3.640282476673635803e-01,-3.244972186977336248e-01,-1.480136156513204571e-01,1.363944357148148823e-02,-3.489518898816170583e-02,-9.424115182625014686e-02,2.655956447124481201e-01
-2.635964006420111749e-01,-2.833176239655240125e-01,-2.652015305950349289e-01,1.209083336700164657e-02,1.956814759378197946e-02,1.505406454614628686e-02,5.125450715422630310e-02
-2.451889258343831202e-01,-2.887578305532342293e-01,-2.698934730613841149e-01,1.451656615227363972e-02,1.685593326900951261e-02,1.431936487333092776e-02,5.942984297871589661e-02
-2.324775323719891762e-01,-3.026509106083111744e-01,-2.748999110098635512e-01,6.314294604801927099e-03,5.395490050015697842e-02,1.860737748717537776e-02,1.167850494384765625e-01
-2.571941134246892302e-01,-2.897675940194037736e-01,-2.473684107731005943e-01,1.878169057982955956e-02,4.033896558344089722e-02,2.054213513671343180e-02,9.318542480468750000e-02
-2.536367417928788170e-01,-2.653445716555206113e-01,-2.891328943998030532e-01,1.311099200734565026e-02,6.085193147586951746e-05,-6.955699156477594854e-05,3.869350254535675049e-02
-2.555307242045206650e-01,-2.567915739127408781e-01,-2.916301460167168846e-01,1.040229576113287958e-02,-5.636366342415895410e-04,1.641009829434497344e-03,3.991111367940902710e-02
-2.583703792033829605e-01,-2.620457537401358894e-01,-2.850302376433202500e-01,2.575877929882335396e-02,7.965802223670340187e-03,7.274926439587478533e-03,5.446054786443710327e-02
-2.410346855515691777e-01,-3.022382707646997790e-01,-2.533766486318708155e-01,-1.027516223381283803e-02,4.340525394295803585e-02,-9.896471333664122808e-03,9.698162972927093506e-02
-2.795800713107761126e-01,-2.782660300849048030e-01,-2.479803687470085172e-01,-1.357033644094365193e-02,2.021241546753272875e-02,-1.651222464294265294e-02,5.962208285927772522e-02
-2.700144039241103022e-01,-2.816473919209426802e-01,-2.506392968120900733e-01,-1.436684478889123026e-02,1.410468346059108244e-02,-1.375230515073449719e-02,5.019496381282806396e-02
-2.727874415907904360e-01,-2.877894885197301300e-01,-2.458177147766916204e-01,-1.580868869486172111e-03,2.261351981279853193e-02,-1.245303685613919145e-02,5.799891799688339233e-02
-2.473927306239060708e-01,-2.904818043755258428e-01,-2.642395382145839022e-01,-4.540842915736238369e-03,1.827398044175379543e-02,-6.281780862591850208e-03,5.095709115266799927e-02
-2.636525426991268573e-01,-2.872874721391422415e-01,-2.549731688470610047e-01,-3.264514210408334897e-03,1.341179308845181530e-02,-2.602523300847241466e-03,3.782851994037628174e-02
-2.574669785678495026e-01,-2.892002275766207275e-01,-2.559661294267681630e-01,-3.148509795373166491e-03,1.064918555647141087e-02,-2.620069110978846382e-03,3.804507106542587280e-02
-2.540989041643448854e-01,-2.870830018711074683e-01,-2.652071582537634531e-01,-3.064184496181460680e-03,1.072249401726222545e-02,-3.237402103027550368e-03,3.534789755940437317e-02
-2.961863937625205945e-01,-2.687712157354018583e-01,-2.448821743491865210e-01,-5.511247284195532926e-03,6.884656883606471260e-03,-2.542435860692739136e-02,6.441825628280639648e-02
-2.899210542238751520e-01,-2.663663299295049858e-01,-2.480389264537908034e-01,-5.740864315757718836e-04,2.036988793091884693e-03,-6.722325098783602307e-03,3.835910931229591370e-02
-2.919584494503906780e-01,-2.766693297357021297e-01,-2.330968819514276924e-01,-5.388055318328484333e-03,4.992641944656461481e-03,-1.842716048229668668e-02,6.307973712682723999e-02
-2.507279635062174550e-01,-2.845227516426728220e-01,-2.679148118951585889e-01,1.626908975074648021e-03,-6.024940940961386396e-03,-3.548815978205737201e-03,3.180050477385520935e-02
-2.803066775864843652e-01,-2.612546944760568701e-01,-2.633498696616805024e-01,-6.064188217578598454e-04,-6.179621168964497717e-04,1.044612401145335366e-03,1.824755035340785980e-02
-2.901370885306163161e-01,-2.770857073677514548e-01,-2.368491406804318911e-01,-2.093582627463555588e-03,4.432346796837930911e-03,-1.047566264807916689e-02,5.211302638053894043e-02
-2.859068162621392073e-01,-2.775334541702403346e-01,-2.382923564618967815e-01,-5.647214862538509593e-03,3.804110504642592774e-03,-1.048871497480275035e-02,4.906814917922019958e-02
-2.896104570797097821e-01,-2.771996168989265263e-01,-2.362159609782579495e-01,4.782384782686970558e-03,1.133288129573942551e-02,1.718848039658328608e-02,6.068425253033638000e-02
-2.899996078084701723e-01,-2.778822625978875638e-01,-2.364952106719919733e-01,2.109054359019942645e-03,3.242675846054775702e-03,1.011180685514352987e-02,5.208506807684898376e-02
-2.862757874686753801e-01,-1.826750258315799624e-01,-3.216979685911633968e-01,7.647647687169717434e-02,2.569988891730873304e-02,4.594167125258510204e-02,2.037570476531982422e-01
-2.931237104035690488e-01,-2.640831999732334290e-01,-2.491640233511574487e-01,2.567491529354137001e-04,1.048757240348603507e-02,2.092663050070966632e-02,5.606362968683242798e-02
-2.866729601045537867e-01,-2.656565004400757712e-01,-2.503780570303758557e-01,4.932971874739093196e-03,6.141869343335690278e-04,6.853985079252192421e-03,3.480354696512222290e-02
-2.871399499907850150e-01,-2.663466073948530521e-01,-2.524903247237920145e-01,1.640229441507495270e-03,4.710821903226239914e-03,1.519157430745537996e-02,4.098141565918922424e-02
-2.818757994580632364e-01,-2.653515304541547715e-01,-2.576734805774638093e-01,3.452506730758069225e-03,-9.098219922599526995e-04,-2.255450283250224047e-03,2.263585664331912994e-02
-2.921165888357695195e-01,-2.494988945348201315e-01,-2.633485929198197129e-01,-4.545094807194448826e-03,-1.099326940503296546e-02,2.820244775568373635e-02,6.502694636583328247e-02
-2.875283856726384424e-01,-2.613107265907671506e-01,-2.578085273167597391e-01,-2.973122446856332236e-03,-3.582150212200920121e-03,1.797799369146747470e-02,4.273276403546333313e-02
-2.903398116187363431e-01,-2.521853317031579889e-01,-2.591824370064088612e-01,-5.021818817426144943e-03,-1.216612612196756125e-03,1.037344114843331139e-02,4.050523787736892700e-02
-2.807246942743483187e-01,-2.577532125465701318e-01,-2.658611929589996259e-01,-8.509402938634814950e-03,-9.517097105218358735e-03,1.171666694980301113e-02,3.616589680314064026e-02
-2.798969982187906602e-01,-2.670648835387058884e-01,-2.567178020336419730e-01,-4.930244344772622203e-03,-6.668188312929809909e-03,8.389245033677593735e-03,2.866975031793117523e-02
-2.839496485368773193e-01,-2.785116545543308009e-01,-2.447082459895493500e-01,-4.754711902139437812e-03,-7.359090709671835609e-03,1.037240350951829614e-02,4.369342699646949768e-02
-2.625461543915750262e-01,-2.569453579527163356e-01,-2.879830067043310793e-01,2.378286349338506328e-02,-7.125619715037708433e-03,-5.235820136921772068e-03,5.246243998408317566e-02
-2.155027400991838538e-01,-2.778756294981661878e-01,-3.062721686016223188e-01,4.942683269194216023e-02,4.505301565842461178e-03,8.687550079916372178e-04,1.177289560437202454e-01
-1.988196635674914226e-01,-2.825108350080724473e-01,-3.293581111147481089e-01,6.895468635494972354e-02,-5.136506267379402357e-03,-9.525808920778788477e-03,1.665388941764831543e-01
-2.580209227032378427e-01,-2.839933642990910001e-01,-2.627774148707265889e-01,4.505353650533555545e-04,-3.247295640349734478e-03,-2.202775181806786772e-03,2.490892633795738220e-02
-2.436885826059427274e-01,-2.623019542675800730e-01,-2.931978932631694734e-01,2.435932331405296289e-02,-4.113651644402240189e-03,-3.127612704063010250e-03,6.112558022141456604e-02
-2.247284650765560277e-01,-2.840528076871337571e-01,-2.952098589821937069e-01,3.097319265120172804e-02,-5.591024435887076427e-03,-8.543393678854486334e-04,8.532131463289260864e-02
-2.213261890168563562e-01,-2.815052286582426233e-01,-3.078589514218842416e-01,3.002428926366380868e-02,-1.168760881899338216e-02,-6.827621608256278542e-03,9.568699449300765991e-02
-2.815450993384648881e-01,-2.558388417491469502e-01,-2.677795644598958691e-01,6.602461142863750784e-03,4.175993491971728352e-03,9.104698940366404147e-03,3.046673722565174103e-02
-2.917637109079475599e-01,-1.971149663177704792e-01,-3.592352695210688784e-01,1.247321018842102447e-01,-4.780813977967177109e-02,-7.636697174764456308e-02,3.015356957912445068e-01
-2.820701286784304540e-01,-2.553361098576134025e-01,-2.664616197080657001e-01,4.456374562507931653e-03,4.914814746068199396e-03,4.791654389153324374e-03,2.723929286003112793e-02
-2.807080189551810490e-01,-2.511018170379745729e-01,-2.766289800523843989e-01,1.643374879160783980e-02,1.099450369883698750e-02,7.177075812459039056e-03,4.582328721880912781e-02
-2.789205794175020348e-01,-2.650519722370576758e-01,-2.617969040242171253e-01,2.435496002249409094e-03,4.563583360436470129e-03,5.348390716123183931e-03,2.035108394920825958e-02
-2.525731977756556779e-01,-2.870422167374064304e-01,-2.647180264806384131e-01,2.699061022226144206e-04,-1.567265584612486870e-03,-7.283901622457996782e-04,3.043302521109580994e-02
-2.909276472789790180e-01,-2.467012152400624436e-01,-2.621771170660182615e-01,3.701974803887459441e-03,5.666435062114683237e-03,2.128036211985644133e-02,5.483646318316459656e-02
-2.846456978166953533e-01,-2.484894631969394863e-01,-2.664027114724977774e-01,9.824858661726625433e-03,7.638155599618022540e-03,1.699350796409335521e-02,4.807731136679649353e-02
-2.870504293995154721e-01,-2.333610332123110531e-01,-2.774894212112169467e-01,2.894833684318215417e-02,-1.466391216839119452e-02,-3.393897503873300608e-02,9.526442736387252808e-02
-2.670607865325227981e-01,-2.728023084118560981e-01,-2.612483462071598650e-01,1.517332853981222598e-02,-1.810723491462224582e-02,-2.063656308796170749e-02,5.524518713355064392e-02
-2.948437527846756723e-01,-2.456036294905193373e-01,-2.620908723974408328e-01,9.511453941585817570e-03,-1.040733554151530675e-02,-2.047253285044117396e-02,6.114163994789123535e-02
-2.831115498719787849e-01,-2.524760533764527914e-01,-2.641456848366527943e-01,9.501655034246464515e-03,-9.813856645498022363e-03,-1.728731538247096911e-02,4.662126675248146057e-02
-2.659533661835181140e-01,-2.537186950933453256e-01,-2.847319681436478178e-01,-2.119656526997353452e-03,4.434661280798994957e-04,-1.682012877902088301e-04,2.731715142726898193e-02
-3.031625570568144967e-01,-2.446956142497597742e-01,-2.634771971364934240e-01,1.832525222673405535e-02,-2.501229465055218940e-02,-5.330221191627045052e-02,1.186621114611625671e-01
-3.075694253065829331e-01,-2.428323892575781628e-01,-2.534175998862676082e-01,1.962138675622493791e-02,-2.487100025987468502e-02,-3.683948298682976352e-02,1.034399047493934631e-01
-2.760844600145166416e-01,-2.572726249959422784e-01,-2.684567130945615387e-01,2.783650702961303069e-02,-2.044971169475159889e-02,-3.620126772686711042e-02,8.820065855979919434e-02
-2.928100126764692779e-01,-2.894321789427931058e-01,-2.189889670345983308e-01,-1.547482713357582057e-02,-2.964396470457802968e-02,3.029689890734391100e-02,1.063955500721931458e-01
-3.024851669470864368e-01,-2.938092393631663302e-01,-2.095424807680499879e-01,-2.746538650467261061e-02,-2.519467523191467814e-02,4.091739140341695002e-02,1.307566761970520020e-01
-2.878959746245991491e-01,-3.033302141283443221e-01,-2.079902734270804299e-01,-1.831008310131393077e-03,-4.121695178619162042e-02,1.227778870396939448e-02,1.158240959048271179e-01
-2.698465101970159985e-01,-2.828400179368857348e-01,-2.545494569553006237e-01,5.012350512218466912e-03,-8.593268495490651374e-03,-5.025618410770393320e-03,3.121326304972171783e-02
-2.779176959506859945e-01,-2.910938148905304890e-01,-2.322503155942307884e-01,-6.724735647579568876e-03,-1.322141872878223809e-02,1.048772886336500447e-02,6.205561757087707520e-02
-2.759366376620969730e-01,-3.013082059694067172e-01,-2.168291081290174838e-01,-1.064677141895853558e-02,-4.117717987988438882e-02,1.369394369593079919e-02,1.078256964683532715e-01
-2.775644567048114464e-01,-2.817834279960624855e-01,-2.424612703107187350e-01,-7.477487755705912453e-03,-1.322056773785545633e-02,1.705532378162493909e-02,5.443228408694267273e-02
-2.855173486909189373e-01,-2.990265941229647839e-01,-2.237033474793587995e-01,-2.890935895952977033e-03,-1.819485208848504315e-02,1.144502521057880542e-02,7.905521988868713379e-02
-2.959425616999561970e-01,-2.925420502831768688e-01,-2.198627002913551287e-01,-4.664452586013049205e-03,-1.255365764668041513e-02,1.805182554371385570e-02,8.400391787290573120e-02
-2.822753726289471965e-01,-2.796908805172518830e-01,-2.399224958447459533e-01,-7.710986387618596477e-03,-1.346829096796730262e-02,1.427484618036430411e-02,5.499874055385589600e-02
-2.780426840312661407e-01,-2.827961068265746336e-01,-2.452391400949112399e-01,-1.837004249054641561e-02,3.546996341060450891e-02,-2.730504540911752112e-02,9.098364412784576416e-02
-2.833318684859901238e-01,-2.379235268862376629e-01,-2.833145029614993482e-01,2.931883708326057675e-03,-4.055479046521023000e-03,-2.628940414395569258e-03,4.644342511892318726e-02
-2.838306974911679048e-01,-2.380255162311088468e-01,-2.831510018865401879e-01,-2.856825099303542722e-03,3.608343649996030057e-03,-3.336271079527341771e-03,4.652289673686027527e-02
-2.669857653997832481e-01,-2.828161200029799538e-01,-2.559419831986134430e-01,-2.087948996793958720e-02,1.756351005615724298e-02,-2.171759103982131081e-02,6.477379053831100464e-02
-2.539641759825146949e-01,-2.832532730227402817e-01,-2.711615212567746735e-01,-1.815180217479140865e-02,2.218414358103639600e-02,-2.098426473934420292e-02,6.660176813602447510e-02
-2.838922242715015143e-01,-2.705874389426180526e-01,-2.532182270038664806e-01,-2.837095148216028234e-02,5.378228967864451260e-02,-4.198687309220524438e-02,1.307318955659866333e-01
-2.705498269784604726e-01,-2.658177997130864445e-01,-2.718666997723913070e-01,-9.918748593598659610e-03,6.357796748213686948e-03,-1.052763774533009740e-02,2.791524119675159454e-02
-2.687015400186820724e-01,-2.678417258964069236e-01,-2.635888734595243088e-01,-1.647343807119427614e-02,1.601259291992283146e-02,-1.788892750738459853e-02,5.065427720546722412e-02
-2.872810862925901376e-01,-2.558721754793383263e-01,-2.658126130183320890e-01,-2.732904851184120992e-02,3.322545084981493035e-02,-6.462813253055044171e-02,1.373168677091598511e-01
-2.735526755682027855e-01,-2.694259513084914515e-01,-2.649011133260162909e-01,-5.253827049704348773e-02,2.651450887114834010e-02,-4.824317765477280362e-02,1.320161223411560059e-01
-2.570515891179115942e-01,-2.567541626816872147e-01,-2.881502654452650636e-01,1.080937553687754890e-02,-8.058426528553386649e-04,-9.168764653171392661e-04,3.648922592401504517e-02
-2.627799319692899482e-01,-2.441316190353994831e-01,-2.936583244529078485e-01,2.289292704096542938e-02,8.504189191669401810e-04,1.204330551969833268e-04,5.874977633357048035e-02
-2.603962780195871463e-01,-2.463793495731278205e-01,-3.000902776487077150e-01,3.248158377031782479e-02,3.438049388458245485e-03,4.544435006931011635e-03,7.477333396673202515e-02
-2.543673859684620342e-01,-2.644835873785292835e-01,-2.879074600944214191e-01,1.319518867605170599e-02,-3.318010414502638953e-03,-3.435176906256617348e-03,3.845443949103355408e-02
-2.851271649683629894e-01,-2.573117007646683607e-01,-2.629413255752801049e-01,3.649943419094992328e-03,6.570265839621299616e-04,8.764490099312002847e-03,3.033994510769844055e-02
-2.787397145793057418e-01,-2.682852763515528038e-01,-2.571301877378635026e-01,3.736786703477347309e-03,4.321595671269060426e-03,1.387131954171561205e-03,2.130828797817230225e-02
-2.847556781140762050e-01,-2.738730409694400958e-01,-2.452287287647199332e-01,5.606425440785528687e-03,5.250750591738086691e-03,3.300057510133068504e-03,3.821429610252380371e-02
-2.787952952911109117e-01,-2.782963988423956536e-01,-2.517275732368326469e-01,1.035172546089451091e-02,1.616386624618860665e-02,2.404570822896659466e-02,5.965971201658248901e-02
-2.876845219751650307e-01,-2.749561331849595391e-01,-2.393407233548502933e-01,7.278169872171235538e-03,3.912788891954430831e-03,7.954369524054838783e-03,4.773318767547607422e-02
-2.803194490871487865e-01,-2.754640239482471498e-01,-2.460299730621463565e-01,5.630145375008935825e-03,5.538537699408245356e-03,7.002318706138150120e-03,3.697394579648971558e-02
-2.812727001134157079e-01,-2.567150467858144158e-01,-2.673240325117552940e-01,-1.414090721285933550e-03,3.750110553354115209e-03,-1.803745179527647784e-03,2.265053056180477142e-02
-2.644113497772896948e-01,-2.885512682469625334e-01,-2.541287236273826466e-01,1.027402046995554326e-03,1.209296973475218993e-02,8.619663668327440654e-05,3.712948411703109741e-02
-2.848871121212068758e-01,-2.870454710726981773e-01,-2.353525057949567012e-01,9.459044651976715457e-03,2.247141480907719618e-02,1.778511241932969472e-02,7.278388738632202148e-02
-2.778598735484505422e-01,-2.790660011537734464e-01,-2.456978842841401889e-01,1.202423444190560062e-02,1.419125403085283628e-02,1.580973775813511104e-02,5.350144580006599426e-02
-2.663605648463397424e-01,-2.877957130666686236e-01,-2.501661526248952772e-01,-4.189023951249948113e-04,-1.366176008945804363e-02,-2.131479752682518668e-03,4.053321108222007751e-02
-2.679326938530047220e-01,-2.798243202249661721e-01,-2.533812364118785410e-01,1.038438647394360030e-02,1.795109920000233922e-02,9.207442809907978934e-03,4.550559818744659424e-02
-2.651912084119422697e-01,-2.834362993331698277e-01,-2.588918496860971863e-01,6.797921133300916484e-03,1.100721919845032599e-02,7.294096747653746118e-03,3.390016034245491028e-02
-2.765538475451018163e-01,-2.773476577947721067e-01,-2.478846295808775080e-01,1.448488443876887882e-02,1.507031104709060168e-02,1.542168012935525578e-02,5.356841534376144409e-02
-2.650769372117115497e-01,-2.781871790581506576e-01,-2.629178832403330501e-01,1.072062223057822054e-02,1.707566208173533565e-02,1.338655822691047111e-02,4.429419338703155518e-02
-2.388375049143983686e-01,-2.999008707985573730e-01,-2.707675711982653888e-01,-3.391242266831798885e-03,-5.042575862135257464e-02,2.092617462502440601e-02,1.085126399993896484e-01
-2.472931176418468879e-01,-2.845334890175675868e-01,-2.676230956430181163e-01,-1.182547266367984032e-02,-1.927360441507835337e-02,9.255904808342050108e-03,5.323545262217521667e-02
-2.415990529810781995e-01,-2.851129381646454464e-01,-2.799540819277058223e-01,-1.261634041633367606e-02,-1.630321330794015297e-02,7.294624788995689516e-03,5.594752356410026550e-02
-2.244242307697924266e-01,-2.881772770451859755e-01,-2.855754460094750424e-01,-1.821503255343089045e-02,-2.419522764297682774e-02,1.270347277924317730e-02,8.450485020875930786e-02
-2.479200590317856834e-01,-2.813042937021829615e-01,-2.806867562592293974e-01,-1.595327968545759076e-02,-1.127256081324255754e-02,1.060121368806503719e-02,5.075591430068016052e-02
-2.297933918814384080e-01,-3.060827315259496695e-01,-2.782268734218980577e-01,-2.678253753029614936e-02,-3.987336578389701069e-02,1.702388271810629378e-02,1.107335239648818970e-01
-2.264781283988414051e-01,-3.009449272869068603e-01,-2.677618208645012321e-01,-1.082743287823103966e-02,-3.734000960950786818e-02,6.341739581577947142e-03,9.397108852863311768e-02
-2.394541780914987428e-01,-2.831346130641804737e-01,-2.873951943250461771e-01,2.511093259945313544e-02,1.919213473135027853e-02,1.100565680643116745e-02,7.397500425577163696e-02
-2.539641877252181712e-01,-2.579778627726651008e-01,-2.989900982571533361e-01,2.696654272142941927e-02,9.740832184142612232e-03,1.133670354883762818e-02,6.866236031055450439e-02
-2.344820385442792365e-01,-2.518002928117775152e-01,-3.177653196751931142e-01,5.881134481443114903e-02,1.676902264126108738e-02,2.701092942242210894e-03,1.305201798677444458e-01
-2.083585400669416277e-01,-2.923345029507959936e-01,-2.944333647183462466e-01,4.181798534237411019e-02,2.702360127273529394e-02,1.564296898370012498e-02,1.241119876503944397e-01
-2.652734118713850897e-01,-3.388846889811320540e-01,-1.735879236347648846e-01,-3.469996788907982882e-02,1.021096982365885808e-01,-4.584613705808648909e-02,2.485376745462417603e-01
-3.401137603904974549e-01,-3.254917257280977583e-01,-1.163712265913382782e-01,-1.975376837605914032e-04,4.560981918232604598e-02,-7.909903995516970321e-03,2.311526238918304443e-01
-2.877854501420178956e-01,-3.143887640744714718e-01,-2.003537198127882668e-01,-1.412295405015778554e-03,2.172909431428346125e-02,-1.806894540845110746e-03,1.100466102361679077e-01
-2.853326585541705596e-01,-3.022512064981045521e-01,-2.212173783314820008e-01,-7.286963895954371925e-03,1.685489235685360201e-02,-1.075519479764827299e-02,8.270628005266189575e-02
-2.906134722785080338e-01,-3.067646400372575632e-01,-2.099079676842359188e-01,-7.593056329105719177e-03,3.870961433271864760e-02,-2.434802631952873164e-02,1.205175146460533142e-01
-2.873957153321250457e-01,-3.204411195423957914e-01,-2.050053140819287911e-01,-2.450701134718105689e-02,5.485248859568803842e-02,-3.141834151090341920e-02,1.561803668737411499e-01
-2.955182884576453839e-01,-2.312093811508065255e-01,-2.809718803280398247e-01,-2.325955074296130656e-03,-2.930397735269089921e-03,2.065078193691968420e-02,6.879772245883941650e-02
-2.876932760877716766e-01,-2.361565869440521992e-01,-2.768828948088002395e-01,-3.031629519951755530e-02,-1.952273340517523409e-02,5.485586459101624013e-02,1.230605766177177429e-01
-2.933386113208135693e-01,-2.332378296542415019e-01,-2.772883988845921688e-01,-6.958934268399647946e-04,2.272259289217093848e-03,2.288246670743036837e-02,6.702870130538940430e-02
-2.604433561894967109e-01,-2.608441319939417413e-01,-2.828960334980709646e-01,5.746499573921913864e-03,3.521945412948284358e-03,3.593485731171849190e-03,2.589021623134613037e-02
-2.979400263132885307e-01,-2.255290895512634952e-01,-2.763711016698138789e-01,-1.181104931855452532e-02,-8.040270356344149036e-03,3.179616587846697401e-02,8.827324211597442627e-02
-2.887949049685848424e-01,-2.548448354165842034e-01,-2.628789225765099102e-01,-1.632944966299560222e-02,-6.750906611053838699e-03,2.389715571312169690e-02,5.995244160294532776e-02
-3.285782262955242450e-01,-2.431345338331957484e-01,-2.351294841210548048e-01,-1.377640449926523063e-02,-2.663544227052097590e-02,4.648456506413796430e-02,1.312586665153503418e-01
-1.839903621333904282e-01,-3.185555967299245061e-01,-3.151835035506486693e-01,1.083488418080749346e-02,-8.937819205466724856e-03,-6.932283993649877461e-04,1.351247131824493408e-01
-2.179456326278231548e-01,-2.959019449264149171e-01,-2.946694300984611936e-01,-1.414238032665839822e-03,-5.609517814502543165e-03,-1.252159489652859793e-03,7.802388817071914673e-02
-1.925120850162943542e-01,-3.008064071640907389e-01,-3.036204276115865297e-01,7.499288042667603613e-03,3.383976995039725873e-03,2.131610437035220441e-03,1.107114478945732117e-01
-1.941260170285918907e-01,-2.944745363244652969e-01,-3.192820161130580647e-01,1.235969779615833826e-02,-1.038036802621464076e-02,7.750622444852616963e-03,1.188965514302253723e-01
-2.796885324130489181e-01,-2.768634074536960865e-01,-2.376123723529248999e-01,-2.452834394683174948e-02,-3.838439748815909019e-02,3.828228709217030429e-02,1.108202114701271057e-01
-2.690245444343419279e-01,-2.859434175386815769e-01,-2.536376148186062496e-01,-1.680601174667943273e-02,-2.123006811706379393e-02,1.036567655056768941e-02,5.749043822288513184e-02
-2.799738497937076520e-01,-2.785144062791931052e-01,-2.449216257898967630e-01,-9.359266576104181487e-03,-1.151193921832731511e-02,1.781746126185765680e-02,5.284296721220016479e-02
-2.887114418617143796e-01,-3.160566056404203739e-01,-2.007661804572837272e-01,-1.998145838717721792e-02,-3.993144324883956403e-02,3.193450445307368518e-02,1.411657780408859253e-01
-2.690953409657240725e-01,-3.119790855712989419e-01,-2.242965304059877096e-01,-2.328409410992007822e-02,-5.088100404401880300e-02,4.186047322011652617e-03,1.233399212360382080e-01
-2.544411757546162778e-01,-2.928625413121169196e-01,-2.614872779124657876e-01,-9.270746913364798572e-03,-2.913617565756731337e-02,7.064169610391321172e-03,6.488008797168731689e-02
-2.636504337902082495e-01,-2.910150971617527782e-01,-2.468411855815294542e-01,-3.103830832006798223e-03,-2.141014105049043534e-02,4.027906376290349942e-03,5.425966158509254456e-02
-3.213419071238320379e-01,-1.848294124526866644e-01,-2.986068466274274247e-01,3.798694577644530501e-02,-4.804530863832865567e-02,-1.160576536905357226e-01,2.602136433124542236e-01
-3.363270483808090683e-01,-2.085868739674873740e-01,-2.349549300006660846e-01,2.027146558483406552e-02,-1.853439106073425519e-02,-1.076809545367691523e-01,2.251521646976470947e-01
-3.265189342313319920e-01,-1.907886538366909135e-01,-2.806265961889789495e-01,-2.413209205081744482e-02,1.630769684925671009e-02,-7.436931102037747099e-02,1.828581839799880981e-01
-3.496616286647646898e-01,-1.768939291231831357e-01,-2.612353546194184362e-01,-2.859157999868114711e-02,-1.177783698969736646e-03,-1.083176839279561543e-01,2.450417131185531616e-01
-3.074151326121430383e-01,-2.155556688422712863e-01,-2.784439753599625700e-01,8.627092931625614594e-03,6.557681183143874298e-03,-5.114981546086597858e-02,1.217268034815788269e-01
-3.150974695602124509e-01,-2.329849585973384485e-01,-2.692077242796439562e-01,-1.436931464055160243e-02,6.931570873532425826e-03,-5.125944455153033652e-02,1.171596124768257141e-01
-3.176457004917414562e-01,-2.354564640102432826e-01,-2.643095644958654566e-01,7.655251002463111382e-03,-6.223300474055145151e-03,-5.882912987003359462e-02,1.260585337877273560e-01
-2.661788258653592920e-01,-2.584374167802394595e-01,-2.776135002407859043e-01,1.235677995773235352e-02,1.060055198269910584e-02,1.001217147811984259e-02,3.708257898688316345e-02
-2.664672208699923051e-01,-2.698253349945036184e-01,-2.677334746065241911e-01,1.338697246765807244e-02,9.929943615092095416e-03,1.587414229853258488e-02,3.997546434402465820e-02
-2.675466335419280917e-01,-2.622377636108199073e-01,-2.768507488192524235e-01,7.233457560812995429e-03,5.507578309806869347e-03,4.688038470581613014e-03,2.186428755521774292e-02
-2.674290768735189672e-01,-2.660060656743890029e-01,-2.743846850334339948e-01,2.061251203085903011e-02,1.007719836532847135e-02,1.049658267857358530e-02,4.438597708940505981e-02
-2.644793863128208633e-01,-2.621930095671424210e-01,-2.779310597961394125e-01,4.740636369988711005e-03,6.163781365320355685e-03,4.245652703359227564e-03,2.126981131732463837e-02
-2.612173894988570333e-01,-2.803780682032795402e-01,-2.644747144998228494e-01,-1.176122195738065097e-02,2.315653077482841826e-02,-8.127980049634383336e-03,5.037038028240203857e-02
-2.699336736067418641e-01,-2.702256373997034555e-01,-2.673529186755620457e-01,-1.246828554522802675e-02,1.311531074971279860e-02,-1.689445108081021052e-02,4.296714067459106445e-02
-2.609851253649120850e-01,-2.826793781124427585e-01,-2.672128432574849555e-01,-1.559872777870445135e-02,1.911514284446159256e-02,-1.347352783315553491e-02,5.239326506853103638e-02
-2.747121668348430079e-01,-2.687272363302581901e-01,-2.644160524834208159e-01,-9.789350332298789661e-03,1.127467481930694189e-02,-1.896668640956355317e-02,4.275818541646003723e-02
-2.812150924003465891e-01,-2.537000456155167893e-01,-2.636790883419616871e-01,-2.187950430214484487e-02,2.211861779456229804e-02,-3.336718346152673514e-02,8.261979371309280396e-02
-2.785460399862701442e-01,-2.889617221006213765e-01,-2.390938789309282053e-01,-3.094739971406645918e-02,2.327753053602301531e-02,-4.016267328678514020e-02,1.068351864814758301e-01
-2.888888263963232950e-01,-2.603119956939626278e-01,-2.558155659894394418e-01,-3.516675551647678588e-02,2.440301569303180221e-02,-2.606783543844318901e-02,9.219852089881896973e-02
-2.307626739541452365e-01,-2.729902020960258691e-01,-2.927013083730646836e-01,4.139440292475368710e-02,-2.273244486047393959e-02,-1.297047153057676906e-02,1.009926944971084595e-01
-2.206913250220102207e-01,-2.885650122364269432e-01,-3.031870644361407408e-01,1.904683331519808551e-02,-4.628588923164624926e-03,-5.264623152629085111e-03,8.395749330520629883e-02
-2.121311774543960527e-01,-2.884436783119713743e-01,-3.074810431502162933e-01,2.129035408405560367e-02,-7.667388529632656116e-03,-2.403083910644357966e-03,9.587667137384414673e-02
-2.178171851859800889e-01,-2.702406788300408258e-01,-3.183466661769365769e-01,4.275494633272898526e-02,-2.304025921828025195e-02,-2.307012766786672650e-02,1.275049149990081787e-01
-2.132887023125565329e-01,-2.769387012478005672e-01,-3.068040198069867941e-01,4.194147180301065897e-02,-5.486592773832803596e-03,-3.538908082012941908e-03,1.106766834855079651e-01
-2.659767958880710492e-01,-2.556467996464361070e-01,-2.833953759636956282e-01,1.135895032487538661e-02,3.427155252919934433e-03,2.272344804907016833e-03,3.206015750765800476e-02
-2.282780010587376063e-01,-2.731622052487341912e-01,-3.021445795486172314e-01,2.624896194092400659e-02,-2.425719622642041450e-03,-5.452576273829767665e-03,7.955683022737503052e-02
-2.410126247607071170e-01,-2.651309182107472462e-01,-2.931089849133849956e-01,-2.168102219385405205e-02,2.411592462506190627e-03,-1.601175037567871377e-03,5.894562229514122009e-02
-1.737877634798501991e-01,-3.665235892973853216e-01,-2.975987392044230351e-01,2.269152195652887269e-02,1.182276208726228406e-01,2.137524767711653992e-02,2.710390686988830566e-01
-2.546200927259651969e-01,-2.747372357593743097e-01,-2.749037217341288031e-01,-2.298970428293644914e-03,1.994580786558941381e-03,-4.738403151167478247e-03,2.243266813457012177e-02
-2.507815284418008495e-01,-2.660496839750451370e-01,-2.893324409732034308e-01,-1.287152144403280914e-02,5.861456057341186184e-04,-7.083878220052327538e-04,4.037638381123542786e-02
-2.570872470279985111e-01,-2.641088793710360538e-01,-2.856863870698023722e-01,-2.282522654816800459e-02,-5.950256217490157082e-03,8.074737385847517365e-03,5.031098425388336182e-02
-2.605513105937415363e-01,-2.600857432488255516e-01,-2.856309773127395091e-01,-4.815670415302793217e-03,-7.712592050461361537e-04,5.543463878285758350e-04,2.670507691800594330e-02
-2.589836361562639633e-01,-2.571756917940771769e-01,-2.871584869291379238e-01,-8.709093485527797870e-03,-1.618223552213524487e-03,1.558698645885739928e-03,3.302603587508201599e-02
-2.646953885761057501e-01,-2.544952743448111177e-01,-2.862873469473959376e-01,-1.890415758387316812e-03,-3.688336690382112764e-04,-1.789541196838216586e-04,2.831467241048812866e-02
-2.583751867728738549e-01,-2.582796721604485035e-01,-2.868340483501266025e-01,-8.800689961219909652e-03,-3.284046924095279998e-03,4.382341377909694524e-03,3.368917107582092285e-02
-2.574620505964305139e-01,-2.642993907696830069e-01,-2.849528077202190257e-01,-1.175682046649833591e-02,-3.167778163690302198e-03,4.530174837212867268e-03,3.347936272621154785e-02
-2.615108483230006997e-01,-2.778204358316546108e-01,-2.638751619862533815e-01,-2.355755237059934792e-03,-2.474714346292354421e-03,3.207178152341392304e-03,1.728904247283935547e-02
-2.763036368473471005e-01,-3.278431336729187850e-01,-2.095617888323822176e-01,1.065597234467017358e-03,5.315378553727048011e-02,7.389736233800844184e-03,1.385418325662612915e-01
-3.066270966412624754e-01,-2.767842396559105356e-01,-2.175003644627143129e-01,2.729775551418834462e-03,-4.784560453560130627e-03,-3.478637867995173355e-02,9.947703778743743896e-02
-2.980199582470138830e-01,-2.779328991470481625e-01,-2.316550351430848032e-01,-1.369466177699808773e-02,1.130618030041764463e-02,-2.870779466819879666e-02,8.302559703588485718e-02
-2.899119530109359744e-01,-2.755599331582329059e-01,-2.412698488129981778e-01,-3.992437904204340464e-03,-1.514719896807355248e-03,-2.553470728463063527e-02,6.232726573944091797e-02
-2.918553041696115291e-01,-2.885902469681286275e-01,-2.226994396516316921e-01,-5.127059719700332099e-03,1.120756700255460050e-02,-1.927176521024460618e-02,7.834084331989288330e-02
-3.036709562799876916e-01,-2.896030027279500318e-01,-2.097174519379222946e-01,3.667951954336760249e-04,1.900863305973117881e-02,-2.836916891836044341e-02,1.058406904339790344e-01
-1.855256806916845136e-01,-3.295242427754682124e-01,-3.010591117121015903e-01,-9.415793605971977884e-03,-4.227674060854939159e-02,1.722625539042504580e-02,1.548065990209579468e-01
-2.199789915509630100e-01,-2.958327801228879395e-01,-2.901131657111461482e-01,-1.059012873576629585e-02,-1.406799630812496579e-02,7.766424287121313774e-03,8.039768040180206299e-02
-2.163989084868413459e-01,-3.013709471601679901e-01,-2.917867960213017531e-01,3.039912317064178381e-03,-3.084057940713345186e-02,-1.081229414665380549e-02,9.863864630460739136e-02
-2.197580650623281451e-01,-3.076607401448602230e-01,-2.777550400476120340e-01,9.337166423076827954e-03,-1.938096536751254123e-02,9.617748623658438660e-04,8.592804521322250366e-02
-2.113727006339596870e-01,-2.970000525043463013e-01,-2.934480260167517951e-01,-1.505878535590187643e-03,-1.655761704798653158e-02,-2.401807645092054479e-04,8.871273696422576904e-02
-2.645090984418981273e-01,-2.762665434642164186e-01,-2.629276624691074260e-01,-6.098062195413513076e-04,-8.903344086690381754e-04,5.037070312074457467e-04,1.279011089354753494e-02
-2.118252971012005159e-01,-3.054585781035303871e-01,-2.952061539305554372e-01,-1.247958754175402564e-02,-3.085731279206024164e-02,9.964028359026497542e-03,1.073961034417152405e-01
-2.674372728322709225e-01,-2.678694971909358347e-01,-2.693159554605777384e-01,1.129481958557588335e-04,2.418401585884263016e-04,8.548181817425515912e-04,2.304371446371078491e-03
-2.922243699430900898e-01,-2.028380285926545956e-01,-3.184045635268185070e-01,-4.905402387036408157e-02,-7.231592018293814608e-03,1.911701028728726021e-02,1.395981162786483765e-01
-2.696234797889313639e-01,-2.437487367683204287e-01,-2.961594675390029630e-01,-2.802274458398838416e-02,-5.330875178375094753e-03,5.250874950423709345e-03,6.770572811365127563e-02
-2.946076953633273710e-01,-2.069216835819389921e-01,-3.018384864979137827e-01,-2.847248674138681823e-02,-3.476627333746910246e-03,1.495463750701429015e-03,1.041641831398010254e-01
-2.772448089271039029e-01,-2.340011595139241674e-01,-2.953577254123753715e-01,-1.962164773234497880e-02,-7.230659838970147218e-03,1.641841432664305558e-02,7.142777740955352783e-02
-2.563640200118014190e-01,-2.675385316748477571e-01,-2.814223442313309453e-01,8.328267500139508242e-03,-7.334276480955361291e-03,-6.457091059989050925e-03,3.110163658857345581e-02
-2.629216190615075166e-01,-2.707579844518274714e-01,-2.702509509470240601e-01,1.427673319689150289e-02,-1.308242386336263413e-02,-9.264181379248779755e-03,3.794854879379272461e-02
-2.654945515165191838e-01,-2.688684036158712765e-01,-2.702098028716996003e-01,7.835201958726814922e-03,-1.004339411807081764e-02,-4.501128110827111450e-03,2.377538383007049561e-02
-2.612051695231373261e-01,-2.707819541253972395e-01,-2.707888019864312379e-01,1.013565488950651447e-02,-1.120820008508707950e-02,-9.548943830838950431e-03,3.240976855158805847e-02
-2.513125773841857757e-01,-2.699322683677079504e-01,-2.832216177651362687e-01,1.230410154911547836e-02,-8.668280717154266957e-03,-1.019638810719410496e-02,4.197895154356956482e-02
-2.538748452883674012e-01,-2.710355620126573828e-01,-2.768832009296784413e-01,1.201014048129417366e-02,-9.787904691138941266e-03,-8.322881768793180882e-03,3.683728352189064026e-02
-2.677244136903993432e-01,-2.817350553445564509e-01,-2.563915435029108791e-01,5.981527268851653985e-03,-9.235956633077914771e-03,-5.164317369997803962e-03,3.044286556541919708e-02
-2.635808867974010483e-01,-2.741957189656507587e-01,-2.657295858932888222e-01,6.781048195856732332e-03,-5.955764353319245065e-03,-6.355638915129653739e-03,2.144824340939521790e-02
-2.692845168763354780e-01,-2.749830674185306245e-01,-2.597557370286407985e-01,1.951508849320084116e-02,-1.909534005807290297e-02,-1.940850006300891273e-02,5.953194946050643921e-02
-3.111584471561570364e-01,-3.227409295003643153e-01,-1.532402740312353573e-01,-2.113680937989398986e-03,8.244178933164367229e-02,-7.001283172755204745e-03,2.178343236446380615e-01
-2.678435562017817961e-01,-2.810149751692823106e-01,-2.539312044573523997e-01,7.592232403404475596e-03,-1.204695921450586217e-02,-8.017043786147632842e-03,3.676163405179977417e-02
-2.619530683213976419e-01,-2.887473853270295376e-01,-2.552458444536251925e-01,8.311694111365054011e-03,-2.420884594046538926e-02,-1.410651581578847846e-02,5.920368805527687073e-02
-2.524630049446132118e-01,-2.871601999652644288e-01,-2.651647846010764531e-01,1.727628319685831082e-02,-2.829048785171543040e-02,-9.859079394937670868e-03,6.717576831579208374e-02
-2.792132145484205741e-01,-2.347650130924207879e-01,-2.939421536962353865e-01,-1.967596478928537035e-02,1.870537083837314069e-03,-2.828368352891194940e-03,6.358604878187179565e-02
-2.996347286140415012e-01,-2.956933572524922949e-01,-2.126339578728173862e-01,2.128237920774399923e-04,5.514980099343013038e-03,2.579853131291486804e-03,8.575029671192169189e-02
-2.477083971324911260e-01,-2.347581223769864001e-01,-3.160883246887812859e-01,-5.293095683954700953e-02,1.754507166124786438e-02,-2.272700226923931449e-02,1.288687735795974731e-01
-2.647516396433619024e-01,-2.933499187175898082e-01,-2.468704884626693186e-01,-4.905184891091962304e-03,-1.991332384725399973e-02,1.163643770848064515e-02,5.759332701563835144e-02
-2.886203030966036365e-01,-2.943441888069164847e-01,-2.233476384741476528e-01,-1.861005052054587414e-03,-2.293784273640186999e-02,4.875952096562360776e-03,7.954272627830505371e-02
-2.626994863670234492e-01,-2.905970394061455075e-01,-2.512915311512602945e-01,-1.609253491489877168e-03,-2.935579273885028512e-02,8.161031581754976671e-03,6.339978426694869995e-02
-2.583931183154312694e-01,-3.030131563230323288e-01,-2.490845141581741196e-01,-3.632313631483537197e-03,-3.157898450998990886e-02,1.517419307232857747e-03,7.437159121036529541e-02
-2.782093477262639891e-01,-3.009104810774145267e-01,-2.237643289460392593e-01,7.328691791293575827e-03,-3.137965418550145436e-02,-7.095759754244397935e-03,8.934087306261062622e-02
-2.984671170189505118e-01,-3.081937410691322210e-01,-1.997734056036022943e-01,3.281823953408812521e-03,-2.704779899822735631e-02,-1.171859060597327251e-02,1.159053519368171692e-01
-2.557098211929744180e-01,-3.246778168295164635e-01,-2.275829703130282100e-01,-9.809342446733964466e-03,-4.645076471854506922e-02,-8.017281734687555601e-04,1.193782836198806763e-01
-2.402677623665225304e-01,-2.761715475630096561e-01,-2.926737630588154282e-01,1.968578234716784892e-02,6.975403133329408957e-03,4.168429702127446866e-03,5.928391963243484497e-02
-2.599315765998219674e-01,-2.554484940382446001e-01,-2.932281221110445979e-01,2.529347081374859821e-02,9.259646520905353423e-03,1.114709182189859565e-02,6.186521053314208984e-02
-2.560790007708645399e-01,-2.530523556284322018e-01,-2.933398978106160349e-01,5.777133945382673108e-02,9.961765221787230104e-03,1.848430923861647812e-02,1.133384853601455688e-01
-2.571146051666843291e-01,-2.618890110798323678e-01,-2.916245762308050660e-01,2.562119423177888072e-02,9.323463002987687070e-03,6.080247354426652519e-03,5.822365731000900269e-02
-2.575589552785648162e-01,-2.635106691691226910e-01,-2.798063406381754437e-01,2.272676333738653937e-02,1.784587642002949739e-02,1.338171314991855668e-02,5.865247547626495361e-02
-2.579540019856356725e-01,-2.630742528296480809e-01,-2.804354214657377997e-01,2.439150859995268053e-02,1.559955364686337401e-02,1.369396458131611621e-02,5.910981446504592896e-02
-2.621434550117377471e-01,-2.402302918508155971e-01,-3.010534351760549288e-01,-2.001591259620479415e-02,1.172733478566106253e-03,-3.092967023137945513e-04,6.366425007581710815e-02
-2.523725882441300028e-01,-2.660528509363746519e-01,-2.888482367431849940e-01,-1.181494536569854641e-02,2.115772369958448130e-03,-2.297429248105301632e-03,3.829711303114891052e-02
-2.556544909611419558e-01,-2.559473964994510298e-01,-2.920514060480901009e-01,-9.499204267802990528e-03,-1.116279363067156387e-03,-2.197795252028147267e-03,4.003866016864776611e-02
-2.679950001225910872e-01,-2.683183505456165907e-01,-2.684273856695548743e-01,8.644962073082605898e-05,-8.234625804604175632e-05,-2.221633061426885047e-04,5.852637114003300667e-04
-2.567121712200310379e-01,-2.581380566439597790e-01,-2.866703778942615299e-01,-1.094279513333636621e-02,2.135260526490456636e-03,-2.737440424493276740e-03,3.538648411631584167e-02
-2.819667733606607829e-01,-2.742163718324744370e-01,-2.488557253269137182e-01,3.803306417775454210e-03,1.816255901472758113e-03,3.038320811005263116e-03,3.131728246808052063e-02
-2.664123182076555962e-01,-2.475928526726193790e-01,-2.945501787069226274e-01,3.424756888137720640e-02,2.723539301618362746e-02,3.679318191676988342e-02,1.071478128433227539e-01
-2.338076947975460951e-01,-2.909673088809500707e-01,-2.835693641603721504e-01,3.753592875981537347e-02,2.458497890660409080e-02,8.927262315493379730e-03,9.580332040786743164e-02
-2.479689772062910469e-01,-2.599407129366092528e-01,-2.918304817493588277e-01,3.936810310549738318e-02,2.073270669648639292e-02,1.695391528205479267e-02,9.134242683649063110e-02
-2.680667742247579977e-01,-2.380529850322686269e-01,-3.007390582920707045e-01,4.659195746211541866e-02,2.813102114993917130e-02,1.720420939042483985e-02,1.127979308366775513e-01
-2.656499721805904990e-01,-2.898915965207522483e-01,-2.503848470811930182e-01,6.978862590443007594e-04,1.302382323430160797e-02,-5.565958166566720893e-04,4.125508666038513184e-02
-2.522368130302835576e-01,-2.765817275461266989e-01,-2.774529174899322270e-01,2.642942366636700374e-02,1.858379082301835072e-02,1.925155118014161906e-02,6.970024853944778442e-02
-2.525428691134696813e-01,-2.649496457179223996e-01,-2.845698844241784098e-01,1.935355884530248760e-02,1.240022569879902989e-02,1.002633626949280335e-02,5.166106298565864563e-02
-2.626864430702225417e-01,-2.750022539525990295e-01,-2.718292556869708054e-01,2.311914868421572830e-02,2.319332167910267625e-02,2.233189457283655394e-02,6.954196840524673462e-02
-2.624485594981459946e-01,-2.758709408194935375e-01,-2.660710129874725438e-01,-8.664708672553798592e-04,-1.653929283648794286e-03,2.291926451068382526e-04,1.246101502329111099e-02
-2.703672067784982369e-01,-2.699048988213232914e-01,-2.669068220293007720e-01,8.312421972640775605e-03,8.169653922962524795e-03,9.967420542543580647e-03,2.676108106970787048e-02
-2.774280207591669489e-01,-2.588606223835890341e-01,-2.683559702933047686e-01,8.680839318335740670e-03,1.095819321762977507e-02,1.166258670891011547e-02,3.539732471108436584e-02
-2.653299803017519221e-01,-2.709154276812839601e-01,-2.675755695780190346e-01,5.951723463908694355e-03,1.129048857191026871e-02,7.660606419638378226e-03,2.623826079070568085e-02
-2.768680085077134811e-01,-2.600535331011421536e-01,-2.645472387888173627e-01,7.521699577834013023e-03,6.959209435059674105e-03,7.709402993974413809e-03,2.684557810425758362e-02
-2.743997956920484760e-01,-2.712908247392608052e-01,-2.595845136652192853e-01,5.424940017154701762e-03,8.017241757680036371e-03,5.674286058294458410e-03,2.368140593171119690e-02
-1.850472444303871977e-01,-3.396749329254190042e-01,-3.053239511719313959e-01,-8.212971389003438649e-02,-9.705327522534698548e-02,4.836678951116874653e-02,2.743902802467346191e-01
-2.630967744510571693e-01,-2.750073464537968193e-01,-2.659778912430048603e-01,1.803886411050209179e-02,2.637797574547901328e-02,1.575722073468860049e-02,6.264432519674301147e-02
-2.653854255620852198e-01,-2.991632101831210311e-01,-2.390550416062578731e-01,7.807379094330305427e-03,1.905257808340028031e-02,6.493843997109918949e-03,6.420271098613739014e-02
-2.789978833789912849e-01,-2.893603324225513251e-01,-2.364641843889930262e-01,3.722162769217021890e-03,1.547232189639312361e-02,8.747365098041793435e-03,5.784928798675537109e-02
-2.854411784447563050e-01,-2.884044849386764309e-01,-2.356078585219280319e-01,1.164658105335942759e-02,1.935506157428961566e-02,2.129140527647105721e-02,7.436779141426086426e-02
-2.912027700362434524e-01,-2.571652957366907799e-01,-2.606059945247384824e-01,6.102203984232749609e-03,-9.361037789249303936e-03,-2.697253206612173007e-02,6.008681654930114746e-02
-2.936334016921505752e-01,-2.431811792688809981e-01,-2.643651122106689955e-01,2.048878926687010184e-03,-1.905488406316400117e-03,-2.042540215565879710e-02,5.657284334301948547e-02
-2.951715216694418276e-01,-2.615836110967635353e-01,-2.418278723237656802e-01,1.841835483566308523e-03,-1.648476265733372654e-03,-2.441688338138232883e-02,6.315752863883972168e-02
-2.927400128927716838e-01,-2.947123773781131217e-01,-2.202017971784793193e-01,1.526311556009017287e-03,7.244240659037845878e-03,1.375741669022174669e-03,7.469175755977630615e-02
-2.717996278937853671e-01,-2.652658728239559172e-01,-2.671369008906296916e-01,2.963191346707787048e-03,2.061856720743588008e-03,2.428973886324945364e-03,9.526849724352359772e-03
-2.864494162895694918e-01,-2.508644598874899545e-01,-2.684469635680555855e-01,1.095118825250982093e-02,1.600456144187539786e-02,1.582960646841578486e-02,5.319505557417869568e-02
-2.935597059996150615e-01,-2.377521341482839723e-01,-2.636727713830314124e-01,2.345252752524645476e-02,1.805180626488663703e-02,4.404653063558004039e-02,1.038641110062599182e-01
-2.841202471728919710e-01,-2.950810571366805912e-01,-2.277639101125203402e-01,9.595380464645236491e-04,5.472214783870677987e-03,1.275070128961536438e-03,6.333531439304351807e-02
-2.920784199081570831e-01,-2.581152566615759203e-01,-2.552781828254320762e-01,4.414086835012079671e-03,6.265655766221467533e-03,1.058463249431544455e-02,4.207413271069526672e-02
-3.017913142717075781e-01,-2.094744072150229730e-01,-2.987735890853327470e-01,1.181709035931825455e-02,-8.049223896111764101e-03,-1.092410698587878599e-02,9.604290872812271118e-02
-2.964149813790509791e-01,-2.195904887666454142e-01,-2.898899744906515696e-01,1.798214027585780250e-02,-6.502691540925095194e-03,-1.414916359323396128e-02,8.450338244438171387e-02
-2.921296101910928478e-01,-1.996055920030717634e-01,-3.084432482261115771e-01,4.158256565348183303e-02,-8.224521223383744056e-03,-2.431369211727557947e-02,1.322873979806900024e-01
-2.885425943632652368e-01,-2.083465137133173883e-01,-3.112314782279241299e-01,3.614850166240329843e-02,-1.719904275426609869e-02,-3.850361778453614825e-02,1.342419683933258057e-01
-2.823259793113898630e-01,-2.317626988132172883e-01,-2.893412112872782438e-01,2.380792932889126343e-02,-7.539190996385719892e-03,-1.027038542687538740e-02,7.174946367740631104e-02
-2.521400975740145656e-01,-2.886313933558860567e-01,-2.664441493370820480e-01,-1.146364638268198687e-03,-1.224404441705307170e-02,2.393665864148175441e-03,3.853736445307731628e-02
-2.670161708872887951e-01,-2.841667458712484051e-01,-2.534975583267023991e-01,-4.343548206312268511e-03,-1.452808509751739308e-02,3.791703520368847405e-03,3.796936944127082825e-02
-2.607592319424554828e-01,-2.934095114985984520e-01,-2.540264897735470262e-01,-3.348828238133048744e-03,-2.680686703909075999e-02,3.892002827751651385e-03,5.971689894795417786e-02
-2.874205336349803241e-01,-2.942150404577512646e-01,-2.224492069544982131e-01,-4.572609753496604569e-03,9.388387431485253551e-03,-5.279928670586853980e-03,7.155188173055648804e-02
-3.049321597052573329e-01,-2.878810841417072663e-01,-2.136194706661570519e-01,-7.466437115358064494e-03,-1.463794250826055965e-02,1.690912572152475021e-02,9.348568320274353027e-02
-3.116999898874109332e-01,-3.086350950337926058e-01,-1.880961117821488560e-01,-1.182157180642161298e-02,-2.741742993529361003e-02,1.372683330768586021e-02,1.347150802612304688e-01
-3.025319267778060484e-01,-3.028970310499405350e-01,-2.054637165295786216e-01,-4.870587991072183529e-03,-1.854195594345291881e-02,3.017010686871764852e-02,1.152870208024978638e-01
-2.750478439504528416e-01,-2.495254384984442741e-01,-2.772238652083741095e-01,-1.129642148712544161e-02,-1.188226044012377462e-02,1.390444864411717260e-02,4.580456763505935669e-02
-2.668481491381744508e-01,-2.702783699931704531e-01,-2.699948289037342186e-01,-5.047351295178969209e-03,-8.237652032969996346e-03,6.475282822247981247e-03,2.041240036487579346e-02
-2.677002523689226421e-01,-2.598306162857289547e-01,-2.774181929961658244e-01,-8.105275250694005812e-03,-5.407747546202829568e-03,6.221216236801325843e-03,2.517487667500972748e-02
-2.743821409159868940e-01,-2.626135984112534794e-01,-2.678181186565544714e-01,-5.235423486525809557e-03,-6.311834035093172833e-03,5.458046338145820624e-03,1.988601312041282654e-02
-2.734783913036064606e-01,-2.626913535114100418e-01,-2.683041424117190155e-01,-5.642310720917633957e-03,-2.338540783379177129e-03,4.653382725462721324e-03,1.625402830541133881e-02
-2.781777066845593782e-01,-2.551353315778019382e-01,-2.687107935184068763e-01,3.150358696177762811e-03,4.990883454459409986e-03,4.402357866308069523e-03,2.377134002745151520e-02
-2.659381359904470221e-01,-2.683387711156337008e-01,-2.704551020639266445e-01,-7.821881344709464895e-04,8.234823344335899260e-04,-1.994429100263264525e-03,5.579024087637662888e-03
-2.735469795417879713e-01,-2.672837397228374767e-01,-2.653426481948383264e-01,-1.265385902039176634e-02,-1.670506880986641352e-02,1.506062158367746720e-02,4.531179741024971008e-02
-2.674891373633955238e-01,-2.663365842318179966e-01,-2.722202628038047911e-01,-1.017531358753214453e-02,-8.406572421230719752e-03,1.158788660983406903e-02,3.089699894189834595e-02
-2.981677097884843919e-01,-2.143550063156026697e-01,-2.894203005525513572e-01,-2.501960956117851159e-02,-2.219198247961080839e-02,4.685621199840649814e-02,1.277100294828414917e-01
-2.870168699283499603e-01,-2.399036470885758665e-01,-2.786439878230415612e-01,-5.842914985353483970e-03,-1.432986005190706007e-02,1.665869203171224319e-02,5.870500206947326660e-02
-2.676216192225720492e-01,-2.772582151970719999e-01,-2.564096788024340934e-01,9.685120378849665368e-03,1.233185240009255189e-02,1.044580034477935598e-02,3.730401024222373962e-02
-2.747593489866951844e-01,-2.786878114347616231e-01,-2.496396444875231269e-01,2.122425065102738831e-02,-2.952098919780948849e-02,-2.914902252530407467e-02,8.520554006099700928e-02
-2.755547308309087007e-01,-2.793343094430463802e-01,-2.501678015995304483e-01,7.508852670797701995e-03,-1.336155698293189920e-02,-9.611905150504116563e-03,4.167303442955017090e-02
-2.805322113510280713e-01,-2.900619925698010859e-01,-2.287110218574017750e-01,4.851782119629850960e-03,-1.743490502844205481e-02,-9.529810358246855462e-03,6.726883351802825928e-02
-2.610503094340631547e-01,-2.839900040861744190e-01,-2.585254394981177373e-01,9.449242838972015182e-03,-1.338938857842745384e-02,-5.674709156832815835e-03,3.863706812262535095e-02
-2.667195430232096043e-01,-2.947319313808268171e-01,-2.464459566422727288e-01,4.651804551618867606e-03,-1.350660332954603700e-02,-1.234757263122552049e-05,4.874245822429656982e-02
-2.753303470091805760e-01,-2.853146118675694565e-01,-2.427810652740982067e-01,9.564699480770951986e-03,-1.661718949067021722e-02,-1.817600290657766030e-02,5.981694161891937256e-02
-2.747342808188986130e-01,-2.829473037341467268e-01,-2.510230973072629101e-01,1.190959098931155570e-02,-2.421033226544701961e-02,-1.533599496554035116e-02,6.094200909137725830e-02
-2.676396583710454191e-01,-2.846376403499111807e-01,-2.476265334376170357e-01,9.405752595137291741e-03,-1.763377414427828166e-02,-1.223077018904242599e-02,5.173653364181518555e-02
-2.847541282210168667e-01,-2.924476001762168487e-01,-2.265946619043517629e-01,1.076107592105201953e-02,-1.378940724820021044e-02,-1.326047092789638983e-02,7.303784787654876709e-02
-3.035163290961040983e-01,-2.412937464387862885e-01,-2.598096451979575172e-01,7.149967478468624224e-04,6.580178055002611085e-04,-2.032511486654444907e-02,6.560903042554855347e-02
-2.944717053957537911e-01,-2.617713311172508162e-01,-2.420567482711982465e-01,1.840764977292997772e-03,-1.618976112522112123e-03,-2.445331713504700702e-02,6.256657093763351440e-02
-2.837966236312299828e-01,-2.620319645527367514e-01,-2.601233000484514113e-01,-2.118103544044512652e-03,2.117166906453773340e-03,-3.880158027500986602e-03,2.430962771177291870e-02
-2.909259814117426401e-01,-2.664410352883065936e-01,-2.468616465265104643e-01,-1.649570482261335626e-03,-1.786540686380787149e-04,-6.050366754364302525e-03,3.975355625152587891e-02
-2.680180306228188147e-01,-2.684262910464276231e-01,-2.679887590855153934e-01,-2.620398061010920077e-04,-7.380966025030387683e-05,7.625328648150003839e-05,6.475072586908936501e-04
-2.927783279177463838e-01,-2.647144838521984789e-01,-2.473757342377229107e-01,-1.117795924798970289e-02,4.736304936127727627e-03,-1.999116541735547134e-02,5.670874565839767456e-02
-2.930337177665500170e-01,-2.457272856166350383e-01,-2.616960288012102342e-01,-3.122844279617767362e-03,3.315274308875953892e-03,-2.131127599573665390e-02,5.623358488082885742e-02
-2.858223988115949910e-01,-2.554748414925539501e-01,-2.646237597840343514e-01,-1.194544266894198223e-03,-9.166772233048182863e-04,-1.123828762138034260e-02,3.335758671164512634e-02
-2.887754672823993896e-01,-2.653725906323986528e-01,-2.536084906035778741e-01,-1.562571653675158719e-03,2.104568457042362960e-03,-1.159004479623499534e-02,3.721562027931213379e-02
-2.834474621435551511e-01,-2.657867767962263650e-01,-2.570545752881515655e-01,-2.072159290589722924e-03,4.061742418361152275e-03,-9.831108855165414037e-03,2.991144731640815735e-02
-3.152129093213751343e-01,-2.945642450461016804e-01,-1.930493133535519656e-01,-3.215826284309871406e-03,4.407897793449511853e-03,-1.376413943440541257e-02,1.161269322037696838e-01
-2.999816754586193679e-01,-2.993200141482662002e-01,-2.010315473393202157e-01,-1.140753453975687330e-03,6.274103158426404432e-03,-4.154045154674142724e-03,9.949804097414016724e-02
-2.990328510390661831e-01,-3.053869437823025779e-01,-1.920795290635889385e-01,1.996836686604427924e-03,-1.490567570048259918e-02,-1.169120584456837322e-02,1.150979176163673401e-01
-2.927665174822687844e-01,-2.962757425770560227e-01,-2.183495684774331147e-01,-5.486024373088039998e-04,-1.851418036811519185e-03,-7.969704246309149490e-03,7.754403352737426758e-02
-2.688567817181271025e-01,-2.705991390634452931e-01,-2.658064035162228667e-01,-8.161962728310016499e-03,9.684186748498717009e-03,-1.084230582262106501e-02,2.918091043829917908e-02
-2.619262173814878580e-01,-2.614104445271648869e-01,-2.808224612529708342e-01,3.816052839826162071e-04,-3.857047712742019000e-04,-8.297631692766154745e-04,1.923613622784614563e-02
-2.669878673113295076e-01,-2.623697388674831044e-01,-2.743765783795827362e-01,-1.031160059867502164e-02,8.770524221267880782e-03,-8.831900809808231056e-03,2.989654242992401123e-02
-2.782632815068953325e-01,-2.591856649439276405e-01,-2.653574027211586528e-01,-6.503437465666807131e-03,6.441887075365462442e-03,-7.073156127070985393e-03,2.618721500039100647e-02
-2.775931513963863506e-01,-2.594324845916539113e-01,-2.667410643528376757e-01,-6.620918809784455579e-03,7.494451116479611610e-03,-1.131759832601530839e-02,3.057401999831199646e-02
-2.800115124566093794e-01,-2.653937998461431413e-01,-2.620391155538647210e-01,-1.363400160924985519e-02,1.552152354250328770e-02,-2.206843769530253060e-02,5.491291359066963196e-02
-2.776532334004879199e-01,-2.678334795608035557e-01,-2.574869023645159904e-01,-1.008252597342373241e-02,1.021614133074278709e-02,-1.242272752974277888e-02,3.723080828785896301e-02
-2.719833810175716904e-01,-2.656930655559272547e-01,-2.662601236758269097e-01,-3.758961480020576139e-03,3.855438852338678897e-03,-3.090193195505971848e-03,1.232692692428827286e-02
-2.707066853207927837e-01,-2.690744266712911115e-01,-2.656121697964458073e-01,-4.090408174278096533e-03,4.279633241338320557e-03,-5.061272450609447665e-03,1.422295067459344864e-02
-2.826066619979136774e-01,-2.703849302953935108e-01,-2.504690796839050271e-01,1.265761276027749932e-02,-1.217223344395528158e-02,-1.295273052057552624e-02,4.709430038928985596e-02
-2.581669908865766860e-01,-2.848444917125617648e-01,-2.602973185272521306e-01,-1.320695514761012230e-03,7.381749907054636212e-03,-1.175454956542488268e-03,2.884864062070846558e-02
-2.989110492602743974e-01,-2.352040530328519674e-01,-2.754345660081085057e-01,-4.145409330411616651e-04,7.324106703883278202e-04,-2.010766886714793200e-02,6.579658389091491699e-02
-2.804599498200969210e-01,-2.671096602109044871e-01,-2.583537945715854156e-01,5.917538427663720374e-03,-6.074329857841862489e-03,-8.268337940429890814e-03,2.815367095172405243e-02
-2.822479870756974263e-01,-2.595003613633575790e-01,-2.610573324714324794e-01,5.526965529217913418e-03,-5.979168972802733316e-03,-7.444658870910430409e-03,2.914830110967159271e-02
-2.805752388352835691e-01,-2.585611914367934583e-01,-2.663565336635059233e-01,5.649533160805737635e-03,-5.995647520400236574e-03,-9.701333200467197881e-03,2.932100370526313782e-02
-2.837983151435844453e-01,-2.580116819214676727e-01,-2.647103377436268445e-01,3.256027245344933919e-03,-2.203320934686421508e-03,-1.097730872835799010e-02,3.074019588530063629e-02
-2.640893832505599725e-01,-2.663021450982042682e-01,-2.748726163105879583e-01,8.754689652287715447e-05,-7.566053990758932462e-04,-1.745962006860961443e-03,1.040188409388065338e-02
-2.902241484041783171e-01,-2.569998528094420420e-01,-2.569567555749064924e-01,2.083339076746614296e-03,-2.588157774095434238e-03,-9.107017136206388419e-03,3.724536672234535217e-02
-2.928150923250110726e-01,-2.571065939776236431e-01,-2.519069373533490697e-01,1.745021441263545220e-02,-1.639048126543453388e-02,-3.302404456502579938e-02,8.049248903989791870e-02
-2.928348479845301888e-01,-2.601137251584569321e-01,-2.462626187969556568e-01,1.959765948186062683e-03,-1.519898215845968481e-03,-2.161155507030690717e-02,5.599445477128028870e-02
-2.507977090902893669e-01,-2.413052720915528360e-01,-3.146023710225489545e-01,-4.210378382247560725e-02,1.972937930778623575e-02,-9.760895566005189233e-03,1.074176877737045288e-01
-2.382111462139793467e-01,-2.652913656865026892e-01,-2.992540558029359032e-01,-2.349607989706387762e-02,2.348633773127385173e-03,5.831252183591996083e-03,6.768511980772018433e-02
-2.097221039513336716e-01,-2.713943225173856555e-01,-3.280481186445716735e-01,-4.275838628446392009e-02,1.060753539902020877e-02,2.027869065277937421e-03,1.278351098299026489e-01
-2.303818313738237866e-01,-2.786918114776381628e-01,-2.942465091993209381e-01,-2.020336771640441134e-02,-4.960818201578761147e-03,3.717455016045926458e-03,6.831592321395874023e-02
-2.326019196513040843e-01,-2.771776795614767086e-01,-2.988243069729911161e-01,-1.734614628640849740e-02,3.695301048334016271e-03,-1.412589025704851344e-03,6.610679626464843750e-02
-2.177584364413749363e-01,-2.754951958776449827e-01,-3.024755426576258288e-01,-4.341775381988798727e-02,1.270841365255182681e-02,-9.346716855123962664e-03,1.096409112215042114e-01
-2.413230134906274860e-01,-2.746435401312212754e-01,-2.947059280274802462e-01,-1.664017828913920069e-02,8.216497782825737950e-03,-4.284349345368836624e-03,5.717982351779937744e-02
-2.534683155731008442e-01,-2.657467086759625619e-01,-2.873598124852757563e-01,-1.125715789450677795e-02,3.061804041444087313e-03,-5.143908155228033539e-03,3.702611848711967468e-02
-2.614548005560208277e-01,-2.579838440042144243e-01,-2.887343188484082779e-01,-2.476186971038930526e-02,4.533949286745627902e-03,-7.556536955187442145e-03,5.406782776117324829e-02
-2.475673852803668973e-01,-2.608193391953737561e-01,-2.927394016215285055e-01,-1.986393129445489930e-02,5.837295812398777747e-03,-7.138850448102520771e-03,5.528423562645912170e-02
-2.483843316912180410e-01,-2.947184716333545174e-01,-2.616218070052067635e-01,3.489026061733904033e-02,-3.230646560513728005e-02,-2.575886840753718876e-02,1.023836359381675720e-01
-2.889114111446751121e-01,-2.338017119265341504e-01,-2.837018449537846987e-01,2.728358919379680631e-03,-2.943769299110040498e-04,-2.883663494752902994e-03,5.314752459526062012e-02
-2.339300875045316475e-01,-2.867323006052488465e-01,-2.849544532008598807e-01,2.642881329970952001e-02,-4.358678204663353484e-02,-1.109798588722848110e-02,1.042196005582809448e-01
-2.579769757029986010e-01,-2.708416494917897932e-01,-2.666946084660231087e-01,3.851177181617103373e-02,-3.254932990639199109e-02,-2.831195923485388399e-02,1.008062213659286499e-01
-2.196148888857531178e-01,-2.794517468839380903e-01,-3.080692753017419405e-01,-8.089143364407104519e-02,6.214719363534797203e-02,-5.826317440722950103e-02,2.179740369319915771e-01
-2.712852897167760680e-01,-2.692071699780785865e-01,-2.633528993773045501e-01,3.427237971551897171e-03,5.878723650450309044e-04,1.421902396595775379e-03,9.648679755628108978e-03
-1.949452881677528060e-01,-3.119382451955589608e-01,-2.904729248173366085e-01,-5.052888017687458266e-02,8.856349068256584578e-02,-3.556726144756284375e-02,2.159210294485092163e-01
-1.409074840015364372e-01,-3.310229338088853113e-01,-3.100545772161233948e-01,-4.283838351196025268e-02,7.154864268014654582e-02,-1.404129159540094471e-02,2.324900627136230469e-01
-2.749588736402893141e-01,-2.645404267829293832e-01,-2.656849153850997514e-01,6.759415104348869561e-04,6.738296362072546597e-04,8.396170535905635949e-04,1.013793889433145523e-02
-1.792863503590835239e-01,-3.617263577349011383e-01,-2.768757551952317764e-01,-5.827349609205982606e-02,1.046164778626642450e-01,4.897442641418017772e-03,2.609540522098541260e-01
-1.911217094259459182e-01,-3.176952969735064025e-01,-3.058702068956512532e-01,-3.266444786209758699e-02,1.208342316277732642e-01,-3.307961304584064455e-02,2.548536360263824463e-01
-1.972786508708193054e-01,-2.965835934241340399e-01,-3.098182973015455866e-01,-8.455436116456939433e-02,5.970388109647001285e-02,-2.545947913865262424e-02,2.131605893373489380e-01
-2.790544914991552328e-01,-2.698662740444217611e-01,-2.577444148636776622e-01,1.307937855689332400e-02,-1.794931929180397165e-02,-2.074172612878043970e-02,5.579555034637451172e-02
-2.788875992038053475e-01,-2.775669689308609689e-01,-2.462710393189343483e-01,1.523552733029494982e-02,-2.251021731741723736e-02,-3.185758232992796923e-02,7.926991581916809082e-02
-2.754905549906830342e-01,-2.880831988925370846e-01,-2.434101795501608656e-01,7.862848195956987155e-03,-1.830975194579071569e-02,-1.115370376469583188e-02,5.617945641279220581e-02
-2.831572469971315176e-01,-2.754144837570557947e-01,-2.478972781987111018e-01,8.363642503977785844e-03,-1.283186146715451642e-02,-1.302044175047624777e-02,4.735634475946426392e-02
-2.637122780043321124e-01,-2.911531615679869844e-01,-2.466594716639750051e-01,8.639313980195772666e-03,-1.920366922406833987e-02,-1.118422590416904769e-02,5.672090500593185425e-02
-2.600288385882062459e-01,-2.889401838007773504e-01,-2.613697632999175124e-01,9.772218523759817685e-03,-2.673376539102011520e-02,-9.228485199860414490e-03,5.903356894850730896e-02
-2.831721144955409719e-01,-2.757882713978955791e-01,-2.508858399211361112e-01,3.501454515479403284e-02,-3.111877285448155089e-02,-3.023923739131632871e-02,1.009205207228660583e-01
-2.935095212662628406e-01,-2.209063745282982272e-01,-2.848532693002323035e-01,-2.401615564745544426e-02,1.255944725215095599e-02,-4.131006127037820108e-02,1.097305193543434143e-01
-3.084508660442955019e-01,-2.160632260948570083e-01,-2.831749437103900924e-01,-2.616862876951149899e-02,4.720874587319011904e-03,-4.228518314168419612e-02,1.196851134300231934e-01
-2.874012268647860302e-01,-2.435208065532072086e-01,-2.682317239412864707e-01,-7.185059252287981021e-03,5.926274585961447371e-03,-1.907800906456961348e-02,5.295228213071823120e-02
-3.144469793130298951e-01,-2.085401065080595973e-01,-2.839964081452558964e-01,-5.906232017290972448e-03,3.889774591361625823e-03,-5.327840468969465004e-02,1.326061338186264038e-01
-3.113014499278373148e-01,-2.455436376035300960e-01,-2.436482283103986179e-01,5.779697647559821176e-03,-9.549718922652597128e-04,-4.593107570163484921e-02,1.043276637792587280e-01
-2.909425315297588521e-01,-2.448950300154970616e-01,-2.672494638378302145e-01,-7.480532121021253589e-03,2.213790618908870970e-03,-3.058053310870119390e-02,6.766691803932189941e-02
-2.788291405700256131e-01,-2.847673862195811423e-01,-2.418719884923124230e-01,-3.872060727904469424e-02,-4.405823469917686391e-02,2.901047174099549014e-02,1.202772483229637146e-01
-2.951839610845543027e-01,-2.712972935312709111e-01,-2.395236025820242642e-01,-1.148856039965643130e-02,-9.974536543313674425e-03,2.730884811047436245e-02,7.260070741176605225e-02
-2.519182740441126556e-01,-3.107291279823516938e-01,-2.440891323573292082e-01,-8.814889277600034337e-03,-5.470439821186198065e-02,2.850822298370517954e-02,1.250177025794982910e-01
-2.660553271984499313e-01,-2.981143667755126181e-01,-2.338526727331652622e-01,-7.903945693524526764e-03,-4.983336860862038614e-02,1.027227953967242875e-02,1.051249206066131592e-01
-2.802778878081849112e-01,-2.805491788718959545e-01,-2.464402914307076142e-01,-1.235459575923673718e-02,-2.000784822080798123e-02,1.260615349759960924e-02,5.735705420374870300e-02
-2.799415942140179858e-01,-2.802467691816249440e-01,-2.407344147217435892e-01,-7.521787228174576720e-03,-1.520358095878770674e-02,1.401367315117017093e-02,5.478675663471221924e-02
-2.732995452298390693e-01,-2.655895086838789276e-01,-2.659093801233627929e-01,1.472943804262378099e-04,1.337414819143447611e-03,1.756701456599920469e-04,7.912298664450645447e-03
-2.963033823862662453e-01,-2.179715486523167156e-01,-2.903419543027908611e-01,-1.141293442941517189e-04,1.922053398564616163e-03,7.591654753470136741e-03,7.673634588718414307e-02
-2.984990777694845332e-01,-2.291868850059731733e-01,-2.765443372259964172e-01,3.914957021932928723e-03,1.827625279989031348e-03,1.583874047835170593e-02,6.762439012527465820e-02
-2.902488931793191784e-01,-2.345260639744110032e-01,-2.788398018560730440e-01,9.889747788718087317e-04,2.073941904951365298e-03,7.148126696751145800e-03,5.261728912591934204e-02
-2.776299844784582138e-01,-2.629239984234640337e-01,-2.637231453070404408e-01,-1.491060901327232303e-04,1.589242569462606669e-03,3.344621795104830812e-04,1.459903363138437271e-02
-2.709704582062059663e-01,-2.651933140236604203e-01,-2.682076746592086391e-01,5.144205323932670403e-03,7.246578519475528612e-03,2.582759132233565253e-03,1.679245568811893463e-02
-2.720305819016918258e-01,-2.643000198656595967e-01,-2.662903258920837346e-01,4.378148039818869665e-03,5.176943478808099762e-03,5.644852527836460854e-03,1.678798906505107880e-02
-2.734209820498702537e-01,-2.666955273917088198e-01,-2.647220682757700505e-01,1.454836288305025403e-03,2.087689960181851774e-03,2.129077440511484981e-03,9.768448770046234131e-03
-2.719114588520141762e-01,-2.700642977841352099e-01,-2.627287622031220793e-01,5.067691829754066707e-03,4.868848297055618224e-03,6.723943820940256333e-03,1.882997155189514160e-02
-3.133117129538961487e-01,-2.633501065573950473e-01,-2.203226281128503050e-01,-1.069739150317428750e-03,6.917302241551117822e-03,6.772866034814585545e-02,1.428486704826354980e-01
-2.843012010882736695e-01,-2.740094915842094525e-01,-2.453411323128624755e-01,4.957369565557481587e-03,3.745000358440555947e-03,4.380046371049940192e-03,3.736571222543716431e-02
-2.928732104006657178e-01,-2.482534810232553679e-01,-2.620341694110151498e-01,-5.335566619138493866e-03,-7.685962133302895807e-03,1.879081710785678386e-02,5.373870581388473511e-02
-2.723757066945724503e-01,-2.601275003376795625e-01,-2.707003246987869094e-01,1.715593216809281531e-03,3.678257587365033228e-03,2.742251887683096103e-03,1.429277379065752029e-02
-3.047379533005979968e-01,-2.367245710334905939e-01,-2.538121643109185754e-01,-1.604950806834586421e-02,-1.798860434523554333e-02,5.458927723328856757e-02,1.201628819108009338e-01
-3.057590647284068597e-01,-2.709331717228781189e-01,-2.388736202972926437e-01,-8.380987684739509350e-03,-3.992649091001714001e-03,4.021916287542214724e-02,9.202418476343154907e-02
-3.004344334196143440e-01,-2.688079575542389743e-01,-2.396855066858706029e-01,1.674485881590803693e-03,2.274151663440476465e-03,4.460317294895693729e-02,9.360367059707641602e-02
-3.116670864940857544e-01,-2.495773032067450659e-01,-2.445403322941145929e-01,-1.044533169186669108e-02,-2.954265520993691087e-03,3.499321011386382491e-02,9.066602587699890137e-02
-2.746550621993519847e-01,-2.846425880687365462e-01,-2.436994143632132681e-01,-4.507915937733393899e-03,-3.831728458797341655e-03,4.110565988842720432e-03,3.902401402592658997e-02
-2.633709047651785484e-01,-2.712015595062590712e-01,-2.709788612869226121e-01,-3.929568628789880010e-03,-8.124051340400950671e-03,6.348944448672191009e-03,2.061255276203155518e-02
-2.634452868650292157e-01,-2.833274352066373347e-01,-2.594864270276976970e-01,-8.048955931516079548e-03,-2.540409223514532994e-02,1.926798090135168826e-02,6.110572069883346558e-02
-2.665080383828684063e-01,-2.833079420794244463e-01,-2.539568119390283596e-01,-1.001359293009828656e-02,-1.274222602939521602e-02,8.346078470523031825e-03,4.058952629566192627e-02
-2.467897597731981696e-01,-2.855057162583860553e-01,-2.668372365049084816e-01,-8.992284140512500634e-03,-1.962014076203685495e-02,8.960962115258264138e-03,5.256423726677894592e-02
-2.585795387236055065e-01,-2.810175422868754214e-01,-2.667163647421059158e-01,-5.880424532653762658e-03,-1.077221681206201771e-02,6.274864028541373047e-03,3.093670494854450226e-02
-2.594226711367486615e-01,-2.830107656586426934e-01,-2.609449103361858868e-01,-5.577967524650596053e-03,-7.600090794763078583e-03,6.061003760844878123e-03,2.999402023851871490e-02
-2.465891485365385161e-01,-3.113771782001147348e-01,-2.565950753241049709e-01,-1.585993202389848755e-02,-5.293781335659718951e-02,1.838582479361433250e-02,1.175810694694519043e-01
-2.219013454941524688e-01,-2.772993302902527768e-01,-3.100725770404300641e-01,-2.911720853591573399e-02,1.623491378742390745e-02,-6.650622237424124762e-03,9.708470106124877930e-02
-2.239299176778098421e-01,-2.662845649848428198e-01,-3.039729979809783211e-01,-4.635473880624055298e-02,1.345991484179055557e-02,-1.086063618650588355e-02,1.102463975548744202e-01
-2.191358521787579450e-01,-2.885276986727604576e-01,-3.003072100027645575e-01,-4.776557705601712500e-02,-6.422145962003965834e-03,-4.684754389221649877e-03,1.131618767976760864e-01
-2.672223647409921465e-01,-2.770322813352233959e-01,-2.616339119622687615e-01,-3.795320463157266476e-03,6.992956575113538215e-03,-4.467415609330995137e-03,2.078650146722793579e-02
-2.712014675051446777e-01,-2.712788051909298392e-01,-2.621544086421504494e-01,-4.466211374154780388e-03,5.651439487775860790e-03,-4.423768871060750237e-03,1.723141223192214966e-02
-2.768522988320742395e-01,-2.952769790660342286e-01,-2.311696718464716083e-01,-7.490194585428739922e-04,-8.316873236297714703e-03,2.924950406748379281e-03,5.918546393513679504e-02
-2.827101002705599830e-01,-2.886619076825841512e-01,-2.357979772171717170e-01,-1.814484795505828200e-03,-9.564853146177172694e-03,1.247244702391066534e-03,5.295645818114280701e-02
-2.980107202028791646e-01,-2.937817830790552254e-01,-2.140874995274099080e-01,-5.142761708070575297e-03,-1.075396717244755419e-02,2.836900754609415157e-03,8.459619432687759399e-02
-2.954198480146515982e-01,-2.975303969021789730e-01,-2.145888336018918208e-01,-1.631686064902906864e-03,-1.279705132873086744e-02,5.498428378384013007e-03,8.543233573436737061e-02
-2.881098569208734861e-01,-2.916415618121271924e-01,-2.224484605676622095e-01,-5.606423506479707268e-03,-9.623253345154264560e-03,4.766893239269151712e-03,7.068292051553726196e-02
-2.875163047107828218e-01,-2.901227018822669090e-01,-2.249586952320749289e-01,-3.871175223465190933e-03,-1.039169143009412676e-02,6.622472851112760038e-03,6.770368665456771851e-02
-2.845085800555024469e-01,-2.899557511114435604e-01,-2.298644994227220795e-01,-3.475239446194114401e-03,-3.152702769709064563e-03,4.438529181853104709e-03,5.863834172487258911e-02
-2.849490612003812151e-01,-2.974977792833049528e-01,-2.188158191536549724e-01,-3.334523778079276184e-03,-1.557465568288203886e-02,2.592537721486542612e-03,7.837215065956115723e-02
-2.784239467117851641e-01,-2.218443571553436744e-01,-3.006493957743172629e-01,3.136236955777400165e-02,2.518495482884491009e-03,9.885868359411400727e-03,9.064073115587234497e-02
-2.482681048905553967e-01,-2.455734232088785940e-01,-3.010576471399030729e-01,4.530114098191537209e-02,1.309170249814008320e-02,1.669516094233261527e-02,1.021919324994087219e-01
-2.392875906153900112e-01,-2.419404508098401685e-01,-3.275057136833836036e-01,4.453436337127437278e-02,7.967012336940006156e-03,1.917656183676236335e-03,1.170761510729789734e-01
-2.756281199356641620e-01,-2.328160971061557227e-01,-2.989972324567067297e-01,5.196125012474797633e-02,-2.837979466809870295e-03,1.580697358846164247e-02,1.106938198208808899e-01
-2.598061033234680406e-01,-2.423112150844121959e-01,-3.196238549353727088e-01,6.040337823944344486e-02,1.991216264201319756e-03,4.425955097518123431e-03,1.262818574905395508e-01
-2.499917215485858990e-01,-2.866988845766310634e-01,-2.674258432141363162e-01,-2.703326049958870193e-03,-7.096642143744507844e-03,3.188233971099529735e-03,3.485559672117233276e-02
-2.401860724892340149e-01,-3.224437356002992083e-01,-2.451410920439763275e-01,-3.103846557658497540e-02,-5.527533704338861986e-02,1.477956826759392259e-02,1.381840854883193970e-01
-2.487871055999426873e-01,-2.962286268105586706e-01,-2.609832968035815104e-01,-6.310047940170798904e-03,-3.101782069681700144e-02,1.104609356750538979e-02,7.206007093191146851e-02
-2.389698011346005069e-01,-2.823921664832056977e-01,-2.818362242128241157e-01,-9.644192941204788802e-03,-1.583503891661537308e-02,6.673406887589490404e-03,5.501409247517585754e-02
-2.177759207959139576e-01,-2.997104204797754190e-01,-2.844054469101982008e-01,-1.178515431405474136e-02,-5.140602182606043846e-02,7.542430081186154295e-03,1.191997081041336060e-01
-2.099391230353977456e-01,-3.191084710950492509e-01,-2.764124672100937707e-01,-2.966020636231388174e-02,-3.284145549815199738e-02,1.284807137329954316e-02,1.242975741624832153e-01
-1.919133009281431823e-01,-3.046142909387427600e-01,-3.150638380402886463e-01,-4.101253429547219859e-02,-3.543801898703318864e-03,-1.635668742445809884e-02,1.409778892993927002e-01
-2.192070738730050872e-01,-2.720161387510413031e-01,-3.008059600116635424e-01,-4.545366459954825605e-02,9.987535439156277825e-03,-3.263506763220327001e-03,1.080153957009315491e-01
-2.790117338676186276e-01,-2.682610579282250218e-01,-2.547782510660079880e-01,9.683344403087108809e-03,8.540741092440174570e-03,1.366509202597336950e-02,3.876404091715812683e-02
-2.682208605744718644e-01,-2.683519900363665056e-01,-2.664215129149263839e-01,1.366618872666023991e-02,1.547233447511507307e-02,1.507490816738163431e-02,4.431391507387161255e-02
-2.649778947258139561e-01,-2.806942771712375162e-01,-2.629463493106645178e-01,1.302667375844561784e-02,1.555810799990674578e-02,1.592316641775973554e-02,4.773833975195884705e-02
-2.935450037962841763e-01,-2.656039810139512736e-01,-2.342782645926565765e-01,1.881858436848559205e-02,2.443913004903731576e-02,4.260377910235697146e-02,1.045789197087287903e-01
-2.856388511200023128e-01,-2.741453961137982898e-01,-2.412307491073535093e-01,9.860859477066930695e-03,1.794461453237230358e-02,2.051309084796946319e-02,6.413949280977249146e-02
-2.883707870897249115e-01,-2.759035170846291241e-01,-2.395833853904756339e-01,1.373194991694991207e-02,1.912808933881594148e-02,1.959035858730323251e-02,6.886287033557891846e-02
-2.775201829909003659e-01,-2.855863377199055475e-01,-2.396896153171161059e-01,-6.546374521509240076e-03,-7.248984710600096110e-03,3.963130240848085871e-03,4.620270058512687683e-02
-2.612829330681210038e-01,-2.770249233860525573e-01,-2.649772573255877450e-01,4.926540720112453260e-03,-7.501580628305748455e-03,-5.832748902817934573e-03,2.338800393044948578e-02
-2.621260353318319858e-01,-2.726447396734880679e-01,-2.694791865268962860e-01,2.662537565405727422e-03,-1.253712086993902675e-03,-3.817024095697017609e-03,1.253228075802326202e-02
-2.485451732089448695e-01,-2.782976853154761065e-01,-2.765065794514398601e-01,3.961227197668439233e-03,-3.918452913246354627e-03,-6.199666816239374212e-03,3.230440244078636169e-02
-2.554429176139443869e-01,-2.797237061242044409e-01,-2.695640576531438959e-01,4.967144257751808338e-03,-1.220623283436073764e-02,-7.090742182221679291e-03,3.343532234430313110e-02
-2.547097985116865693e-01,-2.714988879340803907e-01,-2.771159557498302783e-01,2.921640445218746072e-03,-3.187286654820190804e-03,-5.152184521675830763e-03,2.331200987100601196e-02
-2.594730196537352596e-01,-2.953793517614858866e-01,-2.434563967614079560e-01,-2.241205249265785029e-02,5.664680679553450726e-02,-2.463133358100276157e-02,1.227781921625137329e-01
-2.792140441364894254e-01,-2.875144538849632725e-01,-2.366583390655520869e-01,-4.288926705242225058e-03,-1.441706623816962213e-02,9.339836725637623571e-03,5.633429065346717834e-02
-2.469230685976908646e-01,-2.895180074125076053e-01,-2.676319959471899490e-01,-5.863849960766624216e-03,3.130281334017940426e-02,-4.364370176379308956e-03,6.679063290357589722e-02
-2.521110476814107382e-01,-2.932537297380963803e-01,-2.660869311387355496e-01,-1.482549900080628105e-02,2.420020255336184645e-02,-1.213723685739881777e-02,6.458570808172225952e-02
-2.287548352042508004e-01,-3.070264982646649932e-01,-2.605021790467716980e-01,-9.411939369815890827e-03,5.273773532527501612e-02,-2.556654567029181205e-03,1.152328029274940491e-01
-2.703809885910444799e-01,-2.671189336958340599e-01,-2.676511134060282071e-01,2.596507407051603430e-04,4.543339800309299055e-04,-2.008707422395889029e-04,3.182888496667146683e-03
-2.459858515780246058e-01,-3.008017230221673444e-01,-2.604806651161096775e-01,-9.493646840021420161e-03,3.261633612329576520e-02,-1.661316604507560033e-03,7.674944400787353516e-02
-2.770500887497873710e-01,-2.791853062922707851e-01,-2.462614149568510546e-01,-5.363247019999997992e-03,-6.252646857648871785e-03,5.438761611013774588e-03,3.620169311761856079e-02
-2.721731424814659572e-01,-2.658230737655369325e-01,-2.639870416268328412e-01,-5.329526864522344566e-03,6.242136458463519444e-03,-4.997803593232491223e-03,1.823161542415618896e-02
-2.660660062992762920e-01,-2.714170659819087894e-01,-2.663372160350712670e-01,-3.466402682784518532e-03,3.350647788766711235e-03,-3.483290805869334802e-03,1.154921855777502060e-02
-2.673928918491232376e-01,-2.693167737830381436e-01,-2.678220233109644965e-01,-1.211840521970389273e-03,1.465989991197258610e-03,-1.750233061619996993e-03,4.806545097380876541e-03
-2.679174082571964544e-01,-2.668406290092515953e-01,-2.673171130756721303e-01,-3.208625518406462394e-03,3.310248996194153220e-03,-3.891615097173942682e-03,1.049125846475362778e-02
-2.709167551639837246e-01,-2.701081969817737960e-01,-2.633708223636679890e-01,-6.296158810640006126e-03,5.883560859421793632e-03,-7.116809082670566555e-03,2.064495533704757690e-02
-2.688120932800946994e-01,-2.680028715634087955e-01,-2.675657910358011371e-01,-1.195937695322249646e-03,1.472073480661944449e-03,-1.056086675551747272e-03,3.916290588676929474e-03
-2.798193499446530730e-01,-2.437110521125197549e-01,-2.708963125273323169e-01,-3.821428604964288017e-02,2.907777870538295895e-02,-4.011052999778162709e-02,1.131606996059417725e-01
-2.794036931885592323e-01,-2.689492108392168013e-01,-2.572035433430517326e-01,-8.966636086424825680e-03,2.127966031445294171e-02,-2.003288390733838631e-02,5.633537471294403076e-02
-2.516819821517176092e-01,-2.601640179796471108e-01,-2.912334229466545521e-01,-3.596831258795119002e-02,1.785138182613999966e-02,-2.282301832306755929e-02,8.775322884321212769e-02
-2.692316046091525195e-01,-2.612532241905239916e-01,-2.709082509068653777e-01,-1.065168646174648702e-02,1.139182631818169700e-02,-1.033864390519525014e-02,3.361847251653671265e-02
-2.693069485541622066e-01,-2.593323093581598737e-01,-2.740405545545116506e-01,-1.522848330205500700e-02,9.591888134085627821e-03,-2.191989012843665804e-02,5.081627890467643738e-02
-2.685643253350058490e-01,-2.578127008768920092e-01,-2.798788862881463890e-01,-1.942828437590076937e-02,1.434543253587033940e-02,-7.259109478978514537e-03,4.767703637480735779e-02
-2.458756497573244548e-01,-2.715650391946770603e-01,-2.889565381025435142e-01,-8.890913380884810091e-03,-7.232852098663021230e-04,2.156955570610520536e-03,4.076588898897171021e-02
-2.623020620110287915e-01,-2.755554432916412777e-01,-2.660163924210774966e-01,-1.007350388762058091e-03,-5.324842716343252281e-04,2.504197557314599525e-03,1.276435796171426773e-02
-2.657606130989154103e-01,-2.458138863507859373e-01,-2.880301167272362739e-01,-1.763570930586720598e-02,5.824660664717659121e-03,-6.655890323662813808e-03,5.005740374326705933e-02
-2.703701762214442694e-01,-2.644665882094541787e-01,-2.673706017352031061e-01,-5.015716906173062206e-02,-4.627595597778287606e-02,2.416265898942151005e-02,1.254960596561431885e-01
-2.873338388416352140e-01,-2.506116238109697414e-01,-2.679286539495007724e-01,-1.100588841484728166e-02,-1.596370873766737170e-02,2.051073766866581827e-02,5.833061411976814270e-02
-2.957330398866254706e-01,-2.735535907848253290e-01,-2.293565015009169650e-01,-8.970607849308125797e-03,-8.962259342206922719e-03,2.837099998373054932e-02,7.951541244983673096e-02
-2.772252055744633403e-01,-2.762636029280753913e-01,-2.578527138341982217e-01,-1.643928357790094136e-02,-2.286336222922618483e-02,2.285552898312615336e-02,6.560232490301132202e-02
-2.795485868752009551e-01,-2.785680789501595589e-01,-2.535237863167600914e-01,-1.383072499261823844e-02,-2.195967970538075312e-02,2.084661247859147248e-02,6.306367367506027222e-02
-2.782096883526485320e-01,-2.655947154350598027e-01,-2.629177935902310415e-01,-5.107662283683500094e-03,-4.061521613217789275e-03,8.564129408850601130e-03,2.340637147426605225e-02
-2.901235846512871808e-01,-2.620011574292821499e-01,-2.535107659222637921e-01,-4.213521004233925643e-02,-2.434955459933714136e-02,4.150723413638170850e-02,1.156508103013038635e-01
-2.862659586597058881e-01,-2.735659738961100373e-01,-2.459548850225186656e-01,-1.778732909161656606e-02,-1.981679156388164997e-02,5.005087748412979931e-02,1.044838577508926392e-01
-2.945659619448434685e-01,-2.487338414232686534e-01,-2.515234604342719837e-01,-2.145383909634997893e-02,-1.956436563079392774e-02,4.445798732659955732e-02,1.021721288561820984e-01
-2.776120209905743597e-01,-2.821984893021637353e-01,-2.397727140700826876e-01,-9.164002753375387333e-03,-1.956390370592680367e-02,1.423428735909477647e-02,6.028613820672035217e-02
-2.324804923703744919e-01,-2.971000074862739648e-01,-2.737750352323938818e-01,-1.814260286305807886e-03,-9.928142610933807927e-03,4.167264821082155776e-03,5.975085496902465820e-02
-2.096129523525857019e-01,-3.079255666606992570e-01,-2.876866623894203667e-01,-1.602389835655455841e-02,-2.170726694401792570e-02,5.480877793807248551e-03,1.017805263400077820e-01
-2.281464588430821561e-01,-2.885002356261401335e-01,-2.897047998084890108e-01,-8.021978893345764472e-03,-9.920884736050806715e-03,2.319830895320642000e-03,6.497078388929367065e-02
-2.102796102967416647e-01,-2.989852514187780752e-01,-2.949118697572558068e-01,-3.999953468146602749e-03,-1.420458640308703765e-02,2.811614121730944375e-03,9.055924415588378906e-02
-2.146355232086460119e-01,-2.933453122016686510e-01,-2.989982676151819452e-01,2.788496307783404782e-03,2.165178151519485134e-03,-3.329167150850494486e-03,8.211437612771987915e-02
-2.287313692149746946e-01,-2.935638268798136385e-01,-2.862284105015864277e-01,-4.962854393224956959e-05,-7.697916037973364864e-03,4.242785439010217071e-04,6.292697042226791382e-02
-2.882805641417824916e-01,-3.005724250634260186e-01,-2.190856812422817823e-01,1.084208540279161560e-02,-6.128675813434100728e-02,-4.290131843162884977e-03,1.321575790643692017e-01
-2.788009846554170834e-01,-3.382593938020978519e-01,-1.705487019152363837e-01,-5.645749654729891216e-03,-9.007265009795893673e-02,1.188525047739459606e-02,2.157522141933441162e-01
-2.539104636924973124e-01,-3.048770442092513244e-01,-2.338527953300374995e-01,-5.271308119901101791e-03,-4.809358904255435496e-02,6.537912675016723831e-03,1.057012081146240234e-01
-1.288179274975609911e-01,-3.797481738107719718e-01,-3.265684514321567922e-01,-2.144008068819934845e-02,1.047203294915624999e-01,-5.198654856767379734e-03,2.946333587169647217e-01
-2.791120450178975476e-01,-2.562964509827556636e-01,-2.729235166795774825e-01,1.886148405890908028e-02,-1.152711600390857183e-02,-2.619524026986152360e-02,6.278627365827560425e-02
-2.850340070067509668e-01,-2.523449567642367941e-01,-2.726711452504024802e-01,1.803813029302658855e-02,-1.381675718254656189e-02,-2.657162899084264049e-02,6.696468591690063477e-02
-2.832126759502246460e-01,-2.598114315326280899e-01,-2.573060003474842428e-01,2.365770440818728421e-02,-2.640719895326483144e-02,-3.751258610747448818e-02,9.276416152715682983e-02
-2.814955657583942394e-01,-2.640204994859441379e-01,-2.507734355116774116e-01,3.470470794107359536e-02,-4.984674961176328856e-02,-4.256635578730030844e-02,1.312074214220046997e-01
-2.560816373671325752e-01,-2.592320085374852368e-01,-2.924360969580163672e-01,5.940335821781506098e-02,-3.402422209402623798e-02,-4.186753056602870310e-02,1.433001458644866943e-01
-2.681302359848181105e-01,-2.569978961035206955e-01,-2.809738483084165406e-01,2.224883099243254655e-02,-1.783577576078750754e-02,-2.091931487629846917e-02,6.468459218740463257e-02
-2.852048424836106100e-01,-2.323723842716361732e-01,-2.744020453028935269e-01,3.557187595795241464e-02,-2.343693492462401926e-02,-4.423511212965151179e-02,1.168392524123191833e-01
-2.163807545332769866e-01,-2.880591087238969505e-01,-3.014015938438653341e-01,9.749909462450908476e-03,-1.397015775264856150e-03,-1.639104015056529976e-03,8.106338977813720703e-02
-2.817601110314252311e-01,-2.546321224487851920e-01,-2.685177984938991180e-01,1.580491119879927700e-02,-2.123242111829574258e-02,-2.364457416817654367e-02,6.581094115972518921e-02
-2.729739897129800363e-01,-2.723375115733330243e-01,-2.593372000892990026e-01,1.203046793996849495e-02,-1.503251561658578914e-02,-1.287363864713408391e-02,4.227298498153686523e-02
-2.377933263179429768e-01,-2.737486679927638167e-01,-2.913194943475330700e-01,2.209015833639921267e-02,-5.230043663432812351e-03,3.710360932843785836e-04,6.147913262248039246e-02
-2.835086102774522221e-01,-2.508953919188504633e-01,-2.682483488429796559e-01,1.068884937375293512e-02,-1.176135670458256302e-02,-1.549173174416395085e-02,4.771305620670318604e-02
-2.748832535968075974e-01,-2.627959822461379824e-01,-2.648492917012312819e-01,4.641890700961196284e-03,-4.984209711140763326e-03,-5.430574146666010578e-03,1.879205182194709778e-02
-1.934536274176645865e-01,-2.872151301848388516e-01,-3.289602595314753963e-01,2.870788234474781070e-02,6.726107620416230809e-03,6.798625840643826232e-03,1.311288475990295410e-01
-2.812444939083382223e-01,-2.618963193095973363e-01,-2.615619712183994694e-01,5.587683587409922326e-03,-2.123392801513294958e-03,-6.859476498512648464e-03,2.508551254868507385e-02
-2.398611331691429260e-01,-2.746283543991908660e-01,-2.953888792651366835e-01,-2.566868424418482925e-02,8.726479677556183562e-03,-7.031787647451925687e-03,6.866572052240371704e-02
-2.474257683324568857e-01,-2.643419388282725047e-01,-2.957439956673229564e-01,-3.075339080797193786e-02,-7.298430373607353236e-03,6.050605034933970346e-03,7.007419317960739136e-02
-2.690112005707444576e-01,-2.679474727889912811e-01,-2.676478668714441511e-01,-3.757975179937700903e-04,2.184215716127655045e-04,-2.036171265554244912e-04,1.493704970926046371e-03
-2.575082337277747602e-01,-2.563259437077351488e-01,-2.902918822734918414e-01,-9.773291269222906044e-03,-5.237598113202460636e-04,2.978342651881070967e-03,3.780094534158706665e-02
-2.585490101103983251e-01,-2.564240883031100871e-01,-2.876634796846285758e-01,-1.015165718995109621e-02,-2.593429388708694749e-04,-6.825433756461130388e-04,3.499716147780418396e-02
-2.535883380224642214e-01,-2.644591383416511898e-01,-2.887684877888152535e-01,-1.249176414711450356e-02,-3.518738950383165382e-03,2.089664219156585432e-03,3.862328454852104187e-02
-2.656521503012017615e-01,-2.421629519503998573e-01,-2.918962247069346594e-01,-2.067337425181710320e-02,3.292818257520709058e-03,-2.201906071762325685e-03,5.644629895687103271e-02
-2.568715504497054436e-01,-2.620213917820152227e-01,-2.862527563260939822e-01,-1.354300181908481455e-02,-1.985480451239481949e-04,-1.067341299305473850e-04,3.590067848563194275e-02
-2.563563560881888526e-01,-2.503415786729834003e-01,-2.933666262014278936e-01,-2.335666719699341920e-02,-3.173961200145958717e-03,2.080947507408275644e-03,5.751835182309150696e-02
-2.794827355974230376e-01,-2.769538938028921482e-01,-2.457303051067139532e-01,-8.690454592346333676e-03,1.000493083209831428e-02,-1.214688060810098155e-02,4.505302384495735168e-02
-2.815357234182082613e-01,-2.607103718458508856e-01,-2.596635429128233974e-01,-3.661421575372927027e-03,3.483023056289467033e-03,-8.270156602910258906e-03,2.717334218323230743e-02
-2.198831832063496972e-01,-2.957502695826775829e-01,-2.912110139155492661e-01,-3.418294217220134348e-03,-5.126407630921816887e-03,-3.086388221712039700e-04,7.447294890880584717e-02
-2.369452617309890929e-01,-2.905348648685190383e-01,-2.796714936616443992e-01,-1.158894613113071320e-02,-1.624024133140139839e-02,3.814802429865689869e-03,6.037797778844833374e-02
-2.316804627236113967e-01,-2.909873928885048366e-01,-2.779625340748962947e-01,-3.014740020790856144e-03,-1.606084326367813661e-02,2.714417929087898414e-03,6.113686785101890564e-02
-2.234785182313285823e-01,-2.909440253485748307e-01,-2.878751852169413317e-01,-9.055743513900031683e-03,-1.017577745265546736e-02,6.307812576199982139e-03,7.092246413230895996e-02
-2.828366019638126061e-01,-2.537197373557850688e-01,-2.667414964842743652e-01,-9.710353566360581390e-03,9.501584044358508604e-03,-1.314071925984659946e-02,4.135159030556678772e-02
-2.820544871366912898e-01,-2.609450179461519914e-01,-2.603540883051589372e-01,-5.888891322632962277e-03,3.564876788173785595e-03,-8.194929039449409119e-03,2.832076698541641235e-02
-2.718364011443736294e-01,-2.629634480025104804e-01,-2.701760239754683601e-01,-4.732249080492770439e-03,5.930481262259086443e-03,-5.867379503188768254e-03,1.851287297904491425e-02
-2.672898070412691451e-01,-2.556505897901259483e-01,-2.777094661971068468e-01,-1.451409544626659429e-02,9.836715678164220308e-03,-9.238411383414716835e-03,3.928895294666290283e-02
-2.760542119681689832e-01,-2.604616292724389881e-01,-2.696680131850149320e-01,-4.182840449103023168e-03,4.379582811323061604e-03,-6.440875872223697333e-03,2.046509645879268646e-02
-2.435213368212000018e-01,-2.798773154767164040e-01,-2.812065774388116113e-01,-3.202607094438092439e-02,-3.388302322237377040e-02,9.347469633727430519e-03,9.030593186616897583e-02
-2.545395754482017159e-01,-2.750435107719490513e-01,-2.733279192139194125e-01,-3.277920676745501444e-02,-2.577793382774530573e-02,1.946711058381625156e-02,8.210979402065277100e-02
-2.300607387517892288e-01,-2.802483562671164719e-01,-2.952938331750808998e-01,-2.407540198956445443e-02,-1.692039056997021382e-02,1.434433638429198979e-02,8.194702118635177612e-02
-2.238779370177422789e-01,-2.835702976341434312e-01,-2.994295085413021251e-01,-2.409210362099504024e-02,1.149534792041546081e-03,-1.366756907222717093e-03,8.069834858179092407e-02
-2.114900119961754532e-01,-2.860974153348820326e-01,-3.085619233818627238e-01,2.118331532096751416e-02,3.235438320907397646e-03,2.114255398381867639e-03,9.559262543916702271e-02
-2.654758252294010523e-01,-2.635036597762550614e-01,-2.767193275764139315e-01,-1.786637930149288789e-02,-1.156673569094405184e-02,7.183875892187977300e-03,4.082027450203895569e-02
-2.800495672663599889e-01,-2.398120021155515369e-01,-2.817545006134967722e-01,-1.517552480792462230e-02,-8.292426755347363093e-03,1.758535097531937694e-02,5.929154530167579651e-02
-2.461128283183167398e-01,-2.628946785777554473e-01,-2.945916656608968953e-01,-2.061484103441488594e-02,-1.191132581284218978e-02,6.364259956452282541e-03,6.033514067530632019e-02
-2.670825764314361250e-01,-2.701652205894839454e-01,-2.678030906580473047e-01,5.251961228018633141e-04,-1.580838233652140054e-04,-1.155746610192391220e-03,3.565173363313078880e-03
-2.557629670862388016e-01,-2.655014349484836056e-01,-2.793360350337815157e-01,-1.309282669551430599e-02,-8.078746229252821084e-03,7.743958033240802910e-03,3.620681166648864746e-02
-2.817395369515503512e-01,-2.558751472598464471e-01,-2.655768680741011911e-01,-1.181816764072988503e-02,-1.065831153843824902e-02,2.008848070494984039e-02,4.982578009366989136e-02
-2.834838681647509628e-01,-2.672521725922209490e-01,-2.531575216858630850e-01,-3.956377319030784066e-03,-3.856715310608146985e-03,5.582838658986826602e-03,2.959717810153961182e-02
-1.559119950415187028e-01,-3.012531809529284121e-01,-3.315723939418897537e-01,5.850513010576552375e-02,-4.405298754345612217e-02,-2.353604420883944476e-02,2.102434933185577393e-01
-2.656223490281016675e-01,-2.770233106001073198e-01,-2.654579276805140720e-01,-1.076183790644863816e-02,-1.375684959515347493e-02,1.002832884977842079e-02,3.672587499022483826e-02
-2.647569567977262062e-01,-2.834976708172512461e-01,-2.565829112939417289e-01,-9.115758260183078054e-03,-2.622282852374658094e-02,1.935860339977341429e-02,6.330627948045730591e-02
-2.918071657682017039e-01,-2.873045593444117363e-01,-2.332339682247620283e-01,-3.545658190363160100e-02,-5.830781288504667537e-02,4.162195143618051957e-02,1.495173275470733643e-01
-2.786268376146147641e-01,-2.572198905664396795e-01,-2.691117923476056828e-01,-8.951925309737656863e-03,-1.121010586882063495e-02,1.086606369844379284e-02,3.628677129745483398e-02
-2.687788407444117178e-01,-2.692612762364262613e-01,-2.675309981834898543e-01,-1.006306744611185945e-02,-1.264265741603106362e-02,8.487400193383962468e-03,3.165132179856300354e-02
-2.722706696608678811e-01,-3.026962437233903236e-01,-2.277769278411495291e-01,-3.514101148602283980e-02,6.047656379468960286e-02,-2.454819049493922947e-02,1.440274715423583984e-01
-2.445233018113328050e-01,-2.942248345661225839e-01,-2.656099755520688888e-01,-2.112828553248117039e-02,4.705926761108521206e-02,-3.573392803336817442e-02,1.169637888669967651e-01
-2.513553303111293880e-01,-2.789094224776660358e-01,-2.703873966615681912e-01,-3.099462485253270255e-02,3.608478511627014745e-02,-2.821021946110982559e-02,9.885758161544799805e-02
-1.636421642734469106e-01,-3.459334285764659178e-01,-3.087946416424896534e-01,3.630557842213235319e-03,-1.039781563863871466e-01,1.754068064484737288e-02,2.474596053361892700e-01
-2.014670103395567180e-01,-2.921037559516937443e-01,-3.119662258640238939e-01,-5.125566675446484310e-02,-4.630742640867854115e-02,2.778636169345867837e-02,1.644403040409088135e-01
-1.503317179510523238e-01,-3.144067120911310242e-01,-3.690649884717392415e-01,-1.127929364997584949e-01,-5.539681093837699188e-02,3.006576463558198464e-02,2.982636392116546631e-01
-1.705333947095946101e-01,-3.333503982962264800e-01,-3.026556291923218622e-01,-1.069996663831563194e-01,-7.184647602140191436e-02,3.006988486530149524e-02,2.738595306873321533e-01
-2.023832617720935922e-01,-3.579044834846842882e-01,-2.307022738841922882e-01,-2.764177782363053115e-02,-1.012057306873394846e-01,2.884825717316308324e-02,2.368570864200592041e-01
-2.050308707808404796e-01,-3.006501589374290795e-01,-2.840323564980675175e-01,-5.297799123098390073e-02,-6.089274598273387851e-02,3.219819740310066181e-02,1.745971739292144775e-01
-1.836030895407657071e-01,-3.221774108386163959e-01,-2.892560678594310875e-01,-4.909921949108780881e-02,-8.434128974225441056e-02,1.296523283193898486e-02,2.116635441780090332e-01
-2.034462062383989578e-01,-2.987012046576423829e-01,-2.996092521161978217e-01,-8.072625737178791561e-02,-9.412660126438236741e-02,8.516772573755600206e-02,2.775807976722717285e-01
-2.675361795863929748e-01,-2.607021016668532032e-01,-2.708877605465477845e-01,2.060222739357969041e-02,-1.570894640531305536e-02,-1.934354291099806694e-02,5.671885982155799866e-02
-2.792203354117879788e-01,-2.623220620335245390e-01,-2.615280720347990528e-01,4.264073851198084408e-03,-4.005227020308542267e-03,-6.132949217895460742e-03,2.269605360925197601e-02
-2.821184246580105137e-01,-2.611699721323622603e-01,-2.540390427553733121e-01,2.169045761106262737e-02,-2.213231789099160893e-02,-3.922871307633364613e-02,9.020361304283142090e-02
-2.847493818463994741e-01,-2.732886932924211698e-01,-2.480176834575349432e-01,9.684528390413959381e-03,-1.042086933593596061e-02,-1.408865526897607780e-02,4.756278917193412781e-02
-2.868849821140869172e-01,-2.576174469556524183e-01,-2.573562850625361054e-01,1.599674412691768060e-03,-2.060635520866575029e-03,-9.829608933774188276e-03,3.427213802933692932e-02
-2.847312267943263309e-01,-2.653982816758132524e-01,-2.554995011965320861e-01,3.358809414506164562e-03,-1.588263215240215973e-03,-1.183265834123694085e-02,3.353459760546684265e-02
-2.682976310807994591e-01,-2.670417569200950192e-01,-2.690730658689882704e-01,-6.594560891759902645e-04,-1.303942235420499276e-03,7.081751071613853581e-04,3.326010657474398613e-03
-2.809690136650648817e-01,-2.524128717816032097e-01,-2.668894075839362556e-01,1.331413811781763205e-02,-8.338552493380611483e-03,-1.386393077939830111e-02,4.391637817025184631e-02
-2.806776230668777683e-01,-2.535364169973928772e-01,-2.690646000861474096e-01,9.901433423976141370e-04,-5.326190025004651739e-03,-5.935144128516026650e-03,2.738685347139835358e-02
-2.872669740585537257e-01,-2.546505988209677995e-01,-2.640948639174944823e-01,5.676205051410262471e-03,-5.258392542927123152e-03,-1.235816590315177640e-02,3.850671648979187012e-02
-2.787241843654358342e-01,-2.633584211239093364e-01,-2.624995887515529924e-01,3.576533103423509136e-03,-2.935669703057599243e-03,-4.409116679797459026e-03,1.930261775851249695e-02
-2.285934383448834373e-01,-3.121490847557154558e-01,-2.752384265305171107e-01,9.390184459387506538e-03,5.755027600470026539e-02,3.458864588548695752e-03,1.244844123721122742e-01
-2.497115321838954682e-01,-2.590526589728685547e-01,-2.909992126306293336e-01,-2.036822907533383797e-02,7.754832664964265857e-04,-1.375507043185457585e-03,5.155899748206138611e-02
-2.426975661229523462e-01,-2.761953338311300965e-01,-2.905646260570164952e-01,-1.737889625902910504e-02,6.106885147664880588e-03,-7.151337370990501138e-03,5.460129305720329285e-02
-2.445864141811607828e-01,-2.525738904075391367e-01,-2.989867074033277228e-01,-4.483608233715605240e-02,-1.249614069639801324e-02,7.646008570877774885e-03,9.624623507261276245e-02
-2.638691368976124330e-01,-2.754615773084269081e-01,-2.663070358794131232e-01,-2.706346576767344487e-03,-2.391924985511735286e-03,1.345582145962475511e-03,1.251540891826152802e-02
-2.500509670101889181e-01,-2.744876529402055509e-01,-2.825552019023109818e-01,-2.121668228052787236e-02,1.917289381217995858e-02,-1.591682288395190881e-02,6.381738930940628052e-02
-2.417659976563785729e-01,-2.647643941159714132e-01,-2.933820641179424871e-01,-2.183034615541675980e-02,7.768421781013285258e-04,-1.720251823840195180e-03,5.870637297630310059e-02
-2.656150902028245886e-01,-2.579932960256360874e-01,-2.863358329533151059e-01,-2.218089497290041262e-02,1.037549474572213581e-02,-1.188409677793595375e-02,5.355365946888923645e-02
-2.719688666942838284e-01,-2.693994290470282382e-01,-2.617548490778314196e-01,-8.971512585313800095e-03,1.123642054890100495e-02,-9.265878707157743782e-03,3.102400712668895721e-02
-2.293481457666922130e-01,-2.651169563742090118e-01,-3.108726706532300987e-01,-4.180845032011142742e-02,2.789222227888733113e-02,-7.048940609667458945e-03,1.128558889031410217e-01
-2.665440995356196385e-01,-2.706037032753291216e-01,-2.677338790119156431e-01,-5.032851393559076899e-04,-3.727832062529481906e-05,-1.160205420254074903e-03,4.227080848067998886e-03
-2.647039567765329671e-01,-2.817929222938560518e-01,-2.614884314646270247e-01,-1.505041631768545135e-02,-2.087882275716620994e-02,8.929823885746795281e-03,5.083176493644714355e-02
-2.385192522664632553e-01,-2.778896347476744189e-01,-2.915656504519416603e-01,-2.623118264520376067e-02,-5.382883851686163373e-02,3.494835261376819102e-02,1.292149722576141357e-01
-2.446158956011801888e-01,-2.967799324195616317e-01,-2.635491904014601872e-01,-6.896166713741510787e-03,-1.878041212603931073e-02,8.741129751911888915e-03,5.934580415487289429e-02
-2.476423574475949130e-01,-2.899684176879673281e-01,-2.532438118998911469e-01,-2.727461407724229847e-02,-4.678848269226296153e-02,2.735570041912647327e-02,1.123832166194915771e-01
-2.428166460997300824e-01,-3.077586326756343027e-01,-2.471735023862281777e-01,-2.004303968990801474e-02,-4.874434062737739715e-02,2.419398374284893738e-02,1.185021102428436279e-01
-2.678687273004726199e-01,-2.894579201481908282e-01,-2.434584430107721853e-01,-3.162405512470059521e-03,-2.053916826036179116e-02,4.967745286831965271e-03,5.439268052577972412e-02
-2.798490910447303803e-01,-3.035032897051085365e-01,-2.361301334348669956e-01,-1.975550622917588220e-02,-5.653081146056038175e-02,2.930420097135928714e-02,1.297661364078521729e-01
-2.431069990398744274e-01,-3.102350957856102043e-01,-2.442915553667348028e-01,-6.888631183591886580e-03,-5.664916541808652506e-02,1.003440526329031982e-02,1.204154416918754578e-01
-3.027380601933497006e-01,-1.884881223016916518e-01,-2.942291824366982111e-01,-4.971950527326502584e-02,3.834255133989859093e-02,-6.671968297353655930e-02,1.932211220264434814e-01
-2.981797584380049271e-01,-1.946945402785668078e-01,-3.176261424015479617e-01,-4.594818782266214992e-03,-4.388635161716087675e-04,-2.185286549266806863e-02,1.208152472972869873e-01
-2.971675239011674630e-01,-1.985583373391710815e-01,-3.170293336003015550e-01,-1.602857392552481733e-02,6.418035917643535697e-03,-1.973123159141550176e-02,1.189079657196998596e-01
-2.883523528624844512e-01,-2.309557984881056014e-01,-2.880967391280767065e-01,-1.615319030661657371e-02,5.616622615069507413e-03,-1.676529989344878457e-02,7.071350514888763428e-02
-2.956695443844486459e-01,-2.030042536850175661e-01,-3.135874647372310364e-01,-2.640262218134668479e-02,-2.130748364857788910e-04,-1.712232664928133377e-02,1.163581982254981995e-01
-3.024017242963962238e-01,-1.983092311489034754e-01,-3.013520436485777609e-01,-2.222240988547230511e-02,-1.144098725065226902e-03,-6.258675867563107294e-03,1.110406741499900818e-01
-3.116909025034948488e-01,-2.037016058358503134e-01,-2.936377862288486740e-01,-2.359893162900598279e-02,9.086985872752358778e-03,-2.332012609814206397e-02,1.165675520896911621e-01
-2.933495713120287673e-01,-2.180463687208618051e-01,-2.910004431310063699e-01,-9.202175281661364309e-03,5.101724916427596325e-03,-1.348968941091362693e-02,7.985757291316986084e-02
-3.007860142797961767e-01,-2.100152178958049065e-01,-2.847817793127129238e-01,-2.994770386080444768e-02,1.327011606853113410e-02,-2.787994481131320090e-02,1.122208237648010254e-01
-2.882591193214569802e-01,-2.604095837687240844e-01,-2.583485396303111248e-01,8.797797610080976619e-03,4.175508675570012776e-03,2.660862852014408281e-02,5.697200447320938110e-02
-2.491823786746790170e-01,-2.685341153475709342e-01,-2.858696209593774018e-01,-4.528774197591794656e-03,2.018403970935368340e-03,-4.353870996640273050e-03,3.378019109368324280e-02
-2.530972589757310431e-01,-2.686730609379979207e-01,-2.843470522790740307e-01,-1.034107029589577571e-02,3.716622731443406866e-03,-4.211033208247345026e-03,3.388017043471336365e-02
-2.453092926507554061e-01,-2.750978371360200958e-01,-2.857011982775614634e-01,-1.275972667625224419e-02,1.018110849394312893e-02,-9.471821405883843956e-03,4.882816970348358154e-02
-2.400112044305232062e-01,-2.779562539946375810e-01,-2.857986825477085713e-01,-5.785912929017111329e-03,3.363239062452217081e-03,-5.319503005047979127e-03,4.492402076721191406e-02
-2.460281127285411373e-01,-2.780524832769044608e-01,-2.796317736565973044e-01,-5.160425665206182406e-03,4.828240712461349601e-03,-5.585232254886642912e-03,3.635987266898155212e-02
-2.710284098694540900e-01,-2.504696840793290691e-01,-2.828983050309871183e-01,-2.275591814193549459e-02,-1.045776844900576930e-02,2.510962802206070585e-02,6.768054515123367310e-02
-2.778395361390192941e-01,-2.534592480557713579e-01,-2.791475944250728092e-01,2.226031848634992677e-02,-1.396619982712918838e-02,-2.168928895238651788e-02,6.411712616682052612e-02
-2.639277701517945829e-01,-2.483696522080995617e-01,-2.906026636603420421e-01,1.724655925528575245e-02,-7.165066247613850747e-03,-5.383769331119320385e-03,5.001916736364364624e-02
-2.639613345515248177e-01,-2.529497251892993681e-01,-2.918472040215118746e-01,3.658424201376388185e-02,-5.259327739063146892e-03,-3.581912406999118899e-03,7.309334725141525269e-02
-2.662310943364868954e-01,-2.660789816477860392e-01,-2.784479634594996256e-01,1.539447814772131051e-02,-1.153100138118619798e-02,-1.514861466751103031e-02,4.415242746472358704e-02
-2.705886699172188048e-01,-2.501553764903877708e-01,-2.822874641509305893e-01,1.292994806737818650e-02,-1.178609020139077118e-02,-1.049316061968582313e-02,4.518884792923927307e-02
-2.647063748121271654e-01,-2.251664066944824849e-01,-3.094156868196516474e-01,5.091580769543225388e-02,-1.475678133353719793e-02,-1.405481316056527222e-02,1.198052391409873962e-01
-2.757939306675625257e-01,-2.971335351072790232e-01,-2.236062012989728787e-01,1.503202051556338723e-02,-3.854202622205932932e-02,-2.595493293098313434e-02,1.069949865341186523e-01
-2.939779498607365538e-01,-2.947794585489407204e-01,-2.114862983761289228e-01,1.348015418230781755e-02,-2.469260209926334160e-02,-2.226693425978043192e-02,1.036021187901496887e-01
-3.017197047590928771e-01,-2.910808148503685744e-01,-2.160791764886471900e-01,9.287845453799674356e-03,-4.161332665369686656e-02,-2.643297149739210622e-02,1.186855956912040710e-01
-2.774338514538201017e-01,-2.888235281053764258e-01,-2.433784021901204964e-01,1.187507484691307721e-02,-2.076760925846593553e-02,-1.577144429271452528e-02,6.434693187475204468e-02
-2.918319781450656181e-01,-2.958157770757972593e-01,-2.226645881360806156e-01,2.441781571961169472e-03,-1.564725573581182694e-02,-5.611512723057010890e-03,7.695720344781875610e-02
-2.671389848593062610e-01,-2.680816696412090527e-01,-2.702033033188543931e-01,-1.150792646282044855e-02,-8.959809002445010342e-03,1.438716028572560590e-02,3.558781743049621582e-02
-2.343939375245615575e-01,-3.022868522151000992e-01,-2.683890718555875243e-01,3.392794552509995759e-02,-3.681427077434278744e-02,-2.919843185223641030e-02,1.163353845477104187e-01
-2.711989292553405595e-01,-3.066697977901012839e-01,-2.225987462964806041e-01,6.339204339574636832e-03,-3.109305535622385042e-02,-4.303885855786277262e-03,9.176334738731384277e-02
-2.671284472263288912e-01,-3.079727809365472302e-01,-2.255042861563346102e-01,7.578131105898160136e-03,-4.395558745858459820e-02,5.831292475950093212e-04,1.052165701985359192e-01
-3.013461134155808741e-01,-2.951621510714876329e-01,-1.955287536076656119e-01,1.217289726350830395e-02,2.970135000325974800e-02,3.661311223177363128e-02,1.330180168151855469e-01
-2.954695774405588504e-01,-2.880928406521059415e-01,-2.247605090943169126e-01,9.626695322308755423e-03,1.490144360229882572e-02,2.531179251400527547e-02,8.601642400026321411e-02
-2.640897267029688744e-01,-2.913561687349281448e-01,-2.392506773507930007e-01,1.917447292464343270e-02,4.309252443112274872e-02,2.336527995906344940e-02,1.017319858074188232e-01
-2.438025172861921219e-01,-3.003788384424431746e-01,-2.522329490601908364e-01,-1.112495639189002572e-02,4.304642880322252091e-02,-8.274095598390283912e-03,9.450212121009826660e-02
-2.631445384499451756e-01,-2.715036831074215118e-01,-2.707730736808203753e-01,-4.783672606970836537e-03,6.724247972426333937e-03,-5.262362063156318312e-03,1.875303313136100769e-02
-2.634001259359966540e-01,-2.728736316348486790e-01,-2.671373311171351128e-01,-4.681562773614392388e-03,4.619287703934824192e-03,-5.405466842970463662e-03,1.690359041094779968e-02
-2.595235499801032963e-01,-2.739087429291874320e-01,-2.706656976629221445e-01,-1.512410266797652517e-02,1.256379204578081561e-02,-7.586514280920560183e-03,3.877146914601325989e-02
-2.367825060590270925e-01,-2.775134356446150585e-01,-2.909264562371561280e-01,-1.345268720152523363e-02,1.142386695551292526e-02,-3.737287751920014695e-03,5.797915905714035034e-02
-2.216868557285781027e-01,-2.887453069001407746e-01,-3.079560502424844026e-01,-3.919415051680582435e-02,2.911636222298782245e-02,-1.902120279518329168e-02,1.199640855193138123e-01
-2.088361802305097048e-01,-3.140180120931377883e-01,-2.962775811382584168e-01,1.968081248621161849e-02,3.406074522598114690e-02,7.916948656730338121e-04,1.189800649881362915e-01
-2.048665488322434780e-01,-3.119750348558425479e-01,-3.003022919231498888e-01,-2.957523821484197603e-03,4.311865301001884671e-02,-3.962267680987992778e-03,1.265275627374649048e-01
-2.604540820310340399e-01,-2.964282359826492796e-01,-2.542250239171742754e-01,8.492835449063929065e-03,2.581086317965039512e-02,9.388195002053907612e-03,6.353288143873214722e-02
-2.549067208659107631e-01,-3.037746558597890778e-01,-2.536516490752059316e-01,-1.146898637871585124e-03,2.993272475290809781e-02,4.031538859284218850e-04,7.171694934368133545e-02
-2.346290811726298997e-01,-2.986954863019063433e-01,-2.736979062223761083e-01,-2.372790610750879613e-03,2.254888172505809668e-02,-2.435528077365284923e-03,6.846839189529418945e-02
-2.431475312528536825e-01,-3.132320396984646926e-01,-2.520809892768028915e-01,-2.707666688608364319e-02,5.157354456275965032e-02,-2.393760069277773607e-03,1.206717342138290405e-01
-2.173227193307351590e-01,-2.836531927455487878e-01,-3.009596936865865380e-01,2.901848077880134213e-02,3.824634988506174504e-02,1.696475243594287169e-02,1.167269051074981689e-01
-2.468206439268482710e-01,-2.931141368344653553e-01,-2.575619066383219025e-01,2.175228285444016918e-02,-4.228995192668529024e-02,-1.998675582863281355e-02,9.871387481689453125e-02
-2.400114784111470889e-01,-3.231538817098914551e-01,-2.451786909154692329e-01,1.784689107687493018e-02,-4.086230229154104443e-02,-3.014625442853702958e-02,1.232917383313179016e-01
-2.778686996591063219e-01,-2.914606890490784585e-01,-2.397731009629591459e-01,1.104959925969472775e-02,-2.408773315473515184e-02,-1.797189973081766631e-02,7.231678068637847900e-02
-2.801407840021130080e-01,-2.569692432649867131e-01,-2.693075729369467930e-01,1.991935743305517023e-02,-1.304288199176739660e-02,-2.157426943471473305e-02,5.916330590844154358e-02
-2.469042613011340759e-01,-3.055674812376800720e-01,-2.429735616419250455e-01,9.809053245550907602e-03,-5.096407515204587346e-02,-9.377883470218480524e-03,1.096900552511215210e-01
-2.762889131075607629e-01,-3.141312337781080322e-01,-2.213381375866535217e-01,-5.694876164232058266e-03,-5.015335781402947835e-02,-6.597345855702731882e-03,1.196036860346794128e-01
-2.625138419859362471e-01,-2.700669327721997304e-01,-2.730362135545131852e-01,-6.337406949332493981e-03,5.330924515426287494e-03,-5.722146221250595105e-03,1.980571635067462921e-02
-2.609590909261998437e-01,-2.616909532816649731e-01,-2.806173243293341169e-01,-6.114287381789986278e-03,3.839946245788507934e-03,-4.326677353071875683e-03,2.418975345790386200e-02
-2.692835741474472466e-01,-2.624083338834126145e-01,-2.714758595933750018e-01,-1.503868113447565449e-02,8.649251828728179992e-03,-1.524890136985615138e-02,4.083685949444770813e-02
-2.693009947806312421e-01,-2.623413971275859180e-01,-2.734643213921502669e-01,-7.880286489018511684e-03,6.485132172856887880e-03,-5.603046509477582066e-03,2.239183522760868073e-02
-2.530030352038508679e-01,-2.690832494294856381e-01,-2.800921520310625801e-01,-1.381045662479602788e-02,8.865423388172826227e-03,-7.493004730274310798e-03,3.915614262223243713e-02
-2.913743077934340397e-01,-2.752214783165569667e-01,-2.438650909986616322e-01,-5.696756438799502678e-03,4.802049583398400844e-03,-1.941685200000575762e-02,5.521061271429061890e-02
-2.959808461828509762e-01,-2.810921446830158543e-01,-2.342254439530640775e-01,-2.488652436951531779e-02,2.911247694159025540e-02,-3.688520172502935540e-02,1.076945960521697998e-01
-2.842765582471078467e-01,-2.844948797919177319e-01,-2.332720952776581314e-01,-1.065537068007251821e-02,2.378154027360191575e-02,-2.124334317634013827e-02,7.748401910066604614e-02
-2.897401621907605418e-01,-2.836297616194612958e-01,-2.269292287531407826e-01,-8.474322237655745188e-03,1.750771770277645412e-02,-2.503943021517271092e-02,8.133063465356826782e-02
-2.950936748348422789e-01,-3.028761887583820145e-01,-2.082406689374591557e-01,6.115997361582918741e-03,5.623614590094068444e-02,-7.097336003161176278e-03,1.342787891626358032e-01
-2.732831909471001297e-01,-2.941804894301142115e-01,-2.420946840899109720e-01,-1.002946367602368730e-02,2.762831349995899591e-02,-2.872654662265001612e-03,6.839352101087570190e-02
-2.643117697321780146e-01,-2.815326306332282535e-01,-2.523520373789311932e-01,-1.173062687600848371e-02,2.388748252009925341e-02,-1.931553404705180221e-02,6.236568093299865723e-02
-2.706313463221865501e-01,-3.014388406593560554e-01,-2.375400918178180443e-01,-9.972434203386844331e-03,3.537320853309059571e-02,-1.117579593813646313e-02,8.654724806547164917e-02
-2.808676656717823961e-01,-2.810738343189216337e-01,-2.382891958530831411e-01,-3.208111455308963050e-02,3.757287790046100889e-02,-3.982916939540034895e-02,1.179134920239448547e-01
-2.906955407675600456e-01,-2.795734572109596638e-01,-2.368019413990872513e-01,-1.195314374918483857e-02,3.369263334659117204e-02,-2.559662077608302472e-02,9.071155637502670288e-02
-2.671470718798252264e-01,-2.920197389916982522e-01,-2.506905262908630250e-01,-1.554469552452407768e-02,3.873931518712954436e-02,-1.726286744425476263e-02,8.613897114992141724e-02
-2.699471165750895740e-01,-2.642226555253447406e-01,-2.698232279833978620e-01,-6.900233618007046337e-04,3.083664734177142108e-03,-9.805469212578661088e-04,8.057008497416973114e-03
-2.593704029505617403e-01,-2.977518241372503205e-01,-2.554176857983650462e-01,-3.477993289069481603e-02,5.213849807221530158e-02,-3.519697999390994370e-02,1.309242248535156250e-01
-2.821804088554188406e-01,-2.767647555858288588e-01,-2.396405502136594312e-01,-2.764639070271243670e-02,3.797855427059591144e-02,-4.719076380536309234e-02,1.221047639846801758e-01
-2.685676674572108902e-01,-2.262936977509918957e-01,-3.006570268445308280e-01,-3.647727911317214661e-02,-7.025368958051495492e-03,7.966819698339410588e-03,9.221503883600234985e-02
-2.745716277876479872e-01,-2.352835375910553584e-01,-2.958976904308783795e-01,-1.049655686700913700e-02,-7.459080883598537097e-04,5.198851651441205660e-03,5.700439959764480591e-02
-2.906665375938228268e-01,-2.075530622126188218e-01,-3.165666727306769568e-01,-3.931720953430743043e-02,-6.323440565044870752e-03,1.106688764405499605e-02,1.218861415982246399e-01
-2.831992125866725218e-01,-2.306735000292573501e-01,-2.938742525856899435e-01,-5.200167350327557225e-03,-1.517220148486969362e-03,8.061659778844763521e-03,6.096411496400833130e-02
-2.918075103807213910e-01,-2.228694168804210840e-01,-2.935857574041775830e-01,-8.438228106928770400e-03,-1.885051581233146249e-03,7.752382100191981817e-03,7.268274575471878052e-02
-2.926413498716854966e-01,-2.044367599103705246e-01,-2.989942862233648802e-01,-2.281074176490688679e-02,-5.721633307973788239e-03,1.395337022661955959e-02,1.030730754137039185e-01
-2.950241671166681234e-01,-1.984769583982275709e-01,-3.169560284749695089e-01,-2.310315944447688744e-02,-6.892301805178275599e-03,-2.393903056643476544e-03,1.169649586081504822e-01
-2.897308784014938632e-01,-2.659441729181000191e-01,-2.475551414077971635e-01,-4.090671529700307639e-03,-6.757710559502519941e-03,1.489141821200860166e-02,4.683846607804298401e-02
-2.925316414180140767e-01,-2.665411564227828101e-01,-2.448913537923495531e-01,9.907868989467551527e-04,5.328655073068075745e-03,1.560105127096507796e-02,5.025152117013931274e-02
-2.765575180066403016e-01,-2.715214604842576263e-01,-2.562715802602588133e-01,-6.452837556498314774e-03,-7.181657613325611797e-03,8.216750607020002067e-03,2.858165279030799866e-02
-2.552077814163706271e-01,-2.631444429208944502e-01,-2.867294111206700746e-01,-1.448571613897876170e-02,-6.271779786532992278e-03,8.122910945057229201e-03,4.185553640127182007e-02
-2.819530083090429073e-01,-2.589893521520426067e-01,-2.572829111852540929e-01,1.890932860820237343e-02,1.439188574264841508e-02,1.876516727531500964e-02,5.761848017573356628e-02
-2.863192028255951427e-01,-2.549367663589955924e-01,-2.635846142615695942e-01,3.122533627400150748e-03,2.487604602452466417e-03,6.627244142200223835e-03,3.110994026064872742e-02
-2.664121204903146523e-01,-2.668190173172084734e-01,-2.719884229219472482e-01,-2.439610801694338995e-03,-2.420438104641408836e-03,2.829504571350816098e-03,9.404290467500686646e-03
-2.917239996178154215e-01,-2.456112375332716036e-01,-2.625791101219103751e-01,3.083460709840927464e-03,3.790328069880913482e-03,2.224260754281254596e-02,5.645957589149475098e-02
-3.021207160538458836e-01,-2.486767445000869492e-01,-2.447559434716647664e-01,5.025239771803707671e-03,8.327120077600865325e-03,4.150497776322655680e-02,9.237394481897354126e-02
-2.860119381440005548e-01,-2.588142380570471190e-01,-2.585872108713089257e-01,-3.807333898421843416e-03,-2.967052362970666081e-03,8.800915431288115764e-03,3.237602487206459045e-02
-2.614795515380350932e-01,-2.626965926105052085e-01,-2.786724740329465377e-01,6.252531088159758547e-03,3.997526343229501622e-03,3.650419369359257822e-03,2.193976007401943207e-02
-2.565942445479617029e-01,-2.772155517869712149e-01,-2.702200842630417266e-01,-2.004200622410678371e-03,-2.790503755358715848e-03,4.718287576674074640e-03,2.078742720186710358e-02
-2.554068473400534778e-01,-2.677934653172950874e-01,-2.782165830749722124e-01,1.480800096113241149e-02,1.133375902861483674e-02,9.790883015143976575e-03,4.149643331766128540e-02
-2.625932857553691102e-01,-2.452446426596920637e-01,-2.906089934229680316e-01,2.170182567786251362e-02,5.835645932363325850e-03,6.143602946445930052e-03,5.657025054097175598e-02
-2.663047258568019826e-01,-2.611372254685935257e-01,-2.783740580072829318e-01,8.878993401703833346e-03,4.318120174778528400e-03,3.620396999054972982e-03,2.380147017538547516e-02
-2.641255851569548341e-01,-2.304320939351764963e-01,-3.090183531879511225e-01,5.129066410864879799e-02,-2.582708575027727223e-03,-8.220892547064614572e-03,1.130405366420745850e-01
-2.583179138613295178e-01,-2.079291445392249527e-01,-3.376592423320065040e-01,8.500823714929993391e-02,-9.359478001597171248e-03,-7.897887038694362954e-03,1.869789212942123413e-01
-2.357505144482913428e-01,-2.708525449990081269e-01,-3.012609617126648653e-01,2.143596353083605452e-02,-8.587128923568269684e-04,1.642032782488583777e-03,6.791924685239791870e-02
-2.557738237513019208e-01,-2.610810214473926472e-01,-2.861737698525181894e-01,8.667963684865873097e-03,4.555551520843112261e-03,5.973718665348783270e-03,3.443400189280509949e-02
-2.696732526428492482e-01,-2.594214651286284590e-01,-2.717833943543664921e-01,-1.034829275733608125e-02,-9.389077328929084504e-03,1.058773960043337889e-02,3.245321288704872131e-02
-2.446232246295403367e-01,-2.618805889474327131e-01,-2.925895484025311521e-01,2.359239417466844554e-02,-5.020357130343309528e-03,-5.270592740557094105e-03,5.999637395143508911e-02
-2.384035567907652475e-01,-2.765607757086577800e-01,-2.985913696744202372e-01,3.008329643186385266e-02,1.049901991322050709e-03,-1.251116087618818484e-03,7.419544458389282227e-02
-2.619136039903910418e-01,-2.800224178530431041e-01,-2.633713810937485245e-01,-7.668173596573290250e-04,-6.429643993709493891e-04,5.364188327237162483e-04,1.753633655607700348e-02
-2.875164829288621715e-01,-2.903220549805130557e-01,-2.296909991943945073e-01,-2.932332693157866884e-04,1.313257415436958411e-02,-3.762057896174000535e-03,6.382790952920913696e-02
-2.592421214314917233e-01,-2.769879550430590642e-01,-2.670738385103290646e-01,-8.126032117434350485e-03,-1.011075806811893157e-02,6.715682830616645504e-03,2.962010726332664490e-02
-2.750918734596842219e-01,-2.883733783070016043e-01,-2.468722588637142779e-01,-7.584988796638991726e-03,1.260929536448272652e-02,-1.596960090799383336e-02,5.255670845508575439e-02
-2.706013686267276785e-01,-2.975857978622989952e-01,-2.389585317681367782e-01,-4.402506097761503361e-03,5.597393830155845268e-02,-9.510252699188927530e-03,1.109595373272895813e-01
-2.854438432219937871e-01,-3.043496918983749633e-01,-2.077880539634074930e-01,-1.156990364426357248e-02,3.370136439267956696e-02,-1.509070407956485463e-02,1.111221089959144592e-01
-2.334202632880394424e-01,-3.188354022989698389e-01,-2.544167564084315880e-01,-1.392525071463169249e-02,4.396789436044194754e-02,-2.521977011030917398e-02,1.193002760410308838e-01
-2.610761961077465720e-01,-2.870377892664763841e-01,-2.609151929843322448e-01,-7.941126876422172423e-03,2.271267401030686861e-02,-5.689975065337190413e-03,5.012104287743568420e-02
-2.671998176668365366e-01,-2.928285337038767366e-01,-2.467592988301953449e-01,-2.139254005685981789e-03,2.150687186804150705e-02,-9.606330602198101878e-03,5.724264681339263916e-02
-3.771841567128113581e-01,-2.510402394950682625e-01,-2.140328829720338777e-01,1.271389787579283934e-02,2.337893169870989760e-02,1.446253432818017659e-01,2.946594655513763428e-01
-3.006595525050181905e-01,-2.976690366380758124e-01,-2.153463891876736258e-01,3.658965778213287348e-03,-4.157986167061116650e-02,3.853433137014483645e-02,1.292812824249267578e-01
-3.014252642040571861e-01,-2.715775274049342936e-01,-2.367975122588433512e-01,-3.644134559948128058e-03,-1.194313500903776935e-02,3.590542141471967513e-02,8.645226806402206421e-02
-3.000485870301055069e-01,-2.577457158095680101e-01,-2.426602990169454133e-01,-2.170449902323655714e-02,-2.755003132469483612e-02,3.871615744865686271e-02,1.041266098618507385e-01
-2.986029564445817353e-01,-2.640090712368491355e-01,-2.477385909090996374e-01,-1.316122876709222185e-02,-3.445394880905993523e-02,5.337440693665072844e-02,1.210441440343856812e-01
-3.047689302413281731e-01,-2.754453792130439060e-01,-2.214919703336060697e-01,-5.016971557128032354e-03,-6.721908539223770199e-03,2.883478034317004529e-02,8.976826816797256470e-02
-2.420016288294208617e-01,-2.086979330812371858e-01,-3.326695493138067672e-01,-1.137602647758179653e-01,8.999949745096491810e-04,5.048941951639116833e-03,2.263901084661483765e-01
-1.900830241043872937e-01,-2.359275943427866506e-01,-3.876118919501048143e-01,-1.008487918039908254e-01,-2.688246816285130847e-02,2.856019371116868405e-02,2.592107951641082764e-01
-2.855567652527519762e-01,-2.321026958375628502e-01,-3.024658630098271406e-01,-4.658795483637286766e-02,2.162039549265994468e-02,-3.745770991462660238e-02,1.271612793207168579e-01
-2.540029141903968335e-01,-2.469668717498975097e-01,-3.145401053221897891e-01,-5.950089961370272351e-02,1.975925503334118646e-03,8.164995441394568010e-03,1.223641484975814819e-01
-2.406857677914880644e-01,-2.715389826954723862e-01,-2.930550026711898903e-01,-2.181416676997045834e-02,-1.369073637087424127e-02,7.967678562766427816e-03,6.526125967502593994e-02
-2.511888892648637683e-01,-2.772886795346030664e-01,-2.795096416881350798e-01,-9.484836269407779033e-03,-1.023814222089185731e-02,9.036743468402308119e-03,3.966650366783142090e-02
-2.359182784757539453e-01,-2.483794432465765700e-01,-3.205775956727527354e-01,-4.388774270826796553e-02,-5.264713228993402223e-04,5.389458704056306060e-03,1.101539805531501770e-01
-2.748038958220249128e-01,-2.878440571700861539e-01,-2.435602377475224734e-01,9.531896116023121437e-03,1.405905677660979416e-02,1.614346375701644284e-02,5.657747760415077209e-02
-2.928289577988411607e-01,-2.996124646476919229e-01,-2.121048355385841966e-01,-7.269260044641547664e-04,1.811629086808306741e-02,2.089613415493801404e-02,9.698516875505447388e-02
-2.946911215690976582e-01,-2.988393944664229362e-01,-2.042728246346247889e-01,2.268090311993495225e-03,1.193214314855676854e-02,1.088552322264113061e-02,9.677706658840179443e-02
-2.866057796825111637e-01,-2.660297255125007587e-01,-2.529035077451589619e-01,8.618340181589840762e-03,7.288424801124864308e-03,1.353716273306750442e-02,4.239943996071815491e-02
-2.643072544849818795e-01,-2.769455580353797908e-01,-2.654824197125799645e-01,2.141156934973254336e-02,2.468273264271763495e-02,1.800615098111062531e-02,6.574190407991409302e-02
-2.851604102013841624e-01,-2.692533060801949318e-01,-2.427992688750563455e-01,2.458650275578516328e-02,3.075143337200376276e-02,3.785046716113210641e-02,1.015976071357727051e-01
-2.978731670191955838e-01,-3.058273918424457283e-01,-2.064623431670753184e-01,-1.349911180371228449e-03,4.348449946047508452e-02,1.645000864017829439e-02,1.250451505184173584e-01
-1.435495605374772499e-01,-3.463659147638427638e-01,-3.241763874896764763e-01,8.828655968008490562e-02,-3.159594722237888537e-02,-4.117402678228702928e-02,2.618984878063201904e-01
-2.917301229738298307e-01,-2.130838054690098460e-01,-3.046017621859278268e-01,-2.570654198933115461e-02,2.337406088388627179e-02,-3.445503298478898996e-02,1.206076145172119141e-01
-1.895165949765722502e-01,-2.775790614667625333e-01,-3.378101224134311131e-01,1.396920714690719212e-01,-3.563137623962130303e-03,-1.679571998268978086e-02,2.758856117725372314e-01
-1.917981941482714281e-01,-2.927626921581327202e-01,-3.186718727374899807e-01,6.293719548632743799e-02,-2.168384758122493192e-02,-1.007068468651531844e-02,1.645573377609252930e-01
-1.527227646314754383e-01,-2.910798795609548240e-01,-3.486715084300373579e-01,8.908795616413618668e-02,2.176475145486696586e-02,1.172271730693491380e-02,2.367933094501495361e-01
-1.935594279030912190e-01,-2.910918184427317978e-01,-3.312728968809234287e-01,6.132705844869903999e-02,7.092864545502220591e-03,6.383054532291804585e-04,1.627305001020431519e-01
-2.021559462534632534e-01,-2.979829390024097413e-01,-3.078737260396725572e-01,5.755845546143277536e-02,9.608945153037826148e-03,8.845898015124236541e-03,1.438023597002029419e-01
-2.962617778630501908e-01,-2.007730564153225872e-01,-3.029371844122295543e-01,-2.661473752694430359e-02,1.531551266268380311e-03,-1.430216983797450922e-02,1.120080724358558655e-01
-3.026721611104910004e-01,-2.361333299338095881e-01,-2.599026133001400285e-01,1.787613083266326175e-02,1.386816236989342477e-02,4.469571171980547125e-02,1.045924499630928040e-01
-3.122685250858883155e-01,-2.795937555365115013e-01,-2.120586713326702566e-01,3.547780922849487310e-03,2.176559838950207354e-02,6.297343701844573816e-02,1.455722004175186157e-01
-2.857341663879970906e-01,-2.722282212700629089e-01,-2.477427652373498101e-01,1.147863739664417050e-02,1.231607789803527975e-02,2.437295774746768215e-02,6.119726598262786865e-02
-1.977106456310194493e-01,-3.049153690162022534e-01,-2.945020870043476013e-01,-4.059862146675951786e-03,-2.436196603378606301e-02,1.611525341474774609e-03,1.110076159238815308e-01
-1.907352646829525988e-01,-3.024490311816815935e-01,-3.065206616217823754e-01,3.067975842131994042e-03,-3.212410872931576594e-03,-9.582163529430762564e-04,1.140760779380798340e-01
-1.857339975405141175e-01,-3.062900448937057596e-01,-3.071738861528086617e-01,-1.843808955046030273e-03,-3.502564582563259896e-03,-2.470557244737535754e-03,1.212699785828590393e-01
-1.604030461198840962e-01,-3.338424227368841368e-01,-3.279162605601845804e-01,-1.787064191683769218e-03,-6.098876898849166575e-03,-1.223180210079866451e-02,1.722165197134017944e-01
-1.768753305247668939e-01,-3.183453946157591696e-01,-3.026952208475551798e-01,-1.007143606657617992e-02,-1.197142803927211431e-02,-1.911150189297948325e-03,1.370761841535568237e-01
-1.729296344847449374e-01,-3.162424946109138046e-01,-3.081596775397014154e-01,-1.297840353969027024e-03,-2.156582905084834800e-02,-1.212558170512978168e-03,1.443961709737777710e-01
-1.624279761901905039e-01,-3.245074647185081651e-01,-3.314794304179395357e-01,5.999362624775333303e-04,-5.441878514068482914e-03,-5.322168550472835234e-03,1.662025302648544312e-01
-2.290658214089691669e-01,-3.136910237499067056e-01,-2.817836115704763222e-01,-3.191791373253313746e-02,-5.526268970173458389e-02,2.224494109898006097e-02,1.384991109371185303e-01
-1.640786544688987991e-01,-3.111881120646382559e-01,-3.355931124689385259e-01,-7.097986253820074906e-03,-4.350468287993829002e-03,-7.390730175385874963e-03,1.618604212999343872e-01
-3.157089352690619632e-01,-1.491440593986688434e-01,-3.676116062216457925e-01,5.259154180111330623e-02,-1.460882165479564579e-02,8.945604393525626377e-03,2.196834981441497803e-01
-3.063998965889834225e-01,-1.636555252796873250e-01,-3.338806857790189153e-01,3.111164251678156384e-02,-1.178721554692405051e-03,9.913288375868327049e-03,1.680971980094909668e-01
-3.093607742826540163e-01,-1.880805813496464474e-01,-3.088240510808248906e-01,1.971089309943708373e-02,-7.291239893300246848e-03,6.211484181564355320e-03,1.268261522054672241e-01
-3.174088216565210674e-01,-1.517739443992474624e-01,-3.209060472426346067e-01,3.201767696383847617e-02,6.614455234935616088e-03,2.556554518381648142e-02,1.821917742490768433e-01
-2.978626240121518554e-01,-1.499422511359169430e-01,-3.455854419277246126e-01,5.478638311814374579e-02,2.031074665574996059e-03,4.826896435264676349e-02,2.173103243112564087e-01
-3.292480826965539231e-01,-1.813103849625316566e-01,-3.010928306916423880e-01,6.222591626563907068e-03,7.217743202332384776e-03,2.952447030920044707e-02,1.462894082069396973e-01
-3.391300714730864918e-01,-7.429701891159057325e-02,-4.022196109559869059e-01,2.038649384725295388e-02,-1.299978215866649280e-02,3.414058539749575266e-02,3.099606037139892578e-01
-3.814169898394208502e-01,-9.512772376676342789e-02,-3.423129505980413434e-01,4.169434046414881301e-02,1.595572124941119913e-02,-8.526515520776503654e-04,2.797799110412597656e-01
-3.049475593741578505e-01,-2.727133982410840929e-01,-2.231937621188948562e-01,-1.035331741126766306e-03,5.074627607135961255e-03,3.347217570901749734e-02,9.235307574272155762e-02
-3.019097471961684209e-01,-2.820152939952699778e-01,-2.236329826093358397e-01,4.458862630397930106e-03,1.075437571923039751e-02,3.463130804790662265e-02,9.471200406551361084e-02
-2.993170402994278501e-01,-2.773430065887779183e-01,-2.236101743950208165e-01,-3.035243372295145202e-03,4.665127119141830765e-03,3.428892702821791788e-02,9.039315581321716309e-02
-2.967122099542591207e-01,-2.878666740439255745e-01,-2.216808074047355581e-01,1.289192538343769288e-03,-7.238637930880168977e-03,1.862371700228324795e-02,7.903777807950973511e-02
-3.050537093306707193e-01,-2.910946665137916223e-01,-2.064294006589547092e-01,-1.575384658912072947e-04,-3.658630857225209608e-03,2.696835874090352039e-02,1.037642359733581543e-01
-3.085841770113676441e-01,-2.726041618723220039e-01,-2.155133032609971300e-01,-1.009548762278147764e-02,-1.883084005183362220e-02,5.289030655699993727e-02,1.279443949460983276e-01
-2.664311753799958882e-01,-2.679768705807935025e-01,-2.704426536217188204e-01,1.940244325509237605e-04,5.669910176423751703e-04,1.083661067162503292e-03,4.108642693608999252e-03
-2.725218956324676478e-01,-2.386717482967937176e-01,-2.951880638135755408e-01,1.875052352665781616e-02,6.126027359329189702e-03,6.811968125786006453e-03,6.110139563679695129e-02
-2.544989422039842797e-01,-2.656480195368867148e-01,-2.845818146592549169e-01,1.829530398673332846e-03,-3.923293805462071938e-04,-3.434010752366409335e-04,2.654697559773921967e-02
-2.563348239111770677e-01,-2.562627954843246236e-01,-2.909864234149698303e-01,9.964486143613260002e-03,1.567470420263550367e-03,2.142950288258705337e-03,3.901608660817146301e-02
-2.742107053597521715e-01,-2.572349289254295401e-01,-2.738173429608382059e-01,-1.662212430510577859e-03,-4.773839565401370895e-03,2.143771424615106575e-03,1.928986422717571259e-02
-2.577225170146890676e-01,-2.527069710518319856e-01,-2.904831182437657144e-01,2.208013489640919119e-02,-5.920038917486466871e-03,-7.343040882196066529e-03,5.470122024416923523e-02
-2.547064533666146824e-01,-2.598586866142911789e-01,-2.979943703026464163e-01,2.657329360853284000e-02,-6.153806975709772797e-05,-2.422785264779866651e-03,6.175273656845092773e-02
-2.610895945410298680e-01,-2.456802988395315746e-01,-2.927383229398644593e-01,2.198713797526842192e-02,-4.122138584707680728e-03,-4.237240156730220572e-03,5.728799477219581604e-02
-2.596743454650068950e-01,-2.474900961976714275e-01,-2.913444124218765308e-01,2.229724466565624619e-02,-6.209567668624121385e-03,-5.116865747882431287e-03,5.677190795540809631e-02
-2.484020125588009553e-01,-2.996985861792887951e-01,-2.673449567067791577e-01,4.451645521751199791e-02,5.733600222216321540e-02,4.424366997837866911e-02,1.539427489042282104e-01
-2.526970955744485270e-01,-2.701825986631445908e-01,-2.791867536709801700e-01,1.826043388281050478e-02,1.308874165519231456e-02,1.032321410316273599e-02,4.876722022891044617e-02
-2.733255352587046216e-01,-2.546941736135292511e-01,-2.681542647658798906e-01,3.388497382902914273e-02,2.999969001939763180e-02,3.431629125009440229e-02,9.977406263351440430e-02
-2.435023371801851022e-01,-2.945365343170455175e-01,-2.588199745878774216e-01,5.921337133466365388e-04,2.718951833317992742e-02,8.100625969015252340e-04,6.540814787149429321e-02
-2.722543592150677427e-01,-2.610443747584115237e-01,-2.759989752150484033e-01,2.120337483381282140e-02,1.713395701130279725e-02,1.978580127117376616e-02,5.987957492470741272e-02
-2.658440973667492435e-01,-2.431336344494448576e-01,-2.928354450476850501e-01,2.133166677203723188e-02,-2.745134940627416437e-03,-3.092815137005823414e-03,5.721632391214370728e-02
-2.890205608646804758e-01,-2.113042737451408526e-01,-3.057126727801854349e-01,4.898048395263986804e-02,-2.663589516033575957e-04,-1.869318800186368576e-03,1.217524409294128418e-01
-2.606693425244075435e-01,-2.390296500510985522e-01,-3.031564243024578165e-01,2.081480088176894047e-02,2.999892507506290128e-03,-4.120466556403272723e-05,6.722801923751831055e-02
-2.713456699467938771e-01,-2.347466165075149935e-01,-2.990403423525925253e-01,2.321440070960094706e-02,-5.070533556572717933e-04,4.278673185393377064e-03,6.922789663076400757e-02
-2.618093041080991612e-01,-2.438736305175459862e-01,-2.952569602146501992e-01,2.036372812881321118e-02,2.915692237234087519e-03,4.453304681437007459e-03,5.804639682173728943e-02
-2.828418009272982148e-01,-2.209800795487585068e-01,-3.006632389933775462e-01,3.031014899095419574e-02,3.841365204901831844e-03,4.343049526419969115e-03,9.002172201871871948e-02
-2.836103974227787705e-01,-2.219621976340693525e-01,-2.911444667799796271e-01,3.301116335238582500e-02,-1.478094587426119835e-02,-3.564512688080027220e-02,1.098093315958976746e-01
-3.161139058280229563e-01,-1.750155263565496000e-01,-3.136067105451491588e-01,4.647559339477515955e-02,-1.886611238370447790e-03,-2.322081694886705613e-03,1.614561080932617188e-01
-2.866901257399074310e-01,-2.301728231700175820e-01,-2.920128587796313457e-01,1.212299884927831028e-02,-6.374777455171969434e-03,-1.569127241662353692e-02,6.946096569299697876e-02
-3.196361188083983729e-01,-1.706014948140773535e-01,-3.173238444089520605e-01,1.374844113558925003e-02,-1.757722284464772675e-03,-4.250245336629209641e-02,1.669363975524902344e-01
-3.116809069136320387e-01,-1.884926730140171203e-01,-3.077322918117485484e-01,4.054965931460023654e-02,1.422302864495358400e-03,-2.263830255890619814e-02,1.455365270376205444e-01
-3.180998696079784804e-01,-2.192649514136316424e-01,-2.757563333485151258e-01,3.016784512271352553e-02,-2.376395388148937887e-02,-5.237495679453683939e-02,1.415280103683471680e-01
-3.098090085471114641e-01,-2.275516926242697746e-01,-2.701758351606092234e-01,2.336929107134052067e-02,3.519478615969583537e-04,-4.718934893506193662e-02,1.157418787479400635e-01
-2.663240120364313568e-01,-2.730351565526227264e-01,-2.642925548878470310e-01,-2.441756214490051809e-03,-1.692140298138055440e-03,1.233120173409058473e-03,9.686999954283237457e-03
-3.200991789088338257e-01,-1.824518984706543501e-01,-2.988226108134162118e-01,1.543146860721974351e-02,-1.119913099485447816e-02,-5.628549583250525012e-02,1.645163446664810181e-01
-2.683228167465636638e-01,-2.611399663713585007e-01,-2.765866044617525943e-01,6.442285690504173656e-03,5.473209404830225479e-03,5.944606885429247131e-03,2.235247939825057983e-02
-2.420207045626019682e-01,-2.729156772371840733e-01,-2.899561096948113370e-01,3.029875432229862942e-02,1.942240082953336847e-02,1.448835638565420733e-02,7.928939908742904663e-02
-2.841440538488452239e-01,-2.498903357334917308e-01,-2.667599272236587660e-01,2.219807066105488128e-02,2.391770662254404101e-02,4.287638814185376623e-02,9.792671352624893188e-02
-2.596363451240090159e-01,-2.710998136340573850e-01,-2.692663750486876673e-01,1.180631576482758099e-02,1.367354723926017014e-02,1.059305348152322392e-02,3.780817985534667969e-02
-2.503563954920045020e-01,-2.754358577020309395e-01,-2.760830592186656607e-01,-6.466015284659411798e-03,-3.067813450239890907e-03,6.233850616211017090e-03,3.026342578232288361e-02
-2.447941128449963033e-01,-2.822628381534696973e-01,-2.809443653918470285e-01,-7.756308625186506683e-03,-8.132993342502883513e-03,8.295585160201053229e-03,4.406370595097541809e-02
-2.464276647266813725e-01,-2.831146180905585452e-01,-2.749713501560105966e-01,-7.022639454256120357e-03,-1.004879281130317652e-02,5.243725952952104676e-03,4.058165475726127625e-02
-2.515745075665609121e-01,-2.767547152330630533e-01,-2.794824267642396776e-01,-1.309406438195640648e-02,-1.084839170192596763e-02,5.598400358700907423e-03,4.088545218110084534e-02
-2.423001673804191791e-01,-2.840246409546591799e-01,-2.780105910004043723e-01,-1.078431170540802668e-02,-1.779956629893211448e-02,3.694272394260221873e-03,5.353959277272224426e-02
-2.998634850776167871e-01,-3.003239039828504708e-01,-2.006014690559216052e-01,-6.166325522915092798e-04,6.390008504226224115e-03,-5.013056016451677803e-03,1.004882678389549255e-01
-3.143864892970235081e-01,-3.077570795707028628e-01,-1.856565418411187940e-01,6.066824992691068411e-03,3.879899654078280274e-03,-2.238915752051572408e-02,1.319899559020996094e-01
-2.965890259431806508e-01,-2.936217576844820099e-01,-2.182310664852918081e-01,-2.613679431536654763e-03,1.902656943478985767e-04,-5.884685031502025557e-03,7.772230356931686401e-02
-2.984394940429224152e-01,-2.962571060553796931e-01,-2.081876975746114189e-01,-2.154759512393785185e-04,9.966089213770171727e-04,-8.409102377638219203e-03,9.037943929433822632e-02
-3.184647694144076002e-01,-3.112341433011401870e-01,-1.750674570462626978e-01,-4.077796573482004791e-03,8.755854530801507329e-03,2.150537507201022609e-03,1.409679800271987915e-01
-3.178933592318704537e-01,-3.194459940286968891e-01,-1.736821525750525397e-01,1.802068404481297834e-03,8.882887464425142342e-04,1.823501959308699780e-02,1.484346538782119751e-01
-3.294728323039091133e-01,-3.118051560855879534e-01,-1.667116868354465153e-01,2.375121842796486249e-03,1.824935513428408915e-02,7.453496940394378680e-04,1.579412370920181274e-01
-3.006834305022716425e-01,-3.068227329541213244e-01,-1.995234560495301457e-01,-7.231572529520170246e-03,1.188687518343912314e-02,3.367551087393865460e-03,1.072701513767242432e-01
-2.982731747111950771e-01,-3.097064408557174686e-01,-1.996894070579460778e-01,-2.011062213536435155e-03,7.954745126207432571e-03,4.928566816092666211e-03,1.060728654265403748e-01
-2.974161947967487452e-01,-2.979473608522082428e-01,-2.115830898691606898e-01,6.113946744817366514e-04,2.486314168838194612e-03,-6.196200561069900191e-04,8.622072637081146240e-02
-3.500849849662683311e-01,-3.503147559182672177e-01,-1.052973795996223205e-01,3.187112666715929271e-02,-9.110304707118663248e-02,3.546993412632631860e-04,2.965202331542968750e-01
-2.846117003080549379e-01,-3.117704093100188700e-01,-2.083099251622900772e-01,-1.734875333011248657e-03,-4.186834240832756904e-02,3.997712533780211491e-03,1.181002259254455566e-01
-2.867873515618726277e-01,-2.973269279139544308e-01,-2.202574948440913782e-01,-6.702885288705169586e-03,-1.204018545085400876e-02,6.453112067718549949e-03,7.702670246362686157e-02
-2.974433434442416146e-01,-3.148991089860552206e-01,-1.966846376363188820e-01,-1.370916310707653504e-02,-3.402858693240237015e-02,-1.160914462326531268e-02,1.290651559829711914e-01
-2.872148380190640005e-01,-3.005130462757499288e-01,-2.159337096901697839e-01,1.217620301414699610e-03,-1.242272984567063983e-02,-2.313254182058398136e-03,8.178769052028656006e-02
-2.860445458451191802e-01,-2.979463053943396389e-01,-2.167785460082225502e-01,-2.892747930169228300e-03,-1.434010241984710540e-02,1.396123631953449622e-03,8.007299900054931641e-02
-2.765616816591850990e-01,-2.694712484377502770e-01,-2.610124634507822172e-01,5.760127523476352845e-03,-5.094810683891657678e-03,-6.237908935213054042e-03,2.181615866720676422e-02
-2.737252514921234559e-01,-2.633808107812769528e-01,-2.648274310635720941e-01,4.178357023745278911e-03,-4.423410549156896188e-03,-5.488194799207252519e-03,1.719221472740173340e-02
-2.782739194451043230e-01,-2.614322810090121685e-01,-2.667552897124616518e-01,4.014056886078246587e-03,-4.233853207455852072e-03,-7.666339298652924752e-03,2.237766236066818237e-02
-3.373918057414467819e-01,-1.511522563394380181e-01,-3.316949529452400403e-01,-9.646492936045086841e-02,3.033934578578545774e-02,4.125415971755307110e-02,2.635151445865631104e-01
-3.107639267531414062e-01,-1.883067667786135213e-01,-3.214030043657089553e-01,-3.163485732280665180e-02,1.180274018174899122e-03,-7.222423238540604321e-03,1.399097591638565063e-01
-2.844828140720120913e-01,-2.728276085338150470e-01,-2.494331627124832529e-01,-4.383872098941451849e-03,-5.922276670631017488e-03,4.321765384788272407e-03,3.427417576313018799e-02
-2.875134498864022614e-01,-2.080668543144678084e-01,-3.081991767327354470e-01,-2.854044068478380630e-02,4.397165606767354865e-03,-3.796160230228675346e-03,1.045369729399681091e-01
-2.761576053496389016e-01,-2.173931198461087899e-01,-3.034301789006544903e-01,-4.130272611906331964e-02,-1.091744901459552539e-02,1.750114839840436962e-02,1.104260161519050598e-01
-2.906886397834136937e-01,-2.158073764864356092e-01,-2.991488383442986176e-01,-3.072153056089514667e-02,-7.747235155945846399e-03,1.329337293280837169e-02,9.926694631576538086e-02
-2.757414935840854509e-01,-2.164380221041826979e-01,-3.093674624967282516e-01,-3.672892943499941887e-02,7.136422418968353838e-03,-7.977444604574078502e-03,1.050356701016426086e-01
-2.752032322799654041e-01,-1.744893485960797852e-01,-3.359770662258181328e-01,-8.675179912878565325e-02,-1.636537919428539961e-02,3.046438561240540077e-02,2.147623151540756226e-01
-2.799162654894266633e-01,-2.145058005412134317e-01,-3.212202411367143240e-01,-6.014318125314931096e-02,-5.810049339254772134e-03,7.611897784421856744e-03,1.407585144042968750e-01
-2.676350427429965428e-01,-2.774302217206133236e-01,-2.594638995025345674e-01,-3.378938662416102173e-03,-1.271523657253999587e-03,1.140242386542981729e-03,1.690424233675003052e-02
-2.272096249155446668e-01,-2.867582200465736975e-01,-2.951739646744242496e-01,-1.934382100532871032e-02,-5.522059994083779871e-03,2.779308995718027427e-03,7.317929714918136597e-02
-2.237193614239819939e-01,-2.804367622664905579e-01,-3.033207739303793726e-01,-4.391157277590280322e-02,-1.501244942806306479e-02,2.534285851975083201e-02,1.158708110451698303e-01
-2.704361875823464989e-01,-2.730189599569320946e-01,-2.599789972536717397e-01,-4.736093647394674575e-03,-2.923583467001963140e-03,2.129050098573354293e-03,1.579760760068893433e-02
-2.473217463634591606e-01,-2.732692045967427541e-01,-2.828300569491792316e-01,2.258947538506460295e-02,-1.130059448049120820e-02,-1.240772692755144277e-02,5.821150168776512146e-02
-2.733521153233979817e-01,-2.667705198740752404e-01,-2.648017684960184415e-01,7.354678193711985598e-03,-9.008546674974964030e-03,-7.643315859895066094e-03,2.532088756561279297e-02
-2.693306631922195993e-01,-2.775682622785050069e-01,-2.592313040410179625e-01,4.170650793275038244e-03,-6.783849531947555231e-03,-4.329012120873857936e-03,2.234984189271926880e-02
-2.635903242361157250e-01,-2.681085702645366053e-01,-2.716014523848054862e-01,4.496393152397657432e-03,-5.444981109094261182e-03,-5.455224683242923013e-03,1.694907061755657196e-02
-2.655858775044397935e-01,-2.726525595102562982e-01,-2.673687818421981444e-01,9.840429980155995793e-03,-9.348824716678756641e-03,-8.546139399506515882e-03,2.850141748785972595e-02
-2.650401788541598136e-01,-2.713576279290573212e-01,-2.695238164697974503e-01,3.936200885894360416e-03,-3.356817143334489464e-03,-3.630472274719393107e-03,1.230913121253252029e-02
-2.658716522841126917e-01,-2.732042504042654363e-01,-2.653704272144000176e-01,4.039587796011394685e-03,-3.963022889072941209e-03,-2.482568155117356127e-03,1.312457211315631866e-02
-2.706440143107644025e-01,-3.045487378608561224e-01,-2.214117579490882670e-01,-5.542050781777376096e-03,4.022003291562632060e-02,-2.000889640223106787e-03,1.009933575987815857e-01
-2.493313847093789337e-01,-2.815688689250503418e-01,-2.741822710490433024e-01,1.704636275817884850e-03,2.523769589367729459e-03,4.226757757852964668e-03,3.061231598258018494e-02
-2.772544301354689100e-01,-2.956273208724802259e-01,-2.363765857857012265e-01,4.956021909332054658e-03,2.260667970001021057e-02,6.843610294429679393e-03,6.713406741619110107e-02
-2.839565923816326776e-01,-2.997899524818782302e-01,-2.144610882805225160e-01,1.540024013703588171e-02,4.229166007344868639e-02,1.638447519359397669e-02,1.142946928739547729e-01
-2.696302782109163410e-01,-2.723269649356737099e-01,-2.615968037657280809e-01,-3.956431277375471386e-03,-2.347350456795654038e-03,2.346340325232245359e-03,1.317113265395164490e-02
-2.626712842906649414e-01,-3.277158427566191912e-01,-2.151651655777305494e-01,-1.631337359502742310e-03,4.235684055349392407e-02,4.953907313993309233e-03,1.226440146565437317e-01
-2.842080558984733107e-01,-2.977908932622609917e-01,-2.254432555143901507e-01,-2.677835835593551320e-03,1.716007692805573276e-02,-8.851311044133534228e-03,7.467222958803176880e-02
-2.608655617975326746e-01,-2.971911602508265915e-01,-2.516948545831045880e-01,-3.148078802908529494e-03,2.793218685423833753e-02,-2.326531054757397139e-03,6.421349197626113892e-02
-2.733587067544296367e-01,-2.643514399987004215e-01,-2.674706566556853127e-01,-2.239561138636114029e-03,-1.828759464841924181e-03,2.085448182011022302e-03,1.004450209438800812e-02
-2.758202267969759314e-01,-2.502008355616818780e-01,-2.822277157825138216e-01,-2.036481700280348694e-02,9.047165036895319506e-03,-1.377377993575768997e-02,5.404116213321685791e-02
-2.332724245844743638e-01,-2.834745246571900301e-01,-2.855808402586602068e-01,-2.453811104899008416e-02,1.591010207375847391e-02,-1.334569217708047803e-02,7.570008188486099243e-02
-2.296040457023830472e-01,-2.783887658924809605e-01,-2.955587831840129631e-01,-1.859356271753167741e-02,3.406699447323593109e-03,-3.304045720312573397e-04,6.771040707826614380e-02
-2.375946435665595158e-01,-2.588799687993028065e-01,-3.218410487146051158e-01,-6.530067941890237149e-02,9.187771216937690860e-03,-7.140602452112851731e-03,1.376809924840927124e-01
-2.862101497028759489e-01,-2.490692960785191035e-01,-2.675102168375744216e-01,3.257664732320978557e-03,-4.648766766810306580e-03,-5.445009296761791143e-03,3.493155539035797119e-02
-2.433138745302467210e-01,-2.757968845548473547e-01,-2.853428470806507189e-01,-1.459803949679074064e-02,6.696065754291642344e-03,-5.732389861853538250e-03,4.825716465711593628e-02
-2.352217816821643437e-01,-2.807123285334516272e-01,-2.887252783706479309e-01,-4.131548502306737342e-02,2.533943225493245910e-02,-9.538905865086728247e-03,9.908708930015563965e-02
-2.435441150651797282e-01,-2.671026496257922767e-01,-2.883434436357659725e-01,-3.536497299574252462e-02,2.415340312983210724e-02,-1.776347381921498936e-02,8.919308334589004517e-02
-2.606210749832513218e-01,-2.577075813798225257e-01,-2.855112991029463698e-01,-3.075795940192986057e-03,6.754589941327306547e-04,-2.750540189306868244e-04,2.702788263559341431e-02
-2.961644802372563889e-01,-2.960904465130328456e-01,-2.091206476378316137e-01,-1.025393903693736148e-04,-2.244195542020371772e-03,1.107269273542400671e-03,8.711491525173187256e-02
-1.856312274755627378e-01,-3.121459317329432492e-01,-3.171721334517297874e-01,1.220618378821368942e-03,-7.836482220841899105e-03,5.805562437655141517e-04,1.298338770866394043e-01
-1.101123308012574298e-01,-3.537148669687527613e-01,-3.554946264515481680e-01,7.031120062521223520e-03,4.523288596974225223e-02,-3.050422715696310405e-02,2.624057829380035400e-01
-1.284112161979700240e-01,-3.033645528671350400e-01,-3.841026944999995085e-01,-5.559915112406990656e-02,3.170353641087707286e-02,-1.828264243385296223e-02,2.540563642978668213e-01
-1.042264041525494955e-01,-3.325618930435692011e-01,-3.401079759966629812e-01,-5.376972599131765729e-03,-1.304380380229608165e-02,4.382363188428088142e-04,2.334840744733810425e-01
-1.347601712220952153e-01,-3.197738590806267212e-01,-3.305118853638474019e-01,-6.055925260426894829e-02,4.077158808007843140e-04,-2.643083113593412952e-03,2.176138311624526978e-01
-2.803528058211463003e-01,-2.543315000332014297e-01,-2.681602064954369813e-01,2.391426548049683208e-03,-4.515968185504379631e-03,-4.896131732876731271e-03,2.566623128950595856e-02
-1.945255689765961193e-01,-3.132903892468255624e-01,-3.034174227337395613e-01,1.690152646090508845e-02,-2.620271684682067004e-02,-1.127529706323911717e-02,1.277815550565719604e-01
-1.548295936529088257e-01,-3.320103853542060723e-01,-3.004646717734900663e-01,3.865129861976571851e-02,-6.566508710728409526e-02,-7.697662904769740980e-03,2.106990963220596313e-01
-1.603054926674345460e-01,-3.365215284301815157e-01,-2.964662007543515387e-01,5.927959345053521352e-04,-8.978945280565106546e-02,2.239219268557813766e-03,2.231606245040893555e-01
-1.941465658514745785e-01,-3.177146666896734084e-01,-2.941049522775608938e-01,-6.643328699433490719e-03,-6.363832569409483275e-02,-5.871505963531431678e-03,1.590421944856643677e-01
-1.264593962608089595e-01,-3.334760081779720164e-01,-3.275715820486307939e-01,-1.967488676903066461e-02,-4.744320809524945476e-02,-1.508773301503139657e-03,2.226861715316772461e-01
-1.231727971086332973e-01,-3.419605874592756556e-01,-3.481750082807120172e-01,4.138891784503554577e-02,-5.180318310968945461e-02,2.386559645288697032e-02,2.533079087734222412e-01
-2.582605143565405714e-01,-2.847506590337186005e-01,-2.589971695359932213e-01,-3.165954909826330065e-03,9.128832897821915690e-03,-3.343462451950396982e-03,3.156531602144241333e-02
-2.408221844420602165e-01,-2.993837844183463437e-01,-2.615451538150814770e-01,-3.619566188661097438e-03,2.501800004256130375e-02,-6.577321030846901111e-03,6.849905103445053101e-02
-2.584099387577097895e-01,-2.861398398470357818e-01,-2.581922516018950176e-01,-2.116951658210570412e-03,8.766260153669450106e-03,-2.931697545598026863e-03,3.232340142130851746e-02
-2.714165083550261204e-01,-2.720962992099236200e-01,-2.542751330567770696e-01,2.791416808020884613e-02,3.789114425317965940e-02,3.173232948092870320e-02,9.985780715942382812e-02
-2.733211911894354862e-01,-2.602111683918391094e-01,-2.694016563766759575e-01,7.006650573293451457e-03,7.931034788269312671e-03,8.341892466016602101e-03,2.608821913599967957e-02
-2.651522419734492209e-01,-2.716895865181013781e-01,-2.652970273895722264e-01,6.458190153129411866e-03,6.341270886271023997e-03,4.740302172267438219e-03,1.884097978472709656e-02
-2.640225568575308435e-01,-2.530057575255038604e-01,-2.853024561467111253e-01,1.890883186476773406e-02,8.555255219504100117e-03,1.151143617303509309e-02,4.998388513922691345e-02
-2.743317859476991916e-01,-2.529517303398243211e-01,-2.728696692408389413e-01,1.659676439429350406e-02,1.218614381620479990e-02,1.577843580192190773e-02,4.946438595652580261e-02
-2.708048030688752772e-01,-2.643004843501396417e-01,-2.709953575976348783e-01,1.795201758669122058e-02,1.224516774617551672e-02,2.333073666475516186e-02,5.561662465333938599e-02
-2.729031431560712262e-01,-2.523809922527568972e-01,-2.751295434554141273e-01,1.785534727679737727e-02,1.151351614661843756e-02,1.662055305593293855e-02,5.152337253093719482e-02
-2.583210406373992463e-01,-2.731758096745408593e-01,-2.723028220751335660e-01,1.102597861854904063e-02,6.565620179259129552e-03,1.063822844618174217e-02,3.228022158145904541e-02
-2.579341393052954068e-01,-2.852889885083285670e-01,-2.614446684514974972e-01,-1.792281850533665585e-03,-3.736704571512324859e-03,-2.843643438728430458e-05,2.676022611558437347e-02
-2.569556240849273365e-01,-2.853209833999780787e-01,-2.616796647544072929e-01,5.268460248388915946e-05,-2.911640167616035262e-03,3.227734186345221704e-04,2.680792659521102905e-02
-2.604404177416511645e-01,-2.861225976567191021e-01,-2.594408225654516453e-01,1.060003356151594011e-03,-6.199183711641713911e-03,1.884268096194017682e-04,2.837273851037025452e-02
-2.645410698270451166e-01,-2.909893686649075439e-01,-2.516497683458632784e-01,-2.005435846154461459e-03,-1.253393351695530379e-02,1.796120094312212128e-03,4.122733324766159058e-02
-2.480778291825994075e-01,-2.877614372237638496e-01,-2.672229652738365435e-01,7.396251114524859873e-05,-6.419217148838109004e-03,-6.735240660658553665e-04,3.614655137062072754e-02
-2.561715116036289430e-01,-2.894784054204802004e-01,-2.545128884101519051e-01,1.736091824228504178e-03,-1.511429982420628426e-02,-1.427517727670721097e-03,4.321834444999694824e-02
-2.897113499149327476e-01,-3.138411624433203873e-01,-2.060435392594881510e-01,-1.140473903956665085e-02,-3.733780963694233179e-02,-3.064239000924282204e-03,1.191727668046951294e-01
-2.944813915162932672e-01,-3.050670075318395180e-01,-1.961950669524430979e-01,-4.199329180689427739e-03,-2.916166900984976801e-02,1.570647744994269415e-02,1.189826503396034241e-01
-2.699140609779470124e-01,-2.752946148277242155e-01,-2.588048533412178331e-01,-4.373653289031355189e-03,2.261851207890660468e-03,-1.578571271150683471e-03,1.709820516407489777e-02
-2.792476733604443706e-01,-2.464083814557293528e-01,-2.786545436126686703e-01,-5.033364906700322702e-03,5.207443127225267615e-03,-5.467653089315833645e-03,3.614326193928718567e-02
-3.039977798099930406e-01,-3.164830564219818787e-01,-1.943496960474920265e-01,-8.588752251488213779e-03,-4.208935495403135635e-02,3.394383420979987798e-02,1.501331478357315063e-01
-3.201264478347188303e-01,-3.936899923489776132e-01,-1.005111906641124042e-01,-7.715366756575019191e-03,-3.793272614498147816e-02,1.684521330810748521e-02,2.741252779960632324e-01
-2.925200621705493775e-01,-3.122697523603478187e-01,-1.943358217157847290e-01,-4.982211283428326226e-03,-2.960348078565502167e-02,1.350928922150739127e-02,1.233708709478378296e-01
-3.024797374826352359e-01,-2.976268570532131785e-01,-2.082565318056539272e-01,-1.681274057563215876e-03,-2.684371907722200509e-02,1.391412661779203863e-02,1.058080941438674927e-01
-3.176268135343731092e-01,-3.168248285814092013e-01,-1.826896296643298612e-01,1.644674415160215337e-04,-2.815596003040360049e-02,1.449981247075333990e-02,1.452912837266921997e-01
-3.016805509309123390e-01,-3.243786983563177739e-01,-1.762164659397887356e-01,-2.081479623236934945e-03,-8.326193285039472022e-03,-3.703114878855171335e-03,1.391630619764328003e-01
-3.015465039475374587e-01,-3.241388874641888407e-01,-1.781670011459922098e-01,2.180923518256015770e-03,-1.039583981985633260e-02,1.590039924967304522e-02,1.400618106126785278e-01
-2.303870249127513981e-01,-2.974077680367674392e-01,-2.703274557589960270e-01,1.563646011033214753e-02,-3.332848840842319443e-02,-1.168787290550885212e-02,8.880236744880676270e-02
-2.611965744582728788e-01,-2.921208141506605460e-01,-2.549033676913766699e-01,8.264273746786905683e-03,-2.121687435313563547e-02,-4.583307076950719240e-03,5.299913138151168823e-02
-2.723319854331502921e-01,-2.993879215014727535e-01,-2.365085796722583567e-01,2.067509951439000168e-02,-5.207064346167561419e-02,-7.897372590676321816e-03,1.121967732906341553e-01
-2.607951264654458923e-01,-2.766811979167744795e-01,-2.691319209171105786e-01,6.232945992687247659e-03,-1.084030590868213621e-02,-6.875038045195855721e-03,2.828983031213283539e-02
-2.851600923285525502e-01,-2.626493362591223457e-01,-2.609675342536688092e-01,1.322349616418006142e-02,-1.224728776889410196e-02,-2.093770076094486621e-02,5.326494202017784119e-02
-2.530898948150128169e-01,-2.807084741138907158e-01,-2.727458840945444218e-01,7.577291108471424438e-03,-1.215006665245816492e-02,-8.021428258085301979e-03,3.760879859328269958e-02
-2.860901031537661510e-01,-2.621625923233549260e-01,-2.624925455846958688e-01,-1.195654078042202202e-02,1.049751438950067943e-02,-2.217761507862651277e-02,5.291265994310379028e-02
-2.687140902574390311e-01,-2.747122441812626659e-01,-2.573396380556183249e-01,-2.270870668231018269e-02,2.591068478774241970e-02,-2.684175634263458871e-02,7.717621326446533203e-02
-2.788144915125702061e-01,-2.815412434698406074e-01,-2.446123571561066301e-01,-5.217503000023252305e-03,1.133861701230432992e-02,-1.407594336443629586e-02,4.829325154423713684e-02
-2.986988963005600684e-01,-2.917992550593353496e-01,-2.164902470755464547e-01,-2.094228806035229248e-02,4.305588419718739401e-02,-4.964914090567829064e-02,1.432163864374160767e-01
-2.891973652794656569e-01,-2.974567258421040861e-01,-2.198276794425841341e-01,-2.901797453624938624e-03,1.227132497253046600e-02,-1.230152417808250132e-02,7.990194112062454224e-02
-2.927323898105505529e-01,-2.874256149681108652e-01,-2.215493606787169445e-01,-4.176231011737260336e-03,1.200533365908397140e-02,-1.688146896901609670e-02,7.782731950283050537e-02
-2.744163897299459753e-01,-3.041317067486448145e-01,-2.303515894413288301e-01,-1.837092862715595382e-02,3.848105317203039111e-02,-3.577144809441987205e-02,1.158781424164772034e-01
-2.814447071117694987e-01,-2.501455052888421071e-01,-2.739973081107072161e-01,1.185964740834917139e-02,-1.160878451973099655e-02,-2.081998427771617963e-02,5.411715805530548096e-02
-2.428015629270922904e-01,-2.991765844727469204e-01,-2.641853326377397448e-01,1.001998577044695485e-03,-2.411753907152123719e-02,-1.342085562087750716e-03,6.467828899621963501e-02
-2.512380468544008205e-01,-2.912915784326678970e-01,-2.648686147359071708e-01,3.004944861327295789e-03,-1.307703029141113471e-02,-4.015023057597573788e-03,4.280889779329299927e-02
-2.516761151413301478e-01,-2.889050461759444799e-01,-2.662402011280042835e-01,2.858789841566919485e-03,-1.351110479534704117e-02,-3.017556538786154811e-03,4.068642854690551758e-02
-2.788275690140968877e-01,-2.894503511726239653e-01,-2.406668022493890780e-01,-1.077542869152360236e-02,-2.162306085575181266e-02,4.371811759490789456e-03,6.150446459650993347e-02
-2.667154788988723713e-01,-2.809635292825261033e-01,-2.559767313324237126e-01,-7.484705996036318879e-03,-1.046722929124764730e-02,8.290571804769804667e-03,3.426785394549369812e-02
-2.634075636735224712e-01,-2.722997036597835652e-01,-2.688808924967732716e-01,-1.783441500519872616e-02,-2.140698817540644464e-02,7.036055515527553199e-03,5.037710443139076233e-02
-2.656972946243168487e-01,-2.715199212784692451e-01,-2.677719166646024829e-01,-4.464259845963043476e-03,-5.349872801437102754e-03,7.127618404448435308e-03,1.800523139536380768e-02
-2.793338604795196911e-01,-2.694477633136859729e-01,-2.555388491091145076e-01,-7.537609140718307468e-03,-9.893304113338058023e-03,1.008139469800088499e-02,3.460751846432685852e-02
-1.169568334036667767e-01,-3.258887345435051430e-01,-3.930611461393984651e-01,-9.490352754052579221e-02,3.544365073720739251e-02,-1.635216116937006359e-02,3.062517046928405762e-01
-2.833313544825516450e-01,-2.458135713595051841e-01,-2.796146287587569779e-01,7.488526529810640361e-03,-8.665619242993055638e-03,-1.609861652020607922e-02,4.952740669250488281e-02
-2.644925436456653789e-01,-2.533806584738048095e-01,-2.823729116988279442e-01,-1.593225199892275498e-02,-1.105799999702185635e-02,8.994724797635557378e-03,4.486568272113800049e-02
-2.648718969430837733e-01,-2.690695146452766751e-01,-2.710020742018813822e-01,-7.942977545662723710e-03,-6.348542692405162273e-03,4.465812617109667614e-03,1.998704671859741211e-02
-2.621135860889529656e-01,-2.563485573590234545e-01,-2.823828769847603892e-01,-1.483474603298344519e-02,-9.380021025013094566e-03,1.251711613782192055e-02,4.421686008572578430e-02
-2.609612204032646376e-01,-2.654546832010855617e-01,-2.761707877373111852e-01,-1.488511631788259557e-02,-8.496394265860452572e-03,1.066924555280135065e-02,3.749590739607810974e-02
-2.612186933766306729e-01,-2.907021380560965151e-01,-2.586878325333477058e-01,-1.012341377125885317e-02,-2.627574640067153675e-02,1.296041851285456570e-02,6.191049888730049133e-02
-2.611845467161265644e-01,-2.726073997960991591e-01,-2.693664540899101678e-01,-4.206212078036131348e-03,-4.720148696021457882e-03,5.974767980365611360e-03,1.819269359111785889e-02
-2.584629987522220063e-01,-2.637574183767482094e-01,-2.839597518701199030e-01,-2.233598889912754085e-02,-1.388801320730062225e-02,5.527557857340141372e-03,5.205868184566497803e-02
-2.616599261272807841e-01,-2.682680018287441626e-01,-2.723814813091086084e-01,-4.610442997277404940e-03,-4.490851126993487472e-03,5.696335853051590591e-03,1.758937351405620575e-02
-2.557786573133502550e-01,-2.703785325400125394e-01,-2.848153789174486250e-01,-2.121486186404331065e-02,-1.465562922038150112e-02,1.235857513461103598e-02,5.554396286606788635e-02
-2.922678425444446559e-01,-2.332898053348270440e-01,-2.768546303356837490e-01,-2.058340387857586409e-03,-6.738984489376546611e-04,1.907728969114827478e-02,6.255266815423965454e-02
-2.784299752187768817e-01,-2.336587669160255509e-01,-2.816403325640541855e-01,-3.202570972644232933e-02,-2.247572450133882016e-02,2.969895855439967647e-02,9.693810343742370605e-02
-3.012655914584664862e-01,-2.463582244844904623e-01,-2.431055146889951613e-01,1.856062313437469719e-02,1.998909495985567650e-02,5.137779209582414575e-02,1.155647486448287964e-01
-3.007713034719999290e-01,-2.511288602742775544e-01,-2.414165273248392585e-01,2.423989767055083344e-02,2.147428079041159912e-02,5.090900823773369943e-02,1.181616634130477905e-01
-2.786282551054213297e-01,-2.475966782635232177e-01,-2.767501377028584453e-01,6.210567094620419309e-03,-7.977590766914729320e-03,-6.268989589793774568e-03,3.650678321719169617e-02
-2.959320950751891388e-01,-2.454062418114821564e-01,-2.613071737849207987e-01,2.032706182403556353e-04,2.202680662902178291e-03,2.154960191524068341e-02,5.839630588889122009e-02
-2.905289385080541686e-01,-2.653648022940233719e-01,-2.438125825906370392e-01,5.326764553389594023e-03,4.000162537979980691e-03,2.078723633365364698e-02,5.540333688259124756e-02
-2.957550778890995491e-01,-3.080097706175879413e-01,-2.143885108554322572e-01,-2.088552973226045703e-02,-5.768892129418756731e-02,3.117902569657784312e-02,1.482459604740142822e-01
-2.639595784622635333e-01,-2.832044748748634433e-01,-2.582270977420792479e-01,8.085470215009188388e-03,2.543408111573401340e-02,8.235351704072866111e-03,5.342109501361846924e-02
-2.849931196835109315e-01,-2.894051863313631401e-01,-2.388671411593926153e-01,2.666037293750899914e-02,3.900646669207367273e-02,3.015744786593393956e-02,1.085165292024612427e-01
-2.761835452772556931e-01,-2.966330921483950611e-01,-2.384886991518342658e-01,6.425664407129790152e-03,1.952552737739307598e-02,8.235109725227316574e-03,6.388258934020996094e-02
-2.620303018662978323e-01,-2.687610855820683486e-01,-2.748625311888007183e-01,1.082237831014536697e-03,1.052764497463951196e-03,2.637951896508794643e-03,1.230096071958541870e-02
-2.744912206202938521e-01,-3.080491736785892498e-01,-2.224434986169994966e-01,2.154428262070975583e-02,3.500750434759282437e-02,1.618459393656253992e-02,1.069419682025909424e-01
-2.802045438467283267e-01,-2.920612537825846844e-01,-2.296819763065298114e-01,9.537571968524239871e-03,2.792817438517083972e-02,1.444434278809690955e-02,8.081401139497756958e-02
-2.304687321547085055e-01,-2.684762266413990850e-01,-2.960305744802540495e-01,4.244745785422081308e-02,-2.073205146431677734e-02,-1.671752923707553462e-02,1.038476005196571350e-01
-2.329912383610173998e-01,-2.645924111876469254e-01,-3.081414840525403820e-01,3.480363243103874044e-02,-3.552261382836105486e-02,-2.446580955234132701e-02,1.161315292119979858e-01
-2.532790696023703436e-01,-2.905464811736110931e-01,-2.725914022950945981e-01,3.712030326105170835e-02,-5.296056026013185036e-02,-3.195728487588207767e-02,1.290508508682250977e-01
-2.474450690328168501e-01,-2.796537072369509880e-01,-2.820135919280694625e-01,2.003965514619010513e-02,-9.847244394265311160e-03,-8.319022001295306445e-03,5.312495306134223938e-02
-2.619402587060472021e-01,-2.589294912815051086e-01,-2.858358575977142380e-01,3.868970627164165788e-02,-4.802325354370783755e-02,-3.302988890315003423e-02,1.238317713141441345e-01
-2.424894733804897617e-01,-2.816278216294709758e-01,-2.769015186461067368e-01,1.339481295950544111e-02,-1.873328129790043095e-02,-1.175732830479107351e-02,5.809426307678222656e-02
-2.500629574750488082e-01,-2.786111059575250293e-01,-2.776071821791596950e-01,1.961077099354473566e-02,-1.137859019075425360e-02,-1.390905261075221951e-02,5.394342914223670959e-02
-2.672052925864933925e-01,-2.704210803291349219e-01,-2.679347040772800947e-01,2.648131222925317278e-03,-1.708332674842375897e-03,-2.584725390648349563e-03,7.639575283974409103e-03
-2.586703846998112954e-01,-2.749519564344254929e-01,-2.707347817989697591e-01,1.504759116902175701e-03,-2.901659600875081905e-03,-4.919424743708081596e-03,1.785681769251823425e-02
-2.849702711077496398e-01,-2.614344372143745376e-01,-2.573776795588961774e-01,1.026753243012962008e-03,6.746659042582458295e-04,3.179338190380983850e-03,2.647120505571365356e-02
-2.654955892166522280e-01,-2.725930962694174120e-01,-2.665235287141359821e-01,2.580343426502154473e-03,-2.788280518718078225e-03,-2.312811257004268248e-03,1.017255056649446487e-02
-2.604541628933300657e-01,-2.715825656112069719e-01,-2.713198661208404139e-01,2.188409572840125696e-03,-3.012538828220412759e-03,-4.978454640784535021e-03,1.539271045476198196e-02
-2.826037815570165979e-01,-2.195390358540519338e-01,-3.045136427260553558e-01,3.129406885375056457e-02,2.523376587542984668e-03,-5.012830928839430086e-03,9.418804198503494263e-02
-2.837465882695295871e-01,-2.116929096489639783e-01,-3.226630130346308523e-01,6.342700140487321503e-02,-5.979248346909162362e-03,-1.718526374724317629e-02,1.502414792776107788e-01
-2.910280633550210716e-01,-2.475242059126029903e-01,-2.711202227478053950e-01,1.018307891540306577e-02,-1.242886996336218207e-02,-2.146904582824038510e-02,5.983406677842140198e-02
-2.766581886002130730e-01,-2.168038761772992928e-01,-3.053137143267597997e-01,4.662878235068353833e-02,-1.285039438311209176e-02,-2.028771730944216659e-02,1.198821812868118286e-01
-2.908979422272782722e-01,-2.142887186226766216e-01,-2.994848731104211570e-01,1.944974581299046407e-02,-4.481951356325883997e-05,-9.420780348231873585e-04,8.796643465757369995e-02
-2.647475579482633234e-01,-2.655490846648127512e-01,-2.737026549884080118e-01,-3.211732558210785449e-03,3.604057610975066467e-03,-3.739385730316207267e-03,1.362060382962226868e-02
-2.969973521423629470e-01,-3.112844295182450871e-01,-2.001615140068114251e-01,1.767012878907534088e-03,-4.939815595670789261e-02,2.373457810810676583e-02,1.413672268390655518e-01
-2.624704843729811499e-01,-2.667758961038615428e-01,-2.744085822276678965e-01,-9.166424366202101034e-03,8.466078414498798277e-03,-8.736188331204392671e-03,2.838508039712905884e-02
-2.582402347871457504e-01,-2.771537236683898620e-01,-2.658447825923219709e-01,-2.331755631150255262e-02,2.725496449969514942e-02,-2.196679766699575695e-02,7.469247281551361084e-02
-2.666913000391347710e-01,-2.584173136582352259e-01,-2.782190674624227533e-01,-2.426600514286914728e-02,2.189774022510287271e-02,-2.440520430014601200e-02,7.272290438413619995e-02
-2.640610477391756583e-01,-2.705612766923499724e-01,-2.706773624294362413e-01,-3.644399356543711645e-03,3.896243963033499055e-03,-3.186024695059512524e-03,1.260398328304290771e-02
-2.925993222899485602e-01,-2.413848829493142611e-01,-2.723999171109603989e-01,1.008272022290051737e-02,-8.790925694606767718e-03,-1.889993532644353158e-02,6.004066020250320435e-02
-3.118837664072015570e-01,-2.752142079770706906e-01,-2.191093839449829439e-01,8.007890119429397074e-03,7.869822572341152178e-03,-4.820248426898349897e-02,1.178913339972496033e-01
-3.146564833721945953e-01,-2.896861690365939990e-01,-2.120721403977624819e-01,-5.231563899909015200e-03,6.947079646407118905e-03,-4.962022183475805343e-02,1.272748708724975586e-01
-2.939010286851175269e-01,-2.605968825674480072e-01,-2.448868897596239158e-01,1.008763597184216335e-03,-7.716424262310239007e-04,-2.158370461954398078e-02,5.728513002395629883e-02
-3.001596763325768413e-01,-2.556254915116462634e-01,-2.547089580714217982e-01,1.081806908729280453e-03,1.019213143132189628e-03,-2.901386166382147885e-02,6.750548630952835083e-02
-3.167431918779491928e-01,-2.436542275391594958e-01,-2.428558563572872087e-01,-1.009199316582560201e-02,-3.918986689857139466e-03,-5.655829968607999081e-02,1.238916069269180298e-01
-2.996630979590637622e-01,-2.634751915763794416e-01,-2.371185318472308068e-01,6.994491426096992141e-03,-9.651761810807417755e-03,-4.355551779249446087e-02,9.526551514863967896e-02
-2.988022293019611531e-01,-2.802194382660005423e-01,-2.293177724387573113e-01,-4.813620115648426824e-03,-1.410052295761305904e-02,-4.621217852029963630e-02,1.046655550599098206e-01
-2.643057091594060437e-01,-2.630067883900252257e-01,-2.765764056583526198e-01,2.237545886289292463e-02,-1.805694956702945039e-02,-1.682748070645066069e-02,5.914247035980224609e-02
-2.747825199315828693e-01,-2.586205121490022241e-01,-2.784510557207011128e-01,3.515335225851596440e-02,-2.972899717411000425e-02,-2.517962271247011635e-02,9.270767867565155029e-02
-2.681461995631444495e-01,-2.704617601911502578e-01,-2.687174060143813770e-01,2.814022702622868272e-02,-4.543088876180176316e-02,-3.607943579115654303e-02,1.117007434368133545e-01
-2.548402476107835546e-01,-2.869316631773607962e-01,-2.623225805622428353e-01,1.474373290110055079e-02,-1.829301396978284117e-02,-1.148814711270596499e-02,5.383023619651794434e-02
-2.768083808533150503e-01,-2.576519433221333144e-01,-2.736516357415024747e-01,2.369262723579783347e-02,-2.773127924739988634e-02,-4.336906832815033003e-02,9.975060820579528809e-02
-2.631145227663868602e-01,-2.710859708396028411e-01,-2.705168709971459418e-01,5.820243145107509460e-03,-5.180172430641623305e-03,-5.717900631082828942e-03,1.842668466269969940e-02
-2.855234329213522937e-01,-2.764956234508587074e-01,-2.493138957544360212e-01,-1.453283559923994328e-02,-2.435059471235365841e-02,2.366633881228087308e-02,7.182262837886810303e-02
-2.801005527936983319e-01,-2.810046766138295515e-01,-2.423550533065684243e-01,-1.495638047821926456e-02,1.509609694980836025e-02,-1.719740480717365377e-02,6.084139645099639893e-02
-2.397381193675679756e-01,-2.731769319736380708e-01,-2.889301868150329078e-01,1.909581147173473187e-02,-1.476310501629209473e-02,-8.254916878085416174e-03,6.201063096523284912e-02
-2.692350695099480773e-01,-2.574409104837052098e-01,-2.785279250200402568e-01,-8.854624066615470260e-03,-4.816475415343544897e-03,5.366686700987239461e-03,2.694945596158504486e-02
-2.373023682415089652e-01,-2.744578189181127725e-01,-2.881601670798089598e-01,1.883267238934073495e-02,-1.209952384181492771e-02,-8.577598808351658694e-03,6.165491417050361633e-02
-2.510945467038340206e-01,-2.611507205137816867e-01,-2.957697679262767942e-01,2.770489492568964374e-02,-8.975673009611625716e-03,-5.570637986842394938e-03,6.546150147914886475e-02
-2.416702212085080625e-01,-2.670260214671192900e-01,-2.922682991497549398e-01,1.936699806412224209e-02,-2.580127403756380961e-03,-2.506208504001150496e-03,5.553542822599411011e-02
-2.660869586992894442e-01,-2.533870008005845165e-01,-2.885033510492072684e-01,1.051451526563733536e-02,3.093391432477483969e-03,1.853148118940277974e-03,3.632004559040069580e-02
-2.540719161666323278e-01,-2.638028431905368731e-01,-2.886001578753025210e-01,2.574596084042038782e-02,-7.177855045485320717e-03,-3.031806584408637106e-03,5.587130412459373474e-02
-2.490286093239799936e-01,-2.747679531337413050e-01,-2.832222774374423824e-01,9.686902029385305660e-03,-4.493450222274822208e-03,-2.303261076192292083e-03,3.618832305073738098e-02
-2.498750325524182192e-01,-2.666831435070688983e-01,-2.885565873908910173e-01,8.053368144831124509e-03,-4.923483777895824344e-03,1.729699782334876042e-03,3.748171776533126831e-02
-2.457111275472511902e-01,-2.850068391237217114e-01,-2.679983756299504916e-01,-2.625685173768450842e-02,4.112270702930678062e-02,-2.309873248955195829e-02,9.953508526086807251e-02
-2.487035965723473629e-01,-2.934364475882704215e-01,-2.646817336889437100e-01,-1.101131345517937813e-03,1.721917675672833548e-02,-3.386544038482254288e-03,4.969028756022453308e-02
-3.280678794446398316e-01,-3.314714463332597560e-01,-1.275581640048437104e-01,-4.990925319150452816e-03,-5.333522464552822862e-02,5.221480308664150360e-02,2.401791065931320190e-01
-2.582310617620626192e-01,-2.860380366593660573e-01,-2.619862230340205822e-01,-3.525503940542030687e-03,2.041475819908466702e-02,-8.425834150445111331e-03,4.672759398818016052e-02
-2.217711551878472909e-01,-2.762435412764544518e-01,-3.078222860498546209e-01,3.108986343666923086e-02,-3.929282868372654253e-03,1.247761459627278737e-03,9.292660653591156006e-02
-2.357690310305939063e-01,-2.731082229238392389e-01,-2.973825279892579054e-01,2.259690067238861316e-02,2.332287992493429184e-03,-3.337975318192808443e-03,6.686886399984359741e-02
-2.576375681371553816e-01,-2.617937028946684119e-01,-2.876218729388589912e-01,1.319609599465801884e-02,-2.961749770705207618e-03,-4.149832285494362526e-03,3.731089830398559570e-02
-2.535121247479142359e-01,-2.563603610157255130e-01,-2.861557643028448394e-01,3.537811100626307020e-02,-2.077008576574628992e-02,-2.058013358290738948e-02,8.544231951236724854e-02
-2.536658849775697000e-01,-2.600288141536273856e-01,-2.973683871398715151e-01,2.538342660375640311e-02,-1.938817407442008749e-03,-1.285305064533562996e-03,6.017896533012390137e-02
-2.357436778763973284e-01,-2.739183258248149566e-01,-2.988235015733390343e-01,1.808291804128971461e-02,-6.960141096401732501e-04,-2.527518953939050014e-03,6.348158419132232666e-02
-2.487688301116799117e-01,-2.858822691699243745e-01,-2.688437435297061362e-01,7.603620540505083136e-04,6.660296329971171492e-03,-4.303735538752313100e-03,3.501056879758834839e-02
-2.429135940030789920e-01,-2.881874306425281640e-01,-2.671493660548385218e-01,-1.105714327830203611e-02,1.679114629362702185e-02,-6.330436708509099529e-03,5.359737575054168701e-02
-2.524557188555073273e-01,-2.861398179869852343e-01,-2.663798619132775602e-01,-1.193529506776735191e-03,1.562109829199261057e-02,-1.797364357250279352e-03,4.006868228316307068e-02
-2.577463690587176726e-01,-2.864153247288478421e-01,-2.609476982846624660e-01,4.055638761026553814e-04,5.667031026602377744e-03,6.361395417693174259e-04,2.895568870007991791e-02
-2.428708180041006248e-01,-2.944050150715077363e-01,-2.659122066180083510e-01,-4.310951036953270671e-03,1.450785619350585323e-02,-2.229783136384462690e-03,5.197462812066078186e-02
-2.595525354094749271e-01,-2.842837037525273169e-01,-2.610779677784262343e-01,-1.893084312555954205e-05,6.116530264060877995e-04,2.467241849246436095e-04,2.403201907873153687e-02
-2.622785086334251670e-01,-2.778295442868654597e-01,-2.674592288495968306e-01,-4.182641190114785856e-03,-8.106446851941314161e-03,4.596054051508777737e-03,2.238542027771472931e-02
-2.773096353535379199e-01,-2.952429167487948813e-01,-2.342689909026737793e-01,-7.413147444126256744e-03,-1.751235570456991311e-02,1.084363251952407542e-02,6.620895117521286011e-02
-2.663682787958013831e-01,-2.877885438215836977e-01,-2.501025602278601490e-01,-2.540526358781048256e-03,-5.534751736860799888e-03,3.464584614347613299e-03,3.491547703742980957e-02
-2.560099815456673422e-01,-2.904183386444728621e-01,-2.572381410736260254e-01,-3.136607675665787232e-03,-8.831842370070395673e-03,1.724860410208810865e-03,3.762484714388847351e-02
-2.596624992738293947e-01,-2.848209985880394979e-01,-2.577370226343993487e-01,-3.461055179038807859e-03,-9.221053485168974329e-03,3.167521620362554260e-03,3.172096237540245056e-02
-2.545291546805117933e-01,-2.880109859167132580e-01,-2.646631415873913484e-01,-3.160146578071720662e-03,-1.125843320271397233e-02,2.018727581578313394e-03,3.615063801407814026e-02
-2.598771432567519857e-01,-3.101689275289638559e-01,-2.220944037086254041e-01,-1.124022043346884978e-02,5.841416350809090774e-02,-1.404094063315435362e-02,1.306295394897460938e-01
-2.608583661845592094e-01,-2.938268729731264850e-01,-2.435849686891034260e-01,2.830899195659326850e-03,2.454399817877441978e-02,1.565932709980317073e-03,6.159052625298500061e-02
-2.844676356414367335e-01,-3.020805392818413093e-01,-2.176306045824098478e-01,-4.806467694681886699e-03,3.425382904101569037e-02,-6.736805785531865473e-03,9.838715195655822754e-02
-2.858306599412305249e-01,-3.072992994269290179e-01,-2.153779297630874501e-01,-1.710419128334950481e-02,4.581954413464351533e-02,7.207907543279876324e-03,1.194522008299827576e-01
-2.607749109114722019e-01,-2.973092396620909961e-01,-2.444658782385073503e-01,-3.893608304995060249e-03,2.149536292020558237e-02,-4.318325123155520098e-03,6.069726124405860901e-02
-2.822844074178870732e-01,-2.347713083131909295e-01,-2.784218462142226125e-01,2.704547741296503202e-02,-1.630939364908577313e-02,-3.334824422237907954e-02,9.174732118844985962e-02
-2.918090835975123420e-01,-2.328042598019530174e-01,-2.761969728541100455e-01,2.511403444781612829e-02,-1.623187015691349849e-02,-3.500142030619021044e-02,9.571823477745056152e-02
-2.933980155012788638e-01,-2.087004230376250935e-01,-3.064737868677055999e-01,5.492015139700536126e-03,-5.378120769260465346e-03,-2.352015693401308255e-02,1.014346927404403687e-01
-3.025137651236017855e-01,-2.160950121287941728e-01,-2.877352803058977893e-01,1.227865365971397490e-02,-1.548652298586911677e-03,-1.466380685958323590e-02,8.668355643749237061e-02
-3.070546588127688881e-01,-2.004100533823219010e-01,-3.047548734666135628e-01,1.930317271230919812e-02,-1.450156035580664818e-02,-2.729529664292058844e-02,1.229509040713310242e-01
-3.114709834209499761e-01,-2.057026921186390078e-01,-2.893685289448927889e-01,1.759143433734475237e-02,-1.204006556872998582e-02,-2.029417707859576883e-02,1.092544570565223694e-01
-2.898115111032249502e-01,-2.501864254134996690e-01,-2.661677816589581580e-01,-2.201904221258798797e-03,2.146272640508834839e-04,1.230168273520797911e-02,4.075495153665542603e-02
-2.894138824379747232e-01,-2.734733323790281001e-01,-2.422013982584215741e-01,-9.159110881137570714e-03,-6.054856795140290369e-03,2.137069925247021829e-02,5.884130299091339111e-02
-2.996545904112556391e-01,-2.329833346737212874e-01,-2.713035724087333733e-01,3.489398217849108003e-03,-4.221053819457560403e-04,4.143706601827266273e-02,9.244886040687561035e-02
-2.796084927829829425e-01,-2.590730472514482519e-01,-2.676892643800691252e-01,-1.040588690218025025e-02,-9.061676578589351189e-03,2.017813722149660455e-02,4.595287889242172241e-02
-2.928148392178382964e-01,-2.597307753401374431e-01,-2.586917341444116558e-01,-1.338967253616032624e-02,-1.439358333982428476e-02,2.525771609566197437e-02,6.483241915702819824e-02
-3.116130628772625921e-01,-2.625015176973019559e-01,-2.375233373124965852e-01,-2.178216987208935959e-02,-2.685565115438175166e-02,6.730521496442438967e-02,1.464227139949798584e-01
-2.840564144205712793e-01,-2.668962402862486427e-01,-2.554011220013661654e-01,-2.340636561941185530e-03,-2.869717167574181889e-03,9.720112937264609176e-03,3.079693019390106201e-02
-2.613492423085944649e-01,-2.843346233046833427e-01,-2.594785993767912968e-01,-1.002128866148972557e-03,-8.529005321714609473e-04,2.864725638207276997e-04,2.408870682120323181e-02
-2.919765058021461246e-01,-2.544041361997312900e-01,-2.577903692485964959e-01,1.008046719739121456e-03,-3.196075156009975816e-03,1.109276888425211535e-02,4.121604561805725098e-02
-2.765998288869154775e-01,-2.255578326940894385e-01,-3.107736884523087384e-01,-5.096182393055328358e-02,-2.354027483601981927e-02,3.502543465307506737e-02,1.365706324577331543e-01
-2.957413734052647958e-01,-2.195238515901674070e-01,-3.004760605800596007e-01,-4.091007938437758729e-02,-1.074869395356596591e-02,3.436881902600101568e-02,1.228964924812316895e-01
-2.669598573881316050e-01,-2.705189904757173136e-01,-2.701760557497726589e-01,-1.379819999910366322e-02,-1.034134052467441424e-02,1.221831751122783721e-02,3.676176443696022034e-02
-2.759571282379841839e-01,-2.452522766600837012e-01,-2.870817806764315860e-01,-2.082644560476924062e-02,-1.360174603919188721e-02,1.371537137942764085e-02,6.187653541564941406e-02
-2.787348961623383747e-01,-2.349204977702705754e-01,-2.940931853086178882e-01,-2.070173306012196984e-02,-8.226058549687859101e-03,6.146147937764442730e-03,6.656205654144287109e-02
-2.782560961012918166e-01,-2.405833340164287848e-01,-2.862828673293624782e-01,-1.829281834966103859e-02,-3.497294767264162978e-03,8.202301124627308856e-03,5.503148958086967468e-02
-2.791010701502907310e-01,-2.225150809450971989e-01,-3.007955355124867780e-01,-2.784409470600810940e-02,-9.326912570675695638e-03,1.301441135649227844e-02,8.941591531038284302e-02
-2.916351491820051711e-01,-2.135906527748916983e-01,-2.969993714689329045e-01,-2.309301713230443517e-02,-5.005450618384506625e-03,2.058315694169927587e-02,9.738784283399581909e-02
-2.902839081717124015e-01,-2.291788475933157210e-01,-2.869532412591090931e-01,-1.514056075090597711e-02,-7.421860672457657876e-03,1.509697453485752544e-02,7.126092165708541870e-02
-2.692074515020072556e-01,-2.721746004867642843e-01,-2.634291132147757453e-01,-3.531168274609851679e-03,-1.531662060804895231e-03,1.604461900797285673e-03,1.055967155843973160e-02
-2.686813803966829894e-01,-2.683160428365435335e-01,-2.676201697739688523e-01,-3.123502255663232127e-03,-2.473416783125170597e-03,1.849120675633305483e-03,7.664975710213184357e-03
-2.722783757321801112e-01,-2.702764365870094498e-01,-2.624806361521312970e-01,-6.464466127940752919e-03,-4.463179116676473449e-03,4.882569389352834494e-03,1.835852116346359253e-02
-2.704927938729115300e-01,-2.646473415998017997e-01,-2.694492233556030070e-01,-2.768529075811665581e-03,-3.124384494420772568e-03,2.590741409923454260e-03,1.007837429642677307e-02
-2.741488468592190308e-01,-2.722229248265482515e-01,-2.588616087980920022e-01,-6.134503755047525722e-03,-2.785529820971549553e-03,4.863050842342319866e-03,2.037372067570686340e-02
-2.866762950132857313e-01,-2.566142243337321549e-01,-2.664733193768857866e-01,-1.968833210407605616e-02,-1.399414233399432113e-02,3.522221419253100672e-02,7.859235256910324097e-02
-2.628799733667859795e-01,-2.731344909321032910e-01,-2.695523878347228508e-01,-3.755351322083249482e-03,5.956657036219044007e-03,-4.107856752108807533e-03,1.675203256309032440e-02
-2.607492585503743965e-01,-2.797597236866882220e-01,-2.645209482094862397e-01,-1.449806403212412342e-03,2.132377995865764389e-03,-3.331796005425733797e-03,1.889897882938385010e-02
-2.548163938610185641e-01,-2.781894534512644457e-01,-2.700674696462311841e-01,-3.735925676751514386e-03,4.211260531620721927e-03,-5.404420355943864718e-03,2.459938637912273407e-02
-2.651788320656415787e-01,-2.733109960498171231e-01,-2.653064282503181381e-01,-1.386135537862543711e-03,1.614660549127229982e-03,-3.420440956206652772e-03,1.066744979470968246e-02
-2.592185623983733755e-01,-2.740658053437727282e-01,-2.701839117434531312e-01,-1.984887813844342461e-03,3.478065300292106088e-03,-4.508329893324936749e-03,1.693988032639026642e-02
-2.783313921111134626e-01,-2.834431982515965842e-01,-2.462932034763467004e-01,8.668567468785175895e-03,-2.321125491647726621e-02,-1.379148010121108818e-02,6.023855134844779968e-02
-2.886818078833893741e-01,-2.943346336631762483e-01,-2.204530059556734367e-01,3.961367721061207631e-03,-2.041572145331551139e-02,-8.463891104909805965e-03,8.114927262067794800e-02
-3.125632648892899823e-01,-2.912812274498509102e-01,-2.010160510375473553e-01,2.173275258795690640e-02,-2.534925110001295598e-02,-3.022471282040314899e-02,1.288683265447616577e-01
-3.148218636534217962e-01,-3.050609114230305452e-01,-1.948158318922943999e-01,9.475445559968763073e-03,-2.524686534465609214e-02,-3.002260238419383886e-02,1.349480897188186646e-01
-3.018703216195501304e-01,-2.858833842128984948e-01,-2.110553073978882754e-01,7.962485005410826350e-03,-1.729723218767168988e-02,-3.091418761992636294e-02,1.049092113971710205e-01
-2.506339182584507719e-01,-2.739918175999196404e-01,-2.841748674484342874e-01,-1.448455760563495398e-02,-8.205874219148182394e-03,4.234922585087905547e-03,4.209941253066062927e-02
-2.561484302094522159e-01,-2.614722216734645110e-01,-2.892398175699257834e-01,2.865673016182501004e-02,4.821454220143043742e-03,2.523563523525115555e-03,5.915809422731399536e-02
-2.861069150992893717e-01,-1.594731077209536330e-01,-3.384193273311665306e-01,8.849067165813714886e-02,3.466675130968124591e-03,4.044311474336446943e-03,2.213010340929031372e-01
-2.039561705758973220e-01,-2.187673907670320550e-01,-3.474869084551255871e-01,1.236840638417134597e-01,-1.786112037915276894e-03,2.191715352884569443e-04,2.541604638099670410e-01
-1.785699627913498455e-01,-3.026394434541556100e-01,-3.318013868597142757e-01,1.200902311847072412e-01,-3.597680839105127371e-02,2.121224622274804281e-02,2.614567279815673828e-01
-2.970603445715214175e-01,-1.822115374641501695e-01,-3.275154110188173151e-01,1.331287237494976072e-01,2.036159882644463306e-02,-5.659508953435610570e-03,2.685612142086029053e-01
-2.668733338840421077e-01,-2.433024935459737192e-01,-2.998522276499003825e-01,6.065265464455199540e-02,-2.289441741689854631e-04,-9.451574570451135027e-03,1.171534061431884766e-01
-2.822634930365988670e-01,-2.251518776456841731e-01,-3.091256454785187291e-01,4.722300860587563126e-02,1.140580593161866739e-02,1.914206741947652168e-02,1.170342862606048584e-01
-2.304224731150542049e-01,-2.897106229981945003e-01,-2.877819481982319405e-01,-1.512573205776451130e-02,-1.714607341158939924e-02,8.158215476449865583e-03,7.191976904869079590e-02
-2.535542261280507303e-01,-2.877885061102462561e-01,-2.650839716940453505e-01,-1.614548353255266990e-03,-1.003055550725379282e-02,2.332264756883071534e-03,3.515939787030220032e-02
-2.446656290780484244e-01,-2.824578008611552948e-01,-2.781664183063814466e-01,-5.814726457968566811e-03,-7.360115303498818498e-03,5.315232337677553050e-03,4.041269049048423767e-02
-2.425140817405914695e-01,-2.880357101964950428e-01,-2.752206430879465815e-01,-3.135741438474501982e-03,-1.975256858112343222e-02,2.539298858485411828e-03,5.359492823481559753e-02
-2.497721693528114628e-01,-2.889044952430892543e-01,-2.656601008570125821e-01,-2.477655555700141767e-03,-4.860752573590695208e-03,2.013691622391971907e-03,3.554568067193031311e-02
-2.667530301112334690e-01,-2.682862431552874849e-01,-2.690401079852652866e-01,-8.130446708549489204e-04,-5.012961179810429373e-04,1.554599056435531637e-03,3.749965690076351166e-03
-2.540284147457846919e-01,-2.836490160247102099e-01,-2.667724463642538457e-01,-4.136153766504973260e-03,-4.318214464939694290e-03,4.620666498036601379e-03,2.887248434126377106e-02
-2.493233425006969040e-01,-2.826156042345125408e-01,-2.742323981818994838e-01,-3.731198323365633555e-03,-3.115705339939454921e-03,4.715014344995687411e-03,3.220465034246444702e-02
-2.826856012799435214e-01,-2.545679280055541671e-01,-2.679207295045460402e-01,-3.576803683822234008e-03,-2.806961578555012236e-03,1.155000091469287650e-02,3.249117359519004822e-02
-2.877392687945684591e-01,-2.411867685715573806e-01,-2.738532329408465693e-01,-8.497691005196549713e-03,-5.985866382633176289e-03,2.107185948345934728e-02,5.804930254817008972e-02
-2.803038385517310771e-01,-2.686832149137655112e-01,-2.554176371007537694e-01,-8.923910489304789570e-03,-9.276618759902408723e-03,1.043744244586031385e-02,3.590355068445205688e-02
-2.801729311932452116e-01,-2.597627941823726361e-01,-2.661168123963474907e-01,-4.989007397487857029e-03,-9.673982756217610474e-03,1.187598532523745712e-02,3.325366601347923279e-02
-2.895030179079547961e-01,-2.435084944111494953e-01,-2.664042564789882994e-01,-8.797170061679852188e-03,-8.212880854163174746e-03,2.079746779978077637e-02,5.760869011282920837e-02
-2.946776297927599653e-01,-2.474985672903525502e-01,-2.595005259462423441e-01,-2.763462270946559409e-03,-4.677451074676897483e-03,2.235561411370768498e-02,5.823689699172973633e-02
-2.675387566369917258e-01,-2.754716892207954015e-01,-2.613124729348091924e-01,-2.669078078004344812e-03,-1.273154112479858626e-03,9.987621611214812182e-04,1.342825312167406082e-02
-2.880376264872727132e-01,-2.647405325872840831e-01,-2.554986958626150328e-01,1.386549522967408209e-02,1.479856666944389179e-02,1.902164090288106790e-02,5.623780936002731323e-02
-2.863729167974632395e-01,-2.578040803109220014e-01,-2.602749384071652572e-01,1.154710393333217974e-03,4.754586331630398371e-03,9.436948499156976727e-03,3.302545100450515747e-02
-2.799385740395046729e-01,-2.667830946688470872e-01,-2.581698167227796104e-01,4.119601428529692279e-03,4.851873393269932715e-03,9.113403278165926880e-03,2.704190649092197418e-02
-2.922460347335120168e-01,-2.652109462861033662e-01,-2.365716373439374354e-01,2.082464489132721669e-02,2.832225543281263400e-02,4.200986496945890297e-02,1.064298227429389954e-01
-2.847459103665432867e-01,-2.606913657923107253e-01,-2.668139143536129576e-01,1.627134885825340729e-02,1.315043507514306736e-02,2.314882814030859437e-02,5.821948498487472534e-02
-2.803194594329129763e-01,-2.906684010427372788e-01,-2.318153298214816749e-01,1.529904000123716648e-02,3.718956044531807753e-02,2.880041405710996594e-02,1.014962121844291687e-01
-2.657032824758605583e-01,-2.830620980501354911e-01,-2.616291980475198287e-01,1.173129555004487519e-02,1.998470421515250242e-02,1.263347597407993121e-02,4.978450760245323181e-02
-2.254151508070279253e-01,-2.859887887782890381e-01,-2.959512358222736172e-01,2.487527066510678703e-02,1.834095369571757742e-02,7.913076368412664749e-03,8.616981655359268188e-02
-2.415858361369975782e-01,-2.878145012461250651e-01,-2.787515506453548952e-01,1.336306542832130240e-02,3.225244481564059490e-02,8.802965092167882102e-03,7.542619109153747559e-02
-2.612312800432025628e-01,-2.684005329736074419e-01,-2.664922921947440737e-01,2.853014295648823723e-02,2.912049538901106960e-02,2.167378985078702303e-02,8.022802323102951050e-02
-2.481875604824864412e-01,-2.836963372279948103e-01,-2.686385210207732910e-01,8.247614209909090444e-03,1.749684476159360860e-02,5.660335111086529578e-03,4.659970849752426147e-02
-2.550102313911514762e-01,-2.884096664591488390e-01,-2.633958213193040021e-01,2.992467512975348354e-02,2.883422049198627879e-02,3.078698442860346857e-02,9.449855238199234009e-02
-2.493543687355108396e-01,-3.019611034014585971e-01,-2.354115962426288344e-01,-5.977951641998620336e-02,9.555788702229635334e-02,-5.365582477267083483e-02,2.246038615703582764e-01
-2.528129574550231906e-01,-3.164599659216179028e-01,-2.388437216063091784e-01,-1.326888679371390767e-02,6.137464585261864780e-02,-3.217793751968265475e-02,1.416692286729812622e-01
-2.615691101322337175e-01,-2.975916422419669916e-01,-2.462520174594063915e-01,-1.637536301072076541e-03,3.049267959290163227e-02,-1.037275401742162803e-02,7.214037328958511353e-02
-2.537765768498183028e-01,-2.874390014023506246e-01,-2.678942205981217906e-01,-1.548145370612378710e-02,2.454810291631380481e-02,-1.047625899524108097e-02,6.093720346689224243e-02
-1.935233699759747461e-01,-3.814033288215071815e-01,-2.236361317596819998e-01,-6.570958733577476896e-02,-1.311585225055158233e-01,5.779312615902568173e-02,3.242362439632415771e-01
-2.679109352752707673e-01,-3.201097947869634419e-01,-2.251519238851438787e-01,-2.760488953128262257e-02,6.587220925455361531e-02,-3.627359310727368280e-02,1.613563746213912964e-01
-2.715343526469298774e-01,-2.643233873622449215e-01,-2.702945573861817996e-01,-4.057783443944049627e-03,6.248922364752995673e-03,-5.259493193209565168e-03,1.715009286999702454e-02
-2.654488411519450586e-01,-2.685777737808427990e-01,-2.727278797324795279e-01,-1.100526066228346353e-02,9.850704878770455766e-03,-9.086289022900656195e-03,3.069425746798515320e-02
-2.605091035629247820e-01,-2.694369482062990984e-01,-2.768495900365960938e-01,-6.759808744526465615e-03,4.361806923366499771e-03,-4.304095521615204992e-03,2.122662030160427094e-02
-2.599462084825347463e-01,-2.681461569329023908e-01,-2.766522033394761548e-01,-9.481111133801858881e-03,6.448866620350876717e-03,-6.151338086618602166e-03,2.678238227963447571e-02
-2.585615087181518668e-01,-2.714616321840566671e-01,-2.737231250476270805e-01,-9.294542747085823148e-03,6.789582026116112480e-03,-8.973547935827825076e-03,2.897819131612777710e-02
-2.714156138886871239e-01,-2.663426827481321091e-01,-2.664312552537853596e-01,-5.638095265195884219e-04,-3.300894101830430119e-04,-2.263581349470836354e-04,5.169853568077087402e-03
-2.216576986500294055e-01,-2.902619694278246731e-01,-2.916912368815263168e-01,-1.478117498885016257e-02,1.044696590909955508e-02,-3.231399217465276939e-03,7.629439979791641235e-02
-2.481751281421760713e-01,-2.833904912792449271e-01,-2.788482080300927479e-01,-1.998809055536488605e-02,1.875173791493662742e-02,-1.491292894521098478e-02,6.341479718685150146e-02
-2.145612715870713894e-01,-3.062088470517947414e-01,-2.850446401604569968e-01,-1.090277849978847809e-02,3.557099273792576483e-02,-2.131380408160997442e-02,1.114580035209655762e-01
-2.295330315462763560e-01,-2.831974182055201905e-01,-2.860940017404406954e-01,-2.313075840504991848e-02,2.835956609861086525e-02,-1.433913093494857197e-02,8.762661367654800415e-02
-2.797137655724465932e-01,-2.773555119670003677e-01,-2.449685386033153556e-01,-1.022485297727103275e-02,1.233922687661376250e-02,-1.733080978224295007e-02,5.293710902333259583e-02
-2.700105954890114068e-01,-2.648013178005834134e-01,-2.712599644598555071e-01,-2.149238836013667164e-02,2.440211702539343136e-02,-1.331936616673923789e-02,6.115211173892021179e-02
-2.860365061366371697e-01,-2.987562217353351701e-01,-2.093808356461938081e-01,-4.244104771571181878e-02,5.184985837184320073e-02,-5.308870235917890340e-02,1.701090931892395020e-01
-2.787282548314879982e-01,-2.767894019079861212e-01,-2.541946618897595322e-01,-1.396167983724494639e-02,2.135172653867414144e-02,-2.148521285681966042e-02,6.241319328546524048e-02
-2.391021818191143566e-01,-2.908027562657298226e-01,-2.778042325420360115e-01,-5.930684701874440815e-03,1.650163731235901668e-02,-1.566382559855311477e-03,5.567469447851181030e-02
-2.719347486541593417e-01,-2.693926230871225291e-01,-2.641021809135573606e-01,-4.356891118467218563e-03,-3.648325881960194118e-03,4.511253012986636730e-03,1.434687059372663498e-02
-2.643955394448477825e-01,-2.698064604343657358e-01,-2.711730446003191575e-01,-4.077935464851661050e-03,-4.060960666583383720e-03,3.605342143471194222e-03,1.330031733959913254e-02
-2.753250618053579846e-01,-2.625199022505123603e-01,-2.685914620663029106e-01,-4.233693737939402471e-03,-5.350819150906238608e-03,7.026092565894876373e-03,2.026950567960739136e-02
-2.713080747637696133e-01,-2.626292185128339396e-01,-2.708727149633073927e-01,-5.746733071421896571e-03,-6.328720323731680704e-03,5.680327838875900807e-03,1.969174854457378387e-02
-2.402287889568071044e-01,-2.770867552155565350e-01,-2.851551647087910979e-01,-1.164813020589420753e-02,9.257163519445735234e-03,-7.720527005499241285e-03,5.063531920313835144e-02
-2.366072526402829834e-01,-2.786790875919792909e-01,-2.880881331292859393e-01,-7.860317435425123386e-03,7.107385555954730955e-03,-6.418465972687144305e-03,5.210483446717262268e-02
-2.319473372587672055e-01,-2.876595989497948147e-01,-2.889549192929634636e-01,-7.919769265454932455e-03,9.316907646478711849e-03,-2.425776379372793310e-03,6.036501377820968628e-02
-2.234937375599323484e-01,-2.867150207488972646e-01,-2.936566576454101019e-01,-1.463244948102403490e-03,7.678289102543239125e-03,-3.713153572938429625e-03,6.861945986747741699e-02
-2.370082856196863430e-01,-2.852279411972892809e-01,-2.809499668777224457e-01,-6.080093647149033102e-03,8.757850130697094823e-03,-7.595521965159932054e-03,5.149011686444282532e-02
-2.342283558393642162e-01,-2.858940854711963797e-01,-2.852372858659640298e-01,-2.078265172666190520e-03,4.378019142956667692e-03,-4.100664598521017862e-03,5.250476300716400146e-02
-2.226224900951674357e-01,-2.891623187917726767e-01,-2.928653249559349248e-01,1.077464282832921692e-02,-1.161350849768485495e-02,-3.917849462915548933e-03,7.407163083553314209e-02
-2.131516748800675320e-01,-2.972160132221064455e-01,-2.949081751628740422e-01,7.862096824221915387e-03,-1.276794125024791234e-02,-4.177105916640478332e-03,8.720651268959045410e-02
-2.316639635196142688e-01,-2.897739166893592566e-01,-2.802969968661190858e-01,7.047242782235689854e-03,-1.534727156822186800e-02,-2.635750258532615093e-03,6.158184632658958435e-02
-2.374629746807290775e-01,-2.884429341508346067e-01,-2.791838545391932547e-01,3.578885609470314894e-03,-7.190102754268363344e-03,-1.745451294594212600e-03,4.914587736129760742e-02
-2.204671875047454210e-01,-2.959108229253356037e-01,-2.859289293328176051e-01,5.479932698921743256e-03,-1.914027595837140480e-02,-2.720104587002602440e-03,7.905470579862594604e-02
-2.264543423925341470e-01,-2.950553959521144964e-01,-2.839946228586946453e-01,-1.022147225461541306e-03,-3.480764612781744524e-03,-5.633431182312693963e-04,6.411004811525344849e-02
-2.187643815775436318e-01,-2.934692456888513545e-01,-2.918427684320382687e-01,8.080873902810901911e-04,-8.532204922709793818e-03,-6.303843495401500801e-04,7.538901269435882568e-02
-2.674756766776673067e-01,-2.782682404902404594e-01,-2.586863014992794585e-01,-4.293398334386063463e-03,-2.085498175885172178e-03,2.847143467026558381e-03,1.952585019171237946e-02
-2.638131606836215948e-01,-2.776186475813701704e-01,-2.634024924382813992e-01,-2.667289938940913072e-03,-4.323649878669028751e-03,3.208254891203112403e-03,1.745661534368991852e-02
-2.595745505402304310e-01,-2.865079837858129919e-01,-2.551447607173207288e-01,-5.116512369901453361e-03,-1.254143870531681561e-02,3.756395466114088345e-03,3.817162662744522095e-02
-2.641956066565119832e-01,-2.839445624267340484e-01,-2.584551638783985639e-01,-1.714734563882366891e-03,-5.144240303187718431e-03,1.311187035333182893e-03,2.509402111172676086e-02
-2.680444784804896785e-01,-2.785755185329260031e-01,-2.607151264477601260e-01,-5.385689970762436510e-03,-6.515225120652194321e-03,3.213899439443907140e-03,2.207162790000438690e-02
-2.707306703673855175e-01,-2.798286952796023574e-01,-2.538260272999022793e-01,-6.528459717619383533e-03,-4.982126502766898342e-03,5.584214391456182244e-04,2.693700976669788361e-02
-2.596830374195310265e-01,-2.633210256351339873e-01,-2.810949969758831379e-01,-1.914705017289233032e-03,1.158357891008235776e-03,-2.678748730570231808e-03,2.074515074491500854e-02
-2.784717438345708507e-01,-2.556786428219345875e-01,-2.693536700283800100e-01,8.858964383496229986e-03,-8.673056414939204692e-03,-1.202761823154326060e-02,3.591567650437355042e-02
-2.706171095178766528e-01,-2.763942002267255615e-01,-2.564094864277954855e-01,6.558460688935082925e-03,6.757256967125531248e-03,4.390009042060188070e-03,2.532090805470943451e-02
-2.873792897125045376e-01,-2.730914094320943120e-01,-2.370674547636859031e-01,1.250395911610838358e-02,-2.409778724666862548e-02,-3.457486301034504161e-02,8.839680254459381104e-02
-2.774771695633448387e-01,-2.807308173607347968e-01,-2.433090747933763232e-01,9.855283843989101969e-03,-1.604258480841339388e-02,-1.604889853534906610e-02,5.590519309043884277e-02
-2.673554105025796046e-01,-2.677659227665803443e-01,-2.719379547560011878e-01,1.315908193158327188e-02,-9.130159387023649778e-03,-1.032100948268414864e-02,3.329294919967651367e-02
-2.945806062307406714e-01,-2.240393410213746828e-01,-2.903303911853158947e-01,1.821212761739299593e-02,-5.660518977575317370e-03,-2.051067440958520560e-02,8.394969254732131958e-02
-2.651783099963080925e-01,-2.524683453134421995e-01,-2.825884183547627826e-01,1.691807230641792850e-02,-8.327693650151696964e-03,-7.433471692025416661e-03,4.379978775978088379e-02
-2.769320068454883543e-01,-2.608819864800245303e-01,-2.690702501380989875e-01,5.349613523046361022e-03,-5.150005975104576979e-03,-7.460057243714370706e-03,2.292616665363311768e-02
-3.015350206405156830e-01,-2.504021436772315701e-01,-2.452534631905233242e-01,7.912606861658642854e-03,-8.896916921747712384e-03,-4.500475934720827437e-02,9.698414802551269531e-02
-2.983838941802725575e-01,-2.683608926308656550e-01,-2.348145395242526301e-01,1.108261466136181879e-02,-1.342596726346427169e-02,-3.832011857522854559e-02,9.136978536844253540e-02
-2.808702109704531713e-01,-2.668006678869245252e-01,-2.581271227780917443e-01,4.897580355753808692e-03,-5.394885646632604538e-03,-1.002355059312721140e-02,2.925582416355609894e-02
-2.714335810688994766e-01,-2.835445398743907663e-01,-2.554309472032981199e-01,1.156992217597730202e-02,-2.247900683686969783e-02,-1.893085844887086935e-02,5.990998074412345886e-02
-2.865716052185214857e-01,-2.332628137710375804e-01,-2.878375680127595038e-01,5.099377556636552206e-02,-3.848282280843804554e-02,-2.717198225738413908e-02,1.317943334579467773e-01
-2.984023785949869723e-01,-2.339394930221931901e-01,-2.647254960634793930e-01,2.163419952949407338e-02,-1.655522562000839165e-02,-4.666551645764022843e-02,1.089864224195480347e-01
-2.887082856780051054e-01,-2.622922266022290061e-01,-2.606520660124860833e-01,4.603339172138050384e-02,-3.262142209736529352e-02,-5.532417119018105678e-02,1.395557522773742676e-01
-2.575438189151893487e-01,-2.654433583727901502e-01,-2.835168237400285118e-01,1.112867453575882778e-02,-3.406667084459314918e-03,-1.844928531055150395e-03,3.079601563513278961e-02
-2.576486959565492119e-01,-2.816723475872780491e-01,-2.655232836976744726e-01,-5.203085202782427223e-04,-2.846863567689576595e-03,3.230236624540922061e-03,2.250328846275806427e-02
-2.814606485182659656e-01,-2.274136667987240179e-01,-2.971176416836555090e-01,2.707362015042113004e-02,-1.277874661876913544e-02,-9.203015773825274845e-03,8.339873701333999634e-02
-2.799622994809859433e-01,-2.637471043541330662e-01,-2.614052510547936192e-01,5.208455603541127521e-04,-6.144615754057743085e-04,-9.334405087837772692e-04,1.763379946351051331e-02
-2.657768112347937417e-01,-2.571277514016542254e-01,-2.825607324242362384e-01,9.358775134538628235e-03,-2.690854867836952376e-03,-3.239726608357674197e-03,2.859442308545112610e-02
-2.671377104493635746e-01,-2.582834975191143356e-01,-2.805162312433997496e-01,-8.226749459303380266e-03,-5.619694036636656981e-03,4.493862493344311961e-03,2.709619328379631042e-02
-2.569735138835274046e-01,-2.668915336593414844e-01,-2.823037647845713094e-01,-9.769183862520444683e-03,-4.345439831247235526e-03,4.609322046362074668e-03,2.992423437535762787e-02
-2.744215269333933893e-01,-2.913811583189095389e-01,-2.490216038652350861e-01,-3.585600595648676114e-02,-4.658972599391428965e-02,4.928807974078029674e-02,1.379140019416809082e-01
-2.630199164649812404e-01,-2.432318348839555555e-01,-2.928648251412133141e-01,-2.148517845787919003e-02,-3.040644663372886469e-03,2.812378977436468062e-03,5.752533301711082458e-02
-2.386898482960466417e-01,-2.682333179067389883e-01,-2.926413103687543482e-01,-2.160922547385418779e-02,-3.047152163502849734e-03,2.902972154106067942e-03,6.036287173628807068e-02
-2.556475501652118454e-01,-2.661389339928280640e-01,-2.840311379886695242e-01,-1.106634076887267996e-02,-2.862133787679729813e-03,2.695782679436856902e-03,3.211982175707817078e-02
-2.782120543752948927e-01,-2.648512987979282918e-01,-2.622241589912402970e-01,-2.736607088037437425e-03,2.556658616773247340e-03,-3.325913856305158945e-03,1.719807833433151245e-02
-2.762718780725442191e-01,-2.647426679224599844e-01,-2.648821156377323405e-01,-3.019470005269258781e-03,3.095833128037394147e-03,-2.450325796793234850e-03,1.433355640619993210e-02
-2.772284256336213226e-01,-2.589465604192350279e-01,-2.679898776271544270e-01,-1.394310515272845392e-03,3.834815032749773478e-03,-1.752329331013370963e-03,1.760230585932731628e-02
-2.795177488401180965e-01,-2.685181181874397027e-01,-2.564856768646396890e-01,-5.281902537172655093e-03,2.086034426138352101e-03,-2.603744699773069635e-03,2.269829250872135162e-02
-2.862288698669452347e-01,-2.653909765517679098e-01,-2.551216438774367434e-01,-3.294066686703194750e-03,2.974803376188558859e-03,-1.139987317893702452e-02,3.467910736799240112e-02
-3.213048289225372001e-01,-2.449281105478852971e-01,-2.375463025957383900e-01,-1.914977737636114341e-02,1.168546589915937794e-02,-4.530188944725877659e-02,1.188203170895576477e-01
-2.844503900543676189e-01,-2.678900139303394545e-01,-2.553948517388230921e-01,-4.529111614311279524e-03,5.289139622139699994e-03,-8.940031533217875429e-03,3.197711333632469177e-02
-2.791475252516451011e-01,-2.627127063998299650e-01,-2.625715868224878791e-01,-3.281996477978942148e-03,3.162491807847380050e-03,-4.378496537514038438e-03,1.980592682957649231e-02
-2.843520937067099963e-01,-2.579951245451103659e-01,-2.622094674915687595e-01,-1.282101852145304307e-03,2.630600382579144445e-03,-2.662078087479241746e-03,2.546222135424613953e-02
-2.723382459037536618e-01,-2.662262083584032157e-01,-2.561001168009585105e-01,-3.334895872965815133e-02,-3.570310993157995577e-02,3.849171168922146252e-02,1.086610183119773865e-01
-2.590280435682666971e-01,-2.770019390919843394e-01,-2.682377152642906881e-01,-1.633129916337085078e-03,-1.874034866195163022e-03,4.053469517072057562e-03,1.761177182197570801e-02
-2.695549005453099500e-01,-2.661409176816462718e-01,-2.688962689658029315e-01,-7.333336269450920538e-04,1.745448122180366657e-03,-9.448930998294114824e-04,4.824115429073572159e-03
-2.975827026537964937e-01,-2.621054217725328761e-01,-2.464787607521828350e-01,-1.104873415373629512e-03,8.470169908131061284e-03,-3.108192808003967800e-02,7.193312048912048340e-02
-3.089213601312776891e-01,-2.498447296433411735e-01,-2.502541693898351349e-01,1.075304945873539232e-02,1.303352069853578633e-02,-6.760386198699724902e-02,1.342884004116058350e-01
-2.895576625179402952e-01,-2.649889734796009311e-01,-2.522785771403273092e-01,1.696312738175798215e-03,-1.082863480162482139e-03,-1.083512947968478558e-02,3.797107934951782227e-02
-2.832712632218455928e-01,-2.672586168488858549e-01,-2.551006711134779503e-01,-5.948017724498522694e-03,4.787063342168377221e-03,-1.032123896785897346e-02,3.306614607572555542e-02
-2.909904268151112805e-01,-2.714139578966305866e-01,-2.435826987065297933e-01,-7.000511845112303982e-03,5.213833479697050710e-04,-2.524244841132179326e-02,6.133543327450752258e-02
-2.883083500187154091e-01,-2.563272629994884366e-01,-2.599086887437889182e-01,-1.322988050987211617e-03,5.146146857468659325e-03,-1.000862450624167947e-02,3.614271432161331177e-02
-2.858277505632305093e-01,-2.661154777421817497e-01,-2.534990945872950263e-01,-2.931610762563276488e-04,-1.724221834536928939e-04,-1.038943654575724164e-02,3.347555175423622131e-02
-2.879163869030925693e-01,-2.567866496234776919e-01,-2.570099202194183752e-01,-4.541263783867934781e-04,6.079421410173313717e-04,-1.045036462218763493e-02,3.593769297003746033e-02
-2.694561936507451905e-01,-2.613727329133138100e-01,-2.761638373208315511e-01,-6.073380278275109304e-03,-6.135971126903943564e-03,6.043115917721897552e-03,2.230967953801155090e-02
-2.665604531298655933e-01,-2.576847658746775349e-01,-2.789288161949239897e-01,-5.838066156483205996e-03,-3.326523808820660687e-03,4.609234329388456862e-03,2.325324527919292450e-02
-2.597696627131981240e-01,-2.637125459359670465e-01,-2.824209274511046974e-01,-9.938156317751731250e-03,-3.679555867894535037e-03,2.039752287821276506e-03,2.808406762778759003e-02
-2.650973716916298906e-01,-2.453422888795037671e-01,-2.887879494354386734e-01,-1.988253473772086041e-02,-7.251752795481363270e-03,8.440830559997712992e-03,5.456160008907318115e-02
-2.617282192904277216e-01,-2.676428692508546758e-01,-2.767648456818145863e-01,-5.449299583194779258e-03,-5.462133846719265107e-03,5.164732244381821206e-03,2.075474709272384644e-02
-2.704944704094767727e-01,-2.624428629992800466e-01,-2.722840139679792437e-01,-6.047307768326275028e-03,-6.081568543039183802e-03,6.158372653105163332e-03,2.041769959032535553e-02
-2.718072286039251440e-01,-2.682263446192942324e-01,-2.656078564908789796e-01,-5.021963112553821246e-03,-2.910975979565011678e-03,4.657949486909704166e-03,1.397236157208681107e-02
-2.724319657906594805e-01,-2.662107384884697114e-01,-2.657433899969471325e-01,-2.858753437660967699e-03,-3.300393703835854606e-03,2.613565679552517541e-03,1.093238126486539841e-02
-2.705513340230649710e-01,-2.435366263118250163e-01,-2.890591007727472128e-01,-3.852172947952965665e-02,-1.666562984990779470e-02,2.278539432063935583e-02,9.173242002725601196e-02
-2.622674724508993749e-01,-2.760384462567581632e-01,-2.687126183343800934e-01,-4.650161375980651872e-03,-5.395563994874902000e-03,4.318040320001860499e-03,1.872347295284271240e-02
-2.715191554002235330e-01,-2.699803963409311280e-01,-2.626427890705988477e-01,-6.281921047746916002e-03,-5.071353980391123117e-03,6.321721131011177365e-03,1.956872642040252686e-02
-2.594800371316589582e-01,-2.718291945448089164e-01,-2.699489307682701456e-01,-9.699186938643074990e-03,-1.000008884429474249e-02,8.758788502933040690e-03,3.074401617050170898e-02
-2.680609395759043778e-01,-2.785404393526186850e-01,-2.546570112893500326e-01,-8.875599782864387541e-03,-1.246784868668687936e-02,9.091502310695796785e-03,3.715627267956733704e-02
-2.691608422428132807e-01,-2.768574168818709880e-01,-2.603328428254904625e-01,-5.251924860102708502e-03,-6.381889351571403898e-03,4.695172656882513722e-03,2.182163670659065247e-02
-2.720205088854819597e-01,-2.828550779599231513e-01,-2.478158879193766151e-01,-1.386629670199324149e-02,3.668528043098566449e-02,-2.725768656957834254e-02,8.836682140827178955e-02
-2.780009101482857625e-01,-2.826008876308531148e-01,-2.440668780523788661e-01,-1.453907885603213795e-02,3.062545363158260259e-02,-2.871991664345075607e-02,8.515388518571853638e-02
-2.786658681277224270e-01,-2.700211712934073582e-01,-2.553167554953547080e-01,-7.129914359671070921e-03,6.823822580410898384e-03,-1.009237078157996376e-02,3.187215700745582581e-02
-2.555926868089482551e-01,-2.779813956022931243e-01,-2.679960569342328403e-01,-1.607293165365700910e-02,1.974130616787710818e-02,-1.187543398012121110e-02,5.238945782184600830e-02
-2.925643888923269431e-01,-2.884188833701732402e-01,-2.246648787919741097e-01,-1.783436816167967634e-02,3.383084318001278179e-02,-4.244927952516307224e-02,1.189102455973625183e-01
-2.586721963516525058e-01,-3.158738030401565533e-01,-2.222154209070033859e-01,-1.566171343028916266e-02,5.637582158414612687e-02,-1.927296998905494649e-02,1.344299614429473877e-01
-2.769345991520583139e-01,-2.802301081937575988e-01,-2.464930431057893723e-01,-1.062753495458347228e-02,1.352651605482033462e-02,-1.416480324421927339e-02,5.027452111244201660e-02
-2.762613816675514311e-01,-2.937330195256201981e-01,-2.316856186510295457e-01,-7.075153632388737554e-03,2.316852874270208806e-02,-1.453247203946224711e-02,7.392673194408416748e-02
-2.765045835709464273e-01,-2.884457266294920830e-01,-2.396395141994435707e-01,-7.172568439261636439e-03,1.850342564978026474e-02,-1.216629482703355560e-02,5.972737073898315430e-02
-2.506561413515018821e-01,-2.666036129970666968e-01,-2.855348111995248406e-01,6.274111091247066944e-03,2.280073450993661335e-03,2.804820377626701580e-03,3.274000063538551331e-02
-2.527126534828635918e-01,-2.654453673364876032e-01,-2.886302286554414120e-01,1.111376765210828760e-02,-1.999120041279175020e-03,-2.418059896009574009e-03,3.734894841909408569e-02
-2.593560606987451167e-01,-2.602449150636705899e-01,-2.832150498561342711e-01,8.461912946940434305e-03,3.997298177023426123e-03,3.962549264722461939e-03,2.930335700511932373e-02
-2.680141226271478549e-01,-2.507324039162300289e-01,-2.873711375229981435e-01,1.867909086124774909e-02,1.424998189484583122e-02,1.152255768953401073e-02,5.533618852496147156e-02
-2.455597282740820397e-01,-2.455601099258740427e-01,-3.105380657545928624e-01,4.818094931844540962e-02,5.422346528142232835e-03,1.983026360889837345e-02,1.115988120436668396e-01
-2.655882484471616123e-01,-2.474577111017274567e-01,-2.868082040376361830e-01,1.843436173999467645e-02,8.208865122099671605e-03,7.850767738119060479e-03,5.069782212376594543e-02
-3.014804158292712644e-01,-1.999519854600377566e-01,-3.079771056164042897e-01,1.158304212644199055e-02,1.070005582979562976e-02,1.104712457353280303e-02,1.100995838642120361e-01
-3.275187276267510494e-01,-1.698897083615535375e-01,-3.220038671018935483e-01,5.315905127823480208e-03,-4.586275368080205105e-03,1.188532388614194427e-02,1.567790806293487549e-01
-3.515836344190741980e-01,-9.256621078757024113e-02,-3.361782785081862679e-01,1.421064596560014243e-02,1.706123698157625476e-02,1.118353068791128925e-02,2.553260624408721924e-01
-3.410371707824442211e-01,-1.463526512963175541e-01,-3.118332445456080126e-01,5.797139244137834713e-02,-5.463340813753642285e-03,5.100154505295005636e-02,2.259301692247390747e-01
-2.833044412467510265e-01,-2.337502586612452138e-01,-2.900055001767833374e-01,-2.802854186852208121e-02,6.022247832590735608e-03,-1.154782513920657970e-02,7.548671215772628784e-02
-3.070659958398322953e-01,-2.068092919170747279e-01,-2.899963240009559295e-01,-1.899541904110322102e-02,9.333744742572681885e-03,-1.759039131952880308e-02,1.044199764728546143e-01
-2.980543407325247918e-01,-2.063192175496421088e-01,-2.925366340449853109e-01,-1.083985361558951165e-02,5.050971178381715235e-03,-2.024886249312663963e-02,9.797297418117523193e-02
-3.082331726226133495e-01,-2.001851752975921661e-01,-3.054907326765837206e-01,-3.143781563828394743e-02,7.689358039302618755e-03,-2.872966921481424213e-02,1.303999423980712891e-01
-3.042214199476793168e-01,-2.238999845777758790e-01,-2.811027378133922339e-01,-2.116057904319523439e-02,9.005578340702889706e-03,-2.766107968517628538e-02,9.492680430412292480e-02
-2.924533514281775215e-01,-2.263613062068188242e-01,-2.859741806484220050e-01,-1.778773094200774771e-02,9.079653060231306083e-03,-2.643923726887693545e-02,8.529681712388992310e-02
-2.952984243592581270e-01,-2.735883354761622921e-01,-2.378745473705287383e-01,-6.095817443315145780e-03,1.211397320957735731e-02,-1.797717696891308614e-02,6.358782202005386353e-02
-2.990648674647332084e-01,-2.737997798461028753e-01,-2.381928312015606508e-01,1.737399399992281632e-03,-3.286465445286794983e-03,-2.597534078124192486e-02,6.979545205831527710e-02
-3.161894458808814368e-01,-2.395603093617453827e-01,-2.537294683392959382e-01,-7.435650071238282879e-03,7.289826435933824747e-03,-7.572534380464943093e-02,1.500509679317474365e-01
-3.206851768714470419e-01,-2.538015358929118226e-01,-2.323667369046858999e-01,-1.860194795883195196e-02,3.327790694932741128e-02,-4.938438326705968384e-02,1.343254148960113525e-01
-2.438571442625174224e-01,-2.971911445407758312e-01,-2.637682470485938624e-01,2.195887708826376166e-03,-2.033837898033962963e-02,-4.564822180105947147e-03,5.913506820797920227e-02
-2.609212704912895475e-01,-2.655888318645835966e-01,-2.771942783006203781e-01,-2.496923696442007647e-03,1.841934814978554193e-03,-3.620391484432607457e-03,1.669866405427455902e-02
-2.461876679644683097e-01,-2.911520096838672300e-01,-2.628820711083494355e-01,-2.977609983284071771e-03,-1.907798348519552933e-02,3.561574343100955276e-03,5.202310532331466675e-02
-2.563552163455455890e-01,-2.913367854066123974e-01,-2.564138999780213868e-01,2.421090465897410803e-03,-9.809730490531227629e-03,-7.673605056082508221e-04,3.911143913865089417e-02
-2.417097719311251947e-01,-2.935191262434492243e-01,-2.653256971499022288e-01,3.763345242097893353e-03,-2.900988611662597139e-02,4.350393686496658815e-04,6.772127747535705566e-02
-2.440326905500885268e-01,-3.043202733690035244e-01,-2.591193688001002249e-01,-6.549316131908245082e-03,-2.930325836601987283e-02,2.126005499344524752e-03,7.530567049980163574e-02
-2.568338868669046704e-01,-2.876770016683092845e-01,-2.575125709110426819e-01,-4.970956825896869456e-04,-1.020476834245170883e-02,1.078026392107205641e-04,3.527057915925979614e-02
-2.851729210104062551e-01,-2.280997346478580434e-01,-2.925564906009510135e-01,-2.107077538838560832e-02,2.290042985589380888e-03,-9.066176378585082130e-03,7.298987358808517456e-02
-2.785384403976992052e-01,-2.400041641219072819e-01,-2.815927660186142711e-01,-1.451145361291562505e-02,6.235146304702544884e-03,-1.039581384035137904e-02,5.181227996945381165e-02
-2.769510240734315287e-01,-2.382599074980605858e-01,-2.864706539218953574e-01,-1.555634281339095606e-02,6.449126391415385684e-03,-8.703355890253535246e-03,5.508147925138473511e-02
-2.830563795123188231e-01,-2.615801426376090921e-01,-2.609159473215653113e-01,1.806413035126846513e-03,-1.334157738464546552e-03,-3.856231835235324375e-03,2.314465865492820740e-02
-3.227172158995631479e-01,-3.163118916901431210e-01,-1.723525974891497725e-01,6.118976589754181183e-03,-1.266965519799582822e-03,1.917035583387675587e-02,1.513507962226867676e-01
-3.221240901733830597e-01,-3.182252075546687098e-01,-1.763658672432722729e-01,2.657126433898216941e-03,-1.241046792590469808e-02,1.764170510925933306e-03,1.455504894256591797e-01
-3.357388673280218838e-01,-3.346093997686619970e-01,-1.215402610320168997e-01,1.708884234961041649e-03,7.802012298998668369e-03,4.248690544416929005e-02,2.263783812522888184e-01
-3.271580726708175346e-01,-3.756643738389535692e-01,-1.087920159663403052e-01,2.511312368463381600e-02,3.686941246118714821e-02,1.994068648030829921e-02,2.603683769702911377e-01
-3.272746768120656236e-01,-3.343497643843778011e-01,-1.291576106426959580e-01,-1.688271151511052271e-03,2.007548594482743212e-02,4.094815724312599048e-02,2.166794985532760620e-01
-3.395565077093032347e-01,-3.434250366484064010e-01,-1.084277449388401648e-01,-3.695842635466106783e-03,-1.897603183652147446e-02,-1.216775705186956373e-02,2.364212572574615479e-01
-2.685279014094413830e-01,-2.702482158518743072e-01,-2.662929452825323895e-01,-1.913216003456025098e-03,1.028890813566895571e-04,-8.177781744521193247e-04,4.981823731213808060e-03
-3.809176707292141750e-01,-3.685976116609288034e-01,-9.627847673229519843e-02,1.970769550668874468e-03,-3.373686728511648969e-02,4.020522050279355664e-02,2.931553125381469727e-01
-2.733734421025165173e-01,-2.544464702557264757e-01,-2.849973160529692406e-01,-2.505122736468642919e-02,2.398480647191855025e-02,-2.833834147489475153e-02,8.204291015863418579e-02
-2.710278400687665123e-01,-2.506481680178516136e-01,-2.875765196837419824e-01,-2.102810433355836381e-02,1.321931589259652678e-02,-1.210396937397297847e-02,5.759131163358688354e-02
-2.600796853624234850e-01,-2.593929857703675124e-01,-2.818810379279105272e-01,-1.498141773627179041e-02,7.597154527500931884e-03,-8.681022643749982184e-03,3.953859955072402954e-02
-2.563214958401947019e-01,-2.588159013604684477e-01,-2.957395544915156216e-01,-2.533802619971629519e-02,2.559879164912236792e-03,-3.019966669649532236e-03,5.860671401023864746e-02
-2.558123499274481127e-01,-2.618248616229273407e-01,-2.879651746520411892e-01,-5.514352531264108542e-02,2.109542494466894527e-02,-2.693649512526229833e-02,1.162361204624176025e-01
-2.549358997559887929e-01,-2.675781314693873036e-01,-2.799872150489102207e-01,-1.314522415369289224e-02,1.029078563494828340e-02,-9.483164304008591394e-03,3.970607742667198181e-02
-2.471995002138941133e-01,-2.693818295334703405e-01,-2.851942993924033165e-01,-1.511451845463776533e-02,7.495369034398336600e-03,-5.531482281015031449e-03,4.515004903078079224e-02
-2.589158726686307532e-01,-2.423022244775124567e-01,-3.028498446046603565e-01,2.227878711527374669e-02,-1.043264899704475599e-04,-2.149073519025760780e-03,6.662606447935104370e-02
-2.620567012066409851e-01,-2.452273663208688337e-01,-2.962135943399026305e-01,1.887827936101694332e-02,1.091431488472741421e-02,9.357778436252274512e-03,6.094257161021232605e-02
-2.246830563980606321e-01,-2.891536808916878587e-01,-2.906403013767425714e-01,2.268231538295020083e-02,-9.797728921575455177e-03,-1.450007131230442517e-02,8.195559680461883545e-02
-2.385631633832256404e-01,-2.643610421330976901e-01,-2.966450714838196334e-01,3.882133760930832345e-02,1.689646234591563045e-02,1.195006139541119998e-02,9.136093407869338989e-02
-2.535463984222829925e-01,-2.654399089070809126e-01,-2.886402463800396001e-01,1.155448664124824124e-02,1.873909624790563028e-03,1.500120155023430693e-03,3.706007078289985657e-02
-1.859141808894423376e-01,-3.105000420969344921e-01,-3.255629263647595861e-01,-3.785470157090847082e-02,-6.656578006052151636e-03,-1.003172571622832493e-03,1.485262066125869751e-01
-2.635244015664052752e-01,-2.682272443716162136e-01,-2.741083502891510371e-01,1.280865534677813698e-03,1.778091644159812481e-05,3.740069395343924644e-03,1.145640481263399124e-02
-2.669636714350079876e-01,-2.678553547960300651e-01,-2.695937808200137842e-01,-1.461459678537149016e-03,1.391351031799724835e-03,-1.799541073412474004e-03,5.224706605076789856e-03
-1.298913459128883396e-01,-3.292002153400641618e-01,-3.220156696450936495e-01,-4.795763293522500859e-02,5.869909859806915486e-02,-8.328936592419951962e-03,2.361956089735031128e-01
-2.610909488785413402e-01,-2.758815885501002541e-01,-2.673401867846068591e-01,-1.172621747440734299e-03,9.649697126436094716e-04,-2.949241091391859373e-03,1.408539898693561554e-02
-2.337567450174585781e-01,-2.855596195211125288e-01,-2.837215469453195915e-01,-3.641512977758006031e-03,-2.913425551120407860e-03,4.713542227633446199e-03,5.218809470534324646e-02
-2.660644927572333729e-01,-2.732928534318415648e-01,-2.636345214589904118e-01,-4.694418329857400624e-03,-5.207218339714627525e-03,4.069643465489520585e-03,1.651855744421482086e-02
-9.602916300053820908e-02,-3.453137527869179491e-01,-3.486640003968604073e-01,-4.116229067192021113e-02,1.265202318200147214e-03,-1.052895106481549145e-02,2.615522444248199463e-01
-3.658156077987196886e-01,-1.424167697097820373e-01,-3.155888170192030495e-01,6.205164992753038622e-02,-1.684628798461219878e-02,5.589397959365938195e-02,2.509665191173553467e-01
-2.641061801270529474e-01,-2.757984724187689807e-01,-2.643204370343785747e-01,-6.726912544421247055e-04,1.024501760584004532e-04,5.518593737342084330e-04,1.168559491634368896e-02
-2.588064907151522709e-01,-2.757482322736485858e-01,-2.686818077528285165e-01,1.188930736481490745e-03,-1.406996495402807737e-03,-3.807614442700895004e-03,1.645942963659763336e-02
-1.228921869477859197e-01,-3.134265813926765398e-01,-3.447201710531569985e-01,-8.441109841136708314e-02,-2.370587290900809038e-02,9.423668291184988943e-03,2.580177783966064453e-01
-2.949594681026002641e-01,-2.957587505504991610e-01,-2.117660993458070073e-01,-8.856189755724580125e-04,-8.909222683515397121e-04,1.196408802675956885e-03,8.364985883235931396e-02
-2.653941441763251197e-01,-2.727465144224319182e-01,-2.671164972491826273e-01,-2.815073806743785025e-03,-1.546728394555945676e-03,3.040855333794380017e-03,1.015144865959882736e-02
-1.318762851764583299e-01,-3.770778017366567259e-01,-3.233552470745933438e-01,1.871587819422116869e-02,-9.705864852637759166e-02,3.141846951247266725e-04,2.813349068164825439e-01
-2.874630762355945279e-01,-2.538835057761787417e-01,-2.661451765997613905e-01,-1.539231820324870378e-03,2.439993464174300668e-03,-1.148284754520791442e-02,3.587102144956588745e-02
-2.898524429456923457e-01,-2.488140769914905515e-01,-2.655132334728156351e-01,-1.157589633074502210e-02,1.054119470316183284e-02,-1.658155278204482760e-02,5.327195674180984497e-02
-2.985206881756222175e-01,-2.722036841240427218e-01,-2.381228130422760048e-01,-7.158015457078417210e-04,4.998545372499713438e-03,-2.583764015224042365e-02,6.949993968009948730e-02
-2.920245654726620343e-01,-2.616338952710771104e-01,-2.484851098557858684e-01,-3.009731059665190622e-03,3.590878753867115906e-03,-1.924206497739320773e-02,5.169829353690147400e-02
-2.894887545202496915e-01,-2.613088079012818032e-01,-2.499194861145996316e-01,-5.241815728704362840e-03,4.948065290412381398e-03,-1.951183525238812597e-02,5.042609944939613342e-02
-2.736386899181866839e-01,-2.655278264115645825e-01,-2.628947112704434486e-01,-5.097183321366564358e-03,6.678691072831608420e-03,-5.428250132658931498e-03,1.985528878867626190e-02
-2.776016954370008616e-01,-2.634457771568053386e-01,-2.634042436968274115e-01,-3.881645452644502149e-03,3.779854818909395182e-03,-4.702599007406279598e-03,1.885169558227062225e-02
-3.167982378307238056e-01,-2.670453452949924089e-01,-2.331438787898858500e-01,-8.271116930467095965e-03,1.665616399445031190e-02,-5.672221056544902995e-02,1.264954507350921631e-01
-2.671218936847256087e-01,-2.693722818084592907e-01,-2.672020741754431716e-01,-8.272288961491694676e-04,1.499987972346372407e-03,-1.279278969350236593e-03,4.313086625188589096e-03
-3.094277710030918782e-01,-2.814256146787806889e-01,-2.044904312871065610e-01,-7.121769246803819585e-03,-5.240656326636044388e-04,-5.068303772917002320e-02,1.292934119701385498e-01
-2.533567860674124095e-01,-2.659980450241635208e-01,-2.884507982932670300e-01,1.271422149649839226e-02,-1.567892409719113872e-03,-6.666514284112929701e-04,3.796605020761489868e-02
-2.908093059104230882e-01,-2.853093234464101347e-01,-2.264123327854108969e-01,3.263872025337470964e-03,1.549807573073257194e-04,-4.646125959139929887e-03,6.260852515697479248e-02
-1.157387230813809176e-01,-3.724163620369016492e-01,-3.515606635374454170e-01,1.643006129598110002e-02,-6.904932028324334281e-02,-4.929998528892903104e-03,2.759553492069244385e-01
-2.657527315294547776e-01,-2.568591063511672101e-01,-2.819255179321338289e-01,2.032511333844607554e-02,-2.018708106160790883e-02,-1.984254160574256548e-02,6.424605101346969604e-02
-2.400670813469302778e-01,-2.789425023071149257e-01,-2.855877780295399959e-01,1.236776981491463992e-02,-1.044773778393291719e-02,-6.243216201165481191e-03,5.212561786174774170e-02
-2.672124496804457183e-01,-2.594174912580507475e-01,-2.794015024050769957e-01,8.144259478681423539e-03,-5.754652573632008938e-03,-5.346339812486569643e-03,2.623799815773963928e-02
-2.857740358012104687e-01,-2.909002722828129550e-01,-2.270489825246709559e-01,2.267266703361118466e-03,-5.044044198379985314e-03,-7.496656190306760564e-04,6.220436841249465942e-02
-2.607988186937567066e-01,-2.752218875188534031e-01,-2.687933803031320457e-01,-1.172786867359693931e-03,9.658667136070839179e-04,-3.636636999159865470e-03,1.425595302134752274e-02
-2.649643392631644834e-01,-2.785828405577243094e-01,-2.610806707512023928e-01,-2.966449715987392113e-03,1.921260104597681800e-03,-1.685318365068156797e-03,1.730405353009700775e-02
-2.824955139814925298e-01,-2.354230334424050053e-01,-2.857705716717427458e-01,2.509526410715073267e-03,-3.883405541758734592e-03,-2.911946940778696157e-03,4.970194771885871887e-02
-2.571426783991104803e-01,-2.745634010309148665e-01,-2.785971283839140389e-01,2.044578785412950322e-02,-1.784875517561334071e-02,-1.477265313719647657e-02,5.704859271645545959e-02
-2.741027051557590744e-01,-2.449295459370829653e-01,-2.864011860779722696e-01,-3.591436587136686426e-03,-2.356643742033942383e-03,7.398696364672922680e-04,3.765780478715896606e-02
-2.388702056292107412e-01,-2.771722209212976185e-01,-2.892623782214249761e-01,1.483931866771057151e-02,-1.226196681353094661e-02,-4.663609716143096197e-03,5.703704804182052612e-02
-1.967788069606620227e-01,-3.012480369802726932e-01,-3.121685588258091282e-01,6.223335684890662911e-02,-1.004253666255845445e-01,-3.053462440180662596e-02,2.384234964847564697e-01
-2.298234541818022503e-01,-2.853882797819127792e-01,-2.892800957717441834e-01,4.365586905800061986e-03,-7.325600299581736842e-04,-2.076856459582523701e-03,5.822859331965446472e-02
-2.078617829114839666e-01,-3.091906011834403278e-01,-2.683811378133480474e-01,5.559784897525271719e-02,-8.101480445458224267e-02,-4.858690383459963319e-02,2.093881219625473022e-01
-2.844468586644299801e-01,-2.594138284343794343e-01,-2.612265235607211245e-01,-3.651814062151016618e-04,8.075246311183976707e-04,-5.987651887092366228e-04,2.424857020378112793e-02
-2.384103445374742281e-01,-2.958691951991005431e-01,-2.758725960708158231e-01,3.647569632545830109e-02,-4.984403233994818411e-02,-3.235584145315206078e-02,1.309114843606948853e-01
-2.670181952695518945e-01,-2.783114597638872145e-01,-2.593994419605071267e-01,-3.219600697829322084e-03,1.235326648705891003e-03,-1.097421744423625724e-03,1.763270795345306396e-02
-2.644538499681440280e-01,-2.731904686218154521e-01,-2.669316358069277473e-01,-8.818958462875499654e-04,9.696486175161558689e-04,-2.481879913759013970e-03,9.189859963953495026e-03
-2.578995412222525596e-01,-2.824333523455073158e-01,-2.665819110421200344e-01,5.086915537704856348e-03,8.827820890417640773e-03,5.548739765909526354e-03,2.946297265589237213e-02
-2.666199221118917828e-01,-2.831596023220791514e-01,-2.559812004587846412e-01,5.370792775985055827e-03,9.979833587448331753e-03,5.339451946030031489e-03,3.214904665946960449e-02
-2.644230459051082893e-01,-3.057178862826319676e-01,-2.251687595562941180e-01,8.091261936406359337e-03,4.186080294575398458e-02,9.456217502137298156e-03,1.029019355773925781e-01
-2.476241700761457332e-01,-3.060203264526770162e-01,-2.407137080535104168e-01,9.572234570147131541e-03,4.850515752790621193e-02,1.056329547448436879e-02,1.073745489120483398e-01
-2.662573247430138346e-01,-2.726163802950021253e-01,-2.634980650963007487e-01,-3.899005379771970474e-03,5.358567257768032457e-03,-4.504589349534071641e-03,1.606925018131732941e-02
-2.467508775639121188e-01,-3.095629433081301674e-01,-2.598816507661094732e-01,2.060876507663593829e-02,5.166187366758252103e-02,2.378639168522994271e-02,1.194629222154617310e-01
-2.498607125846965815e-01,-3.156749131033405043e-01,-2.400742032604047671e-01,2.225195269370701737e-02,4.140461189112264878e-02,2.062924116708892905e-02,1.139146462082862854e-01
-2.505466515749156242e-01,-2.870635937102058999e-01,-2.609688668477386231e-01,7.347707622758176821e-03,2.076721263201530832e-02,8.405068635020775461e-03,5.224227532744407654e-02
-2.644860920481691968e-01,-2.861239652089582752e-01,-2.499823690649900509e-01,7.871109754098900776e-03,1.784113691506099275e-02,7.217557313264105073e-03,4.784815758466720581e-02
-2.424884812192994454e-01,-2.877805448428857882e-01,-2.760832986864308336e-01,1.032606940119543994e-02,1.967069322269528187e-02,2.905324071098895362e-03,5.625316500663757324e-02
-2.691105170606538088e-01,-2.748023491162076004e-01,-2.613197147016964039e-01,-3.664229883622481358e-03,-8.295099897989467730e-04,9.201177527776781100e-04,1.350264251232147217e-02
-2.654551666794121578e-01,-2.733454348977589210e-01,-2.654409803319381367e-01,-3.016951630378884430e-03,3.095665968024017764e-03,-3.071480194220137499e-03,1.211304590106010437e-02
-2.761894699522942642e-01,-2.407089644866703126e-01,-2.884598127158779501e-01,1.761244496583155503e-02,5.864252125791100112e-03,9.465041714619523705e-03,5.610088631510734558e-02
-2.645914733655748696e-01,-2.779045561351476401e-01,-2.619817715577951178e-01,2.361645893540046965e-03,1.414753872697990409e-03,8.071640797657603748e-04,1.560394652187824249e-02
-2.693431304108326874e-01,-2.689216423302926429e-01,-2.698893224794742252e-01,1.743710732786070416e-02,1.514481800773608694e-02,1.287503513973794859e-02,4.580677300691604614e-02
-2.590185659049150102e-01,-2.807305779669522772e-01,-2.622165702079821692e-01,-5.056490993482988007e-03,7.297229111856625219e-03,-4.738290455477347715e-03,2.675837650895118713e-02
-2.585373106235779872e-01,-2.669966929137705947e-01,-2.813466766076661019e-01,6.730149787925782286e-03,3.429372579277454539e-03,3.859979746331977483e-03,2.479395270347595215e-02
-2.697664548390831252e-01,-2.631572055528443310e-01,-2.703822219195012311e-01,-8.613033050868174664e-04,-3.524926006124408547e-03,9.300037562328092224e-04,9.498771280050277710e-03
-2.599075118649700755e-01,-2.679827754019291075e-01,-2.761004555199497723e-01,-1.341516803127728100e-02,1.480582109064054047e-02,-7.064003465171734587e-03,3.929245099425315857e-02
-2.603387501208274668e-01,-2.428515469961247120e-01,-3.045847101701816273e-01,6.230572982654253300e-02,-1.466216200061327621e-02,-2.129184799360032618e-02,1.291829049587249756e-01
-2.476334313995159353e-01,-2.552088010524329875e-01,-2.951389505469554919e-01,2.707771097292338905e-02,5.416623072568856707e-04,1.096458578165554845e-04,6.445783376693725586e-02
-2.742478360973529816e-01,-2.491411488322503864e-01,-2.818042271975159108e-01,-3.127650804359023012e-03,-4.173824834563541995e-03,1.488141394775767531e-03,3.107110410928726196e-02
-2.644089642228426018e-01,-2.588071075811740340e-01,-2.839208217940343837e-01,1.022460044591379930e-02,5.667828774996058402e-03,5.799076550972770243e-03,3.212917968630790710e-02
-2.551160490519347457e-01,-2.660500060697019720e-01,-2.846728573618989011e-01,1.129293436187517666e-02,4.961713707454825165e-03,4.784669806725898832e-03,3.457035496830940247e-02
-2.647039745528557697e-01,-2.543503017604505922e-01,-2.878726903323032271e-01,1.033564213482057736e-02,-4.142279224841700393e-03,-3.543755193708509298e-03,3.596520051360130310e-02
-2.604110849091209601e-01,-2.941304380989412381e-01,-2.549738476609858528e-01,-5.436811201345452191e-03,2.721110046885645561e-02,-4.303705886825949165e-03,6.095467880368232727e-02
-2.844417892915208634e-01,-2.288130723619870577e-01,-2.904205108804004398e-01,4.186415656570480898e-03,2.162339904079335802e-03,1.474194035451513321e-03,5.946438387036323547e-02
-2.360941114885112269e-01,-2.962927184582116458e-01,-2.763576897302779112e-01,-2.979203031012713811e-03,2.202678233031311189e-02,-2.523675562356878042e-03,6.574562937021255493e-02
-2.386474438295662637e-01,-2.902338602192870987e-01,-2.638356353055680836e-01,-2.497304420229093727e-02,4.117285129221445045e-02,-1.985140072680703638e-02,1.006729304790496826e-01
-2.570449124236569016e-01,-2.926608313460782318e-01,-2.467862549766578206e-01,1.639209117907174107e-02,-3.871102203006401843e-02,-1.709709944968368020e-02,8.898185193538665771e-02
-2.876585929994971425e-01,-2.660154701696980650e-01,-2.469310397858144324e-01,-8.165324244557532057e-03,9.591850011799614092e-03,-1.796206976753394677e-02,5.186157673597335815e-02
-2.627038968230994143e-01,-2.813069282265844295e-01,-2.601199509754829053e-01,-2.327482392291925148e-03,-3.889751595372367178e-03,1.191263065905251873e-03,2.160366065800189972e-02
-2.328842163878448446e-01,-2.869819020047594260e-01,-2.812336702138056865e-01,-1.786953550663043094e-02,2.847786595281003030e-02,-1.378661652019395716e-02,8.130052685737609863e-02
-2.608033521008981115e-01,-2.846460840012076110e-01,-2.595918929459875013e-01,-3.974409834600439278e-05,7.146625306031753524e-04,2.259078432064202317e-04,2.450546994805335999e-02
-2.309473365292412372e-01,-2.963073048477263272e-01,-2.792689375586204226e-01,-4.733886199016172983e-03,2.716794969167354162e-02,-6.049695051089093792e-03,7.641938328742980957e-02
-2.635727571875288722e-01,-2.619213479721895221e-01,-2.786955951172687129e-01,-2.791919877739760126e-03,-2.589343097021099081e-03,2.088093912692481555e-03,1.769124902784824371e-02
-2.809416282005123833e-01,-2.674981429894628948e-01,-2.571804441689224952e-01,-4.166580969896871607e-03,-1.440048319374736489e-03,1.276291324085066436e-03,2.211508899927139282e-02
-2.250232101441166921e-01,-2.949627999029975634e-01,-2.906101158092531112e-01,-3.580482811789293188e-03,-1.284988208118982567e-02,1.867645224750413835e-03,7.176593691110610962e-02
-2.462538307735527565e-01,-2.927205085059044753e-01,-2.651922054642846804e-01,-4.063735274902550987e-03,1.790659438120668218e-02,-3.470902404712646310e-03,5.182115733623504639e-02
-2.630363651133156289e-01,-2.596538254000055335e-01,-2.814143015945128057e-01,2.386597569501558175e-03,-2.591038110357612740e-03,-1.389013693964460906e-03,2.131596393883228302e-02
-2.447674708496667406e-01,-2.751600045732580102e-01,-2.886220456117762900e-01,-1.487172799951176974e-02,-1.274810771120512935e-02,9.096149911367824512e-03,5.397541821002960205e-02
-2.435325484156790066e-01,-2.727227142901608725e-01,-2.895137630698605968e-01,-3.427055220122829284e-03,1.199877861784697387e-04,-5.549120691518042532e-04,4.074726626276969910e-02
-2.591727126830258854e-01,-2.599090574333799974e-01,-2.905133292358970665e-01,-2.663344539739072314e-02,-8.856599007697321668e-03,1.074818342925224456e-02,6.057729572057723999e-02
-2.653299952234182135e-01,-2.473517004717881440e-01,-2.958505067344159301e-01,-5.123373326502939085e-02,-2.478977335607412957e-02,8.132106064600430964e-03,1.082594394683837891e-01
-2.418251282314696493e-01,-2.876362727717849954e-01,-2.741982484192367342e-01,5.171823732414921118e-04,-3.169805655945699598e-03,2.468419511978552777e-03,4.138665273785591125e-02
-2.910233362233136667e-01,-2.577169649846409727e-01,-2.557711474580797173e-01,-2.709136107096617174e-03,1.138506488458867821e-03,1.334635519634776515e-02,4.169161990284919739e-02
-2.831566010099679787e-01,-2.618527202944654353e-01,-2.613645527637609156e-01,-2.052986663979323046e-03,2.662851415188243528e-03,-4.207982961159128718e-03,2.348470687866210938e-02
-2.593075120956944701e-01,-2.836939225280498134e-01,-2.617182430930270476e-01,-3.101992067796525125e-05,-9.805012677796143966e-04,-2.985548625891310112e-04,2.334253676235675812e-02
-2.878217003753317238e-01,-2.670549157608328450e-01,-2.480691959362435473e-01,-1.795713207118348077e-03,2.528083366318197868e-04,-5.602524553153649840e-03,3.591684252023696899e-02
-3.755415715514593966e-01,-3.812756168811920476e-01,-8.191691209194640333e-02,9.104236890990974936e-04,-2.235619576394637029e-02,1.546950102112678443e-02,3.002528548240661621e-01
-2.645599017195210401e-01,-2.643368555180970469e-01,-2.755581115667787295e-01,-2.230989445508769098e-04,-7.284496302139716571e-04,-6.369468114624525674e-04,1.124374568462371826e-02
-2.433418158505679940e-01,-2.821610285548762920e-01,-2.812035975219221440e-01,-4.776401629587097297e-02,-3.012202538721344552e-02,1.603496233837348878e-02,1.086657941341400146e-01
-2.285646272106085508e-01,-2.553366165450684511e-01,-3.079847586632814549e-01,-5.343711126533275124e-02,-7.780919312355163292e-03,5.186250456374623743e-03,1.171620935201644897e-01
-2.422388415235625370e-01,-2.731653286775126976e-01,-2.920157860034897634e-01,-2.066871482977722732e-02,-1.543818601431711304e-02,5.764974332782280865e-03,6.317491829395294189e-02
-2.894279840471620791e-01,-2.758831356437255189e-01,-2.398941667724281412e-01,3.622369737741981503e-03,3.077407054465499271e-03,1.707707966969341032e-02,5.393319949507713318e-02
-2.755689974157471966e-01,-2.628630870354538018e-01,-2.658781390398232691e-01,-1.073989367050215546e-03,2.384557628664859576e-03,-1.579726891350190969e-03,1.265808194875717163e-02
-3.036111189356172080e-01,-3.071857663629646851e-01,-1.873571696560177857e-01,2.747083029608525691e-03,2.902903341457853392e-02,3.660915152035904702e-02,1.432295739650726318e-01
-2.997775183281066735e-01,-2.998414249036102097e-01,-2.062074580670564261e-01,3.566924301472900859e-03,8.952615785747497154e-03,2.083806948281097943e-02,1.016987338662147522e-01
-3.093705355891949171e-01,-2.375484700640060898e-01,-2.731757693019158384e-01,1.827289005141919179e-02,-1.203117675125737508e-02,-5.262252472915791845e-02,1.166714206337928772e-01
-2.962589657769379436e-01,-2.101301341249633969e-01,-2.934951340326110714e-01,2.272257181271854914e-02,-9.734996400516445630e-03,-2.066732963242750437e-02,1.015009358525276184e-01
-3.058479039625952023e-01,-2.145838551792226268e-01,-2.971661198832813433e-01,2.977293438785841989e-02,-1.402338793258903898e-02,-4.383621553803378895e-02,1.289428323507308960e-01
-2.593575901907986814e-01,-2.614512555424421403e-01,-2.843410171808170017e-01,7.198017500038827315e-04,-3.017321472656377037e-04,-8.911109790382183054e-04,2.409269288182258606e-02
-3.016438282316497022e-01,-2.323842202820828040e-01,-2.715600909491266979e-01,2.182720727393317947e-02,-1.511035229733983729e-02,-3.028756192843144041e-02,9.211186319589614868e-02
-2.673657600474659835e-01,-2.690705861174572111e-01,-2.680650639374689836e-01,6.716587560499486659e-04,-6.948667293768377197e-04,-1.220481222388086935e-03,3.077967790886759758e-03
-3.648073255764299749e-01,-1.597420063621962372e-01,-2.791209035288471640e-01,3.841574693672097918e-02,-4.025604495962144258e-02,-6.528803694933980883e-02,2.321619540452957153e-01
-3.342774887791228888e-01,-1.609025693973065996e-01,-2.788849003600384346e-01,5.145876267628767854e-03,-1.668853143283289620e-04,-8.204526342060214361e-02,2.092780768871307373e-01
-2.969615724376399868e-01,-1.501537388677643414e-01,-3.353639834639247086e-01,6.363984734446548330e-02,-3.548200492597914334e-03,-3.302089977340198074e-02,2.100572735071182251e-01
-2.977942184490275368e-01,-2.127787549990565186e-01,-2.914491725184775173e-01,4.647729567822362663e-03,-2.803215202577385816e-03,-1.508807891636305271e-02,8.660133183002471924e-02
-3.078932354192347454e-01,-2.013374337541380676e-01,-2.969343848758058124e-01,2.031004490020918690e-03,-4.632766587968862801e-03,-1.856629024262374320e-02,1.068521887063980103e-01
-3.059653072510944427e-01,-1.886821909610186254e-01,-3.085991453449915545e-01,4.866526930376809156e-04,-8.013084471372224418e-03,-2.224789328652257772e-02,1.254966855049133301e-01
-2.687591001799412571e-01,-2.704164397132078346e-01,-2.657395954821141770e-01,-2.384344874732092796e-03,-9.115550254433855536e-04,1.053373690216606118e-03,6.304396316409111023e-03
-2.667930869726252152e-01,-2.666915776221439049e-01,-2.711092497167936211e-01,-1.868996952169020055e-04,-4.309294160495880988e-04,-5.269956927304744829e-04,4.535720683634281158e-03
-2.963363923447064896e-01,-2.700865150155346006e-01,-2.397077887900085635e-01,-8.893722164231322724e-03,-1.205810426489897433e-02,3.635056434687123500e-02,8.394605666399002075e-02
-2.771768509255029822e-01,-2.626898487996154885e-01,-2.725536183600637541e-01,-1.726528820071486156e-02,-1.597482215197737129e-02,2.118971227861577919e-02,5.631285533308982849e-02
-2.680931382958051112e-01,-2.764304222397800381e-01,-2.613110918613422706e-01,-4.448812421965201401e-03,-4.863393211213450952e-03,4.105245092195473899e-03,1.878677681088447571e-02
-2.665594716659732688e-01,-2.681699920026583972e-01,-2.702669838625768595e-01,-1.870334405075746410e-04,-4.309745676875423575e-04,-1.078490877002328922e-03,3.810510272160172462e-03
-2.675688168320843885e-01,-2.813926605445700169e-01,-2.578088147613313841e-01,-7.478355486823145062e-03,-8.413126290697485118e-03,6.092011596468202561e-03,3.021149337291717529e-02
-2.548553585901475182e-01,-2.819662891419305595e-01,-2.679834440064434165e-01,8.219378484591849778e-04,-2.773667271318499411e-03,-4.058155931133010895e-03,2.501893043518066406e-02
-2.662985228703060869e-01,-2.881752123058125004e-01,-2.480412780994066813e-01,-1.212853414479985771e-03,-6.330295988904290592e-03,3.575168221174277882e-04,3.655597195029258728e-02
-2.810305644740489495e-01,-2.565931338551114549e-01,-2.671940670080553693e-01,9.565879296993169429e-04,-2.768920316456105913e-03,-2.302936093551925106e-03,2.218478545546531677e-02
-2.855708809579360352e-01,-2.673310999864114135e-01,-2.548447367529173002e-01,-5.244914027695775187e-03,-1.544797775833076266e-03,1.029835947068129601e-02,3.352912887930870056e-02
-2.861428290518281403e-01,-2.493979436661933613e-01,-2.641864592454426508e-01,-8.567567124928322786e-03,-8.436650709236692344e-03,1.933080723446490429e-02,5.079631507396697998e-02
-2.761774087420108548e-01,-2.825405196338194314e-01,-2.452240158498870670e-01,-5.750226304432001952e-03,-3.673759405081296163e-03,9.800426045294378594e-03,4.029133170843124390e-02
-2.815655570272168062e-01,-2.616404266717164417e-01,-2.585582603853323613e-01,-5.449341816329313949e-03,-6.348354353666706661e-03,8.186851716011451716e-03,2.964772470295429230e-02
-2.647399816842775366e-01,-2.704194590030410406e-01,-2.694523208499189360e-01,9.320703562768656877e-05,-5.287070816581854269e-04,-2.594541055704345772e-03,6.982733495533466339e-03
-2.640005205982648984e-01,-2.751241920579114986e-01,-2.658928028937147525e-01,5.664471567774868052e-04,-2.157072014369391640e-04,-1.620755521831394701e-03,1.073547359555959702e-02
-3.029461851528290062e-01,-2.774416951724577585e-01,-2.253298833586612204e-01,3.318843663508321776e-03,1.070385597894941108e-02,2.976642732470378278e-02,8.792091906070709229e-02
-2.676240929820942749e-01,-2.708999319061853317e-01,-2.665094509801663736e-01,4.143428852283700969e-04,-2.647478945250080124e-04,-4.870480892748838345e-04,4.130605142563581467e-03
-3.089268313450352910e-01,-2.755493721222575521e-01,-2.107972991746895619e-01,5.906674764764930849e-03,1.965137113043858783e-02,4.581305602744626532e-02,1.225881278514862061e-01
-2.922947376731341862e-01,-2.774979353486647926e-01,-2.360753392306688958e-01,2.686535790674442203e-02,2.062066523715259600e-02,5.963409091569836507e-02,1.290629804134368896e-01
-3.084688011190085399e-01,-2.663980333125646194e-01,-2.302397096002012644e-01,2.243317662436844842e-02,3.157478009628381793e-02,4.254705808427415581e-02,1.205403730273246765e-01
-2.936141296326136851e-01,-2.555123852644902716e-01,-2.631799346638370452e-01,9.915518829145297461e-03,3.376962135061740283e-03,2.835836649090401132e-02,6.292966008186340332e-02
-3.281707753411313711e-01,-2.414586505679446049e-01,-2.328186189079018975e-01,7.795576111070958228e-03,2.916354852847980947e-03,5.047015755450813546e-02,1.272492706775665283e-01
-2.805119406038305563e-01,-2.573676331770249348e-01,-2.696320558305939086e-01,1.662091084371512817e-02,1.048518627021370782e-02,2.773300741987826112e-02,6.219456717371940613e-02
-2.773670988609335808e-01,-2.658973688263348567e-01,-2.649792299557130471e-01,9.539578228225834011e-03,9.967087671035164409e-03,1.679248366145918298e-02,3.949595242738723755e-02
-2.656864429055857957e-01,-2.752583600469422076e-01,-2.640644329302953008e-01,5.807163982278251745e-04,-8.693563802615444230e-04,-5.811589234166953440e-04,1.068038027733564377e-02
-1.292574932281117250e-01,-3.212325571378211730e-01,-3.375376312409292812e-01,4.847576012053292360e-02,-7.693655552216198748e-03,-1.400883855439796159e-03,2.179073393344879150e-01
-2.952402289370159028e-01,-2.915949107553843511e-01,-2.205029476869989624e-01,-1.895047950314910495e-03,-6.548535614300097195e-03,-4.416514054376977604e-03,7.432663440704345703e-02
-2.411492541118655242e-01,-2.890531747603130586e-01,-2.746012346398853388e-01,-7.040857727797473846e-05,-3.473532192937899693e-03,9.029470862822499807e-04,4.301158711314201355e-02
-2.794018175976969998e-01,-2.577119147668143206e-01,-2.675466296430317747e-01,6.621728276681202591e-03,5.852474967531807147e-03,1.011583623363930019e-02,2.991899289190769196e-02
-2.792641488551835804e-01,-2.508317022469081503e-01,-2.745317471017531541e-01,-1.828918386274467830e-02,-8.580407764042032731e-03,1.416958697944060291e-02,5.022878199815750122e-02
-2.766271619377939084e-01,-2.595301656785469757e-01,-2.593915939559259809e-01,-2.865888534349045336e-02,-3.120108105727038839e-02,3.852178876894376408e-02,1.006528586149215698e-01
-2.840788324207245696e-01,-2.442460612389376617e-01,-2.749306136331009509e-01,-9.093980013387360437e-03,-8.600148640740478204e-03,1.606004493946856446e-02,5.049460381269454956e-02
-2.983762265462831520e-01,-2.134503566687911968e-01,-3.036842206742582650e-01,-3.346419486506035240e-02,-1.196056064363616375e-02,2.564876049986616890e-02,1.159899234771728516e-01
-2.594715701630885829e-01,-2.847050601417002169e-01,-2.607101460727917486e-01,4.364710260286433274e-05,-4.987099902144618169e-04,-1.123438208872813183e-04,2.465358376502990723e-02
-2.894755731466773785e-01,-2.931367806732749770e-01,-2.220303242082098394e-01,3.559984965450952669e-03,-5.640979017744115163e-03,-3.480997602205659902e-03,7.056225091218948364e-02
-2.951859301198255792e-01,-2.133388168571706545e-01,-2.920011639238151990e-01,-1.409489315958374622e-02,-5.796191469127452180e-03,1.558894622082373019e-02,8.873702585697174072e-02
-2.945531302668089602e-01,-2.290772865668704306e-01,-2.843126974899559123e-01,-2.386585631014781148e-02,-6.623219092381373886e-03,1.820217631243204251e-02,8.096757531166076660e-02
-2.760947200168344939e-01,-2.950525753435779275e-01,-2.322998340158493047e-01,-3.987480295135660546e-03,-1.018876382409780908e-02,1.097389947087086537e-03,5.891005694866180420e-02
-2.705547854609958724e-01,-2.538853060001952655e-01,-2.824416839546682878e-01,-3.262374735752635035e-02,-2.179556309611701756e-02,4.597553022819692720e-02,1.075947657227516174e-01
-2.943479510940560928e-01,-2.401161951134892780e-01,-2.757017687785713322e-01,-1.996257412727765398e-02,-9.053771657437290760e-03,3.223668903951288495e-02,8.268365263938903809e-02
-2.613693614404774546e-01,-2.751816902089822547e-01,-2.680469667857623417e-01,-8.201635747697740399e-04,-1.395835454868758546e-03,3.487603317405604548e-03,1.369272638112306595e-02
-2.814360641388345963e-01,-2.662988644478225253e-01,-2.562715334636186948e-01,-2.360810471094374960e-03,-7.553881789206767349e-04,1.988513277535364828e-03,2.262216992676258087e-02
-2.607882473254082289e-01,-2.949009673352495087e-01,-2.430131037635127333e-01,2.343936283998536083e-03,2.462762158124474215e-02,1.824538796519615137e-03,6.270582228899002075e-02
-2.779052042428207803e-01,-2.938396691923221837e-01,-2.316747531269152116e-01,6.560374849413053676e-03,-1.116765007851522676e-02,-1.599518003575406975e-03,6.032213196158409119e-02
-2.630109752605349627e-01,-2.897380238114036222e-01,-2.489554559554784663e-01,-4.786865368644087869e-03,1.473104167800585659e-02,-5.270656160065630320e-03,4.572360217571258545e-02
-2.610669166707523803e-01,-2.838014589797117626e-01,-2.598750545493567765e-01,4.181244612865549302e-04,-7.239124241726724134e-04,-1.593908576206973086e-04,2.339977025985717773e-02
-2.457447390199965775e-01,-3.199000970730007665e-01,-2.528298828930772846e-01,-1.685296470973045649e-02,6.475912421915630546e-02,-1.773641590508949137e-02,1.392869502305984497e-01
-2.741418112252301809e-01,-2.868037531678828689e-01,-2.443231614069384938e-01,2.280823547822460971e-03,-3.492897617006494090e-03,-3.066599493394987015e-04,3.846463561058044434e-02
-2.781231350210147668e-01,-3.005009927867541286e-01,-2.317317319962465816e-01,-3.809247543262363027e-03,2.056459918938612769e-02,2.250416533976912475e-03,7.084139436483383179e-02
-2.446290075842043055e-01,-2.947612446838070999e-01,-2.596980595857895091e-01,2.351549834750229530e-03,2.491569460154320279e-02,3.042889249926076806e-03,6.238280609250068665e-02
-2.503670318014571405e-01,-2.682537954830480076e-01,-2.847060208203717746e-01,-6.854573006550477264e-03,2.169186992007100627e-03,-3.870539234524777300e-03,3.293788060545921326e-02
-2.602746236456894291e-01,-2.615107209465249993e-01,-2.822848483642672046e-01,-8.106902660123573023e-03,4.470702093074069294e-03,-5.607316306178346775e-03,2.846443839371204376e-02
-2.639042545170261489e-01,-2.671505456769345255e-01,-2.720620517395770377e-01,-4.184093750345592791e-03,6.405457396287430639e-03,-5.128868016845003659e-03,1.746799610555171967e-02
-2.681987528911185525e-01,-2.589105838400839188e-01,-2.803891975590989127e-01,-6.334237905748394196e-03,5.729951861311360396e-03,-5.565326154999128763e-03,2.568827010691165924e-02
-2.672010130137074668e-01,-2.539447951528712721e-01,-2.802571702599651604e-01,-1.298425814736751428e-02,1.102863055199877242e-02,-1.152841801171948163e-02,4.229236394166946411e-02
-2.909079281686432483e-01,-2.582374177874459109e-01,-2.505723623283206969e-01,-1.816791321904102571e-02,1.272791315075574164e-02,-3.461598556435215718e-02,8.029666543006896973e-02
-1.217499927693552753e-01,-3.412575059002118105e-01,-3.444961285888925584e-01,2.670358417262287676e-02,5.762810214804260471e-03,2.275423934699122991e-02,2.295584380626678467e-01
-2.680575353307482200e-01,-2.680041985277191174e-01,-2.680562745757996135e-01,-2.153290319945508325e-04,-1.641604822084890408e-04,6.879105326585220181e-04,1.281556673347949982e-03
-1.244467758519520462e-01,-3.295022996380994607e-01,-3.499303873742851678e-01,5.492438282303637592e-02,4.524107560127455657e-02,6.890847253785832918e-03,2.489713728427886963e-01
-2.521633628961298390e-01,-2.873066397687184526e-01,-2.647709817673060684e-01,-2.567477415700870078e-04,-2.211590566787997435e-03,8.542995046996613908e-04,3.111253120005130768e-02
-2.566976885478690629e-01,-2.745541431472159344e-01,-2.744319351452258471e-01,-1.346402512888393663e-03,-1.734061743545930187e-03,4.173431052077195870e-03,1.958054117858409882e-02
-1.206219840065095861e-01,-3.070605919021358599e-01,-4.059794952071139051e-01,6.972628213704160083e-02,5.811956134284397557e-02,-1.356884464694177060e-03,2.961604893207550049e-01
-1.018024828088615330e-01,-3.615981363115717273e-01,-3.591742952312097503e-01,3.054108773313756603e-02,4.276729316375686013e-02,-1.817202451442780087e-02,2.759456932544708252e-01
-2.829299240621850897e-01,-3.179387357341372233e-01,-2.059863570490980123e-01,1.665175197455598041e-02,-2.822834946159033520e-02,-2.593548751312747813e-02,1.228004172444343567e-01
-2.973382714826682816e-01,-2.275301313161909866e-01,-2.527374603054887148e-01,5.891561672397301053e-02,6.278335115892191842e-02,8.927296888600658176e-02,2.233747839927673340e-01
-2.796160510802418453e-01,-2.139761877752803798e-01,-3.112975111707702580e-01,6.220492921024839417e-02,3.410916016696059760e-02,1.064632079455761632e-01,2.376842051744461060e-01
-3.000269009888550942e-01,-2.246543038141772253e-01,-2.723533264638868245e-01,1.480991522622016401e-02,1.067894017490383929e-02,3.643472976796000712e-02,9.666237235069274902e-02
-2.725065686331127890e-01,-2.652964270777259381e-01,-2.663476818232207721e-01,-8.916813430133812245e-04,-1.107679267985299618e-03,4.920935473706587607e-04,7.232164032757282257e-03
-3.065985999534326378e-01,-2.278892439111062651e-01,-2.780876117285805971e-01,2.814029388959859296e-02,1.617007628359698815e-02,4.283986071926256661e-02,1.158868446946144104e-01
-2.229889908261996068e-01,-3.041360116275352299e-01,-2.825311334082149517e-01,1.385042032585864433e-02,-3.305905009842192988e-02,6.327862261680220965e-03,9.629521518945693970e-02
-3.543695088686128480e-01,-1.684638017280887523e-01,-2.790012480677376283e-01,2.891795280875093105e-02,-2.360860128468478258e-02,1.153901331385306095e-01,2.652459442615509033e-01
-2.505716314760152441e-01,-2.672843861363481954e-01,-2.884604454000317397e-01,-1.262908556901896559e-02,-1.861885922734983229e-03,1.246844749569007982e-03,3.968875110149383545e-02
-2.849454707901645234e-01,-2.888327584976232987e-01,-2.306322136538104528e-01,-4.217315547083102904e-03,-3.867824438356298050e-03,6.582061012733311962e-03,5.834706500172615051e-02
-1.967009432475311237e-01,-2.898981872236174873e-01,-3.170522180748617802e-01,3.810302823157844798e-02,-1.942513158862249276e-02,-1.169167847045905024e-03,1.320809572935104370e-01
-2.706216153941798930e-01,-2.678000037897447227e-01,-2.661877228929759864e-01,-1.138731428623755010e-03,-3.385369374257078180e-04,-2.005870420317365803e-04,4.411896225064992905e-03
-2.397166555662454401e-01,-2.500224868390026334e-01,-3.107144374889278526e-01,4.573641538632865211e-02,-8.387135136022984966e-03,-1.836695098917395796e-02,1.091500371694564819e-01
-2.653602782805142835e-01,-2.758813394059860258e-01,-2.623698094648276857e-01,-2.628378642585122490e-03,-1.268225147541863270e-03,1.018440057273957075e-03,1.340747904032468796e-02
-2.737267534769137756e-01,-2.816885371980250019e-01,-2.491987193576341020e-01,-3.341713664043971348e-03,-2.614643071069834741e-03,2.072068997934673959e-03,3.044982813298702240e-02
-1.881696020784075496e-01,-3.101718366980146802e-01,-3.092359434155089182e-01,4.494451282704291228e-02,1.118943561037942340e-02,1.980002965412951208e-03,1.456661969423294067e-01
-2.358961286641420019e-01,-2.766003768501046345e-01,-2.935031855302129289e-01,2.138783650470630487e-02,-5.910650297720224274e-03,-3.933821579705551463e-03,6.445236504077911377e-02
-2.750525082407679345e-01,-2.629690441531977729e-01,-2.671681380579330467e-01,-5.645336561269972270e-04,-2.853133248891097720e-03,5.055332532949385850e-04,1.179181039333343506e-02
-2.346336606660494040e-01,-2.482795578668523795e-01,-3.285362576361715026e-01,5.290159631026087467e-02,-1.539149954336432521e-02,-1.386672217063147439e-03,1.297486871480941772e-01
-2.251574581083317095e-01,-2.817497823487307151e-01,-3.055765559966616141e-01,4.887014921387070054e-02,-1.145901370987153188e-02,-1.715753592534858402e-02,1.164506897330284119e-01
-2.734333373542944257e-01,-2.891801468879381387e-01,-2.425016580885553108e-01,-2.430193595253709801e-03,-3.817705020110534128e-03,9.508291425279675503e-04,4.190418124198913574e-02
-2.985855207275128209e-01,-2.359359959438281362e-01,-2.775274266072946805e-01,-9.390539927661355549e-03,-5.244337620576119095e-03,1.950602795898435243e-02,6.736199557781219482e-02
-3.398629438222366406e-01,-2.736315928173079226e-01,-1.706979208678578996e-01,1.929321313229361706e-02,1.323441569995410620e-02,9.810749398123420895e-02,2.287285327911376953e-01
-3.268031426242773430e-01,-1.808132517689227114e-01,-2.787453647201071361e-01,2.342492778921347052e-02,1.943935321596474558e-02,9.502931129934720500e-02,2.155880481004714966e-01
-3.431954988908468840e-01,-2.646811408770990415e-01,-2.026310704607139357e-01,-4.453114220989970451e-03,6.562578544795111268e-02,1.289287083999551276e-01,2.788083553314208984e-01
-2.754236702516916213e-01,-2.677302124415046336e-01,-2.612909026464552698e-01,-2.932433263411486548e-03,-1.006331637458766828e-03,1.369742758979333773e-03,1.358892023563385010e-02
-3.261970361820109576e-01,-2.127188935985897533e-01,-2.666444102563534924e-01,4.880780139570334297e-02,1.225198425840919210e-02,1.257416703872508701e-01,2.543535530567169189e-01
-3.071880582499556533e-01,-2.842683510884465026e-01,-2.189084099182695142e-01,-1.240499584652684064e-03,2.660059987554103805e-03,3.572590360239040475e-02,1.007478535175323486e-01
-2.670912600215448740e-01,-2.711916526591248155e-01,-2.660849417898771829e-01,-5.919438657744258321e-04,-3.085866467186235487e-04,1.141922757395886535e-03,5.215460434556007385e-03
-2.776618062704670487e-01,-2.678466318356123588e-01,-2.566503904678914538e-01,9.328620037948667787e-03,9.820840750683040854e-03,1.233572852866795730e-02,3.658569976687431335e-02
-2.885186407338868331e-01,-2.661430532674999849e-01,-2.529767523854391520e-01,1.776784230203081209e-03,2.936292508443339149e-03,1.200305709261195557e-02,3.789694607257843018e-02
-3.025520540452140139e-01,-2.442094078563325499e-01,-2.572635863369114317e-01,2.613429975177166895e-02,3.477952811393238836e-02,4.863121998169595700e-02,1.248418986797332764e-01
-2.761174256385385273e-01,-2.906576645084704702e-01,-2.387381283420314804e-01,1.872203141808292948e-02,2.763069350725196396e-02,3.925284317763087782e-02,1.005803197622299194e-01
-3.249267251718475080e-01,-2.523254191360487231e-01,-2.345355179380501642e-01,5.412603612493365477e-04,1.298276903954475453e-02,6.636745989321321537e-02,1.435251086950302124e-01
-2.685202851603908925e-01,-2.707163712170704284e-01,-2.596179240476654271e-01,1.168049926442457122e-02,1.244073343300152248e-02,1.130861138530969701e-02,3.689033910632133484e-02
-2.588610185896898508e-01,-2.554740354606219177e-01,-2.877731571638204033e-01,-9.924137672709708660e-03,-2.421895611848161952e-04,2.397847192478730046e-04,3.522956743836402893e-02
-2.474114808631522333e-01,-2.616107221809986227e-01,-2.861789224825816436e-01,-3.898602800885666436e-02,-2.718668469763267648e-02,2.432028657241029276e-02,9.851686656475067139e-02
-2.761849604546221526e-01,-2.294116749658635102e-01,-2.866046840135098028e-01,-3.606241450413045363e-02,-1.994483099351037486e-02,2.538165587103004966e-02,9.905172139406204224e-02
-2.575990172084918761e-01,-2.403809972138717110e-01,-3.074527333723076072e-01,-4.198929006352623838e-02,-1.933704380816021751e-02,1.282510670053109252e-02,1.026876345276832581e-01
-2.455042272787247293e-01,-2.286589723486393000e-01,-3.267884866267501964e-01,-5.562582189004008221e-02,-2.419417357631203826e-03,-2.187377513085131137e-03,1.325698196887969971e-01
-2.664566433551769919e-01,-2.507085932643917658e-01,-2.860896774997420677e-01,-1.427223388401488435e-02,-6.545387152529511324e-03,7.355616425357223986e-03,4.294846579432487488e-02
-2.550286410535452797e-01,-2.598580617612730181e-01,-2.901804443755268692e-01,-4.691592909031811615e-02,-7.926109631731698829e-03,3.251829093277987248e-02,1.051347255706787109e-01
-2.635914453241326449e-01,-2.478288145441977786e-01,-2.889030284300104223e-01,-3.644947048003912421e-02,-1.911443319876720420e-02,2.325639510231267484e-02,8.940061181783676147e-02
-2.482274917634865186e-01,-2.639618704856824261e-01,-2.913228225156316853e-01,-1.720644594799743826e-02,-6.973675589677218005e-03,5.563881095418503515e-03,5.053367093205451965e-02
-2.619524078272527090e-01,-2.449177861662257261e-01,-2.949758455632123799e-01,-2.019447419860642343e-02,-9.213933563623525128e-03,9.991513424638486310e-03,6.099916994571685791e-02
-1.929665427002739964e-01,-3.147557880754129900e-01,-3.023941598465638148e-01,4.283094691610336803e-04,1.767306976996394982e-02,2.381369966750214538e-03,1.201436296105384827e-01
-2.121058761328787345e-01,-3.083521562877096223e-01,-2.973728267530922342e-01,-7.589338430107755995e-03,3.987112921452989206e-02,9.333254883480133265e-04,1.152028664946556091e-01
-1.704155751704520827e-01,-3.121866257615610873e-01,-3.159854440470299397e-01,-1.207636387191390534e-02,4.057237023030073331e-02,-4.426418718835970455e-03,1.615136861801147461e-01
-1.920457651728653403e-01,-3.837874391487359205e-01,-2.343655914251670802e-01,2.029182064056984924e-02,9.324019307743491858e-02,1.298301879523597498e-02,2.413783669471740723e-01
-2.685829418920288036e-01,-2.678912890865272622e-01,-2.679777838622576791e-01,-2.879677047974370219e-04,2.807627078333415070e-05,-1.646388302421106819e-05,8.234044071286916733e-04
-1.885207905876705725e-01,-3.139685469087995506e-01,-3.133291986097275772e-01,3.539637341024471501e-02,1.199825989374612156e-01,2.087993976445539843e-02,2.528071105480194092e-01
-2.066622237047920363e-01,-3.312346097130355882e-01,-2.465269365396987600e-01,3.457903964037321171e-02,9.409563268237726430e-02,3.044146140166863884e-02,2.122983187437057495e-01
-1.760193985435721808e-01,-3.122498090228224554e-01,-3.173612981848722425e-01,4.918146548009005858e-02,-2.136725053841559419e-02,-9.251505460155937804e-03,1.678216010332107544e-01
-2.289315758150050062e-01,-3.213305012596718857e-01,-2.605423748346243351e-01,1.774425125636868231e-02,6.151760470724118579e-02,1.451604163235468981e-02,1.398068964481353760e-01
-2.183083032101089671e-01,-2.895631907461572729e-01,-2.975550168528636741e-01,1.493618470699921083e-02,7.758417581427380291e-03,1.096722695870298511e-03,8.101876825094223022e-02
-1.885266663475089199e-01,-3.110477915533227944e-01,-3.078497946984949940e-01,4.093744031975813519e-02,2.102432009256342132e-02,2.654247640241815063e-03,1.449298262596130371e-01
-1.970953675526542215e-01,-2.966509069366599083e-01,-3.101040356319454960e-01,2.784712375242055435e-02,6.095916777579210924e-03,6.405405540175826244e-03,1.182902380824089050e-01
-2.674233631372225362e-01,-2.749232268001480795e-01,-2.623369906054718870e-01,3.936739234452546650e-03,-1.658662866719397624e-03,-1.002114703521560148e-03,1.334264501929283142e-02
-2.191807295950249368e-01,-2.836595705643855103e-01,-3.062015458342899898e-01,2.789775816738754299e-02,1.736903996797116347e-03,5.487718277597805790e-03,9.248454868793487549e-02
-2.334296883832932545e-01,-2.884762739586830271e-01,-2.858850934609074024e-01,1.533053849722469664e-02,1.605574849265445359e-02,6.278818008130055903e-03,6.701427698135375977e-02
-2.363896576241558967e-01,-2.860601438015663023e-01,-2.793893890868946461e-01,1.726864184469439553e-02,1.840888824298711132e-02,1.481062470034050227e-02,6.891777366399765015e-02
-2.403378851088092127e-01,-2.807884445781921867e-01,-2.805822718516824410e-01,1.976862692493953563e-02,1.164454712513606632e-02,1.054371683505720553e-02,5.950329825282096863e-02
-2.908181931903109918e-01,-2.919022414342540284e-01,-2.233875032270413175e-01,7.983107406020555422e-03,-1.933500860632072701e-02,-1.407733400226111702e-02,8.079853653907775879e-02
-2.254767245659348995e-01,-2.873691990670576013e-01,-2.894682530330163206e-01,3.637572245560475453e-02,4.347219372321519532e-02,3.051107527729638585e-02,1.280501931905746460e-01
-2.271611421283718513e-01,-2.951541942506420990e-01,-2.845768273532065518e-01,3.195002057185433036e-02,1.675847577217693188e-02,2.257925917319509798e-02,9.721197187900543213e-02
-2.568898410880383620e-01,-2.745589378380278167e-01,-2.735894099973872895e-01,1.854173608498754181e-03,-1.521308861378511783e-03,-3.933820267878126130e-03,1.896544545888900757e-02
-2.375346699295661501e-01,-2.805935960862852019e-01,-2.890684137324149305e-01,3.116577915615623834e-02,2.840956839883378160e-02,1.648231939111190550e-02,9.187512844800949097e-02
-2.632788859813722238e-01,-2.600240852873282327e-01,-2.806085813937664875e-01,6.319452233445664417e-03,-5.994615625066678118e-03,-5.255360692296193181e-03,2.603432163596153259e-02
-2.604982471139726252e-01,-2.755337983541968905e-01,-2.682745762740395001e-01,6.824126130460822937e-04,-9.299934467158705101e-04,-2.974300554415945479e-03,1.414739619940519333e-02
-2.099922300644156969e-01,-3.159510687838218423e-01,-2.817897923690914630e-01,2.996048449405021991e-02,5.007376919541467464e-02,1.207296067735382991e-02,1.393803656101226807e-01
-2.056319593337881668e-01,-3.158754798705734057e-01,-2.822156998998691102e-01,3.298548113393517944e-02,-4.361540443330573502e-02,-1.015164041734734936e-02,1.373173147439956665e-01
-2.863239192492802454e-01,-2.806377381290491302e-01,-2.342822700116572732e-01,1.575148712445067004e-02,-2.451855386886089491e-02,-3.390500261042622698e-02,9.187601506710052490e-02
-1.823923559909226833e-01,-3.120395032103747690e-01,-2.878345211424430117e-01,4.508700181840179927e-02,-8.739081971294251905e-02,-4.067962404664461629e-02,2.196147292852401733e-01
-1.471926313800779040e-01,-3.513646410808856646e-01,-3.105423134213837200e-01,-6.553433409917226032e-03,-5.059428947627504086e-02,4.491000364318989239e-03,2.070907801389694214e-01
-1.853437342254475317e-01,-3.048054311187087251e-01,-3.155374400060014795e-01,1.217201408688967437e-02,-3.979846711203793158e-02,-4.477886329183017149e-03,1.446537971496582031e-01
-1.900683825182472031e-01,-3.169027424263290427e-01,-2.952358906501436064e-01,2.753089031410263857e-02,-5.180571527320280284e-02,-1.313031052770956622e-02,1.570059508085250854e-01
-2.727362960028276717e-01,-2.633483109204534101e-01,-2.682136027609172135e-01,3.003495487800749569e-03,-5.335601432680804959e-03,-2.072600299858755411e-03,1.383784413337707520e-02
-2.814451723480154710e-01,-2.159888831777569962e-01,-3.094035825287611008e-01,4.035623697371432117e-02,-3.252254843888732067e-02,-3.040305048207903038e-02,1.331477165222167969e-01
-1.957242784786969725e-01,-3.239704357117444422e-01,-2.796162375081891471e-01,-3.254042525972139933e-03,-5.265937570431494796e-02,-4.791601233100619903e-03,1.454159170389175415e-01
-2.574767290128952557e-01,-2.845845742381518106e-01,-2.624078810073061097e-01,4.909288222087149168e-04,-2.939074451167559329e-03,-1.213914685168507182e-03,2.562297694385051727e-02
-2.170201069053955822e-01,-2.931483238714206463e-01,-2.929396776011013448e-01,1.435733144148827051e-02,-1.546572776472948663e-02,-8.795007640668497939e-03,8.571864664554595947e-02
-3.207807639396583199e-01,-2.005752756882627219e-01,-2.782807043452500406e-01,-6.085118792635972607e-02,2.266519034578541245e-02,-7.969357942716315257e-02,2.070019543170928955e-01
-3.584457092523143373e-01,-1.542923627869219605e-01,-3.033423801164341072e-01,-4.173984006599040092e-02,3.764644576837809786e-02,-8.255376117088128463e-02,2.517721354961395264e-01
-3.449146043218486168e-01,-2.239777930114989490e-01,-2.587641354329778265e-01,-5.186318823473642925e-02,9.268755446061925293e-03,-1.246913631080186768e-01,2.580693066120147705e-01
-3.881391563637586195e-01,-1.973832445334236241e-01,-2.434320376244675788e-01,-2.293311503887724909e-02,2.102243147650706759e-02,-1.043259564867965172e-01,2.554986476898193359e-01
-3.204853552465964373e-01,-2.071730897923277359e-01,-2.733852059489397801e-01,-5.000672041037667465e-02,2.200808177901700941e-02,-9.892375214523774218e-02,2.191663235425949097e-01
-2.675726781069658333e-01,-2.850449191374899716e-01,-2.508189795719941717e-01,-2.180145633135031902e-03,-7.831469671776699129e-03,4.087672171822913196e-03,3.357189893722534180e-02
-2.652388558070760127e-01,-2.874794912928146373e-01,-2.513707716101757361e-01,7.920457893335140342e-04,-3.184048208087183422e-03,-4.718626961961875895e-04,3.206819295883178711e-02
-3.186034699114516089e-01,-2.220840037545875612e-01,-2.455647225312523052e-01,-4.330301548301827147e-02,4.127243447796649645e-02,-8.989527794472451649e-02,2.063496559858322144e-01
-2.783195751625885950e-01,-2.909836398890674469e-01,-2.344160654299719537e-01,-1.906795534702299122e-03,-7.296864988242253783e-03,1.236610699940427199e-03,5.309540033340454102e-02
-2.790078464759030430e-01,-2.726889833362086124e-01,-2.584582769219737619e-01,3.180812071315967937e-02,2.756967523105456966e-02,4.126541381101438144e-02,1.037130504846572876e-01
-2.897821986621849089e-01,-2.615832422960828185e-01,-2.507291413859384366e-01,6.964545779211110503e-03,7.869936270018437416e-03,2.093720907917896029e-02,5.353026837110519409e-02
-2.672596767438025767e-01,-2.698925335155749061e-01,-2.637423468102284008e-01,1.146843859413537552e-02,1.332475252339463540e-02,1.267668628774911224e-02,3.791940957307815552e-02
-2.714149832618914515e-01,-2.662299585799616786e-01,-2.681040779528162110e-01,2.145025462299018568e-03,2.791499282123636756e-03,1.892045292541461293e-03,8.282497525215148926e-03
-2.623288963360070891e-01,-2.672008885326175309e-01,-2.750627588124133216e-01,-1.526002034304384247e-03,-1.137597900192722404e-03,4.013929043590448373e-03,1.352965645492076874e-02
-2.780947263867125652e-01,-2.632343436730033570e-01,-2.627636198431040904e-01,4.669608238351856053e-03,4.387879636059700481e-03,5.126897285392940234e-03,2.073834836483001709e-02
-2.991519184477345328e-01,-2.544470019219678414e-01,-2.577475133898813331e-01,-9.975694907382948520e-04,1.081862076898385937e-03,-2.880672035988862678e-02,6.601402908563613892e-02
-3.233482965318074109e-01,-2.436236825541748807e-01,-2.403473414684409448e-01,1.036342180058580711e-02,-3.178971846332258235e-03,-4.608180016739314711e-02,1.155468299984931946e-01
-2.938254098572039008e-01,-2.546990783337300668e-01,-2.565244181268441226e-01,1.452330514479418730e-02,-9.444176020554317236e-03,-2.783044501182090416e-02,6.845977157354354858e-02
-2.923560097463276941e-01,-2.377083517295467685e-01,-2.763685329817132108e-01,-4.124414371574175800e-03,2.189565528473057070e-03,-2.021103415579120557e-02,6.049099564552307129e-02
-2.144036683411272570e-01,-3.167583245999038288e-01,-2.622407855509212848e-01,-3.288839212107899646e-02,-7.999250361385212837e-02,3.047207391919119074e-02,1.819216758012771606e-01
-2.634819650328881213e-01,-2.609676657350499807e-01,-2.805872232772879671e-01,-3.546244881792024102e-04,-1.778430934091189929e-03,6.837691868934717056e-04,1.879328675568103790e-02
-2.962156398279248704e-01,-2.330074205555427436e-01,-2.769604471155229786e-01,9.175084046502440804e-03,-8.751821417699966535e-03,-1.777936645757598189e-02,6.767275929450988770e-02
-2.910277578711108482e-01,-2.506818118308329346e-01,-2.625157007929081465e-01,1.062557004628393413e-02,-5.207136532503119954e-03,-2.057571445293505247e-02,5.459412187337875366e-02
-2.644885300346053181e-01,-2.678742146830985771e-01,-2.714788430850294532e-01,-1.233130564641685221e-03,-1.592957139890240981e-03,2.351145082477378457e-03,8.088162168860435486e-03
-1.767535912603512283e-01,-3.426652227929211647e-01,-3.196296670044807553e-01,-7.907158790311598351e-02,-9.544159399885888961e-02,4.254681517247059508e-02,2.752278745174407959e-01
-2.902426397907308386e-01,-2.508349705180727973e-01,-2.704041554957261617e-01,1.471969841922615360e-02,-1.213335250792851178e-02,-2.783605057817828757e-02,6.768265366554260254e-02
-3.050863949127431418e-01,-2.141587745023649791e-01,-2.802845967259944837e-01,9.315907341527355015e-03,-4.647178814511290952e-03,-4.444568936222169364e-02,1.134865507483482361e-01
-3.265316097531940631e-01,-1.919159447157385845e-01,-2.906396874047514900e-01,3.401254325619183783e-02,-1.289145795069105566e-02,-6.207994704183093793e-02,1.735191047191619873e-01
-2.589678313039762148e-01,-2.451344998647914386e-01,-2.994032130259666191e-01,-2.091706224779328605e-02,-7.294262185128123910e-03,3.909867841108663651e-03,6.248029693961143494e-02
-2.721757061187823346e-01,-1.968777637756228271e-01,-3.316458422495791591e-01,-4.404751982736555826e-02,-1.150162908915844861e-03,-3.941584301940790659e-03,1.398412883281707764e-01
-2.812001542954723488e-01,-2.581405358484987200e-01,-2.666826009398026165e-01,-8.985293271002211656e-04,-3.789891743638649016e-03,1.223235688735980608e-03,2.139478735625743866e-02
-2.537385971952095254e-01,-2.635171176421975958e-01,-2.864777303667340735e-01,-1.330671080633288351e-02,-7.908570612751606582e-03,7.085278506764121527e-03,4.143399000167846680e-02
-2.336639848281109599e-01,-2.655347882613283694e-01,-3.151490139833145188e-01,-5.690302907438164748e-02,-1.893059698159210561e-04,4.948949483253803523e-03,1.218442171812057495e-01
-2.603525660803082675e-01,-1.876793351452545888e-01,-3.398339607232394588e-01,-9.590948031696325260e-02,-1.356253150291467091e-02,2.143493838508341368e-02,2.165662497282028198e-01
-2.622292132473129644e-01,-2.471145321875269085e-01,-2.899096315205952346e-01,-2.048491680365423229e-02,-6.063521324092444389e-03,6.423333396672941710e-03,5.390743538737297058e-02
-3.189452630171243919e-01,-2.450268336035854866e-01,-2.595991316058204879e-01,-2.690292976462578187e-02,2.169573876626394032e-02,-6.628174460713474880e-02,1.461586505174636841e-01
-2.539880282941297529e-01,-2.652449591311319965e-01,-2.863669837171027299e-01,1.804158199778744479e-03,-9.633573314551651529e-04,-1.537814536063611447e-03,2.881442941725254059e-02
-2.993706073698226833e-01,-2.848787147153756250e-01,-2.204675733790250614e-01,-1.631593703297356396e-02,1.316804086730456562e-02,-4.590836986209651666e-02,1.137268915772438049e-01
-2.875004522833767284e-01,-2.741317896242335128e-01,-2.418075262907691814e-01,2.587605246230758639e-03,-5.884073105617630391e-04,3.495797799093891892e-03,4.139443114399909973e-02
-2.655588794816506337e-01,-2.791786487030169517e-01,-2.595151802939422714e-01,-8.945139186918438581e-03,1.088510500761496504e-02,-8.468444815852172597e-03,3.339138999581336975e-02
-2.761094408383262255e-01,-2.898061939867083159e-01,-2.403143823895193543e-01,-5.869275980181642635e-03,1.414534993802977862e-02,-6.979186363104571654e-03,5.299913510680198669e-02
-2.545424877541441200e-01,-2.869584095729159068e-01,-2.650369731327761325e-01,-4.803338530835711204e-03,-1.275751296263664090e-02,5.713597527700764109e-03,3.842072188854217529e-02
-2.757133584182857033e-01,-2.537008576915270597e-01,-2.746990655753032695e-01,-1.675868805088935945e-02,1.260786686552550252e-02,-1.991032959974593439e-02,5.451560765504837036e-02
-3.087462101083388033e-01,-2.220406650425702233e-01,-2.749570444842621142e-01,-2.372507807453545434e-02,9.171020755594564561e-03,-3.965169339996762327e-02,1.112995147705078125e-01
-1.929241605915019142e-01,-3.063551037802273447e-01,-3.007999133670167802e-01,1.068060921802676741e-02,1.619903219674838227e-03,-2.381325095511371923e-03,1.124029308557510376e-01
-2.457111517254003952e-01,-2.826482895746824098e-01,-2.752520122494314658e-01,1.092211246793620963e-03,-3.869234636841787679e-03,-3.807260107177499325e-03,3.518290817737579346e-02
-2.622347379079308927e-01,-2.673650198975406900e-01,-2.751622853219162224e-01,7.397238195082609128e-04,-9.347195268513263256e-04,-2.821241897569997867e-03,1.246034540235996246e-02
-2.906434424549044215e-01,-2.364101481471651833e-01,-2.800873729135340828e-01,-1.175318023320844063e-02,1.091748651877748853e-02,-1.800628107982208542e-02,6.499888747930526733e-02
-2.867206167714222986e-01,-2.750070087044038658e-01,-2.442731885019031046e-01,-4.064779993026837977e-03,1.013644833834148953e-02,-1.539644338242510818e-02,5.010730028152465820e-02
-2.257694792817128149e-01,-2.936617058090477128e-01,-2.843150476360069012e-01,1.567531668052258740e-03,-4.094730854775654322e-03,-2.075034779853620823e-03,6.428637355566024780e-02
-2.852359404534557941e-01,-2.431851647805828021e-01,-2.778436338747578005e-01,-1.521594790520981733e-02,1.019934948434635287e-02,-2.533612706438602424e-02,6.666689366102218628e-02
-2.783424265634562023e-01,-2.678104464478052726e-01,-2.601535435650664807e-01,-4.198379548712490722e-03,3.520019377070799163e-03,-7.749349586076216198e-03,2.281230315566062927e-02
-2.737030857004303930e-01,-2.552252242940045157e-01,-2.751085914131498611e-01,-2.398251766577136693e-02,1.332433018640730681e-02,-2.653355218596076259e-02,6.884448230266571045e-02
-2.746747785332704916e-01,-2.552162418451001114e-01,-2.750097522308593279e-01,2.119289065951343240e-03,-4.347296785157114297e-03,-2.235419250506736222e-03,2.168933860957622528e-02
-2.567468236968649675e-01,-2.739085030026122691e-01,-2.746272018333840714e-01,1.846491111737050619e-03,-1.504052563984650728e-03,-4.269097815073794391e-03,1.946957968175411224e-02
-2.792487168717608381e-01,-2.715771108203903217e-01,-2.534470168981676208e-01,1.005556734932636608e-02,1.067352872236296789e-02,1.387399898291152497e-02,4.182368144392967224e-02
-2.732024068724266952e-01,-2.899638599303263620e-01,-2.423473430235534853e-01,-2.155220202819545672e-03,-4.068994321875555979e-03,1.455648874355877555e-03,4.266285151243209839e-02
-2.865113841350891422e-01,-2.593196088221220719e-01,-2.579910231017989442e-01,-2.474078025660346783e-04,-1.392447287723223718e-03,3.918174169734788687e-03,2.879828214645385742e-02
-2.983540199391694347e-01,-2.781282945000533857e-01,-2.246420855143322626e-01,4.243013849510315731e-03,6.302638498592185064e-03,2.588406869339401548e-02,8.083802461624145508e-02
-2.481706333751309557e-01,-2.743825134116435471e-01,-2.819984052536479435e-01,2.883497057022156584e-03,-1.950853518773991435e-03,-3.657654662594033226e-03,3.195602819323539734e-02
-2.456648237568195559e-01,-2.836648811818733851e-01,-2.743612561955718343e-01,1.461796428692510325e-03,-4.162384864755652378e-03,-3.916497630368490600e-03,3.579702973365783691e-02
-2.859179665204024667e-01,-2.646023757397443776e-01,-2.544524617203164363e-01,-8.820119332926731068e-04,-1.446258596642465430e-03,2.462512115508130872e-03,2.829359099268913269e-02
-2.843848173423006442e-01,-2.573813177272132879e-01,-2.611020443690620918e-01,3.201455246242090706e-03,4.208096018224379183e-03,9.018660940234679568e-03,3.115190379321575165e-02
-2.817841445714654447e-01,-2.576619503218697815e-01,-2.679066533732684663e-01,7.961747481439251234e-03,6.880720207303276867e-03,1.090213472043469189e-02,3.359286114573478699e-02
-2.407389836687492679e-01,-2.905955186579270988e-01,-2.741623702964166021e-01,1.606850709236043754e-03,-3.503453731628268075e-03,-2.830148782978266202e-03,4.477745294570922852e-02
-2.968821278988790224e-01,-2.482326758291236724e-01,-2.658292826518620089e-01,1.055522268448783746e-02,9.785493654698763227e-03,2.577700208329970072e-02,6.659738719463348389e-02
-2.872629854913306136e-01,-2.599974695684533210e-01,-2.563877303497822391e-01,2.489093431479203551e-04,-7.976523685606929639e-04,6.999949751133427260e-03,3.168521076440811157e-02
-2.865409744784586654e-01,-2.690218164489858177e-01,-2.481104093421303280e-01,-2.125501267668684652e-03,2.478784598102260796e-03,6.596235365941068018e-03,3.568018227815628052e-02
-2.688177817760713517e-01,-2.655854471244080139e-01,-2.702966750115907146e-01,-8.252887653290226803e-04,-2.192883023518303262e-03,9.372939585217321054e-04,6.043216213583946228e-03
-2.461650343498084093e-01,-2.823731506748687337e-01,-2.750797399321582293e-01,-1.449233373776518709e-03,-3.776183238043163103e-03,5.005297079914051636e-03,3.499113395810127258e-02
-2.851931139196873244e-01,-2.588509191004716992e-01,-2.617513604341125677e-01,-2.037691468786078481e-04,-1.973960511885794033e-03,5.940952981838410266e-03,2.726937271654605865e-02
-2.610832100731907968e-01,-2.626651193089625247e-01,-2.858528201552343884e-01,-1.982990165083477890e-02,-1.080041300623319628e-02,1.261087353064012026e-02,5.082889646291732788e-02
-2.652602486537231075e-01,-2.643230571193834200e-01,-2.722935827028025724e-01,-6.157714260320452590e-03,-4.826494938201581278e-03,5.607990844016058629e-03,1.830092631280422211e-02
-1.890428067373814969e-01,-3.174211771886285005e-01,-2.990892817390753411e-01,8.843799126802930196e-04,2.476716709324943734e-03,-5.765211418670945472e-04,1.203552708029747009e-01
-2.125277492350826913e-01,-2.978295930583697015e-01,-2.969832245258457459e-01,-1.032607350379256697e-03,2.678033822554649088e-04,2.121825963689229037e-03,8.498143404722213745e-02
-1.903326353344596544e-01,-3.080706698634557705e-01,-3.087839643938223855e-01,-9.182111756389513268e-03,-1.142734418498687898e-02,1.439091298324802343e-02,1.233398392796516418e-01
-2.173186763279984779e-01,-2.945839244432241211e-01,-2.963550956796381364e-01,5.323542749981353614e-03,6.065137311782271617e-04,1.956348436015943951e-03,7.878775894641876221e-02
-2.145162875946684811e-01,-2.989745035629313152e-01,-2.954754359375633133e-01,-3.018601157149934655e-03,-5.123179513490929739e-03,5.842510733367689904e-04,8.340869098901748657e-02
-2.666245874185820264e-01,-2.470388988881319914e-01,-2.905275280040519603e-01,-5.778742005405238663e-03,1.006547643660489922e-03,7.622623834153132393e-05,3.906844928860664368e-02
-2.570088181437684138e-01,-2.739443550675708661e-01,-2.741992963030475683e-01,-1.556659059479349131e-03,-1.857543879479708372e-03,4.900547086385004941e-03,1.951568759977817535e-02
-2.255465985593266554e-01,-2.948238551537413765e-01,-2.848913497181213006e-01,-6.455188463650617841e-04,-1.769077574662846972e-02,-3.485723477880976143e-03,7.201727479696273804e-02
-2.177769961585356850e-01,-2.975828708493352126e-01,-2.906227435376830259e-01,-3.959734831970796419e-03,-7.692505918481883087e-03,1.668345520196433352e-03,7.806967943906784058e-02
-2.187684404948555539e-01,-2.945237178376998721e-01,-2.954476170414473968e-01,-3.021035175371424020e-03,-5.730607426516433692e-03,1.655300458996186719e-03,7.709620893001556396e-02
-2.558304652977743121e-01,-2.745806562739261381e-01,-2.746352802775086643e-01,-1.838119892600136203e-03,1.751120609515185392e-03,-4.112366318643107671e-03,2.055886387825012207e-02
-2.149758381425424525e-01,-2.967666873246162518e-01,-2.929942167947567344e-01,-2.490382120652888040e-03,-2.671976070939169096e-04,2.136760433128126815e-03,8.017442375421524048e-02
-1.839582886746717605e-01,-3.042662163770845640e-01,-3.246648129186219256e-01,1.374627564704223107e-02,5.749896930068905572e-03,-2.259291765414517868e-03,1.342594176530838013e-01
-2.586116538673093324e-01,-2.873420060230856832e-01,-2.564208883268436767e-01,2.141911391167703078e-03,9.783161760204689417e-03,2.711241738860938662e-03,3.487292304635047913e-02
-2.546311570643994271e-01,-2.882013703642150038e-01,-2.646637546373461491e-01,-5.545006063857695067e-03,1.123473353739702987e-02,-1.549360952120861380e-03,3.699886798858642578e-02
-2.404846060932506191e-01,-2.901793740814617717e-01,-2.773042387101282702e-01,-6.321591131727940724e-03,1.637047447264659145e-02,5.948010705510767531e-04,5.404108017683029175e-02
-2.469091580684272536e-01,-2.631088843496465768e-01,-2.889385593280503484e-01,2.002738818248039551e-02,6.885245490200952653e-03,6.225389059852051710e-03,5.300765857100486755e-02
-2.696439204680278201e-01,-2.638551001295063037e-01,-2.713254462263535172e-01,1.060890841049279580e-03,-2.747418924053974566e-03,-7.087214451441503204e-04,8.579060435295104980e-03
-2.364839906518307611e-01,-2.934409061995771340e-01,-2.771632800457944912e-01,1.435198260768838540e-03,2.104961415704528424e-02,-3.291321696589190240e-03,6.284794956445693970e-02
-2.580372306027481355e-01,-2.814155317621879759e-01,-2.671524509658400603e-01,-6.574689051802532630e-03,8.488991310586665312e-03,-6.238083426321022924e-03,2.965035289525985718e-02
-2.450265063507879870e-01,-3.211373617284009052e-01,-2.389027308185449894e-01,-1.139996846652383293e-03,4.291568251787996474e-02,-7.729602861330602676e-03,1.095666736364364624e-01
-2.522822235388287870e-01,-2.629458958956575332e-01,-2.918325185669025656e-01,-2.469276180035127194e-02,-2.864228898186348994e-03,9.235437082056950631e-03,5.801618099212646484e-02
-2.680840360273470946e-01,-2.708384439166086066e-01,-2.621752883356039954e-01,-1.015831956813043231e-02,-1.370450212602453317e-02,1.149827066960095769e-02,3.644750267267227173e-02
-2.672828793585861895e-01,-2.662145844273732798e-01,-2.735924425934455617e-01,-9.362795369633622466e-03,-1.356969702921353993e-02,1.339859508432089501e-02,3.743868693709373474e-02
-2.743291037887172212e-01,-2.933389741976940024e-01,-2.401549703473020714e-01,-9.793297842851912682e-03,-1.331948830827506779e-02,1.240542789747330586e-02,5.882626026868820190e-02
-2.611073518700162133e-01,-2.635332368144948090e-01,-2.802393610604249075e-01,1.072078615675100275e-03,5.853019980812495778e-04,6.132190215878212912e-04,1.819644309580326080e-02
-2.789031866985051122e-01,-2.664652539090454630e-01,-2.598357268323474023e-01,-1.647536642075840899e-02,-2.090200073465659295e-02,1.827275496763609841e-02,5.837623775005340576e-02
-3.744984075307357663e-01,-2.523942275227534782e-01,-2.061669497650677751e-01,4.148268066330355192e-02,3.332462206036546082e-02,1.459730172443665930e-01,3.083980083465576172e-01
-2.752832842185271578e-01,-2.548306331584414552e-01,-2.771326155154478776e-01,-3.518655117629049256e-02,-4.327423523892866275e-02,2.774691222972822807e-02,1.100067570805549622e-01
-2.571399933314494901e-01,-2.669268082463596703e-01,-2.814476421974739795e-01,1.631811170162777037e-03,-9.862195361824081363e-04,-3.662448466190790404e-03,2.235835418105125427e-02
-2.920774642655492581e-01,-2.983088935591816093e-01,-2.162004052529432063e-01,1.162565471176718037e-03,3.000277335086323251e-03,-1.529640210066629319e-03,7.941700518131256104e-02
-2.455559496223127525e-01,-2.848854313929323756e-01,-2.742728295469485378e-01,2.804090374843239315e-03,3.477204573897915534e-03,4.538996232157925699e-03,3.692853078246116638e-02
-2.260732195606915407e-01,-2.918747187696471568e-01,-2.852906841247920822e-01,1.978733172706183870e-03,-4.230553161008438964e-03,-1.380183599188172924e-03,6.333325058221817017e-02
-3.039082487111515185e-01,-2.983753064496318386e-01,-2.016307759381783804e-01,-6.404273521564655004e-05,6.419300578986921954e-03,9.601694911742576430e-03,1.016150191426277161e-01
-2.906842293953326717e-01,-2.930598360815238057e-01,-2.211395722866524582e-01,1.571032617140527901e-03,6.187516262297601717e-03,1.279021157148277441e-03,7.165529578924179077e-02
-2.739417568982474571e-01,-2.425956957347304155e-01,-2.872429737266860017e-01,4.264196983336720689e-03,7.222853481604458135e-04,7.107676948468257547e-04,4.042362421751022339e-02
-2.916973896900537100e-01,-2.946003275865830551e-01,-2.200599357375825904e-01,9.193601683702012244e-06,2.325448253677382844e-03,7.280050821377512596e-03,7.432046532630920410e-02
-2.968763162450497872e-01,-2.966112596053788186e-01,-2.146900411975805889e-01,-3.709267761407398318e-04,1.225554306441805968e-03,6.170502048825188268e-03,8.277689665555953979e-02
-2.687868402088234854e-01,-2.763750921685564910e-01,-2.559985705360729447e-01,8.057420131588220388e-03,-1.179559653040637528e-02,-7.721781143925994864e-03,3.330486640334129333e-02
-2.390256987167324321e-01,-2.840251242847409707e-01,-2.827557363179388217e-01,2.800725448723734388e-03,-3.462119634053753992e-03,-3.574914397117599438e-03,4.546722769737243652e-02
-3.783296445383665940e-01,-1.229573430318993688e-01,-3.356681461966015689e-01,4.474079514401258645e-02,-2.640709118066670788e-03,-9.099811304385346800e-02,2.949721217155456543e-01
-2.640842512214977011e-01,-2.900575759826462541e-01,-2.526093462357336672e-01,2.918063693192261832e-02,-4.696795214436157856e-02,-1.832951646452932529e-02,1.062296405434608459e-01
-2.456172128549769518e-01,-2.850675306943081244e-01,-2.767575061554988225e-01,1.036977075141446401e-02,-1.267511362944452082e-02,-6.317386417745906799e-03,4.713651537895202637e-02
-2.855321200397876180e-01,-2.602094768465336161e-01,-2.601611017470789600e-01,4.041607498854561187e-04,-4.517306767240183074e-04,5.399767074872639967e-03,2.703771926462650299e-02
-2.466734799020509905e-01,-2.728790077065206265e-01,-2.862295688668348714e-01,-3.668766035143907270e-03,-1.108396077789103058e-03,2.310823095471409468e-03,3.570589050650596619e-02
-2.364140514450545627e-01,-2.952062586052440762e-01,-2.762822422585377025e-01,5.730871091379903005e-03,-1.779330589622201558e-02,-1.782928230001235535e-03,6.131824851036071777e-02
-2.109943762928864763e-01,-2.891297059221861199e-01,-3.087839362673021615e-01,2.041912746241220447e-02,-1.272339940821920999e-02,-5.535545658090495515e-03,9.927493333816528320e-02
-2.282097625517285344e-01,-2.929730439823372556e-01,-2.841138823134873315e-01,-1.031233750334627436e-03,-4.263905512165867134e-03,3.440904155025759970e-04,6.129524484276771545e-02
-2.578990278438259010e-01,-2.947590718494467188e-01,-2.599719437791550569e-01,8.323740108285916303e-03,-2.652895437920044924e-02,-9.194344609737189686e-03,6.212382763624191284e-02
-2.166117251017568301e-01,-2.941353310066383564e-01,-2.939794315663769031e-01,-2.656671020928357777e-03,-2.182119555920953961e-03,1.778800120907058689e-05,7.767436653375625610e-02
-2.986677533765625392e-01,-2.278912970730243293e-01,-2.734509041468740076e-01,-4.321013507745829346e-02,-2.791454014889982807e-02,4.112170670745343010e-02,1.298939287662506104e-01
-2.453631748668693435e-01,-2.882787431899362374e-01,-2.664675494117572097e-01,6.016615720665306408e-03,-2.075729135384353496e-02,-6.021726282429925615e-03,5.377185344696044922e-02
-2.264274275602649045e-01,-3.061512605025670242e-01,-2.774109478571383791e-01,1.618913699112791219e-02,-2.695795948613474019e-02,-1.799053571221313416e-02,9.395767748355865479e-02
-2.710070010529875839e-01,-2.717018217412710546e-01,-2.581902044203882585e-01,2.972018345779502135e-02,3.489905232532512086e-02,3.474257635775447606e-02,1.004912853240966797e-01
-1.487868926532096014e-01,-3.233451223297462707e-01,-3.186863861841146006e-01,2.753064657263710677e-02,1.951030640220172488e-02,6.791847726949078352e-03,1.822997927665710449e-01
-2.751752713828125030e-01,-2.639336089089873716e-01,-2.658679255880307402e-01,-8.122485823810075747e-04,-1.596154489143729880e-03,2.457760595853714265e-04,1.087084226310253143e-02
-2.678240904232263575e-01,-2.608653982787624281e-01,-2.756038426000700925e-01,-6.277151922175270952e-04,-2.729824233491545162e-03,1.107987059367294448e-03,1.379513088613748550e-02
-2.550032035841927613e-01,-2.654703318495965636e-01,-2.843924208220039995e-01,-1.882890921512847277e-03,-4.086144821478422825e-04,1.363714724479677450e-03,2.612244337797164917e-02
-2.612713389187439894e-01,-2.839662929755767395e-01,-2.600115681002412860e-01,3.368596051361932853e-02,5.986256792836888718e-02,2.489951488252269488e-02,1.286856979131698608e-01
-2.369382936227870384e-01,-2.927659515626289122e-01,-2.626807637936934836e-01,3.354117621283772555e-02,4.719152886017858456e-02,2.503023583552679843e-02,1.194903776049613953e-01
-2.579075539275986761e-01,-2.667819670030199264e-01,-2.806229394750114903e-01,-1.792239871648154421e-03,-8.926347048205414544e-04,2.619789212056110924e-03,2.063431404531002045e-02
-2.600535872825630035e-01,-2.789728048888091561e-01,-2.623274583344605282e-01,4.546502349498375561e-03,1.136483360534143103e-02,6.002073480460319230e-03,2.962519973516464233e-02
-2.560293259209329708e-01,-2.772173205589850697e-01,-2.703835003400140713e-01,5.720986223520078268e-03,9.946906924779341796e-03,6.142575352648838895e-03,2.930943295359611511e-02
-2.752148564575419565e-01,-2.635732307763191118e-01,-2.661201042496428304e-01,-9.995553208065862186e-04,-1.999925785616252227e-03,6.278662697759762254e-04,1.133769657462835312e-02
-2.628081880395172210e-01,-2.591933115062354798e-01,-2.819758624288717930e-01,2.473049510357485173e-02,9.955854651641241060e-03,1.624720262557596134e-02,5.808459222316741943e-02
-2.660738534029539193e-01,-2.682899230067545826e-01,-2.710602393331916216e-01,-4.227734973166163458e-03,-2.902432074782449259e-03,4.850553917203480336e-03,1.296927221119403839e-02
-2.652697351136604209e-01,-2.727436537805475458e-01,-2.660823226375232387e-01,2.829829536417213017e-03,3.333822919197560689e-03,2.484868484141270796e-03,1.123998221009969711e-02
-2.633631915263927592e-01,-2.865321067327982196e-01,-2.551740842132251830e-01,1.430182317037543768e-02,2.497051706701966522e-02,8.070324514586892442e-03,5.893377587199211121e-02
-2.558554552488324085e-01,-2.789811591286491255e-01,-2.688650506293199238e-01,7.628114434582250469e-03,9.439852474570176871e-03,6.940196719708973880e-03,3.145771101117134094e-02
-2.598253696197065366e-01,-2.891241988046892586e-01,-2.617838347780942487e-01,1.402918822244901900e-02,2.636642763102979570e-02,1.688343983626041517e-02,6.584867089986801147e-02
-2.680316179576654467e-01,-2.671068619779541353e-01,-2.680858263686630161e-01,3.174588733735380936e-03,2.845224577118758095e-03,3.243637712544274188e-03,9.326936677098274231e-03
-2.600740757669927627e-01,-2.711549835944852549e-01,-2.718728044587608861e-01,1.935803143365738381e-03,4.559440400163093307e-03,4.155394882194897617e-03,1.602077670395374298e-02
-2.652919334932449802e-01,-2.784226136916457817e-01,-2.606450137988663429e-01,7.794722311656128444e-03,1.053715305209726970e-02,6.513221714936347564e-03,2.996097318828105927e-02
-3.033371685001988172e-01,-3.180770636127480677e-01,-1.934732322424216333e-01,1.935142154758487734e-02,4.838489486930705463e-02,2.624716808130512363e-02,1.553067862987518311e-01
-3.024731426926844380e-01,-3.064325181439189749e-01,-1.968429548240162030e-01,7.771912274300204690e-03,3.759349130058525779e-02,7.328265817197230497e-03,1.271761506795883179e-01
-2.691663004217037525e-01,-3.383095256043946453e-01,-1.727800768466300485e-01,9.984613348806403721e-03,9.324279734151953714e-02,1.769853724573737519e-02,2.192190587520599365e-01
-3.420032187082959196e-01,-3.434527208829332157e-01,-1.020142483825362545e-01,-5.169007453421867529e-03,2.751298439768252654e-02,-1.013777963249368934e-03,2.455581426620483398e-01
-2.884006438976615128e-01,-3.174479882890813842e-01,-1.980931550856167012e-01,7.955381418358234424e-03,3.395604406202126085e-02,-1.164638647140768361e-02,1.252126246690750122e-01
-3.059219864941481459e-01,-3.180021958405231386e-01,-1.901243293510433974e-01,-4.496587432591644604e-03,2.021782597962178130e-02,-7.478512423965411049e-03,1.280961036682128906e-01
-2.703262668815616387e-01,-2.443893554193343476e-01,-2.899383478912078149e-01,1.967949693706092656e-02,-1.242261785751875951e-02,-6.266140911265749396e-03,5.752077698707580566e-02
-2.736658572770749309e-01,-2.399123237504205419e-01,-2.921250779570284117e-01,4.891834227570397015e-02,-9.377612660720397245e-03,-2.605449258153556477e-02,1.076217889785766602e-01
-2.760040952667451308e-01,-2.208703957231424875e-01,-2.963627221974692860e-01,3.738474776995654586e-02,-1.340698391324335152e-02,-1.589167237004236385e-02,1.003313511610031128e-01
-2.002251136856875169e-01,-2.995078575938061594e-01,-3.050716294187185151e-01,-3.389040720581051706e-03,-1.577099572969977576e-02,-4.468330693472596471e-04,1.059322133660316467e-01
-1.114740096376723721e-01,-3.384200642587573693e-01,-3.651070257356406890e-01,1.432452134836500329e-02,-6.001410092889850056e-02,1.570761259055344916e-02,2.653941214084625244e-01
-2.424863778296250383e-01,-2.744267761937981276e-01,-2.872156011008928922e-01,4.094145838200456515e-03,4.311992149433294141e-04,2.029842300315702012e-03,4.068695008754730225e-02
-1.118240890909001084e-01,-3.944350372053825882e-01,-3.051336404747576614e-01,-5.024909504306470862e-03,-7.459580809617888386e-02,-1.518478012898260079e-02,2.829615175724029541e-01
-1.337681747144068289e-01,-3.390420200462342382e-01,-3.047650215900933324e-01,4.781252047744279088e-02,-6.824166075184602553e-02,-1.658016652689116299e-02,2.406858652830123901e-01
-1.809670074734090195e-01,-3.346037883353399911e-01,-2.762303730633034471e-01,2.158467037408916961e-03,-9.956192865831742234e-02,-1.834506000469993472e-02,2.209179550409317017e-01
-2.436384878755606664e-01,-2.735682203180160310e-01,-2.871026674451848670e-01,4.134738347455845994e-03,-1.524223565821668930e-03,-5.239560373712095435e-04,3.928274661302566528e-02
-2.548927240777189018e-01,-2.658883599039923995e-01,-2.843782087115757640e-01,2.312627481930180917e-03,5.251297489532314030e-04,1.470334014128110147e-03,2.625726163387298584e-02
-2.244304065532851666e-01,-3.175518909156360148e-01,-2.690037643390149058e-01,-1.512757187163496931e-03,-6.378570454488922958e-02,-4.204915626431642711e-03,1.370161175727844238e-01
-2.439073210111077916e-01,-2.624444993294799966e-01,-2.980580571077640628e-01,2.787069021368404273e-02,-1.304777004817937627e-04,9.320144185427734623e-03,6.973592936992645264e-02
-1.933196748439722223e-01,-3.203227472785677987e-01,-3.024297819024498457e-01,3.383185900463385465e-02,-1.097522884563257306e-01,-2.417885392379371182e-02,2.355882078409194946e-01
-1.996864101566099281e-01,-3.256526761351004606e-01,-2.733983735494854850e-01,4.194412810357325827e-02,-8.651109080524703454e-02,-1.082880569293072706e-02,2.002447396516799927e-01
-2.577676060139733050e-01,-2.659215361811189671e-01,-2.814152006623764080e-01,1.767757149388484231e-03,4.906154528060387762e-04,3.023775069416126306e-03,2.168873324990272522e-02
-2.315957068920910245e-01,-2.844026525410018325e-01,-2.894965475200106386e-01,4.031956585526047521e-03,-1.631009496538199984e-03,-7.196457094316308306e-04,5.605192855000495911e-02
-3.581568316022414877e-01,-2.128270261702874810e-01,-2.459036124593652062e-01,7.212150253800293787e-02,-2.404781548173768810e-02,-1.086976712435385600e-01,2.649391889572143555e-01
-3.341207050888738705e-01,-1.923557361141390865e-01,-2.645277554475426451e-01,3.418527239317906835e-02,-3.705031982594120255e-02,-9.322107127141494864e-02,2.208375483751296997e-01
-2.745427551008232658e-01,-2.554293210842629169e-01,-2.745646989628402479e-01,2.140798851372292724e-03,-4.845132273493614299e-03,-2.277080258157971032e-03,2.157483622431755066e-02
-3.223955532135150959e-01,-1.339712049756666967e-01,-3.793064224146568408e-01,1.109004839667924458e-01,-5.984724515799432105e-03,2.275074175782995298e-02,2.966866493225097656e-01
-2.902215572664224585e-01,-2.243331935932644794e-01,-2.939739641441561080e-01,2.877877092735072612e-02,-2.001962500677501120e-03,-5.080103000112198321e-03,8.471538126468658447e-02
-2.465815326360445425e-01,-2.804153235361866447e-01,-2.775588773369513929e-01,1.283983223465305981e-02,1.416366314582061942e-02,9.972206070815899104e-03,4.950744286179542542e-02
-2.903493294694916571e-01,-2.130206151573663942e-01,-3.038157209805079639e-01,6.252736369617338530e-02,-4.886195833349004682e-03,-2.869649480379237588e-02,1.465384513139724731e-01
-3.173351228824577985e-01,-2.213491892822339324e-01,-2.678935607451996548e-01,2.681327717918494460e-02,-3.274487848539849727e-02,-4.746046668630764243e-02,1.379967331886291504e-01
-3.092060533246780429e-01,-2.166084845733199371e-01,-2.809064407939023678e-01,4.979444953441433848e-03,-5.203401935436448647e-03,-2.784732537396771360e-02,9.610792994499206543e-02
-3.914191686018577143e-01,-1.373400708667396608e-01,-2.867654452170161350e-01,4.485118246558668365e-02,-2.723345561807727355e-03,-8.877784142401681788e-02,2.803924381732940674e-01
-2.229817968427481034e-01,-3.051211065097373942e-01,-2.678305096148343445e-01,-2.342534903140375702e-03,-3.940851371240799289e-02,3.442930516430369250e-03,9.892192482948303223e-02
-2.645806683873606624e-01,-2.950032537859265114e-01,-2.438705137349215235e-01,-4.119814642497696827e-03,-2.207303059550566951e-02,-1.878123406160685368e-04,5.913696810603141785e-02
-2.135188792129562030e-01,-2.954639840462333633e-01,-2.942753696543299879e-01,1.069136740870812226e-03,-2.764408277111976477e-03,-1.396610989128080609e-03,8.155500143766403198e-02
-2.451805690240148328e-01,-2.947027804218145253e-01,-2.630625747090281075e-01,1.409241205309326060e-03,-2.284084167681285638e-02,4.030256687994520151e-03,5.921535193920135498e-02
-2.623887898059475976e-01,-2.840979261903989195e-01,-2.585456803324021058e-01,5.583641764664527309e-03,-8.317011995972626442e-03,-4.719220737953130559e-03,3.061615675687789917e-02
-1.285211661762714896e-01,-2.883051387865208093e-01,-3.854965032499829691e-01,-1.179841304859674811e-01,1.581084916919825098e-02,3.182251923357985041e-02,3.099281191825866699e-01
-2.777258458563904298e-01,-2.885851593474699772e-01,-2.367620111235732572e-01,-4.961587372728138226e-03,9.001442301710082389e-03,-5.821708641715052715e-03,5.156943202018737793e-02
-2.645293693820883196e-01,-2.743297103454857555e-01,-2.686086744930731296e-01,9.903557672989402386e-03,-1.147335463593461211e-02,-7.097844244850388083e-03,3.021592274308204651e-02
-2.186455378906723701e-01,-2.927886201419127032e-01,-2.939363695889535832e-01,-2.557994798162862692e-03,1.822543505672609507e-03,-1.044141519272469591e-03,7.494316250085830688e-02
-2.436250360190858055e-01,-3.060576436858382099e-01,-2.555983167734518502e-01,-6.752341679411049367e-03,-5.120005690252051045e-02,-7.590841238423996773e-03,1.070871129631996155e-01
-2.556115494704138680e-01,-2.872726206112072300e-01,-2.580011568333780425e-01,-2.429595565239274762e-03,-1.215101739100200515e-02,1.515486588294845914e-03,3.741679713129997253e-02
-2.354026284929223445e-01,-2.855654394634146720e-01,-2.837700621932445211e-01,-3.473612606077108693e-03,3.288150454493413491e-03,-3.892553071562936118e-03,5.043371394276618958e-02
-2.537217631884984281e-01,-2.893105223355179056e-01,-2.563796735475555866e-01,4.031622410035255212e-03,-1.499901098313625308e-02,-2.670460697446366653e-03,4.386455938220024109e-02
-2.445257040939320115e-01,-2.870963348693071349e-01,-2.709614637497586020e-01,2.592360224446688122e-02,-3.099026438921540644e-02,-1.569464417123448557e-02,8.379723131656646729e-02
-2.715462639664107392e-01,-2.981669799766469287e-01,-2.376074720516381800e-01,3.434851243222265295e-03,-2.117499014329711840e-02,-2.797596764344501170e-03,6.456000357866287231e-02
-2.407181331186082907e-01,-2.743494999277936719e-01,-2.881646765622528639e-01,-3.723456898207095495e-03,-1.318048983969265274e-04,-7.177344279108198791e-04,4.277547448873519897e-02
-2.611877823344941341e-01,-2.609100257771746478e-01,-2.827351230278825067e-01,-5.044964209921426468e-03,-1.693535758523152628e-03,1.259102727752539229e-03,2.366569638252258301e-02
-2.784538141131117084e-01,-2.806961952381717973e-01,-2.785109914276263088e-01,-1.002088226599027326e-01,-9.211810951480182974e-02,8.686760582518900098e-02,2.796882390975952148e-01
-2.610232276787929906e-01,-2.621280083221677049e-01,-2.808157913509558012e-01,-3.004983763153243424e-04,7.631006037450344982e-04,-4.730326916729211614e-04,1.933361962437629700e-02
-2.692866601104830782e-01,-2.657551826606449619e-01,-2.632962346199885784e-01,-1.594488717546876239e-02,-1.641482720236870849e-02,1.822843348981043055e-02,5.094199255108833313e-02
-2.894046339658326028e-01,-2.719771976775697264e-01,-2.456301624069301970e-01,-2.152553764361005671e-03,-4.094489351111857780e-04,2.979106427508765829e-03,3.870493173599243164e-02
-2.607967482394260017e-01,-2.972098709924727022e-01,-2.497835408098596222e-01,3.123257943938936181e-04,-3.209400826857111005e-02,-1.617967737890290423e-03,7.033102959394454956e-02
-2.621551945388652105e-01,-2.611945226981967627e-01,-2.812074781478500762e-01,-1.060468595481916338e-03,9.623455563433191539e-04,-7.576637912067400987e-04,1.975068822503089905e-02
-2.596097476503490542e-01,-2.610282151996047295e-01,-2.838074298060462297e-01,-7.649536586096920311e-04,5.737973378041616185e-04,9.710465697149678690e-05,2.357939258217811584e-02
-2.848065345993508468e-01,-2.668432701194007328e-01,-2.538102534490859763e-01,-3.556384834666193907e-03,-1.996911759778750416e-03,9.943098322562647640e-03,3.275906294584274292e-02
-2.849507335284742204e-01,-2.609442851457713930e-01,-2.579419450861318297e-01,-6.784531446198338806e-04,1.447139633213593223e-04,2.412899510809420403e-03,2.600594423711299896e-02
-2.507689911679253925e-01,-2.883832669893536815e-01,-2.619735214966058545e-01,-9.708746723484427618e-03,-2.967691234294131397e-02,6.217209754989825449e-03,6.449668854475021362e-02
-2.673053279760064238e-01,-2.816279230234418063e-01,-2.557893029969182663e-01,-3.679051757779986352e-03,-2.413477810454279886e-03,1.224378110159349883e-03,2.377547323703765869e-02
-2.375205346928367101e-01,-2.767637346647887076e-01,-2.873951229189394829e-01,9.767451633480897857e-03,4.870666428080394107e-03,4.842696636903437608e-03,4.997999221086502075e-02
-2.838210586424664283e-01,-2.680921416717438333e-01,-2.477785048107852550e-01,-8.531168954359574438e-03,-1.139164710421132140e-02,1.961215678767126366e-02,5.235566571354866028e-02
-2.506625196217340812e-01,-2.860258217939932734e-01,-2.678705743887587198e-01,-1.536083772890135118e-02,-1.369161854346296475e-02,1.299185025107630655e-02,5.210334435105323792e-02
-2.578025205184004687e-01,-2.655333042325423443e-01,-2.809739866545171716e-01,-1.385288969928062490e-03,1.283120143643426588e-03,-2.493335238008856283e-03,2.113988436758518219e-02
-2.472639150101419714e-01,-2.811964003870427997e-01,-2.791429055688728345e-01,-1.050490693999494435e-02,1.713742218255464786e-02,-1.198206781763903883e-02,5.223784968256950378e-02
-2.722999468014765667e-01,-2.630980732247903964e-01,-2.680800314691871300e-01,-4.835237051007080546e-03,-4.242221049541745719e-03,4.857354896743376962e-03,1.607981882989406586e-02
-3.067657385639979695e-01,-2.445633608338076415e-01,-2.607977696543559154e-01,-1.263160857772625649e-02,-1.147703087805903958e-02,3.595560179250194277e-02,8.874192088842391968e-02
-2.690895458433891774e-01,-2.703435692145278457e-01,-2.650510219924439026e-01,-2.386363655252258988e-03,5.297343235568461586e-04,-9.251305039603293333e-04,6.590925622731447220e-03
-2.472442628060016745e-01,-2.586611408966370540e-01,-3.057692362047350065e-01,-5.108970849125193947e-02,-2.159527283521147159e-02,2.525105481714212327e-02,1.184471845626831055e-01
-2.627451558187504088e-01,-2.750213186053427350e-01,-2.690208980187238641e-01,-4.801623594995801415e-03,-7.899599265189101785e-03,5.973600078443576204e-03,2.182834222912788391e-02
-2.594702296121947360e-01,-2.608138215938203830e-01,-2.845595209619565802e-01,9.820230553708360084e-04,2.818468302492988745e-04,2.143059897295231120e-04,2.451198175549507141e-02
-2.668861473694403852e-01,-2.552081938805730310e-01,-2.842067034929511848e-01,-9.858107558155486741e-03,-4.117903671932690926e-03,5.198691971493841178e-03,3.259052708745002747e-02
-2.611820767904438068e-01,-2.704194870135172013e-01,-2.787902254803866220e-01,-1.944181447565361195e-02,-1.679021145311464930e-02,1.505311858046996798e-02,5.377916246652603149e-02
-2.544559280659309253e-01,-2.739234650570023244e-01,-2.705995861429046911e-01,-1.325778869064597743e-02,-1.415527210777477694e-02,1.017660308527862378e-02,4.200520366430282593e-02
-3.029961879494163512e-01,-2.329335727939334522e-01,-2.823356229693436137e-01,2.629427530106717009e-02,1.757213715943858889e-02,5.114259134491599273e-02,1.213890314102172852e-01
-3.006022901049825724e-01,-2.640360023552417168e-01,-2.477831076986038439e-01,2.771116903636883580e-02,3.508031167654652310e-02,6.272394153546699547e-02,1.414003074169158936e-01
-2.874013462694664511e-01,-2.706503184974651255e-01,-2.432879172660765421e-01,2.148355275901872932e-02,2.283067481004449548e-02,3.740227089420097156e-02,9.291277825832366943e-02
-2.827263115865760179e-01,-2.672635669946837322e-01,-2.533455014006307793e-01,3.175729907260367926e-03,1.187960186206728696e-03,1.342075526401229112e-03,2.622810564935207367e-02
-2.796977458603684408e-01,-2.671943201371572707e-01,-2.567605786719069916e-01,1.024506203114917274e-02,8.040443884681695505e-03,1.281033016753660783e-02,3.737378492951393127e-02
-2.529478664305467861e-01,-2.683795187584544495e-01,-2.785185892064369617e-01,1.366967574138992086e-02,9.416855493733559263e-03,1.025399993543264950e-02,4.049005359411239624e-02
-2.865271974596050319e-01,-2.802938708651613875e-01,-2.384722425868611717e-01,1.723968859400657958e-02,1.704393009230962056e-02,2.670927449278290289e-02,7.714825868606567383e-02
-2.910985099136390031e-01,-2.861636951503488402e-01,-2.259349661474843174e-01,-8.645296240686034647e-05,-2.858804259263068859e-03,3.347008031859687472e-03,6.330259144306182861e-02
-2.562774133136929144e-01,-2.741006877442880296e-01,-2.743747271521456144e-01,2.073414093775359426e-03,2.097308042748789302e-03,4.837378971775439448e-03,2.046759426593780518e-02
-2.664304159020614571e-01,-2.676594646808894695e-01,-2.708948096234933822e-01,5.468572658030829798e-04,5.175285460908913204e-04,3.379753017951095352e-04,4.242376890033483505e-03
-2.850149008349029955e-01,-2.577277603281551421e-01,-2.619534615234876962e-01,-1.763206456259482253e-03,5.328580505381782292e-04,4.782784681540543613e-03,2.694329060614109039e-02
-2.648096753549317728e-01,-2.754996446030634760e-01,-2.638748988007031393e-01,8.300208309793782966e-04,8.381842474077933185e-04,1.778889052899399349e-03,1.178175676614046097e-02
-2.330936416159130331e-01,-2.753876011759703313e-01,-2.964110466747563177e-01,9.464392764748964099e-03,6.320837030220959139e-04,3.506706307320861960e-03,5.853838846087455750e-02
-2.935906149437709223e-01,-2.351169877053200519e-01,-2.807190716347719439e-01,1.925948107470621534e-02,7.591342677311046713e-03,5.577461755258872333e-02,1.159753799438476562e-01
-2.829452869832171924e-01,-2.404358414894711693e-01,-2.812092629726362647e-01,1.725177621342091974e-02,1.380148703407792048e-02,2.584489547906122092e-02,7.214193791151046753e-02
-2.567721962272701552e-01,-2.668954494720089388e-01,-2.753610463178701173e-01,3.925434282895993998e-02,-3.219392857562954069e-02,-2.566476306824327577e-02,9.983959048986434937e-02
-3.053972880650303590e-01,-1.894259016707496857e-01,-3.033071632953167618e-01,-3.182315586376120199e-03,4.990697972886305039e-04,-4.345961925315292018e-03,1.153218448162078857e-01
-2.700612726659509244e-01,-3.129147614436689206e-01,-2.218140866247785004e-01,3.417667851616807556e-02,-6.071950748168435108e-02,-2.737535685023327961e-02,1.518048644065856934e-01
-2.904180346521745282e-01,-2.892451533552878318e-01,-2.277004520008543420e-01,5.888445861476506414e-03,-2.850435476487224451e-02,-4.104416767887634349e-02,1.070359647274017334e-01
-2.872745399357734541e-01,-2.811229690058397179e-01,-2.400188788580495391e-01,1.016754473930467362e-02,-1.454308117592393104e-02,-1.867341357854074985e-02,6.301565468311309814e-02
-2.429261482804769556e-01,-2.728229822548370320e-01,-2.781873445283676305e-01,3.670980830005834278e-02,-3.339071682234206334e-02,-2.510210920122112749e-02,1.017888635396957397e-01
-2.872902147728945699e-01,-2.442285983107162772e-01,-2.790168503936357181e-01,-1.000898257631459461e-02,9.536570146236548334e-03,-1.755305682262317188e-02,5.535516142845153809e-02
-2.854833236608921854e-01,-2.360624613377812486e-01,-2.812063505381773298e-01,-6.804091783876665793e-03,8.924094579472774055e-03,-8.580579529077576525e-03,5.336690694093704224e-02
-2.867194515895735707e-01,-2.325425749935628450e-01,-2.885908420560601151e-01,-6.012259702356347393e-03,2.103068432969621565e-03,-8.041583211224834216e-03,5.792869627475738525e-02
-2.903216782888251024e-01,-2.149778915224450082e-01,-2.954926562588374717e-01,-1.401323875277658663e-02,1.721439663319404350e-03,-5.860938084917849226e-03,8.242621272802352905e-02
-2.782092301173367255e-01,-2.372493170301445409e-01,-2.895051479299519670e-01,-8.016794295657478364e-03,3.760896218123059229e-03,-5.417824231599043666e-03,5.090472102165222168e-02
-2.787682747382765336e-01,-2.347276626467973415e-01,-2.922614112140722309e-01,-1.575990863945392340e-02,5.894497449144347426e-04,-9.382716252318758915e-03,6.104227155447006226e-02
-2.868962200954319197e-01,-2.738845166358859773e-01,-2.437856151864533083e-01,-1.217932997133113837e-03,5.256584722792124022e-04,-3.887742792638137004e-03,3.895521536469459534e-02
-2.832048103793216587e-01,-2.303829769231184599e-01,-2.924469431886135284e-01,4.473701970410127321e-03,1.870911115620006032e-03,1.929787997592351256e-03,5.869808048009872437e-02
-2.179481888632784914e-01,-2.872549319883970220e-01,-2.953606852994280496e-01,-9.858636080900005927e-03,-2.777030069467480481e-04,1.749848680632757432e-03,7.570935785770416260e-02
-2.389381115645791420e-01,-2.830737226132347129e-01,-2.830757277587186982e-01,2.959958127678026952e-03,-2.597888014142444180e-03,-4.409785464822897454e-03,4.530905559659004211e-02
-2.890648542219284023e-01,-2.728452839225687376e-01,-2.444228394579505692e-01,-2.152051471374637551e-03,2.176610955853106998e-03,-4.464754525564744100e-03,4.024697095155715942e-02
-2.288592592199967524e-01,-2.901200583879558481e-01,-2.856154381463345548e-01,-9.273706279582848242e-04,3.902450401559368239e-03,-6.831238439822198303e-04,5.955575406551361084e-02
-2.944397143184443455e-01,-2.596650746735310045e-01,-2.491748172013846241e-01,5.933447901861441977e-03,-9.772540676955827899e-03,-2.103518546124684419e-02,5.834104865789413452e-02
-2.852845100338917139e-01,-2.567116062461318182e-01,-2.609541746506026660e-01,2.761495473300251517e-03,-4.047132541024118894e-03,-9.166410301399828542e-03,3.220671415328979492e-02
-2.495811655341540758e-01,-2.817798460790836290e-01,-2.740567509826641879e-01,1.728652546043759263e-03,-2.470668055384894236e-03,-4.230689318052393601e-03,3.047460131347179413e-02
-2.734056422264801167e-01,-3.672075310712482055e-01,-1.991682131500654429e-01,-5.504718371752779366e-02,-1.312869077853667799e-01,7.493691904354674027e-02,3.145148158073425293e-01
-2.886985123435416023e-01,-2.543623175070833242e-01,-2.645692251906773818e-01,-1.108111501986788674e-03,1.143811716793206390e-03,-1.142483610943568692e-02,3.649490699172019958e-02
-3.032985795961989361e-01,-2.605700654918976511e-01,-2.398169005149046740e-01,-3.103710256417523475e-03,5.286048545575660826e-03,-2.038179649203393853e-02,6.709806621074676514e-02
-2.281870193177348294e-01,-2.859817164751848328e-01,-2.891600716322452747e-01,2.983134662788386807e-03,5.342706818962985986e-03,3.465648111197676927e-03,6.068265065550804138e-02
-2.897863343961891713e-01,-2.565841038252817397e-01,-2.615183985213889728e-01,1.931269469374320875e-03,-1.719148708295602278e-03,-2.805167860715810854e-02,5.782431736588478088e-02
-3.075602093176055263e-01,-2.419144913930185159e-01,-2.475077432356396490e-01,-3.535854013579464543e-03,3.751884252360586890e-03,-4.838936761000117714e-02,1.052511334419250488e-01
-2.918641885932218849e-01,-2.237132824890372962e-01,-2.865211327252891182e-01,-8.860112621464791369e-04,2.247686085639073131e-03,-4.559312147042722009e-03,6.624826788902282715e-02
-2.882016573743909627e-01,-2.761872992927331683e-01,-2.445066471247271389e-01,-3.805978236481127007e-03,3.583886879714559548e-03,-1.970795370241024136e-02,5.268615111708641052e-02
-2.659734292694053703e-01,-2.571193694072425595e-01,-2.810818292290111486e-01,-1.984498130841652087e-03,-2.305807302371627732e-03,1.234434471277194535e-03,2.174316532909870148e-02
-2.164301918021662996e-01,-2.943337309120572787e-01,-2.908394713595183201e-01,1.031170719161542126e-02,1.556405330957025268e-02,3.661666153394586148e-03,8.303549140691757202e-02
-2.870636324944807471e-01,-2.076472172976275565e-01,-3.003989416200801288e-01,-3.638939684803418201e-02,2.317302535806475827e-03,-2.004390908549406880e-02,1.128618121147155762e-01
-2.669040743680374250e-01,-2.579750993811830706e-01,-2.806492650517384835e-01,-1.621938455932599686e-03,2.330950080956128555e-03,-8.505260083265612234e-04,2.043892256915569305e-02
-2.841992779978179118e-01,-2.343702287224207481e-01,-2.807916869160917428e-01,-2.330205523695265402e-02,1.628460123818121705e-02,-2.784467292547507591e-02,8.411449193954467773e-02
-2.692076338273578506e-01,-2.709690348361561973e-01,-2.599592540534332863e-01,-1.093548803938884824e-02,1.136585048918744602e-02,-1.127986912323000225e-02,3.511315956711769104e-02
-2.905156587052832862e-01,-2.466948985521093540e-01,-2.616286653453199773e-01,-2.164538757854138351e-02,1.954996796028386774e-02,-3.753464659289382221e-02,9.092628210783004761e-02
-1.878022886868558894e-01,-3.805793837092137366e-01,-2.358248175966803917e-01,-3.115425456638763746e-02,9.252306676305908917e-02,-4.984628017040903386e-02,2.574078440666198730e-01
-2.853774518463377818e-01,-2.336046384261881714e-01,-2.961594786188873618e-01,-4.398887822921895840e-02,1.792186536048771470e-02,-3.302262763717711547e-02,1.157368496060371399e-01
-2.696588632943605623e-01,-2.543032396733193035e-01,-2.777626872346503073e-01,-1.299865201634170173e-02,9.381625063032932380e-03,-1.126087119682489882e-02,3.971482813358306885e-02
-2.849652396068612648e-01,-2.415988931682513663e-01,-2.785827353785455540e-01,-7.018999787774244867e-03,5.015054675353155904e-03,-1.946688067405335024e-02,5.481532961130142212e-02
-2.779301571053041653e-01,-2.584481652880520897e-01,-2.689879283870436621e-01,-4.809371712449514100e-03,5.445615616843321218e-03,-9.055095063884317091e-03,2.626095339655876160e-02
-2.881759047668075446e-01,-2.586805323971090864e-01,-2.565111402277870933e-01,-3.291752095422425823e-03,2.937544675841781243e-03,-9.020768762315068898e-03,3.523049131035804749e-02
-2.572044856627381804e-01,-2.887238283342746237e-01,-2.629495764200890373e-01,-6.926409646940581526e-03,2.161551027216696702e-02,1.265220731937170655e-03,4.894703626632690430e-02
-1.269650252219428344e-01,-3.459726656266329248e-01,-3.631943898987368691e-01,-8.600874546668457743e-02,-4.405683729256677783e-02,1.823231382000279135e-02,2.846847474575042725e-01
-2.682050404533237731e-01,-2.592845305038412040e-01,-2.757957329271815139e-01,-1.693668294358151956e-03,4.027979860671896707e-03,-9.811017814512778840e-04,1.628109440207481384e-02
-2.627920275994171107e-01,-2.851428707127823259e-01,-2.591661349116029522e-01,-3.275122591676065016e-03,9.314376035963269768e-03,-4.507396660034742458e-03,3.077581897377967834e-02
-2.459446951380758473e-01,-2.879605113275938710e-01,-2.657233542348165778e-01,-7.448119448308147122e-03,1.875662250161694994e-02,-6.018781839312452829e-03,5.153679102659225464e-02
-2.639560216542310989e-01,-2.874491098138108325e-01,-2.485233330354085224e-01,-5.579528689079978239e-03,1.691898065586679850e-02,-1.062704850367566546e-02,4.943284392356872559e-02
-2.603615998967684919e-01,-2.606327690348392845e-01,-2.846290836539659974e-01,5.058725392714681982e-03,3.652812394545251794e-04,-4.944012914033965285e-04,2.569648623466491699e-02
-2.287562647885155731e-01,-2.867508814679345375e-01,-2.857213700715080518e-01,-2.759032521340697500e-02,2.992981982077620728e-02,-1.204498792392485682e-02,9.333292394876480103e-02
-2.637609578228548579e-01,-2.845123350118368144e-01,-2.545258760995318670e-01,-7.882847663919237413e-03,1.602863425036545400e-02,-1.096208999320985415e-02,4.500242695212364197e-02
-2.676057874926434654e-01,-2.777627162419572526e-01,-2.602593399497580839e-01,-5.312655967760389515e-03,8.695816874170378755e-03,-4.776686226723224002e-03,2.473308891057968140e-02
-3.196989195460093192e-01,-1.277593096650984916e-01,-3.887076825745489073e-01,1.172555355352776219e-01,-1.070512202746659765e-02,-4.235666792598729614e-03,3.106327950954437256e-01
-2.571220617097098593e-01,-2.784116992584890760e-01,-2.686771481085943325e-01,-7.809094992075804251e-03,1.004674977995797039e-02,-7.966936994955776605e-03,3.188947588205337524e-02
-2.628065744587469998e-01,-2.760041036480110344e-01,-2.652893136091815651e-01,-1.318316440656362026e-03,1.461091398658945998e-03,-2.726839692262352476e-03,1.347211748361587524e-02
-2.579893544752035472e-01,-2.705054268217700342e-01,-2.765043007087404914e-01,-9.831495710416681202e-03,7.825192495207553695e-03,-8.059340015449169628e-03,3.059829398989677429e-02
-2.541956249303053417e-01,-2.660082526519159107e-01,-2.846247317646112274e-01,-2.135618335842694084e-03,4.241441064811121730e-04,-1.431844819593497495e-03,2.695169486105442047e-02
-2.722792345862353192e-01,-2.708965941289342427e-01,-2.587369574785570170e-01,-8.756321991665575247e-03,8.452298328591687296e-03,-1.020818632473681833e-02,3.038989380002021790e-02
-2.653161856973639821e-01,-2.540191499205406989e-01,-2.862269362661697403e-01,1.835770816830432743e-03,1.626753857416347437e-03,1.013773192776336275e-03,2.867480367422103882e-02
-2.633074667449749051e-01,-2.624076411830674749e-01,-2.794833572155253076e-01,-5.001840051086077661e-03,2.592124693415865863e-03,-2.202198895985436715e-03,1.966688036918640137e-02
-2.657591174100373821e-01,-2.700779304636793388e-01,-2.686774578769778321e-01,-4.567703431986229988e-03,3.097428133679108742e-03,-5.577863906548795846e-03,1.411654055118560791e-02
-2.410576105178602047e-01,-2.827167543772478031e-01,-2.834067979410203608e-01,2.949355007530961824e-03,3.579162167283169403e-03,2.797779112102618225e-03,4.304319992661476135e-02
-2.653615042232166932e-01,-2.545697500119146750e-01,-2.846919923086344562e-01,1.960195806017939104e-03,3.395205351138963381e-04,4.956077563649394441e-04,2.667113393545150757e-02
-2.652380449580872823e-01,-2.697836587120198137e-01,-2.708025854555794476e-01,-4.949345021049656769e-03,4.019139936645482226e-03,-4.421081458539478405e-03,1.438467390835285187e-02
-2.899764999313558800e-01,-2.436173926556926550e-01,-2.723342541342844148e-01,4.845167315669545241e-04,-1.444950415618507025e-03,3.921320639054553907e-03,4.117808863520622253e-02
-3.031445226922940828e-01,-2.959256331081652758e-01,-1.986157278633133849e-01,2.708611797203483006e-03,5.998168731012669570e-03,1.817208433942991974e-02,1.065101772546768188e-01
-2.669659938675673083e-01,-2.570665451659785994e-01,-2.774324791999530637e-01,1.179895710320373603e-02,1.062633184350249109e-02,1.135138384110038340e-02,3.813297301530838013e-02
-2.414965432685193258e-01,-2.822956441573462039e-01,-2.826508866556387556e-01,3.235906286066536543e-03,3.979430697968086052e-03,3.810163795309276860e-03,4.244595766067504883e-02
-2.706985369936297237e-01,-2.612342556611779165e-01,-2.739793759904813886e-01,-5.955639888020137877e-03,4.869731350360334901e-03,-4.177967567939045064e-03,1.900803297758102417e-02
-2.552484402265435270e-01,-2.686184257193577896e-01,-2.787201632875805912e-01,3.945512097136762153e-03,-1.998925052406582900e-03,-3.979245016628576298e-03,2.284848317503929138e-02
-2.651383440661121416e-01,-2.699993818810423885e-01,-2.701638728775310749e-01,2.915587612800117157e-04,5.433870684298824135e-04,1.817003506670088891e-03,5.958328489214181900e-03
-2.800271053716933967e-01,-2.407101350606756784e-01,-2.859649823624524356e-01,3.634789547785704372e-02,-2.572696657586100166e-02,-2.022301990242908465e-02,9.481873363256454468e-02
-2.652898493005406699e-01,-2.568261747409144036e-01,-2.817560362871933122e-01,1.343494869270705876e-02,-1.044896610300529230e-02,-9.578669346884541649e-03,4.032892733812332153e-02
-2.788138895735204348e-01,-2.493455864397101374e-01,-2.794875619410118195e-01,1.507697978430960067e-02,-1.065239897727615452e-02,-1.897013206257243401e-02,5.468684807419776917e-02
-2.721624227633245852e-01,-2.617251987336055574e-01,-2.697983873621200845e-01,1.214807577658240031e-02,-8.763416323091082968e-03,-1.211973522180375719e-02,3.469342738389968872e-02
-2.930916199458546978e-01,-2.719464087630800164e-01,-2.439790805729353806e-01,6.458685062946570299e-03,-4.902715394773424218e-03,-2.639761141567606439e-02,6.409697234630584717e-02
-2.653009757960296255e-01,-2.746509330550753192e-01,-2.654715075232158550e-01,-1.525841943133275690e-03,-4.632618501766137492e-08,1.315994590609400813e-03,9.901334531605243683e-03
-2.660664175595353620e-01,-2.625104266476852022e-01,-2.748931867173979304e-01,-5.002102009223117519e-03,3.049347211087658632e-03,-4.468634360411053406e-03,1.687630079686641693e-02
-2.601492577390475125e-01,-2.712169067255411625e-01,-2.703758510108588142e-01,-7.606770221110869742e-03,9.130409195358684879e-03,-6.393889340331202278e-03,2.569472976028919220e-02
-2.615072666015437197e-01,-2.807714646457546981e-01,-2.618930738289578231e-01,6.716101977996396253e-04,7.139796512729625370e-04,1.444608089619613166e-03,1.931240782141685486e-02
-2.870615633747279904e-01,-2.735428180127697506e-01,-2.436898208679850741e-01,-1.198162997420916542e-04,-2.469242460307185562e-03,3.131910827554186538e-03,3.905501216650009155e-02
-2.774724978359370819e-01,-2.488526353168324934e-01,-2.771355379683922426e-01,-4.128518103630256578e-03,7.453411730179744857e-03,-5.452660936537496658e-03,3.341488912701606750e-02
-2.823799776522237792e-01,-2.607804046184898916e-01,-2.619449072765745457e-01,1.261795970655654178e-04,-6.523271477837055922e-04,6.331104637024143446e-04,2.110146172344684601e-02
-2.781512339007018997e-01,-2.563388605661924280e-01,-2.676389451629415106e-01,-4.332430819633888500e-03,6.375529934840851870e-03,-4.734217037664713128e-03,2.454547397792339325e-02
-2.569755403681450168e-01,-2.772260184105771463e-01,-2.695812599739743076e-01,-1.479003826936019922e-02,2.435481889651307588e-02,-1.487013012489410077e-02,5.841903761029243469e-02
-2.456062511895880651e-01,-2.734172256838922066e-01,-2.861547709209688040e-01,3.293574775282275078e-03,2.084477135759140853e-03,3.360612075224921579e-03,3.700537979602813721e-02
-2.564165948415991769e-01,-2.857764573245236139e-01,-2.611076670655183563e-01,-3.591041090358110428e-04,4.042720587378765933e-03,-5.883703646650282693e-04,2.822648733854293823e-02
-2.778195690817945041e-01,-2.628925844834071879e-01,-2.624069711840377184e-01,-4.219602792536448176e-03,4.225522313575735475e-03,-6.552923110380563625e-03,2.158939838409423828e-02
-2.568401205454733938e-01,-2.703268440666042882e-01,-2.726343893194028700e-01,-1.748219448357877723e-02,1.820170827275394490e-02,-1.465156532298276734e-02,5.266052484512329102e-02
-2.712626865353446326e-01,-2.693741663539475639e-01,-2.640363033729704600e-01,-8.547457851797722259e-03,1.238593702396540222e-02,-1.124332811980637871e-02,3.317813575267791748e-02
-2.669272948952789437e-01,-2.663579360467246970e-01,-2.708429430966061147e-01,4.285573869941928593e-04,4.813303270075154410e-04,1.510453953788512722e-03,5.096696317195892334e-03
-2.441333882306234160e-01,-2.868125345968912110e-01,-2.740872902308719716e-01,9.287325329759110563e-04,4.167454505346846957e-03,2.109590106562645589e-03,3.883787617087364197e-02
-2.601223989579315998e-01,-2.574007660504764039e-01,-2.852862844429990830e-01,8.242871200244429250e-03,-3.770476788342088693e-03,-3.827416818418486778e-03,3.161561116576194763e-02
-2.524115821844724605e-01,-2.565931000935046669e-01,-2.938431130547615733e-01,2.402912065883578557e-02,-5.782423493354004428e-03,-1.242096839974061138e-02,6.209795922040939331e-02
-2.695145951997348077e-01,-2.715977149675403157e-01,-2.630248333365661217e-01,-3.440227023541415040e-03,1.169618682554600820e-03,-1.091702887902697931e-03,1.015678606927394867e-02
-2.827558197628394776e-01,-2.749194113981114906e-01,-2.447753210886814967e-01,-4.007395026955248331e-03,-1.223756307774337805e-03,3.374506055360866705e-03,3.596010431647300720e-02
-2.653131377452188633e-01,-2.532797882331576655e-01,-2.888157684931994540e-01,1.121579146897347043e-02,-1.071343257774061419e-03,-1.220333514068133859e-03,3.694974258542060852e-02
-2.680587534599219168e-01,-2.554091789000368373e-01,-2.827748721226403528e-01,1.615151706180973507e-02,-6.625008925953369474e-03,-1.352824698133106747e-02,4.501172900199890137e-02
-2.599786402456038537e-01,-2.659566467824258096e-01,-2.802105139523783928e-01,1.072197799959212841e-02,-6.698763321097049063e-03,-5.383013417138981203e-03,2.984212152659893036e-02
-2.612039981768567998e-01,-2.806756056220574003e-01,-2.633255675560228215e-01,-7.190567671690917435e-04,4.155662942086759478e-04,-1.572648306191418415e-03,1.875694654881954193e-02
-2.563706190201283652e-01,-2.820933004243375009e-01,-2.658383576122729242e-01,-1.373378850916509098e-03,-2.339065576560583112e-03,2.655330255180420214e-03,2.347303368151187897e-02
-2.538541177937845839e-01,-2.414334538232988936e-01,-3.079736760798115203e-01,4.319462155534794373e-02,-2.554943450016399636e-02,-1.308204514107454662e-02,1.087403669953346252e-01
-2.701660522992594959e-01,-2.475898935680877211e-01,-2.849670144574210084e-01,1.603170014166943949e-02,-7.204698525903621698e-03,-7.366361672271179786e-03,4.639460518956184387e-02
-3.013653254296343453e-01,-1.881004339373787693e-01,-3.090155611956505455e-01,-1.228001956490101798e-02,2.530743672314082239e-03,-3.777199546795681831e-03,1.194503158330917358e-01
-2.516755811800349130e-01,-2.751991814617635312e-01,-2.770961556444525575e-01,-2.753131059315498501e-03,4.043503493164174803e-03,-5.266829763554220500e-03,2.750617079436779022e-02
-2.964188042033116810e-01,-2.072628828662418099e-01,-3.026836108924769175e-01,-2.559797937560457162e-03,-2.151581191290220709e-03,1.724692450950588611e-03,9.267707169055938721e-02
-2.824833470100387434e-01,-2.620688935105684458e-01,-2.589970377185835670e-01,-1.948943738326574648e-03,-1.250141053046903211e-03,1.936837656036094653e-03,2.272078767418861389e-02
-2.977830271566055953e-01,-2.075870341382194117e-01,-3.021593721813045086e-01,4.612722088850437947e-04,-1.554349862050661115e-03,1.208814110382903017e-03,9.252820163965225220e-02
-2.978637243394406942e-01,-2.127719658946458092e-01,-2.948567584148226173e-01,-4.321247364008829438e-03,-2.475336610201616088e-03,7.622960542840501522e-03,8.510294556617736816e-02
-2.946872530501779552e-01,-2.155669252877297770e-01,-2.967143399422275674e-01,-7.652883371076231456e-03,-2.031444471385570206e-03,2.142024242083566052e-03,8.140248060226440430e-02
-2.626522498682230533e-01,-2.670420336278382933e-01,-2.749686655885878461e-01,-9.325321374788369307e-04,-8.386398095777854167e-04,2.611000752449409677e-03,1.191925629973411560e-02
-2.982348934512403793e-01,-2.117902823857608641e-01,-2.949677556651011390e-01,-5.846729924769548427e-04,-2.497929357665643925e-03,3.246174445518279061e-03,8.516029268503189087e-02
-2.896553424373335406e-01,-2.978074992146221844e-01,-2.200769536147446082e-01,2.726310994284020478e-04,7.848814965428368290e-03,-3.630913427455233905e-03,7.549443095922470093e-02
-2.831343314839350200e-01,-2.913802770918560991e-01,-2.320229132764452806e-01,-2.127613854545724534e-03,3.844752508769329509e-03,-6.285653189536542264e-03,5.725634843111038208e-02
-2.602461869051687082e-01,-2.820591108242500034e-01,-2.677814384458184760e-01,-1.663793005623982399e-02,-2.181323304082448053e-02,1.357239802161841133e-02,5.638050660490989685e-02
-2.622053946577075356e-01,-2.926820510041336365e-01,-2.462714544945089623e-01,3.286552953624797060e-03,-2.161426962341495006e-02,-3.426253548748342970e-03,5.601323023438453674e-02
-2.481831684857735143e-01,-3.219396334431100515e-01,-2.445201867535234941e-01,-1.019654663049793285e-03,-6.752716518479988383e-02,4.752946835459573999e-03,1.395501643419265747e-01
-2.559964888044737319e-01,-2.744233454688315144e-01,-2.748128441408296263e-01,1.986689069740293218e-03,1.993778202899718164e-03,4.180894369427585848e-03,2.056900225579738617e-02
-2.629060928692105170e-01,-2.994246170385944650e-01,-2.427922655498401527e-01,-2.061293575781361891e-03,-2.065614063012917792e-02,-7.727250637077818195e-04,6.137802824378013611e-02
-2.637911939927872207e-01,-2.658828971517030459e-01,-2.752717059081024598e-01,9.357742011323248819e-04,7.521221950535881152e-04,6.123221336271170720e-04,1.084492728114128113e-02
-2.802774464738096438e-01,-3.132634184137836342e-01,-2.079938826533224983e-01,-2.247126251027939392e-02,-3.331121570672063853e-02,2.478245706526798972e-02,1.240307465195655823e-01
-2.627864958499043224e-01,-2.665443619595344038e-01,-2.751014777670253708e-01,-8.807149233236540769e-04,-9.846660654151517377e-04,1.720508806496264453e-03,1.155934296548366547e-02
-2.480677528130725840e-01,-2.911350922354868920e-01,-2.622211870590494542e-01,-4.556638615055415460e-03,-1.953439246321547057e-02,3.403958161446289828e-03,5.184005945920944214e-02
-2.438066866530080035e-01,-2.847072852044387758e-01,-2.798102371656975840e-01,-1.642429891509675222e-02,-1.316939995668394911e-02,8.980032940272504594e-03,5.538991838693618774e-02
-2.804636317318496275e-01,-2.564280293903978825e-01,-2.662872723147735043e-01,1.042338905377581532e-02,9.655797341829940039e-03,1.223993462397658834e-02,3.863980248570442200e-02
-2.633387096577226028e-01,-2.718484936839785093e-01,-2.695108215930754336e-01,4.884869384853265592e-03,5.465297661708842271e-03,7.075982899923778484e-03,1.921954564750194550e-02
-2.987146200503761895e-01,-2.992845297346551359e-01,-2.084504000431385284e-01,4.435188214677881114e-04,7.191715444059494687e-04,-2.672781108173915947e-03,9.068059176206588745e-02
-2.578549077091174535e-01,-2.690535171573980588e-01,-2.765743177957027954e-01,8.645773611210643556e-03,6.173610641961807879e-03,6.065478985387298683e-03,2.674233540892601013e-02
-2.255198349603299013e-01,-2.801354304849710819e-01,-3.017022256609381281e-01,3.138717017837951845e-02,-2.690490502781788559e-04,3.003806098154570225e-04,8.707367628812789917e-02
-2.895140305347682630e-01,-2.776637716487651564e-01,-2.317862304858896438e-01,6.740745326926618833e-03,1.012972823252606368e-02,1.429066606486739319e-02,6.201334297657012939e-02
-2.651999698267980543e-01,-2.657698090622386267e-01,-2.732659101408692615e-01,2.409279212866398401e-03,2.712380331999867614e-03,2.807539669933074248e-03,1.113191619515419006e-02
-2.764101407887301631e-01,-2.755171407789430704e-01,-2.534665151575636322e-01,6.434047231533498133e-03,1.256823548939804171e-02,1.095804705047729102e-02,3.827568143606185913e-02
-2.735940505721877747e-01,-2.820655480172063467e-01,-2.502552244505916179e-01,-4.206510975040679383e-03,-2.842866323544291068e-03,2.033789674913838181e-03,3.006527386605739594e-02
-2.782730168156956618e-01,-2.654004099220915736e-01,-2.613957298768939119e-01,2.670259590363432967e-03,1.880588387386324285e-03,2.880752558720711069e-03,1.703493669629096985e-02
-2.661261505881826750e-01,-2.875088729296563228e-01,-2.505858654370153316e-01,1.150550396307687198e-02,1.269943469755143405e-02,1.175516474884117854e-02,4.823404923081398010e-02
-2.564593880306516027e-01,-2.760746867692928097e-01,-2.723439877949168086e-01,7.333553000717389289e-03,9.081799236274921278e-03,6.342810610596878555e-03,2.923992648720741272e-02
-2.712270909841545397e-01,-2.670117203097735481e-01,-2.657516181534783639e-01,1.762889251490936272e-03,1.054815409918784426e-03,1.527905619189258435e-03,6.658358033746480942e-03
-2.729259535400510583e-01,-2.158806040699554341e-01,-3.167548854618598142e-01,3.450084913071242015e-02,-2.396279736219223029e-03,-7.660383029074190747e-03,1.069559752941131592e-01
-2.492618135928350576e-01,-2.821247956457241246e-01,-2.740598109094911639e-01,-1.949680220504349665e-03,3.192745725536609396e-03,-3.904577041348383272e-03,3.110790811479091644e-02
-2.560657135762408609e-01,-2.571605819168099605e-01,-2.883223395352310647e-01,1.073474604041270777e-02,-5.800212146474552008e-04,-7.344619439648181506e-04,3.680630028247833252e-02
-2.747355442761275079e-01,-2.387148228035829434e-01,-3.033440938153945665e-01,5.729216906484203842e-02,-1.405460600381650688e-02,-1.732154651268940845e-02,1.203591451048851013e-01
-2.768114673640123535e-01,-2.460079771074293598e-01,-2.776758982417745769e-01,1.018872085349017791e-02,-9.985005728041682418e-03,-9.942491665254146391e-03,4.339723661541938782e-02
-2.439936506819391782e-01,-2.778505940145838959e-01,-2.844113824396954371e-01,1.923314421894700699e-02,1.044278672293660545e-02,3.863100716196939816e-03,5.378784611821174622e-02
-2.752321392511626330e-01,-2.525909445110527396e-01,-2.787923229064326325e-01,1.477613830325049879e-02,-6.876931321072046743e-03,-1.686094883205040140e-02,4.749378561973571777e-02
-2.581601106786405309e-01,-2.479105755305288372e-01,-2.889495130373598286e-01,4.049723632334876339e-02,-1.539403376405899110e-02,-1.867074239110673439e-02,8.969623595476150513e-02
-2.703179948896979323e-01,-2.642825580205474534e-01,-2.765412321384645433e-01,5.006073770951069424e-02,-3.309183896022895033e-02,-3.686356634258771553e-02,1.224455982446670532e-01
-2.650125807578101456e-01,-2.657316487516190873e-01,-2.721363466677094167e-01,-5.478910897648781725e-03,-5.421051411422271767e-03,5.665424956486125180e-03,1.790677383542060852e-02
-2.283672797192362602e-01,-2.924894503963946790e-01,-2.849304542630863302e-01,1.134162187926883447e-03,4.897496335676985654e-03,5.507417893070860448e-04,6.132550165057182312e-02
-2.848900367573267700e-01,-2.656008380113222822e-01,-2.549219065427038577e-01,-4.293162654318278919e-03,6.834839296231582121e-04,-1.135722786962936603e-02,3.370097652077674866e-02
-2.636776527118327440e-01,-2.735567134347464124e-01,-2.654265359197168217e-01,-4.370503172590704290e-03,-4.902756552887366399e-03,4.806231715062255286e-03,1.679558493196964264e-02
-2.601784411982809853e-01,-2.667402329805598771e-01,-2.782631956559984965e-01,-1.268955904210973453e-03,-1.503038660570764915e-03,3.158738354215410819e-03,1.711689494550228119e-02
-2.476330296324822933e-01,-2.762480828352905649e-01,-2.802696736499364349e-01,-1.373846065604838150e-02,-1.408495164398878077e-02,4.346154938873652944e-03,4.656321555376052856e-02
-2.537235330923898191e-01,-2.678036187832864568e-01,-2.818644691264935442e-01,-3.246478132303322935e-03,-1.627136509915031804e-03,3.753390747782505733e-03,2.599537931382656097e-02
-2.386521246823476994e-01,-3.025638212820834227e-01,-2.549254335368505986e-01,-1.482918336707475179e-02,-5.424120906583919377e-02,1.250622416542847455e-02,1.151726022362709045e-01
-2.960820615793997579e-01,-2.918095371820940143e-01,-2.167130763542632066e-01,3.350304457218184883e-03,3.463616720934996254e-03,7.522422944311595028e-03,7.885435223579406738e-02
-2.620907719515147560e-01,-2.688125941549025510e-01,-2.747229731237953443e-01,-2.291347797113040181e-04,-9.327008632553682958e-04,3.932515412091237145e-03,1.300020515918731689e-02
-2.403826999644116946e-01,-3.616246872727236217e-01,-2.322985726951450891e-01,4.170420710622013694e-02,-1.389158628628729963e-01,-4.121203277523936837e-02,2.897429466247558594e-01
-1.993547752522520922e-01,-3.140149865137082941e-01,-2.974402030845352263e-01,2.578554782171808488e-02,1.311210576066908955e-03,4.540583565772931922e-03,1.165457442402839661e-01
-2.966653151473110372e-01,-2.882873743908646036e-01,-2.215571700202656480e-01,-3.137582135488828144e-04,1.438610316390500493e-03,7.431944841502018465e-03,7.248708605766296387e-02
-2.940583005535944983e-01,-2.918338662444769915e-01,-2.208032616041655793e-01,-1.410520738382748946e-04,5.626016000231283051e-03,2.890616518509743754e-03,7.299575954675674438e-02
-2.923143812587520873e-01,-2.965504022996797162e-01,-2.161460832310366786e-01,7.527546701154080519e-04,2.090165280300312206e-03,2.547539070997423033e-04,7.846786081790924072e-02
-2.979433204678028635e-01,-2.990744986451440712e-01,-2.109609320664831422e-01,-2.664500315139145233e-04,3.021487123461610511e-03,5.973393183968464179e-03,8.831904083490371704e-02
-2.991000148699617389e-01,-2.948703882162712619e-01,-2.095608053674586635e-01,-4.542355751234590467e-04,1.874041794503765197e-03,1.192576784362204406e-03,8.758918195962905884e-02
-2.725254242084141354e-01,-2.652586770343905997e-01,-2.668971904360115110e-01,-2.973238100607540103e-03,3.656238064530276978e-03,-2.563245993976421156e-03,1.139820273965597153e-02
-2.738830322174398701e-01,-2.828125804085554473e-01,-2.488689231710761174e-01,-4.355023947616660888e-03,2.695721016854398834e-03,-1.584131399402266376e-03,3.185961395502090454e-02
-2.674756300466637482e-01,-2.599235102619682491e-01,-2.775132714270018286e-01,1.542552580868741764e-03,3.439234896957054852e-03,1.454588120262766040e-03,1.680967397987842560e-02
-9.665113813395018183e-02,-3.718634336454977873e-01,-3.450687196538695378e-01,4.548706787961907805e-02,-2.571360949405748862e-03,-3.865766922504388498e-03,2.745130658149719238e-01
-2.945046041661356639e-01,-2.904863059286236227e-01,-2.201192340188587449e-01,1.212598710449282148e-03,-4.850573595535407831e-03,-1.692689855393979953e-02,7.864466309547424316e-02
-3.087068356801040969e-01,-1.824903793347222858e-01,-3.221930128813220717e-01,2.346592047653361240e-02,6.514510413270911682e-03,1.978434292964303259e-03,1.400201916694641113e-01
-2.825161311831027033e-01,-2.401697390938447585e-01,-2.836643434960886001e-01,-2.212475297220941640e-03,-3.754781465756224824e-03,2.647167212030318399e-03,4.383104667067527771e-02
-2.757293478457842895e-01,-2.765843216140658201e-01,-2.530977301865384721e-01,5.987473549332025281e-03,-1.063128793229128032e-02,-1.111309453256596226e-02,3.673411905765533447e-02
-2.837204724766210218e-01,-2.779134188815381434e-01,-2.445062571399538032e-01,4.920067593346870959e-03,-8.674681133468597344e-03,-1.300218500810510457e-02,4.636053740978240967e-02
-3.030562609582878597e-01,-2.700877484254668448e-01,-2.249308837001954275e-01,-3.465117179683891661e-03,6.451310279653922446e-03,-4.681099279939879287e-02,1.065340638160705566e-01
-2.878433556637924329e-01,-2.307644552376970359e-01,-2.828421530478272272e-01,1.718009140071740520e-02,-9.157366446348966585e-03,-2.403539054020790641e-02,7.660084217786788940e-02
-3.074171047085683117e-01,-2.312929798467268372e-01,-2.554067319688886339e-01,-7.641244427165915648e-03,4.176895533948352460e-03,-5.626560965485025156e-02,1.194390207529067993e-01
-2.664856032209069747e-01,-2.705868326033852300e-01,-2.672883745950471179e-01,1.356635923165795026e-03,6.851292976914231947e-04,6.037295520693914015e-04,4.711181856691837311e-03
-2.864688830921185425e-01,-2.649147179797343710e-01,-2.540140445124774993e-01,8.475590013678358653e-04,-1.585674758716046557e-04,2.442961903695971358e-03,2.895680069923400879e-02
-2.772275593482318445e-01,-2.644439690443817215e-01,-2.639501213685951919e-01,2.935126569275842319e-03,2.654956153572423858e-03,3.042603346364966717e-03,1.564419455826282501e-02
-2.842756961064527021e-01,-2.614419138399958209e-01,-2.513574702149187212e-01,2.243214129500609513e-02,-2.737438263302730684e-02,-3.251839321986493142e-02,8.822332322597503662e-02
-2.786871308618452114e-01,-2.899266659606377083e-01,-2.337498952600822189e-01,-4.095567829578974570e-03,-1.973967730911961940e-02,5.769711156784716570e-03,6.300722062587738037e-02
-2.956659777551765012e-01,-2.903805383948123153e-01,-2.248499836488037917e-01,3.986747099341690810e-03,-1.298026970940018357e-02,-1.472225311438776080e-02,7.662849128246307373e-02
-2.834384375504701015e-01,-2.601410555008003556e-01,-2.614485654596571118e-01,-2.868102846079517487e-05,1.111247494277862449e-03,7.076312358698590328e-04,2.278651669621467590e-02
-2.628499886607932323e-01,-3.026342724837902676e-01,-2.274442719117119038e-01,1.233820361346811383e-02,4.930782593484449305e-02,1.445330971859893482e-02,1.123481988906860352e-01
-2.704872659065414298e-01,-2.769760081185766998e-01,-2.568709145275758221e-01,5.658475099239102662e-03,3.519570601540334114e-03,1.929013901561809838e-03,2.145325765013694763e-02
-2.644146899140160101e-01,-2.880316711951151354e-01,-2.560135806443610273e-01,1.103173718928197183e-02,2.814782736930852847e-02,1.171423080325112442e-02,6.309054791927337646e-02
-2.143967869236695911e-01,-2.952591480557842374e-01,-2.971695410747660637e-01,3.834531402894367919e-02,4.178983043699890931e-02,1.939151809565523021e-02,1.321938037872314453e-01
-2.830683763417701782e-01,-2.875702977913071057e-01,-2.304769637659235815e-01,1.419182939457700951e-02,3.932343409034471521e-02,2.526633433717165658e-02,1.009022817015647888e-01
-2.844322253303669945e-01,-2.646768577099907205e-01,-2.565928357952065864e-01,-1.622811870913522985e-03,-5.338579333191455960e-04,1.672155905059066142e-03,2.514901012182235718e-02
-2.622726171871244127e-01,-2.774935676008513652e-01,-2.643862806283683309e-01,3.525693395007104599e-03,6.289611702095325961e-03,3.975206762495180068e-03,2.018288709223270416e-02
-2.666452095530799649e-01,-2.706496288142637430e-01,-2.676455416980039193e-01,5.044924797467672086e-04,4.048170904719510270e-04,3.843462067349699457e-04,3.837788943201303482e-03
-2.628209570729238553e-01,-2.791574501708820044e-01,-2.633399339827624530e-01,5.917293646627401482e-03,6.582601807979173575e-03,4.418272864060050938e-03,2.350043691694736481e-02
-2.571561990124867081e-01,-2.565117608181863296e-01,-2.879563764066808695e-01,1.068151514833107912e-02,2.942128149768548492e-04,8.499932201191481742e-05,3.621437028050422668e-02
-2.549857714375851625e-01,-2.842836897283408937e-01,-2.656439527612897700e-01,5.181514227441042690e-04,2.470224464519467193e-03,1.186961326985633497e-03,2.613504230976104736e-02
-2.358779184743911850e-01,-2.668806707159338543e-01,-3.069924517878950265e-01,5.871391819131165091e-02,1.407491682420413705e-02,1.023064938931081067e-02,1.227354183793067932e-01
-2.565662702886515878e-01,-2.818568482451478951e-01,-2.668066754659538797e-01,-9.645945400501389818e-04,1.819398952299429700e-03,-3.362074419896009941e-03,2.306785807013511658e-02
-2.649358297920677563e-01,-2.573792872718884683e-01,-2.835239776819648005e-01,1.058605749516792344e-02,7.558654427985646643e-03,7.226572937451545761e-03,3.474688902497291565e-02
-2.764284489799073152e-01,-2.250743069323347390e-01,-2.999772722389087987e-01,3.185494596098392001e-02,8.710217630944047575e-04,1.243045528033914944e-02,8.894471079111099243e-02
-2.596910050041735252e-01,-2.845432327169327702e-01,-2.612232211962138284e-01,-5.238260583544267820e-04,1.093134346526360070e-03,-7.534720604473530000e-04,2.424898184835910797e-02
-2.630377702854480582e-01,-2.620186668154717569e-01,-2.792458745010382715e-01,1.920082086035294813e-03,2.679534111182837151e-03,1.346458277961687768e-03,1.784089766442775726e-02
-2.768437460157734953e-01,-2.428350280929046368e-01,-2.871259385620679172e-01,1.368567490387236074e-02,8.502252742134525781e-03,1.433094139703523090e-02,5.483508110046386719e-02
-2.733355073080797060e-01,-2.167661731876498188e-01,-3.167553724665297943e-01,3.258679988096547381e-02,5.083284852365496306e-03,2.600646811228535596e-02,1.132865101099014282e-01
-2.749612218140949360e-01,-2.617460698632581018e-01,-2.679014493069760139e-01,-8.845313627124076674e-04,3.777313841368266749e-03,-1.155314680523717406e-03,1.342908758670091629e-02
-2.796684696877752008e-01,-2.186302167585796319e-01,-3.004257477794191056e-01,3.206575027965371388e-02,-8.373569782166655044e-05,1.570275207845123156e-03,9.227988123893737793e-02
-2.831616631620661462e-01,-2.296584565954138957e-01,-2.956886028131058275e-01,2.433989350654817280e-02,2.491971124969773535e-02,4.354450927158292489e-02,1.140981540083885193e-01
-3.048029698411344190e-01,-2.295357806536618694e-01,-2.734696528141564165e-01,1.943889422431834338e-02,-2.785522025054928963e-04,5.142028308170330797e-02,1.155618354678153992e-01
-3.071837660950028082e-01,-2.167269031004516733e-01,-2.735006643991281239e-01,8.175345585514618221e-03,4.671536787469294204e-03,3.961279065472370076e-02,1.060359627008438110e-01
-2.681430877277553027e-01,-2.678726216231416823e-01,-2.675222352187617836e-01,1.383437984497530582e-02,1.625410521102652051e-02,1.396930737134121324e-02,4.418680071830749512e-02
-2.893104044852710111e-01,-2.403847936035974908e-01,-2.762548430358104379e-01,1.771633924317395081e-02,1.079525359023403297e-02,1.315580720017178219e-02,6.112165004014968872e-02
-2.908293652208629454e-01,-2.481745697076815638e-01,-2.580872229879758173e-01,2.664191058248394084e-02,2.186142407903209420e-02,4.241026255928998651e-02,1.022443175315856934e-01
-2.974920117478913051e-01,-2.465123360754688520e-01,-2.621051905465428544e-01,3.982937231495584096e-02,3.472681274318636935e-02,3.544531128826337862e-02,1.191354170441627502e-01
-2.668614781078869624e-01,-2.662369088398287564e-01,-2.713269489614678620e-01,8.868070105885727248e-05,3.508980844636893932e-04,-6.845813094630148624e-04,4.991838242858648300e-03
-2.461804349367413547e-01,-2.818684420291206472e-01,-2.766613249311393741e-01,5.560503275397915036e-03,6.403654026519101962e-03,4.674886397053542447e-03,3.736653551459312439e-02
-2.774609245241865252e-01,-2.590310029472918663e-01,-2.681716036493959066e-01,8.572630679651891544e-03,8.116013739209993610e-03,8.683409658454144947e-03,2.998392656445503235e-02
-2.648960022104171474e-01,-2.817950803039546703e-01,-2.631438663388344645e-01,3.807346690930698413e-02,2.736128291323829814e-02,4.745492441254662436e-02,1.169138774275779724e-01
-2.619368290907181374e-01,-2.809956157128404297e-01,-2.614595882419283313e-01,-5.525472701462682233e-04,1.342077650591325935e-04,-7.117652673565019001e-04,1.936622150242328644e-02
-2.606070965995196387e-01,-2.649255747249894544e-01,-2.731427956197683971e-01,4.097811347182423597e-02,5.637772871364331306e-02,4.306651587698730882e-02,1.423333883285522461e-01
-2.645163295097375245e-01,-2.708735920540065734e-01,-2.690250334146541134e-01,-8.106954081514620124e-04,7.170146834354381013e-04,-2.385124353347793918e-03,7.256765849888324738e-03
-2.870181659619163717e-01,-2.888228313827236882e-01,-2.313890960504052519e-01,6.988448728759290296e-03,1.201408456544026879e-02,2.370258650364028344e-02,7.391352951526641846e-02
-1.625764766388159144e-01,-3.306322484989038246e-01,-3.106028709465850079e-01,4.757996924778336995e-02,1.780166904484346141e-02,6.522999291080212696e-03,1.820652931928634644e-01
-3.149193980518222302e-01,-2.004828923153314513e-01,-2.981314669529485650e-01,-4.646095069207471784e-02,5.530871132555095770e-02,-1.376666710100378221e-01,2.897684574127197266e-01
-2.960076452767835264e-01,-2.744482247776385830e-01,-2.370079474988967261e-01,5.159723490897475187e-03,5.740899836071104538e-03,1.759375526181064173e-02,6.149094551801681519e-02
-2.593608603622039044e-01,-2.894473655431487047e-01,-2.498385074645959880e-01,2.141153288482058534e-02,4.452310734084081317e-02,3.021912121575127258e-02,1.065093204379081726e-01
-2.832335287968669735e-01,-2.556607156469499209e-01,-2.660215324949179450e-01,-1.223100454681304945e-03,2.682347221921280687e-03,-1.813004136995546422e-03,2.485685981810092926e-02
-2.958376286450108972e-01,-2.130721839573272991e-01,-2.952776012583767651e-01,-5.828301388367708794e-03,-7.625449295611825672e-04,-6.292074366246335274e-03,8.382424712181091309e-02
-2.526708443422885919e-01,-2.921814697205172839e-01,-2.659488393391121197e-01,1.576428800639946559e-02,2.763818313110749658e-02,1.324306261432997567e-02,6.910900771617889404e-02
-1.867911053540857458e-01,-3.046502776619688380e-01,-3.178978090025582626e-01,-9.240773888891931284e-03,1.037896392104065667e-02,-8.353956580379424263e-03,1.281262487173080444e-01
-2.796355077686035751e-01,-2.276880968180938769e-01,-2.990272299174579484e-01,-2.508794400836674918e-02,-2.133258793362688768e-03,-3.233204854051865626e-03,7.755739986896514893e-02
-2.021166410172246242e-01,-2.875677836591389314e-01,-3.092553180606468222e-01,-3.974671442303222973e-02,-1.662605219006183660e-02,1.293618163882058296e-02,1.252844184637069702e-01
-1.888239200342806123e-01,-3.162521788043167748e-01,-3.042103467148850049e-01,-4.056323278833313950e-02,-1.867702592486076077e-02,6.319413123487152215e-03,1.447443366050720215e-01
-2.467744645579522389e-01,-2.787578278256301334e-01,-2.765501859299512866e-01,1.364289633550918451e-02,1.195924414804516549e-02,7.530494341109300951e-03,4.598676785826683044e-02
-1.877136879584576090e-01,-3.065915276470652651e-01,-3.047312986737231721e-01,-2.089306815495392544e-02,-6.290969800709048966e-03,5.258544082839416295e-03,1.241994649171829224e-01
-2.137128733027268135e-01,-2.927370384739635401e-01,-2.956672166045485328e-01,-1.690254892524581387e-02,-3.035691395990662653e-03,4.415560033120624096e-03,8.618692308664321899e-02
-3.182017503894220556e-01,-1.922909747973688133e-01,-2.971873007458388782e-01,-3.158187933475131715e-02,5.814934887148513407e-03,-1.667133712525179987e-02,1.325770318508148193e-01
-2.522390509894239519e-01,-2.795444987291212935e-01,-2.748784510851756679e-01,8.870987795877057283e-03,1.093240841808596799e-02,5.686337091818262704e-03,3.649096190929412842e-02
-2.798364567337155440e-01,-2.557453954411061381e-01,-2.702761121792438548e-01,-1.699474249645068283e-02,1.121318991711262904e-02,-1.966618898549665415e-02,5.334236845374107361e-02
-2.721471937749361802e-01,-2.383311260009839672e-01,-2.910430158902947428e-01,-3.882507439151213630e-02,1.540002888847607707e-02,-1.739065627133550007e-02,9.099729359149932861e-02
-2.874500299289224903e-01,-2.053804798629855766e-01,-2.997630917510090143e-01,-4.116371614875558721e-02,9.049834891994550795e-03,-1.819029598498811753e-02,1.192445531487464905e-01
-2.558120746578104732e-01,-2.461624298440139025e-01,-2.943092522339117445e-01,-4.073837959708366541e-02,1.423158833964060371e-02,-1.585964672701270853e-02,9.103668481111526489e-02
-2.524897741826863662e-01,-2.851380212864006447e-01,-2.691177174866494215e-01,-1.863606561830106687e-02,1.832715086551766834e-02,-1.839937671341774703e-02,6.216668337583541870e-02
-2.804758747297503851e-01,-2.575866881469092151e-01,-2.674030303160526145e-01,-9.543272214694101252e-04,2.808758995919724902e-03,-1.760932381077382966e-03,2.076751366257667542e-02
-2.597755756332883470e-01,-2.672179666886608795e-01,-2.775691715314823615e-01,-1.248735951550922424e-03,-1.451555617829902462e-03,3.704405042829935803e-03,1.708043552935123444e-02
-2.897659294986990042e-01,-2.794783105945219948e-01,-2.365932189679673947e-01,2.021256767606021201e-03,-1.953007508435650446e-03,-5.477855512832883154e-03,4.999871551990509033e-02
-2.794826423914916202e-01,-2.714797766164068205e-01,-2.488349014416922633e-01,-1.086338561189020488e-02,1.330141000024699129e-02,-1.360948752909971020e-02,4.688855633139610291e-02
-2.338601927200630592e-01,-2.880395328534631760e-01,-2.883283448198897814e-01,-1.065534117050226208e-02,1.091385974670281214e-02,-1.745058980378990515e-03,6.048316881060600281e-02
-2.632325137136462545e-01,-2.789290290248199744e-01,-2.638873388251856134e-01,-3.097607254035348364e-03,2.100656847114851580e-03,-3.136145553725073077e-03,1.755166426301002502e-02
-2.653444048096733066e-01,-2.545136948741741345e-01,-2.852626051552007436e-01,-3.267439488423796220e-03,1.240300942726631087e-03,-6.966638333518825445e-04,2.771040983498096466e-02
-2.600622534470103386e-01,-2.601797997914206406e-01,-2.846662028099036235e-01,-6.498542164635803635e-03,1.853389137043529294e-03,-7.534800890212441007e-04,2.722457610070705414e-02
-2.749017375912367611e-01,-2.747026613563737230e-01,-2.554850629490796887e-01,3.982819811774652996e-03,2.043560753125959421e-03,2.127416026130325797e-03,2.113944664597511292e-02
-2.445411194632004237e-01,-2.752529486506473666e-01,-2.872836182754907597e-01,-3.007455132151778260e-02,3.864378837046508058e-02,-3.039399681616355986e-02,1.068750917911529541e-01
-2.383737782638684355e-01,-2.698353644686956043e-01,-2.877790848361189147e-01,-4.218858835965137027e-02,2.886543704638697833e-02,-2.134694170162744487e-02,1.052743718028068542e-01
-2.441030114230578196e-01,-2.795472587834907929e-01,-2.832628459867601589e-01,-1.742803018429009074e-02,7.156137536692478568e-03,-9.662244626830657213e-03,5.240909382700920105e-02
-2.596396007688471230e-01,-2.835786339644314480e-01,-2.615470208533109964e-01,-3.098786949265271607e-05,6.174783980786722115e-04,4.507070164231368912e-04,2.308267541229724884e-02
-2.714110960906804260e-01,-2.508640038965787022e-01,-2.923118262804888512e-01,-5.040629849627147052e-02,3.769447579296526796e-02,-3.583173135109482543e-02,1.304807215929031372e-01
-2.663739259650171332e-01,-2.820321718030020519e-01,-2.590825850292203802e-01,-5.487432732236695310e-03,8.577301307858336762e-03,-4.959239402982598514e-03,2.823724783957004547e-02
-2.611722327414441325e-01,-2.699754477971685329e-01,-2.753471722837234625e-01,5.498602368098681747e-03,-5.960713580412404199e-03,-4.949539408300670379e-03,2.060166187584400177e-02
-2.601966037090259753e-01,-2.938746372620836267e-01,-2.485489190173980345e-01,-6.780439192372869454e-03,1.742642070171115248e-02,-3.024117231202966272e-03,5.233114585280418396e-02
-2.291068364684021030e-01,-2.905345288261875214e-01,-2.849091646957342405e-01,1.652482057380215636e-03,5.036887760839521035e-03,2.245655245721684366e-03,5.965638905763626099e-02
-2.515843589910866096e-01,-2.843822648725546354e-01,-2.661408827045126380e-01,-1.155876586559898694e-02,1.484181957100271995e-02,-9.539104789798521361e-03,4.631208255887031555e-02
-2.659696825435794443e-01,-2.561131637143324591e-01,-2.863931110770835953e-01,-2.374941080204172675e-02,1.282766154340504554e-02,-1.373330095510108366e-02,5.888235941529273987e-02
-2.736981665682227116e-01,-2.561993946003716660e-01,-2.786080200207066704e-01,-2.227848932465855553e-02,1.759919624825000833e-02,-1.600967862269403810e-02,6.002789363265037537e-02
-2.401989108059252309e-01,-2.864059700111320494e-01,-2.803652384797722386e-01,-1.010257599434668738e-02,1.531954053992481621e-02,-9.560442371177597931e-03,5.636413395404815674e-02
-2.866501057037882383e-01,-2.016412027563869724e-01,-3.234770088035229252e-01,-5.989605804565265035e-02,1.493629838189782942e-04,-3.509159509096812860e-03,1.500432342290878296e-01
-2.635132199143113696e-01,-2.755040927614899049e-01,-2.659506473680989802e-01,-8.365621431136314101e-04,-4.112538701081264875e-05,-1.763526956850092068e-03,1.148607302457094193e-02
-2.828410689764980224e-01,-2.335661461431049468e-01,-2.855292054561398007e-01,-2.444800756401473152e-02,-1.944610113906736909e-02,1.919250779612379984e-02,8.124239742755889893e-02
-2.636699791010017613e-01,-2.173064739096230713e-01,-3.264225448854907174e-01,-4.461298923013397311e-02,-4.654075010158765895e-03,6.076513402734339334e-03,1.230593249201774597e-01
-2.465908856063187826e-01,-2.751340180468102026e-01,-2.825203328697106220e-01,-4.194306413558200608e-02,-2.963679070273976535e-02,3.670698312614276843e-02,1.141708567738533020e-01
-2.983068915436703494e-01,-2.643717112404280756e-01,-2.414899578155534909e-01,8.622133870134748900e-04,1.688553155569791288e-04,1.615358299471237810e-02,5.689286440610885620e-02
-2.741445320309574551e-01,-2.748230406819439642e-01,-2.567209119825095143e-01,-2.244970989789312962e-02,-4.386108855832948628e-02,4.938297722850312071e-02,1.221280246973037720e-01
-2.758273574457832389e-01,-2.468592860479099649e-01,-2.807311490858758751e-01,-1.855590862925093551e-02,-8.324857806677998448e-03,1.735747067675416644e-02,5.612459406256675720e-02
-2.598264330206519479e-01,-2.656088496915804398e-01,-2.779206521013680709e-01,-5.374075520486415979e-03,-3.936208339058092434e-03,3.278706566313450716e-03,2.053245715796947479e-02
-3.198503222682184122e-01,-1.598825522573187885e-01,-3.282401928145206593e-01,-9.182315677957801625e-02,-6.050655470586001339e-02,5.231927857096479312e-02,2.673793435096740723e-01
-2.853793149617616098e-01,-2.320576984783171426e-01,-2.684017595761508113e-01,-6.633635905386528475e-02,-6.315813336027101266e-02,9.402514174226557497e-02,2.321997582912445068e-01
-3.140449306628267379e-01,-1.919602624528146395e-01,-2.858872938179398693e-01,-6.678638881443460518e-02,-3.453231471133068331e-02,7.676841160744664327e-02,2.165612578392028809e-01
-3.023824725666591773e-01,-2.054735637512036805e-01,-3.080634635467388582e-01,-1.145917890053888555e-01,-1.820875119511067633e-02,6.142609162153160607e-02,2.483589202165603638e-01
-2.915337323316049556e-01,-2.251073922686443463e-01,-2.940187568969660492e-01,-8.145479289706916703e-02,-9.240495007873962552e-02,7.545186412860026282e-02,2.591974735260009766e-01
-2.917647346927563223e-01,-2.995642204323890612e-01,-2.051382630252640005e-01,-1.313764010947158535e-02,-4.387367589132817880e-02,1.711689457600998332e-02,1.241453811526298523e-01
-2.629101020051698434e-01,-2.727497634306039753e-01,-2.689258913580879207e-01,-1.823857878623860208e-03,1.179564863410622428e-03,-3.310375259706041778e-03,1.099293306469917297e-02
-2.681709839545520779e-01,-2.678114756300713495e-01,-2.685883806969450172e-01,-1.177135636905387206e-04,1.599614740692014521e-04,-3.371296364498735745e-04,9.554190328344702721e-04
-2.877289894433393558e-01,-2.945873842777391727e-01,-2.246252415315584672e-01,-7.960717957165960174e-03,-1.292314795818688168e-02,2.592765962364841983e-02,8.467457443475723267e-02
-2.391515123343677107e-01,-2.913263781976921374e-01,-2.754518783316151076e-01,1.333193644492048843e-02,-1.885742255659380098e-02,-7.584109387924599030e-03,6.259833276271820068e-02
-2.895461941173018694e-01,-2.995105440151321075e-01,-2.205123438814439729e-01,-4.343451225180891204e-03,-1.981991009221039171e-02,9.082612938079066139e-03,8.387731015682220459e-02
-2.683276928932105121e-01,-2.684456411575507073e-01,-2.677158788371765130e-01,-2.151033097917837687e-04,6.568891277575704922e-05,-1.162132263672046781e-04,8.078741375356912613e-04
-2.643511208828228098e-01,-2.661097445824738839e-01,-2.735866371608949299e-01,-1.921605152950306775e-03,1.175768209385136829e-03,-2.639602915802208814e-03,1.040544174611568451e-02
-2.902912688108068573e-01,-2.993976367336105282e-01,-2.155880957716756197e-01,-1.567054198369830561e-03,-1.361470335426982758e-02,1.371726466994116315e-02,8.643900603055953979e-02
-2.784438460450981423e-01,-2.961525516413996972e-01,-2.310763456299552709e-01,-4.267179040779926595e-04,-1.936674149971274322e-02,4.995816843083510268e-03,6.779917329549789429e-02
-2.730465980208018340e-01,-2.882247238551407520e-01,-2.456152880506332348e-01,8.504455760433338217e-04,-1.752760992499389006e-02,-1.987298850741343881e-03,4.832056909799575806e-02
-2.911729852155506282e-01,-3.206261407375688988e-01,-2.063248971052843717e-01,-5.986937750212774833e-04,-5.338821135280390207e-02,8.785405074334458331e-03,1.391016095876693726e-01
-2.621583438847597258e-01,-2.618171774037172383e-01,-2.804134001533976628e-01,3.009864332119943750e-04,9.555912979040568841e-04,2.255246636014495657e-04,1.851365156471729279e-02
-2.522809361948440965e-01,-2.707507175192650495e-01,-2.800237734692429536e-01,1.491565790685916992e-02,-1.062111890724723277e-02,-1.257254422760713947e-02,4.559008032083511353e-02
-2.676398785449566331e-01,-2.670639903296765927e-01,-2.756620685008072114e-01,1.145322394545321074e-02,-1.420718929730510095e-02,-1.346935726038515392e-02,4.015768319368362427e-02
-2.608111641866776020e-01,-2.633621347663268608e-01,-2.917895421462586292e-01,4.903285146978172276e-02,-4.113216931165926404e-02,-4.808671920128085309e-02,1.418180763721466064e-01
-2.611274381969531655e-01,-2.632401326853626156e-01,-2.804217623470032228e-01,-9.683455331532292605e-04,-5.017127941057510695e-04,6.485553698861770125e-04,1.846081018447875977e-02
-2.852720495732790074e-01,-2.667878581999932885e-01,-2.541380132363600386e-01,1.099533288316125422e-02,-1.293419086857231642e-02,-2.298343895143632742e-02,5.643397197127342224e-02
-2.614418600733245945e-01,-2.615735428690151854e-01,-2.812337185753587265e-01,-8.578698252291395076e-04,-5.293548598821101779e-04,1.388069563258027697e-03,1.994886994361877441e-02
-3.055107829592295099e-01,-2.185036399578521027e-01,-3.084599398387813940e-01,-1.030315252765875017e-01,6.844823240301610434e-02,-1.093862906276249769e-01,2.993886768817901611e-01
-2.610849472574981456e-01,-2.593626969042038266e-01,-2.846227831389706586e-01,-8.841567955267090519e-04,-7.215987245029729675e-04,3.685603878253284195e-04,2.453260496258735657e-02
-2.691996441512563565e-01,-2.704371655117210893e-01,-2.653369954261474151e-01,-2.739857399418360422e-03,-3.371941444627021877e-04,5.206787667259452166e-04,6.701231002807617188e-03
-2.516523814702436579e-01,-2.823268108204986526e-01,-2.726130533082949392e-01,5.563892623201001190e-03,-1.254221098104489791e-02,-7.599038612923290914e-03,3.841017931699752808e-02
-2.616256365972002285e-01,-2.616463869250641450e-01,-2.814098988288432079e-01,-1.074792081016077158e-08,4.225837954833547815e-04,-2.978111944057051014e-05,1.978750340640544891e-02
-2.198478000009411737e-01,-2.889511421412018222e-01,-2.883068877387758855e-01,2.663007102444957946e-02,-2.485184591224134237e-02,-1.135513808611406973e-02,9.538505971431732178e-02
-2.682356686423459369e-01,-2.672656252476443006e-01,-2.689128413615733959e-01,-4.817244488017012041e-04,-7.626094836573353488e-04,4.281540155295314172e-04,2.246614545583724976e-03
-2.450458247391161248e-01,-2.971330893136483464e-01,-2.567266369185929875e-01,1.558478802148452122e-02,-3.671950195974737347e-02,-8.957897648643233998e-03,8.517897129058837891e-02
-2.723487058942529182e-01,-2.672587763885245771e-01,-2.648707970120415256e-01,-1.825232482348379537e-03,-5.706180508509157675e-04,4.125826352890375639e-04,7.432790938764810562e-03
-2.656206839281511911e-01,-2.815905531477250756e-01,-2.564244090899633899e-01,-2.189544245017960213e-03,-2.171182257197707376e-03,1.292917846834451935e-03,2.280374616384506226e-02
-2.630458112955886274e-01,-2.637894958447790650e-01,-2.776530029306348846e-01,4.120125981129717056e-03,-3.925491866374115381e-03,-4.598880605361573871e-03,1.906997337937355042e-02
-2.682248289287481047e-01,-2.643770554246992477e-01,-2.707010043823001033e-01,4.776265993668918006e-03,-5.238497706106054648e-03,-4.505153332558201919e-03,1.556012593209743500e-02
-2.608380082976476388e-01,-2.596863294418140233e-01,-2.839916309277973339e-01,-7.268615289033902470e-04,3.796037385858021143e-05,6.297573419682245656e-04,2.380884811282157898e-02
-2.636644042755432737e-01,-2.608980268083417320e-01,-2.801993222231517477e-01,1.005132890377561337e-03,7.109588274578690749e-04,5.110324099657487630e-04,1.822440326213836670e-02
-2.649364853686532184e-01,-2.705177645692983801e-01,-2.703114922032892609e-01,4.063625188325024375e-03,-4.968513438745346400e-03,-4.627221683597033085e-03,1.476052310317754745e-02
-2.639515027174326178e-01,-2.617530712930937753e-01,-2.785641503589487145e-01,5.390041474214606098e-04,1.390782122099609632e-03,2.681853395990810556e-04,1.604299433529376984e-02
-2.711889061131364520e-01,-2.649597473135485992e-01,-2.674871850637004500e-01,-1.140410756540027144e-03,-1.894076496185333885e-03,1.409414820427779208e-03,7.076022215187549591e-03
-2.635429340973394208e-01,-2.689687500627983008e-01,-2.729167725211614770e-01,5.730144435502807811e-03,-3.974173295111865616e-03,-3.693629159909689146e-03,1.591421104967594147e-02
-2.582718658238302711e-01,-2.876613341904450949e-01,-2.515151004675949542e-01,2.170929365588912877e-02,-3.565887216427587880e-02,-2.629638582786581955e-02,9.171160310506820679e-02
-2.810965011297180682e-01,-2.418269343410438255e-01,-2.779149356386895198e-01,1.816122385121734725e-02,-9.709061245753311531e-03,-1.476054443116567652e-02,5.790674686431884766e-02
-2.824040529924529697e-01,-2.543505315629287500e-01,-2.683201725619364653e-01,-3.107679373657142030e-03,-3.468132378798472696e-03,4.033284919066507622e-03,2.653511427342891693e-02
-2.719217120892101769e-01,-2.772927394949688540e-01,-2.555490574533361703e-01,4.752290627000946115e-03,-8.782475383656574916e-03,-7.002114067517244654e-03,2.882857806980609894e-02
-2.804119020303856846e-01,-2.573017460759264852e-01,-2.675363131403852845e-01,1.130110717842543796e-03,2.642312669874048985e-03,1.690524843394317382e-03,2.087232097983360291e-02
-2.689961037275862554e-01,-2.605170916839769091e-01,-2.730099496339887799e-01,9.989606024050768154e-03,-7.320641597790217628e-03,-1.648869120973829594e-02,3.738744184374809265e-02
-2.661777008887958318e-01,-2.671981682689636428e-01,-2.714752506959168810e-01,1.049397800236083478e-02,-1.188644872649853752e-02,-6.158974467539209824e-03,2.986188232898712158e-02
-2.875713674493720617e-01,-2.504430600152894870e-01,-2.674668910867952221e-01,1.900016591290399053e-03,-4.256717811418579168e-03,-7.179841486333327083e-03,3.544143587350845337e-02
-2.804574722143962084e-01,-2.613023124943896769e-01,-2.634545927462906278e-01,-7.101252660577783834e-04,-1.686229501974140016e-03,6.874667080007393826e-04,1.848745346069335938e-02
-2.891854878548058561e-01,-2.358614089474238840e-01,-2.775927431407233525e-01,4.420955649700073972e-03,-5.068962911312705627e-03,-1.916852521672542803e-02,5.998075753450393677e-02
-2.979838012136603043e-01,-2.413152543310163600e-01,-2.674558316529498936e-01,1.202699019246308842e-02,-2.316257142654921941e-02,-6.001837357210368373e-02,1.235450580716133118e-01
-2.643694159797670418e-01,-2.637586003748147445e-01,-2.757708757517911557e-01,-3.459627901875831236e-04,-6.340953288445555286e-04,1.916807342225475795e-03,1.224411372095346451e-02
-2.617875786205556832e-01,-2.688985177685055405e-01,-2.748352695705009729e-01,-1.093588030067193032e-03,-1.078575525502457541e-03,2.742866965210347032e-03,1.255683507770299911e-02
-3.126041626989359834e-01,-2.673358431861232454e-01,-2.301730487373045420e-01,1.983972590473612185e-02,-1.743781272891749279e-02,-3.657439569101923749e-02,1.059184893965721130e-01
-2.939192407919718475e-01,-2.849411115358495006e-01,-2.314537432395668282e-01,1.434810400642088203e-03,-4.953271353754447152e-03,-1.371539765742794091e-02,6.376393139362335205e-02
-2.852042702207959191e-01,-2.906660276427393552e-01,-2.284016776287744466e-01,-8.712050589883582564e-04,-4.293697501195710767e-03,1.822497359308328495e-03,6.028396263718605042e-02
-2.989493410114064109e-01,-2.721246166950065937e-01,-2.343473067030797385e-01,-9.606002691131098736e-04,-5.124709932375359940e-03,-1.294929578459296654e-02,6.119367480278015137e-02
-2.455738012469561860e-01,-2.953225969772175219e-01,-2.634439667659349005e-01,-1.024863386746656564e-02,-2.034818614949266552e-02,6.479707761234998128e-03,5.990388616919517517e-02
-2.650598508749762994e-01,-2.543620425602489132e-01,-2.863228509280705270e-01,-1.956244507551061721e-03,-1.664165119800871048e-03,5.787953551688048521e-04,2.854504808783531189e-02
-2.795520234510780466e-01,-2.459595768960489703e-01,-2.788050168023105679e-01,-5.094258129876276346e-03,-5.622478188562123579e-03,4.443632394589428283e-03,3.654922172427177429e-02
-3.045597633202704602e-01,-2.523555424087243204e-01,-2.609385543262608409e-01,2.760067022161387731e-02,-2.820657176909199468e-02,-5.566504258648859865e-02,1.277454197406768799e-01
-3.028599629335625432e-01,-2.111616509044448031e-01,-3.044188514368697529e-01,5.133165500754704319e-02,-1.842387977158354423e-02,-3.919523110001745664e-02,1.486132293939590454e-01
-2.843529977892461647e-01,-2.595520549142070754e-01,-2.613222325021353765e-01,-4.250421593935874544e-04,-9.301661825230275737e-04,5.106076170932571890e-04,2.404657937586307526e-02
-2.843187066164141186e-01,-2.292529257695799516e-01,-2.922251245134528386e-01,-3.971470772882093776e-03,4.667940986843535254e-04,-1.171216599136514153e-03,5.985157936811447144e-02
-2.809258224447367946e-01,-2.617477351252712747e-01,-2.617760412492702859e-01,-7.027002832357213393e-04,-6.382069148375129220e-04,1.562508214329063445e-04,1.923625543713569641e-02
-1.521276650031383737e-01,-3.083390463563320805e-01,-3.300205618754936676e-01,-7.112396216328382981e-02,3.876247394579274835e-02,-1.777434287056163520e-02,2.211112976074218750e-01
-2.897288154024162399e-01,-2.808987022083104246e-01,-2.346141285692180944e-01,3.014558830601605371e-03,-3.634859288853277935e-03,-2.104928773590536081e-02,6.344326585531234741e-02
-2.841134769347226641e-01,-2.752561351330087835e-01,-2.466370307713325050e-01,5.155843711628663346e-03,-1.243540110224763094e-02,-1.947637334592930772e-02,5.322262644767761230e-02
-2.810926092955203792e-01,-2.742963435450321841e-01,-2.496124417409081864e-01,7.810536719264574851e-03,-7.091080213033375268e-03,-1.345824422563692696e-02,4.123686999082565308e-02
-2.900962708189387951e-01,-2.845822690782530140e-01,-2.335409778952343696e-01,6.373631881463548247e-03,-1.446322823966074769e-02,-1.496364615713597496e-02,6.586513668298721313e-02
-2.745100963614519607e-01,-2.626520793400524689e-01,-2.685716619559750384e-01,-6.311411687000770135e-04,-3.599763452052405673e-03,1.008005866654074646e-03,1.218924298882484436e-02
-3.014775488099542544e-01,-2.918199576562236497e-01,-2.222931295834624510e-01,1.856143391201229079e-02,-3.539566509830333746e-02,-3.880072334516960347e-02,1.220956146717071533e-01
-3.429128435116927109e-01,-1.991820716417872505e-01,-2.332767660855847580e-01,-2.035371764581460352e-02,-1.679641506240100654e-02,1.112318179237937465e-01,2.369119226932525635e-01
-3.057137020578866715e-01,-2.763179761318825811e-01,-2.106571321349106352e-01,6.930468000566782256e-03,-7.476335617633502253e-03,-4.243265145007581868e-02,1.132209077477455139e-01
-3.258961157300327427e-01,-3.434413284269567379e-01,-1.441463092358035158e-01,3.099388121477930375e-03,2.145128995133677510e-02,-3.975229049539633942e-03,1.949009150266647339e-01
-3.364884819795448401e-01,-3.394795534232991630e-01,-1.085172479897889564e-01,-4.178518534530252515e-03,-3.967355599650264353e-02,-1.592923964702726639e-02,2.412411272525787354e-01
-2.651854807609403397e-01,-2.610143189573516653e-01,-2.783141881787485339e-01,-2.404779514565087706e-03,-3.489890803381315298e-03,1.514497475162572115e-03,1.747259311378002167e-02
-2.676812482112224112e-01,-2.587064455764150339e-01,-2.781507115418673237e-01,-1.637337059042412012e-03,-3.805209347975823005e-03,9.197973400411276097e-04,1.838851906359195709e-02
-2.745698699047268154e-01,-2.559781544313405321e-01,-2.749280441848379608e-01,1.683944204017579892e-03,3.859220513191793760e-03,1.648636825338267763e-03,2.034160867333412170e-02
-2.649726862200109667e-01,-2.735506165798475831e-01,-2.640004836154418166e-01,-4.092571783309157697e-03,-4.762810561586220369e-03,4.018411578040834327e-03,1.579901762306690216e-02
-2.871296348191876291e-01,-2.486001467296687639e-01,-2.683175177876530038e-01,-1.391292033166803641e-03,-2.453071525208033992e-03,4.552757082216209693e-03,3.463579714298248291e-02
-2.580375504488520710e-01,-2.653407387714095123e-01,-2.817118170043439451e-01,-2.183912809821615241e-03,-6.523509743685384360e-04,2.924172609303765484e-03,2.195785194635391235e-02
-3.836912123435099464e-01,-3.273805007313231874e-01,-1.042429131291060240e-01,1.350959233434718965e-02,-7.687329135640174130e-03,-2.535625655139467707e-02,2.611128985881805420e-01
-2.933651730388348589e-01,-2.305491160063528888e-01,-2.738527014162587814e-01,-1.349894724528676385e-02,-1.373021375205608213e-02,3.055965688890719539e-02,8.375437557697296143e-02
-2.604222699816973186e-01,-2.644829051541459086e-01,-2.804583338852553731e-01,3.075505093004776702e-03,1.335953519050296200e-03,2.847980245469769901e-03,1.986547186970710754e-02
-2.846105896920639311e-01,-2.592896073080462327e-01,-2.609560184011441852e-01,6.576680508031330821e-05,1.301602698055244803e-04,7.278087673602965432e-04,2.456393279135227203e-02
-2.817915509458661649e-01,-2.674368002972314917e-01,-2.557202912118598515e-01,-3.652403260299062066e-03,-9.794334000543616393e-04,1.568578466605985997e-03,2.370237000286579132e-02
-2.836754675380598334e-01,-2.598914737208045667e-01,-2.610788968595473269e-01,-3.491701219069224833e-04,-1.334433755363141118e-04,5.541438559316098737e-04,2.324192412197589874e-02
-2.745461576242833046e-01,-2.541615669126019439e-01,-2.755825310200227252e-01,-2.302223898012563993e-03,-4.215499435998083279e-03,2.206727732263215683e-03,2.283752709627151489e-02
-2.887049331790906281e-01,-2.780162175700622296e-01,-2.394264516001648468e-01,4.058827386201447436e-04,-4.017018429062359230e-03,1.977594163711077213e-02,5.690396204590797424e-02
-2.688686990328015280e-01,-2.691585138548121536e-01,-2.655928771084114515e-01,-8.883458046536315059e-03,-1.065423738334313024e-02,1.095213960858525994e-02,3.080419264733791351e-02
-3.182258761736401209e-01,-2.719175019942202676e-01,-2.207673386219570766e-01,-3.292350206040337707e-02,-3.287394392155500861e-02,6.748233894585972670e-02,1.651818454265594482e-01
-2.809530115554802476e-01,-2.615524968974606845e-01,-2.618028834982942810e-01,6.592455158806192908e-04,1.340125989084169772e-03,8.078190838867108222e-04,1.949959993362426758e-02
-2.987912924656097591e-01,-2.877390737623767292e-01,-2.039251608821278650e-01,-1.953173228352180976e-02,-3.735857011303136965e-02,4.967997703212479604e-02,1.442532688379287720e-01
-2.936784719713657066e-01,-2.755154863173109314e-01,-2.394232343469964164e-01,-3.668953995143350508e-03,-7.200772270269086006e-03,1.711869830187404823e-02,5.799288302659988403e-02
-2.922988392712536632e-01,-2.765496365417388080e-01,-2.300545087267579780e-01,-8.623585974403236501e-03,-1.292506732447687261e-02,2.372878081342308376e-02,7.453543692827224731e-02
-2.755931134194691823e-01,-2.650387654150458405e-01,-2.636946087998231492e-01,6.817032505589679710e-04,1.848082578188012248e-03,7.290733389635712996e-04,1.185844652354717255e-02
-2.554973524640352101e-01,-2.631442356464660515e-01,-2.882582428175594624e-01,-3.141718659212999754e-02,4.143443823691748962e-02,-1.982925189476563224e-02,1.008582487702369690e-01
-2.590187524262713703e-01,-2.684472570156188898e-01,-2.782267802896744024e-01,-9.055111373877494305e-03,5.821148050699224280e-03,-4.494332240165119750e-03,2.617215178906917572e-02
-2.898017477115162333e-01,-2.421310468864295573e-01,-2.733520192629245171e-01,2.932856659735791349e-05,1.392516100255880313e-03,4.642457868114840437e-03,4.277144372463226318e-02
-2.745713111692285047e-01,-2.479036650107664386e-01,-2.818512618577287410e-01,-2.759596499827903469e-03,-3.681686365029523088e-03,1.938116855186965658e-03,3.214155510067939758e-02
-2.533068802464414349e-01,-2.681062518660774496e-01,-2.834189971701772115e-01,-1.126666729128243151e-02,2.746000603648157245e-03,-2.679345065040175580e-03,3.324292600154876709e-02
-2.690207646139561870e-01,-2.471446385053798211e-01,-2.862148436534560636e-01,-1.666674688599006221e-02,7.577882196508754775e-03,-7.164120669966122026e-03,4.806172475218772888e-02
-2.658427742286260109e-01,-2.577472102440289681e-01,-2.829825802935178602e-01,-1.080293149672040091e-02,5.823578333254694067e-03,-4.880132135737471309e-03,3.195882961153984070e-02
-2.120169069434806319e-01,-2.818378114544265456e-01,-3.034221863259713992e-01,-4.771507588706473679e-02,1.795388352841082932e-02,-1.889627703995820293e-02,1.253646761178970337e-01
-2.483829576596222610e-01,-2.641945378363648178e-01,-2.976703241502296482e-01,-2.878443498056948435e-02,-3.112594225069764253e-03,2.202478568622106333e-03,6.655214726924896240e-02
-2.511566862338380779e-01,-2.748701903107321209e-01,-2.780995737913002364e-01,-2.590644478096023728e-03,-1.745112482108866769e-03,5.984295255238484580e-03,2.803649567067623138e-02
-2.664454717669250683e-01,-2.686701147841858428e-01,-2.688800459346385452e-01,-9.022051028154948540e-03,-1.159465171517889796e-02,9.654127130697182438e-03,3.053795546293258667e-02
-2.846404079447280577e-01,-2.605846688584429471e-01,-2.598817297291464157e-01,4.878630843924671367e-04,7.029381291609098162e-05,1.433362331390540534e-03,2.455554716289043427e-02
-2.527950376767184593e-01,-2.732455328010865436e-01,-2.739902633325845271e-01,-1.382299446624229468e-02,-1.419855762754815287e-02,1.114446391864983531e-02,4.454915598034858704e-02
-2.408262472584791203e-01,-2.768935508514768218e-01,-2.849164515062473368e-01,-7.995845370918649650e-03,-4.644649534534659417e-03,7.278695767092120683e-03,4.549767822027206421e-02
-2.637516483982415560e-01,-2.737571341031215244e-01,-2.677098132890127768e-01,-1.052410872408259500e-03,-1.698825791910780168e-03,4.171962593421185000e-03,1.184778474271297455e-02
-2.684110482154689614e-01,-2.676470193568228351e-01,-2.681372423401628957e-01,-2.361713726428301720e-03,-1.991524566119846473e-03,2.169517598577823739e-03,6.572786252945661545e-03
-2.640581287935412913e-01,-2.642491581734220940e-01,-2.757398134061910255e-01,1.126932317274462051e-04,-5.887397007338167993e-04,6.795008324623209557e-04,1.169315259903669357e-02
-2.808975787092453102e-01,-2.624176526441100443e-01,-2.610926654214953402e-01,1.180200471917657035e-03,6.620679058638356731e-04,8.587321408052946874e-04,1.937665604054927826e-02
-2.808702159331794568e-01,-2.339434866088023479e-01,-2.858729644125049263e-01,-5.022258431371146026e-02,-3.314240212630954058e-02,3.169190488509581599e-02,1.278171241283416748e-01
-2.749821686519117181e-01,-2.640952721151090254e-01,-2.651823092922991343e-01,1.946670287848830880e-03,9.610659066794822406e-04,9.682398648816984560e-04,1.117245201021432877e-02
-2.607352287170269234e-01,-2.751509125157907132e-01,-2.636396085288464364e-01,-1.949705178626504748e-02,-2.228374617541214672e-02,1.848557222419192070e-02,6.188399717211723328e-02
-2.463954605264656594e-01,-2.914733088339052092e-01,-2.606133005722297558e-01,-2.491521623287574691e-02,-4.125433071006237573e-02,2.353674404465311287e-02,1.011100783944129944e-01
-2.759975584902122914e-01,-2.708301230525813619e-01,-2.592550029443969617e-01,6.601933903650636024e-03,6.633026076694400162e-03,7.222864525841294833e-03,2.529340796172618866e-02
-2.867105801459554626e-01,-2.668649502120158945e-01,-2.499725505821326355e-01,-6.973842840339401425e-03,-8.015097229200549706e-03,1.508799516839049587e-02,4.512221366167068481e-02
-2.882863913511727882e-01,-2.985237537378918615e-01,-2.243220846936546664e-01,-3.482550073815496685e-05,2.564996881683124022e-02,1.062450601634980923e-02,8.463727682828903198e-02
-2.954353241172187339e-01,-2.747170672633032495e-01,-2.296577927778964412e-01,-1.979219645308534156e-02,-3.856136752331786044e-02,3.920556017581781211e-02,1.167925149202346802e-01
-2.682259735307185866e-01,-2.825116757021819969e-01,-2.502609731043721197e-01,-8.037890901715256942e-03,-1.552083153869638493e-02,1.363538940940399978e-02,4.751576855778694153e-02
-2.628022407439097319e-01,-2.788753169553410682e-01,-2.603538028339286714e-01,-6.313270863193223663e-03,-1.054811616663373433e-02,7.122987160971403636e-03,3.015400096774101257e-02
-2.853272416771790443e-01,-2.923248101395930498e-01,-2.339623886797820573e-01,-1.095513608363301791e-02,-2.164255285049651242e-02,2.327988423790059921e-02,8.023619651794433594e-02
-2.709951600353543433e-01,-2.661165497045259176e-01,-2.675691001066241581e-01,6.339783257050922308e-04,4.351851760794974333e-04,6.099124482041359124e-04,4.659853875637054443e-03
-2.709559367481275682e-01,-2.665543198942055270e-01,-2.664157115079491822e-01,5.257712644046182810e-04,1.468234419751184017e-03,2.485626273659927838e-04,5.242646206170320511e-03
-2.631165820795071109e-01,-2.702676706016406416e-01,-2.710804175120175019e-01,-6.350018307350604845e-03,-4.754217013864806690e-03,7.063785977944971907e-03,1.990170404314994812e-02
-2.691209237804533250e-01,-2.890365889860967985e-01,-2.426026345431049336e-01,-5.580666944901967186e-03,-1.504070734373142218e-02,8.528515043402365436e-03,5.116922408342361450e-02
-2.731871604143484289e-01,-2.498067786133770785e-01,-2.824295587450130207e-01,3.253630545761613396e-03,3.741152124283687701e-03,1.426955982406893399e-03,3.046326525509357452e-02
-2.675255752202608805e-01,-2.663268380361279997e-01,-2.709667249453735494e-01,5.441670876461910007e-04,3.724997842074222383e-04,6.534596474589927841e-04,4.470924381166696548e-03
-2.639751861882139727e-01,-2.913447378953198941e-01,-2.541053071555758325e-01,-1.454933203368004649e-02,-2.869188166749746249e-02,1.626185728397045241e-02,7.081459462642669678e-02
-2.638248774303120214e-01,-2.628995446736651087e-01,-2.776498616335645875e-01,-6.114405218750660655e-03,-5.609238865882568668e-03,6.033673931478975364e-03,2.281541936099529266e-02
-2.694767383777790237e-01,-2.656000301996513380e-01,-2.694053166586437564e-01,9.421417829292299834e-04,2.900681660548570275e-03,9.890859975396099502e-04,6.752533838152885437e-03
-2.399421896822631073e-01,-2.926990326811917953e-01,-2.759169565805417723e-01,-9.337333367883851598e-03,-1.806359124285741163e-02,6.203055867892133014e-03,5.945943295955657959e-02
-2.677753432560749935e-01,-2.674939487803476568e-01,-2.691192759414902658e-01,2.083563759212609800e-04,8.053856063754927198e-04,4.324246708953144469e-04,2.213743748143315315e-03
-2.883428383978659526e-01,-2.334764814207293537e-01,-2.777748038632363303e-01,9.214511617412390193e-03,7.256654042993011464e-03,1.792630192773290998e-02,6.260132789611816406e-02
-2.757793025699486478e-01,-2.559793775601785226e-01,-2.759931312952560445e-01,9.485765084900741120e-03,5.380031486177720007e-03,8.627257590043863750e-03,3.124705888330936432e-02
-2.743163591063602635e-01,-2.562695868607708372e-01,-2.743926064482669069e-01,1.804639326732204469e-03,4.540108718906880371e-03,1.832533929274072527e-03,2.021757327020168304e-02
-2.659245838982350341e-01,-2.637447308162942927e-01,-2.752456924789629666e-01,1.129280903642258544e-04,-1.777643217560090578e-03,6.797782279670667961e-04,1.108413562178611755e-02
-2.725106098894616302e-01,-2.658469921863674257e-01,-2.655899372958334115e-01,2.427989053616745347e-03,1.568399275808584573e-03,1.563304989122557900e-03,8.864512667059898376e-03
-2.683145985331009120e-01,-2.535190533101818189e-01,-2.819546174636291536e-01,4.750261553053789811e-03,3.951459221645084278e-03,1.760073924831514341e-03,2.702962048351764679e-02
-2.615831104940525842e-01,-2.650873394490454449e-01,-2.778245350363927058e-01,2.810777190819308685e-03,1.813457396748452757e-03,3.196924366769926789e-03,1.683383807539939880e-02
-2.614808203586617141e-01,-2.619267159896081498e-01,-2.810048711352118866e-01,1.718334024637297374e-03,1.169449658775390932e-03,1.793459392817459835e-03,1.988195255398750305e-02
-2.630132334641629432e-01,-2.615026212839399733e-01,-2.785014488479645167e-01,1.986577581470228091e-03,2.533173089516574817e-03,1.228012883685310804e-03,1.735447719693183899e-02
-2.677399809810645515e-01,-2.687441286699406295e-01,-2.679410591622403137e-01,1.064255804051692368e-04,9.254053363143155560e-05,2.602815000562766165e-04,1.053443294949829578e-03
-2.562791947075139243e-01,-2.675632479448799006e-01,-2.822319329358287110e-01,9.134067488848840802e-03,3.882966210979526232e-03,6.834846043982024943e-03,3.071959689259529114e-02
-2.663211760761270419e-01,-2.666876707633075161e-01,-2.712233928475512590e-01,1.477397224910460783e-04,-5.911000602210154595e-04,4.196491674638448406e-04,4.900143481791019440e-03
-2.616297592800922445e-01,-2.631693375089095843e-01,-2.804972981279993949e-01,5.549050404150937576e-04,8.742847567409256938e-04,1.468985800024887609e-03,1.841186918318271637e-02
-2.608919217079615493e-01,-2.853523933262009371e-01,-2.569477406479254711e-01,-9.510541768865394922e-04,2.662266875563911242e-03,-1.535461318624760266e-04,2.709972299635410309e-02
-2.605545101432694133e-01,-2.709890539833741396e-01,-2.718914062775713569e-01,-2.558495446372438184e-03,-1.593277157336489688e-03,3.699605443725514572e-03,1.369029283523559570e-02
-2.610943830938254329e-01,-2.853275504555632947e-01,-2.598513250329103630e-01,1.121111094036543899e-03,4.566322836773280269e-03,9.952625842859213080e-04,2.623377740383148193e-02
-3.378908828571148826e-01,-1.109176443950202207e-01,-3.363687361539957066e-01,7.766416486621539883e-03,-1.918954563991450823e-03,3.254638151262628093e-02,2.335454523563385010e-01
-2.604817659995016799e-01,-2.854093574908639352e-01,-2.573802026626743622e-01,-5.384680502506534192e-04,2.583520425065994296e-03,2.885931749309238246e-04,2.700856328010559082e-02
-2.847988917650502438e-01,-2.597488396640365571e-01,-2.589948846192090537e-01,2.887679492607132803e-03,2.070145826121191218e-03,3.172913929004901514e-03,2.674013748764991760e-02
-2.610844792387789215e-01,-2.832089438972884010e-01,-2.607417316211673719e-01,7.397439614689142046e-04,2.751475614549360373e-04,3.369030499285546681e-04,2.234729938209056854e-02
-2.806683522852602142e-01,-2.588282514492604713e-01,-2.653505389350995780e-01,-8.982371711824096907e-04,-2.176183760701515171e-03,1.222435907673687745e-03,1.995479129254817963e-02
-2.573887982576789080e-01,-2.851163339235407990e-01,-2.609527996964055019e-01,6.453174576877679629e-04,2.635944757955526775e-03,9.316471008942834534e-04,2.659690193831920624e-02
-2.847270976588425206e-01,-2.553762584195320429e-01,-2.644700929525159450e-01,-9.257448888002270393e-04,-3.543111762803022617e-04,1.767086912669809913e-03,2.625972777605056763e-02
-2.288658147959232170e-01,-2.856820124435851538e-01,-2.902408122769924992e-01,-3.897407962065272367e-03,2.005977912976983010e-03,-5.945464461674310674e-04,5.972083657979965210e-02
-2.584773087534284475e-01,-2.835552331688071526e-01,-2.617825552170344183e-01,-8.865880607098183602e-04,2.694210375428444243e-03,-1.761975696889889805e-03,2.429786697030067444e-02
-2.596445492803876598e-01,-2.816617003787560969e-01,-2.621796046693823934e-01,-8.318172960345036546e-04,3.141745054713960400e-03,-1.753853510203714442e-03,2.182389050722122192e-02
-2.624459926764043938e-01,-2.832453932938695518e-01,-2.605876242467455306e-01,-2.414288606246539626e-03,3.318455519271502636e-03,-2.182660452056756507e-03,2.322792261838912964e-02
-2.615064464191654836e-01,-2.797657659614253278e-01,-2.622157974446823192e-01,-1.057665986944822259e-03,2.819431073383726026e-03,-1.603151782166657106e-03,1.886445097625255585e-02
-2.636860957408962980e-01,-2.790768618101970855e-01,-2.617123216111647555e-01,-2.485562666046292526e-03,3.476515329180971010e-03,-1.535368955218833565e-03,1.824866980314254761e-02
-2.668209290114071375e-01,-2.702967449699059665e-01,-2.680569484515141765e-01,3.397974923635508140e-03,4.065042689367311113e-03,4.741320176898267125e-03,1.268722303211688995e-02
-2.688389430969766458e-01,-2.616236318783095038e-01,-2.751192196610789398e-01,8.820110749657557531e-04,2.418053172456847717e-03,8.630599351575680327e-04,1.260659098625183105e-02
-2.640518561697010602e-01,-2.638913600277377203e-01,-2.761128722463195850e-01,4.523207097589010449e-04,9.145370296648367651e-04,5.273701976731525734e-04,1.230393815785646439e-02
-2.596269333183196526e-01,-2.680489985425866806e-01,-2.773951792309744535e-01,6.726405093412663426e-03,3.937847603902496114e-03,3.826068051028368340e-03,2.152130007743835449e-02
-2.555846820166670641e-01,-2.688743850288133896e-01,-2.785692057669761357e-01,3.444979016803207186e-03,2.100204085827305812e-03,3.927619138577210720e-03,2.223874628543853760e-02
-2.864767957160402889e-01,-2.551399772402288546e-01,-2.639123423630570509e-01,-1.263162191009437291e-04,1.264955450646758090e-03,3.206612999297160822e-03,2.863124012947082520e-02
-2.595128146167729466e-01,-2.676256087503710579e-01,-2.775916275212084727e-01,1.118429209269744973e-03,1.409157226046147803e-03,3.237182376818940974e-03,1.694517955183982849e-02
-2.861744523179390320e-01,-2.547042964090869832e-01,-2.648412731150820987e-01,-9.127381724081712507e-04,-1.926099805725842076e-03,1.774596079048931926e-03,2.823461033403873444e-02
-2.617675885281348647e-01,-2.708449584237440644e-01,-2.714733027722794900e-01,1.314415135569105839e-03,1.197511960730436240e-03,3.390103409290978059e-03,1.150915957987308502e-02
-2.633963226385853118e-01,-2.705113356536093527e-01,-2.709985846835907819e-01,4.688021199003068913e-03,3.575461351449467882e-03,3.341363884550545196e-03,1.386023592203855515e-02
-2.609877332422369522e-01,-2.654490299235630624e-01,-2.778479698744786841e-01,1.724644075119552509e-03,1.711343304415913419e-03,2.631784905105016403e-03,1.635360531508922577e-02
-2.814302517966787986e-01,-2.502352013399791186e-01,-2.739956083883091087e-01,2.361165463314953382e-03,3.793872174985369293e-03,3.143878421805605325e-03,2.976640127599239349e-02
-2.935078069926197464e-01,-2.246504273192196366e-01,-2.853069646125893088e-01,-1.809531869686748472e-03,-2.444363170814230993e-03,4.771191006169346431e-03,6.587825715541839600e-02
-2.749011928792587933e-01,-2.622646214102493656e-01,-2.677382541105230440e-01,9.180815277447056371e-04,3.644500228337579049e-03,1.350167596136142610e-03,1.297383010387420654e-02
-2.659886505448270655e-01,-2.680840244907788938e-01,-2.705544237303249000e-01,1.734106532910986893e-04,6.071967471561540630e-04,1.688366911898493521e-03,5.041616968810558319e-03
-2.663227165471978575e-01,-2.654998780745414511e-01,-2.726426073704765196e-01,5.053511432393620155e-04,1.342445617229586071e-03,4.881114116881764449e-04,7.259869948029518127e-03
-2.816841313985486428e-01,-2.573176538148201908e-01,-2.662208407115226882e-01,8.162608793222449763e-04,2.679738542559097127e-03,2.022762213096219487e-03,2.217812463641166687e-02
-2.546945259298059594e-01,-2.642433981456867031e-01,-2.864544482810744142e-01,-2.113056387274475818e-03,1.817511764279533440e-04,6.425014220854648531e-04,2.848393842577934265e-02
-2.694043741532431979e-01,-2.678731176393137070e-01,-2.672058469250789825e-01,-6.745384587309041996e-04,2.392059568086483137e-05,3.479039373073106981e-04,2.354058902710676193e-03
-2.723968189378662141e-01,-2.670607740885539427e-01,-2.661815383931569468e-01,-1.173141683336734360e-03,-2.341872135515758822e-03,1.493887808603382768e-03,7.824004627764225006e-03
-2.723779993000639554e-01,-2.663948297565653656e-01,-2.653267062138052190e-01,-1.360669407743853769e-03,-4.532075124450556406e-04,5.704953267977297925e-04,7.104704156517982483e-03
-2.870833896725358825e-01,-2.571401430952089950e-01,-2.573428066328021235e-01,-2.846676754519590711e-03,-2.350150204261146260e-03,9.769036906342757828e-03,3.489632159471511841e-02
-2.662354036956241510e-01,-2.646077888592906491e-01,-2.730047799332976366e-01,6.606905451692666282e-04,1.902701006273414645e-03,1.101813035148014371e-03,8.677778765559196472e-03
-2.594387980943897443e-01,-2.839960437029321327e-01,-2.618082663644562547e-01,3.001332199332090766e-04,4.838129471370621612e-04,9.537654119264069117e-04,2.354116737842559814e-02
-2.695391906503941670e-01,-2.689759919913503605e-01,-2.657301036678264561e-01,3.196369637806003011e-03,8.925641072202819028e-04,1.067928005857173793e-03,7.010194007307291031e-03
-2.708430734787775074e-01,-2.673904001761940319e-01,-2.659928474490410588e-01,-1.650091905517589311e-03,-8.344561308777279475e-04,3.206870153531222577e-04,5.409739445894956589e-03
-2.872202789329368344e-01,-2.301938689652982539e-01,-2.855065537691430233e-01,6.590862069250986305e-03,-4.981815556373793939e-03,-4.351600680261274133e-03,5.847053974866867065e-02
-2.897362489630876947e-01,-2.223858893048556995e-01,-2.913036116713804691e-01,9.069153389996122139e-03,-4.099874155948483173e-03,-7.713590602626661449e-03,7.155252248048782349e-02
-2.788940619302100465e-01,-2.458501483442424029e-01,-2.790472674772555561e-01,4.777870669589046569e-03,-5.779618766218523780e-03,-6.061574723928006211e-03,3.709326684474945068e-02
-2.833695998717462583e-01,-2.424381938256618685e-01,-2.786993156120552428e-01,2.554130589848822939e-03,-4.857862892121510463e-03,-6.306949427996195838e-03,4.142137616872787476e-02
-2.753610306838903954e-01,-2.424066068282231812e-01,-2.879726530917817717e-01,1.607578771898610093e-02,-3.699739849471521402e-03,-7.942798681118329318e-03,5.163600668311119080e-02
-2.774200271680332675e-01,-2.407806186330931353e-01,-2.852561195873024591e-01,6.024432442743890732e-03,-5.331476563733894558e-03,-2.459861197229834713e-03,4.362646490335464478e-02
-2.605782573148349712e-01,-2.609364410322992933e-01,-2.840547875525358812e-01,4.586739088165313859e-03,-1.821079058355745770e-03,-8.696085871742303660e-04,2.486360818147659302e-02
-2.615324322811977131e-01,-2.603408315301046771e-01,-2.829264461414177090e-01,5.050860805870049193e-04,-1.075814088327400756e-03,-3.949640352278505659e-04,2.212063036859035492e-02
-2.653861070001260480e-01,-2.659144584771659936e-01,-2.732584310325016919e-01,-2.492276766235294264e-04,-2.549117968799449242e-04,1.352501335176024616e-03,7.997646927833557129e-03
-2.651130597620252605e-01,-2.725404556666519706e-01,-2.658736646682942628e-01,2.468215995837300808e-03,1.356632992244225346e-03,1.763791330980517096e-03,9.122824296355247498e-03
-2.607026253586294251e-01,-2.593021193755979392e-01,-2.849897238731566862e-01,6.558219445694259391e-04,5.599740824983125186e-05,-1.742689314737710460e-04,2.504455298185348511e-02
-2.616372445967558580e-01,-2.578639436066730850e-01,-2.848331202364676185e-01,3.038761847882187270e-03,-1.143329518101559488e-03,-6.384278121871852412e-04,2.593565173447132111e-02
-2.660054371597071476e-01,-2.648055097028458871e-01,-2.733681565296690041e-01,1.246635610869988118e-03,-2.245020454519878680e-03,-7.629165103180789035e-04,9.274317882955074310e-03
-2.687632426231345573e-01,-2.547721607322897541e-01,-2.788559871097873732e-01,4.221072204275753623e-03,-3.837885551919083434e-03,-2.379125270015478456e-03,2.352537773549556732e-02
-2.873563055006073119e-01,-2.419885227198031452e-01,-2.743003040901179079e-01,-3.025520131575054530e-03,-5.903705852403983529e-04,3.167525782629821221e-03,4.117013141512870789e-02
-2.916689560123584268e-01,-2.698973663032959158e-01,-2.401342740851052093e-01,-8.941984190095843190e-04,-4.255051687713440160e-03,1.350562539555340454e-02,5.110532790422439575e-02
-2.653917085839299639e-01,-2.611263662380338135e-01,-2.777686424194193426e-01,1.689512922389951313e-03,-2.648710557202486274e-03,-1.977915463985166489e-03,1.629479415714740753e-02
-2.701308627596643586e-01,-2.614452204197340035e-01,-2.723413952672656957e-01,4.009789996457109248e-03,-3.686570927377675645e-03,-4.698606923062731422e-03,1.596136391162872314e-02
-2.665973593947817966e-01,-2.634748218423635935e-01,-2.764691157228912899e-01,6.205541466441836726e-03,-3.665663541059814567e-03,-4.696968891615680743e-03,1.897495239973068237e-02
-2.873456715047179588e-01,-2.428872978920894599e-01,-2.737723838578806634e-01,-3.652340116710586847e-04,3.143797131499390194e-03,4.600344422939332129e-03,4.063095897436141968e-02
-2.742828505934760686e-01,-2.476583727906278010e-01,-2.828015990870033081e-01,-2.758924139117516824e-03,-4.252987194032780034e-03,1.915224527117104399e-03,3.311105817556381226e-02
-2.779445114379828219e-01,-2.631443613152613104e-01,-2.620869888688337479e-01,-1.794182120422481517e-03,-8.753561198048726054e-04,2.406180068557597918e-03,1.628302410244941711e-02
-2.840864820040280292e-01,-2.402300513918417812e-01,-2.819327656087644018e-01,-2.424727453010034652e-03,-3.616221690730619595e-03,2.896625489235188280e-03,4.376769438385963440e-02
-2.600881780098638907e-01,-2.270425912122741308e-01,-3.045596321689696961e-01,1.020255372751709966e-01,4.159863871878555913e-02,5.836408101206713717e-02,2.262241691350936890e-01
-2.426954031314255134e-01,-2.756960383081609733e-01,-2.847110720661994443e-01,-2.902593660939489523e-03,1.244575156515849695e-03,-5.260713337593975539e-03,3.975879773497581482e-02
-2.770004229596895740e-01,-2.525893254181697523e-01,-2.744592465456909824e-01,-4.933087179330453327e-03,6.880424503587106479e-03,-3.015107332204221106e-03,2.797544933855533600e-02
-2.356666572612444166e-01,-2.827789956636806434e-01,-2.858489894137771214e-01,-3.776180371552926088e-03,3.471990150173577885e-03,-3.283821519827419527e-03,4.984902217984199524e-02
-2.263374979459600589e-01,-2.816507916164877612e-01,-2.954524149517445686e-01,-2.586386629452435554e-02,4.304442756583066500e-03,-4.974616425153574086e-03,7.842259109020233154e-02
-2.808152057185254735e-01,-2.606146509722592208e-01,-2.634312636219846571e-01,-8.121923513251803114e-04,-3.167873348263706371e-03,2.925464836590608436e-03,2.041712217032909393e-02
-2.284117757252122627e-01,-2.850977331509490509e-01,-2.920385769981991841e-01,-3.894319206383715926e-03,1.948484056813060226e-03,-1.635892641051000379e-03,6.099046394228935242e-02
-2.809137135406309937e-01,-2.627863714111589588e-01,-2.600103458002339107e-01,-2.424340349497211208e-03,-1.053495864051542117e-03,2.918685170936980138e-03,2.081217989325523376e-02
-2.773637305042384038e-01,-2.629319383375083308e-01,-2.638156306762720060e-01,-7.706590779171203828e-04,-1.678809191565395998e-03,4.602823759692209341e-04,1.439363788813352585e-02
-3.055021355978828623e-01,-2.094995273954496640e-01,-3.196870324492647741e-01,9.141798596362260554e-02,-5.206817549048207983e-02,-8.702095974249833554e-02,2.582682073116302490e-01
-3.088355984378281516e-01,-2.883842900285255584e-01,-2.028218898114568791e-01,-9.207088755156321580e-03,1.692413005992862360e-02,-2.114035362182848515e-02,1.092857569456100464e-01
-2.249613659071474647e-01,-2.920166351699964857e-01,-2.881695186928072694e-01,4.509686338048057158e-03,5.025604463763520130e-03,4.132571942770093577e-03,6.664275377988815308e-02
-2.557952518531485531e-01,-2.750522271506857797e-01,-2.742590619365408156e-01,-1.845714109167965501e-03,1.756023626735006993e-03,-4.194854490121568795e-03,2.069897390902042389e-02
-2.675115613871340559e-01,-2.620497998870465750e-01,-2.752897379454032345e-01,1.526204155641219286e-03,3.418402835002325602e-03,9.550292749084664679e-04,1.332643907517194748e-02
-2.900198815675807951e-01,-2.897380585696250899e-01,-2.229497211843034787e-01,-7.112242200854003958e-03,-8.073742087340672960e-03,8.271870235530555740e-03,7.093774527311325073e-02
-2.842924099004812133e-01,-3.001607016422249696e-01,-2.102066589895264237e-01,-6.668161721744436492e-03,3.470511712767233165e-02,-1.155373203158619258e-02,1.051822751760482788e-01
-3.104796054373973879e-01,-2.249963299204847389e-01,-2.801660382342499589e-01,2.117628105720594650e-02,1.378046808557533559e-02,4.848558003801755473e-02,1.208410635590553284e-01
-2.785363355285340181e-01,-2.866210452566200217e-01,-2.364371180709022302e-01,-4.246830172704762867e-03,1.776394480642705387e-02,-5.524013481664608732e-03,5.718732997775077820e-02
-2.436782414902630423e-01,-2.518630023605741841e-01,-3.018318188608068997e-01,-4.547811966419792323e-02,-1.154296443787536548e-02,8.632442504875268915e-03,9.899955242872238159e-02
-2.555905040132464001e-01,-2.665219240670226308e-01,-2.791007230429206065e-01,-1.423473586191768836e-02,-7.319734738514827033e-03,8.308215399884105734e-03,3.729509562253952026e-02
-2.708999785061544929e-01,-2.711673122495272814e-01,-2.580408139376655918e-01,-8.930342756469547560e-03,-9.940054637595415951e-03,1.045070603402006686e-02,3.212765231728553772e-02
-2.663807157923506752e-01,-2.656527952776427948e-01,-2.729329650721949996e-01,-3.017358952856740058e-03,-2.602906185865195513e-03,2.678172529602850221e-03,1.083457004278898239e-02
-2.660681814915475951e-01,-2.628206634062956737e-01,-2.755310239688665841e-01,-1.134601301615282502e-03,-2.693852177942115088e-03,1.138050692691586208e-03,1.266256161034107208e-02
-2.705856045523072906e-01,-2.555269104248274470e-01,-2.778877591369041666e-01,-3.347306214427124907e-03,-4.944910387101788402e-03,2.394452253340102841e-03,2.267634496092796326e-02
-2.552837621695834835e-01,-2.593904255320437779e-01,-2.949940343473142490e-01,2.277307870679235249e-02,8.858349943360684445e-03,7.552370171633617998e-03,5.824996903538703918e-02
-2.847949331264294504e-01,-2.196924289177999978e-01,-3.001824938585130331e-01,2.428033224037240423e-02,8.604877502565737649e-03,1.896314510889615668e-02,9.244684875011444092e-02
-2.692199195463419459e-01,-2.566986861714712354e-01,-2.824255087994905211e-01,2.553387912940237661e-02,1.514994186873602766e-02,1.584137911051525932e-02,6.240085139870643616e-02
-2.416762932455296387e-01,-2.900088714179987481e-01,-2.733887152946701815e-01,6.839659603447395238e-04,3.287158784941311262e-03,2.535307915326453186e-03,4.315177723765373230e-02
-2.643869752125193040e-01,-2.628242209373869431e-01,-2.763078815637071695e-01,7.983239306864805531e-04,1.729347323362404130e-03,8.823813235930375726e-04,1.328154094517230988e-02
-2.683117395835792340e-01,-2.421714222680787509e-01,-2.871437497471029388e-01,4.314390488303249810e-02,1.820300977358799838e-02,2.378583296371334505e-02,9.902409464120864868e-02
-2.443834156803721402e-01,-2.590966924341718269e-01,-3.026159906918791109e-01,5.497312532450725903e-02,3.035575081155120203e-02,3.463788534723543505e-02,1.348355263471603394e-01
-2.784383191591284779e-01,-2.383530191735803994e-01,-2.861956029892251396e-01,-6.360893148960047698e-03,5.484626150805511566e-03,-4.610832186230778666e-03,4.746962711215019226e-02
-2.628349385224258983e-01,-2.634581834582820914e-01,-2.785075653753517622e-01,7.543870026884200424e-04,9.859694881244524846e-04,1.128703628347464552e-03,1.564280688762664795e-02
-2.869229594476090384e-01,-2.360338972943528679e-01,-2.793111730882310573e-01,2.308850571160189422e-02,2.435134978048618046e-02,2.882276972638674051e-02,9.017059952020645142e-02
-2.752313003310195016e-01,-2.830235405508540469e-01,-2.449292418105668001e-01,4.478273960174095243e-03,3.022949512288413982e-03,1.402913099949820112e-03,3.617372736334800720e-02
-2.607355432600394485e-01,-2.688653574152438663e-01,-2.750195093216201148e-01,-6.896812685806384549e-04,1.863341670311877748e-03,3.795473537109594377e-03,1.445889100432395935e-02
-2.631961090083203003e-01,-2.629757676674732148e-01,-2.787194199853655352e-01,-5.334039597625220633e-04,-1.487341993481582905e-03,1.294143490929117223e-03,1.602986827492713928e-02
-2.990312349086606813e-01,-2.258556545427821693e-01,-2.857653326882971800e-01,1.749509647432408513e-02,9.819468643787592280e-03,2.094399582061223439e-02,8.416271954774856567e-02
-2.880757557358219478e-01,-2.326437604061266651e-01,-2.876113111896513863e-01,-2.250978993512968776e-03,1.503782999750828946e-03,-9.430234055983624866e-03,5.775767937302589417e-02
-2.717830305621050657e-01,-2.498930944937749199e-01,-2.845168700498491021e-01,-8.442913044050518248e-03,3.019894689007329019e-03,-3.378350670294520425e-03,3.457615152001380920e-02
-2.660709104783541279e-01,-2.551313931250696054e-01,-2.840860705467699865e-01,1.726381745964265758e-03,1.792446777157405760e-03,1.711856446351082278e-04,2.568976208567619324e-02
-2.625892735202590700e-01,-2.595379365461095156e-01,-2.814337173228614319e-01,-2.709718281560746355e-03,-2.482584026227789391e-03,1.132055422451561663e-03,2.159366756677627563e-02
-2.464577524833403421e-01,-2.527600415003278811e-01,-2.954864626623495139e-01,-4.101962400118878277e-02,-1.693659941590160145e-02,1.997978414532093627e-02,9.612746536731719971e-02
-2.900673971250953276e-01,-2.253380454354164675e-01,-2.897848370630911052e-01,-4.674323303086398186e-03,4.212342806095338045e-03,-3.760369122379557394e-03,6.582461297512054443e-02
-2.628712662901991348e-01,-2.688375797455597738e-01,-2.738742859734570323e-01,-1.219981663556782411e-03,-1.088588165653639169e-03,2.642435288634114709e-03,1.095369365066289902e-02
-2.721936012069157695e-01,-2.720499743696481176e-01,-2.610652447068053106e-01,-5.602979835882374721e-03,-3.802977148706569548e-03,4.806050204833784562e-03,1.814180240035057068e-02
-2.650935271428827567e-01,-2.549196592405180706e-01,-2.847807343842060912e-01,-1.880395723363949018e-03,-3.606585943240425370e-04,8.800200816917239360e-04,2.654637396335601807e-02
-2.615008024259120045e-01,-2.581402315825033766e-01,-2.836025586738462612e-01,-3.403513795151947262e-03,-1.896496235722285560e-03,5.780420757577705735e-04,2.491183951497077942e-02
-2.983840911849077737e-01,-2.179401363664156821e-01,-2.791286201486005147e-01,-6.430839185058014745e-03,4.202181591208682850e-03,-3.619386779036018464e-02,9.695383906364440918e-02
-2.679866434130923070e-01,-2.834806067417036113e-01,-2.517948459998319288e-01,9.155415249807121250e-03,-1.277609962287372045e-02,-8.414664211647321715e-03,4.131202027201652527e-02
-2.946168570752309424e-01,-2.322717597501846865e-01,-2.789908896269284178e-01,-1.712277471749108640e-03,-1.366249300557081329e-03,-9.733957896361689413e-03,5.878371372818946838e-02
-2.856036221158305688e-01,-2.272052411081362799e-01,-2.907405879273599059e-01,-4.713659886673756370e-03,-8.582310346117256929e-04,2.449556608343687793e-03,6.183539703488349915e-02
-3.064020669595860502e-01,-2.167542108023003677e-01,-2.758182614091637119e-01,-3.000439392842730278e-03,3.442734589082320495e-03,-3.537177195939322089e-02,1.002316623926162720e-01
-2.655914586175515679e-01,-2.549429896647583127e-01,-2.841632570567247384e-01,-2.482538347708543661e-03,2.024123383499617113e-03,-1.165010769873170491e-04,2.620846778154373169e-02
-3.067136339095990483e-01,-2.271899227583973613e-01,-2.724622417776819128e-01,-2.257601248549521988e-02,4.140552461973166787e-03,-3.551222291284968774e-02,1.006836444139480591e-01
-3.506330517443128625e-01,-1.664599661912369022e-01,-3.156039337291138835e-01,4.882393703654389766e-02,-2.411602036803608962e-02,-1.038071186471227619e-01,2.644223570823669434e-01
-2.666571727159526284e-01,-2.676915658127755893e-01,-2.704288085896557892e-01,-1.230293656100521114e-04,4.395364334636298184e-04,-1.167023591874854355e-03,4.013062454760074615e-03
-2.640094099315167808e-01,-2.761444569420524742e-01,-2.639605618140272725e-01,-8.362704970764211088e-04,-4.091678109650298106e-05,-5.942215004880445914e-04,1.228889264166355133e-02
-2.709163440314105720e-01,-2.625698148053269843e-01,-2.708311905024236577e-01,-1.429451932954657091e-03,-2.142300115053112197e-03,1.268850648766583393e-03,9.679326787590980530e-03
-2.952243900808885213e-01,-2.024240976055214358e-01,-3.039050896246487388e-01,-2.728849997118037649e-02,4.877622717361878094e-03,-7.864993843517617544e-03,1.094703376293182373e-01
-2.823965808913901365e-01,-2.402844987915880026e-01,-2.825414506341831777e-01,1.835138122807165959e-03,4.287056917651323878e-03,2.360956793901957187e-03,4.314523562788963318e-02
-2.672156832736116150e-01,-2.708747450629727105e-01,-2.671380614206075310e-01,2.250838837826376216e-03,-1.492514077383056683e-03,-2.093963887707682870e-03,6.979574449360370636e-03
-2.939479789204347826e-01,-2.252832404067416916e-01,-2.851066197548772219e-01,5.362034536790902424e-04,6.947699233944676887e-04,5.262427307453968611e-03,6.535530835390090942e-02
-2.655590728262788303e-01,-2.709665601230302201e-01,-2.675696899429129139e-01,9.914581667551944713e-04,-9.647355001715072782e-04,-1.780022321689832569e-03,6.136584095656871796e-03
-2.526020557118210941e-01,-2.748373872515144090e-01,-2.765315762955490864e-01,2.376178634854907417e-03,-2.580064302552418417e-03,-5.420107588667231677e-03,2.569032274186611176e-02
-2.685621789754427113e-01,-2.619470032328456988e-01,-2.748765522397312866e-01,-8.121213570587449424e-04,-2.647075915214268989e-03,7.698841176068114186e-04,1.225480996072292328e-02
-2.676841648684026298e-01,-2.693665373047213762e-01,-2.675550353729267417e-01,8.193933545857073333e-04,-1.370049926511806052e-04,1.082620820280129912e-04,2.273760037496685982e-03
-2.810423845367777673e-01,-2.539026239593607515e-01,-2.744473561589629296e-01,-1.278050608386945832e-03,-7.121139416561479175e-03,8.299304216597559736e-03,3.106028027832508087e-02
-2.940983113871887822e-01,-2.427184147544179660e-01,-2.634726656266130895e-01,-6.430600440846779946e-03,-6.271759975765393846e-03,2.199194850187051811e-02,6.080527603626251221e-02
-2.742169208483067333e-01,-2.435847928387573913e-01,-2.869108900224075498e-01,-4.102593625078631949e-03,-4.915326503281503088e-04,1.392025216395186135e-03,3.931080177426338196e-02
-3.256400521786503299e-01,-2.430837642775715568e-01,-2.373388012349771925e-01,-1.810704974066386364e-04,-1.148920965984886328e-02,5.315627176913528124e-02,1.272623240947723389e-01
-2.829540614378120988e-01,-2.396548116387238470e-01,-2.836745995112143204e-01,1.576684322827554257e-03,2.833665493564245432e-03,1.974669464565632134e-03,4.415640234947204590e-02
-2.920551705007822796e-01,-2.414373426699815972e-01,-2.727797505886222496e-01,4.226864138739198072e-04,-1.810398816128801647e-03,4.320305056531891993e-03,4.499322175979614258e-02
-2.958537184247304053e-01,-2.098714335292897193e-01,-2.961366881878924606e-01,-1.080746547970103154e-03,1.158493421457973253e-04,-1.763414244088974767e-03,8.619882166385650635e-02
-2.732862336279118787e-01,-2.427833009994564140e-01,-2.895397516741347044e-01,-3.412564223638477404e-03,2.408769086269914230e-03,-1.473248268897191324e-03,4.182391986250877380e-02
-3.193566783568939083e-01,-2.359225126428367847e-01,-2.641339100988217559e-01,-1.395602124745862725e-02,-1.044866214324920162e-02,5.323074622647203102e-02,1.217198446393013000e-01
-2.469899110193944924e-01,-2.476950228550835464e-01,-3.075279598764300570e-01,8.781711289134959408e-02,5.842439009495838109e-02,3.873617086282839933e-02,2.037152498960494995e-01
-2.911413371024934027e-01,-2.455570788366491508e-01,-2.679149649192043015e-01,-8.325527172561345522e-04,-5.120477835434812490e-03,7.079660279083937156e-03,4.230524972081184387e-02
-2.741714262413049719e-01,-2.499236702468423110e-01,-2.811298011696921617e-01,3.063582063773198551e-03,4.013041388582275909e-03,1.735584816695888086e-03,2.984299696981906891e-02
-2.731203364355125895e-01,-2.660339047571473881e-01,-2.647078797935544792e-01,2.473760146094400661e-03,-1.292573341849026503e-03,-1.373507804201686520e-03,9.508044458925724030e-03
-2.705933128126558063e-01,-2.677040576592659149e-01,-2.661883822873302163e-01,1.702032269179043012e-03,-6.991181408333160211e-04,-6.106805885179574043e-04,5.128359422087669373e-03
-2.730198939265113811e-01,-2.659923378757613199e-01,-2.655028666267452153e-01,1.451411802563992368e-03,-5.824685406103364931e-04,-2.441119406225507500e-04,7.783462293446063995e-03
-2.055685148281313213e-01,-3.079459900981780240e-01,-3.018292913882066886e-01,-1.770334907047609388e-02,4.216265480299517809e-02,-7.487456084230422956e-03,1.278038769960403442e-01
-2.525206388300143545e-01,-3.002706329952054554e-01,-2.382282964726275820e-01,-2.184024650807333406e-02,4.594890940206471097e-02,-2.566586443755312572e-02,1.136129274964332581e-01
-2.149621641868996735e-01,-2.938640651982787899e-01,-2.920719801468192878e-01,-1.507815810302515561e-02,1.835063859322777838e-02,-4.781916781009878936e-03,8.859014511108398438e-02
-1.915985550206745769e-01,-3.080627608952251628e-01,-3.024223140613775396e-01,-1.161458483931713387e-02,6.867811637607046729e-03,-1.696201670577410486e-03,1.161621436476707458e-01
-1.761671312271964052e-01,-3.216377488884992752e-01,-3.209351429327845784e-01,2.059482473660569600e-03,2.639955201538954702e-02,3.336868285014532587e-03,1.523053646087646484e-01
-2.618343047599777651e-01,-2.611534963110150875e-01,-2.813351460080684152e-01,1.222635540496116741e-03,1.311650951746592270e-03,4.184098575923400902e-04,2.010456845164299011e-02
-2.024911500780373075e-01,-3.234344283372450057e-01,-2.548347772638296926e-01,4.274766783837711387e-02,1.001994166121761287e-01,3.514458881022390624e-02,2.243742495775222778e-01
-2.557674167733717252e-01,-2.779564694481318488e-01,-2.707791323751889134e-01,2.620159569944429268e-03,5.647713130932351284e-03,5.555380251598054410e-03,2.436149306595325470e-02
-2.614283973303243580e-01,-2.805459910745222718e-01,-2.634708399483974839e-01,8.821444197980062149e-04,3.154599798204442114e-04,1.499190177502408459e-03,1.843863166868686676e-02
-2.092326944839935088e-01,-2.951457506945614484e-01,-3.022421098834457975e-01,1.412380156873596767e-03,3.442095663125836758e-02,6.339240616807402355e-03,1.082683280110359192e-01
-1.379838565310042287e-01,-3.535516216132668088e-01,-2.993522748026504199e-01,1.156679713439876661e-02,6.519187425906720901e-02,1.038795309862861841e-03,2.255614101886749268e-01
-1.230985763992776538e-01,-3.362048491615375334e-01,-3.373754828535549533e-01,-4.090962761972557343e-02,4.992318622035912812e-02,1.079113824087509985e-02,2.418930232524871826e-01
-2.702249269378674823e-01,-2.527712526116731584e-01,-2.816353462544906594e-01,-6.953970144428310747e-03,6.122128481314033019e-03,-2.128286032342868467e-03,3.008463792502880096e-02
-2.880056382637836143e-01,-2.157122279193344760e-01,-2.874717142335965203e-01,-6.239340965972753339e-02,4.092229471364170618e-02,-6.862095492394575114e-02,1.897820979356765747e-01
-3.098419197734489372e-01,-1.778826888413990726e-01,-3.303582878836682224e-01,-7.134926070415027743e-02,9.335909913999726473e-03,-9.440099847961981594e-02,2.506187558174133301e-01
-2.650260632433165675e-01,-2.865698459952043531e-01,-2.537982039325304418e-01,5.539184175689872321e-04,1.874440547467978724e-03,1.603031063879702513e-04,2.904527634382247925e-02
-2.616145850456341182e-01,-2.593578679002879195e-01,-2.837272534664238566e-01,1.002935311867637772e-03,2.692898074917661369e-04,1.252450090047231936e-04,2.339331433176994324e-02
-2.621743869197439292e-01,-2.853094837822733321e-01,-2.546786518773521135e-01,4.850009335489475354e-04,9.285962440267071100e-03,8.006420405934591591e-05,3.200383484363555908e-02
-2.553177833922151696e-01,-2.694473482860231250e-01,-2.769642420028187724e-01,-4.920926146243755767e-03,-1.161597639368622172e-03,4.115078303460224275e-03,2.213266305625438690e-02
-2.786357340694718965e-01,-2.354227920603653990e-01,-2.944227199451283083e-01,-1.951583327990596278e-02,4.226655791815026909e-03,-6.303866582901699982e-03,6.414204835891723633e-02
-2.777593961321093707e-01,-2.427463096250341568e-01,-2.836442234882387003e-01,-6.120455507212135479e-03,5.138386566643518560e-03,-2.652117919273213817e-03,4.097906127572059631e-02
-3.047830803119377374e-01,-2.209837963719087639e-01,-2.915755091521042286e-01,-2.122693433793570658e-02,1.532127403754506012e-02,-3.908702749533958520e-02,1.128243505954742432e-01
-2.734815153293274625e-01,-2.468014865060207397e-01,-2.836519019500164385e-01,-1.482525723933526135e-02,6.100437356527254988e-03,-1.659764811716348334e-02,5.180794745683670044e-02
-2.732440656183855454e-01,-2.127212542183648525e-01,-3.182537053585139941e-01,-3.679191362083010508e-02,6.973435968928426258e-03,-1.558397421723528922e-02,1.155352368950843811e-01
-2.636579424398389770e-01,-2.628775527711662563e-01,-2.781807461938393677e-01,3.240073239895045125e-04,-1.599329590805691507e-03,-9.711649604743424757e-04,1.528634317219257355e-02
-2.533922602491172626e-01,-2.651476300018310028e-01,-2.852964028559691334e-01,-2.226046522114089998e-03,1.298251449784328972e-03,-4.441507774535295955e-04,2.831134200096130371e-02
-2.661503050527724845e-01,-2.657702643607499082e-01,-2.725701226277959521e-01,3.090004677541661592e-04,-1.282969969647563321e-03,-3.120566499495315408e-04,7.022456731647253036e-03
-2.643111827310575812e-01,-2.650972227567700013e-01,-2.767124083482316865e-01,1.886026467223555700e-03,-2.687618403655900063e-03,-3.361262563670160738e-03,1.452225260436534882e-02
-2.571099639330218234e-01,-2.811948700700889203e-01,-2.659955356073779309e-01,-6.657335045281726621e-04,2.155906985283383061e-03,-2.087711774390956215e-03,2.175722829997539520e-02
-2.979199216252200744e-01,-2.786119271562246813e-01,-2.263866622852186705e-01,1.008319676351706988e-02,-1.573168107994463161e-02,-2.221271751514075632e-02,8.146364986896514893e-02
-2.668155516426117257e-01,-2.713256253456500788e-01,-2.662726767306809461e-01,-4.176478286971793403e-04,-3.655916244480654845e-04,-5.193246798745407159e-04,4.981690552085638046e-03
-2.634777890449273019e-01,-2.657703025299261723e-01,-2.752908851696352910e-01,1.421854891058645879e-03,-1.100952891922619839e-03,-2.488062670613417748e-03,1.208287384361028671e-02
-3.349215432243604074e-01,-2.935510090118926274e-01,-1.581585342632600977e-01,3.089538131318094599e-02,5.516951798124178352e-02,8.946859500928119879e-02,2.482990026473999023e-01
-2.971628829575171382e-01,-3.019688191009815004e-01,-1.816937196357645834e-01,4.289584730713666416e-02,8.415808381941206062e-02,8.117504499533759188e-02,2.458601891994476318e-01
-3.028421922883122175e-01,-3.216436401796243794e-01,-1.837334773145314903e-01,1.391529883712445785e-02,3.391215966821094219e-02,2.921972603775053329e-02,1.528796404600143433e-01
-2.759588517561562537e-01,-2.333340496372327544e-01,-2.923828374150372333e-01,-4.236945317236701092e-03,1.412908647406094925e-03,-6.185451243873550491e-03,5.441795289516448975e-02
-3.332645377406010523e-01,-3.010890759498509039e-01,-1.756339407760207916e-01,1.264754502101312142e-02,2.813068490266302027e-02,4.012542173700255760e-02,1.688042134046554565e-01
-2.864850247349119416e-01,-2.332126468203069569e-01,-2.885337024284863050e-01,1.090832663695051954e-02,-9.198082043091191425e-04,-9.790985731211052090e-03,5.998653545975685120e-02
-2.843166613124258335e-01,-2.610668123118757844e-01,-2.594348346146191364e-01,-2.526809810673347656e-04,-8.227415041339571978e-05,5.206323038247390612e-04,2.412855252623558044e-02
-2.626990732495575465e-01,-2.640877913515585762e-01,-2.779281397663770914e-01,-5.248570128545290659e-04,4.275572327988086179e-04,-1.654091189669988160e-03,1.490929257124662399e-02
-2.687696983580531440e-01,-2.681961082724406698e-01,-2.674215137704142875e-01,7.897926769500869049e-04,3.673618525111467677e-04,3.339594289575921492e-04,1.996013568714261055e-03
-2.680988028462194528e-01,-2.689087108487783206e-01,-2.675670829457871269e-01,7.235697869398386751e-04,2.475899058658819710e-04,2.384610914959635623e-04,1.815068651922047138e-03
-2.669531491690558811e-01,-2.654895896888131435e-01,-2.727127691493147488e-01,1.626950740951381034e-03,1.885902842655269845e-03,2.457433687775047605e-03,8.970647118985652924e-03
-2.687133599161783959e-01,-2.667282987606371947e-01,-2.689834273698404887e-01,9.842645479521817779e-04,1.576073759001708589e-03,8.018572494841338764e-04,4.103265237063169479e-03
-2.678796219053825034e-01,-2.685303434518942489e-01,-2.683978896165592487e-01,2.768210274946947920e-04,4.088372599648771016e-04,1.710920700814057659e-08,1.042173360474407673e-03
-2.494191666113722838e-01,-2.818841761225698850e-01,-2.738757899240409355e-01,-1.978399562903415329e-03,3.167516897871764780e-03,-3.537756256438393931e-03,3.061874583363533020e-02
-2.850654552621419979e-01,-2.606036152133962003e-01,-2.587474154442413465e-01,-6.210793358252836727e-04,-1.400827228544716243e-04,1.104253104403011112e-03,2.553639374673366547e-02
-2.888704400529801264e-01,-2.956272201355631957e-01,-2.162337843150319572e-01,-1.253662492538407851e-03,-1.431849958736792355e-02,6.122324376192165695e-04,8.020863682031631470e-02
-2.681850701322026076e-01,-2.680676796447979959e-01,-2.680280292710048862e-01,3.591215512137372446e-05,1.969841249169784368e-04,7.216314823893863872e-04,1.304814359173178673e-03
-2.946101320301217075e-01,-2.125622954247100016e-01,-2.960027556641364743e-01,1.958749956899050963e-03,1.459782382407321186e-05,1.515468171524650669e-03,8.286403864622116089e-02
-2.281470700402241092e-01,-2.854598342605492722e-01,-2.904364292299895234e-01,-4.014202849009989617e-03,-5.051787222455090664e-04,2.378430453256598007e-03,6.050470843911170959e-02
-2.622314569420872710e-01,-2.616489274410530586e-01,-2.822242466777803438e-01,-3.866341986585449322e-03,-2.590790957780745706e-03,2.623557387155300326e-03,2.230087295174598694e-02
-2.613577185871185926e-01,-2.603198240129022678e-01,-2.829696422421586477e-01,-5.769476201889545174e-04,-1.018031775020880993e-03,5.816436590285768964e-04,2.226445823907852173e-02
-2.619738941979397606e-01,-2.631142228574934183e-01,-2.787679439643166446e-01,-2.378894625173307107e-03,-1.317832589012080113e-03,2.080843169701423242e-03,1.730222254991531372e-02
-3.164391773537174046e-01,-2.362308791056078050e-01,-2.695907902625794828e-01,1.855795872844721514e-02,-7.895689439920987665e-03,-5.292022274049331537e-02,1.203843131661415100e-01
-2.633352605386004575e-01,-2.627647568098380182e-01,-2.782821428626037208e-01,-3.971020387250739740e-03,-3.173403339927907425e-03,2.184594916140563357e-03,1.800271868705749512e-02
-2.596273970194252212e-01,-2.630475380169651767e-01,-2.811067079801396473e-01,-2.949351943180827072e-03,-8.955982100847005578e-04,2.232060405145027022e-03,2.104862220585346222e-02
-2.843222403700060852e-01,-2.656526632887777351e-01,-2.580445453695224822e-01,7.792874946487469978e-03,-4.465569003173778910e-03,-7.935662542069971820e-03,3.129555657505989075e-02
-2.849190534425594112e-01,-2.278223731161906629e-01,-2.925917050852331336e-01,3.844488508739961688e-03,-1.086297578852406421e-04,7.210835271205813090e-04,6.166781112551689148e-02
-2.607560507983600062e-01,-2.576081186874875639e-01,-2.844444016675917175e-01,8.604608935288820051e-03,-3.759065594514591005e-03,-3.840045833489421842e-03,3.089278563857078552e-02
-2.648462474906695396e-01,-2.550120042369520834e-01,-2.845153625056761060e-01,1.870756543001079325e-03,-4.671741973533220489e-04,-3.684555751065643763e-04,2.624077908694744110e-02
-2.629342291523761865e-01,-2.536778888612213345e-01,-2.872850676119634850e-01,5.592078877233012252e-02,-2.963207980304610745e-02,-2.771445440738291160e-02,1.233851686120033264e-01
-2.901208330757798493e-01,-2.256160134019274399e-01,-2.899926190565756956e-01,1.580711026365444125e-02,-3.520336804340146782e-03,-1.211658268109749338e-02,7.334729284048080444e-02
-2.775493737905540548e-01,-2.462397618809117339e-01,-2.794429755004785298e-01,5.557277115195094139e-03,-5.122772873447623519e-03,-5.376654044544280399e-03,3.607310727238655090e-02
-2.783632070433447736e-01,-2.520026679798532121e-01,-2.744198890353966025e-01,4.247392185694072973e-03,-5.361950227393459840e-03,-2.547505321509372332e-03,2.768251672387123108e-02
-2.886481544343384442e-01,-2.374655422193555632e-01,-2.774755543436221994e-01,2.890165579456576567e-03,-5.039113574198310873e-03,-9.162647997829079238e-03,5.025677382946014404e-02
-2.274183573413730841e-01,-2.930973265314503196e-01,-2.844322924223959270e-01,1.034542242661335093e-03,3.586107082058613213e-03,2.123024177315515834e-03,6.224959716200828552e-02
-2.695278755718399921e-01,-2.674808780298372213e-01,-2.664071790077317536e-01,-3.347212074080057210e-03,-3.082570134489293588e-03,2.880420025790758707e-03,9.723659604787826538e-03
-2.738170557097026614e-01,-2.430532742955522352e-01,-2.874588810215860102e-01,3.044612111250103673e-03,2.971932277707354120e-03,-8.014588232796633106e-04,4.010507464408874512e-02
-2.682492465685590299e-01,-2.678959459147000621e-01,-2.686371511839326098e-01,-1.174969551251046429e-03,-6.623192003886786043e-04,1.502417409236424511e-03,3.555527189746499062e-03
-2.660720455168650855e-01,-2.653629829488478586e-01,-2.732264174576259363e-01,-3.678308693698790176e-04,-1.296625374067339421e-03,3.325430810923954168e-04,7.908354513347148895e-03
-2.672677213308280453e-01,-2.679847743143820571e-01,-2.688990229190316161e-01,-3.296410587225728490e-04,-1.649981217847998230e-04,8.089495540245003179e-04,2.091994509100914001e-03
-2.660575197234485434e-01,-2.678161294889255806e-01,-2.706102036409693268e-01,-4.214654845867030035e-04,-6.912019751574810349e-04,1.821203858705724120e-03,5.265906918793916702e-03
-2.752433983763230563e-01,-2.660896476084061990e-01,-2.637451488214109796e-01,-2.745247063820440824e-03,-1.107254444589728971e-03,6.514415023460386808e-04,1.176048908382654190e-02
-2.695108502814614337e-01,-2.756833915114498823e-01,-2.585087147397265861e-01,-4.496090548989173895e-03,-3.055984791779095718e-03,1.690425916049161396e-03,1.800812594592571259e-02
-2.662304441846130021e-01,-2.726976118218936707e-01,-2.651748875012546747e-01,-2.400861912177052870e-03,-2.288217110131848461e-03,1.671021978744069696e-03,9.546836838126182556e-03
-2.681077684912478443e-01,-2.609673882684057089e-01,-2.748326643401090008e-01,-3.142864483609102838e-03,4.200067156545417291e-03,-2.101246084529487333e-03,1.549282949417829514e-02
-2.647531535048824880e-01,-2.733255057892768347e-01,-2.654165730004607870e-01,-9.908036591064445057e-04,-1.819369953985378041e-03,1.920207249815665280e-03,9.600794874131679535e-03
-2.482594232927701206e-01,-2.684926065011888352e-01,-2.875539384872277116e-01,-6.985012722503539280e-03,4.230606636881080842e-05,-4.913812667703813288e-04,3.613154217600822449e-02
-2.648557267215937983e-01,-2.766251941456735475e-01,-2.642981634637360244e-01,-2.687460461650816122e-03,-2.065615120966347428e-03,2.580817514460050088e-03,1.413658168166875839e-02
-2.827884278675235064e-01,-2.613393227864596047e-01,-2.618368441964574189e-01,1.314202094784636945e-03,-1.899620480823083039e-03,-4.349124784062570297e-03,2.285589464008808136e-02
-2.757696552145664226e-01,-2.653760783301469250e-01,-2.637249060084015384e-01,2.987889528894452189e-03,-7.415869638605604008e-04,-1.774450248400098783e-03,1.287605240941047668e-02
-3.811910595184280215e-01,-1.596687361192044852e-01,-2.986041748134386498e-01,-8.359502657569609432e-03,1.059270759479808647e-03,1.082363010023877775e-01,2.701040506362915039e-01
-2.845753151262065406e-01,-2.942920582133659035e-01,-2.253367714528110577e-01,-1.625090220820059978e-03,-4.208928055815408520e-03,1.615907991067367256e-03,6.517765671014785767e-02
-2.779147033537901490e-01,-2.639035516246369673e-01,-2.630283521806640046e-01,1.036551142184113580e-03,-2.473112148734095427e-04,-4.174615819104517296e-04,1.460378430783748627e-02
-2.812738785539676267e-01,-2.624568287309219095e-01,-2.597728940653515339e-01,2.277732353158723379e-03,-1.300476417097307926e-03,-2.066119239040636185e-03,2.110054716467857361e-02
-2.743649802207304145e-01,-2.903527579484816989e-01,-2.399771224725355534e-01,6.923153074597917719e-04,-3.764449746715203132e-03,-6.273866585178676091e-06,4.507627338171005249e-02
-2.672945382377238110e-01,-2.718581267866974627e-01,-2.666165596962530304e-01,-2.635893442651930998e-03,-1.552876652886172335e-03,1.812309268974125320e-03,7.893762551248073578e-03
-3.652583240232482598e-01,-2.738156711523331288e-01,-1.965826854239821342e-01,-2.039159177991689553e-02,2.565244505940721120e-02,-1.298418596404443681e-01,2.742032110691070557e-01
-2.570018803523730910e-01,-2.671054617161114919e-01,-2.815718534369611725e-01,-1.828716423296797115e-03,1.025058583923024865e-03,-4.371745634009199973e-03,2.297917567193508148e-02
-2.675380253039554845e-01,-2.688198380809121990e-01,-2.679476533768697655e-01,-3.120238164879147449e-04,-1.005147581364438758e-04,5.763362395821031723e-04,1.613892614841461182e-03
-2.646823047868747114e-01,-2.722053493109053979e-01,-2.674280184337184396e-01,-1.263611634547837440e-03,-1.022843053902177703e-03,2.070548414978780685e-03,8.016813546419143677e-03
-2.941068483125634514e-01,-2.164789956481204536e-01,-2.934814998615453696e-01,1.446359846102209272e-03,-8.573550772046267723e-04,-2.262034754912586008e-03,7.747104018926620483e-02
-2.943702767487343386e-01,-2.895485310707805460e-01,-2.207548022296964285e-01,2.057754478837929557e-03,-2.641634354206495207e-03,-9.130368379284187208e-03,7.328888773918151855e-02
-2.661762920079721595e-01,-2.710703558094553767e-01,-2.673310130357223202e-01,-8.937885979858044977e-04,-5.121312247209593767e-04,1.623274364221443875e-03,5.542781669646501541e-03
-2.657863748333151865e-01,-2.710589920606836789e-01,-2.672488849911759390e-01,-9.891948773797767849e-04,1.310297364478465185e-03,-2.027486168545706690e-03,6.530423182994127274e-03
-2.825048268983629818e-01,-2.616635114669638162e-01,-2.607585089249581101e-01,-7.996149033670436369e-04,2.787619076989778671e-04,3.971317878459749312e-04,2.136972919106483459e-02
-2.627651054028547484e-01,-2.774036883974859147e-01,-2.641031741171742664e-01,-5.372557745922440162e-04,-7.035509854558249588e-04,1.432180622518993947e-03,1.431766059249639511e-02
-2.625031676155928362e-01,-2.823592514439967061e-01,-2.616591076103571556e-01,-3.044837779577649287e-03,-3.346870144416798018e-03,2.750674262606113332e-03,2.226774767041206360e-02
-2.868589547370290482e-01,-2.907867348964491838e-01,-2.257947436408384578e-01,-5.791276551205468137e-04,-4.630148858052214947e-03,2.512058228914296545e-03,6.378373503684997559e-02
-2.602596194124937590e-01,-2.825851218444860868e-01,-2.618232178557969303e-01,-5.557226673391807989e-04,-7.010605919526206962e-04,1.180625876108729868e-03,2.173815481364727020e-02
-2.829281604672268524e-01,-2.938113302212800315e-01,-2.298443501144129264e-01,-2.576291113439255469e-03,-1.062403860272423048e-02,2.422870375263867435e-03,6.237136945128440857e-02
-2.704915369564562799e-01,-2.657947001689291433e-01,-2.682389280126306619e-01,1.001250172871129057e-03,-1.923420836678474671e-03,-9.038815203021781201e-04,5.754262674599885941e-03
-2.636757682345445275e-01,-2.809061928274728670e-01,-2.600311983863899390e-01,-2.563701623214808580e-03,-2.312152775172259325e-03,1.027400729738087376e-03,2.029508352279663086e-02
-2.560956463441866893e-01,-2.668808306585893630e-01,-2.827889325021358813e-01,-9.835850849628869144e-03,3.539276936540086856e-03,-4.273231668819297419e-03,3.039000742137432098e-02
-2.488675152258118528e-01,-2.866450371905071570e-01,-2.680812022419356566e-01,-3.005857007780955367e-03,4.718351938516819784e-03,-3.839697916706481980e-03,3.476471453905105591e-02
-2.908216857480779294e-01,-2.331372468572958379e-01,-2.835680818169057371e-01,2.534381030860113123e-03,-1.821695688800852638e-03,-2.923506281768645503e-03,5.492317304015159607e-02
-2.563165076195434433e-01,-2.791926449121732157e-01,-2.689386894564984587e-01,-4.526903170356881036e-03,9.215269343349158024e-03,-5.047180231580232490e-03,2.804557979106903076e-02
-2.436727889586153273e-01,-2.818223000874059969e-01,-2.804737085574569022e-01,-2.369778892852700530e-03,5.037631944167904330e-03,-4.545297974347146594e-03,3.950589522719383240e-02
-2.467045668385215995e-01,-2.782045021990410261e-01,-2.807173691510146396e-01,-3.982154658575036421e-03,4.104692891098342747e-03,-3.962945748874756313e-03,3.497068211436271667e-02
-2.514298945685539133e-01,-2.753081830531370899e-01,-2.783596961738660225e-01,-1.295264798870152979e-02,1.382883316590183091e-02,-7.235502280493601862e-03,4.343305155634880066e-02
-2.927680773437520423e-01,-2.164591262868180710e-01,-2.948731255168733911e-01,1.446016975835555645e-03,-9.025544381890908798e-04,-2.262631389273169879e-03,7.753835618495941162e-02
-2.650444738557524160e-01,-2.853723836822343318e-01,-2.556418073014297132e-01,-6.747017426420019205e-04,-1.249089105289073048e-02,6.833392250762952865e-05,3.409130871295928955e-02
-2.853039355922450948e-01,-2.262646508725988936e-01,-2.931287603272624831e-01,5.031161432709492509e-03,-2.623371728118808078e-03,-2.880852711737758726e-03,6.426756083965301514e-02
-2.855990404710319619e-01,-2.351273428705231150e-01,-2.834661888910035565e-01,4.230999622693130610e-03,-4.574722973094843236e-03,-3.931839778270828333e-03,5.106034874916076660e-02
-2.278544846011729685e-01,-2.945103756277602791e-01,-2.832928899780916554e-01,-7.828245412620513446e-03,2.630559060404947386e-02,-8.911875556032995346e-03,7.949332892894744873e-02
-2.667896022483199348e-01,-2.853287236196511145e-01,-2.533028095040411598e-01,2.123073580689166517e-03,1.248834939932189254e-02,2.943891045333625004e-03,3.581932932138442993e-02
-2.340844994195649398e-01,-2.898509187989697367e-01,-2.831336505541311999e-01,1.824733932407123990e-03,-1.148519422667758014e-02,-5.762821819138891268e-04,5.645468458533287048e-02
-2.657508111162090736e-01,-2.752405682614377236e-01,-2.639170162470213521e-01,6.431962126107949223e-04,-5.984522790669541924e-04,-5.344321095618221207e-04,1.067674811929464340e-02
-2.809010689233299440e-01,-3.074194986205275870e-01,-2.089113723451699045e-01,-3.368861447991262914e-02,5.212934654516276217e-02,-5.935260090547690714e-02,1.729744672775268555e-01
-2.741547979966968973e-01,-2.969475370828265626e-01,-2.324681687648514905e-01,-4.039567451103335876e-04,1.101371524500945054e-02,1.332786458856946663e-03,5.980937182903289795e-02
-2.543544604779817697e-01,-2.893779371866403438e-01,-2.646328444435367966e-01,3.383420821788144742e-03,1.196983071490400480e-02,3.532560325677993381e-03,3.839159384369850159e-02
-2.647353777075150405e-01,-2.867044441181298975e-01,-2.534072066934646705e-01,-1.055653942054692561e-02,1.144651751170100082e-02,-6.765497116801339958e-03,4.152761027216911316e-02
-2.257478822281183128e-01,-2.858942139941085814e-01,-2.737470999447688125e-01,6.093826896331298870e-02,-8.215498569585442945e-02,-5.479772277408353348e-02,2.084026038646697998e-01
-2.658836999137186852e-01,-2.890964654524412758e-01,-2.492730434923222382e-01,-1.494324252251930498e-03,6.562837095178125114e-03,-2.513146470947365263e-03,3.681283444166183472e-02
-2.666723431276088463e-01,-2.541519425096558926e-01,-2.859657780266194882e-01,1.022431740482286112e-02,3.282845149011581667e-03,3.695391647960389464e-03,3.402157500386238098e-02
-2.730968148960371544e-01,-2.488492544644672899e-01,-2.857922999473821446e-01,1.505740664974359461e-02,9.515236796398367225e-03,1.329801884917033994e-02,5.039108544588088989e-02
-2.607738481229624483e-01,-2.839221611497582676e-01,-2.598426213092457360e-01,-1.474120760506382574e-04,-6.178075755238545417e-04,4.789000683476266973e-04,2.366783097386360168e-02
-2.609164470561048943e-01,-2.596651195956087288e-01,-2.838615802845930736e-01,5.478975332631306908e-04,-7.889214443029972704e-05,-3.390038272545776586e-04,2.362246438860893250e-02
-2.600067411372017911e-01,-2.604542228596465891e-01,-2.856368565338778809e-01,-5.316692340304874156e-03,5.012854153256856226e-05,-8.801449209909488914e-04,2.706967294216156006e-02
-2.653615985537142175e-01,-2.582285407447750814e-01,-2.815050428456375986e-01,-2.184027074287692161e-03,2.924338600432706010e-03,-6.598053305473020567e-04,2.163133397698402405e-02
-2.609907642949768070e-01,-2.623271581745263425e-01,-2.811336661060382380e-01,-7.119295612133878619e-03,4.476014138514540497e-03,-5.547334771842617716e-03,2.617402561008930206e-02
-2.591397277709899805e-01,-2.606198708206730608e-01,-2.850263138080612046e-01,-7.723506502368485127e-04,6.416505032843221063e-05,8.413499458269088160e-05,2.521534264087677002e-02
-2.601740168139368148e-01,-2.613819823947575727e-01,-2.831550536053193401e-01,-6.016476083550027342e-04,4.274938155262070932e-04,-1.069961209596656136e-03,2.251434139907360077e-02
-2.612805160023832785e-01,-2.691310071483111188e-01,-2.746358494121078353e-01,-7.797032566358196633e-04,8.701771582920087055e-04,-3.495962592365654386e-03,1.326310355216264725e-02
-2.616837097247006749e-01,-2.570093597626020299e-01,-2.850882192667019699e-01,-3.818857130140768975e-03,5.202814964031161372e-04,-1.286946793579488006e-04,2.690045163035392761e-02
-2.963815401048221498e-01,-2.807649373586669772e-01,-2.248086172555317785e-01,1.209647890190386141e-03,-4.355086438816637741e-03,-1.724325130884857282e-02,7.212568819522857666e-02
-2.684003554307948791e-01,-2.685397160169187281e-01,-2.683679946763778967e-01,-1.276687958541796808e-03,-1.237352385949294165e-03,9.635672533351044393e-04,3.506177803501486778e-03
-2.666525418625897981e-01,-2.689974112483265456e-01,-2.688260180455579462e-01,-8.520555993914715690e-04,-8.170061943457891402e-04,9.876839307014586601e-04,3.497562836855649948e-03
-2.672253782423460455e-01,-2.689693507516184856e-01,-2.682783377489960097e-01,-7.223896287161177265e-04,-4.170693046897167629e-04,6.752883567867157483e-04,2.401927486062049866e-03
-2.864660291696991545e-01,-2.541197992899539293e-01,-2.650951352503579939e-01,9.555482285351901955e-04,-1.508653683303754931e-03,-2.010578614238977234e-03,2.886902168393135071e-02
-2.680222820387466176e-01,-2.689793140504282420e-01,-2.674542673286697259e-01,-8.554585777269279505e-04,-3.935100601319488096e-04,5.422067161052229094e-04,2.307401737198233604e-03
-1.708306611198482372e-01,-3.045536199260468480e-01,-3.368932754872205892e-01,-1.261390169654308668e-01,3.867471489047941829e-03,-3.267151296959807522e-02,2.724564969539642334e-01
-2.688193986892891685e-01,-2.689719228254888184e-01,-2.667493180822982923e-01,-1.295494505451855183e-03,-7.961470297734200363e-04,7.309883954721310782e-04,3.628186183050274849e-03
-2.606295456485807627e-01,-2.830534413869762456e-01,-2.614265691242690370e-01,-4.699639451341453987e-05,7.110706512961988916e-04,-1.135202843942131109e-03,2.215814776718616486e-02
-2.592271378293364847e-01,-2.848708436539107991e-01,-2.608364232630097090e-01,5.955571035310349586e-05,-6.059749537518814089e-04,1.622626155030956882e-04,2.490206062793731689e-02
-2.609339475985815726e-01,-2.848873635226656931e-01,-2.588515780670290756e-01,1.182503390433109567e-03,-2.392250121664993897e-03,-1.058152917334542666e-03,2.554808929562568665e-02
-2.616508481224196769e-01,-2.809691639824582476e-01,-2.618181241104678980e-01,-7.361154668099957913e-04,1.859375064912908895e-04,-5.216013002063898127e-04,1.930127851665019989e-02
-2.602901311184055988e-01,-2.831930051457893227e-01,-2.615410810846458545e-01,4.175726635441576683e-04,-4.545943341429240555e-04,-8.471933268711758424e-04,2.237749844789505005e-02
-2.683361739217209330e-01,-2.676680718767861511e-01,-2.682000506524873651e-01,-2.616188537997988475e-04,7.542837665686973146e-04,-3.214804385850778879e-04,1.611260347999632359e-03
-2.845453653517670545e-01,-2.444187398780044984e-01,-2.748013369287808927e-01,-4.962556135191437167e-04,3.563599948691893032e-03,-3.405889712304411253e-03,3.725230321288108826e-02
-2.612026371888954701e-01,-2.848616511503235804e-01,-2.580674739921524075e-01,5.461583647795203219e-04,-3.030294274074943513e-03,-3.329857933209024574e-04,2.593315578997135162e-02
-3.239639109002677153e-01,-3.347777465987246126e-01,-1.366156811454905806e-01,3.913874363889394657e-03,7.024083718293205880e-02,4.329734218108876459e-02,2.402363717555999756e-01
-3.131506619875671360e-01,-3.097708403337411376e-01,-1.888591689642750149e-01,2.087617926067231091e-03,2.023494822519273859e-02,-8.070951877075886998e-04,1.276052594184875488e-01
-2.755230145455062063e-01,-2.905057680618883253e-01,-2.348087411722943607e-01,-7.866088101830823534e-03,1.469980888395275992e-02,-4.464387507108549813e-03,5.818778648972511292e-02
-2.882698965700319360e-01,-2.913343177838637055e-01,-2.287108260979973662e-01,-4.074375895622031840e-05,1.208635407636699140e-02,2.519565318303954461e-03,6.478022038936614990e-02
-2.784478738772218076e-01,-2.850676413007751098e-01,-2.395617154965342943e-01,-5.300628724553441487e-03,1.068120651042042853e-02,-2.189742291989219426e-03,4.747958853840827942e-02
-2.829763529601513339e-01,-2.603148681695012789e-01,-2.618965942422803450e-01,-7.161180664710980115e-05,-4.247568003291176319e-04,8.992630181563817521e-04,2.198142744600772858e-02
-3.194917840717764190e-01,-1.844026016561323145e-01,-3.137438435674165804e-01,5.483330148271013758e-04,-5.406549284764712755e-03,2.279307268492654706e-02,1.383936703205108643e-01
-2.756997493052327775e-01,-2.676228216850622954e-01,-2.608118575099045433e-01,-3.001624087417649987e-03,1.002236140628360618e-03,-1.384283411245023970e-03,1.422775629907846451e-02
-2.791780804371096769e-01,-2.905359620407660937e-01,-2.354627644185503521e-01,-1.971445856335316080e-03,6.903580544715625343e-03,-1.581621182046204135e-03,5.194888263940811157e-02
-1.698133074903721840e-01,-3.118637338652319180e-01,-3.172754097596387490e-01,-3.836790775434072501e-03,2.191934867630759322e-03,5.097763863083056360e-03,1.453027129173278809e-01
-2.897178451600945226e-01,-3.010878178248811432e-01,-2.133041532513912375e-01,2.120860916237410181e-03,1.753481771593384114e-02,2.020323332287471928e-03,8.823434263467788696e-02
-3.128158414982931679e-01,-3.196079483703772595e-01,-1.734255006688626422e-01,-6.216520012286979278e-03,2.438480430829997062e-05,-5.984244387177223984e-03,1.436868906021118164e-01
-2.658435579768498314e-01,-2.565383423276058616e-01,-2.815264541178034707e-01,1.666064369058738301e-03,-2.022978030683544176e-03,-1.877416519429218628e-03,2.257546782493591309e-02
-3.004157051692852853e-01,-3.011503383896933506e-01,-2.032366333580734596e-01,2.425163740345039759e-03,1.934080093537835811e-03,-8.244695851308316828e-04,9.770674258470535278e-02
-2.328720245453186344e-01,-2.879575232191789458e-01,-2.844779340256554101e-01,6.940296044849350240e-03,4.441760319014875606e-03,3.851514292219158052e-03,5.570492148399353027e-02
-2.978896234754073724e-01,-2.959529547811360350e-01,-2.114009711217401666e-01,-6.919251924705961286e-04,3.266211258072573061e-03,-2.575245465028158653e-03,8.584797382354736328e-02
-2.982765174617181270e-01,-2.980658874609483644e-01,-2.111090890359382244e-01,1.344786794031196638e-03,3.209116033942614916e-03,-1.276409940357481169e-03,8.729864656925201416e-02
-2.933111671690815658e-01,-2.148379272013049568e-01,-2.956502646359501218e-01,-1.951778807400599003e-03,-9.668712248491683706e-04,1.814973450491178756e-03,7.981975376605987549e-02
-2.606474754786143877e-01,-2.846578965969828179e-01,-2.596776196640665502e-01,-1.594384590518614110e-04,-6.032766699669905516e-04,-2.882217314958419982e-04,2.453863993287086487e-02
-2.606428417891191729e-01,-2.845582854783941240e-01,-2.609128696146448267e-01,-9.043084471172615525e-04,-4.794216538790800619e-03,2.495808140913701140e-04,2.524197474122047424e-02
-2.605518535121153501e-01,-2.821720034723531612e-01,-2.618677686956722983e-01,-2.885656848001676481e-04,-5.904958972562325461e-04,1.095767817700572279e-03,2.110948227345943451e-02
-2.619725254757032662e-01,-2.841385334342499402e-01,-2.577499929073147622e-01,-1.126786285106136029e-03,-2.928511773163069553e-03,3.932888634601559613e-04,2.515471912920475006e-02
-2.630578737605849260e-01,-2.776452265651274121e-01,-2.630276801102389150e-01,-4.222256276638114078e-03,-4.805287192440184547e-03,4.177271644027069283e-03,1.970623619854450226e-02
-2.719991144883842082e-01,-2.605225141938343203e-01,-2.705291698972350223e-01,-2.306919931266541469e-03,-3.880436361504465380e-03,1.162555440522418252e-03,1.349802687764167786e-02
-2.652671327737008977e-01,-2.729488690021955599e-01,-2.663268226588179632e-01,-4.047316970181099758e-04,-4.759161438047102748e-04,1.133056713711628766e-03,7.550769485533237457e-03
-2.630272941596387137e-01,-2.755023018916810118e-01,-2.652942011011165113e-01,-1.290152279108208689e-03,-1.638200863667445533e-03,2.351843389217743267e-03,1.273275632411241531e-02
-2.838146604281843732e-01,-2.598243625621129427e-01,-2.608725810985770277e-01,4.660693272390599049e-04,-6.036182605942760774e-05,-5.868152586865909995e-04,2.351981587707996368e-02
-2.618667354632356892e-01,-2.778134032083455218e-01,-2.647245097589437934e-01,-9.757624468397891552e-04,-1.201241594981015005e-03,2.546838260704964614e-03,1.560562569648027420e-02
-2.873077046231413689e-01,-2.670088954396837022e-01,-2.485346026966184230e-01,-2.854263365350472536e-04,-5.401744951224441110e-05,-4.917424197293724861e-03,3.465751931071281433e-02
-2.916398664863817380e-01,-2.772972377904749930e-01,-2.346655174668700050e-01,-1.032548986872074614e-03,-2.571407721303430559e-04,-7.744313196485717518e-03,5.308432504534721375e-02
-2.634777565613761752e-01,-2.643643116476786514e-01,-2.761085849489928745e-01,-1.779278367730448762e-04,-6.653640340272881431e-04,-7.102431049882858023e-04,1.233135536313056946e-02
-2.654394561874796055e-01,-2.843152922585016618e-01,-2.553312526874461641e-01,1.447812765392625508e-03,-2.051171126730795199e-03,1.176516041727063058e-04,2.585006132721900940e-02
-2.795452245079679265e-01,-2.618515566520642768e-01,-2.628572366667417670e-01,1.582113806909077975e-03,-2.489635630901527660e-03,-2.191296312315437964e-03,1.835190877318382263e-02
-2.829642638894303008e-01,-2.615148429314406164e-01,-2.603157121842047395e-01,1.008668156144904189e-03,-4.781962350336757496e-04,-5.246243775400819985e-04,2.217656746506690979e-02
-2.778461836913855842e-01,-2.637197902217939816e-01,-2.627038048126931202e-01,1.490873401801235494e-03,-3.750646193117188098e-04,-4.085734652289581877e-04,1.491745095700025558e-02
-2.811810025296732629e-01,-2.598638626793605133e-01,-2.627999019579654316e-01,9.124263347865542006e-04,-2.101839834950982797e-03,-3.017304372069770126e-03,2.105981856584548950e-02
-2.844345632557586656e-01,-2.611243356518039294e-01,-2.591605630771314228e-01,1.139959333095082997e-04,2.353424845323148079e-04,7.034145800013419554e-04,2.438623830676078796e-02
-2.842608189861682289e-01,-2.608146003017065007e-01,-2.606417094707769722e-01,1.626144006087696910e-03,-1.071771675573088799e-03,-4.573229645781669295e-03,2.505855262279510498e-02
-2.834082813397603151e-01,-2.619547962404984442e-01,-2.586745141088279132e-01,1.593581845956724106e-03,-7.274281410108656516e-04,-2.785465249552295484e-03,2.395554631948471069e-02
-2.757189298443941672e-01,-2.642234837795266467e-01,-2.643096127560154440e-01,-6.967624164827231677e-04,6.350788840828433578e-04,-8.473954106433545530e-05,1.156937982887029648e-02
-2.740797444036379149e-01,-2.573483837523783402e-01,-2.737880441539524701e-01,-1.868191918529509346e-03,5.166251750150731639e-03,-1.804554484996878910e-03,1.937661319971084595e-02
-2.743095038047137502e-01,-2.570440619132534077e-01,-2.743823655575400311e-01,-1.757186471102307763e-03,4.454905033329441960e-03,-1.616733927580827441e-03,1.939076930284500122e-02
-2.849925588859272829e-01,-2.606815221996208187e-01,-2.592114180253889399e-01,6.491082808510596595e-05,-2.034348985335791425e-04,-6.414795155063201691e-04,2.510575205087661743e-02
-2.849110459799015227e-01,-2.576783781290303277e-01,-2.614610094383800210e-01,1.788245670588974317e-04,-5.786222513685781782e-04,-3.460584665104256014e-03,2.626675926148891449e-02
-2.591694607827090269e-01,-2.589716041195174179e-01,-2.842947394144212936e-01,8.281215168836106311e-03,-3.398274643819465795e-03,-3.031446942357087036e-03,3.007057309150695801e-02
-2.633473101641483072e-01,-2.582158144437231018e-01,-2.830504321019756686e-01,2.656573288221297270e-03,-2.429156719195738143e-03,-9.555075812433075789e-04,2.360646612942218781e-02
-2.865459836332194810e-01,-2.438748036863807589e-01,-2.742678495274282202e-01,-9.271150831290319271e-04,2.209029103039324409e-03,-3.867989846103295562e-03,3.885565325617790222e-02
-2.851813488570792421e-01,-2.811317542374233702e-01,-2.386444582230485278e-01,-1.174953562575942884e-02,2.119252432183627716e-02,-2.310346919994119355e-02,7.318784296512603760e-02
-2.570236010208222233e-01,-2.693883051293523012e-01,-2.791262312355087816e-01,9.657219569756143179e-03,-3.110915860586278142e-03,-4.944423569270159531e-03,2.739125303924083710e-02
-2.531345570889679264e-01,-2.642246762431849083e-01,-2.827089377420488603e-01,1.769714595416459896e-02,-9.360672750378412621e-03,-9.892612716732493081e-03,4.653682559728622437e-02
-2.630512066603306054e-01,-2.625228510111642377e-01,-2.794326316213464612e-01,3.817528630135686406e-03,-2.870526989834080566e-03,-3.136968147179750553e-03,1.937130652368068695e-02
-3.144317924358825400e-01,-2.517145693094750003e-01,-2.174920479407126961e-01,-3.839241539915982243e-02,-6.196603059057824436e-02,1.063910296400091549e-01,2.390594631433486938e-01
-3.105517851362146753e-01,-2.518510080254364736e-01,-2.188343425770493678e-01,-6.243929072258287694e-02,-6.086482380911371892e-02,1.059646299178525070e-01,2.509363889694213867e-01
-3.073303323598075565e-01,-2.138225494966917717e-01,-2.738575782840804163e-01,-4.108402077051257449e-03,-1.812078684800922084e-03,4.105353879358984714e-02,1.088615357875823975e-01
-2.939639372535424178e-01,-2.695382969558861586e-01,-2.538535530210572211e-01,-2.899004369267637465e-02,-3.342145020425510427e-02,5.224497882361957279e-02,1.236389651894569397e-01
-2.407998131678051323e-01,-2.735984473067645806e-01,-2.905760533630640796e-01,-2.867632167292911028e-03,1.869862608920760949e-03,-2.548694095678402920e-03,4.444635286927223206e-02
-2.814455304209295128e-01,-2.489589135773384032e-01,-2.751245156110328494e-01,2.093581200521971598e-03,-4.521432890180001468e-03,-3.257358900244791602e-03,3.156418353319168091e-02
-2.749543296391941949e-01,-2.608808034959874123e-01,-2.690994342467061262e-01,8.755804899934899448e-04,-3.700424950393692465e-03,-8.151579398432503730e-04,1.397561188787221909e-02
-2.752976817254444986e-01,-2.557467890528294929e-01,-2.742363243845369336e-01,2.150148084584156249e-03,-3.519058426529204572e-03,-2.152606286898279490e-03,2.067692577838897705e-02
-2.020618423757991611e-01,-2.928447175299924155e-01,-3.097096940514300623e-01,2.448289954402674273e-02,1.910315051967854602e-02,1.513458089245784234e-03,1.138284206390380859e-01
-2.749300013004675747e-01,-2.613325517368811912e-01,-2.690555500097242536e-01,-7.905155268596893289e-04,2.806567749655406591e-03,-7.647437059992218860e-04,1.291440892964601517e-02
-2.850227154956997411e-01,-2.611588941024434174e-01,-2.579762357652446991e-01,-4.818022079207702610e-04,3.467578490583796483e-04,1.862900967252383889e-03,2.582692354917526245e-02
-2.693599067058336516e-01,-2.670197512851066879e-01,-2.672058939865722960e-01,3.755521016868578962e-03,3.007607367126303565e-03,2.924549409156467199e-03,1.000915933400392532e-02
-2.728673545199318817e-01,-2.664311364648482838e-01,-2.655775771923943318e-01,6.168326096812302983e-04,7.837447094452070721e-04,3.617158732700718983e-04,7.143100723624229431e-03
-2.746498993737075400e-01,-2.556420932299251492e-01,-2.751674867933081581e-01,2.151814240231756086e-03,-3.764279734833872286e-03,-2.156517003945429643e-03,2.101796306669712067e-02
-2.693093961435333861e-01,-2.571357757687919299e-01,-2.764399225124756776e-01,2.533363574675025296e-03,-3.627884647636969717e-03,-3.210864533053725089e-04,1.857130788266658783e-02
-2.936331317027985888e-01,-2.257530054454728319e-01,-2.863989492253826152e-01,3.322290198739102224e-02,1.100637556180115648e-02,2.523885653087502845e-02,9.876584261655807495e-02
-2.654121495219267102e-01,-2.758684539375017564e-01,-2.628836308537252364e-01,-2.599695429143079536e-03,1.380139039610661818e-03,-1.210640949970442394e-03,1.313595194369554520e-02
-2.746622019699663797e-01,-2.429302524066147273e-01,-2.869462907865026891e-01,3.611901218995061495e-03,-4.161280392716685292e-04,-1.566103990719694330e-04,3.984148800373077393e-02
-2.693611339067640276e-01,-2.673979169148321677e-01,-2.676986167287128682e-01,4.234278820148962156e-04,8.767365266422666101e-04,1.961955757101064874e-04,2.512698760256171227e-03
-2.707269537920929392e-01,-2.660141625785805708e-01,-2.675810126077923234e-01,6.509767521901385677e-04,1.727631086915608696e-03,2.334090477260546224e-04,5.260234232991933823e-03
-2.708690184932425749e-01,-2.660279283465663003e-01,-2.675461262991951639e-01,7.716354964484098411e-04,-1.790928862890602729e-03,-5.352474103889860117e-04,5.537089426070451736e-03
-2.733411803579393062e-01,-2.660025123238611844e-01,-2.655192600226251587e-01,1.347669961930699281e-03,-3.984911091741160402e-04,-1.852175093617009828e-04,7.978969253599643707e-03
-2.844946341606723883e-01,-2.546494346366534600e-01,-2.656337892795622158e-01,3.334507636814955920e-04,-2.704354922614873456e-04,-2.006669438171458306e-03,2.638550475239753723e-02
-2.763389512006145798e-01,-2.529083516427578782e-01,-2.760669354935213482e-01,1.064924015474684633e-02,-6.199888972547798124e-03,-9.758368176754347173e-03,3.583162650465965271e-02
-2.818284502236124145e-01,-2.493733627213826354e-01,-2.736227195891203778e-01,2.095179698946786698e-03,-3.554419342832515916e-03,-3.108970757691450777e-03,3.056823648512363434e-02
-2.860258791605331252e-01,-2.570167192134367173e-01,-2.640889215654398936e-01,-3.246616116256307878e-03,3.136521637058117817e-03,-1.137032149901288230e-02,3.369534388184547424e-02
-2.803135212094490791e-01,-2.612015788148641660e-01,-2.642916112948238694e-01,6.405176055753710948e-03,-9.610100538659070366e-03,-1.767167918567659826e-02,4.065419733524322510e-02
-1.384268834858916053e-01,-3.251238127255250410e-01,-3.571116190733669704e-01,4.509318995064102997e-02,4.112637484986119557e-02,2.279179059347388042e-02,2.336315661668777466e-01
-3.220609250575030003e-01,-1.116269243616244689e-01,-3.478326128779254955e-01,7.064446765708781717e-02,-6.918667485561926477e-03,-1.416190750673877383e-02,2.570740878582000732e-01
-3.386556686505694524e-01,-1.220778316285077159e-01,-3.277544462173953566e-01,2.333843143902581546e-02,1.726957170944128745e-03,-5.594434410205259556e-02,2.360002845525741577e-01
-1.837712975952065508e-01,-3.064126743085722193e-01,-3.248485847768126100e-01,4.440251416117164951e-02,4.093325859866365699e-03,-1.597050161917021056e-03,1.536699831485748291e-01
-3.290183111973783436e-01,-1.514506625469463907e-01,-2.989771577968347582e-01,7.132046339843371718e-02,-2.774483815539404569e-02,-8.775091202089202458e-02,2.603233158588409424e-01
-2.635078475973720025e-01,-2.646103840969106225e-01,-2.755170770572691885e-01,4.926147625064360158e-03,4.107629096072811827e-03,2.928377163794771820e-03,1.677323505282402039e-02
-2.435864276248035920e-01,-2.655792202552086922e-01,-2.915212496086639904e-01,2.006627553819458412e-02,-4.709404647816450157e-03,-4.220794363248260399e-03,5.527346953749656677e-02
-2.535162531510213313e-01,-2.682576245328286424e-01,-2.824534977352951559e-01,6.011723650163612251e-03,1.955369737414534587e-03,4.324218353099704322e-03,2.835642732679843903e-02
-2.554426863515653068e-01,-2.654636009830125820e-01,-2.843107707114950200e-01,1.768556289283111909e-03,9.556376325882650399e-04,2.453784648898857043e-03,2.597473189234733582e-02
-2.606611247054455016e-01,-2.593388814222533090e-01,-2.848808709271472561e-01,5.126305547933147260e-04,-2.362692784054722911e-05,1.228779985226870363e-05,2.492306753993034363e-02
-2.662511699285804445e-01,-2.636929435514782649e-01,-2.751616899006772421e-01,2.615477959824987668e-04,-2.248176785400687362e-03,-7.464416640093008088e-04,1.121501903980970383e-02
-2.940389410726657049e-01,-2.319384167105961736e-01,-2.771418541071604125e-01,-8.685717046260904963e-04,-1.054328691279811598e-03,1.206180002856347723e-02,5.945357680320739746e-02
-2.971318105623562689e-01,-2.242757574586989322e-01,-2.843135190375507548e-01,1.041368137383092730e-03,-1.778793074280200564e-03,4.968921551472329882e-03,6.800910830497741699e-02
-2.941813961069599803e-01,-2.078840783348438748e-01,-3.051038448450765772e-01,-3.111441025872015414e-03,-2.551362619620064619e-03,3.711176064184486256e-02,1.126477941870689392e-01
-2.817884898999724053e-01,-2.576915059307733902e-01,-2.658063614026496824e-01,-6.610571810944877637e-04,3.054071990607288255e-03,-2.172464287555587233e-03,2.223564311861991882e-02
-2.737802544280704686e-01,-2.694950288235262725e-01,-2.611786324054709008e-01,-6.132747666710344076e-03,5.003809122252866372e-03,-6.644656076905686333e-03,2.106095291674137115e-02
-2.685443091998568343e-01,-2.716247304999806489e-01,-2.639933894187379559e-01,-2.685273643036273708e-03,1.426662278699522644e-03,-1.708016331437642874e-03,8.983804844319820404e-03
-3.110704014809684836e-01,-2.062642198503507052e-01,-3.014009597663776518e-01,-2.058759886139922141e-02,-6.508818246885472551e-03,3.228619275065396782e-02,1.207901164889335632e-01
-3.121104682445762779e-01,-1.908721623221803221e-01,-3.030420849898605717e-01,-8.518550696320074250e-03,-1.436833455627259740e-02,1.658648451185299952e-02,1.238705217838287354e-01
-2.677611790333879194e-01,-2.653782644026916326e-01,-2.710157109533403164e-01,-1.331064870373277649e-03,2.237744497303247038e-03,-9.915344316649152626e-04,6.878419779241085052e-03
-2.979735687339711836e-01,-2.149745630121708551e-01,-2.917450284877336486e-01,-6.261143362677027997e-04,-3.851676510008868312e-04,1.062731352973901588e-02,8.216512203216552734e-02
-2.688696481018947870e-01,-2.873747295812310032e-01,-2.583777918998300671e-01,-3.133082556626581860e-02,4.853175793271809896e-02,-2.978744865386234036e-02,1.154097169637680054e-01
-2.860702347807754231e-01,-2.542550139421397848e-01,-2.651991609810724904e-01,5.658866339783156959e-05,6.754873768960200416e-04,-2.511183985326539275e-03,2.835645899176597595e-02
-2.493364484358986388e-01,-2.856312655948834989e-01,-2.704635468753143757e-01,-1.064836546376473313e-02,1.427722403856794900e-02,-1.349980529296388766e-02,4.995276406407356262e-02
-2.587397977794271831e-01,-2.884601505719583958e-01,-2.578384268700428250e-01,-3.956734250070512854e-02,3.577092842609615186e-02,-2.321740757491047927e-02,1.051829233765602112e-01
-2.735951261131773782e-01,-2.897615056953928292e-01,-2.421923260784867304e-01,-2.114362787854022312e-03,4.575958962721274857e-03,-1.517438735583574163e-03,4.287534207105636597e-02
-2.844969166914160796e-01,-2.545541709986531287e-01,-2.659633698711590388e-01,-3.635334897249120753e-04,1.374178647000850670e-03,-2.405459903793930737e-03,2.661832794547080994e-02
-2.621721305372025079e-01,-2.798590643201686601e-01,-2.618031628059868110e-01,-4.038870264067411127e-03,5.017596065670533283e-03,-4.574739361622212619e-03,2.251089923083782196e-02
-2.739272769305161614e-01,-2.858020843601293270e-01,-2.450218010096764654e-01,-4.151144628451815602e-03,3.287510971221879394e-03,-1.802530348210343476e-03,3.759855031967163086e-02
-2.686291640787736856e-01,-2.863202044337846419e-01,-2.484908183333747467e-01,-5.823313142308029176e-03,5.231513883063941550e-03,-3.217164943508355433e-03,3.591216728091239929e-02
-2.815396392754610511e-01,-2.568108198335597447e-01,-2.669801897970148774e-01,1.203811308703294424e-03,-3.573644883539632035e-03,-1.255048528054638138e-03,2.260176651179790497e-02
-2.156431495217351058e-01,-2.939751785277607832e-01,-2.962585931970525555e-01,3.252352459829208585e-03,1.032195428924671463e-03,3.498112738979267480e-04,7.972002029418945312e-02
-2.944769211672792486e-01,-2.846662958132728516e-01,-2.252306102634801799e-01,-1.697922645547625918e-03,-2.014174719869684348e-03,3.175003048832192656e-03,6.529174000024795532e-02
-2.695478287468311973e-01,-2.799042523594323928e-01,-2.543029615194274951e-01,-4.277016033065806841e-03,3.897944079627937465e-03,-2.259156817811107908e-03,2.476521022617816925e-02
-2.754632280007574541e-01,-2.612526141961438730e-01,-2.675809736417166240e-01,9.108042174391013136e-04,-2.826103566105969776e-03,-1.286561012797340095e-03,1.354528684169054031e-02
-2.811205825703569361e-01,-2.617172589880202849e-01,-2.615056319095709902e-01,-6.970109136928663443e-04,1.435300287762490516e-03,-8.268915626909417553e-04,1.975674554705619812e-02
-2.613110795707521694e-01,-2.836019242599127632e-01,-2.582233803217323098e-01,1.882024928876004262e-03,-3.867801668517465916e-03,-9.979709318160636961e-04,2.517412602901458740e-02
-2.600791734249161546e-01,-2.830740305188202410e-01,-2.627077263044558242e-01,2.025337615955550338e-03,-6.066886085883083264e-03,-2.270464813827944087e-03,2.476735413074493408e-02
-2.703647446005855159e-01,-2.837915927191993481e-01,-2.502750116324518048e-01,5.889561113594250948e-03,-4.294060383785189110e-03,-2.298937262321836157e-03,3.207572922110557556e-02
-2.606015788700609126e-01,-2.823645809120788330e-01,-2.623403445043506199e-01,1.812547147639511583e-03,-6.172135280969303847e-03,-1.415163462292323227e-03,2.385289594531059265e-02
-2.576250075434083353e-01,-2.612948743166551013e-01,-2.853771621292951477e-01,-2.668989795951121069e-03,-1.052494434206135087e-04,9.357918624240740488e-04,2.656753920018672943e-02
-2.609061278326548772e-01,-2.571862159079935095e-01,-2.867223703384793598e-01,-3.289224567013946526e-03,-9.619139249691546593e-04,-6.024080588966994982e-04,2.850739844143390656e-02
-2.775261489590349351e-01,-2.657582620175233945e-01,-2.608281983803899529e-01,3.024217094111293462e-03,-1.473427117158013786e-03,-1.428378036744615276e-03,1.615167222917079926e-02
-2.575541011303504324e-01,-2.614891909542312320e-01,-2.849130695082685016e-01,-2.773522248346782428e-03,-5.675672102479622106e-04,1.045444791303808260e-03,2.614690549671649933e-02
-2.809339944650480203e-01,-2.574279375589938468e-01,-2.659134778434993351e-01,9.006571344799569213e-04,-2.126711045751340096e-03,-1.673975281579834174e-03,2.120109274983406067e-02
-2.667841365344798543e-01,-2.662926938627634410e-01,-2.711114171308916521e-01,1.671132438032941331e-04,-5.240068266557884559e-04,-5.064382807475555255e-04,4.771839361637830734e-03
-2.606172680844098255e-01,-2.593398959706733065e-01,-2.849371971414532689e-01,-6.609127240387336353e-04,9.957080485860734392e-05,6.417398744650639484e-05,2.501017227768898010e-02
-2.370183270420422594e-01,-3.125565034529402264e-01,-2.680974976102956653e-01,-3.080355965409103795e-04,4.876456567270340270e-02,3.584728400811688660e-03,1.072243005037307739e-01
-2.806505938708862558e-01,-2.616646566061885948e-01,-2.619210929738483573e-01,7.588073143004271702e-04,-4.762697777488609499e-04,-2.227600518351225268e-04,1.892669126391410828e-02
-2.679067086964647681e-01,-2.694641716589596947e-01,-2.667278850916188770e-01,1.479530470122477357e-03,-8.801200739390667525e-04,-5.118912958572279263e-04,3.915131557732820511e-03
-1.721042149015052369e-01,-3.534286670258187657e-01,-2.969576413868358911e-01,6.510495598784296623e-02,7.290997850033877070e-02,3.571665505517470501e-02,2.414923459291458130e-01
-2.172492891816937832e-01,-2.970703155810598961e-01,-2.923407896501964420e-01,5.812627936700436732e-03,-2.440754937529640567e-03,-1.747265711051219006e-03,7.838775217533111572e-02
-2.176948519624656575e-01,-3.217606166129284295e-01,-2.503826714227149197e-01,5.411747974717991821e-02,9.611468598943356811e-02,5.749057723368679318e-02,2.343335151672363281e-01
-2.520038023202544886e-01,-2.825364396303292613e-01,-2.686374921351674661e-01,1.269090167564261053e-02,1.923888163632788556e-02,1.011100517085571256e-02,5.100322514772415161e-02
-2.514931273948311508e-01,-3.111820071621785866e-01,-2.555363978553258919e-01,1.311270840901573691e-02,6.545376015642005718e-02,1.797990337557713383e-02,1.329511851072311401e-01
-2.285320515953658538e-01,-2.932745385680306516e-01,-2.816027786808269484e-01,9.745947408335413689e-03,3.014998323278465786e-02,5.522601586809933356e-03,8.170479536056518555e-02
-3.185163996853679347e-01,-2.633538185266658949e-01,-2.369811414138418282e-01,3.439738733377218239e-03,-7.550968431300967079e-03,-6.033034939994653956e-02,1.277458965778350830e-01
-2.952555260085523714e-01,-2.795734670928152754e-01,-2.336612114940539164e-01,-1.135363945298285306e-03,-3.320106925957191533e-04,-2.015902206214450001e-02,6.555316597223281860e-02
-2.903627814096777504e-01,-2.658542390708379388e-01,-2.482853536983800902e-01,7.051633371867420939e-05,-3.054150401927634671e-03,-7.269140992402911908e-03,3.906970471143722534e-02
-2.892227459024716008e-01,-2.739446883510985864e-01,-2.438177776925255502e-01,1.844476427380886165e-03,-4.028055481467113577e-03,-4.428742870981263943e-03,4.146147146821022034e-02
-2.878335730005802673e-01,-2.668075642877539844e-01,-2.478704073938624297e-01,2.723665566754701118e-04,3.898919453651646886e-04,-5.925620798660326607e-03,3.612339124083518982e-02
-2.923646325655549494e-01,-2.749777455585132868e-01,-2.344688423149502432e-01,-4.136029133079325605e-03,2.445584746610064350e-03,-1.039246068707195929e-02,5.514409765601158142e-02
-2.907260276276278366e-01,-2.783144847401061162e-01,-2.350887135799502592e-01,8.641767530467778496e-04,-2.838056686330176978e-03,-1.068393963467434947e-02,5.410966649651527405e-02
-2.922232917076338365e-01,-2.767527928475948529e-01,-2.360551594463184966e-01,-7.472259700148672738e-04,3.097037615814070277e-03,-9.144666139260125212e-03,5.297708138823509216e-02
-2.699555271495902575e-01,-2.779905003676559350e-01,-2.559949852063834741e-01,-7.859877180025443694e-03,9.822776840395154585e-03,-8.482722764113815456e-03,3.259284794330596924e-02
-3.153938898370478028e-01,-2.794214448038443988e-01,-2.177827688213164747e-01,-1.958011207963238423e-02,2.857119571099894784e-02,-4.728050542322990990e-02,1.327254921197891235e-01
-2.626664793952596666e-01,-2.771251182823867842e-01,-2.668652295810899355e-01,-9.990171162310530414e-03,1.436276053195182506e-02,-9.957701803008842806e-03,3.717147186398506165e-02
-2.890839823599357095e-01,-2.896178044295669163e-01,-2.228139319126856699e-01,-5.017575274573061149e-03,1.398583024032449065e-02,-1.881814815126598914e-02,7.843524217605590820e-02
-2.884960780776280598e-01,-2.891957368252662253e-01,-2.235625863533171609e-01,-5.720350968496824319e-03,7.241231453857960645e-03,-1.000389928474411556e-02,6.941171735525131226e-02
-2.908242449058861534e-01,-2.777594696775842475e-01,-2.345397883675556516e-01,-1.955347148542307435e-03,5.041650871059554732e-04,-8.043196301065619336e-03,5.300562456250190735e-02
-2.957408093163184648e-01,-2.865651246407308617e-01,-2.242947314200399722e-01,-1.370799356893584106e-02,5.317909276521763824e-03,-2.257934292956133987e-02,8.192201703786849976e-02
-2.742536086336945789e-01,-2.747634745269544321e-01,-2.559108156920132382e-01,-4.564190945796068287e-03,1.460689255199486367e-03,-1.454057338665320533e-03,2.052582800388336182e-02
-2.939715717747857227e-01,-2.872818858570377332e-01,-2.219135836360521252e-01,-4.102017428459205084e-03,5.171069755286292202e-03,-1.069311615654512139e-02,7.231035828590393066e-02
-2.697595547340985722e-01,-2.667358721594668136e-01,-2.676404885104978759e-01,-8.389264207723446309e-04,1.357977867350107764e-03,-9.770623723876399342e-04,4.211100749671459198e-03
-2.832256171703742553e-01,-2.630667341128750669e-01,-2.583120329542976656e-01,1.311255323487730629e-03,1.169014521695286701e-03,2.396562858240308767e-03,2.348032593727111816e-02
-2.846553268145459725e-01,-2.593433248117326673e-01,-2.607399724511963446e-01,-2.133348164100322983e-04,2.071407830505834938e-04,-9.973374549140784622e-04,2.470921725034713745e-02
-2.811643272182592357e-01,-2.731438779447452059e-01,-2.517492803256489164e-01,4.367856414235223202e-03,1.051642751736760065e-03,1.776772325085557028e-03,2.763464860618114471e-02
-2.844784081274003840e-01,-2.606845078995114751e-01,-2.597734399093905022e-01,-2.934079728378737126e-04,3.040230030233364092e-04,6.523280599760190304e-04,2.429958246648311615e-02
-2.839118762684089137e-01,-2.593996385084911260e-01,-2.613309199863019239e-01,-8.987470844496603514e-05,3.388559015721412642e-04,-1.080044315011325457e-03,2.368771471083164215e-02
-2.831159262294549173e-01,-2.618930995270906115e-01,-2.602989018006915956e-01,1.033720749754911059e-03,2.428163883686391424e-04,7.853665513004343558e-04,2.218143828213214874e-02
-2.854081915651981993e-01,-2.574334895570236648e-01,-2.606192209952779559e-01,6.922999965018077810e-04,7.567229802591210908e-04,2.636190027672069558e-03,2.697438001632690430e-02
-2.825687242564111634e-01,-2.622923387541795659e-01,-2.613412503092072403e-01,1.643324721949618837e-03,2.554058009466626377e-03,4.214450930173702613e-03,2.263353765010833740e-02
-2.842877545871805300e-01,-2.594578188338297897e-01,-2.613941467289048748e-01,3.374187629297668075e-04,-9.209067264353255032e-04,-7.242453959407703932e-04,2.401365339756011963e-02
-2.800180974516638388e-01,-2.629735387758123655e-01,-2.621511556267063781e-01,2.101005632255951994e-03,3.143684397271507679e-03,4.496091347455246669e-03,2.021746523678302765e-02
-2.811043933701471431e-01,-2.634233263406912107e-01,-2.595194264537106776e-01,1.523913529777495097e-03,8.224469171153030861e-04,2.583144978796809554e-03,2.063733898103237152e-02
-2.779515691422850265e-01,-2.638314211221464700e-01,-2.629304096743348973e-01,1.417196688533263948e-03,4.855615270006066958e-04,4.679669526457604523e-04,1.484258845448493958e-02
-2.674542451530561027e-01,-2.711367262381033649e-01,-2.665481579583152683e-01,2.493659320261126713e-03,-1.850279969900722916e-03,-2.016944922614824064e-03,7.671253290027379990e-03
-2.804491977411700532e-01,-2.611498860851253490e-01,-2.635210325931771624e-01,7.199843742948471882e-04,-1.687151818014402107e-03,-4.927208964127836139e-04,1.852423138916492462e-02
-2.659813281662778972e-01,-2.730852836471295841e-01,-2.646970470624452343e-01,2.581946687725962010e-03,-1.448427587184352968e-03,-8.575026458811848022e-04,9.473022073507308960e-03
-2.750437099343348568e-01,-2.640969711692709443e-01,-2.658840133456594201e-01,6.504762379346096073e-04,-1.642482227940501123e-03,-1.434863241354270100e-04,1.062481477856636047e-02
-2.677924163502491406e-01,-2.708304048464966751e-01,-2.659580604887651356e-01,1.749463144714347206e-03,-5.936048062764396737e-04,-5.837773457920317861e-04,5.424789153039455414e-03
-2.661029040712900584e-01,-2.727343273566886772e-01,-2.654553428023269102e-01,1.541575943059476754e-03,-2.443572605703066562e-04,-3.758997680510783716e-04,7.511442527174949646e-03
-3.183015091283861175e-01,-1.078423011680406940e-01,-3.783471157188459388e-01,-1.397581414914810319e-02,-1.884712662314842399e-02,-5.109075666845475094e-02,2.646093666553497314e-01
-2.673428262902372565e-01,-2.805652972121411293e-01,-2.570742569451894832e-01,2.841687316723461552e-03,-1.904622435844413424e-03,-7.270654436945504394e-04,2.127785980701446533e-02
-2.659480409229971198e-01,-2.654348599789260188e-01,-2.734454336989488032e-01,-1.804591307016118883e-04,1.259193584360446998e-03,-1.809229595553632269e-04,8.079255931079387665e-03
-2.669201546597725905e-01,-2.655621446131463115e-01,-2.727061957023670935e-01,-2.679154597203824584e-03,2.584290839144207184e-03,-2.539260865924700648e-03,1.020258758217096329e-02
-2.678109135800644247e-01,-2.684288004510086423e-01,-2.685024019731010458e-01,3.595680569132993199e-04,-2.999190406876942614e-04,-1.630329584611152947e-08,1.044222502969205379e-03
-2.675499259303512622e-01,-2.665344350943685270e-01,-2.695988450231280864e-01,-1.580292266558212420e-03,1.330284969966767216e-03,-6.141974172863996903e-04,4.608970601111650467e-03
-2.672142813051281984e-01,-2.675220814077590714e-01,-2.709285510119173734e-01,-1.536207155766980198e-03,2.777621661098898798e-03,-2.635176271905514955e-03,7.987809367477893829e-03
-2.668984175240285972e-01,-2.683919304981122744e-01,-2.694038734164749260e-01,-1.818379601591591822e-03,1.370898495579822574e-03,-1.929983921435821006e-03,5.612314678728580475e-03
-2.645115471768799686e-01,-2.761770280946416189e-01,-2.655378901425757276e-01,2.382863893529361867e-03,-2.843707005815022081e-03,-2.379017753576745907e-03,1.354390475898981094e-02
-2.636942892913780034e-01,-2.774035599350269665e-01,-2.628995781370771501e-01,1.710677413922449125e-03,-4.448063380626819706e-04,-8.737323392868224896e-04,1.453043706715106964e-02
-2.655501780193405548e-01,-2.772099120388100690e-01,-2.616623103449149945e-01,2.389853421430051389e-03,-1.123062384381720439e-03,-1.105979810030971976e-03,1.486553065478801727e-02
-2.680338841005931450e-01,-2.717159522859404763e-01,-2.643873296422496466e-01,2.493669767774682813e-03,-1.346866865271659610e-03,-1.189655876938224910e-03,8.284021168947219849e-03
-2.642348824992980516e-01,-2.729194641211962202e-01,-2.667856058126216734e-01,1.178685118841614780e-03,-1.968699476666325738e-03,-2.446910191860997633e-03,9.671272709965705872e-03
-2.627384076574751925e-01,-2.772335012484392625e-01,-2.642320496515380146e-01,9.714640937371877248e-04,-6.823837012453782278e-04,-1.620825949210903455e-03,1.424070354551076889e-02
-2.335440048473399199e-01,-2.824781062308086010e-01,-2.835150832710335855e-01,-2.350125300495011990e-02,-1.839183439569885836e-02,9.768495180603537636e-03,7.351422309875488281e-02
-2.935067482082461821e-01,-2.295251821500908229e-01,-2.845865939912476383e-01,-4.025585649207356898e-02,-3.357419789334028376e-02,5.111475514044659663e-02,1.402993947267532349e-01
-2.510956651497843195e-01,-2.779469067661948234e-01,-2.766091079841451750e-01,-1.066364667195390109e-02,-7.283378204926502925e-03,7.313884615550872090e-03,3.670993074774742126e-02
-2.707140928979341332e-01,-2.572541576967729560e-01,-2.771519976863063284e-01,-7.827987392418658125e-03,-4.887088969763816494e-03,4.238844494791485853e-03,2.487281151115894318e-02
-2.384453640177617295e-01,-2.774436673155530886e-01,-2.862225181334035473e-01,-8.725774721772662848e-03,-2.803004352154914169e-03,5.980426858587033559e-03,4.795394092798233032e-02
-2.476487846206474885e-01,-2.733075028344336133e-01,-2.840865912970548246e-01,-3.298977309752199830e-03,-2.035351797346217177e-03,3.967109113756217900e-03,3.381460905075073242e-02
-2.500602617590884091e-01,-2.680748618502295511e-01,-2.849632884522736997e-01,-5.376263179114726572e-03,-2.447182874107370256e-03,5.187887660050527656e-03,3.315726667642593384e-02
-2.848196917228978386e-01,-2.614518547721260133e-01,-2.576588640130844654e-01,-6.279336182888183709e-04,-9.404569671511291444e-05,1.883151624272382061e-03,2.570845745503902435e-02
-2.510628227400061308e-01,-2.651893162551636762e-01,-2.850512381498913062e-01,-6.167761924778896593e-03,-1.721055478374443120e-03,2.802992429693593017e-03,3.195642679929733276e-02
-2.554496665694974133e-01,-2.682667683568735750e-01,-2.786716644518040242e-01,-4.338186750875762561e-03,-2.359642096375161660e-03,4.265793954399760973e-03,2.310097217559814453e-02
-3.177630698671831677e-01,-2.508488814791572374e-01,-2.521643507385485372e-01,-2.399390578710000957e-02,1.503925782453276877e-02,-6.618038951705772222e-02,1.411963403224945068e-01
-2.973807123657309925e-01,-2.154413415478229898e-01,-2.856039230628403258e-01,-3.924609099552250902e-03,3.676004647942972790e-03,-3.258973295599402326e-02,9.571201354265213013e-02
-2.293520244899044658e-01,-2.838663759863160885e-01,-2.932066323336105507e-01,4.662393102817265905e-03,-4.548433692795982421e-04,1.217725955371788639e-03,6.032011285424232483e-02
-2.910377736315093444e-01,-2.368872065920729630e-01,-2.779472146910988428e-01,-3.862133293358884292e-03,3.525513207306893958e-05,-1.929475091020023403e-02,5.963555723428726196e-02
-3.216929260179397509e-01,-2.214875767541069629e-01,-2.674629058574712892e-01,-2.368693019508329514e-02,2.864863285098256940e-02,-4.632028300219527550e-02,1.346477568149566650e-01
-3.005504198694693985e-01,-2.436289935630990278e-01,-2.627789496595527297e-01,-3.712724647101517048e-03,2.066095679106194453e-03,-3.122552742782812307e-02,7.413492351770401001e-02
-2.858573132198153344e-01,-2.879133079984698695e-01,-2.309066434764922848e-01,4.754222918726444536e-03,-8.182467969997679960e-03,-9.855803285449278583e-03,6.080179661512374878e-02
-2.976998265365510266e-01,-2.925602328682446185e-01,-2.193256679058989411e-01,-8.441952429229895079e-04,-2.720075938929701967e-02,-4.486718560481933044e-02,1.184360086917877197e-01
-2.740695404873557672e-01,-2.896351181797586771e-01,-2.393308593956277874e-01,1.694131362973842758e-02,-3.404582168525488450e-02,-2.553708852444962554e-02,9.101976454257965088e-02
-2.858265594377106811e-01,-2.793917191330922423e-01,-2.383104799645654470e-01,4.829979359871159651e-03,-3.405635363394835229e-03,-5.992025918501380638e-03,4.696723073720932007e-02
-2.663475684875922234e-01,-2.706705751728492038e-01,-2.679760988373586783e-01,-6.479954037710510505e-04,-1.875834120639238722e-04,1.134472688303305062e-03,4.418901633471250534e-03
-2.840889269698189112e-01,-2.585475113596431007e-01,-2.609733484480624699e-01,-1.006077464057659240e-03,1.333531395260294326e-03,-2.936434688750072519e-03,2.511033043265342712e-02
-2.615872408365858548e-01,-2.616456461513921306e-01,-2.810206130492592935e-01,-8.493713707928798222e-04,-1.381668061183137725e-03,6.657372652025391954e-04,1.964039914309978485e-02
-2.833759794988832681e-01,-2.614432989765433923e-01,-2.602507009333158705e-01,-1.043447847724525424e-03,4.892834313610886377e-04,-6.556652557429708999e-04,2.266927063465118408e-02
-2.834077196098638285e-01,-2.602295732192628774e-01,-2.613089661012968357e-01,-5.215871028405509677e-04,9.763963022526348477e-04,-4.835301147527376131e-04,2.275413833558559418e-02
-2.714533908039568622e-01,-2.661791016053121628e-01,-2.667069687007050938e-01,-6.046173471591485436e-04,-3.802284757311297616e-04,-7.978960078454344314e-05,5.182871129363775253e-03
-2.682490086221097636e-01,-2.678453747009892361e-01,-2.682501908609182251e-01,-3.107081815117505971e-04,-5.346407776364337254e-04,2.717935211781248995e-04,1.237802556715905666e-03
-2.848902026109144670e-01,-2.592993250137111128e-01,-2.607966946328897917e-01,1.191165934025751000e-05,2.178745448378624971e-04,-6.003887623409015451e-04,2.490060962736606598e-02
-2.613077728549696999e-01,-2.852649704572702283e-01,-2.598427159510789397e-01,1.019475493720087321e-03,4.297909940834115407e-03,1.426333289248787580e-03,2.599672600626945496e-02
-2.618504075579045631e-01,-2.824956543300303768e-01,-2.607250094014009756e-01,2.489523880029453386e-03,4.323679711915421123e-03,8.636762064726042753e-04,2.297042682766914368e-02
-2.575794203767523549e-01,-2.848848761823783993e-01,-2.612254766769316339e-01,3.845158560610693497e-04,3.017831647140984796e-03,1.077231976915711629e-03,2.627872116863727570e-02
-2.611218388463074636e-01,-2.827759373060694803e-01,-2.610201638541224667e-01,1.006247828801520730e-03,3.286485127160999518e-04,4.022980727254483200e-04,2.179355733096599579e-02
-2.651241386703609426e-01,-2.652414035810001791e-01,-2.742546784849559383e-01,3.186773621076277162e-03,-2.825488067761668370e-03,-3.064711905664797842e-03,1.284149195998907089e-02
-2.670703467230906569e-01,-2.653004578417899606e-01,-2.729199852343347499e-01,2.068873941762866629e-03,-2.208499390889692628e-03,-2.458206307614124383e-03,9.659474715590476990e-03
-2.756332658667466351e-01,-2.634767573135524676e-01,-2.671101182556743225e-01,-9.120057832812953139e-04,-4.769504693255861502e-03,5.005128469823780755e-03,1.620823144912719727e-02
-2.623712736323010608e-01,-2.635413624630585927e-01,-2.786900975897589339e-01,3.621423707157041499e-04,-4.420625350750332283e-04,-1.446009011535932852e-03,1.599472388625144958e-02
-2.839815300465485803e-01,-2.584249530771872139e-01,-2.617270521076434098e-01,4.060553004938153784e-04,2.085143890971985232e-03,3.082202157701486884e-03,2.493371628224849701e-02
-2.643990571978410142e-01,-2.660486198445043970e-01,-2.736053606940466731e-01,1.404490323860012151e-03,-1.478853557866924339e-03,-2.457153208523346708e-03,1.014309190213680267e-02
-2.628813556460322665e-01,-2.657096471664939785e-01,-2.757477058639533074e-01,9.172331601164983392e-04,-1.125092635639623464e-03,-2.503994593669365675e-03,1.273906696587800980e-02
-2.680094594733551383e-01,-2.687909728929975262e-01,-2.676474281529230281e-01,-6.462074527323096373e-04,-2.999384228775674632e-04,2.490594363954777395e-04,1.653328537940979004e-03
-2.755387990331706893e-01,-2.641222671141079115e-01,-2.647978231290077367e-01,-5.743110946946580232e-04,-5.364578177960948983e-04,-4.027633239500350297e-04,1.119913347065448761e-02
-2.693897121166598518e-01,-2.672507221630902041e-01,-2.679995993140822375e-01,-2.314531462069646748e-04,-6.122020368705806490e-04,3.379755528675593124e-04,2.272008452564477921e-03
-2.685502475153349056e-01,-2.678823226289668846e-01,-2.680758918161027515e-01,-1.345133014888793578e-04,-1.846137489320964363e-04,4.718907256080787864e-05,7.193828350864350796e-04
-2.677663672240338522e-01,-2.683176705033237242e-01,-2.685364912132618409e-01,-3.359494779263506674e-04,-3.180054152725029647e-04,1.615186001278914501e-08,1.055662287399172783e-03
-2.682136161186329248e-01,-2.693463673223677191e-01,-2.666772419030314922e-01,-1.389095252599686957e-03,-9.795646941666558399e-04,5.992344466386851590e-04,3.889543004333972931e-03
-2.691770352712353209e-01,-2.674451879099511431e-01,-2.677001683116324027e-01,-1.214099353137049935e-03,-1.859278854294385899e-03,5.285241728681551714e-04,4.272423218935728073e-03
-2.406431143589234378e-01,-2.649710459566526066e-01,-2.987427892582017463e-01,-2.307179557521446545e-02,3.450024464908895989e-03,4.969638674984864189e-03,6.527402997016906738e-02
-2.747200800782901853e-01,-2.686471822558532119e-01,-2.622348871270335779e-01,-3.136551592009555103e-03,-1.247327420189670499e-03,1.149766656039523036e-03,1.245335582643747330e-02
-2.795629242747174614e-01,-2.362877002251605463e-01,-2.854800933674424002e-01,-7.847840658753279380e-03,-7.952792184383586718e-03,7.249778692353058690e-03,5.192310735583305359e-02
-2.667639628996202328e-01,-2.693202085576634763e-01,-2.678119716950488893e-01,-5.051520238050344726e-04,-8.904524897952015945e-04,9.980883326325352880e-04,3.329645609483122826e-03
-2.631987478994584073e-01,-2.648253908333154105e-01,-2.772034217723299276e-01,2.844489680859910077e-03,-3.204276580111596173e-03,-2.779779979278412718e-03,1.594532281160354614e-02
-2.926518633835547556e-01,-2.937116880327927948e-01,-2.170334300053269327e-01,9.279935109053468953e-04,1.253438537341838507e-03,1.610489667350674392e-03,7.625281065702438354e-02
-2.617960116122546310e-01,-2.615397926739583823e-01,-2.825548262145594069e-01,4.550501956155941947e-03,-2.769465432481037995e-03,-2.202324562585075609e-03,2.315155602991580963e-02
-2.597778424696467470e-01,-2.631928414483991618e-01,-2.812438029007801044e-01,1.762856952644562773e-03,-1.075803873815052610e-03,-2.153481521324177462e-03,2.063615620136260986e-02
-2.602406333339347677e-01,-2.613673948765136146e-01,-2.834679869020323428e-01,5.290915755127396577e-04,-4.088352783429223579e-04,-9.910592207634119719e-04,2.277928218245506287e-02
-3.021779358633837065e-01,-2.069369223336449126e-01,-2.929569125851972933e-01,-3.558920982435240070e-03,3.059972894499391437e-03,1.834682751083163699e-02,9.671382606029510498e-02
-2.643117019721586414e-01,-2.749752716543201747e-01,-2.657543781755433709e-01,8.292475955044331703e-04,9.381689458567879329e-04,6.055800089531048445e-04,1.030594855546951294e-02
-2.716621823981806849e-01,-2.676759940342103850e-01,-2.646346789594517523e-01,2.228017110490091574e-03,-1.426405488249912886e-03,-1.431702048244208082e-03,8.025456219911575317e-03
-2.765981630850777306e-01,-2.649049719102131162e-01,-2.642210095236868228e-01,2.874412978451144993e-03,-2.789710743939306792e-03,-2.039032765808360386e-03,1.434584986418485641e-02
-2.832531678111661622e-01,-2.611331184771837899e-01,-2.603187262883080444e-01,-5.480679724194906292e-05,-4.420984579686601545e-04,2.776163311645193162e-04,2.255661226809024811e-02
-2.583002599378650954e-01,-2.814812130709031801e-01,-2.654565893121926812e-01,7.058339378735937857e-04,1.718713528538937411e-03,2.882871241727850368e-03,2.140019834041595459e-02
-2.778575317874429351e-01,-2.629859755497595541e-01,-2.643337989737802318e-01,2.558901920473544318e-03,-2.478520580963311428e-03,-2.783514512483631007e-03,1.625584810972213745e-02
-2.545732145116498812e-01,-2.864808298036324863e-01,-2.645628144930586845e-01,-1.310894831383906816e-04,2.638558387838827509e-03,2.228893918014394503e-04,2.863966301083564758e-02
-2.642977136153024653e-01,-2.640025496678372607e-01,-2.757737720358321432e-01,5.660993630840706510e-04,7.516366046188046462e-04,1.805521412366530281e-03,1.214950066059827805e-02
-2.141270781055542027e-01,-2.783812148541459641e-01,-3.106977075188269155e-01,4.439647898168144063e-02,8.523847312725551378e-03,6.168515231528789479e-03,1.161666065454483032e-01
-2.611444521440575706e-01,-2.801320299269676184e-01,-2.635188230317785929e-01,6.015054406726282792e-04,1.211930497257502704e-03,5.911425114048065362e-04,1.810033991932868958e-02
-2.756191281412488925e-01,-2.655960162719909201e-01,-2.631774501445412473e-01,2.570480737803141052e-03,-1.090280290007659492e-03,-9.748321986706818144e-04,1.252169813960790634e-02
-2.504996091542157077e-01,-2.737066947675500517e-01,-2.812256151801095783e-01,2.340963110119575509e-03,1.403520748522468515e-03,4.346161903615686044e-03,2.913095429539680481e-02
-2.424237455807963793e-01,-2.895507901836347209e-01,-2.736273732859547114e-01,-1.125487815110135089e-03,4.027737342186770222e-03,-2.668322747432195878e-03,4.240186139941215515e-02
-2.582731782107700047e-01,-2.847143546749357212e-01,-2.618207142583536262e-01,-1.138265758117862824e-03,-2.737906180280952079e-03,1.209016740348878381e-03,2.546920254826545715e-02
-2.608324160821480220e-01,-2.823022904550789303e-01,-2.620261710336242444e-01,-1.596833513698334281e-03,-4.386164243255196056e-03,2.126271316272609988e-03,2.270856313407421112e-02
-2.582016440958701531e-01,-2.800617528089684449e-01,-2.671435626907949779e-01,9.591583154223801578e-04,1.377336522427567624e-03,2.651698014818108622e-03,1.979637704789638519e-02
-2.603943101833158802e-01,-2.854605100515084093e-01,-2.600525365997002902e-01,-9.132635002720261574e-04,-4.904591964760030356e-03,5.233503954890020163e-04,2.669245377182960510e-02
-2.573495999203037621e-01,-2.849423859419422111e-01,-2.617716874600582444e-01,-1.498665572202015036e-04,-3.555426657273850783e-03,6.888381511314362439e-04,2.642561309039592743e-02
-2.769804157517216092e-01,-2.613156263693261483e-01,-2.659052517350327105e-01,-1.291535386988309792e-03,-2.256503546012283978e-03,1.928548795119196593e-03,1.503304019570350647e-02
-2.779827341021706699e-01,-2.617091106643267273e-01,-2.640656295554267285e-01,-9.334471143520330604e-04,-2.132712267089843447e-03,2.145238805533148697e-03,1.618951559066772461e-02
-2.776708891432136395e-01,-2.640191634446925617e-01,-2.626097186867817346e-01,-1.606129381147039688e-03,-7.955155796122972880e-04,6.604326088035969130e-04,1.478321664035320282e-02
-2.618271658097524601e-01,-2.747224512988523104e-01,-2.689818649527900285e-01,1.046335398219838632e-03,1.263687103856203251e-03,2.609041964689985324e-03,1.239809207618236542e-02
-2.623335093762416692e-01,-2.747533339180795453e-01,-2.675760720877544685e-01,1.166676857025285763e-03,1.754215896265337278e-03,3.797844897487300496e-03,1.316096074879169464e-02
-2.838303041385093484e-01,-2.615335884161306690e-01,-2.592325107907695880e-01,2.825066577232681784e-04,7.502980341865667904e-05,7.835777363808700546e-04,2.357632853090763092e-02
-2.490321036379195274e-01,-2.827895976029075609e-01,-2.737689002244165781e-01,1.357636622002759150e-03,2.551995170538803176e-03,3.531155072529964904e-03,3.128737583756446838e-02
-2.756106604285572526e-01,-2.652856318238617783e-01,-2.632239616905647783e-01,-2.671784119202512842e-03,-1.146489986600713554e-03,2.275929932673800924e-03,1.315453089773654938e-02
-2.616539633236996676e-01,-2.591328387629794894e-01,-2.853350594847060551e-01,4.529848009907134522e-03,8.737283738321294712e-04,6.885563546738063820e-04,2.630825899541378021e-02
-2.596332393444916731e-01,-2.605283543309235839e-01,-2.848046324798740869e-01,5.913514198302302020e-04,1.585110944513141073e-04,1.171692824140454126e-04,2.475953660905361176e-02
-2.621030400189072185e-01,-2.598119335472887648e-01,-2.833281395984414974e-01,4.716489426513160652e-03,1.402714003409847275e-03,1.086713316531715554e-03,2.409490570425987244e-02
-2.574871193471854336e-01,-2.608327339214108753e-01,-2.849616262042262149e-01,3.561415336847935896e-03,4.037673501987958232e-04,7.571348179485146027e-04,2.672793343663215637e-02
-2.571654611761137188e-01,-2.865458088564531436e-01,-2.611910437601650536e-01,2.049916737071240673e-04,3.030148208530626230e-03,-6.442726664694687928e-04,2.810789644718170166e-02
-2.586358134562995459e-01,-2.836296561368176761e-01,-2.615798565735425463e-01,-7.287292695288676578e-04,2.975527339221442549e-03,-1.580753195599783395e-03,2.440138161182403564e-02
-2.499599106958907413e-01,-2.848074183027411443e-01,-2.671409826347359573e-01,-1.142214565011788995e-03,5.521996933320231365e-03,-2.647547773671002792e-03,3.205059096217155457e-02
-2.291873358214854273e-01,-3.228612860290524522e-01,-2.583907741643434730e-01,1.050320531787475933e-02,-6.422415733621616996e-02,-1.028693122338949313e-03,1.400014311075210571e-01
-2.565210779523795503e-01,-2.878428186105052577e-01,-2.576351998149341016e-01,-1.356714023305059021e-04,-1.001390405900961199e-02,-2.947018610847163846e-05,3.533113375306129456e-02
-2.698992880459730181e-01,-2.729824839042930273e-01,-2.625520027192305705e-01,5.770980009937781707e-03,-5.712970760628437346e-03,-5.623185939851849287e-03,1.946353539824485779e-02
-2.390005577777793433e-01,-2.996966034104613930e-01,-2.703599992014820153e-01,1.066224854898053902e-02,-5.420025566300148978e-02,-1.255433255736622010e-03,1.091916337609291077e-01
-3.738973171249942440e-01,-3.005784428587351953e-01,-1.436713551860169802e-01,-3.891742051082419662e-03,8.414144071825230145e-04,6.506855520471513388e-02,2.329142689704895020e-01
-2.344332607680893465e-01,-2.901589418452377167e-01,-2.780601859519446495e-01,-5.436960831280778601e-04,-8.144316483556098343e-03,1.958242595444987383e-03,5.281004309654235840e-02
-2.485482418492331869e-01,-2.874759617684328195e-01,-2.666196091725382411e-01,-5.807144563837611561e-05,-5.052374156286871566e-03,4.429205228783765773e-04,3.486606851220130920e-02
-2.435109477127219979e-01,-2.896644811240186579e-01,-2.729100639088385960e-01,1.070132484532330036e-04,4.304483550663315734e-03,6.670378292630657581e-04,4.116477072238922119e-02
-2.684634426844095256e-01,-2.681826619782628485e-01,-2.679694730687313120e-01,-7.773542781025099722e-05,2.676690940848524321e-04,6.307356782262078863e-05,6.550955004058778286e-04
-2.344400854218998687e-01,-2.907672161435912450e-01,-2.780089345853120619e-01,2.480087084297265038e-05,-7.382282081143554109e-03,5.154037427346540518e-04,5.273684859275817871e-02
-2.727302574832128346e-01,-2.689404838925317787e-01,-2.629093701170724384e-01,-7.066136961328827945e-03,5.771198971334060880e-03,-8.371165913628530325e-03,2.309834584593772888e-02
-2.713568609114169194e-01,-2.655144536533832755e-01,-2.673939746425074704e-01,-3.745940508218849503e-03,3.590750208897779475e-03,-2.863937285361147032e-03,1.149210520088672638e-02
-2.715155341188295601e-01,-2.717927970353367084e-01,-2.603997345294599142e-01,-4.583929458281684778e-03,2.985135287169816444e-03,-1.855630587154568061e-03,1.506055425852537155e-02
-2.716691729188703830e-01,-2.627340279684500235e-01,-2.697376530823352159e-01,-5.209244440794137329e-04,2.843261282552851047e-03,-7.450784559139180929e-04,9.645780548453330994e-03
-2.657497452851289577e-01,-2.694025738918377488e-01,-2.702760872279401649e-01,-4.863498829755792674e-03,3.958100289223136746e-03,-3.702541060949211121e-03,1.328096166253089905e-02
-2.720349557426129938e-01,-2.643949502929664463e-01,-2.682685395145888996e-01,-1.696923942311380756e-03,2.422053237992280363e-03,-1.651472994230457911e-03,8.843070827424526215e-03
-2.710748937749976051e-01,-2.662426665077005650e-01,-2.669363179713689083e-01,1.274428557595050620e-03,7.287226311614409353e-04,7.321293621579600709e-04,5.343533121049404144e-03
-2.694766753910400880e-01,-2.695875795492041482e-01,-2.650261031720385074e-01,3.309110814344161204e-03,1.013720212013493639e-03,1.158074300235823221e-03,7.763402536511421204e-03
-2.841656597843304488e-01,-2.604089628383154387e-01,-2.604515191635661253e-01,4.935236178115199717e-05,-6.461139636739648712e-04,1.068635243617552851e-03,2.383394911885261536e-02
-2.734212135648265707e-01,-2.466488880972255160e-01,-2.858440133690198226e-01,3.429829663381199056e-03,-2.480464817774804837e-03,-8.589707148177100392e-04,3.549131378531455994e-02
-2.599856778302441773e-01,-2.603834961295114492e-01,-2.857286558669516197e-01,4.536453944210516384e-03,-4.848164139146829118e-04,-6.434738849283397908e-04,2.676385082304477692e-02
-2.610086027729953129e-01,-2.573653347383073609e-01,-2.855016590664823384e-01,2.500307715840466120e-03,-2.186628827332454692e-04,8.348156753953359403e-05,2.685771696269512177e-02
-2.581198847680331587e-01,-2.625877978495821385e-01,-2.834223813887064569e-01,2.820383855810812499e-03,-1.404876518482611877e-03,-2.293706654127621383e-03,2.434537373483181000e-02
-2.607559690826856680e-01,-2.606694189644397364e-01,-2.834724241248255394e-01,4.617138447693390838e-03,-6.649931895205573500e-04,-1.752065972672851033e-03,2.434133738279342651e-02
-2.810049651098084356e-01,-2.609737420646580097e-01,-2.620379263818614080e-01,5.004419517171294907e-04,5.405555424334720178e-04,4.169031330798131092e-04,1.957587338984012604e-02
-2.755798827488538660e-01,-2.658722559979634914e-01,-2.634392821693431475e-01,2.596369582165476047e-04,9.299488358216652373e-04,9.725275936018646511e-04,1.137584540992975235e-02
-2.612818980614347586e-01,-2.573551614307171276e-01,-2.849596758851348222e-01,2.755062324726964464e-03,-6.691087789266540438e-04,-2.670485237338889213e-04,2.633174881339073181e-02
-2.599572323497867932e-01,-2.858257876505256312e-01,-2.603766507892963378e-01,-6.352155993444137888e-04,4.982352602291411844e-03,-6.617048645972548396e-04,2.712017484009265900e-02
-2.622355477271588464e-01,-2.833607446856145629e-01,-2.586411944067840141e-01,-1.826638755290256773e-03,2.754382402642402156e-03,-8.581897699361602707e-04,2.387684956192970276e-02
-2.752046204454585698e-01,-2.557302415799365680e-01,-2.739535903618265378e-01,2.239900165167328563e-03,4.727759326652045471e-03,1.862605010241107258e-03,2.118886448442935944e-02
-2.604614491593832404e-01,-2.846011897594635243e-01,-2.602352117376153795e-01,-3.810775043919345344e-04,5.049689382680896954e-03,7.415332692308229147e-04,2.582291513681411743e-02
-2.602382640352521315e-01,-2.830959967815768752e-01,-2.614317171446026156e-01,-5.168263274579490635e-04,5.569422018309609559e-04,-1.086433822767784822e-03,2.240298129618167877e-02
-2.752037764162900135e-01,-2.691637175137436278e-01,-2.604539353735175200e-01,2.858335731483534377e-03,9.652548521060758287e-04,1.343120990434561353e-03,1.405942905694246292e-02
-2.892638022275353382e-01,-2.422080199034434833e-01,-2.738758505970224078e-01,1.510856108283684628e-03,2.746225527027725856e-03,3.099084941304110826e-03,4.225198179483413696e-02
-2.613680139720065410e-01,-2.850586449082530005e-01,-2.574045897508622782e-01,-4.968020054257847856e-04,3.759399985060673730e-03,-1.590131833107410477e-04,2.672201953828334808e-02
-2.688567790515750677e-01,-2.674436102239723945e-01,-2.680963051717377699e-01,4.759177038622383138e-04,7.393253727772373420e-04,3.804974289357816275e-04,2.062601037323474884e-03
-2.760807354777078948e-01,-2.644188878803924725e-01,-2.651727840312091411e-01,3.240824857581838664e-03,2.592297770107184103e-03,2.195698766571948981e-03,1.392506249248981476e-02
-2.782944645877661882e-01,-2.643827037332265317e-01,-2.627065217525798579e-01,2.653811912501551594e-03,2.902010959551095271e-03,3.282820176525246773e-03,1.727394573390483856e-02
-2.719605094203962903e-01,-2.646509791183449534e-01,-2.673123551328809300e-01,1.292416238952684903e-03,2.052711400168723277e-03,1.126308456760059373e-03,7.906728424131870270e-03
-2.802602427480753167e-01,-2.613587382466452946e-01,-2.633405380416954378e-01,-6.189670184800185118e-04,5.919412408040973820e-04,-1.166672990368238048e-03,1.816643401980400085e-02
-2.689268521292929592e-01,-2.687696401844276162e-01,-2.674221663494163459e-01,1.708413511097093673e-03,1.683542420569952673e-03,1.218747935835865458e-03,4.875167272984981537e-03
-2.752458367472752077e-01,-2.653014263778231685e-01,-2.632542972019357719e-01,2.730497384654270374e-03,1.702351124361694938e-03,1.683990423699886817e-03,1.276745274662971497e-02
-1.833353199978979831e-01,-3.186593768262619975e-01,-3.024755333741465102e-01,6.647259992584833577e-02,5.198572427031661336e-02,3.155099586013488527e-02,2.018271982669830322e-01
-2.863204949075647821e-01,-2.764064068144508890e-01,-2.434361354712816228e-01,-2.548541973940963122e-03,9.689738332279729596e-03,-1.731471874793088714e-02,5.208411440253257751e-02
-2.878051281854947518e-01,-2.752677517588872358e-01,-2.376201389477066162e-01,-5.437113960789444894e-03,3.980436204291715012e-03,-1.021872932960308546e-02,4.996014758944511414e-02
-2.682084915743626063e-01,-2.681973066222184676e-01,-2.679795300275743530e-01,4.830998011899948451e-04,1.294492517111118471e-04,1.320537615686409995e-04,9.234336903318762779e-04
-2.787918950596633416e-01,-2.671032485615988938e-01,-2.588286736843467550e-01,-4.258013962092978798e-03,2.085040330044466393e-03,-1.587047728656993751e-03,1.941138878464698792e-02
-2.844304785977633254e-01,-2.651199436169857648e-01,-2.554258083567508830e-01,-2.024532087326324451e-03,7.243545350466217784e-04,-1.647196096746774514e-03,2.600157633423805237e-02
-1.402152579208844341e-01,-3.322647116669117939e-01,-3.418412316296189357e-01,8.479050033627955063e-02,3.244101065720819688e-02,4.582533678312404601e-02,2.642712593078613281e-01
-2.662945197514597351e-01,-2.676092062447422149e-01,-2.708955229996813929e-01,-6.397996078133740992e-04,-6.257806865448338300e-04,3.860159572606867030e-04,4.438312258571386337e-03
-2.671265744060167813e-01,-2.706887272364069674e-01,-2.662951807460426923e-01,5.128482066090498488e-04,4.404175617266126749e-04,1.520358127434147085e-03,4.964585416018962860e-03
-2.683924050156433205e-01,-2.685707426245713125e-01,-2.677750128647602423e-01,6.506445249618682291e-09,1.916422709997031256e-04,2.245761797629855158e-04,8.857569191604852676e-04
-2.679533886963718636e-01,-2.725445645190763266e-01,-2.640686887278622108e-01,-2.709076916916703520e-03,-1.196170333495326062e-03,1.142857645167592688e-03,9.177868254482746124e-03
-2.666410029462535358e-01,-2.641203905058723267e-01,-2.734410100972602398e-01,-1.858477312053050806e-03,-2.720890938147748402e-03,1.048577167464321029e-03,1.027637440711259842e-02
-2.645561642926495538e-01,-2.659078907664758629e-01,-2.735176553081483108e-01,-1.554955555423196594e-03,-1.001570616036668096e-03,2.863416271665550003e-03,1.024121791124343872e-02
-2.667820231092751793e-01,-2.662628368993257832e-01,-2.709138098438757525e-01,-3.869353061184684995e-04,-5.610436557087556319e-04,1.536467953660780031e-03,5.287915468215942383e-03
-2.686351238305700329e-01,-2.679774880908379342e-01,-2.678943409121714025e-01,-3.212445495390036472e-04,-9.718636687143572463e-05,1.216757765421756852e-04,9.361749398522078991e-04
-2.146941031343452821e-01,-2.954767461299807607e-01,-2.932159877372295109e-01,6.759643783069216316e-04,2.349888545392941376e-03,7.923860445785145578e-04,7.980060577392578125e-02
-1.611670865572598643e-01,-2.901961012661291583e-01,-3.633693898516658360e-01,1.221405381352456687e-01,6.318811651999460544e-02,-1.046327265832171921e-02,2.974993884563446045e-01
-2.634609716256647305e-01,-2.696091143074209606e-01,-2.712254149717719942e-01,-9.866019028904045134e-04,-1.278445257313616176e-03,2.989936376501435393e-03,9.219105355441570282e-03
-2.657555985661183007e-01,-2.756813176417648448e-01,-2.628055656125729000e-01,-2.411381790061571922e-03,-1.182643718336021891e-03,1.143185850281401832e-03,1.273046061396598816e-02
-3.088248365045175858e-01,-3.602708737345670098e-01,-1.686983892312110545e-01,-2.891363041143986401e-02,-1.131734965584567931e-01,6.848332149675535885e-02,2.906779646873474121e-01
-2.752438387143855136e-01,-2.645905665221147673e-01,-2.648976186386241549e-01,1.379950276724986472e-03,2.652921189897665226e-03,2.535991517793084044e-03,1.250743400305509567e-02
-2.672396774989564960e-01,-2.682516171435250230e-01,-2.688930098561782001e-01,-4.982622795526702592e-04,-6.725896366245163625e-04,7.307483651060571808e-04,2.405901672318577766e-03
-2.721670312005655679e-01,-2.663113491466091443e-01,-2.667278047891467607e-01,-2.509789963384011571e-03,-2.077656341323670924e-03,2.508265386747986041e-03,9.096433408558368683e-03
-2.709751515112508446e-01,-2.677624418088681568e-01,-2.654494597697270586e-01,-2.316249055773360582e-03,-1.045227566271522430e-03,1.839847617494105685e-03,7.254652213305234909e-03
-2.861030194469660892e-01,-2.645172591684759045e-01,-2.553546510949862292e-01,-1.423762772367243804e-03,-9.084146809032018436e-04,1.872113625544313733e-03,2.769028209149837494e-02
-2.689513287940989983e-01,-2.665325874420214625e-01,-2.689134824383300759e-01,-1.033537216981033138e-03,-1.216473591131348115e-03,7.903280807664917742e-04,3.908718470484018326e-03
-2.675609192216941712e-01,-2.754420338709857585e-01,-2.616547553586126007e-01,-2.875861019290110697e-03,-7.807911166473452923e-04,9.121465230427878643e-04,1.314072124660015106e-02
-2.647413057320042729e-01,-2.636335226281007471e-01,-2.758767342336851947e-01,-5.273152824253569612e-03,-5.099075279704779959e-03,4.911750177135311944e-03,1.927061378955841064e-02
-2.655631501797998673e-01,-2.676442836397247005e-01,-2.710447317002694367e-01,-1.716234197950405275e-03,-1.267377917106123119e-03,2.294068884470396030e-03,7.239773869514465332e-03
-2.655806776862172924e-01,-2.711763884696575810e-01,-2.673623279761889182e-01,-1.265970672686462465e-03,-1.741961177320515029e-03,2.370344425786415597e-03,7.435293402522802353e-03
-2.866027053231042787e-01,-2.850938845830006119e-01,-2.330564612102765110e-01,4.189894509112904175e-03,5.672578066539893556e-03,3.597863903174709256e-03,5.455931648612022400e-02
-2.661212986425687266e-01,-2.729535410794506900e-01,-2.654175032292184766e-01,-1.284176683218555669e-03,-4.067815084313286620e-04,2.534981253188278564e-04,7.590776775032281876e-03
-2.610005504676140564e-01,-2.840501084947669730e-01,-2.592504881930592364e-01,-2.185538621084467167e-04,3.176265139915955939e-04,-2.494414460336443580e-04,2.398573793470859528e-02
-3.390330394284111204e-01,-3.720733144647369040e-01,-1.040420757426017417e-01,-2.698730654792744904e-02,-2.146450713210550781e-03,2.300826558300126182e-02,2.605062127113342285e-01
-2.666726405882530182e-01,-2.713714536358775020e-01,-2.663900186223364663e-01,-5.536812445135906764e-04,2.900584993676885237e-04,3.670374177297821509e-04,5.006290972232818604e-03
-2.751153256572633765e-01,-2.640798179207324847e-01,-2.656808508583153872e-01,4.948909301858595445e-04,1.532628836887019825e-03,-5.328263693481829219e-05,1.069895550608634949e-02
-2.549160135898371204e-01,-2.859308676829060980e-01,-2.651261516139500340e-01,-1.061490368744880120e-03,1.366103685797726876e-02,-2.962348880124164043e-04,3.623558208346366882e-02
-2.794049012370724561e-01,-2.682494642478018276e-01,-2.578265934063080356e-01,-7.115870484587392616e-03,-5.541390791127350467e-03,1.181385816632730609e-02,3.181322664022445679e-02
-1.951585382159156945e-01,-3.214393113386280199e-01,-2.989503006336486912e-01,3.064427803069324791e-03,3.442408656321691018e-02,-1.302644753563646316e-03,1.311524957418441772e-01
-2.624479119801338411e-01,-2.675054442792958453e-01,-2.749842862104269203e-01,1.498997164776170099e-03,1.125063982015000932e-03,3.618512939756766272e-03,1.300597470253705978e-02
-2.319810398754836578e-01,-2.933206851970878160e-01,-2.812702211741650582e-01,1.337153521676506690e-05,1.042805578146255990e-02,1.567969078255108180e-04,5.911769717931747437e-02
-2.495252326815906863e-01,-2.885982257252903138e-01,-2.612256953763468226e-01,9.167669110986180134e-03,2.118329435115814258e-02,8.083241443940835172e-03,5.477935820817947388e-02
-2.868880468375218373e-01,-2.447003706198460082e-01,-2.733516116529467466e-01,1.311430191653950236e-03,-6.586337984192784396e-04,-3.723219993613013749e-03,3.794749453663825989e-02
-2.455579347872058338e-01,-2.899553503776214902e-01,-2.670348697763393342e-01,-1.578929876717840219e-03,7.415571641331225247e-03,-3.208043065698031916e-03,4.101456701755523682e-02
-2.334644401645740164e-01,-2.907438213577210884e-01,-2.800398869649939892e-01,3.358628203254693137e-04,1.093347550379041890e-02,3.577939725799356412e-03,5.638929829001426697e-02
-2.895995256750776847e-01,-2.847300981180548307e-01,-2.310563302204494962e-01,2.123453859242874740e-03,2.042400348090061320e-03,4.021208165048049954e-03,5.692536383867263794e-02
-2.695923065807652730e-01,-2.627639887626626036e-01,-2.727578264894441884e-01,5.537853283289766344e-03,4.256039506173526360e-03,3.909262167084686518e-03,1.644547656178474426e-02
-2.597278089076154872e-01,-2.856398818506574733e-01,-2.614738166212084991e-01,1.460297338173699487e-03,-6.142118116760727185e-03,-1.052585170915055742e-03,2.742516063153743744e-02
-2.623631842694914562e-01,-2.822696701635790117e-01,-2.619400118908458142e-01,3.422756443603203105e-03,-5.312933097501845725e-03,-3.456142708712387542e-03,2.367558702826499939e-02
-2.602170647526909075e-01,-2.827790752909132288e-01,-2.618289984590548847e-01,5.927683972609325107e-04,-7.197766529392972358e-04,-9.485771803044655125e-04,2.192217856645584106e-02
-2.597319488334673965e-01,-2.839120226872125508e-01,-2.609063941972601941e-01,5.043331645166007930e-04,-4.594878347515816194e-04,-7.319230194814830149e-05,2.364465408027172089e-02
-2.928551784108998635e-01,-2.945741822720345793e-01,-2.166331598230544775e-01,1.681721952701937069e-05,1.282395007157894479e-03,1.671631401264509495e-03,7.718221843242645264e-02
-2.561422627296046639e-01,-2.867024628561988808e-01,-2.621193390307089421e-01,-1.895188886937603564e-04,-2.914877061914766462e-03,-1.184936174302022834e-03,2.857971563935279846e-02
-2.605926195058304029e-01,-2.848040713355809994e-01,-2.596802451852713300e-01,-3.871048603940575129e-05,-7.239925728251326133e-04,-1.595078138274207667e-04,2.471376210451126099e-02
-2.333335625135930791e-01,-2.842524218888063947e-01,-2.878181802208990003e-01,3.497481155370504857e-03,-3.951962101297916072e-03,-4.261297292356340354e-03,5.408360436558723450e-02
-2.642146726845599480e-01,-2.710873317337295640e-01,-2.683797285499471830e-01,1.479807357740936784e-03,9.559808331960869317e-04,2.244926029662371470e-03,7.770868018269538879e-03
-2.676827447332958410e-01,-2.663982034380532049e-01,-2.703421552957896434e-01,-1.475758200303553666e-03,-2.319304079216271894e-03,1.712147369212665450e-03,6.603338755667209625e-03
-2.682162741981082843e-01,-2.672802317938437477e-01,-2.689045032493581067e-01,-4.760224106472210788e-04,-8.588554162740686575e-04,6.188562364083490452e-04,2.456763060763478279e-03
-2.753544390880677817e-01,-2.681983739821117152e-01,-2.607538742751449035e-01,3.562533578179891223e-03,9.608869212067608183e-04,1.308131976444486385e-03,1.434857677668333054e-02
-2.693230166542723292e-01,-2.717659370346531267e-01,-2.635293409323690716e-01,3.458917304493627515e-03,1.033943551066889011e-03,2.103765738956748718e-03,1.029878482222557068e-02
-2.711747633695054671e-01,-2.690678281567925878e-01,-2.651317766435635215e-01,5.217691389493429692e-04,2.883863411195705922e-03,3.555795368102157746e-03,9.587620384991168976e-03
-2.639151607388577903e-01,-2.752890461490767882e-01,-2.649509956939060662e-01,1.931934276645867841e-03,9.451265188992620091e-04,8.677293939324148180e-04,1.161001808941364288e-02
-2.758838611296092203e-01,-2.652193892003742448e-01,-2.625375967985263403e-01,2.305300709847219343e-03,1.243679271482300537e-03,1.551220663953334009e-03,1.331635005772113800e-02
-2.716820321548433226e-01,-2.629773594651919066e-01,-2.696556171876565156e-01,7.484488952427221587e-04,3.513180105813885293e-03,8.842993717255374616e-04,1.016327645629644394e-02
-2.500735270888576056e-01,-2.732604517051235860e-01,-2.828214210548500862e-01,2.348203648251887595e-03,9.435287388652260649e-04,3.355303186396189734e-03,3.006197325885295868e-02
-2.708534770221949772e-01,-2.699296381642536935e-01,-2.628612931642890227e-01,6.252116607651311483e-03,5.076355549889410325e-03,6.750783580122287665e-03,1.971393637359142303e-02
-2.643927457815972715e-01,-2.738316443739454153e-01,-2.656645179838181825e-01,1.639113429245429333e-03,2.506033339711371405e-03,2.875729626367688665e-03,1.141999289393424988e-02
-2.662272696473624856e-01,-2.714020597194207740e-01,-2.664454642206594559e-01,6.414086215411831000e-04,2.215184426743685724e-04,5.672589181107697649e-04,5.295632407069206238e-03
-2.581019889700252867e-01,-2.640079170228682992e-01,-2.823405628374668352e-01,-8.252724546608736916e-03,-4.122647947517541975e-03,7.391934363141835357e-03,2.997449412941932678e-02
-2.764233511708647506e-01,-2.583080406259589679e-01,-2.686922405540164149e-01,-1.370099955815165136e-03,-3.961881874552025846e-03,6.806496059157842024e-04,1.737797446548938751e-02
-2.652608180364166013e-01,-2.738715123668053475e-01,-2.658934136280802774e-01,5.941132031754800839e-04,5.174315335907065045e-04,1.332969095021211857e-03,8.734396658837795258e-03
-2.456777095511000208e-01,-2.919368755645979641e-01,-2.635667311826976333e-01,-9.854607001144525917e-04,-1.853265207227369760e-02,1.034727027796946862e-03,5.166139081120491028e-02
-2.513364303513869191e-01,-2.837772784099377721e-01,-2.802436987664407297e-01,-3.969501757900370520e-02,-4.973959847964502107e-02,3.714536998228700621e-02,1.312964707612991333e-01
-2.672880630604513308e-01,-2.682084540366099779e-01,-2.678822642019448863e-01,-1.432376327309773430e-03,-1.397366630603039117e-03,2.488208873076209419e-03,5.589262582361698151e-03
-2.392815722547665946e-01,-2.727415117597330463e-01,-2.925940246719183069e-01,1.835468576347691616e-02,4.256977082136575649e-03,-1.106870924432740459e-03,5.697963014245033264e-02
-2.625664000048203439e-01,-2.796608347709554354e-01,-2.621633766737794247e-01,-4.464016503734472875e-03,-4.578786654650455860e-03,3.743679516358898104e-03,2.154054678976535797e-02
-2.626875196669377077e-01,-2.623938794691164644e-01,-2.783246325697025236e-01,2.116730138650052637e-03,1.962779872187973753e-03,2.548010845237843117e-03,1.713690347969532013e-02
-2.465731739235258457e-01,-2.835325662387735979e-01,-2.749033281424038688e-01,-2.211141642629499762e-03,-3.117118929445555561e-03,4.710831156255096928e-03,3.509873896837234497e-02
-2.276049187249082895e-01,-2.897128089612089341e-01,-2.861131644832320964e-01,-1.099067959140981494e-03,-4.698641235424335337e-03,9.517506729423438980e-04,6.098650768399238586e-02
-2.472470444408844115e-01,-2.635356397660505445e-01,-3.037714455343810682e-01,-5.549935744813688787e-02,-2.389129802840235864e-02,2.337845235898868002e-02,1.230129972100257874e-01
-2.302800905272471277e-01,-2.878090854155569978e-01,-2.874673692055447205e-01,-2.015280091676700108e-02,-7.747773486188852532e-03,5.925988560585720294e-03,6.923788785934448242e-02
-2.640892136406529089e-01,-2.774507454159065856e-01,-2.627139822366695299e-01,-1.448218757590703743e-03,-6.534548249645850699e-04,5.536790906893080148e-04,1.439755875617265701e-02
-2.651413430402023153e-01,-2.662230908640581539e-01,-2.727540598282600093e-01,-3.698360966916329593e-04,4.270218450083175803e-04,-1.411472401465798526e-03,7.604126352816820145e-03
-2.679143301796318433e-01,-2.674346132092231820e-01,-2.691577832736835596e-01,-3.618955463153758489e-04,5.770126197286994671e-04,-1.404530969551842835e-05,1.940396148711442947e-03
-2.992827533512930072e-01,-2.724529363499274548e-01,-2.379247258738629855e-01,-6.583415089498431032e-04,2.110420954214734576e-03,1.913587949527885065e-02,6.286198645830154419e-02
-2.872161506280207499e-01,-2.737402134927043873e-01,-2.431298800583280573e-01,2.490477183503142858e-03,4.903429997082108015e-04,3.910948765647826418e-03,3.995386883616447449e-02
-2.672750148416450089e-01,-2.658452780416051819e-01,-2.707553141413959752e-01,-9.777048306865835682e-04,1.874458713916340828e-03,-1.063998138944265842e-03,5.994774866849184036e-03
-2.467019804938465344e-01,-2.658424810736965682e-01,-2.878104019994985330e-01,-1.820111631585362780e-02,6.316815366478685870e-03,-6.749828044735223589e-03,5.019615590572357178e-02
-2.335866427363325337e-01,-2.779027887183275203e-01,-2.915175637957772015e-01,-1.010730299089895520e-02,2.488844366362711908e-03,-3.666328092153068978e-03,5.583922192454338074e-02
-2.213547560297929873e-01,-2.827300830539535847e-01,-2.967440586296383742e-01,-3.066780636924547332e-02,5.391019701683081797e-03,-1.762669313370655941e-03,8.798572421073913574e-02
-2.781541551944364254e-01,-2.608512113287169698e-01,-2.649081045781455090e-01,1.556705193143448091e-03,2.711144501283258360e-03,2.473450006179483008e-03,1.712684519588947296e-02
-2.885148249650277830e-01,-2.240440468753224779e-01,-2.872310642412707615e-01,1.864987116687737492e-02,-8.092017493771617304e-03,-2.011116938544636745e-02,8.079998195171356201e-02
-3.643989291503537120e-01,-2.648941575144981853e-01,-2.095417605589008081e-01,-3.410003267838228325e-02,-4.180262533680888237e-02,1.345325374372774718e-01,2.854833602905273438e-01
-3.273935493581284772e-01,-2.124421328030598188e-01,-2.729689759703952667e-01,-4.031527176501383675e-02,-7.267494794856640961e-02,9.613060215639933348e-02,2.415861487388610840e-01
-2.826758831588155330e-01,-2.836507443376130033e-01,-2.394425759531157716e-01,-3.503831972589858262e-03,3.279624022807791327e-03,-3.055486943616623693e-03,4.482546076178550720e-02
-2.444463569194944008e-01,-2.869489920811461592e-01,-2.735519819104437200e-01,6.582682736754877015e-04,-3.499831830878649859e-03,-2.494375948947488361e-03,3.838304057717323303e-02
-3.185310655730522744e-01,-3.469750622509095717e-01,-1.657263591164210015e-01,-4.171462457764287673e-02,1.238005564575435646e-01,-9.294215575078237923e-02,3.249915540218353271e-01
-2.414696987348026458e-01,-2.673439901781133332e-01,-3.052503245972245649e-01,-4.874817431704472209e-02,2.651852984011328004e-02,-2.163535840983758438e-02,1.171763017773628235e-01
-2.702859845890117629e-01,-2.633463695361683565e-01,-2.719274019298407730e-01,4.641882316908657255e-03,5.045009710542235765e-03,4.590171274293565820e-03,1.632329449057579041e-02
-2.950562147877796582e-01,-2.130474707175759319e-01,-2.942657810139363561e-01,1.956375380158806559e-03,1.116608513314790250e-03,1.227794326578860893e-03,8.173727244138717651e-02
-2.858429887559362781e-01,-3.046088428314052132e-01,-2.063680208412102535e-01,7.666278482401422956e-03,-3.425675596322581840e-02,-1.486130233603408929e-02,1.118897199630737305e-01
-1.596406557500975598e-01,-2.910709361425232178e-01,-3.396441330821847182e-01,8.976567432248980238e-02,3.051039715533882674e-02,1.609360040635003999e-02,2.318632304668426514e-01
-2.994593007114627614e-01,-3.020077990686653724e-01,-2.060540537554139962e-01,-7.567047969797324400e-03,-2.188617755385957250e-02,-3.004781230092908040e-02,1.152670234441757202e-01
-2.999280675763186799e-01,-2.897093258991979003e-01,-2.136196526907210846e-01,3.355488486520524609e-03,5.616077778805157218e-03,1.144680101945120057e-02,8.481207489967346191e-02
-2.856044142314507761e-01,-2.660405778325261039e-01,-2.541273921707685179e-01,-4.130219027945006304e-04,9.413971795605418497e-04,1.320359004290632028e-02,3.583168983459472656e-02
-2.616475306241317633e-01,-2.805108012452215416e-01,-2.617517508036517615e-01,3.412429799526194626e-03,5.847264335371446346e-03,4.629931518346285489e-03,2.357291243970394135e-02
-2.958067765297872076e-01,-2.960311976484795160e-01,-2.092774039839205846e-01,2.529913240876210424e-04,-2.250337368154439049e-03,1.104581508743967405e-03,8.675163239240646362e-02
-2.952329986820165231e-01,-2.935369075280280793e-01,-2.185647909896805130e-01,5.537710794587497954e-04,-6.545087031383586698e-04,-6.909634723162579734e-03,7.678729295730590820e-02
-2.746575691217598147e-01,-2.740362228654032450e-01,-2.558212816079316054e-01,4.768542214960307113e-03,2.088371865077166042e-03,2.205689523304281245e-03,2.096148952841758728e-02
-2.459931561375828246e-01,-2.948606641223370239e-01,-2.408665264709630160e-01,5.617148402393758178e-02,8.785274893427003073e-02,4.746730400290111174e-02,2.050470709800720215e-01
-2.943314861898383983e-01,-2.862315403922761625e-01,-2.152208224114147417e-01,8.789346875109321777e-03,-1.890115484129251816e-02,-2.683854333027244077e-02,9.564390033483505249e-02
-2.739061759982492350e-01,-2.830165011588186563e-01,-2.488748406569127325e-01,3.319791185302263005e-03,2.574676431398129160e-03,1.081675754729210593e-03,3.152886405587196350e-02
-2.829182430083930222e-01,-2.831112681198134640e-01,-2.395957918888722282e-01,4.060174961062254680e-03,2.987488547850533117e-03,2.810825419725915351e-03,4.455521330237388611e-02
-2.910881470207326571e-01,-2.844718501974419222e-01,-2.305959478884178349e-01,1.067522232567998065e-03,1.401924895589235507e-03,3.961751179402185283e-03,5.795902386307716370e-02
-2.965663050953482038e-01,-2.853120703302200467e-01,-2.206428170791082111e-01,4.134294766159856208e-03,1.507418126385129745e-03,-3.959372482797264038e-03,7.170562446117401123e-02
-2.835705954128728834e-01,-2.882545162437786246e-01,-2.342975181686596797e-01,3.863030058966166087e-03,-8.062846838211498723e-03,-1.306285218370122937e-02,5.858564749360084534e-02
-2.445379273338476600e-01,-2.843852316516977119e-01,-2.738756176992911961e-01,3.025581970789436529e-03,6.569274035125033905e-03,5.339236573221205553e-03,3.901192918419837952e-02
-2.577521156700228744e-01,-2.837867440525508322e-01,-2.662610357830886287e-01,6.040045523960976999e-03,9.548122122840410619e-03,4.538426990054282399e-03,3.119960427284240723e-02
-2.802185498976509925e-01,-2.892685523667054004e-01,-2.365464944966358118e-01,3.558395193116639221e-03,2.139506199939164577e-02,9.519846231137735898e-04,6.163062900304794312e-02
-2.764621553126406783e-01,-2.862863092240734431e-01,-2.451177417336684872e-01,-3.072874081513296291e-03,1.465565182593015284e-02,-5.422554576127675517e-03,4.634461179375648499e-02
-2.677651763281725938e-01,-2.752857447481815156e-01,-2.610295616550215025e-01,3.822756300817083119e-03,1.717589957501491774e-03,1.066480327577710042e-03,1.444596797227859497e-02
-2.473719248135727300e-01,-2.792294983425347987e-01,-2.744497177208335414e-01,6.121496436938556225e-03,7.287799406813552650e-03,6.967860313817132202e-03,3.609551861882209778e-02
-2.678764111283298832e-01,-2.812868627055238324e-01,-2.547219916210538559e-01,2.780496859281778033e-03,2.523708323383806653e-03,7.034271003725224266e-04,2.393889985978603363e-02
-2.658961093047541580e-01,-2.845868968360559248e-01,-2.542340155381785927e-01,1.339094853420873124e-03,1.535541412792785490e-03,4.627309403508595266e-04,2.676600962877273560e-02
-2.901424445154038856e-01,-2.275741045553203723e-01,-2.860791622624661024e-01,1.343183858214551689e-03,1.499716127231894838e-03,3.816927154747485999e-03,6.109780073165893555e-02
-2.550001200270179402e-01,-2.784809730840358544e-01,-2.688505060731423701e-01,1.791385952521235437e-03,4.401476735574690220e-03,3.804583539718190549e-03,2.300294674932956696e-02
-2.611239144982913096e-01,-2.756930415664832212e-01,-2.697768409123439959e-01,5.409620251809824261e-03,6.479645842265783183e-03,5.091632982268743356e-03,2.127417735755443573e-02
-2.488360366613351082e-01,-2.857467382460883165e-01,-2.684270987151395338e-01,2.911908587847693210e-03,5.358609376881670258e-03,5.441680660532243440e-03,3.497866541147232056e-02
-2.669780614760402515e-01,-2.681212012429989855e-01,-2.688799967406972913e-01,9.450966847948931871e-04,8.845090735945735890e-04,2.019607419672620960e-03,4.473598208278417587e-03
-2.778621106586713907e-01,-2.657670946558386427e-01,-2.611565525856914260e-01,-3.529920663068354322e-03,-1.027649642522064036e-03,2.109440158802167783e-03,1.664960943162441254e-02
-2.710931872153561351e-01,-2.659771909046579896e-01,-2.678919348309495296e-01,-7.447864968961478115e-04,-2.403772858389567309e-04,7.733260032587206201e-04,4.865737631916999817e-03
-2.689405582085866442e-01,-2.919869611639581697e-01,-2.478794460831556523e-01,-8.265524065935381942e-03,-2.861505438464241602e-02,9.910169660011272988e-03,6.645408272743225098e-02
-2.747624501000727748e-01,-2.710629425663099168e-01,-2.597020634616815649e-01,-4.259036650746322178e-03,-1.895673387599940488e-03,2.696749811084749298e-03,1.648641563951969147e-02
-2.772831599435434669e-01,-2.627519261489278390e-01,-2.639633009477831416e-01,-1.674867981517749694e-03,-3.220134285773014558e-03,3.172113399596167629e-03,1.627057604491710663e-02
-2.618059842139449644e-01,-2.807565642604871181e-01,-2.618172755015314990e-01,-5.317366060740159450e-04,6.572165805781601908e-05,7.340856725177108888e-04,1.901021972298622131e-02
-2.773013634571241393e-01,-2.642120482154073358e-01,-2.627905069688657447e-01,-1.694207847763867878e-03,-7.935911026364182025e-04,6.905898296813481720e-04,1.427897345274686813e-02
-2.534470280150301624e-01,-2.769781609917584819e-01,-2.744001772078549783e-01,4.679812097597069523e-03,-1.959343264201515375e-03,-5.407780318294221761e-03,2.578078024089336395e-02
-2.750500655468440803e-01,-2.644637308119712760e-01,-2.657925214541285719e-01,-5.961657606669347768e-04,-5.157517795092962523e-04,7.700110959774309968e-04,1.016917545348405838e-02
-2.766057052616819334e-01,-2.605020929716140854e-01,-2.677312837368493459e-01,-1.882857567464321126e-03,-4.891307609163135853e-03,2.742383104127603388e-03,1.732465252280235291e-02
-2.584279290782882099e-01,-2.609935526397958450e-01,-2.841839212344847709e-01,3.232727570350220955e-03,-9.879018523636807353e-04,-1.573199426742120976e-03,2.540822140872478485e-02
-2.635444385009301227e-01,-2.627384255169946670e-01,-2.786472320550381077e-01,-4.349856366187365513e-04,-1.684577814604353192e-03,8.228883738146054901e-04,1.587543822824954987e-02
-2.833457937864077847e-01,-2.844159556073668216e-01,-2.370607376933945298e-01,-4.332255692884884150e-03,-3.457401205669531456e-03,3.443893094617393735e-03,4.817397147417068481e-02
-2.628187333201137954e-01,-2.632723749852771689e-01,-2.786436962478193724e-01,-2.026798008485905837e-04,-8.604270280995890419e-04,1.630375195231325777e-03,1.593031734228134155e-02
-2.617232085705878952e-01,-2.628168719798436026e-01,-2.790604300598951704e-01,-2.067783408260875748e-03,-1.568109251088500291e-03,2.592755486709687716e-03,1.797736063599586487e-02
-2.658842333436641225e-01,-2.807914021312015174e-01,-2.581372837782026086e-01,-2.301583156820306581e-03,-1.115962147253371896e-03,1.158842795522874777e-03,2.052756026387214661e-02
-2.579698529354949588e-01,-2.625720934228774617e-01,-2.834931889685857742e-01,-2.043819232291044577e-03,-1.167911533145135888e-03,2.104820309508771345e-03,2.418824471533298492e-02
-3.349727511465633856e-01,-3.372042059305386252e-01,-1.271569869862157476e-01,1.250112178587371031e-02,4.587634135340481339e-02,6.636981331626384817e-02,2.522968649864196777e-01
-3.113398668260268787e-01,-2.584275184716192664e-01,-2.363447746766788593e-01,2.447319403436941376e-02,8.086700114984692392e-03,4.530984278867001419e-02,1.122842580080032349e-01
-3.177609321791013963e-01,-2.637949223155204304e-01,-2.269784670871177745e-01,-1.156675995446825207e-02,-3.100487073837071301e-03,4.756327514121599237e-02,1.160673201084136963e-01
-2.689492013094104683e-01,-2.680734874690190450e-01,-2.673185071502925947e-01,-1.033168871261074895e-03,-6.499226533419828799e-04,5.121302187022810752e-04,2.693392103537917137e-03
-2.734497590971236014e-01,-2.815787735655153057e-01,-2.504890668618305893e-01,-3.661124706632041918e-03,-2.857954177450400084e-03,2.003711302536894875e-03,2.926912717521190643e-02
-2.897580612604027106e-01,-2.432098674953297457e-01,-2.728452299164235151e-01,1.576210257451983392e-05,6.678984815381130893e-04,-4.058604568696611882e-03,4.142791777849197388e-02
-2.844449482447205524e-01,-2.897369483031012605e-01,-2.308066496331384054e-01,2.038215577640297479e-03,5.091473335937984901e-03,1.675986876792151005e-03,5.733746662735939026e-02
-3.227328993476653585e-01,-2.764910398127472524e-01,-2.198306672107644966e-01,1.761972685882173860e-03,-1.146431816827307888e-02,5.800710826230716377e-02,1.358928531408309937e-01
-3.211417506319749204e-01,-2.804438967333425237e-01,-2.048665943333849992e-01,8.897778066461284677e-03,1.657626763582661575e-02,6.768200363161709643e-02,1.588976681232452393e-01
-2.741314471684322407e-01,-2.865714817257850044e-01,-2.444804181072405547e-01,2.421772260118212113e-03,-3.169802707242545120e-03,-1.153060719371355909e-03,3.813822567462921143e-02
-2.674233251471573314e-01,-2.658005047944787536e-01,-2.708859121476620002e-01,1.116055781202321276e-03,1.709103768487148277e-03,7.897006726382434488e-04,5.883276462554931641e-03
-2.835307908722393133e-01,-2.840425534487545089e-01,-2.390201208073157724e-01,2.733171155653817911e-03,2.590153921771036222e-03,2.304644707278485569e-03,4.541708901524543762e-02
-3.185565379604757830e-01,-3.068477616851957857e-01,-1.807699335948925734e-01,-5.264239608272038191e-03,1.228010061864994937e-02,5.221862131190276729e-02,1.619407981634140015e-01
-3.359010444835847098e-01,-3.404522311093382547e-01,-1.161166207778852877e-01,6.225680100802816544e-03,1.741021280640052057e-02,6.892406354189027640e-02,2.541719675064086914e-01
-3.275893300305667277e-01,-3.512184244001385069e-01,-1.375811664777339960e-01,5.143413796964054104e-03,5.944460285406955036e-02,1.011948603531999807e-01,2.873198688030242920e-01
-2.788106632966321219e-01,-2.636213142067813653e-01,-2.624110395750365310e-01,1.626740056513768058e-03,5.954800200965140906e-04,4.486087803580436715e-04,1.612981036305427551e-02
-3.251118451481573857e-01,-2.898125106250922234e-01,-2.005313659549618210e-01,2.217943261047980799e-02,2.927506654032002720e-02,5.877300506328476948e-02,1.636410653591156006e-01
-2.669507777208095511e-01,-2.881519359736433583e-01,-2.478382309050977672e-01,1.561836076709249236e-03,6.050768148321762629e-03,1.141923220295122188e-03,3.662037849426269531e-02
-2.935121880926525040e-01,-2.943152140517690807e-01,-2.165581522459777974e-01,-7.106869763150820349e-04,2.100421293602711473e-03,-8.378490376363112706e-04,7.746754586696624756e-02
-3.352210084145349489e-01,-2.663235467807166801e-01,-1.858205951612605933e-01,7.671847606899108094e-03,-8.514323874179785057e-04,9.550384826195697230e-02,2.105130255222320557e-01
-3.260061986926076072e-01,-3.425981285398866372e-01,-1.265714093837174148e-01,1.030023639952093104e-02,-6.986266648748463981e-02,-7.174578032146950932e-03,2.418131977319717407e-01
-2.783329712081307750e-01,-2.775385988980185181e-01,-2.475789394760272988e-01,-7.102180702551712591e-03,4.006165724217359593e-03,-4.470445155867013715e-03,3.437203913927078247e-02
-2.859689203696529902e-01,-2.269835153759843238e-01,-2.905421309369327076e-01,5.029217802248016171e-03,-9.748756154357802930e-04,-2.905446042957175474e-03,6.224146485328674316e-02
-2.281669661902014090e-01,-2.925771076062205767e-01,-2.850090215796505233e-01,-1.516767983098764533e-03,3.893144174580089392e-03,-2.272212470563350021e-03,6.153324991464614868e-02
-2.891244276832419247e-01,-2.919719591270632519e-01,-2.275932205590584789e-01,8.931843730081412067e-03,-1.547210658936362324e-02,-1.789196640416574127e-02,7.672853767871856689e-02
-2.547851889614390908e-01,-2.887144031618308904e-01,-2.569816674101899623e-01,-1.165740185354091629e-03,1.349311581170070835e-02,-2.201493176795876663e-03,4.057462885975837708e-02
-3.192928741230297018e-01,-3.210061298955063092e-01,-1.689240633507292921e-01,-1.151816264962139853e-03,2.733631173071927271e-03,-9.869386363495005754e-03,1.522824615240097046e-01
-2.857227312193100777e-01,-2.678585434774898855e-01,-2.476983002800418610e-01,-1.029641317071347539e-02,9.894125316574435211e-03,-1.566430155499481947e-02,4.933103919029235840e-02
-2.926111129860040072e-01,-2.956268693981153328e-01,-2.193978070923891244e-01,9.524577329350467254e-04,-3.095601212993007688e-03,1.109662675324319704e-02,7.740123569965362549e-02
-2.757350404301288083e-01,-2.642418767140463642e-01,-2.639447078617697118e-01,-8.066739054691150984e-04,1.876684310372011937e-03,-6.763112555911362242e-04,1.222647633403539658e-02
-2.858473273366984313e-01,-2.906634387202913228e-01,-2.274456464972121617e-01,-5.412857052994005536e-04,4.558954093797093834e-03,-1.945597859105828008e-03,6.156141310930252075e-02
-3.331226831789859122e-01,-3.193483859095982424e-01,-1.323021369869133435e-01,3.373587143641353960e-03,-1.188440699567015930e-02,-5.125123087381976833e-02,2.146867215633392334e-01
-2.615855472414236327e-01,-2.811209134257386388e-01,-2.614688786145860644e-01,1.430283118833719632e-03,6.218739287804931617e-04,7.600652800943854918e-04,1.982305943965911865e-02
-2.007413058353051949e-01,-3.030381791769297117e-01,-3.057656133732588044e-01,-1.211046260484351274e-02,2.503609419494047528e-02,1.284921719611710565e-03,1.143523454666137695e-01
-2.872323317423842171e-01,-2.430900425038998169e-01,-2.735330724256511137e-01,6.443502194323055734e-04,7.005361896680175953e-04,3.458600992432126972e-03,3.962446749210357666e-02
-2.203231718716657794e-01,-2.955292509210374896e-01,-2.913042279197467499e-01,-4.754480728133786069e-03,2.656330183426818588e-03,-5.432190402731960780e-04,7.379651814699172974e-02
-2.199349577861003657e-01,-2.933744528668639218e-01,-2.918231156158338502e-01,-2.870775513357507109e-04,6.458258941548486454e-03,-1.834399293469204408e-04,7.353442907333374023e-02
-2.691088827750601764e-01,-2.749608824943365337e-01,-2.606545587308057854e-01,2.942237115662770918e-03,1.718769573668202984e-03,1.067057806807030418e-03,1.390844397246837616e-02
-2.664676802642382825e-01,-2.824528395294102490e-01,-2.548112935978527616e-01,2.990279359762501674e-03,2.154991173586318261e-03,9.682711859565953233e-04,2.492580562829971313e-02
-2.190077907491175258e-01,-2.953075140286322564e-01,-2.944286979544846194e-01,4.858642692073461729e-03,-6.556442557737207980e-03,-3.917115811299776260e-04,7.717257738113403320e-02
-1.981953219446658532e-01,-3.013288222872059219e-01,-3.002374959068905280e-01,-1.438109693666432889e-02,-8.394479365412156960e-03,1.876698857064270677e-03,1.066188216209411621e-01
-1.428845832313114794e-01,-3.545508035362358035e-01,-3.168270825867045004e-01,-8.247626064740571500e-03,3.280156575093747667e-02,-1.524372959437050173e-02,2.058393657207489014e-01
-2.148311458637574833e-01,-2.939012128538616708e-01,-2.965725171576653607e-01,-1.375431267031908681e-05,-2.923551021310647835e-04,-7.070154551834590328e-04,8.044990897178649902e-02
-2.095481671036652505e-01,-3.000686884870273907e-01,-2.971876523973170370e-01,-2.101146204026338275e-03,-1.974719031678145130e-03,1.044103157550500642e-03,8.927309513092041016e-02
-2.681937090223762699e-01,-2.632442158369930341e-01,-2.740932971444697275e-01,1.199733312423390246e-03,-3.427852148224794747e-03,1.220854715777631885e-04,1.131882984191179276e-02
-2.701769662293590502e-01,-2.674266592194045056e-01,-2.669118478462271238e-01,-2.079257204973932512e-03,-1.694424645312629218e-03,1.294307289064434031e-03,5.987817421555519104e-03
-2.614571502035182293e-01,-2.836462983939615490e-01,-2.596993689284593509e-01,2.682613860521674458e-04,-1.105086266521206713e-03,2.250071362460910379e-06,2.320196852087974548e-02
-2.524605560835140872e-01,-2.657432108674464000e-01,-2.886496374920332619e-01,1.188359324427787356e-02,-1.883048415368055936e-03,-1.388854622263954904e-03,3.801940381526947021e-02
-2.634090163724109868e-01,-2.719410367757409963e-01,-2.698636177807066105e-01,-4.159698794058126411e-03,-5.296002654003080165e-03,3.842471748287417353e-03,1.548329554498195648e-02
-2.564789063026874372e-01,-2.703206101141309992e-01,-2.791220592649136245e-01,-9.386685585384735991e-03,-1.055451306965019508e-02,1.265606602075052857e-02,3.833974525332450867e-02
-2.660724737579655552e-01,-2.717801456448566411e-01,-2.662429306992335487e-01,-1.019563057837675427e-03,2.808401646136167445e-08,8.116522384789339210e-04,6.060406565666198730e-03
-2.659319410529833450e-01,-2.710614226391719894e-01,-2.673443346812823251e-01,-3.903830133354941733e-04,6.700711138667635137e-04,5.368709762417753001e-04,4.871392622590065002e-03
-2.652958976483935083e-01,-2.860943338342549214e-01,-2.544317531018284173e-01,-2.147732288174693596e-03,-1.921325332063789429e-03,7.186076810123236949e-04,2.833767421543598175e-02
-3.193880512857763532e-01,-2.981967934477353088e-01,-1.874810290194787177e-01,-6.585499792955539639e-03,3.336567466585302431e-03,1.556940906500034125e-02,1.262694746255874634e-01
-2.726941645612882548e-01,-2.659031672166692895e-01,-2.650958342942335566e-01,-2.528964142202844417e-03,-1.250235030684563979e-03,1.488840928123950479e-03,9.098253212869167328e-03
-2.677877656967265207e-01,-2.705933117270624688e-01,-2.663228713862151875e-01,-1.976971869450537284e-03,-5.779244737358713371e-04,9.701355227451527279e-04,5.447711795568466187e-03
-2.676740996214365675e-01,-2.704068899971672768e-01,-2.669450094397423090e-01,-1.333400998128534895e-03,1.461110011420620961e-04,5.998333042996178673e-04,4.058261401951313019e-03
-2.942453003437302539e-01,-2.945996300424276737e-01,-2.150367652927650530e-01,-1.416435262306101387e-04,-9.266805395140942456e-04,-2.316153600724205671e-03,7.950417697429656982e-02
-2.642640413885562478e-01,-2.546697227385110729e-01,-2.893241953938283650e-01,1.276524626888445035e-02,1.364032269942123173e-03,1.120193980276809609e-03,3.819290548563003540e-02
-2.539797622108718178e-01,-2.649022722093935522e-01,-2.889384173827758140e-01,1.126902448178179229e-02,2.837187384286677262e-03,1.134065201661169444e-04,3.694228827953338623e-02
-2.751259487687090499e-01,-2.874898959612277594e-01,-2.407587478837132644e-01,-1.038813051339613960e-03,-4.204614426429421903e-03,4.544272699489415417e-04,4.261196032166481018e-02
-2.616126990281818498e-01,-2.824870056127064544e-01,-2.622437699554092672e-01,2.217700106296906139e-03,-3.762220864478016229e-03,-2.397948212595841545e-03,2.230313234031200409e-02
-2.427658774386988183e-01,-2.743964269989713212e-01,-2.908578825652497479e-01,1.476808680864988635e-02,1.594098767746587528e-02,7.765638690908306316e-03,5.822117999196052551e-02
-2.363879521356214430e-01,-2.792374315728697876e-01,-2.885789773425712079e-01,1.542131905602687342e-02,9.688359092681269463e-03,6.965583065757981543e-03,5.885766819119453430e-02
-2.776156213603603873e-01,-2.781883737426609216e-01,-2.513421286484414097e-01,8.742209232825124549e-03,-1.352369447212858726e-02,-8.192686818761665477e-03,4.104854166507720947e-02
-2.847030207756374165e-01,-2.298367467354833216e-01,-2.902803246310184937e-01,-4.006659559949912915e-03,1.805824682276031389e-03,-1.699491520680820314e-03,5.842968448996543884e-02
-2.936552731011353168e-01,-2.939195210152831250e-01,-2.155140036228542222e-01,9.437494668837604055e-04,-8.939353027118844205e-04,-2.280162225270631650e-03,7.840563356876373291e-02
-2.418845952005215239e-01,-2.479050936755592405e-01,-3.121972841315603375e-01,4.322582504290506389e-02,1.242989281481676582e-02,1.259442359189125692e-02,1.053640544414520264e-01
-2.628084558751584421e-01,-2.777082937523373540e-01,-2.637985725020907113e-01,1.853235333201916531e-05,3.895635295073947963e-04,1.443753600352209229e-03,1.466091722249984741e-02
-2.465818937115801801e-01,-2.666654260300893031e-01,-2.903506979438189028e-01,6.564461627887618368e-03,-4.141446501258356236e-04,1.330196571110122588e-03,3.968782722949981689e-02
-2.451414704893416507e-01,-2.641092961697700248e-01,-2.934160151523786397e-01,1.986968704789468868e-02,2.827428350224538492e-03,2.072258659930372934e-03,5.473414063453674316e-02
-3.056112531586653303e-01,-2.028781484117165024e-01,-3.070948600749835999e-01,1.963286251764744320e-02,5.247084741029546702e-03,1.824215772805287683e-02,1.137804016470909119e-01
-2.624081251405825932e-01,-2.847232976394878934e-01,-2.573477193339285263e-01,8.318296809327105747e-04,1.678681647469059931e-03,9.023175454417719631e-04,2.548471465706825256e-02
-2.757306326735874946e-01,-2.641655426692657294e-01,-2.640111205845150355e-01,1.606522612361179544e-03,8.315134379549217643e-04,4.362522114506510256e-04,1.208093483000993729e-02
-2.989104083081140506e-01,-2.051741996817295632e-01,-2.970124592650105200e-01,9.271949971721461792e-03,-5.921850584058573628e-04,1.328530990934822555e-02,9.695684909820556641e-02
-2.859050155622259726e-01,-2.856997047561003478e-01,-2.318996398313220575e-01,2.843275640337840620e-03,-2.439136305643397479e-03,-3.178405945695563558e-03,5.457052588462829590e-02
-3.132422343097561734e-01,-1.108776296180124521e-01,-3.901471496191590838e-01,8.074075114455983582e-02,-1.150798278524044378e-02,2.898434867644025803e-02,2.913818955421447754e-01
-2.960637153332636440e-01,-2.217101992309598868e-01,-2.893029604635318219e-01,5.309301920996875764e-03,-2.461801316539072629e-04,9.228209566228511365e-03,7.356422394514083862e-02
-2.911445575661967822e-01,-2.654030789904818777e-01,-2.477122280411793720e-01,1.605005221663872430e-03,2.060366091678411877e-04,-5.143157378307671411e-03,3.896396234631538391e-02
-2.949953387430172547e-01,-2.150873838531585092e-01,-2.933016131372222501e-01,-1.635980913778133441e-03,-3.981340077845052115e-04,1.249938646953213574e-03,7.915806770324707031e-02
-2.741510289591873595e-01,-2.894552044131124546e-01,-2.418846888203430856e-01,6.630552352298819735e-04,3.959954804610118888e-03,2.975101257441396178e-04,4.263534396886825562e-02
-2.718560220881161005e-01,-2.662730627694455676e-01,-2.660726076669899798e-01,3.717147492210306874e-04,9.751380203708633759e-04,-4.512101067174642785e-08,5.966234020888805389e-03
-2.934992279561353667e-01,-2.184096794282144594e-01,-2.885285905805888840e-01,1.479971413847238140e-02,4.961566380931784100e-03,1.905108936008828927e-02,8.431893587112426758e-02
-2.943332142925514372e-01,-2.226736046517375778e-01,-2.859790863793483795e-01,-1.091877144922530135e-03,4.611627512509331936e-03,2.722853414063754977e-03,6.852632761001586914e-02
-2.848529531669626857e-01,-2.344396961009683200e-01,-2.872603212739672784e-01,6.007525448122150169e-03,4.925604785579046352e-03,1.042494903764012125e-02,5.635378882288932800e-02
-2.891541569770725295e-01,-2.158503178296445890e-01,-3.002595505830322198e-01,7.807948120464215311e-03,2.114691544084508056e-03,2.633525615005363751e-03,8.079582452774047852e-02
-2.586156751532799891e-01,-2.445695230799976028e-01,-2.893896024981470472e-01,7.607136204967492044e-02,-5.171360858956255274e-02,-6.311816381039757340e-02,1.972605884075164795e-01
-2.605058927774145938e-01,-2.843395738899973657e-01,-2.603041754409027297e-01,3.717110271388801384e-05,6.992865826935347256e-04,1.274163144567201991e-04,2.396690472960472107e-02
-2.531121923167109489e-01,-2.863880877789212187e-01,-2.655550262006361462e-01,-3.183215165099307904e-04,3.017818795271229315e-03,-1.675820351921435093e-03,2.973404899239540100e-02
-2.616366205490956998e-01,-2.843724334818935051e-01,-2.588973059873644900e-01,-1.047596899941578103e-03,3.177277621044226623e-04,-2.494888904180110460e-04,2.429986745119094849e-02
-2.964215894791109029e-01,-2.133790083991153053e-01,-2.986467337136181066e-01,7.336581973136338877e-03,3.463814128370750617e-03,2.715343569196291065e-03,8.547159284353256226e-02
-3.148710660133945960e-01,-2.914210284312249710e-01,-1.917137183239316367e-01,-3.487805270878489156e-02,6.832386302929042976e-02,-7.824536336834769790e-02,2.210214734077453613e-01
-3.257297031752355854e-01,-1.904414164202800908e-01,-2.773872270254107431e-01,-4.963859672706628923e-02,4.437341988014578686e-02,-9.156615520930247443e-02,2.292417883872985840e-01
-2.925568934725895631e-01,-2.301315186136518032e-01,-2.866499854799098301e-01,3.575636442245679406e-03,1.781865710273039700e-03,1.009723964819513563e-02,6.258451193571090698e-02
-2.646428750433121868e-01,-2.867302987172685169e-01,-2.540606333026628749e-01,4.806341033362255015e-04,2.126719957995918276e-03,1.785437479638885537e-04,2.911923825740814209e-02
-2.842023075784711472e-01,-2.517852027932474535e-01,-2.673450188156100138e-01,-2.408466293955928775e-03,4.049786513472388404e-03,-4.251728089989081916e-03,3.015639819204807281e-02
-2.913303308582347873e-01,-2.432782803731478039e-01,-2.654473048377593014e-01,-4.783060362738682410e-03,5.354935665484343750e-03,-2.141476048695017606e-02,5.714571848511695862e-02
-2.610893091026388335e-01,-2.611100653556351903e-01,-2.834016771967855508e-01,5.361036665698153692e-08,1.222438575564710646e-03,1.308222626411033231e-03,2.251658216118812561e-02
-3.411445726901450870e-01,-2.562491053688062959e-01,-1.767219740088486479e-01,8.043129904217110465e-03,-8.260975568952715065e-03,-1.024235226171571617e-01,2.283721566200256348e-01
-3.177944542786848015e-01,-2.689396213084359055e-01,-2.285930669388198111e-01,6.187356429007541056e-03,-5.130539317702220367e-03,-5.116435846111930252e-02,1.184607744216918945e-01
-2.643120273242398621e-01,-2.750309401607156090e-01,-2.659287302483246407e-01,6.253764873146712248e-04,-1.140498909949284097e-03,-5.520104662762191552e-04,1.030384283512830734e-02
-2.711395598943662777e-01,-2.668675807916632281e-01,-2.663005488307655932e-01,5.739714361696583852e-04,-4.881231452067234106e-04,3.273372420533521613e-04,4.797733854502439499e-03
-3.238039107834079777e-01,-2.810056903816250951e-01,-1.869990379615475429e-01,-2.501421043665280619e-02,5.002811303117010028e-02,-9.198005603343538394e-02,2.223933786153793335e-01
-2.610999495384149771e-01,-2.852339895700103933e-01,-2.579656019868978301e-01,8.363176678399132224e-05,-2.797503892777759068e-03,-2.192494327052173339e-04,2.629760093986988068e-02
-2.934985344594892021e-01,-2.701197394772264504e-01,-2.455984329122890553e-01,-5.177347268952252508e-03,1.062132880561072676e-02,-2.276708225587627601e-02,6.078662723302841187e-02
-2.517841220378877476e-01,-2.637471053513997798e-01,-2.865157212568853473e-01,1.765467383230507128e-02,-9.395587979207279880e-03,-8.055530214962433253e-03,4.825424030423164368e-02
-2.848043970095786026e-01,-2.586357247046435215e-01,-2.613284342728577347e-01,1.133810116191172421e-03,-1.053153218474980326e-03,-2.830635074391149673e-03,2.555008605122566223e-02
-2.637548107503620010e-01,-2.789356216540033184e-01,-2.598392719282815455e-01,6.379958507191361636e-03,-8.453242448689298957e-03,-5.807508020692428094e-03,2.725609019398689270e-02
-2.862888085341920852e-01,-2.520683013208737111e-01,-2.653533473962281786e-01,2.655123580224515688e-03,-1.414877844598083027e-03,-5.682275576548333901e-03,3.188940137624740601e-02
-2.735780392096932578e-01,-2.617511190363008278e-01,-2.697609451386136503e-01,4.255100647302116797e-03,-6.391331298470831479e-03,-7.129790104184100148e-03,2.094441466033458710e-02
-2.689542389100621489e-01,-2.749897434282284614e-01,-2.615973948366347446e-01,2.523066202504677114e-03,-1.388817938821820287e-03,-1.168944095848951925e-03,1.280375197529792786e-02
-3.155224801615656993e-01,-2.930695437324628561e-01,-1.995171372702650436e-01,-5.892518642411479282e-03,-3.429254666047767269e-02,-1.464915375320476054e-02,1.250304281711578369e-01
-2.782501850174512459e-01,-2.785164923942018422e-01,-2.460379690410464670e-01,7.367837495735872835e-03,-7.312664688739421368e-03,-5.554977068336850940e-03,3.823780640959739685e-02
-2.853995486616990318e-01,-2.847357552755034327e-01,-2.324467671575795313e-01,4.103346120033081468e-03,-2.163346113375947538e-03,-2.780478037849175906e-03,5.345122888684272766e-02
-2.705374788514458562e-01,-2.706642092157489077e-01,-2.610497971012678553e-01,5.357543647404866029e-03,-3.174528087793054322e-03,-3.054340935909151834e-03,1.534810196608304977e-02
-2.619991321669095652e-01,-2.793739747125633666e-01,-2.616173435074162779e-01,3.767225248179491628e-03,-6.205923827553685643e-03,-4.449034643904743909e-03,2.293823473155498505e-02
-3.330683196645194410e-01,-3.349428226100608641e-01,-1.180406981619773754e-01,-6.680897357642666444e-04,4.243173352719954716e-02,-1.624269087455498806e-02,2.298643738031387329e-01
-3.015636476149795020e-01,-2.881505157333392741e-01,-2.063615209019398211e-01,6.678105121458796298e-03,-1.076940793776341547e-02,-3.020548178183297960e-02,1.057603135704994202e-01
-2.937017538618190149e-01,-2.233053188323524396e-01,-2.857745844417997616e-01,-1.290238005113912524e-03,1.314293835301406834e-03,-4.495932260943431152e-03,6.731470674276351929e-02
-1.475576537860089354e-01,-3.192545322286165499e-01,-3.242919546979179946e-01,2.543764195417345247e-02,2.101601490877753886e-02,5.197695064159930413e-03,1.836229562759399414e-01
-1.715644316795486013e-01,-3.265723570917579144e-01,-2.909447650724240608e-01,3.490975660213569559e-02,7.578127115688300386e-02,1.422324876467244772e-02,2.031393647193908691e-01
-2.747399245628457387e-01,-2.869011849386225443e-01,-2.428297238299971794e-01,-6.354081584153684547e-04,4.453828005611028089e-03,-7.120615367784097509e-04,4.020531848073005676e-02
-1.893756889725851100e-01,-2.992449746075138695e-01,-3.153914573901214768e-01,4.209832245618434082e-02,1.116478280694957054e-01,2.188685202895490622e-02,2.413619607686996460e-01
-1.971989531829823894e-01,-2.995867696612789510e-01,-2.979928833002504218e-01,7.987794421326771532e-03,1.972258414089127915e-02,1.386920205339982034e-03,1.081052124500274658e-01
-1.184435633987905578e-01,-3.165701564278570190e-01,-3.607077789864676087e-01,3.853955945299333830e-02,4.576289986141044569e-02,1.210835941702278172e-02,2.472358644008636475e-01
-2.243939824408358319e-01,-2.858988064616980185e-01,-2.931761121238398715e-01,3.630246229421296364e-03,1.957055159935020168e-03,1.977124296176792969e-03,6.592530012130737305e-02
-1.980574034338119516e-01,-3.050024118644154014e-01,-2.930759971422609023e-01,4.368715499779036310e-03,1.992390730092959486e-02,-8.464747419071019970e-04,1.074909120798110962e-01
-2.840804379525145862e-01,-2.374859682107406944e-01,-2.843484565398651798e-01,-2.685950841079422571e-03,2.364894019223095101e-03,-2.953235076221841574e-03,4.741508886218070984e-02
-2.353308899505405227e-01,-3.070636443301392737e-01,-2.785527416486180963e-01,-2.610378663981675895e-02,5.257330133825129787e-02,-1.324977601902390875e-02,1.215567439794540405e-01
-1.923509122563529794e-01,-2.999050045336222325e-01,-3.164686224811441018e-01,6.419129129618209376e-03,1.162330220824470822e-02,8.447496096621154305e-03,1.198612600564956665e-01
-1.873629998629920412e-01,-3.168059128339885122e-01,-3.112899616819984061e-01,5.477908028805913683e-04,1.269844905074100222e-02,8.292276651170902907e-04,1.286802589893341064e-01
-2.976769092508644299e-01,-2.968718278130832999e-01,-2.142085491527513930e-01,5.675486290897427226e-04,2.173471931257352219e-03,-5.321716157925026995e-03,8.366908878087997437e-02
-1.728983540903780702e-01,-3.264864518893061951e-01,-3.113063341274633911e-01,2.182460887330710947e-02,4.919533917333887042e-03,-3.581521495560604975e-03,1.517507284879684448e-01
-1.928221801570003668e-01,-3.088428121924864933e-01,-3.137691017306690755e-01,-2.635369808991705823e-02,1.687860024566195660e-03,-4.099329229595089982e-03,1.272757649421691895e-01
-2.616447765674370096e-01,-2.831442011132944137e-01,-2.601038632546903151e-01,-9.121502155808049704e-04,4.529862424248091253e-04,-2.311221200687302952e-04,2.238303609192371368e-02
-1.065682191357137376e-01,-3.813672041411972913e-01,-3.487027583707137390e-01,-1.809879153439101357e-02,7.804341557345229052e-02,-3.494503969054287701e-03,2.947828769683837891e-01
-2.136624629912268480e-01,-2.978133310193976646e-01,-2.954511612673005327e-01,-3.353138980985520112e-03,-1.118300110897643956e-03,-8.746733734710038710e-04,8.323429524898529053e-02
-2.116509001161659409e-01,-2.974342965606202038e-01,-2.909255005982306908e-01,-2.987839488338724439e-03,1.594119716625057998e-02,-9.656471477956154060e-04,8.737707138061523438e-02
-2.960917974469113312e-01,-2.986728127229669183e-01,-2.126532022482116591e-01,8.605885038619102241e-04,-7.181642010693460240e-03,-3.424042375296548583e-03,8.588445186614990234e-02
-2.895213313756268558e-01,-2.890127291183082758e-01,-2.237129271644815731e-01,6.675407933221259339e-03,9.979778072993489638e-03,5.611374261141913351e-03,6.945838779211044312e-02
-3.052064610182421145e-01,-3.099840727909513038e-01,-1.953831590594670709e-01,1.165305307442264168e-02,1.360017004092512610e-02,1.134834048336345186e-02,1.181410402059555054e-01
-3.068264130493620900e-01,-3.075535519413327701e-01,-2.025076213123831459e-01,8.579659299869703618e-03,2.455450794875325624e-02,2.062769776762792343e-02,1.194357648491859436e-01
-2.649801087150772116e-01,-2.863634068846696579e-01,-2.540718713495821457e-01,-1.993476354493854946e-03,2.455737375624877927e-03,-9.045401886674745567e-04,2.901650406420230865e-02
-1.979235260108969108e-01,-3.133765659113682545e-01,-2.831010415211169251e-01,-5.100216690471251479e-02,6.418848923151954100e-02,-3.098823470482704040e-02,1.838357150554656982e-01
-2.435676538663968937e-01,-3.504734108197274378e-01,-2.206687657252597023e-01,2.605153819132009774e-02,1.410745783031157607e-01,-1.882815959853455234e-02,2.778612673282623291e-01
-3.507492258582737277e-01,-1.437508608313630143e-01,-3.452061184675238037e-01,-9.551751489986121113e-02,2.560860809284983691e-02,-6.127363044779901569e-02,2.869376242160797119e-01
-2.679773842113826743e-01,-2.680063671473955633e-01,-2.681160072918216120e-01,7.949858240090937117e-04,-1.216327563712387165e-04,-2.036259184042374013e-04,1.442504813894629478e-03
-2.619834649736234033e-01,-2.592926092990350817e-01,-2.835750470782340549e-01,-1.279751933640285505e-03,2.883008311015211145e-04,-1.827136500788955373e-04,2.316894009709358215e-02
-2.992544701846706623e-01,-2.866006065595800290e-01,-2.204920824603801566e-01,7.603266839782053810e-03,1.027220360543031411e-02,2.290072126626023843e-02,8.619917929172515869e-02
-2.648896380423859664e-01,-2.755006699886061172e-01,-2.638873615000510431e-01,6.155595595942071332e-04,-9.042043940727208847e-04,-1.912851199373039046e-03,1.178135164082050323e-02
-2.936300434375669344e-01,-2.958549944685411326e-01,-2.180704276426946586e-01,-6.954332001417950311e-04,5.606200079667305290e-03,2.020495978920276194e-03,7.739708572626113892e-02
-2.892478226268191399e-01,-2.975149332338964947e-01,-2.204042900736085386e-01,6.773898071857851469e-04,8.457377628402231590e-03,1.992639168979797211e-04,7.478630542755126953e-02
-3.047203601429335218e-01,-2.978588250282998562e-01,-2.013482317462272353e-01,3.273025730274064030e-03,1.629063620539618340e-02,4.618521657309655054e-03,1.044790446758270264e-01
-2.683194448011387845e-01,-2.688985417352017238e-01,-2.672853990408390334e-01,-7.052502068352858085e-04,4.214868438191753911e-04,-2.397100096766094151e-04,2.049606293439865112e-03
-2.675288544913517752e-01,-2.690197814169122403e-01,-2.679538272686176059e-01,-4.555721544129909739e-04,3.134537836347340298e-04,-6.428432122536463381e-04,1.981666311621665955e-03
-2.635799490386679933e-01,-2.799616025128700558e-01,-2.613829175131814342e-01,5.865955241133623873e-04,-1.298112382195806607e-03,-5.945227796336004060e-04,1.778551377356052399e-02
-2.657511498294827801e-01,-2.737025948025094690e-01,-2.644022477346842370e-01,-2.545834484535894771e-03,1.856125731508619873e-03,-9.399122805956749462e-04,1.040194556117057800e-02
-2.652776687001517919e-01,-2.731196201028930903e-01,-2.661785827956478778e-01,-2.995552469196281504e-04,3.939984956114874013e-04,-1.328089493461032632e-03,7.827470079064369202e-03
-2.859533897346700493e-01,-2.643118370649751303e-01,-2.563328089737855753e-01,2.150218194981526332e-03,5.608578234033350339e-03,1.253733234637267012e-02,3.583982586860656738e-02
-2.877495040592957798e-01,-2.492146075377336678e-01,-2.654381646576425835e-01,1.065626619735264482e-03,3.068795695517138704e-03,6.431291686040579818e-03,3.575909137725830078e-02
-2.432253224737368491e-01,-2.732176803553805211e-01,-2.888362059389668612e-01,4.376217854466366540e-03,-3.760778608584479463e-04,-1.038897639344389494e-03,4.090271890163421631e-02
-2.748849443788076163e-01,-2.829236355533092939e-01,-2.455543436273727453e-01,4.367527224159008584e-03,-3.584310399159050704e-03,-1.559946569673340607e-03,3.554929420351982117e-02
-2.817345498223116085e-01,-2.592109983213431446e-01,-2.622216039964664347e-01,9.760924978174073240e-04,2.598871362276823551e-03,3.281298670403648594e-03,2.244963310658931732e-02
-2.652378116808920550e-01,-2.728134803117536200e-01,-2.686179762344282906e-01,8.697440751284880520e-03,-1.096553950832324792e-02,-9.761251274729570993e-03,3.027739934623241425e-02
-2.790197822895000290e-01,-2.648219767940357405e-01,-2.611878213442512253e-01,2.353331104148856379e-03,2.500566865948662676e-03,3.768137691445104694e-03,1.855670660734176636e-02
-2.831551717523188572e-01,-2.401036527063586667e-01,-2.828750222202124909e-01,2.452830965996718408e-03,3.340690483325436857e-03,3.621031771017706527e-03,4.395812004804611206e-02
-2.995849932340047816e-01,-2.965857398956095459e-01,-2.088565059258772338e-01,1.395852220519808087e-03,2.423851002011388322e-03,4.391213833973985721e-04,8.940126001834869385e-02
-2.684409467101808722e-01,-2.600175355094301866e-01,-2.727226293090906362e-01,1.785932856542313957e-02,-1.354588917145190495e-02,-2.178514168952055963e-02,5.528535321354866028e-02
-2.781047754690826879e-01,-2.559667128334274788e-01,-2.698038134192247695e-01,2.842034476912785965e-03,5.265192162776204110e-03,2.560255137540836789e-03,2.241194993257522583e-02
-2.811146232251053312e-01,-2.617874963048039683e-01,-2.614249578252443862e-01,1.346799563601710744e-03,-6.511575483500656311e-04,-7.663910101846527646e-04,1.972693018615245819e-02
-2.474138191498808925e-01,-2.667999647136413133e-01,-2.879244937787567293e-01,-6.543413711155765880e-03,2.263727263777307714e-04,-4.657874946204029623e-04,3.688963130116462708e-02
-2.900139418017482762e-01,-2.846146993960725902e-01,-2.307703360260888181e-01,2.028778974028787058e-03,-1.947721285777488393e-03,-3.025332197074119978e-03,5.718629807233810425e-02
-2.557733076816838813e-01,-2.653425413546049993e-01,-2.842764336154561255e-01,-1.628536919367790754e-03,-6.159341933459440204e-04,2.313352732233173691e-03,2.562019973993301392e-02
-2.584835565609414632e-01,-2.612154249879142798e-01,-2.847924501310842293e-01,-2.648646252948235868e-03,-1.042333367555956913e-03,1.458789840788672241e-03,2.566004917025566101e-02
-2.570504490014386967e-01,-2.612095764473477688e-01,-2.864589499354976421e-01,-3.345915451678374043e-03,-2.723068006950672606e-04,-8.052933404704092470e-04,2.820634655654430389e-02
-3.267395975240740547e-01,-2.760945617678284836e-01,-2.020498742545245863e-01,1.944065477941834055e-02,4.363812915977309526e-03,5.009950279474474633e-02,1.432422995567321777e-01
-2.900615697604994603e-01,-2.852375380272788030e-01,-2.291595708008193066e-01,-7.380517221590985645e-04,1.010020627314206802e-03,-4.217670769098015061e-03,5.913199111819267273e-02
-2.602985796796727924e-01,-2.599295018241758459e-01,-2.856039734845880473e-01,-4.886071838825834825e-03,-6.574962923977836467e-04,6.184528739300550800e-04,2.690546959638595581e-02
-2.702156834006970709e-01,-2.558434048749211320e-01,-2.775118649411970062e-01,-3.678548311864439022e-03,4.638231983841909455e-03,-3.729521445505146193e-03,2.261685580015182495e-02
-2.613551371710511328e-01,-2.584883393010427577e-01,-2.836376136567588246e-01,-3.440832785397324005e-03,-1.658513904785665792e-03,8.772805583639830098e-04,2.479285188019275665e-02
-2.611828650656705109e-01,-2.566468665339579069e-01,-2.864957212577623480e-01,-3.251933553096494640e-03,-6.047443178101901068e-04,2.130830277003788892e-04,2.844457142055034637e-02
-2.602659212836480607e-01,-2.606630835317702566e-01,-2.843445004312221136e-01,-5.001024054589591275e-03,-1.562302271004227311e-03,1.469696646316810337e-03,2.567500248551368713e-02
-2.613456673255828422e-01,-2.573721551040759059e-01,-2.850458336605364296e-01,-3.449475523315315151e-03,-1.155397455491964523e-03,6.609470767457645279e-04,2.669591084122657776e-02
-2.430870906907925677e-01,-2.856951925334753617e-01,-2.773546537744482898e-01,6.911650147899499157e-03,1.518064754492393781e-02,3.870603612344327392e-03,4.908415302634239197e-02
-2.245805552988378584e-01,-2.854399749712798751e-01,-2.950243760888990874e-01,2.446083828438427171e-02,7.645484033420704706e-03,1.703674524669246924e-03,7.973767071962356567e-02
-2.213110192851078795e-01,-2.911609679347154089e-01,-2.897761295841417284e-01,1.431840893042747240e-02,1.000061818137451888e-02,5.098902929901416060e-03,7.600846141576766968e-02
-2.693637811154502848e-01,-2.596064852958438474e-01,-2.695852989819293999e-01,1.099617146483363762e-02,1.068622713535801599e-02,1.165224384059407488e-02,3.478610888123512268e-02
-2.488282655232069429e-01,-2.643541947209592236e-01,-2.920051119607646739e-01,1.476567672519791055e-02,1.367393409890550401e-02,1.212098680532237502e-02,5.559400841593742371e-02
-2.665048116963746883e-01,-2.660504984745790669e-01,-2.715482596671027204e-01,-3.683588667425180020e-03,3.611374560962968445e-03,-3.477150790819697954e-03,1.200159825384616852e-02
-2.832717216185344777e-01,-2.743452204944616946e-01,-2.471208629241053167e-01,-4.415896909485987273e-03,1.952645325709228500e-03,-3.034125879543816181e-03,3.407965600490570068e-02
-2.520934558845646656e-01,-2.878327414539847973e-01,-2.707169885369369311e-01,3.908197126315771791e-02,4.517889658851079876e-02,2.669572345754881934e-02,1.174824461340904236e-01
-2.685670397296889278e-01,-2.790217952318345684e-01,-2.549778635140830807e-01,-4.015816830799614177e-03,4.475578233056163799e-03,-2.864961940193041980e-03,2.385656908154487610e-02
-2.677346490160499859e-01,-2.708724475427167766e-01,-2.668717403262766963e-01,-2.626881317499416696e-03,1.195853432098384827e-03,-2.651323229566791926e-03,7.705730386078357697e-03
-2.825465865442737257e-01,-2.359713475664451110e-01,-2.939701167524471637e-01,4.044279603045800725e-02,2.860209099509544023e-02,3.274182406791691091e-02,1.157971620559692383e-01
-2.634467720663674628e-01,-2.807948519064933923e-01,-2.609776016484033345e-01,-1.686029973726358572e-03,4.125912967149689679e-04,-6.736651051308643499e-04,1.898126117885112762e-02
-2.889577884235191019e-01,-2.534740423195249726e-01,-2.652613839523752515e-01,5.679576946232915138e-04,-1.011447793120822877e-03,-1.201167422358120560e-02,3.763849660754203796e-02
-2.882152288692934605e-01,-2.645381366074868734e-01,-2.545660034593867915e-01,2.694821578937005128e-03,-2.114193993067811899e-03,-1.014067550947642116e-02,3.521157056093215942e-02
-2.664692171363786111e-01,-2.813962947928608238e-01,-2.578080893455531597e-01,-3.581044132440845858e-03,1.056121267175659994e-03,-9.654465651951782152e-04,2.171939611434936523e-02
-2.302431646965700518e-01,-2.823290378577251736e-01,-2.925526241796800320e-01,-2.498788144020332169e-02,1.112490751705898923e-02,-6.688976923208784717e-03,7.568794488906860352e-02
-2.694947787556637442e-01,-2.684827796490601437e-01,-2.666158976912154088e-01,-1.521920842018387047e-03,1.469541085074770352e-03,-1.098385313371820797e-03,4.842045716941356659e-03
-2.691385369757401391e-01,-2.748459423234680954e-01,-2.608017124578995705e-01,-3.604955968514882841e-03,1.055823377298387633e-03,-1.034056670872257914e-03,1.397132687270641327e-02
-2.876931282831497461e-01,-2.484459789724166590e-01,-2.659531246913420799e-01,-6.482579999855168744e-04,3.582553824611778856e-04,-6.475468585676957302e-03,3.587720915675163269e-02
-2.608213444994212926e-01,-2.594714127255223213e-01,-2.842514454223176723e-01,-1.041714695703497640e-03,7.085589748432949289e-04,-2.713145992866926835e-04,2.423640899360179901e-02
-2.855856925803560986e-01,-2.597515062584105361e-01,-2.604555408511740611e-01,-3.196700032562215530e-04,4.451617246022772844e-04,-4.855721831978482110e-03,2.685791999101638794e-02
-2.696334422567487343e-01,-2.713712982949275099e-01,-2.633651924475918782e-01,3.037762189528349019e-03,-1.129833915141978916e-03,-1.180015001882729836e-03,9.428430348634719849e-03
-2.629096356062848860e-01,-2.629822630170369213e-01,-2.786768703644007528e-01,4.067441375640770858e-03,-3.138200002929879707e-03,-2.610379269406915524e-03,1.863022334873676300e-02
-2.686269506392089390e-01,-2.676116549677927114e-01,-2.688020322446074140e-01,1.364773335146657720e-03,-1.037009030394748111e-03,-1.320549047212292090e-03,3.909573890268802643e-03
-2.690880717348995144e-01,-2.641418015619365067e-01,-2.707584883100659923e-01,7.625181823227546651e-04,-2.235613356407891925e-03,-6.529403102850179141e-04,7.316789589822292328e-03
-2.855463581636770165e-01,-2.544373469048903935e-01,-2.658739119845555110e-01,-4.428831548439549136e-04,4.433425209387027634e-04,-1.228922688591257452e-02,3.459824621677398682e-02
-2.796702306903944835e-01,-2.698245192610022603e-01,-2.650621919988173647e-01,3.734304265969883713e-02,-4.170762615613723967e-02,-3.765491077573084738e-02,1.175681501626968384e-01
-2.592945217555632786e-01,-2.607349665014468409e-01,-2.849187131846906973e-01,-6.971078343605664014e-04,1.443316904911280446e-04,2.037657428641097832e-04,2.496815472841262817e-02
-3.051294545882310416e-01,-2.231158880374036479e-01,-2.723381188403157238e-01,6.410809493005808005e-03,5.028729941424037696e-03,3.462951364085611883e-02,9.438713639974594116e-02
-3.239711277944216650e-01,-1.059795781939704695e-01,-3.573903832486036714e-01,6.862100305716815896e-02,3.054214942516651939e-03,-5.284363693436530673e-03,2.648783922195434570e-01
-2.680530774369895841e-01,-2.660775013408569478e-01,-2.704285802625365220e-01,1.671376904901937315e-04,-1.031951048721648596e-03,-5.064600607964641352e-04,4.276327788829803467e-03
-3.361954824993295676e-01,-1.187131075866899033e-01,-3.305012708237609065e-01,-2.982643497393261400e-02,2.688289227740395075e-03,1.038415371509418062e-03,2.208763957023620605e-01
-3.088285991482250248e-01,-2.130334154090131604e-01,-2.931996922581779907e-01,9.155419169636693291e-03,3.991734945668288723e-03,3.412601450713304008e-02,1.082442924380302429e-01
-2.748374651275010128e-01,-2.747650747493565748e-01,-2.552835007882383600e-01,4.279714513739902616e-03,-2.461998121117764653e-03,-2.199778374041436169e-03,2.164709009230136871e-02
-2.708103171429663836e-01,-2.662272238552515491e-01,-2.670729031960128452e-01,1.506078077045693497e-03,-6.082135956659153820e-04,-2.851646823291269792e-04,5.099277477711439133e-03
-3.332810253505928966e-01,-1.198122678519422113e-01,-3.516947990386062872e-01,-1.099813364932638281e-02,2.092830910955542287e-02,6.562597622878137138e-02,2.538422942161560059e-01
-3.079516233164432681e-01,-2.125297287827138393e-01,-2.941574564234952782e-01,1.276027632687969267e-02,5.193386237398092860e-03,3.332791054877883713e-02,1.089999452233314514e-01
-3.284849809364391304e-01,-1.491625863994610890e-01,-3.170830334913606330e-01,-2.961080268549530492e-02,-1.445138519054001841e-02,5.183479403261497670e-02,2.038611471652984619e-01
-2.817640947472103141e-01,-2.743417612136095918e-01,-2.491047040230447152e-01,4.300839011605342432e-03,-1.690815124008210411e-03,-2.870940475735968191e-03,3.111451491713523865e-02
-2.757921307558297008e-01,-2.638230476693682047e-01,-2.644771608842881316e-01,1.861783362342417023e-03,-6.180686741594792642e-04,-7.792938833627714073e-04,1.221574004739522934e-02
-3.175131771082830290e-01,-1.928771648195398147e-01,-3.050703712734035844e-01,-2.167646306883906984e-02,-6.304431294418838365e-03,1.993563160775629894e-02,1.298432499170303345e-01
-2.852368630871883193e-01,-2.610047507371590636e-01,-2.585682798765255308e-01,-1.672897487516554916e-03,1.387043305245218121e-03,-2.675793558724619617e-03,2.622631378471851349e-02
-2.847131743274920468e-01,-2.653372476909576227e-01,-2.556736409473153726e-01,-2.694305470722711815e-03,8.775798395719912152e-04,-1.532408568852412301e-03,2.621423825621604919e-02
-2.832083784046809383e-01,-2.588373487181064858e-01,-2.622928376741731071e-01,8.057287489035323087e-04,-1.883021282309212813e-03,-2.585096131541836720e-03,2.354371920228004456e-02
-2.878334491530553096e-01,-2.576548106830263696e-01,-2.564391686319338337e-01,3.483208245747192676e-04,1.490138272611822333e-05,-1.036780212061568819e-02,3.566164523363113403e-02
-2.847887038930692616e-01,-2.599893872875350120e-01,-2.604629507443525505e-01,-8.420206856216506453e-06,-3.682640511591789810e-04,-5.108516579585182377e-03,2.611865662038326263e-02
-2.803086284896352809e-01,-2.633922538260513035e-01,-2.611310989255785087e-01,6.555775006275560814e-04,-5.792642033451247171e-04,-1.032113564771629287e-03,1.830352097749710083e-02
-2.882432446689751071e-01,-2.483071656422545792e-01,-2.660147388751540332e-01,1.039516266628743484e-03,-1.591106351587529824e-03,-6.268459663955206450e-03,3.646909445524215698e-02
-2.843916822081157258e-01,-2.558891170994441189e-01,-2.652079148289248622e-01,6.918112503184467100e-04,-1.938212744704434325e-03,-1.580220927489541134e-03,2.556997537612915039e-02
-2.869712590094493088e-01,-2.737572592154215445e-01,-2.441189096220589549e-01,2.049382499651530853e-03,-1.259015565636780083e-03,-3.845446301016300188e-03,3.881237283349037170e-02
-2.840832955864424081e-01,-2.667643282220557577e-01,-2.558710743122208364e-01,4.289137222488862561e-03,-5.009760709426119667e-03,-8.951361812587743313e-03,3.127512335777282715e-02
-2.581641136992925967e-01,-2.618561437847782281e-01,-2.839839371686678771e-01,-3.218359717401789513e-03,5.850837777093150470e-04,-1.611464394530614944e-03,2.499715425074100494e-02
-2.862739384353581995e-01,-2.571479866794134650e-01,-2.611910085556111150e-01,-3.346466332453178709e-05,4.029250855849631028e-04,-2.992198684191715169e-03,2.782553434371948242e-02
-2.623450257612789382e-01,-2.793619068309721176e-01,-2.629939324332938311e-01,-2.510787454662245354e-03,3.833821476799509007e-03,-3.046672957343723662e-03,1.923034898936748505e-02
-2.639710877316720494e-01,-2.780496198129498997e-01,-2.631340805958050644e-01,-2.528704828683185548e-03,2.818364203330218833e-03,-2.669845129942953216e-03,1.658572442829608917e-02
-2.845430696469983256e-01,-2.616979894412758689e-01,-2.588648055560336392e-01,-1.076601466308638568e-03,2.700107526197344362e-04,-8.567069066080793471e-04,2.450605481863021851e-02
-2.809292205676938714e-01,-2.660664061940351544e-01,-2.574752589634698441e-01,-2.192280460972609920e-03,9.346444478287618037e-04,-1.281199693261835752e-03,2.107992023229598999e-02
-2.622233541815006674e-01,-2.722644018910869712e-01,-2.696750638693370949e-01,-8.641631276217634147e-03,8.469830311490419636e-03,-8.848697684326192053e-03,2.748951502144336700e-02
-2.699453535108358726e-01,-2.690445900420203595e-01,-2.659573972252087803e-01,-2.372759807373006017e-03,3.526852370759570531e-04,-7.390789500595369016e-04,5.659046582877635956e-03
-2.640616493217224359e-01,-2.750662132574301366e-01,-2.629630909147621098e-01,-4.214875065698201091e-03,5.425226190157813981e-03,-3.976899327472625291e-03,1.798439212143421173e-02
-2.782218703562844841e-01,-2.627532839767584005e-01,-2.635776876851021466e-01,-4.909296529637314534e-04,1.546282025631822137e-03,-4.292682498341880161e-04,1.535100210458040237e-02
-2.591915675881478753e-01,-2.614315129652194925e-01,-2.845387125076542789e-01,-8.344108877800608930e-04,4.777272410299855231e-04,-8.843430754634462555e-04,2.440980263054370880e-02
-2.747589433477056753e-01,-2.742441471903157013e-01,-2.559159923583500529e-01,-4.552108885793611226e-03,1.475812516062039413e-03,-1.469632205123169114e-03,2.051341347396373749e-02
-2.672168189305172969e-01,-2.728646422915453895e-01,-2.653061443132419539e-01,-2.121249879288047719e-03,1.415199012592755195e-03,-2.346701498981204961e-03,9.075694717466831207e-03
-2.660091530478674859e-01,-2.731721397294155640e-01,-2.654063951858421366e-01,-1.343793182052599152e-03,3.586035689414330098e-04,-3.354419928498586587e-04,7.882254198193550110e-03
-1.486001710360888295e-01,-2.964208022716323110e-01,-3.383356834716888528e-01,8.242413304186645140e-02,2.673284377450007177e-03,1.818607178586647503e-03,2.240898311138153076e-01
-2.444833206478070342e-01,-2.632739161511384873e-01,-2.927939524677495298e-01,2.153276038573782511e-02,2.952382030953015248e-03,2.861020275075831613e-03,5.675300210714340210e-02
-2.192214367274681053e-01,-2.808440480849815346e-01,-3.077809170446248466e-01,5.534026951219178647e-02,1.689649896697431250e-02,8.204955941998486046e-03,1.281754076480865479e-01
-2.585498987662743220e-01,-2.575195773720855286e-01,-2.853915876721253575e-01,9.818402875207132841e-03,2.713253720835430947e-03,2.356060435087809629e-03,3.281973302364349365e-02
-2.673007524705837690e-01,-2.758233414239822379e-01,-2.611184214660510761e-01,-2.859587218083731869e-03,9.870823463254475068e-04,-1.013034798649066481e-03,1.393121108412742615e-02
-2.344312266029079384e-01,-2.739066742460083970e-01,-3.001837850248242345e-01,5.671813389233153202e-02,-6.611963370143733587e-03,-3.866615686210542711e-03,1.145117655396461487e-01
-2.803204545500291855e-01,-2.545376038869245905e-01,-2.661211872173139259e-01,-6.970938927680206398e-03,6.686671805723107091e-03,-1.476761949176245287e-02,3.787402063608169556e-02
-2.600121490846451500e-01,-2.615413205875988245e-01,-2.834204672078349252e-01,-6.306511578323616314e-04,3.731056791321482363e-04,-1.123416774565185339e-03,2.280108258128166199e-02
-2.498793567388287173e-01,-2.685017835203459269e-01,-2.923692383573169851e-01,3.020045682735143788e-02,-9.364023508547968458e-03,-6.908499017053312992e-03,6.710707396268844604e-02
-3.024925149376187505e-01,-2.873804817096107245e-01,-2.172932464615929260e-01,-1.522261824786040477e-03,-5.304157696717896366e-03,2.181770879740209043e-02,8.785866945981979370e-02
-2.693431251994922171e-01,-2.684493705623652304e-01,-2.668486799087306793e-01,-1.552920354672815374e-03,5.557017837340432918e-04,-7.536544744019894578e-04,3.828409127891063690e-03
-2.699035714807081487e-01,-2.677078535865807796e-01,-2.674082284792343445e-01,-1.166904543245887585e-03,3.767607635037083268e-05,-4.563171221662036146e-04,3.206677036359906197e-03
-2.661123169251293219e-01,-2.708567134448148783e-01,-2.673173443799417570e-01,1.520849038620669062e-03,-4.996030588528422439e-04,-5.612798466629676311e-04,5.184315145015716553e-03
-2.483549266634051123e-01,-2.752308425231666522e-01,-2.839840160097958366e-01,9.757258534059369201e-03,-6.503510467867798864e-03,-5.876509230355226460e-03,3.937361761927604675e-02
-2.738208453823643973e-01,-2.800887885405287103e-01,-2.513025707711921686e-01,5.268416080397795784e-03,-2.745634954789013746e-03,-4.385748638210391730e-03,2.917347475886344910e-02
-2.614431646789957542e-01,-2.689393936548705177e-01,-2.750923552416779660e-01,1.113674383045346571e-03,-1.110073112846285534e-03,-2.536661571153032806e-03,1.291889883577823639e-02
-2.675620712550258462e-01,-2.596297234038228430e-01,-2.775224853282597381e-01,1.046981181017969708e-03,-3.174701338597362647e-03,-1.715414194491492314e-03,1.683728210628032684e-02
-2.675990284948087661e-01,-2.710287930581158355e-01,-2.664690910104591803e-01,4.555034174879310158e-03,-2.967247803634252574e-03,-3.736398680553019470e-03,1.214315369725227356e-02
-2.680512566127405960e-01,-2.680572785889936971e-01,-2.682188949636688524e-01,2.707142363723547647e-04,-2.238472409653646865e-04,-5.677748477666620490e-04,1.168082002550363541e-03
-2.674413598102622913e-01,-2.692124568694937992e-01,-2.680188303514971504e-01,3.409382532068840565e-04,-1.870700657760538028e-04,-4.943264987443085580e-04,1.906378543935716152e-03
-2.684432625682682816e-01,-2.670920286600625970e-01,-2.675802171872156410e-01,3.010423431013594091e-03,-3.093957346129854857e-03,-3.296578079304638906e-03,9.482217952609062195e-03
-2.685442376658088715e-01,-2.678836707208735457e-01,-2.680666133820824859e-01,1.107078506860152239e-04,-2.268371819096310998e-04,-6.788217744193463833e-05,7.442639325745403767e-04
-2.644248143875531643e-01,-2.644883859053123731e-01,-2.742333904687210833e-01,4.116086657903926353e-03,-3.873908127672839874e-03,-4.015191497594117372e-03,1.548554003238677979e-02
-2.786295275139671901e-01,-2.569877172985086111e-01,-2.859842873141902331e-01,4.786555199623260953e-02,-3.984653394515187685e-02,-5.095499327598765338e-02,1.418006867170333862e-01
-7.441935813844813286e-02,-4.034923855666704418e-01,-3.393735103749547788e-01,-3.208356849357910795e-02,-3.013082936298303472e-03,1.064982943289682557e-02,3.078247010707855225e-01
-2.707522225695227491e-01,-2.643633115048522053e-01,-2.695540719222919712e-01,6.462388441235873693e-03,-4.889418237934890082e-03,-4.856563451429868686e-03,1.738862134516239166e-02
-2.619176850843673576e-01,-2.675986713514230675e-01,-2.751447281108373444e-01,1.565624306458828852e-03,-1.213588198556814907e-03,-3.650558765141206398e-03,1.355866063386201859e-02
-2.701031175963908848e-01,-2.702512774872720680e-01,-2.649779954265832904e-01,1.767185855041684484e-03,-6.672305236498136082e-04,-6.518253060950342757e-04,6.247177254408597946e-03
-1.986554868916101113e-01,-3.006982032741222777e-01,-3.233981426100589474e-01,-4.713729044564866216e-02,1.095867744317366270e-02,-1.004457878325041784e-02,1.434332579374313354e-01
-2.706746304971665573e-01,-2.640137450147387321e-01,-2.695202157968806245e-01,4.062732830570967685e-04,-2.537243113893354173e-03,-4.217945478345337803e-04,7.638871669769287109e-03
-2.694219997625084129e-01,-2.701135216949192008e-01,-2.679617044868027875e-01,6.491097358799431498e-03,6.338624970987577836e-03,7.000208043787759828e-03,1.993907615542411804e-02
-2.749342323486255180e-01,-2.690035177880020778e-01,-2.616419921344022570e-01,2.603980931389558023e-03,-1.074910073041570290e-03,-1.155544300339418151e-03,1.268222555518150330e-02
-2.673827167864712417e-01,-2.668823393330826410e-01,-2.697594223407296377e-01,1.346324935881314374e-03,1.299782504780743007e-03,7.961412578344790204e-04,4.415422677993774414e-03
-2.636145357888012297e-01,-2.707851680580800058e-01,-2.697707103311011156e-01,1.057774216202286149e-03,1.041303505434076904e-03,3.092659805225017079e-03,8.970842696726322174e-03
-2.546432522408303978e-01,-3.538569322598166256e-01,-1.932963722682678465e-01,2.647537388447581547e-02,-1.190012949794780062e-01,-8.407767769914889500e-02,2.923818826675415039e-01
-2.935790847620493582e-01,-2.906496347148462278e-01,-2.189974538308679108e-01,2.231484285260080039e-03,-5.615731266656962678e-04,-8.769916883851203160e-03,7.482738047838211060e-02
-2.913302106974975381e-01,-2.828653593685522827e-01,-2.329310287123950163e-01,-2.318927872651639459e-03,4.586125066491866624e-03,-4.159484396571733536e-03,5.584721639752388000e-02
-2.858159968534629281e-01,-2.681392002586603374e-01,-2.494342530119570411e-01,4.594702026837749025e-03,-2.357253219331588608e-03,-4.479252709913331652e-03,3.366277739405632019e-02
-2.669530216992863636e-01,-2.690245160843368621e-01,-2.681350788492020687e-01,4.889163992117698081e-04,7.746576126762245258e-04,1.016063659620197865e-03,2.975614275783300400e-03
-2.681930766800358357e-01,-2.686240452853613792e-01,-2.685675590701655513e-01,6.864120821402240526e-04,1.678779687063397313e-03,1.600884371464209336e-03,4.209686536341905594e-03
-2.843837680169801763e-01,-2.654877092798630378e-01,-2.552294347205114611e-01,1.456816404939032927e-03,-5.182249728967449004e-04,-1.674697151817293927e-03,2.591757476329803467e-02
-2.661596332645077556e-01,-2.705211766331669931e-01,-2.677194602990493055e-01,4.674903990133992375e-04,2.992760782742890811e-04,1.463976790925064671e-03,4.691150505095720291e-03
-2.864255770722906602e-01,-2.645632084314251675e-01,-2.548163389277510182e-01,4.916845410797331464e-04,9.247400262550586056e-05,-1.803660378144623152e-03,2.822347916662693024e-02
-2.480614881185821408e-01,-3.044287991030909524e-01,-2.442864600853545398e-01,5.589356302819321019e-03,4.507923875803514224e-02,4.338609774572221682e-03,9.823909401893615723e-02
-2.931255728321361942e-01,-2.473185804674888355e-01,-2.585733233126126795e-01,4.065060615674478961e-03,-5.014241384663447806e-03,-2.418389836732629666e-02,5.990817025303840637e-02
-2.789375523351703690e-01,-2.593810552070395237e-01,-2.669921816457223041e-01,1.176714895725439712e-03,-3.302978351612746114e-03,-1.524931945617504425e-03,1.831387728452682495e-02
-2.834045239288240925e-01,-2.512333185170696481e-01,-2.700035340251287219e-01,-3.277927938239937489e-03,4.001773991418102264e-03,-1.079189495572580211e-02,3.482985869050025940e-02
-2.848960864666769677e-01,-2.653287315597488982e-01,-2.542637973643565585e-01,-7.286369519788582190e-04,5.980936841226019464e-05,-2.290806842426404075e-03,2.718772739171981812e-02
-2.659489427431130926e-01,-3.041733355276811102e-01,-2.214805362772409580e-01,1.089615314359554214e-02,4.565799161698855246e-02,1.318311415323878202e-02,1.107693091034889221e-01
-2.784030672517965321e-01,-2.894012744920461122e-01,-2.371120055403746207e-01,3.191978508944734710e-03,7.806419190431592575e-03,2.498914390257740269e-03,5.012145638465881348e-02
-2.816739505547531941e-01,-2.668627328925494147e-01,-2.569065554056036982e-01,-3.525741540287064858e-03,1.260839367398124003e-03,-9.414810008785791991e-04,2.259826660156250000e-02
-2.695040950661779511e-01,-2.883236592659642050e-01,-2.486469565128154313e-01,4.576513756747412065e-03,5.277096220275044082e-03,1.959474125167131979e-03,3.660073503851890564e-02
-2.788480168536262016e-01,-2.893022136943227962e-01,-2.370553711697108157e-01,3.569773110145964875e-03,6.825583146816251515e-03,3.598989009711235643e-03,5.009668320417404175e-02
-2.726051693808625442e-01,-2.984078999853159164e-01,-2.354132711426822622e-01,4.978274123142163547e-03,1.416602529900563151e-02,9.960076666816645302e-03,6.310831010341644287e-02
-3.033036407173422266e-01,-2.453023718133963693e-01,-2.490649078450840603e-01,-2.442496470466171826e-03,4.701383133990556448e-03,-5.619251101192442033e-02,1.127699986100196838e-01
-1.473254226509997933e-01,-3.757336939114268026e-01,-2.877571195433226148e-01,-4.689175079649114848e-03,8.891839746221201490e-02,-4.184634772528151442e-02,2.624012231826782227e-01
-2.550006001417561841e-01,-2.841891797570885725e-01,-2.675667612051998989e-01,-5.025324276035469072e-03,9.327157912799938916e-03,-3.922455626952905429e-03,3.203122690320014954e-02
-2.681894587318867651e-01,-2.684168161517718754e-01,-2.679326816798728306e-01,-6.751461545654551379e-05,1.022648254967233413e-04,-2.934601418694175799e-04,6.923954933881759644e-04
-2.663876430950065655e-01,-2.666188279643945669e-01,-2.710644543718466748e-01,-3.865332508002672124e-04,1.547008043732392164e-03,-6.691062336173867614e-04,5.460388027131557465e-03
-2.751561738747035912e-01,-2.660921481560857282e-01,-2.638295448772811636e-01,-1.828255029534284724e-03,6.465741232779660891e-04,-3.917589614354718974e-04,1.093281246721744537e-02
-2.678855939832245348e-01,-2.660905590819825917e-01,-2.710052961508550018e-01,-6.700444069809065057e-04,3.006786389433458470e-04,-7.348293133361753597e-04,4.668264184147119522e-03
-2.704262693669816087e-01,-2.669967208366189615e-01,-2.660958002739646222e-01,-1.084467768962708379e-03,1.148990595320509810e-03,-3.705917300113997217e-04,4.854273982346057892e-03
-2.702836587383036782e-01,-2.675848627774811694e-01,-2.664944447215401024e-01,-1.702834717450001827e-03,4.268794394189807657e-04,-1.530757638648927790e-03,5.262185819447040558e-03
-2.706742428240682674e-01,-2.663441609430168278e-01,-2.676259320983409018e-01,-6.527428648959014180e-04,-2.705512628472168707e-04,4.245159413094995145e-04,4.108628258109092712e-03
-2.574296793510953418e-01,-2.618257081906105732e-01,-2.850364678456679957e-01,-3.274933981631544550e-03,6.253530892071239343e-04,-1.198256642732155233e-03,2.641506865620613098e-02
-2.689250094027234028e-01,-2.673487592320508144e-01,-2.684814782129256727e-01,-6.507602646093180827e-04,5.695504473269638711e-08,-5.789674405529048138e-04,2.063551452010869980e-03
-2.690971734306712992e-01,-2.679372415818317421e-01,-2.682137147364687668e-01,-1.458968550539622511e-03,1.184805710038941634e-03,-1.499773105344978218e-03,4.294904880225658417e-03
-2.960329926150734869e-01,-2.933523759034651346e-01,-2.194491435346666297e-01,1.820568600703803899e-02,1.670008301518646071e-02,5.834421449252849556e-02,1.330794543027877808e-01
-2.860591913994738889e-01,-2.950674440201530579e-01,-2.214470127728302984e-01,-7.319111684044612943e-04,3.533320004212958491e-03,4.773509993560154721e-03,7.032313942909240723e-02
-2.849817354911583500e-01,-2.974887923138796464e-01,-2.253636044283792161e-01,4.432797200422335451e-03,2.281421232383583006e-02,8.919547727504811493e-03,7.947002351284027100e-02
-2.913640976741013189e-01,-2.905559447760237002e-01,-2.205902707712744659e-01,4.633050842282005963e-03,1.505724204253619178e-02,1.193775569148437452e-02,7.825905084609985352e-02
-2.892697786209607602e-01,-2.960301005593241053e-01,-2.214782973272764466e-01,4.065284160090882563e-04,6.833446508432801901e-03,3.732399563600810079e-03,7.267774641513824463e-02
-2.803910192536305246e-01,-2.895308992820008753e-01,-2.347201768142382905e-01,1.491496279427978076e-03,8.037407955728015710e-03,6.782244490565015682e-04,5.280759930610656738e-02
-2.751748955366876692e-01,-2.551646279217714697e-01,-2.745204992364951857e-01,-2.298718262705685706e-03,4.221442891785811592e-03,-2.126578975366790435e-03,2.169390395283699036e-02
-2.663521090087064280e-01,-2.710465837106886267e-01,-2.670263664116205304e-01,-5.765193150971394077e-04,-2.207327330743725949e-04,-3.685259113818360743e-04,4.569262266159057617e-03
-2.857295420089006055e-01,-2.609306305074389765e-01,-2.565411667941104867e-01,9.475136577909585092e-04,5.300345736353911149e-04,4.038797270807304753e-03,2.820601314306259155e-02
-2.810266155494311469e-01,-2.598455731726090900e-01,-2.633074907028436495e-01,1.198757701740685473e-03,2.502673550203618740e-03,2.395940435563011488e-03,2.067890763282775879e-02
-2.880543878946079661e-01,-2.576876001596292154e-01,-2.567106526059695915e-01,1.375689683908075877e-04,8.620905849350545024e-05,1.266613718698109819e-02,3.786997869610786438e-02
-2.796687110874269688e-01,-2.664293888725497439e-01,-2.593950377105921357e-01,3.086136156852839485e-03,1.379102405681881206e-03,1.137815209162869670e-03,1.886939629912376404e-02
-2.708752387885710600e-01,-2.734415617872022475e-01,-2.605949512196799600e-01,-4.310226597335838246e-03,6.181226059900066412e-03,-3.945869682832967539e-03,1.886052452027797699e-02
-2.809567824441090989e-01,-2.674454216517735961e-01,-2.546355241326350161e-01,4.271232081952271165e-03,2.573933453434263264e-03,4.912507460591014098e-03,2.582118101418018341e-02
-2.839251092689242251e-01,-2.591198737535019836e-01,-2.603960587335920063e-01,1.478846159776513658e-03,1.355544546310702599e-03,2.850876110696487151e-03,2.493447810411453247e-02
-2.684402363751288711e-01,-2.679811004617157488e-01,-2.680639785465951386e-01,-3.487793021832046091e-05,2.567619027187097234e-04,-5.015710460223753766e-05,6.233770400285720825e-04
-2.627323023958024750e-01,-2.771476304227950549e-01,-2.641293022411856928e-01,3.844917146259813935e-03,5.781971605754379281e-03,3.559153324978397721e-03,1.929408125579357147e-02
-2.677130679471840247e-01,-2.607795747395594832e-01,-2.756646877674221452e-01,-1.306257531775293843e-03,2.798752700747168462e-03,-1.004225031402536687e-03,1.407399959862232208e-02
-1.688466269508862583e-01,-3.256772209624490544e-01,-2.943662580039099197e-01,-1.344939325099848287e-02,9.110858263637995613e-02,-1.558954216112461502e-02,2.164249867200851440e-01
-2.530324236023485107e-01,-2.892255642300424756e-01,-2.660222472514536807e-01,2.433163599401076422e-03,1.364683113114648939e-02,1.125153831749316170e-03,3.985979408025741577e-02
-2.680472195630681509e-01,-2.685432815400495277e-01,-2.679383942758708503e-01,-2.419540899241945636e-04,1.077391751749844014e-04,-5.178089848947490083e-05,7.282834849320352077e-04
-1.921214454480463518e-01,-3.082641710102974608e-01,-2.969129633779399313e-01,-6.629613734163011113e-03,1.877783077286535388e-02,1.624012376295961820e-03,1.161774992942810059e-01
-2.794600000007487206e-01,-2.941341402810957462e-01,-2.349144252619917994e-01,-3.401872013100958590e-04,2.209853643967397280e-02,1.187335028900367642e-03,6.574890762567520142e-02
-2.661625069115272635e-01,-2.856930928360902344e-01,-2.502427833689465642e-01,-3.958279971047034759e-03,6.008681708688307782e-03,-1.278944422637799281e-03,3.325698152184486389e-02
-2.603666517219274668e-01,-2.830280251635596267e-01,-2.613875546054684751e-01,-6.296203883585679666e-04,3.803472001114999168e-03,-1.889538995211333984e-03,2.338256873190402985e-02
-2.812918233641729104e-01,-2.597879179860478338e-01,-2.627717033521837497e-01,-1.187275095974845698e-03,2.631127381498008563e-03,-2.203706140516520015e-03,2.113585174083709717e-02
-2.616664762467160177e-01,-2.862691062922871343e-01,-2.566537424006493096e-01,1.279839540013484730e-03,2.877357258973738379e-03,8.789342063934755571e-06,2.799098193645477295e-02
-2.758438983028586033e-01,-2.646391151542183962e-01,-2.637748097364986388e-01,-6.391491906447658048e-04,6.694645215227947163e-04,2.644994894155121485e-04,1.177958026528358459e-02
-2.751261485901531079e-01,-2.641621730807831581e-01,-2.657901615060739853e-01,-6.801689086808444199e-04,1.793898234317675439e-03,-1.509963300899288630e-04,1.077591627836227417e-02
-2.668279880989339325e-01,-2.879143724777957214e-01,-2.479539647978437344e-01,-1.379441714576514193e-03,6.658212887434907835e-03,-3.592527888664557288e-04,3.657786920666694641e-02
-2.586640790519727506e-01,-2.849761205179501822e-01,-2.598520018759440386e-01,-2.070886321729911456e-03,3.878640361017294223e-03,-2.202676435557934971e-03,2.711144834756851196e-02
-2.631146502484735805e-01,-2.839614813254430770e-01,-2.578285451640159320e-01,-2.571608772004506296e-03,2.401877809395247185e-03,-5.097989884057619681e-04,2.471149712800979614e-02
-2.847389050280667022e-01,-2.588288261330536355e-01,-2.615991498721195740e-01,-1.005434691153039893e-03,-8.798048761661677025e-04,5.067933019355363826e-03,2.626088820397853851e-02
-2.878540725578342396e-01,-2.662649585769032989e-01,-2.477134292190130704e-01,-1.261758103339898139e-04,-6.177878576157984315e-04,6.798213149095036663e-03,3.675051033496856689e-02
-2.710032971555357828e-01,-2.663195113964492156e-01,-2.671293131943670018e-01,-4.788545301529656016e-04,4.558222679403317471e-04,4.855814994779185639e-04,4.562815651297569275e-03
-2.640336839446522643e-01,-2.757079959364774346e-01,-2.644540385791120385e-01,-6.682438062320611525e-04,-4.634399436688304343e-05,-7.289582181593362272e-04,1.159737631678581238e-02
-2.856187914224230795e-01,-2.601372074195351658e-01,-2.578695756323213240e-01,-3.345858736869780636e-03,-2.373557531489596788e-03,8.558877994668388778e-03,3.134461492300033569e-02
-2.704725568454396378e-01,-2.722449155459605308e-01,-2.621197356326725458e-01,-4.387772553701508108e-03,-5.727975602843834481e-03,4.121578391478639310e-03,1.717160642147064209e-02
-2.604149636796927458e-01,-2.726950453832929777e-01,-2.705462213758751955e-01,-1.753595807442638946e-03,-2.414129697227517576e-03,4.018396628194630463e-03,1.428922731429338455e-02
-2.417130633586640209e-01,-2.785445199194334087e-01,-2.805127899439580630e-01,-1.094380767140584569e-02,9.954953783374473689e-03,-6.871898983814943990e-03,4.723555594682693481e-02
-2.591340366450454735e-01,-2.703555785349402441e-01,-2.750772236021641337e-01,-2.214980927753804410e-03,-1.565805147434649316e-03,4.539171389335276523e-03,1.688451878726482391e-02
-2.829059838986379138e-01,-2.673672040675952322e-01,-2.478599289657337501e-01,-7.463073636661730903e-03,7.464572981769012489e-03,-1.821976817710120947e-02,4.748935252428054810e-02
-2.598128020465462207e-01,-2.675046857845158055e-01,-2.771808056359534866e-01,-7.515483032830606175e-03,-3.812171928923894018e-03,4.384354923591307629e-03,2.231441438198089600e-02
-2.633929025449496808e-01,-2.651846771452029961e-01,-2.756065863778882075e-01,-7.587649642173954767e-04,-1.061903980836715559e-03,2.772439331974137656e-03,1.259641628712415695e-02
-2.689702216114040478e-01,-2.637251715098470894e-01,-2.714395740827760806e-01,-1.743553469886608472e-03,-3.195121148750178827e-03,2.042575253616900084e-03,9.940966032445430756e-03
-2.702845461446310993e-01,-2.647942542412504152e-01,-2.698524809361984578e-01,-4.712797294446327903e-03,-4.798200346727160732e-03,5.091908506486997332e-03,1.553833857178688049e-02
-2.680083208226490821e-01,-2.687130187723141272e-01,-2.679964169988098277e-01,5.714669966300030463e-05,-4.819586939862405809e-05,-1.906869706146619369e-04,7.943423697724938393e-04
-2.528438208357524641e-01,-3.208112493239002050e-01,-2.435376900115406862e-01,-2.268409663606530541e-02,-6.478863759776348763e-02,1.874825291500879440e-02,1.432815045118331909e-01
-2.390675139250929004e-01,-2.863204857960091609e-01,-2.781659350407089670e-01,6.531580415218942934e-03,-1.784286431636843487e-02,-4.700938496239561587e-03,5.534797161817550659e-02
-2.337703670639910691e-01,-2.866651867490864758e-01,-2.735772481238478715e-01,-2.725708541340269436e-02,-3.445203894726888566e-02,1.969590941639376425e-02,9.607462584972381592e-02
-2.632970366808006779e-01,-2.848358589788219097e-01,-2.521908539830155505e-01,-1.196217768582918256e-02,-1.909300943414631371e-02,1.185053209831172377e-02,5.263741686940193176e-02
-2.812706112556743743e-01,-2.936131231392676844e-01,-2.323791803746036999e-01,-7.741930499996977147e-03,-2.244222506450694460e-02,1.149219393451803711e-02,7.234042882919311523e-02
-2.686457112742543507e-01,-2.796818681530533479e-01,-2.717001111131701063e-01,-4.072027249719703534e-02,-4.139275389425587509e-02,4.124580393792053740e-02,1.237560808658599854e-01
-2.848887019187503755e-01,-2.605514790897335842e-01,-2.599775326452962720e-01,-1.679114688406511914e-03,1.688336189017577765e-03,-5.095258094745314971e-03,2.648570947349071503e-02
-2.871971327186575440e-01,-2.637612998883611115e-01,-2.575695550332405270e-01,-4.921353639117082013e-03,5.021806654781782800e-03,-1.060047664200516188e-02,3.490142896771430969e-02
-2.809148797673590714e-01,-2.619891825964779097e-01,-2.612293272373663044e-01,-4.794391063524334941e-04,8.058715176453537694e-04,-3.737327142386335068e-04,1.939580030739307404e-02
-3.120568419511571823e-01,-2.232214132583267008e-01,-2.731039959453476773e-01,2.752172863375907871e-02,-6.655809701603273253e-03,-3.964657533157490282e-02,1.143217086791992188e-01
-2.844895878602309303e-01,-2.574789013414696126e-01,-2.607061406041366602e-01,-3.472252110253746995e-03,3.342239732768742706e-03,-8.597234034563316224e-03,3.072850406169891357e-02
-2.854081654177276217e-01,-2.606510593042016821e-01,-2.601181838323812223e-01,1.221801180980262901e-03,-8.579665728843023252e-04,-4.567533196224223858e-03,2.637545205652713776e-02
-2.611463835286194635e-01,-2.851856732845123865e-01,-2.578701147496126334e-01,-5.313679923855486658e-04,-2.444854617204107912e-03,-2.663221175679405606e-04,2.619870938360691071e-02
-2.895038114625118619e-01,-2.469260217708510452e-01,-2.675148747631329593e-01,-5.422726268883426700e-04,3.340074914727099789e-03,-7.041561221792553074e-03,3.928412497043609619e-02
-2.828455175411808686e-01,-2.625665542954280784e-01,-2.601459406984240053e-01,-2.238511189957804581e-03,1.627339375544959929e-03,-4.324632575595879248e-03,2.335097640752792358e-02
-2.824050869976340583e-01,-2.622881168525704743e-01,-2.615549743255115578e-01,-2.504106991881230662e-03,2.418299796814693276e-03,-3.838558012808307961e-03,2.237271517515182495e-02
-2.839056376641195256e-01,-2.607505216001355652e-01,-2.599207042904686515e-01,-1.110572813030338358e-04,5.316101741774241799e-04,-5.443786666787200261e-04,2.361856028437614441e-02
-2.618702749410074526e-01,-2.618678342165286499e-01,-2.806980139599841717e-01,2.478256072333081443e-04,-6.979662007022772313e-04,-4.825253134676649441e-04,1.889110729098320007e-02
-2.850941414004747876e-01,-2.517696661052246099e-01,-2.673890632186379235e-01,-4.512399271411020665e-03,4.563918647181708539e-03,-1.181005401043160388e-02,3.709425032138824463e-02
-2.714927326983480049e-01,-2.678052132138704633e-01,-2.645857022237573242e-01,2.251741925989126768e-03,-1.466226110849290411e-03,-1.506653057165055400e-03,8.019073866307735443e-03
-2.827682661728291857e-01,-2.430372257154095328e-01,-2.798278924333741369e-01,-2.336967755268179285e-03,5.185150958884781822e-03,-5.105280468543412636e-03,4.056612402200698853e-02
-2.772248075823576796e-01,-2.789839314963336037e-01,-2.460019726561492037e-01,6.160748591418396640e-03,6.493591905917223996e-03,5.762173494515489963e-03,3.705209121108055115e-02
-3.057102661090976281e-01,-2.464544438493317113e-01,-2.460803529485036667e-01,6.400422961542108317e-03,2.457668960948133224e-03,4.512658909020159093e-02,9.891311079263687134e-02
-2.801452912493026526e-01,-2.689832094197685541e-01,-2.552182212250343474e-01,4.861394496624565909e-03,2.491135189528129960e-03,3.057946722947083029e-03,2.419261820614337921e-02
-2.846599867155159558e-01,-2.895952191616708582e-01,-2.302709782624109136e-01,1.815410707331917371e-03,4.121856276900382095e-03,5.275274437248841670e-04,5.755548924207687378e-02
-2.738244324102092619e-01,-2.890414919108535430e-01,-2.426026498341139481e-01,3.661330583246598554e-03,2.991395027610776070e-03,2.200239025150046209e-03,4.198865219950675964e-02
-2.837093017902794223e-01,-2.614130774082424891e-01,-2.596554357170117178e-01,3.274596591697621732e-04,2.716273179641960289e-05,-1.033621855883611138e-03,2.330083027482032776e-02
-2.636540584923655062e-01,-2.792406745417163605e-01,-2.613207544669478022e-01,-2.401320297695032011e-03,2.155070438444071229e-03,-1.450818998967947412e-03,1.795276813209056854e-02
-2.602145895665341491e-01,-2.592160533800122457e-01,-2.906169062739407671e-01,2.283047379130452928e-02,-8.857666292083838169e-03,-9.376489891555468345e-03,5.494067445397377014e-02
-2.647255149714337619e-01,-2.858382937120264033e-01,-2.498325442327128387e-01,-7.450705874238926218e-03,1.829279287463191073e-02,-7.131414758358659706e-03,4.801011458039283752e-02
-2.864670099988167462e-01,-2.545705877967552877e-01,-2.644332831408446882e-01,-1.566607963855560332e-04,-1.230371958283728480e-03,-2.405379769050786185e-03,2.867128327488899231e-02
-2.600343109730783309e-01,-2.923013176529289381e-01,-2.481396335975944722e-01,-9.007927751437841413e-03,2.828634226300597368e-02,-7.119859764772600366e-03,6.604775041341781616e-02
-3.122197892601973335e-01,-2.341010854596341784e-01,-2.299184155827633802e-01,5.822866686355089583e-02,5.516390043713480240e-02,1.060169610559617698e-01,2.438574582338333130e-01
-2.122324132298346600e-01,-2.893894204771232381e-01,-2.967800392991111758e-01,-2.231255750125555118e-02,1.918496251595737737e-02,-1.103590968622096373e-02,9.767894446849822998e-02
-2.548785481461973146e-01,-2.842279630049807659e-01,-2.657003937798877446e-01,-1.769681179243199221e-03,2.530837434839765081e-03,-2.836185274967123904e-03,2.671382017433643341e-02
-2.641836723575955448e-01,-2.776075317075624160e-01,-2.643755477336192095e-01,-2.980953498504843469e-03,3.146664680896505382e-03,-2.447480466507662936e-03,1.587432995438575745e-02
-2.640386749861399762e-01,-2.777696232831263212e-01,-2.622650675995374936e-01,-4.698288170468396460e-03,-5.044144354050111682e-03,4.195171725424316246e-03,2.028270810842514038e-02
-2.490582219586238710e-01,-2.867402588120407381e-01,-2.686385573004521632e-01,-6.137393222062136142e-04,7.481676653626511894e-03,-2.350718661169845774e-03,3.537135198712348938e-02
-3.053762708227282796e-01,-2.713540628311850722e-01,-2.316323457373867523e-01,1.103898479600212267e-03,-2.537719343076288298e-02,-5.462477963503035994e-02,1.223683282732963562e-01
-2.610835747955855823e-01,-2.748553625697104930e-01,-2.691493913699385954e-01,-8.261383031880973737e-04,-1.216497184961587473e-03,2.816607699629741345e-03,1.318809203803539276e-02
-2.648876608873494409e-01,-2.543855733770272187e-01,-2.861650665936755766e-01,1.623838070871854453e-03,-3.349417343384628173e-04,-2.828687547934819239e-04,2.819514460861682892e-02
-2.681489025803265314e-01,-2.525003982605561470e-01,-2.827727082753806465e-01,4.043370201975760025e-03,-4.000158038332133660e-03,-1.620877934673164988e-03,2.815145067870616913e-02
-2.744685103218653666e-01,-2.817218380810232459e-01,-2.488408010763784595e-01,4.149497451680776369e-03,-2.810093436572840865e-03,-2.270298095790971096e-03,3.140197694301605225e-02
-2.590742562654037573e-01,-2.619418889088299118e-01,-2.832385685856603219e-01,2.576867027585265282e-03,-8.325883167351984986e-04,-1.756916422068186901e-03,2.353940345346927643e-02
-2.647524730339389509e-01,-2.479452848131916132e-01,-2.885514951399189565e-01,7.343169694452734986e-03,-3.765080503033491131e-04,-3.243013467042152884e-04,3.756829723715782166e-02
-2.555389170925693731e-01,-2.576415168447963033e-01,-2.899687018163525365e-01,1.026825601600301827e-02,-3.237973052936426836e-03,-3.646143870226382401e-03,3.879544511437416077e-02
-2.583386176969656445e-01,-2.697549635932689482e-01,-2.732997418416328594e-01,1.089092298724441722e-02,-6.709008559714766534e-03,-7.141245684181561290e-03,2.876157127320766449e-02
-2.257797075549968224e-01,-2.595880080532604328e-01,-3.269975168168125501e-01,8.268153739382844147e-02,-9.786331977785476394e-03,4.899520760297770795e-04,1.695959568023681641e-01
-2.708623480690569019e-01,-2.664083350618596246e-01,-2.675751899025811120e-01,6.062410785694055237e-04,-4.488888703351908956e-04,-6.204183850004246293e-04,4.343321546912193298e-03
-2.752366026261691689e-01,-2.657803321211668623e-01,-2.642278584402287800e-01,6.222471039857485403e-04,-6.229411652954891130e-04,-7.838906520451569947e-04,1.052050571888685226e-02
-2.644853131435691562e-01,-2.777634893667917937e-01,-2.632542991490994799e-01,1.903396316038797904e-03,-2.744678096489776634e-03,-2.497212275887615660e-03,1.569546759128570557e-02
-2.726605897878062179e-01,-2.649403988102885799e-01,-2.660407126426943547e-01,2.222305935745020472e-03,1.678911545322724639e-03,1.316842190348993221e-03,8.988425135612487793e-03
-2.645467487059307010e-01,-2.781623172613137407e-01,-2.618166333119895106e-01,2.259406266737359892e-03,-9.220337877158754376e-04,-5.845515304468369483e-04,1.577655225992202759e-02
-2.604380987882501941e-01,-2.603060698090251535e-01,-2.856292580292689176e-01,4.780569505480332208e-03,-7.952403979903080369e-04,-9.064771270591547980e-04,2.666199021041393280e-02
-2.588173078895624202e-01,-2.615038208345789594e-01,-2.844895891843098878e-01,2.950281661404232508e-03,-1.228598032453168424e-03,-8.474655854063164583e-04,2.510198950767517090e-02
-2.623042288727336913e-01,-2.628363755173593330e-01,-2.795907213630158816e-01,1.784954623557722005e-03,-1.822671883108942844e-03,-3.097830009047925805e-03,1.839079335331916809e-02
-2.629526868503249681e-01,-2.720514918987772535e-01,-2.694925176952733259e-01,-1.235051541605287125e-03,-9.828875729478451975e-04,3.218643898852151762e-03,1.022772025316953659e-02
-2.655519022892010028e-01,-2.726213468897806247e-01,-2.662424387703197226e-01,6.264890072283623703e-04,-4.212007163914746177e-04,-1.293277714043198062e-03,7.231844589114189148e-03
-2.619115066822558791e-01,-2.653919692733016644e-01,-2.778834961508047097e-01,1.199679376905383142e-03,-1.160057079491209550e-03,-2.822904526824330899e-03,1.561695896089076996e-02
-2.748492564023936047e-01,-2.747067871509014658e-01,-2.548184771894775325e-01,4.828016634874272156e-03,-2.518985849430758865e-03,-2.240110267042590749e-03,2.241468243300914764e-02
-2.751185804045101491e-01,-2.610711430035205227e-01,-2.690776167504981276e-01,1.158944759171972325e-03,-2.380931283628946477e-03,-1.856926929338598761e-03,1.342922821640968323e-02
-2.652501201832236366e-01,-2.673735349421961782e-01,-2.728689233819713289e-01,1.460403476682977904e-03,-2.198964241246065526e-03,-1.788004947605794336e-03,8.767709136009216309e-03
-2.625524609297985035e-01,-2.610594593346819980e-01,-2.823034657334020370e-01,3.529197749785219565e-03,-2.453384936392583558e-03,-2.086074622355436111e-03,2.214266546070575714e-02
-2.601712519105663368e-01,-2.625186609647680025e-01,-2.812773988457370478e-01,3.245204754380330136e-03,-7.894243121310291897e-04,-2.179125230331354756e-03,2.119302749633789062e-02
-2.673459439178126895e-01,-2.675616426946067494e-01,-2.698815322882949230e-01,1.479811715079987775e-03,-1.850994379297290094e-03,-1.115534551972995579e-03,5.148799158632755280e-03
-2.695261687196457423e-01,-2.715345246605187501e-01,-2.633905092842407925e-01,3.187142188909132274e-03,-9.514251015703073869e-04,-8.432989935611640356e-04,9.451196528971195221e-03
-2.679917653170725833e-01,-2.683873366311643194e-01,-2.679024748452979998e-01,2.814757551589643298e-04,-8.439358523077145069e-04,-2.487161916964845954e-04,1.661240006797015667e-03
-2.679120642243359995e-01,-2.666353999153068255e-01,-2.694637781374680796e-01,9.625469545257831720e-04,-1.389449295006004500e-03,-5.166850916477962489e-04,3.923110198229551315e-03
-2.479653052073574060e-01,-2.784425018975109634e-01,-2.766492828432970397e-01,9.343200400541696454e-03,-9.669383739031681482e-03,-6.221375128132112901e-03,3.919076919555664062e-02
-2.638641806044569882e-01,-2.550510114540976980e-01,-2.874548317998666391e-01,1.158584230803012989e-02,-3.181712780336939765e-03,-2.115897686200636941e-03,3.589700907468795776e-02
-2.726949616517688191e-01,-3.026688073822699776e-01,-2.425593085696194640e-01,2.142939426398534492e-02,-6.015040009025443557e-02,-2.111209458561710828e-02,1.275887936353683472e-01
-2.818117700546589610e-01,-2.566354621150586102e-01,-2.662979053126174334e-01,9.826111323729888603e-04,-2.868371655825897263e-03,-2.269513839219123360e-03,2.295595780014991760e-02
-2.906589467245695446e-01,-2.920804238229647298e-01,-2.243609530504788174e-01,4.108375186339582180e-02,-7.480336735223779010e-02,-6.431605163565523586e-02,1.968542784452438354e-01
-2.662562195676301258e-01,-2.672310016611391115e-01,-2.708210255177277426e-01,5.084713634120884311e-04,-1.482466719142370212e-03,-5.619190457884723228e-04,5.064975004643201828e-03
-2.603276898289005326e-01,-2.748129703758540043e-01,-2.694588610981213939e-01,7.949483478507738668e-04,-1.206535666259321918e-03,-3.375748928185239202e-03,1.419098768383264542e-02
-2.752389194260970728e-01,-2.676178098211779433e-01,-2.619039374915494989e-01,3.839755209832272469e-03,-1.263061903579772421e-03,-1.734304075154474321e-03,1.386781409382820129e-02
-2.766014639290189647e-01,-2.707211937058731643e-01,-2.559105157623930427e-01,8.951376704200536896e-03,-9.281486805961655304e-03,-1.066479503839861537e-02,3.436651825904846191e-02
-2.968068512960762573e-01,-2.755998120554588038e-01,-2.277992768356535136e-01,3.739434355432486035e-02,-7.796814221287562408e-02,-5.720310349729615385e-02,1.897288262844085693e-01
-2.710264059623742061e-01,-2.667998496597888680e-01,-2.663446246262674011e-01,5.584766369513169100e-04,-1.372841037811082252e-03,-2.795410444160174803e-04,5.178729537874460220e-03
-2.738504872297981563e-01,-2.486190389246101251e-01,-2.821683262373391732e-01,-3.193560666548511066e-03,3.327022668652649968e-03,-1.889457028483205580e-03,3.146740421652793884e-02
-2.308176355443712358e-01,-2.884434794882719810e-01,-2.615366874694239896e-01,6.104623031814368495e-02,-8.367088094259216013e-02,-5.443072081044827981e-02,2.087215185165405273e-01
-2.689974092271921746e-01,-2.604788144005310557e-01,-2.751969723424381176e-01,-9.109880763639739004e-04,3.505817087960710378e-03,-9.616785426209584643e-04,1.435092464089393616e-02
-2.655364175024329532e-01,-2.846666915824159205e-01,-2.543132131909034421e-01,-1.597420368772861535e-04,2.162138452337171272e-03,-3.258089665469156597e-04,2.685237862169742584e-02
-2.718259964557789288e-01,-2.627835321079690645e-01,-2.694935030948768517e-01,-9.986081776089258347e-04,3.068116489584328446e-03,-1.021136242543713591e-03,1.002372335642576218e-02
-2.606710089274750231e-01,-2.844909279819743397e-01,-2.597046380890188355e-01,-2.856213297557443119e-04,3.846870285114342464e-04,5.249462300401277733e-04,2.434864826500415802e-02
-2.635609797661019882e-01,-2.789131597971579168e-01,-2.625494390270581291e-01,-1.585597982520834228e-03,4.883475665477121511e-04,-8.829490841430724527e-04,1.621229760348796844e-02
-2.645476578292336178e-01,-2.837032224147107429e-01,-2.573703728050782957e-01,-3.853705164439863440e-03,8.206807416608112582e-03,-1.946175413401308486e-03,2.852902002632617950e-02
-2.626233273176294958e-01,-2.788999358911254389e-01,-2.634568684862674259e-01,-9.056606462569350910e-04,4.347650177113887137e-04,-1.546121657756294220e-03,1.619428209960460663e-02
-2.613978015268787480e-01,-2.787683375308994682e-01,-2.616072329499716242e-01,-4.527008523593858275e-02,5.017204939799896346e-02,-3.164979300255319622e-02,1.303959935903549194e-01
-2.686213884118232587e-01,-2.849575039945217436e-01,-2.489015062010179191e-01,-5.754275096491010162e-03,5.453930577660109913e-03,-3.107649013065146709e-03,3.457502275705337524e-02
-2.476172061536180691e-01,-2.877024059127246125e-01,-2.682257814300121335e-01,-3.154092015837946347e-04,-6.600863439726874053e-03,9.779494289730550870e-04,3.659671545028686523e-02
-2.567546701925771391e-01,-2.838156413691197977e-01,-2.650674231754196475e-01,-1.975774393858745204e-02,-2.276755850479094193e-02,1.059963975578651595e-02,6.032988056540489197e-02
-2.574109253027350164e-01,-2.801731139363863310e-01,-2.676667891999932603e-01,-7.829977295450458053e-04,-2.355182938572774123e-03,2.673986687149697544e-03,2.073124609887599945e-02
-2.648040434750494332e-01,-2.890500651404370180e-01,-2.531037744315627891e-01,-3.574083788582165314e-03,-1.322563786115105861e-02,4.827873504902057984e-04,3.965128958225250244e-02
-2.857140428665327359e-01,-2.657629352548180335e-01,-2.545978401872058816e-01,2.677051267156029890e-04,1.759201097221475395e-03,-1.165395316023444885e-02,3.409406542778015137e-02
-2.847172591407944320e-01,-2.549648595298899534e-01,-2.649321850576994430e-01,-8.902967709635250648e-04,1.831634099853850185e-04,-2.069896846913420792e-03,2.652042545378208160e-02
-2.630452763750589229e-01,-2.816091988817170377e-01,-2.618924457392121652e-01,-3.905120842244510886e-03,-4.631177139692676040e-03,2.803810269990124771e-03,2.238362468779087067e-02
-2.707978925964462102e-01,-2.710086977806245301e-01,-2.647848502213418498e-01,-5.530748362809103334e-03,3.921502775835391912e-03,-5.716205998035308287e-03,1.653468608856201172e-02
-2.891477816908085696e-01,-2.738327603403969412e-01,-2.423848935597008314e-01,-2.177017577870431035e-03,9.897916392541013242e-04,-3.705149993623060162e-03,4.199386388063430786e-02
-2.580611937024622216e-01,-2.823287843354111981e-01,-2.633860260878036486e-01,-1.404984181302539568e-03,-3.593915558237415105e-03,3.135896408380391132e-03,2.371120266616344452e-02
-2.866012155880606205e-01,-2.542940897398413003e-01,-2.648629550234895547e-01,-8.905552570654082538e-04,1.751393426882205326e-03,-2.070883335281011213e-03,2.895597927272319794e-02
-2.714395603224650788e-01,-2.921234515900301698e-01,-2.432587886647785691e-01,-1.346269618636856090e-02,-2.062446158691170345e-02,3.119037271391052277e-03,6.044741719961166382e-02
-2.639447410352389611e-01,-2.816111622794610914e-01,-2.594292374210762087e-01,-3.692579873295224850e-03,-4.903727045367567428e-03,8.615021820722538592e-04,2.296816557645797729e-02
-2.614512246612221702e-01,-2.569391267313272942e-01,-2.855239062884538659e-01,-3.552429572645800313e-03,1.232349533502724570e-04,3.245161975508719363e-05,2.731994353234767914e-02
-2.841655391531646146e-01,-2.548030473687810105e-01,-2.661060112925625054e-01,4.749858289819158070e-04,-1.773471584612720852e-03,-2.045227946673868792e-03,2.609005570411682129e-02
-2.052297504334870404e-01,-2.252674373733937196e-01,-3.816528736342802985e-01,1.117299735987443698e-01,-4.221108658513299250e-02,-2.653210584369524588e-02,2.699989974498748779e-01
-2.872114458087219324e-01,-2.436755599247489856e-01,-2.738004673470992856e-01,-1.243900556186130612e-03,4.665960349545788394e-04,-4.073896720737026945e-03,3.932497650384902954e-02
-2.511928870641668698e-01,-2.835671543787414706e-01,-2.679697480655807706e-01,-1.459398144231017960e-03,-7.000480845034582136e-03,4.381845218282891426e-03,3.158210217952728271e-02
-2.756170886679065735e-01,-2.578801708320061503e-01,-2.697686513894094751e-01,2.006894619283868929e-03,-4.625556044724276651e-03,-3.195354190790990721e-03,1.876087114214897156e-02
-1.550875716245252722e-01,-2.723716806999593176e-01,-4.157348319410548165e-01,1.460885347635361986e-01,2.477406051096573900e-02,1.261764191915990332e-02,3.427349328994750977e-01
-2.738608887290915894e-01,-2.649564758620807647e-01,-2.650134377429399501e-01,1.253739139027010415e-03,-2.106127176022864426e-03,-1.676105834889744144e-03,1.025843527168035507e-02
-2.661043626799519668e-01,-2.653202569749337214e-01,-2.725102667974201864e-01,-5.108188985396983897e-04,-1.572643305133107020e-03,8.584133429329668906e-04,7.555553223937749863e-03
-2.543318239501088374e-01,-2.690429265981183482e-01,-2.802347072690565266e-01,4.320020006872349848e-03,-2.445616118406512308e-03,-5.036652917055195640e-03,2.561933547258377075e-02
-2.816967094860532428e-01,-2.489175871930192907e-01,-2.743279912852203961e-01,1.926683321531165189e-03,-3.978266731436772528e-03,-3.208940270475772825e-03,3.125279024243354797e-02
-2.597093158966242710e-01,-2.609867948995297504e-01,-2.838511156266631530e-01,5.935020333378575232e-04,-4.307400816816714492e-04,-6.545991753873595955e-05,2.356361597776412964e-02
-2.848031167314499790e-01,-2.602626418216847926e-01,-2.604406629914760574e-01,9.945814902524528073e-04,-1.456344432339311094e-03,-4.852593537587066540e-03,2.603596076369285583e-02
-2.868329361042797343e-01,-2.653882064338093372e-01,-2.497283868909210836e-01,3.195725875394072289e-03,-2.176191570348645979e-03,-6.751715565069728135e-03,3.496468812227249146e-02
-2.839584468653566507e-01,-2.670282295322758404e-01,-2.502688088018290014e-01,3.968657974245097357e-03,-1.429623495733870495e-03,-7.230981788711184077e-03,3.258058428764343262e-02
-2.845888361742002215e-01,-2.576368732778216986e-01,-2.620467250203751264e-01,1.201491458328300286e-03,-2.264356201421339164e-03,-2.296077996838397084e-03,2.573964931070804596e-02
-2.083468576902626213e-01,-2.984795333321558219e-01,-2.999484924472170522e-01,3.458788237522762710e-03,6.055006480007042290e-04,-1.000830465084629091e-03,9.109584242105484009e-02
-2.619820900097424854e-01,-2.685351987008948726e-01,-2.746782718225930231e-01,3.845257613664366213e-04,-8.763404191997122440e-04,-3.415732635909012830e-03,1.259706262499094009e-02
-2.777935381033359574e-01,-2.891917214016679893e-01,-2.374300122035361282e-01,4.423109962457252506e-03,-7.160475510859678691e-03,-4.494079525689629630e-03,4.992296919226646423e-02
-2.779845563144198173e-01,-2.618749424762423783e-01,-2.644393032228395390e-01,8.890705384399132582e-04,-2.411398020104046826e-03,-1.118221923941389081e-03,1.575918309390544891e-02
-2.830230396535152182e-01,-2.488150813035223952e-01,-2.732782175527781465e-01,1.765012605446513935e-03,-3.740145743810346056e-03,-3.316802606410078607e-03,3.187649324536323547e-02
-2.967005549948285026e-01,-3.010885036863297781e-01,-1.802752576224505021e-01,4.053598388775699057e-02,8.863022066932789433e-02,7.732256470941498150e-02,2.460015416145324707e-01
-2.786724163862206449e-01,-2.695087800179310489e-01,-2.558444182362564767e-01,5.190956526774294366e-03,-2.275208826696490261e-03,-3.079595529777456354e-03,2.281932905316352844e-02
-2.656407556873073283e-01,-2.678839252136605009e-01,-2.707084954126788845e-01,8.579070792978024662e-04,-1.089564007444965982e-03,-1.736798249437353269e-03,5.845071747899055481e-03
-2.783475114672385731e-01,-2.590300039975709234e-01,-2.672850146497440793e-01,2.667798417740297520e-03,-3.729000012449855926e-03,-1.831111393737028942e-03,1.884069293737411499e-02
-2.699314435058599027e-01,-2.585135174931579294e-01,-2.755388826713389139e-01,3.280175509587501727e-03,-4.724056207661215395e-03,-2.030715753899040195e-03,1.836948283016681671e-02
-2.648104572137216506e-01,-2.847046666684990290e-01,-2.555150229015181185e-01,-2.149686443256206957e-03,-2.154601050550324689e-03,5.519740822916433323e-04,2.637829445302486420e-02
-2.791479802248539865e-01,-2.546353096666714166e-01,-2.696486855269058514e-01,4.122259140749963413e-03,-5.327863005080943001e-03,-3.620640616548874077e-03,2.517377771437168121e-02
-2.822881561732667466e-01,-2.393781469469603851e-01,-2.820917290561991697e-01,1.836684755070844971e-02,-1.382673051056333008e-02,-1.466646885395136643e-02,6.374757736921310425e-02
-2.657789037307985991e-01,-2.550605535905711707e-01,-2.844993208792609418e-01,-1.768836231952926026e-03,1.921617667150200999e-03,-7.514554249516786034e-04,2.623256109654903412e-02
-2.342312385885355064e-01,-2.747035745335977830e-01,-2.922687945544621413e-01,1.154548119024714943e-02,-9.466635973197708338e-04,3.793421093238909378e-04,5.532148852944374084e-02
-2.292427625928884771e-01,-2.837814381219119220e-01,-2.935471846947645957e-01,4.742969053453783591e-03,-8.280878134081444712e-04,-1.602265892538290958e-03,6.066048145294189453e-02
-2.245726520221855149e-01,-2.954918696897735342e-01,-2.878662516651094294e-01,5.074272209164169128e-02,-2.186530672710413140e-02,-1.096271211939066174e-02,1.186008974909782410e-01
-2.640422350385303596e-01,-2.639175361247175222e-01,-2.758969383373503503e-01,-6.233234458517883858e-04,7.908224260869115745e-04,-1.859162076197690659e-03,1.246752031147480011e-02
-2.567126922820769375e-01,-2.587508240830708739e-01,-2.855809088931594575e-01,-1.085003884615916292e-02,2.749991259999539934e-03,-2.590474177153432710e-03,3.427360206842422485e-02
-2.306980236671075657e-01,-2.879169919652123100e-01,-2.877882374666430598e-01,8.272224883010475399e-03,-1.088223607949237622e-02,-5.689371075762843406e-03,6.264442950487136841e-02
-2.851025993492903310e-01,-2.266608090285404387e-01,-2.926969471043212034e-01,-4.717649484774299670e-03,-2.106221406392404238e-03,2.128166423977065607e-03,6.332936882972717285e-02
-2.080172260681028285e-01,-3.109799718848554884e-01,-2.883438072551221532e-01,1.840189823485357395e-02,-2.090429247601764684e-02,-4.832641783078238905e-03,1.057353392243385315e-01
-2.263874916299298268e-01,-2.899474837563474905e-01,-2.880991978111030472e-01,5.715046444064286746e-03,-5.450905198566760070e-03,-5.122139105443187547e-03,6.474290043115615845e-02
-2.395357953822586095e-01,-2.797472462944436966e-01,-2.849179693210148190e-01,6.550495076225211835e-03,-4.211056027090591403e-03,-6.358362289093707521e-03,4.642016440629959106e-02
-2.438721088550670490e-01,-2.866431946119659679e-01,-2.760019602823565177e-01,-1.095814895516813471e-02,1.100418223591300565e-02,-7.195887047134415931e-03,4.864489659667015076e-02
-2.604255936417977368e-01,-2.619619108370179750e-01,-2.827275632172903119e-01,-4.706945294572340184e-03,-1.635864004380051988e-03,2.181835673909205374e-03,2.354252710938453674e-02
-2.814136089280380171e-01,-2.496000112815275618e-01,-2.740500045422241682e-01,-2.019645877151411435e-03,3.535484228838557241e-03,-2.660319776546347156e-03,3.005050122737884521e-02
-2.614883757250093255e-01,-2.620413495399384063e-01,-2.805261518279850708e-01,-1.395979120030991377e-04,-7.763077822946709431e-04,5.070973516133117902e-04,1.883754692971706390e-02
-2.870136476898541011e-01,-2.376089259218834571e-01,-2.763841743987738298e-01,-5.053810355260549003e-03,6.273450314519020063e-03,-9.838510895653995378e-03,5.013727769255638123e-02
-2.572366370627521825e-01,-2.660521522925637927e-01,-2.808829558999579312e-01,-1.594286300471240000e-03,-8.894486946567426496e-04,2.245657669767873836e-03,2.129635587334632874e-02
-2.691478946801044714e-01,-2.648221781398866770e-01,-2.704440279170870487e-01,-8.136277142455549879e-04,2.454936500690804799e-03,-7.742676608393783688e-04,6.918314378708600998e-03
-3.736643155136984418e-01,-3.167989466146485800e-01,-1.563491269345831658e-01,5.596211146785939547e-03,-3.511934278519829138e-03,-1.159703989419170744e-01,2.803216278553009033e-01
-2.493886395034706771e-01,-2.661788718718489100e-01,-2.878178850853167492e-01,-5.481819164324092282e-03,-9.450634855329412189e-04,1.531790658584897876e-03,3.483320772647857666e-02
-2.500404426787091183e-01,-2.674749529807685100e-01,-2.846260043026214159e-01,-5.426422701066874882e-03,-3.344381384196151458e-03,4.883001812806053027e-03,3.302370011806488037e-02
-2.631464173450919208e-01,-2.578437664964045029e-01,-2.833390038657859211e-01,-2.848625997604034565e-03,-2.649564278912135661e-03,1.406528493758523639e-03,2.437770366668701172e-02
-2.548421057880304597e-01,-2.680870248906201403e-01,-2.799543917755067945e-01,-4.197957979926456376e-03,-2.661354435784254058e-03,4.529384302034035817e-03,2.468010410666465759e-02
-2.609172162173270526e-01,-2.637325346328180942e-01,-2.803867254981874946e-01,-4.555138790203756404e-04,-7.174554499548193697e-04,1.850525646787698486e-03,1.856380887329578400e-02
-3.325408272313319369e-01,-2.357854217206397651e-01,-2.263759682170675414e-01,6.877744159400406808e-03,5.092516803420699817e-03,-1.083069127319780528e-01,2.139426022768020630e-01
-2.871911463611551141e-01,-2.432056846239081804e-01,-2.738036721149610386e-01,-3.494016945567739629e-04,-2.889418935505639035e-03,-4.363574210330706249e-03,4.009521007537841797e-02
-2.853056070260197030e-01,-2.611867317448803849e-01,-2.572801968360424185e-01,-6.735298367501277046e-04,8.689966122258528040e-05,-3.747732628091061946e-03,2.710576541721820831e-02
-2.900355428445829387e-01,-2.360238844858642548e-01,-2.788983321162834539e-01,-1.230776436771293357e-02,8.273870086260933301e-03,-1.130385048570156474e-02,5.901611968874931335e-02
-2.825792475589740671e-01,-2.746832895187316659e-01,-2.466338715570356721e-01,-3.573959353326409613e-03,2.260316396769974576e-03,-3.102981873256796183e-03,3.395769745111465454e-02
-2.838646850277246614e-01,-2.587185867461326838e-01,-2.611961119162047873e-01,-8.961621839883510739e-04,1.617958249687034573e-03,-3.208769408768611178e-03,2.484583668410778046e-02
-2.897344495045497403e-01,-2.424370409151727634e-01,-2.733292707234167840e-01,1.091796816388891108e-04,-1.109215074347463716e-03,-4.404776749760392664e-03,4.233421012759208679e-02
-2.935706459823813619e-01,-2.198736017102757845e-01,-2.921640517149938221e-01,-2.139905757077463326e-03,8.887826370375291076e-05,-2.867596167864617639e-03,7.326664775609970093e-02
-2.860364739746988905e-01,-2.504136357729441764e-01,-2.675134429076036491e-01,-3.348394013105867283e-03,2.756967811797910936e-03,-5.372078420477972502e-03,3.309474140405654907e-02
-2.801765359751368645e-01,-2.690764785361707823e-01,-2.544014289149694741e-01,-3.901659672557238230e-03,2.338032196356254477e-03,-4.086487611984155818e-03,2.477152459323406219e-02
-2.419731143605602097e-01,-2.731698989929909338e-01,-2.898540685272736339e-01,4.259435150918386946e-03,-2.498027692363618147e-04,8.405184014609292298e-04,4.276480153203010559e-02
-2.595335199724678743e-01,-2.614362559848194545e-01,-2.837656685890393438e-01,1.068515505342098161e-03,1.495199733710320805e-04,3.623822924533197680e-04,2.342213131487369537e-02
-2.810755594357685072e-01,-2.635376663458210977e-01,-2.596027419365951050e-01,-2.246201614341404758e-03,9.072747144473923206e-04,-2.590665705205643255e-03,2.073190733790397644e-02
-2.777001314410865729e-01,-2.346193125015477443e-01,-2.908195053269828079e-01,-1.001904702428391136e-02,-1.297570154533372270e-03,1.369115115331601433e-03,5.389885604381561279e-02
-2.958920893848944744e-01,-2.132198242549193379e-01,-2.937155856186988157e-01,3.081322096888699808e-03,-1.419204607795511918e-03,-1.018872123758586589e-03,8.183608204126358032e-02
-2.665018850320086674e-01,-2.512515856118283097e-01,-2.844355901824321409e-01,5.007521129197054117e-03,-2.987111145835782879e-03,-1.327791259275248881e-03,3.057723306119441986e-02
-2.793591250698135298e-01,-2.668888720964250894e-01,-2.591507150422822092e-01,-3.058460553318452079e-03,1.199806266320102566e-03,-1.407876257103773780e-03,1.871391385793685913e-02
-2.337880287358225506e-01,-2.948711205068670904e-01,-2.756645008550775433e-01,3.063550281703339754e-04,-7.135298131288178233e-03,-1.093563038593116854e-03,5.552877858281135559e-02
-2.761417836773643608e-01,-2.674539900183766639e-01,-2.577198152074002824e-01,2.309703692838458583e-02,-2.782532893356009368e-02,-3.414444199271224334e-02,8.760990202426910400e-02
-2.166960426699839903e-01,-3.031938745110872024e-01,-2.897600188458461234e-01,7.330249334841760708e-03,-2.109435673937741854e-02,-1.460718047494520208e-02,9.293312579393386841e-02
-2.655732117593959107e-01,-2.657835656588499740e-01,-2.733404467724237508e-01,1.997017196310105994e-03,-2.423575538011132468e-03,-2.564817859088103658e-03,1.039521954953670502e-02
-1.124176615745888230e-01,-3.273972307905638202e-01,-4.067037111885050127e-01,1.035188150586043854e-01,-2.250841505944006435e-02,-5.362060577611493448e-03,3.214180767536163330e-01
-2.673055282546552003e-01,-2.629875873902228767e-01,-2.748635269631914957e-01,1.676168152645402627e-03,-3.805004650340414185e-03,-1.109925491830045111e-03,1.280474755913019180e-02
-2.157100378996614776e-01,-2.925798701395205814e-01,-2.971932717626004083e-01,1.478404196266664208e-02,-1.431102790540585146e-02,-1.566873855907735622e-03,8.696189522743225098e-02
-2.780120158719273094e-01,-2.994966415013366468e-01,-2.263953804033971007e-01,3.034825484771900683e-03,-1.725065524460768149e-02,-5.693891547927282942e-03,7.247397303581237793e-02
-2.612906996232038925e-01,-2.588692785443744704e-01,-2.846939785387547772e-01,2.749535357723209995e-03,1.297893651370211942e-03,1.414252076237137654e-03,2.537675388157367706e-02
-2.604705803720965274e-01,-2.615873205163721793e-01,-2.828591201013253009e-01,6.467368611745101439e-04,-4.815582256081786094e-04,-9.991338661387203467e-04,2.196444757282733917e-02
-2.183101385247789850e-01,-2.945890518020715110e-01,-2.880752995095560709e-01,1.502345679552029301e-02,-1.608093754243405601e-02,-4.581583622601123618e-03,8.294524997472763062e-02
-2.259065280056900271e-01,-2.870664050102251230e-01,-2.903140268919804923e-01,7.563000654844323142e-03,-5.772402524305947011e-03,-4.715790116627458645e-03,6.548264622688293457e-02
-2.331501684732727175e-01,-2.870406011029813520e-01,-2.848601476461530835e-01,4.721152644632834253e-03,-3.535663364793576076e-03,-3.918711324646230974e-03,5.423897877335548401e-02
-2.598530289176752550e-01,-2.811119186729826858e-01,-2.631163788548862570e-01,-8.694153668991473584e-04,-3.264670025228288974e-03,2.063078235665814861e-03,2.098154835402965546e-02
-2.696238105924255168e-01,-2.723939545221156222e-01,-2.623289998435691661e-01,-3.470928976832830196e-03,-9.149114728281648821e-04,8.186004717151596118e-04,1.103445421904325485e-02
-2.658294224334628586e-01,-2.776680376557214003e-01,-2.606167922844780382e-01,-2.912803155812799995e-03,-1.671985860062105917e-03,1.371160682769177524e-03,1.638641953468322754e-02
-2.633551123536548300e-01,-2.610251127330874832e-01,-2.807270444996257663e-01,-5.036373109944177482e-04,1.673250993362357690e-03,-7.098950632015533580e-04,1.893044263124465942e-02
-2.657835034017672626e-01,-2.832412842080773707e-01,-2.559601462455308729e-01,-2.786289013154284906e-03,-1.600841404389671038e-03,9.231576891691722214e-04,2.462318912148475647e-02
-2.617776503499837926e-01,-2.795324966205658401e-01,-2.633041276262962360e-01,-1.901765661833042936e-03,-2.132371231861769460e-03,2.219437688930363164e-03,1.815850287675857544e-02
-2.671514844510005648e-01,-2.841739156908535957e-01,-2.520294385194554732e-01,-4.179577307729965066e-03,-3.829726089760957658e-03,2.317076823725645364e-03,2.980548515915870667e-02
-2.614084145094915379e-01,-2.616278023496700911e-01,-2.812531738966428940e-01,-8.639871503802943513e-04,6.395591146629759933e-04,-1.404336413044849144e-03,1.997227966785430908e-02
-2.673030800565648346e-01,-2.791495422709826535e-01,-2.566302450536267488e-01,-5.772250775547357708e-03,-3.943134832643789035e-03,4.257771113933267806e-03,2.411785349249839783e-02
-2.669579291109128172e-01,-2.716218783880912646e-01,-2.649457780324218081e-01,-3.953616131927576577e-03,-5.234310036603331308e-03,4.730996181117114695e-03,1.521249394863843918e-02
-2.651622122188378450e-01,-2.912031762705591942e-01,-2.448362484333439781e-01,-2.703599317561247370e-03,-2.100060838451363321e-02,3.004770624821917219e-03,5.470534786581993103e-02
-2.632399255662789539e-01,-2.791610918413136022e-01,-2.628595083667695786e-01,-2.969034406272157145e-03,-3.389459599196402179e-03,2.248363327907162111e-03,1.832378655672073364e-02
-2.370366776657339136e-01,-2.892916438317173489e-01,-2.774319601688854386e-01,-2.148989382604850600e-03,-7.894565373441958869e-03,2.199399334610468992e-03,4.966734722256660461e-02
-2.596062645645402234e-01,-2.790124909160183742e-01,-2.668992908042913115e-01,-1.400742182053904246e-03,-1.519098541635798254e-03,3.223577868676103745e-03,1.822754368185997009e-02
-2.543979311854239755e-01,-2.802456693680752675e-01,-2.687264720431011278e-01,-3.045901588752539940e-03,-4.456010873366130984e-03,4.867399634744386076e-03,2.572018094360828400e-02
-2.724717575045959017e-01,-2.654438322061324351e-01,-2.662419703175452623e-01,-1.739581444459778470e-03,2.343276726981350592e-03,-2.765934266324860009e-03,9.639603085815906525e-03
-2.503532966659872128e-01,-2.856570720942729902e-01,-2.671466226198464522e-01,-1.811954375583492861e-03,-4.622396327203399762e-03,3.197789057788232459e-03,3.225106745958328247e-02
-2.642774853851118655e-01,-2.630158009051708490e-01,-2.779583077929705937e-01,3.148861085807669324e-03,2.519328628910488289e-03,2.351178613550087247e-03,1.647388190031051636e-02
-2.671381725142560892e-01,-2.561302281602543252e-01,-2.818781747375033730e-01,-1.523438746959979769e-03,3.265045198408801815e-03,-1.063872798548057535e-03,2.330320328474044800e-02
-2.630131028245371039e-01,-2.685842513793085251e-01,-2.761443630997614251e-01,6.552920515995235527e-03,6.076620957073346381e-03,4.723923760746906973e-03,2.090110257267951965e-02
-2.916772107932933400e-01,-2.244089838002834847e-01,-2.859876719581643800e-01,-2.994374975673616611e-04,-2.442872286090747025e-03,-3.875523102052121603e-03,6.509908288717269897e-02
-2.644496415173712145e-01,-2.682137223990521679e-01,-2.714547118006332416e-01,1.029488336761258914e-03,1.286989344565793968e-03,2.453942714734233792e-03,7.942652329802513123e-03
-2.839127658762117812e-01,-2.289852691545233854e-01,-2.923665121282643109e-01,-3.635386030372381692e-03,1.508872344137600656e-03,-1.617016386860226996e-03,6.005964800715446472e-02
-2.654030406279866972e-01,-2.651344691630611039e-01,-2.734239786875704015e-01,1.338364036865049081e-03,2.679295921213128290e-03,1.192000395824536693e-03,9.886045940220355988e-03
-2.211064783228978425e-01,-2.808108864534569760e-01,-3.027630180105765900e-01,-3.154319936157041343e-02,3.264231348185649508e-04,-3.361595893084388768e-03,9.152209013700485229e-02
-2.624894443261708288e-01,-1.918965310216867726e-01,-3.833373402045719969e-01,-1.369715254629660095e-01,3.785427617866479050e-02,-4.153168737944937239e-02,3.063913583755493164e-01
-2.919098971703374956e-01,-2.222725383488634021e-01,-2.874223454048208115e-01,-1.949100430686950131e-03,1.688674561093686305e-03,-1.665593092599608254e-03,6.771464645862579346e-02
-2.979202391547690065e-01,-2.112093587336803524e-01,-2.961677542944354813e-01,3.756549840892673721e-03,1.143806267061029140e-03,-1.331796178012074720e-02,8.915297687053680420e-02
-2.931613577729994535e-01,-2.302333501402482607e-01,-2.836768736280761427e-01,-8.182631370315248190e-03,2.130480531787675227e-03,-4.671286035474926136e-03,6.109824776649475098e-02
-2.846484205618297625e-01,-2.356227312532136187e-01,-2.837162632851136790e-01,-3.311915471380856135e-03,3.273486271212799111e-03,-2.706370873766776423e-03,4.945416375994682312e-02
-2.922724591665206706e-01,-2.355668941578474285e-01,-2.796008691120935863e-01,-6.138423428021523229e-03,3.564770905008972802e-03,-1.858122735771268810e-02,6.200395151972770691e-02
-2.930760779257609028e-01,-2.219631565208503021e-01,-2.870827017232714384e-01,-1.210405300277229632e-03,2.396021316548902023e-03,-1.642872888504651012e-03,6.853084266185760498e-02
-3.068804390010654859e-01,-2.149954764662964091e-01,-2.746592696652797594e-01,9.670002752285881617e-04,-1.728147435142774217e-03,-3.797543191773564836e-02,1.042044833302497864e-01
-3.058817028396192961e-01,-2.000557193565180025e-01,-3.074744109960391714e-01,5.059920944698482505e-03,3.209289613743513195e-03,-2.578541680686010154e-02,1.160715073347091675e-01
-2.967564166165917450e-01,-2.165343621923893902e-01,-2.933676819013779635e-01,1.656704257763830842e-03,2.368234185985167899e-04,-7.535595338254952660e-03,7.971177995204925537e-02
-2.427697873233622683e-01,-2.736696327176416088e-01,-2.893392553892689123e-01,4.237632096439011148e-03,-1.200762711109213364e-03,-2.538470453393671267e-03,4.197685047984123230e-02
-2.929991649409668386e-01,-2.231392020420200351e-01,-2.909582801492569537e-01,-6.852437328397980969e-03,2.563168289869896532e-03,-7.385213855887756348e-03,7.117727398872375488e-02
-2.897108924842446975e-01,-2.730178725243869731e-01,-2.424714632640948830e-01,9.649743197049462807e-04,-2.054343951356655325e-04,3.930289170763759908e-03,4.208222404122352600e-02
-2.812878878102333391e-01,-2.617810547626864270e-01,-2.611030179716291033e-01,1.397325511162185105e-03,6.655026886499060875e-04,1.030008723200323204e-03,2.011396549642086029e-02
-2.842626606128253464e-01,-2.286550263434300179e-01,-2.923425264027411652e-01,4.125113179257983154e-03,-1.131639967401765721e-03,-6.882950274992771702e-04,6.052361801266670227e-02
-2.712764365155659885e-01,-2.442307275265866162e-01,-2.893573151145149569e-01,6.609380152302963413e-03,-2.396893579877775338e-03,-2.134166967784875517e-03,4.134428128600120544e-02
-2.565958874780099874e-01,-2.608909140088059853e-01,-2.868047894868221981e-01,2.864851261287474585e-03,-1.517269191885404312e-05,-7.330361869688509441e-04,2.876650542020797729e-02
-2.595052313485230466e-01,-2.606721096135488636e-01,-2.845421716643312116e-01,9.963615434043422182e-04,-1.751617943081797081e-04,-4.375091199177941616e-04,2.454871498048305511e-02
-2.594918374460248311e-01,-2.615612148937283554e-01,-2.836898740818508680e-01,1.181723220056938358e-03,-3.075750002445186068e-06,-4.054266803722298730e-04,2.333313040435314178e-02
-2.656859302582593729e-01,-2.575995479076069739e-01,-2.818129135618224201e-01,1.751669269567900740e-03,-2.945180341023410833e-03,-5.640765549992350983e-04,2.218242548406124115e-02
-2.582583009197361723e-01,-2.562086652462787217e-01,-2.891249779840313061e-01,9.713055088084810232e-03,-3.783811833812046957e-03,-1.995249542982820319e-03,3.685299679636955261e-02
-2.742754914464242688e-01,-2.488507697971631405e-01,-2.818699176103642845e-01,2.589810689039264997e-03,-4.289033583468118693e-03,-1.493955989895095517e-03,3.129189088940620422e-02
-2.984848429473134779e-01,-2.081741400135505571e-01,-2.982996913507316439e-01,-2.377495389839573686e-03,2.458536895171470251e-03,-4.984326794914659998e-03,9.082376956939697266e-02
-2.531031050598320231e-01,-2.824283627465469237e-01,-2.680530943000112853e-01,1.800994188489167622e-03,4.095508893416813928e-03,4.009130264646246396e-03,2.744686417281627655e-02
-2.666583311776160037e-01,-2.484176438702441481e-01,-2.874295340299276025e-01,5.053464063579164202e-03,4.408150093074147567e-04,4.168198417892940541e-04,3.493942320346832275e-02
-2.921118172302132332e-01,-2.282406208514606571e-01,-2.851193828627527904e-01,-6.951377200663667443e-04,-7.842371849477554812e-04,4.396523238743673540e-03,6.118081137537956238e-02
-2.737675858515972727e-01,-2.486610076937955660e-01,-2.828897616264262060e-01,2.662328356044547407e-03,-3.848068792320628873e-03,-1.224257049547993609e-03,3.182395920157432556e-02
-2.936355864349509126e-01,-2.041815964519579918e-01,-3.029837761520818296e-01,1.894020053412323948e-02,1.455981836780962735e-03,6.345333241411463612e-03,1.006428375840187073e-01
-2.670391894251996079e-01,-2.479804883478135269e-01,-2.878816181075442016e-01,5.325736036869955191e-03,-9.645853414409243706e-04,1.290522870719849685e-04,3.581622615456581116e-02
-2.671887298042026071e-01,-2.574487193536935115e-01,-2.807189037435029455e-01,1.339324827718007442e-03,-2.592085359157700157e-03,-8.005427435065818297e-04,2.090880461037158966e-02
-2.757324289106344306e-01,-2.393246519340909984e-01,-2.924771115773941998e-01,1.208956547783443178e-02,-1.393758319990922743e-04,2.316327678272701862e-03,5.167373269796371460e-02
-2.575406650941169939e-01,-2.612862149628277786e-01,-2.850038566573327437e-01,-3.435528842621825372e-03,-2.197480950139823292e-04,7.413230827016180184e-04,2.650647796690464020e-02
-2.612725350590875961e-01,-2.574766098768360156e-01,-2.854465258582806197e-01,3.152761903827018888e-03,3.744500653643170621e-04,-2.935551791145593565e-05,2.684765309095382690e-02
-2.613905669639414175e-01,-2.603158969372282305e-01,-2.833715854304175719e-01,5.713902381853933543e-04,-7.407531288094417648e-04,-5.306707545542577393e-04,2.261443994939327240e-02
-2.564865767841454924e-01,-2.882224457613802859e-01,-2.572497668216424116e-01,-8.553644445523134231e-04,1.077663914531039151e-02,-9.097696229548976783e-04,3.655971959233283997e-02
-2.741897801403804236e-01,-2.871271890700154428e-01,-2.430344049280685481e-01,-5.614974345795587483e-04,-3.995222460882957329e-03,6.529520644006939168e-04,3.989002481102943420e-02
-2.545334915883815663e-01,-2.861581135113862584e-01,-2.648880518724298083e-01,-2.046099281888118135e-05,1.818402976990343440e-03,-1.931913724640578879e-04,2.810529433190822601e-02
-2.375905432510996840e-01,-2.876635664260975833e-01,-2.753448886289338038e-01,-3.401547629446951149e-03,9.466671571190318421e-03,-5.539572259120935198e-03,4.937458783388137817e-02
-2.751692242269569988e-01,-2.656750262828014852e-01,-2.643628584919238134e-01,-1.599555356603532194e-03,-5.222498825679875714e-04,5.989209387336192584e-05,1.062187738716602325e-02
-2.484535525312572823e-01,-2.877477071078406445e-01,-2.666742442781800948e-01,-9.070637598126191255e-04,5.956431714695712212e-03,-1.521945061307767265e-03,3.571990877389907837e-02
-2.814285399649328889e-01,-3.212074284664155899e-01,-2.159343889109803516e-01,-2.106022400458749423e-03,-5.494138725995028477e-02,5.739581557334106493e-03,1.328342258930206299e-01
-2.607527999307590050e-01,-2.592350007378960153e-01,-2.845839570311903266e-01,-9.598726356668705554e-04,-2.845102944882920131e-04,2.574227314626829476e-04,2.469016797840595245e-02
-2.609247343634079064e-01,-2.593378226411655607e-01,-2.840143954615474420e-01,-7.471463158707064003e-04,3.980537302605491936e-05,-3.799851188041893611e-04,2.396673895418643951e-02
-2.557045646044976972e-01,-2.838209276706262219e-01,-2.656887178180675213e-01,4.673673701296773408e-04,1.870410884176015257e-03,2.225086500773166241e-03,2.520910091698169708e-02
-2.479581112886932726e-01,-2.873550822782242609e-01,-2.683438710170519270e-01,8.004619651555294237e-04,4.965098021222981092e-03,1.590432304095890526e-03,3.532747551798820496e-02
-2.582226706742701272e-01,-2.838409596688868941e-01,-2.629581511342282685e-01,5.993569739072762215e-04,2.703780262129331508e-03,2.732132958410693219e-03,2.455217391252517700e-02
-2.774262969339307272e-01,-2.329349277529973172e-01,-2.918963646257400346e-01,-8.670040291529601192e-03,-1.801362754705484450e-03,8.242886751766721190e-04,5.540703609585762024e-02
-2.755309795334017764e-01,-1.708768580898776257e-01,-3.835055922313744814e-01,-1.405286754777372027e-01,2.676795878152290684e-02,-2.385482284321949892e-02,3.114685416221618652e-01
-2.544446183822168805e-01,-2.959896275714041236e-01,-2.580157803625716673e-01,-6.326780968634054640e-03,2.767290817213541657e-02,-6.198745325535203257e-03,6.421140581369400024e-02
-2.619708224005969366e-01,-2.861798903884959500e-01,-2.565605384694056301e-01,1.205547986847024409e-03,2.874708173154618372e-03,3.386119193940299844e-04,2.785361558198928833e-02
-2.635968452511000537e-01,-2.882840930216285513e-01,-2.534437574656764336e-01,8.642228431108407716e-03,1.912139464456785384e-02,1.586036092073346213e-02,5.512529239058494568e-02
-2.850037583122506102e-01,-2.229046816977899859e-01,-2.904940693424759024e-01,1.141779370117804171e-02,7.593417507905134492e-03,8.557614457645369363e-03,7.078953832387924194e-02
-2.850648687100162948e-01,-2.293939857739108468e-01,-2.901214692657419492e-01,-3.624775682837775258e-03,5.707389204153821448e-04,-1.580619159043093703e-03,5.877253785729408264e-02
-2.629330900852746566e-01,-2.620898715684332747e-01,-2.546029958238825164e-01,7.945351938686420756e-02,8.753583548512473833e-02,7.789528217656756237e-02,2.453410923480987549e-01
-2.981943541077612392e-01,-1.900388647796047992e-01,-3.171063805504594768e-01,9.897786517956270319e-03,4.129871527688603119e-03,2.686653594887348021e-02,1.288844943046569824e-01
-2.180924280046620811e-01,-2.470586358387661108e-01,-3.124533973134060449e-01,-9.279160273860979913e-02,5.629252184293161154e-02,-4.595437407930783036e-02,2.206412404775619507e-01
-2.471762672306493103e-01,-2.821917553635238107e-01,-2.746170855836343461e-01,-1.657780333917317382e-03,-3.367020013631299730e-03,3.306229245362978571e-03,3.306475281715393066e-02
-2.813361607112555007e-01,-1.771727196564890638e-01,-3.256275069189303872e-01,-7.184119155585146077e-02,2.470321058783779555e-02,-3.320125492568492404e-02,1.950550526380538940e-01
-3.114575658278341819e-01,-1.876698138876499722e-01,-3.060504958062125191e-01,2.422538754786867851e-02,1.520823675007682355e-02,2.884076592255521276e-03,1.310066729784011841e-01
-2.761789333963404758e-01,-1.795206775405344124e-01,-3.550069835685809028e-01,-5.811733203032876105e-02,4.552091293850322323e-02,-7.275952279839288661e-02,2.353874295949935913e-01
-3.026108627571353349e-01,-1.991400360115013757e-01,-2.955762503583452272e-01,1.064097492111616694e-02,2.116885389392688874e-03,2.285545941833628039e-02,1.093072369694709778e-01
-3.013381832720772313e-01,-2.061465382219424547e-01,-3.101174658881408752e-01,3.020271487621866563e-02,9.006883580691162072e-03,2.437999344619114911e-02,1.213975921273231506e-01
-2.705920813896130483e-01,-2.700954641477198437e-01,-2.636450833858191567e-01,4.769436513455282793e-03,4.509293270231090264e-03,4.867533616958194011e-03,1.566460356116294861e-02
-2.732088931581777569e-01,-2.418438859759708959e-01,-2.899977378274847806e-01,3.547468691272725495e-03,-1.004002971016210079e-03,-1.250536538138189692e-05,4.281342402100563049e-02
-2.699415368209732158e-01,-2.710151808862172884e-01,-2.650004976875823814e-01,3.903686494363605569e-03,3.401631228504803633e-03,2.747391165301236310e-03,1.157348509877920151e-02
-2.813393372831352601e-01,-2.616869543406938892e-01,-2.595341546634449270e-01,3.776722196697081951e-03,5.050217181640778014e-03,7.886001985138243672e-03,2.718511410057544708e-02
-2.897739755440273401e-01,-2.192096082994859918e-01,-2.961353311406733080e-01,-7.139884322211484044e-03,2.295976429767937737e-03,-2.685619132975111158e-03,7.522677630186080933e-02
-2.801270898244213603e-01,-2.629222288615030156e-01,-2.618694926508447485e-01,2.162765108750633585e-03,2.080448822095794584e-03,1.963110219759174515e-03,1.880974508821964264e-02
-2.727527662717345036e-01,-2.646603369601017164e-01,-2.668574295955791764e-01,1.064957945279127599e-03,-2.170059408217918026e-03,-1.620652800227756875e-03,8.828603662550449371e-03
-2.751730459166857323e-01,-2.699534231800648221e-01,-2.588268843041856004e-01,4.336478676160223679e-03,1.732925357918093344e-03,2.333429477284168930e-03,1.705519296228885651e-02
-3.752752628730367523e-01,-1.289572466626363323e-01,-3.373414163713311376e-01,3.499045863267751660e-02,9.398420097075856246e-04,8.153699733827984852e-02,2.763842344284057617e-01
-2.613818615913244270e-01,-2.570201651233191553e-01,-2.864821879691542561e-01,2.976550030736214904e-03,-7.776583976075164377e-04,-6.157890761293685926e-05,2.805237844586372375e-02
-2.772631489242958769e-01,-2.634301242742127513e-01,-2.629257247721862867e-01,4.232223008378737175e-03,3.769874564510645142e-03,4.936856399695223850e-03,1.918522827327251434e-02
-2.772658417150194454e-01,-2.601133337364157083e-01,-2.662349669143626030e-01,1.905834885065815255e-03,3.109698958296444084e-03,9.505587040622581491e-04,1.641034893691539764e-02
-2.729888715531887944e-01,-2.660960341067230561e-01,-2.650981334998701033e-01,2.402160517022009379e-03,-1.772679046908243227e-03,-2.332442361713473952e-03,9.921922348439693451e-03
-3.068203820818232175e-01,-2.869639694293201759e-01,-2.142207546268529716e-01,-5.962447084896218587e-03,1.216620355012804425e-02,-3.415694909882977665e-02,1.057405546307563782e-01
-2.463127386958154086e-01,-2.659647589232602694e-01,-2.910174138743673034e-01,5.950676418753467894e-03,-8.091680048530131486e-04,-8.745106697113665508e-04,4.020774737000465393e-02
-2.447527578445141128e-01,-2.893073173400637632e-01,-2.756064102830719786e-01,1.182862710515428933e-02,-4.948062016858483653e-02,-1.499127916110115991e-02,1.000067293643951416e-01
-2.647724783082104905e-01,-2.548581091351538319e-01,-2.860052719819005662e-01,2.069107572848419459e-03,-7.803945517555852408e-04,-1.194716629001617669e-05,2.782637439668178558e-02
-2.629481089093693158e-01,-2.650465378191166899e-01,-2.776486168725376680e-01,2.835633128221809202e-03,-2.458663939055212751e-03,-2.836755148846628865e-03,1.600185781717300415e-02
-2.630339384461046204e-01,-2.725031292597389077e-01,-2.626905902039909368e-01,1.709949816603386144e-02,-2.090796547404745812e-02,-1.609443886359531242e-02,5.530583113431930542e-02
-2.545159955384878603e-01,-2.650236441404683618e-01,-2.862617317308128184e-01,2.435797245483837213e-03,-3.700697054142735405e-05,5.904243083970102781e-04,2.834569849073886871e-02
-2.578134660729082261e-01,-2.612411163046320928e-01,-2.850068072218506776e-01,3.268154130828843096e-03,7.007299465504968159e-04,1.118412483008596713e-03,2.636826597154140472e-02
-2.636240266648703923e-01,-2.713558911660461925e-01,-2.689055905503507371e-01,2.244630128530323166e-03,-1.678084722506303743e-03,-2.585587278841593346e-03,9.510998614132404327e-03
-2.716229187614805918e-01,-3.099839663989493177e-01,-2.358047170995320740e-01,1.656259805136321359e-02,5.112367257598492143e-02,2.287692632408254087e-02,1.198434308171272278e-01
-2.944692426576249744e-01,-2.183529052494757317e-01,-2.908373169712749617e-01,5.707611515924910887e-04,1.553741196370928826e-03,7.487046107534660669e-03,7.554353773593902588e-02
-2.673779738423982533e-01,-2.573651767087729580e-01,-2.804695341189058500e-01,-1.825708273099847529e-03,-2.802613466140478019e-03,8.892069812240666494e-04,2.094430290162563324e-02
-2.675293577325296157e-01,-2.654334016582415301e-01,-2.715217286022268972e-01,2.684642172184843745e-03,-3.139910138837678430e-03,-2.884440055098721426e-03,1.024006307125091553e-02
-2.637519428986405123e-01,-2.644714294700566959e-01,-2.757124685943302400e-01,-6.855338284344646886e-04,-1.870684808548148201e-03,8.164743458873951988e-04,1.220141537487506866e-02
-2.721751051567050106e-01,-2.670437471341980396e-01,-2.650520414074316045e-01,2.231993577212281268e-03,1.326883269354648884e-03,1.368133793561471419e-03,8.146194741129875183e-03
-2.754774320559436607e-01,-2.636469101072582699e-01,-2.653626720821023466e-01,1.497750438179215734e-03,2.169732286368813816e-03,1.501917020364227197e-03,1.225671172142028809e-02
-3.000581679088777931e-01,-2.917646358017886299e-01,-2.266024212968545948e-01,2.737261816591319771e-02,3.851201161567533587e-02,5.096163240549444334e-02,1.390823125839233398e-01
-2.557369618309611736e-01,-2.843624428862594478e-01,-2.653227423661597140e-01,-6.997576456673626358e-04,-1.525962567726269273e-03,2.086776525094333722e-03,2.565982006490230560e-02
-2.768726057950778863e-01,-2.772023867996206703e-01,-2.508223283356736943e-01,6.522699384905045195e-03,1.022409617338447541e-02,1.138848524977440282e-02,3.895693272352218628e-02
-2.489179356104445351e-01,-2.713435997829171664e-01,-2.861100765767291554e-01,-8.690183834220131104e-03,-1.007814932342098596e-03,1.324485925569838249e-03,3.587443381547927856e-02
-2.758311620698835065e-01,-2.581133185231805904e-01,-2.698571395988252353e-01,2.152572450081964052e-03,4.935504697923187405e-03,3.021341530489113011e-03,1.892426982522010803e-02
-2.800069679846897697e-01,-2.609547539387878645e-01,-2.622420913094135608e-01,1.172060973589552019e-03,2.533249151107304191e-03,3.554095112947820104e-03,2.003460749983787537e-02
-2.521873638570826248e-01,-2.835939943109115347e-01,-2.679343270950241829e-01,3.212924000598967739e-02,5.148545222295168589e-02,1.912855977415758163e-02,1.135191991925239563e-01
-2.777154366972610644e-01,-2.344107306940645119e-01,-2.909692054181845511e-01,-7.776472911224048892e-03,1.948280786333004937e-03,-1.075249136060509123e-03,5.311484634876251221e-02
-2.721193532578877750e-01,-2.635960585973519676e-01,-2.687230743596111249e-01,1.429757541045747517e-03,2.893899633349139317e-03,1.115144191265705301e-03,9.498473256826400757e-03
-2.857563656420156750e-01,-2.241029776869097045e-01,-2.935038001791026030e-01,-4.590431795085786991e-03,-1.066432881358570298e-03,9.289337422038719885e-04,6.639304012060165405e-02
-2.717621121631148551e-01,-2.604313371787755349e-01,-2.704964339627682346e-01,2.516937568019161995e-03,4.812639984217739059e-03,3.017737491667541253e-03,1.521370932459831238e-02
-2.854557505548906415e-01,-2.594506841874431591e-01,-2.604200607460904204e-01,1.623075397525344321e-03,-1.739333905073349191e-03,2.938787796852665446e-03,2.636063098907470703e-02
-2.943122695288189483e-01,-2.156247876594319934e-01,-2.943635025822840534e-01,-1.620393201864466469e-03,-3.997513300673211870e-04,2.145787864972453166e-03,7.885380834341049194e-02
-2.789815892491602778e-01,-2.461284406767090538e-01,-2.799686812000801162e-01,-4.782164418685253340e-03,4.257223134943227683e-03,-4.906256691699390805e-03,3.616525977849960327e-02
-2.886575724012062638e-01,-2.479485145266522028e-01,-2.646719362110706020e-01,-4.246755041697032146e-05,-1.522253602295276854e-04,7.455434526617024660e-03,3.772175684571266174e-02
-2.851131011386114911e-01,-2.606553025405689561e-01,-2.580580431110799378e-01,-3.036842513720834961e-04,2.804044475348173586e-04,2.183883888112990012e-03,2.613950148224830627e-02
-2.857936952140361919e-01,-2.586533689288253446e-01,-2.600278878278801664e-01,-7.202953249955418996e-04,7.735245311354234463e-04,2.678326881044997346e-03,2.694538049399852753e-02
-2.740358086038814367e-01,-2.489290627091990393e-01,-2.825883504641866217e-01,-3.129169383311241909e-03,-3.680959220905214400e-03,1.257870965414321744e-03,3.151176497340202332e-02
-2.900486698440863376e-01,-2.523256489772878752e-01,-2.652652031891444273e-01,1.994884285218501314e-03,2.592728748626033867e-03,1.278894732117904012e-02,4.031272977590560913e-02
-2.758509942906756107e-01,-2.629115460949936756e-01,-2.673068453999637439e-01,4.004620343749918689e-03,4.720206619114899332e-03,7.505881211689015980e-03,2.034310624003410339e-02
-2.884744417582599807e-01,-2.473486103325706620e-01,-2.662012510551537425e-01,1.842638533717853942e-04,1.563241028548823831e-03,7.807506467086215707e-03,3.823257982730865479e-02
-2.837804051596604094e-01,-2.496749387675682164e-01,-2.693071262718341186e-01,4.339347540195444275e-03,7.950085445229952696e-03,7.130975196441560401e-03,3.574485331773757935e-02
-2.840037190321645366e-01,-2.614131766155517456e-01,-2.599389017754741293e-01,-9.465901090273450696e-04,-5.406485559410578561e-04,2.198976618350704842e-04,2.344186045229434967e-02
-2.853372550914106132e-01,-2.329580837015031436e-01,-2.857302067249329891e-01,-5.239699891563353099e-03,-4.288535922983270111e-03,6.326106333518388865e-03,5.497191473841667175e-02
-2.386338950919814350e-01,-2.761124027493585542e-01,-2.899537342555311148e-01,1.725114522755459220e-02,-2.997344910175346426e-03,-1.001937518768364040e-03,5.511572584509849548e-02
-2.678725951576010900e-01,-2.839554446065715165e-01,-2.547541568261240674e-01,3.520008086975114428e-03,1.048643436245573664e-02,5.081582194124407807e-03,3.295858204364776611e-02
-2.163913766839603292e-01,-2.780988385197591950e-01,-3.208406848591606741e-01,5.345999324281001941e-02,5.294541136124942746e-03,1.523022897165640351e-03,1.301427483558654785e-01
-2.918589734027507987e-01,-2.235712432291465102e-01,-2.895666257796680187e-01,-5.084630972647838712e-03,-3.476552979475330211e-03,7.401234246519641097e-03,6.921043246984481812e-02
-2.843112675294868774e-01,-2.663362133847483326e-01,-2.542862253193297062e-01,1.483123665469663352e-03,4.467094728072826325e-04,2.155201184206825826e-03,2.657134272158145905e-02
-2.933810517067749202e-01,-2.162711996591698549e-01,-2.935751010794332982e-01,-1.967396200980746097e-03,-1.869081324392244271e-03,2.460243415056794034e-03,7.746728509664535522e-02
-3.599214817937632649e-01,-1.044139127775146059e-01,-3.754023635233530443e-01,-4.144644471478869246e-02,1.275074150796684687e-02,-3.684295150096823790e-02,2.814118564128875732e-01
-2.858248835129940657e-01,-2.420057707674642122e-01,-2.750853658536349111e-01,2.435964135600582076e-03,4.926532101488238780e-03,2.869572782798752390e-03,4.098991304636001587e-02
-2.808892718533287924e-01,-2.653855918698728167e-01,-2.585913985251208635e-01,2.638147314844364530e-03,1.266562284688304337e-03,2.234239165908357642e-03,2.079729922115802765e-02
-2.748697702365990314e-01,-2.750450505727923822e-01,-2.581179022606089335e-01,6.518086468951588691e-03,6.650407944414449095e-03,7.763726917570394973e-03,2.691762521862983704e-02
-2.138905395816659560e-01,-2.847463728673587657e-01,-3.150554651132686512e-01,4.605550905981914411e-02,-2.501747629864801287e-02,-8.295904737957432787e-03,1.285853236913681030e-01
-2.829840131216898036e-01,-2.352708970457062232e-01,-2.660653966392762526e-01,7.695859937465063250e-02,-7.261174475375979653e-02,-9.360095373902434235e-02,2.482422888278961182e-01
-2.958806946465327159e-01,-1.254789201495263573e-01,-3.910163465774004754e-01,-6.335027896033336436e-02,9.035550777572672748e-03,-3.295358046687623527e-02,2.642751336097717285e-01
-1.953481382429581581e-01,-2.959175259066693098e-01,-3.090030240757152269e-01,2.308788666404494941e-02,-2.025527144684120123e-02,-4.745575345376171379e-03,1.204116865992546082e-01
-2.743481331225334774e-01,-2.521705493111406349e-01,-2.775711311479740484e-01,2.663257559206238211e-03,5.242805766183029036e-03,3.894982063892744352e-03,2.688798494637012482e-02
-2.612938890551709803e-01,-2.618412034477933248e-01,-2.799460326511112873e-01,6.057434968426127914e-03,3.922712450097452438e-03,3.697846878972814097e-03,2.313560433685779572e-02
-2.698139370973278717e-01,-2.598312170083851846e-01,-2.737500525255086581e-01,3.239107055118314610e-03,4.604558520341537134e-03,2.182261142094082170e-03,1.624219678342342377e-02
-2.901254071343656316e-01,-2.733506387018809214e-01,-2.411460763430310905e-01,-9.735867475669564980e-04,-1.035781385735905181e-03,4.328954899897326236e-03,4.382958263158798218e-02
-2.614640517936643871e-01,-2.617095768545718015e-01,-2.810934633319885911e-01,7.344100329520766249e-04,6.626907937746328962e-04,1.452163948117617207e-03,1.974377036094665527e-02
-2.732657178800372844e-01,-2.418885974379191839e-01,-2.898226867307292509e-01,4.263304125464962083e-03,2.362462545665699326e-03,1.311352631487942887e-03,4.306503012776374817e-02
-2.598581783083023788e-01,-2.634845960563051426e-01,-2.810317767442518933e-01,1.974151188869036240e-03,9.717116602673714788e-04,2.119300480437004159e-03,2.031468972563743591e-02
-2.633888337073549413e-01,-2.656182070529762296e-01,-2.755154291503880137e-01,8.313315268061628608e-04,1.096001766478831886e-03,2.548900860911371049e-03,1.225387305021286011e-02
-2.576217018361745548e-01,-2.672629356388688815e-01,-2.804692334478638971e-01,1.396926213876761944e-03,6.912985591052599405e-04,2.682207047031244605e-03,2.058045938611030579e-02
-2.527746240207451311e-01,-2.752262335271835059e-01,-2.757837821286371338e-01,-1.849652156934792225e-03,-1.038873952724720133e-03,4.805206825454383032e-03,2.448826096951961517e-02
-2.560721186094636059e-01,-2.787709205466727402e-01,-2.689987861373043243e-01,3.106061348893113423e-03,4.989120132485885643e-03,4.865216883311536226e-03,2.373904548585414886e-02
-2.560732675053702945e-01,-2.661211644138761767e-01,-2.825657890000422556e-01,1.613084426048813939e-03,9.618479152656872911e-04,2.868435239041642291e-03,2.391412109136581421e-02
-2.665033154966153228e-01,-2.573013638729441666e-01,-2.817586900034664832e-01,1.349035302619051510e-03,3.309405051373433358e-03,1.472071404796767213e-03,2.241871319711208344e-02
-2.582342686269223364e-01,-2.681642929695288169e-01,-2.766599891586161708e-01,1.950590245652349033e-03,2.573199812239778772e-04,3.361787394505345687e-03,1.733962446451187134e-02
-2.568551686267049883e-01,-2.667949512815411817e-01,-2.817701326747329427e-01,1.862369777886201637e-03,1.608736827975727193e-03,3.581997747933498080e-03,2.299058251082897186e-02
-2.586250815358407396e-01,-2.694906720509455678e-01,-2.756556326203279395e-01,3.094025563772569674e-03,1.905574532553891767e-03,4.397424618932561056e-03,1.790749467909336090e-02
-2.583292283127553990e-01,-2.631334792465229722e-01,-2.828324193655416541e-01,2.782250581652254140e-03,1.190212495629689154e-03,2.410298222306047657e-03,2.346633560955524445e-02
-2.706064041612173954e-01,-2.677930655206872124e-01,-2.664253892915587341e-01,-1.269559460035695484e-03,-5.218114219255221443e-04,3.941168838215081864e-04,4.444247577339410782e-03
-2.689830862153440583e-01,-2.670906744594294113e-01,-2.682577170700475855e-01,-8.730960223684433238e-04,-8.852530757450595466e-04,4.505943017502919788e-04,2.825190313160419464e-03
-2.827628467242966348e-01,-2.392206146393563437e-01,-2.829430750982118159e-01,-3.353337583848130937e-03,-3.853347078694911720e-03,3.515856152780364244e-03,4.493516683578491211e-02
-2.678776166449726714e-01,-2.652045982291529880e-01,-2.709792935707854289e-01,-2.045928308574494325e-03,-2.450777493841698341e-03,1.048819627578296935e-03,7.676765788346529007e-03
-2.711198259389374643e-01,-2.696122119261258332e-01,-2.632045419881164361e-01,-2.518207696314081652e-03,-8.656419731614439003e-04,1.251692229447340680e-03,8.886154741048812866e-03
-2.632752321599111101e-01,-2.613541649298816161e-01,-2.801251045130248585e-01,-1.102660073324973145e-03,-6.958443226844771620e-04,5.883354658750837877e-04,1.805870980024337769e-02
-2.681809046681642994e-01,-2.654240290254337720e-01,-2.693499638711900901e-01,3.671839147679639877e-03,3.949193887977786067e-03,4.078511266321402373e-03,1.221999898552894592e-02
-2.519824166358861084e-01,-2.684813442048627485e-01,-2.831958310913899601e-01,3.118137862906386962e-03,2.027804046530360099e-03,3.934145332410605989e-03,2.862587571144104004e-02
-2.663405773440689628e-01,-2.495665302463127011e-01,-2.881917212340135981e-01,5.086054782526037467e-03,3.058117375711074185e-03,1.947005063146508338e-03,3.524777665734291077e-02
-2.695324185512780746e-01,-2.547300129492198195e-01,-2.783835513090230362e-01,3.780275555103879137e-03,5.864760614868120073e-03,4.334638468875463661e-03,2.511765807867050171e-02
-2.554414055473560596e-01,-2.657287150471271397e-01,-2.847899989047125158e-01,9.714956194754608559e-03,4.682887551162303458e-03,3.410087938728427470e-03,3.238929063081741333e-02
-2.721644053416613085e-01,-2.633721586509231716e-01,-2.827491813283368183e-01,4.061672236886173376e-02,3.610920369447594841e-02,3.178613556348413444e-02,1.103370189666748047e-01
-2.541551160175338775e-01,-2.649630621970490707e-01,-2.889790640494785401e-01,2.750334163540553781e-02,3.291330192198672205e-02,3.195454880238068202e-02,9.765029698610305786e-02
-2.229598901649132991e-01,-2.924158001864811118e-01,-2.910386493469663827e-01,-4.548132795819614937e-03,7.387504979723081774e-03,-2.911825207589046911e-03,7.058035582304000854e-02
-2.363032724611055790e-01,-2.807705767568534627e-01,-2.880278453343345646e-01,-3.089828081702321316e-02,4.164665201058366517e-02,-1.490706716742219023e-02,1.052939891815185547e-01
-2.272958196154436228e-01,-3.094679527416022702e-01,-2.807337952795547209e-01,-2.501549021087958596e-02,4.277002505967689855e-02,-1.645351546283093866e-02,1.157327443361282349e-01
-2.801369071624809082e-01,-2.637695695080989888e-01,-2.611577026031328130e-01,-1.668431726657925405e-03,-6.266559118528894703e-04,7.053905967750751784e-04,1.812409237027168274e-02
-2.360561886932720788e-01,-2.927419074726189674e-01,-2.769062710548351181e-01,-3.421349599478157397e-03,8.830601114586028588e-03,-9.166907003943919590e-04,5.327250808477401733e-02
-2.767040193700922024e-01,-2.302652342467066959e-01,-2.825999715377267574e-01,-7.122828573708508970e-02,-4.931535256177298904e-02,6.902586294645943199e-02,1.981798410415649414e-01
-2.901563525020655065e-01,-1.993351447532842602e-01,-3.089001672187577374e-01,4.803744469036685255e-02,-6.732536931132486989e-03,-1.943612576571714448e-02,1.359934359788894653e-01
-3.645173465997686435e-01,-9.186738287055168373e-02,-3.725449185476695790e-01,-1.246882245205906299e-02,6.758752002022269320e-03,-4.339948631938263246e-02,2.878283560276031494e-01
-2.635539067009013414e-01,-2.442041331575098839e-01,-3.001542121714829148e-01,3.358617446424936454e-02,-7.195449579977575977e-03,3.996338027373309940e-05,7.721155881881713867e-02
-3.119285783600354578e-01,-1.798866388664046301e-01,-3.178042711668317977e-01,-1.506511537632384753e-02,-7.839316515528842524e-03,2.556622863742518542e-02,1.451604962348937988e-01
-2.822921485955748322e-01,-2.502602463802309218e-01,-2.732024544484749073e-01,-1.745486829683061273e-03,-4.083922250681999710e-03,3.529439199268691492e-03,3.023328259587287903e-02
-2.750260643625858648e-01,-2.568926048660207795e-01,-2.739287631366258968e-01,-1.368648146118483068e-03,-3.973738024084185264e-03,2.029914583722291273e-03,1.937734708189964294e-02
-2.592398584628765046e-01,-2.784951198683209839e-01,-2.636540304689746206e-01,-2.959685150766700606e-02,-3.141620490606610028e-02,2.328643959939674657e-02,8.672302961349487305e-02
-2.764224213345906067e-01,-2.437516260576804150e-01,-2.848517957690802072e-01,1.398574712390500061e-02,-4.734642595049642216e-03,-5.793668669069870769e-03,4.656805098056793213e-02
-2.835342068675675287e-01,-2.396408524047289323e-01,-2.837376575760026109e-01,2.503730239119554470e-03,4.410986425475030628e-03,3.542763734261935964e-03,4.528165236115455627e-02
-2.828644328319044887e-01,-2.504803533483426214e-01,-2.697745394034257171e-01,-5.915801410959141112e-04,-3.479589199153941981e-03,5.191907600900397095e-03,3.023921325802803040e-02
-2.733121023060963162e-01,-2.494574148290508719e-01,-2.821351531012034619e-01,3.076212876561749878e-03,3.240538601262319719e-03,2.225734805115894572e-03,3.053060173988342285e-02
-2.798307821168718457e-01,-2.661941815798807842e-01,-2.627369548493568296e-01,-1.239501152728447048e-02,-2.076654170292472137e-02,1.899486222087698115e-02,5.551689118146896362e-02
-2.798252269168229889e-01,-2.353306916444312114e-01,-2.874062681283922061e-01,-6.798470042495918277e-03,-5.804933917479798700e-03,6.577710248775215339e-03,5.238414928317070007e-02
-2.813980662311284520e-01,-2.324328446174954987e-01,-2.886608082863015845e-01,-1.481492904498481200e-02,-4.426001869122790817e-03,1.465864705505098842e-02,6.455853581428527832e-02
-2.695014089607206675e-01,-2.352056983437256776e-01,-3.035863176422692877e-01,-4.423028370719882252e-02,-1.061481426105012268e-02,3.471285869094062337e-02,1.154507175087928772e-01
-2.705676819111904052e-01,-2.701411261217894766e-01,-2.644217182252022180e-01,1.885927356473329070e-03,1.014782919845123345e-03,1.159095163432283509e-03,7.288569584488868713e-03
-2.917334916700012326e-01,-2.398469125563568449e-01,-2.613707683598482934e-01,-2.798612418532771262e-02,-2.295610186400619604e-02,4.655425111622979450e-02,1.116745546460151672e-01
-2.635458997469956599e-01,-2.611975231659479091e-01,-2.804045285214176730e-01,5.301233126603874550e-04,1.674348630026354203e-03,6.532044993793358458e-04,1.843507774174213409e-02
-2.805151047105221562e-01,-2.478262779632891544e-01,-2.755605485286689582e-01,-8.074118241366593299e-03,-4.209260684837428344e-03,2.106912166948794480e-03,3.454263135790824890e-02
-2.694317885988395944e-01,-2.607771935182809919e-01,-2.757277588286233816e-01,-7.073604218395072689e-03,4.839794787100715895e-03,-5.141222580193382033e-03,2.164960280060768127e-02
-2.398320752742891804e-01,-2.543613457634956720e-01,-2.989666177238694544e-01,4.446419896305418146e-02,-1.648734176420547579e-02,-1.584403591342655251e-02,1.017280891537666321e-01
-2.728245113657801757e-01,-2.457317653242618305e-01,-2.871886713985901673e-01,3.233347328912348877e-03,3.461768746268012713e-03,2.575269590210302762e-03,3.763936460018157959e-02
-2.688362074733531837e-01,-2.611903775374253556e-01,-2.748636161688564616e-01,6.136317521872116125e-04,3.788314780809636656e-03,7.832126934408904654e-04,1.367102004587650299e-02
-2.653958638383234758e-01,-2.662401301223581429e-01,-2.726951454461170599e-01,3.292537388272158785e-04,4.275733291528038024e-04,1.396918398504731415e-03,7.386310491710901260e-03
-2.651517577058083996e-01,-2.547005755110798852e-01,-2.862541172341879769e-01,-1.150425383155757875e-02,3.072415627480361722e-03,-1.211738354683589538e-03,3.471093624830245972e-02
-2.674955700166125050e-01,-2.509459608044805057e-01,-2.859850195259938110e-01,-8.103503057120205882e-03,4.360728173463923585e-04,-3.783070524673843790e-03,3.409175947308540344e-02
-2.642814536115409840e-01,-2.598844326832175922e-01,-2.809096736693497687e-01,-1.491923100844347880e-03,1.882380745546881080e-03,-1.209316804858040668e-03,1.976464129984378815e-02
-2.655771182501260319e-01,-2.639446948496697587e-01,-2.753208435573406554e-01,-9.799138638377246670e-04,-6.296383188872412299e-04,8.333249780795605726e-04,1.093911286443471909e-02
-2.678660738197369273e-01,-2.708752654115447189e-01,-2.670237207486827469e-01,-2.630787868228101276e-03,-2.405806070407656618e-03,2.779229252988537485e-03,8.578972890973091125e-03
-2.831133108154214595e-01,-2.179216704105921276e-01,-3.098474668621701289e-01,4.870516710768652002e-02,6.343662756901407782e-03,1.831476107426252900e-02,1.222747191786766052e-01
-2.852476612636423714e-01,-1.869619940247982393e-01,-3.344299805152672889e-01,4.941492747981265227e-02,-6.368003540778878827e-03,-2.005436065658403044e-02,1.598955392837524414e-01
-2.661418714303611655e-01,-2.713582380288446783e-01,-2.669568555298819090e-01,-6.185749152815949716e-04,2.587742766043494777e-04,3.021730458042401566e-04,5.024554207921028137e-03
-2.632117935770903472e-01,-2.645095988345302906e-01,-2.759788373151762508e-01,7.621529260525855976e-05,-8.072745906057780113e-04,7.178407090121165669e-04,1.231385208666324615e-02
-3.043859579555342476e-01,-2.139995069425857654e-01,-2.899974114406766446e-01,-4.498195670457658113e-03,1.343560842054489918e-02,2.698299104776109153e-02,9.931115061044692993e-02
-2.882811619050014706e-01,-2.085755185654731281e-01,-3.110205525440213892e-01,2.102204203991760861e-02,3.619112347395355605e-04,1.704273949080769082e-02,1.043075472116470337e-01
-2.541143336172869693e-01,-2.652482447508329177e-01,-2.860577201805755698e-01,-1.933636653562796626e-03,-7.931528997486097219e-05,-4.180050730808099516e-04,2.829220704734325409e-02
-2.921205928923537587e-01,-1.808245318961818615e-01,-3.201016930223111179e-01,5.286857666759978147e-02,-1.765955590971725374e-03,-2.241279400900655656e-03,1.571420580148696899e-01
-2.842973250178868483e-01,-2.583866749375657301e-01,-2.621118662402216470e-01,-2.906583284219920837e-04,-8.999372855998800762e-04,5.235226906632031545e-03,2.595424093306064606e-02
-2.692711577897431430e-01,-2.720564432294665380e-01,-2.628977733715522347e-01,-3.869423245024793297e-03,-4.428359401677562507e-03,3.955676574714754069e-03,1.472481153905391693e-02
-2.751339864407054692e-01,-2.677040172547431873e-01,-2.624296863337022279e-01,-2.677701494680569290e-03,-1.167652167186244809e-03,7.391699445841094134e-04,1.222500484436750412e-02
-2.712377555402661344e-01,-2.566860646573723703e-01,-2.762074820152279342e-01,-1.905904993292692386e-03,-5.004539171159070113e-03,2.324202608369045284e-03,2.027331292629241943e-02
-2.843859528859549735e-01,-2.572703307279062268e-01,-2.645651502782372932e-01,-3.764023343130759071e-03,-2.974330518584122982e-03,1.009436670743719434e-02,3.107088804244995117e-02
-2.904518451725788819e-01,-2.665976127994013067e-01,-2.463609070146015600e-01,-2.623317116783800088e-03,-1.507976242609726427e-03,6.758961622901668576e-03,4.032118245959281921e-02
-3.968432841713646075e-01,-2.288351813914116795e-01,-1.780293364210854823e-01,-4.159328036565299296e-04,-2.904163574546402699e-02,1.178696146666145250e-01,2.890575230121612549e-01
-2.844790833471810276e-01,-2.585218419815037971e-01,-2.629000189540175447e-01,-1.649615501838173773e-03,-1.617032163877140825e-03,4.130638352755168670e-03,2.542628534138202667e-02
-2.939115629258254869e-01,-2.401845248246085862e-01,-2.755919123018802930e-01,7.938030165149946235e-03,7.117783392870283103e-03,1.940421598753072976e-02,6.089778244495391846e-02
-2.815917745284124418e-01,-2.616276363891404388e-01,-2.607943517221911200e-01,-1.607234144061253948e-03,-2.861421215895029128e-03,1.368156697140531647e-03,2.130317687988281250e-02
-2.810088714128590182e-01,-2.597481392247167897e-01,-2.636041034611141809e-01,-1.465065641698865039e-03,-2.589253131460555243e-03,2.317072476508918143e-03,2.067764475941658020e-02
-2.866293296364048615e-01,-2.443208827284331086e-01,-2.737877537199007727e-01,-4.477779533065567473e-04,-3.075877278751319634e-03,3.742745529354722829e-03,3.850470855832099915e-02
-2.868480619521909247e-01,-2.523777388228870544e-01,-2.651324199191838482e-01,-1.924150631189875825e-04,-1.037181581243326123e-03,2.246373320100438203e-03,3.049104660749435425e-02
-2.816393933716856424e-01,-2.503486022075770978e-01,-2.736168062117008692e-01,-1.909760560147434876e-03,-4.289378477636922142e-03,3.456333198559626875e-03,2.990683913230895996e-02
-2.806599110650858098e-01,-2.620311412692157838e-01,-2.616050022582265822e-01,-6.159677057697496424e-04,-6.080271035498246643e-04,2.105727291427996481e-04,1.890850253403186798e-02
-2.798429046243976481e-01,-2.579529615721020130e-01,-2.653142664771486747e-01,1.654121628705851332e-02,-1.764254437381980456e-02,-2.227683760108226801e-02,6.012991070747375488e-02
-2.846752161844273155e-01,-2.604841045620076012e-01,-2.601190377671327436e-01,-9.025722323537214726e-04,-4.671130516179639296e-04,1.805821601595217641e-03,2.463850565254688263e-02
-2.670270544565946369e-01,-2.915384350231012278e-01,-2.436875220960059707e-01,1.056498782577409631e-02,-4.127504645141000933e-02,-1.793407191159623881e-02,9.015688300132751465e-02
-2.660804742566683645e-01,-2.554734705345831358e-01,-2.831341722120091497e-01,-1.708948883464914137e-03,-2.524472775721198475e-03,1.258679297406485684e-03,2.483664639294147491e-02
-2.697789922913523819e-01,-2.590464510885326921e-01,-2.742400511732819290e-01,-3.849416542373629985e-03,4.717217537034691134e-03,-2.915438278237476692e-03,1.787950657308101654e-02
-2.680225795169665637e-01,-2.533757841862697702e-01,-2.810727705801152054e-01,-5.377311646675752080e-03,4.446624516823813496e-03,-2.446171794245409915e-03,2.720284275710582733e-02
-2.663823290278150013e-01,-2.679243647614784618e-01,-2.706420387766801938e-01,-3.221825643974250762e-04,-6.619382487464599979e-04,1.083262806152627926e-03,4.370428156107664108e-03
-2.642459837287990942e-01,-2.645379477442193483e-01,-2.769904327843764058e-01,2.253796576796638848e-03,3.030087512213021014e-03,2.682596704601020524e-03,1.493845228105783463e-02
-3.755844357136942646e-01,-3.110679117560968820e-01,-1.580522554639363919e-01,1.414420021208326501e-02,1.041636313820897171e-02,1.347327877425266440e-01,3.046845197677612305e-01
-2.846728684548593957e-01,-2.605015107626938442e-01,-2.606727548963265195e-01,-1.031032604096719782e-03,-7.218076332921593641e-04,3.908253137223992139e-03,2.511414140462875366e-02
-2.807934970548510156e-01,-2.605119901339531530e-01,-2.635038318746802943e-01,4.982888592838146183e-04,1.626333070580588454e-03,4.349946577618922787e-04,1.920570246875286102e-02
-2.692241017758037480e-01,-2.806098977779876158e-01,-2.538758644247444685e-01,4.939295226715788301e-03,4.227814324117912942e-03,2.007690583894562383e-03,2.605498582124710083e-02
-2.830332016828945862e-01,-2.615875182569064039e-01,-2.604052087138584159e-01,-1.133160676997572178e-03,8.177998641035723543e-05,5.692115416389901920e-04,2.217013388872146606e-02
-2.851390675606167435e-01,-2.573479674481029544e-01,-2.613662973799735223e-01,-5.638551298178970340e-04,-1.072117777847792506e-03,2.419724282349570640e-03,2.643455564975738525e-02
-2.884581837386008263e-01,-2.558298595648523244e-01,-2.597957551184222336e-01,7.948988484952992407e-04,4.457258099749880631e-03,1.351055809551690058e-02,3.949731588363647461e-02
-2.668605068207143272e-01,-2.730304195430101610e-01,-2.648601563347407484e-01,2.270723870562756531e-03,1.995495287568189221e-03,2.138236569146842892e-03,9.774556383490562439e-03
-2.749147270383108244e-01,-2.614480335664889910e-01,-2.690306346168360729e-01,8.113665052193720856e-04,3.596574787730781597e-03,8.439991277149517948e-04,1.340347342193126678e-02
-2.672725161515687176e-01,-2.615692598271833758e-01,-2.753982780841546241e-01,1.098256234052962486e-03,2.897007777784012163e-03,8.230851600788970622e-04,1.325621828436851501e-02
-2.841012641557600915e-01,-2.652030318274671283e-01,-2.554985370058560634e-01,3.659503434017767620e-03,1.748343334787794568e-03,2.043261456075821415e-03,2.639297209680080414e-02
-2.626890412275033615e-01,-2.631084460576619821e-01,-2.789754779613168867e-01,3.746695955495921507e-03,2.702890748607528291e-03,2.478060079662761008e-03,1.846742257475852966e-02
-2.658882310506268110e-01,-2.264130116395902670e-01,-3.008929047541887281e-01,7.563818576116286552e-02,-4.043161150838803924e-02,-5.309483723036111102e-02,1.862529814243316650e-01
-2.505899038790057598e-01,-2.201077324443815875e-01,-3.252049136049787736e-01,8.466533077339349900e-02,-2.439794334610017462e-02,-3.567835306025718412e-02,1.894208490848541260e-01
-2.678368094771637620e-01,-2.675813415646123850e-01,-2.693549473421998908e-01,2.164929825339482583e-04,7.753921789914899974e-04,4.215551851140889321e-04,2.288072369992733002e-03
-2.655798597765445801e-01,-2.694061975253153052e-01,-2.695558862492848928e-01,5.494969601127388907e-04,8.049215282029890516e-04,2.856803994291814020e-03,6.524534430354833603e-03
-3.078850594828165810e-01,-1.772436966224492094e-01,-3.060147897721764987e-01,5.679737444683605196e-02,-2.586157734919688339e-02,-6.361551658650792251e-02,2.016219794750213623e-01
-2.900231204361622406e-01,-1.154456372925062313e-01,-3.948646214798009479e-01,7.837180982398884999e-02,1.888051717634655138e-02,-1.429600404209613491e-02,2.826322317123413086e-01
-2.568505209300773195e-01,-2.669425668053246881e-01,-2.810391685218963653e-01,-1.276515029957589996e-03,-1.023388314901399953e-03,3.151050964649074887e-03,2.192361652851104736e-02
-2.660513147244644716e-01,-2.669753977606207918e-01,-2.709996675178267256e-01,-7.574721077870081882e-04,-1.819580740136900448e-03,7.332056576530107282e-04,5.833877250552177429e-03
-2.903970310828594692e-01,-2.070690035640596061e-01,-3.128814319843401526e-01,2.049829216647412397e-02,-9.985066245710200357e-04,-1.118184433045805136e-02,1.046963259577751160e-01
-2.649004673114354058e-01,-2.519558082071272631e-01,-2.898439602247430691e-01,1.055465202108856262e-02,1.023874827852535360e-03,4.688080839766370009e-03,3.893466666340827942e-02
-2.710606937957746321e-01,-2.664960157369531402e-01,-2.665115439745528447e-01,-7.442559889134850448e-04,-1.464225684186424301e-03,7.725994225879685316e-04,5.536243785172700882e-03
-2.531754324502296094e-01,-2.560694930068558861e-01,-2.989221812590319161e-01,2.886680316316388162e-02,-6.553385710136646648e-03,-1.015499102817985291e-02,7.004880905151367188e-02
-2.698377025021176379e-01,-2.709588422836191612e-01,-2.631806582098268343e-01,-2.573751613582088774e-03,-3.974254627622070507e-04,7.425203816927712338e-04,8.662396110594272614e-03
-2.677875415193260444e-01,-2.663291658910881265e-01,-2.710235246567344047e-01,-7.583627879684454306e-04,-2.948981623406211243e-04,7.338535874981652650e-04,4.573793150484561920e-03
-2.474044290050004535e-01,-2.666830264858062183e-01,-2.880572559606028871e-01,6.356636537019267306e-03,8.628795535885255689e-05,-3.613428485480351792e-04,3.690828755497932434e-02
-2.570458133311874782e-01,-2.611494621375428093e-01,-2.865665319702507263e-01,2.952199781087594746e-03,1.022229671717769366e-04,3.187317525354026941e-04,2.817184105515480042e-02
-2.542392211074417374e-01,-2.651771369294840808e-01,-2.861220982898706744e-01,1.720852541442303030e-03,3.236526345745355075e-04,-1.246609127311490049e-04,2.822531759738922119e-02
-2.632643617350625131e-01,-2.326119872004881739e-01,-3.043173335259160006e-01,5.316168334626338032e-02,4.503315873815845992e-03,8.011477709045111174e-04,1.114654392004013062e-01
-2.617773252682347174e-01,-2.621620505514751787e-01,-2.819295145401595204e-01,3.442083270346052697e-03,2.384654368774241119e-03,2.456381236312608907e-03,2.166127040982246399e-02
-2.755254091118921611e-01,-2.381138792749949717e-01,-2.871370003486748423e-01,-9.984138288695904029e-03,-5.835385487059663659e-03,3.752952351064119986e-03,4.911534488201141357e-02
-2.669140799789794793e-01,-2.675778238762214212e-01,-2.707847174545626734e-01,1.365380139060035861e-03,1.909807687026591344e-03,2.385724828777826406e-03,6.816392764449119568e-03
-2.825512174811803945e-01,-2.693158131037854397e-01,-2.509438268852031140e-01,-3.973193171236901258e-03,-1.249898592247889340e-03,5.116003155993177620e-03,2.977301552891731262e-02
-3.110482710931076755e-01,-1.764280635578043821e-01,-2.962463834844056842e-01,8.174916641561695563e-02,-4.081149798782635757e-02,-7.759348032794649574e-02,2.438376992940902710e-01
-2.754522844514912250e-01,-2.650735168027352207e-01,-2.637311473676968165e-01,-5.931910174038189116e-04,-1.952373874976836513e-03,7.363709015718396169e-04,1.172904763370752335e-02
-2.535897446343270412e-01,-2.683180122353190367e-01,-2.820640509294858322e-01,3.316764925156519359e-03,1.531634492415955917e-03,4.063538307339967931e-03,2.641795389354228973e-02
-2.850859145769970571e-01,-2.610476220622606203e-01,-2.584275471693968096e-01,-7.620654320945259878e-04,-9.637613234642270193e-04,1.765316911435525641e-03,2.572089061141014099e-02
-2.418724480647910513e-01,-2.840350420579686452e-01,-2.782204701785603307e-01,-2.895339764369250866e-03,-5.168020985915939766e-03,5.547165906610890262e-03,4.199909046292304993e-02
-2.403693574369408503e-01,-2.948426341033235643e-01,-2.737186387042764846e-01,-6.602848028817327568e-03,-1.974687610571925975e-02,6.371316472251890503e-03,6.070633232593536377e-02
-2.820790715027953199e-01,-2.573675873122380220e-01,-2.653948083177967154e-01,-1.390318246592021955e-03,-3.029922817536861990e-03,2.478638981449358004e-03,2.298913709819316864e-02
-2.808833625490570474e-01,-2.614470467496553541e-01,-2.622504820601581077e-01,-6.029972354667294211e-04,-1.070362202346403354e-03,1.055158494688573359e-03,1.925273984670639038e-02
-2.763676817874456404e-01,-2.334256359568326888e-01,-2.947947916479581876e-01,7.972730216151444754e-03,-6.376864791764655350e-05,-2.713533013859193701e-04,5.626545846462249756e-02
-2.682907983196076152e-01,-2.671217898959351578e-01,-2.679676405773940284e-01,-1.509315264445769541e-03,-2.607435316496886819e-03,1.266257589909177729e-03,5.756189581006765366e-03
-2.728222769440462048e-01,-2.664372640326974628e-01,-2.641121695477555154e-01,-4.566483936254557043e-03,-5.107444610278080721e-03,4.456897052172569679e-03,1.616874523460865021e-02
-2.575685894422724553e-01,-2.849305058363271748e-01,-2.616827626893448167e-01,6.148751130836736887e-04,-2.896940938886161717e-03,-1.106262636114948694e-03,2.613449282944202423e-02
-2.568965428467690493e-01,-2.863005570380051656e-01,-2.615091961426533329e-01,2.410580988715105288e-04,-2.928786630381193055e-03,-5.485360345127102567e-04,2.787566184997558594e-02
-2.619697788015429296e-01,-2.830036003958306678e-01,-2.606586464059741926e-01,1.657512813745026532e-03,-4.401233413543740973e-03,-1.502630320058968502e-03,2.334196120500564575e-02
-2.849098115911239404e-01,-2.674530454578485372e-01,-2.526052821532761006e-01,-2.348480917655155435e-03,-4.598414390575047452e-03,7.142862162121592015e-03,3.189721703529357910e-02
-2.689597988692765118e-01,-2.714960885134040103e-01,-2.588845978847514329e-01,-1.081241416074549440e-02,-1.028111753105949086e-02,1.015726029290837766e-02,3.332918882369995117e-02
-2.755301847102670232e-01,-2.632085071946311250e-01,-2.654174010264099270e-01,1.007234021477790764e-03,2.358724587700226569e-03,1.197830419571542645e-03,1.239049527794122696e-02
-2.816940817716019896e-01,-2.559958257996999276e-01,-2.675367362778535707e-01,1.460374436369416039e-03,3.843988910994119990e-03,1.358286882674438313e-03,2.352176420390605927e-02
-2.645297121234965187e-01,-2.891132970802351987e-01,-2.545246162237391752e-01,1.253405839417419659e-03,-1.213469729103139501e-02,-1.044131153996699949e-03,3.741860762238502502e-02
-2.669411943567130963e-01,-2.632951653743374476e-01,-2.749764235357888831e-01,-1.077904047966366527e-03,-2.397566083255386806e-03,9.468575205931191278e-04,1.142695639282464981e-02
-2.816544672415154382e-01,-2.686453995652203219e-01,-2.532313054080705395e-01,2.908101017393827873e-03,8.829340757197014916e-04,1.817848754588466311e-03,2.539639174938201904e-02
-2.667469476868874478e-01,-2.684021421602611479e-01,-2.693153350443960314e-01,5.741398285765541426e-04,6.986193438384142706e-04,1.476892678565120158e-03,3.752579679712653160e-03
-2.236030959202582047e-01,-2.934789313571085634e-01,-2.878812012418910937e-01,4.058548277965831619e-02,-2.390658199945966053e-02,-1.635668315264735342e-02,1.094603240489959717e-01
-2.536291365177690826e-01,-2.859548624806621531e-01,-2.657240470152114620e-01,3.278531265624547641e-05,-1.042396768789772069e-02,4.495165594381728266e-04,3.356857597827911377e-02
-2.841809456337051065e-01,-2.665685725092232783e-01,-2.537849650165946991e-01,3.150003959971528662e-03,-3.781273334276090566e-04,1.321521221404070839e-03,2.709615789353847504e-02
-2.813087642167116931e-01,-2.567656835038244489e-01,-2.658359896556249380e-01,1.221893836552765148e-03,2.039537371769206252e-03,1.871266970613883005e-03,2.212426625192165375e-02
-2.751719646967574207e-01,-2.618070078806124523e-01,-2.677986431786909538e-01,8.112674023462437345e-04,2.752015385790199282e-03,8.436568648620567821e-04,1.269938237965106964e-02
-2.706500619903335347e-01,-2.645728421013568421e-01,-2.694491024963945880e-01,2.599807369508998147e-04,2.759887616619714421e-03,1.306061417704684280e-04,7.360794115811586380e-03
-2.676796309767153770e-01,-2.841356429757934121e-01,-2.541662036011121395e-01,3.144217511660835161e-03,-1.026436915814026019e-02,-2.708575825812725019e-03,3.230370581150054932e-02
-2.666128163358758574e-01,-2.879908852964802035e-01,-2.468665345352562268e-01,-6.614505634736069168e-04,-6.925642927907814904e-03,1.730803691394606060e-04,3.760812059044837952e-02
-2.622644699590480633e-01,-2.674387286826619414e-01,-3.096014649300244947e-01,-1.010654745276375333e-01,-7.832198933360376425e-02,7.248690942037581963e-02,2.585176527500152588e-01
-2.677814546463938572e-01,-2.666398432269030394e-01,-2.704471357090841854e-01,-6.816744746503509034e-05,1.116644354491961146e-03,3.689538589956103086e-04,3.951621241867542267e-03
-2.707482076336744092e-01,-2.678159934824634325e-01,-2.664785849344167290e-01,1.944205227956149031e-04,7.289702584722694209e-04,7.302997595364951224e-04,4.197107627987861633e-03
-3.827716742952465556e-01,-2.549818955238478679e-01,-1.757269205786198829e-01,4.833314245838810086e-02,3.739656194174566239e-03,1.190908341998828113e-01,2.869454026222229004e-01
-3.666169116631499136e-01,-1.019748901218851811e-01,-3.702761895546116122e-01,3.774000898437162438e-02,-1.583782465520557417e-02,-3.871955843780969936e-02,2.837961316108703613e-01
-2.603551023174966450e-01,-2.845849114351885478e-01,-2.604931336540771691e-01,7.104341635407071759e-05,-4.724568890323302232e-03,3.683343640359151828e-04,2.551754377782344818e-02
-2.599867438434588784e-01,-2.855015070183465897e-01,-2.606135652939373104e-01,3.873317712359097527e-04,-4.414107436135415556e-03,-5.526994444944728331e-04,2.636707015335559845e-02
-2.704999181667703811e-01,-2.688929605581573123e-01,-2.654266640020743195e-01,-2.528421304945259462e-03,-3.823392852670784458e-04,5.812894077803743790e-04,6.387386005371809006e-03
-2.758428844457432305e-01,-2.639678513857173781e-01,-2.645777026129843557e-01,-7.577992985576760586e-04,-5.951341475813996676e-04,-1.531649887590951745e-04,1.170478668063879013e-02
-2.699818269454978270e-01,-2.838759721277955839e-01,-2.504818911160013872e-01,-4.877051217200983196e-03,-8.901229488284166658e-03,3.890424953127255905e-03,3.462208062410354614e-02
-2.691889717881858490e-01,-2.748798178176494189e-01,-2.609226891537765880e-01,-3.585503310253513286e-03,-7.643786712195244255e-04,9.472625822878968666e-04,1.381200738251209259e-02
-2.542737176820968337e-01,-2.860081408246045731e-01,-2.649353293956777655e-01,4.722587950021371779e-04,-1.536085922208457136e-03,-8.645038249791315850e-05,2.811002731323242188e-02
-3.215816379578171902e-01,-2.511381161089935588e-01,-2.412683086559294643e-01,-1.124375265768390959e-03,-1.666827902473949977e-02,6.767327306739712167e-02,1.425877660512924194e-01
-2.655742675591983848e-01,-2.694758150354433779e-01,-2.694757973633903347e-01,-1.195204405712380850e-03,-9.631026879128774549e-04,3.199032490343668537e-03,7.279538083821535110e-03
-2.667355960087675615e-01,-2.706893537411433903e-01,-2.675559787339857332e-01,-5.963401080042151628e-04,-2.567344374933769736e-04,3.025981515412106836e-04,3.821116639301180840e-03
-2.328069644464851318e-01,-2.910603824102706016e-01,-2.799839922776090617e-01,-5.866542161325444954e-03,-1.261902645521110339e-02,5.713665893109706566e-03,5.958032980561256409e-02
-2.594869993242457373e-01,-2.844750054453086263e-01,-2.607891007840711373e-01,-1.420848799482692831e-04,-1.030274837192394696e-03,4.194914454763292995e-04,2.444037422537803650e-02
-2.579190903770191556e-01,-2.834831539548736123e-01,-2.632052758834191875e-01,1.248352143604967209e-03,-2.351186370964810854e-03,-2.413948667462952925e-03,2.418821118772029877e-02
-2.609608851995514067e-01,-2.835485917871797268e-01,-2.599361759638814662e-01,-1.785239314166552950e-04,-6.214346937697580323e-04,4.199017853624269236e-04,2.315563522279262543e-02
-2.682098129005209275e-01,-2.852691489849068507e-01,-2.505247792634162085e-01,3.187348298378502899e-03,-3.627488171748642111e-03,-1.720145251741275359e-03,3.137366101145744324e-02
-2.524717267578993618e-01,-2.850666246074284316e-01,-2.661773943337580328e-01,3.235700867941051270e-04,-2.463055648604391135e-03,1.572994757894415931e-03,2.880060486495494843e-02
-2.476892107140728494e-01,-2.902592248619859649e-01,-2.661558950101911569e-01,-5.279243443397526979e-05,-5.026989817862215389e-03,-1.532185153916920803e-03,3.807834908366203308e-02
-2.588865057502097722e-01,-2.753363120684217402e-01,-2.701061309427660317e-01,-1.362006751426841781e-03,-2.173476006436739737e-03,4.133745410208070070e-03,1.682011224329471588e-02
-2.849147850665560977e-01,-2.527543965938469084e-01,-2.660469462271330410e-01,4.867266569446739412e-04,-1.915664254069768344e-03,2.405877997399078535e-03,2.850567735731601715e-02
-3.118144299464832292e-01,-3.043325025596896327e-01,-1.935374751795565507e-01,-6.719888924184588917e-04,-3.287642725500946467e-02,4.393935903021069928e-02,1.489846110343933105e-01
-2.593679229676745801e-01,-2.841809890518804949e-01,-2.616252865926256277e-01,3.478472667022038112e-04,-7.303264264689440354e-04,-9.279131389005881251e-04,2.386038564145565033e-02
-2.502578625497671183e-01,-2.848187743173667408e-01,-2.671920171127591948e-01,1.218824271665136429e-03,-5.021490147671063727e-03,-2.521678049972502986e-03,3.154586628079414368e-02
-2.187038135829665608e-01,-3.508033202796679850e-01,-2.295488430784666245e-01,-3.145987995332914094e-02,-1.159447347239562776e-01,2.180969276721459252e-02,2.467001676559448242e-01
-2.626193003996923347e-01,-2.939040411481748105e-01,-2.626656383219036495e-01,-3.531873155864027197e-02,6.363966237292882633e-02,-3.492472489312863082e-02,1.432785987854003906e-01
-2.594526526267861288e-01,-2.827627157402591851e-01,-2.606412313704501993e-01,-2.640929010358753111e-03,-3.094747604637378916e-03,1.450113930345485599e-03,2.393805235624313354e-02
-2.459999905141047050e-01,-2.923040278476600751e-01,-2.652467158608088904e-01,6.824384043798862286e-03,-2.389078453672540542e-02,-6.262902306108770155e-03,5.994160845875740051e-02
-3.720626283317862715e-01,-2.642417060786431127e-01,-1.782503251084160412e-01,4.324607926834583838e-02,-1.630076534267196290e-03,-1.095678790090584137e-01,2.644343674182891846e-01
-2.611743663904341206e-01,-2.828799487435416649e-01,-2.605051864354817615e-01,1.041509684224942037e-03,-4.122269648616445946e-04,-4.256292708036202646e-04,2.214526012539863586e-02
-2.771553256536553600e-01,-2.787835614430797526e-01,-2.468646138915492616e-01,-7.995648670135864500e-03,5.985412719369652239e-03,-7.030641601670922086e-03,3.764379397034645081e-02
-2.892614443517320666e-01,-2.652287991040650494e-01,-2.524481262793118463e-01,-2.012033679224703702e-03,-2.138772450611097907e-04,-1.006551613293187215e-02,3.693633526563644409e-02
-2.583220993168124369e-01,-2.831694333917788020e-01,-2.626155084066852385e-01,8.410725269330337735e-04,-3.009406302463508293e-03,-1.317577904061647057e-03,2.374117635190486908e-02
-2.756668980320673978e-01,-2.644195766167936057e-01,-2.642304137191867075e-01,6.931960666979195213e-04,-1.629526865093400192e-03,-8.732979542829766252e-04,1.184741221368312836e-02
-2.875072814937368326e-01,-2.802670636361025980e-01,-2.340013581955102395e-01,-9.009460457376080103e-03,1.531285063137565253e-02,-2.744735960748942438e-02,7.572941482067108154e-02
-2.835380067408226346e-01,-2.876121209772097287e-01,-2.362220221133576048e-01,-2.654508138546824922e-03,-8.326146424257144588e-03,3.699590399198215279e-03,5.213775858283042908e-02
-2.832912084930502838e-01,-2.784193050437794859e-01,-2.429891637516425618e-01,-5.645942479554656550e-03,2.549056347166042506e-03,-6.345528758052683578e-03,4.107995703816413879e-02
-2.868781315682329969e-01,-2.581305164076434511e-01,-2.569226863019813956e-01,-1.473258222345742371e-03,1.501031736097739079e-03,-9.905280137672708984e-03,3.420849144458770752e-02
-2.759493055330524136e-01,-2.628607783454963709e-01,-2.650159627625140457e-01,1.247371359249620660e-03,-2.200872670947334568e-03,-1.581360217931970617e-03,1.320786122232675552e-02
-2.732176635897078931e-01,-2.660789430469138184e-01,-2.645857274199627795e-01,2.379618870807564089e-03,-1.440928659748563464e-03,-1.466653036869051702e-03,9.670598432421684265e-03
-2.604373364511082811e-01,-2.690411314376983665e-01,-2.784019732360016319e-01,7.212420076446466113e-03,-5.656649296336305893e-03,-6.673012635462763874e-03,2.505647204816341400e-02
-2.868841391438847199e-01,-2.795978558182058982e-01,-2.364858174749377984e-01,-7.811796355557700661e-03,5.649397271945827415e-03,-8.019396036867711824e-03,5.193857848644256592e-02
-2.492238221810448295e-01,-2.697338858200121758e-01,-2.850187391964802974e-01,-1.518907000506799360e-02,1.120799392324752300e-02,-1.302511570335730673e-02,5.045517534017562866e-02
-2.576058091055685728e-01,-2.632190753917205139e-01,-2.835523282716542748e-01,-2.649862969417438041e-03,1.393683963482814743e-03,-2.587652447856185044e-03,2.461840957403182983e-02
-2.636813407974740731e-01,-2.756995061413611836e-01,-2.646391410429873026e-01,1.934704332144972314e-03,-6.357991225089057322e-04,-5.690876097136747525e-04,1.213491801172494888e-02
-2.676389594443165376e-01,-2.687688246620261179e-01,-2.681114541425853037e-01,3.279554132425164322e-04,-4.490509076469214808e-04,-5.896419441109675879e-04,1.713659381493926048e-03
-2.610804784909818710e-01,-2.655588486661031866e-01,-2.775020341632388199e-01,-1.905307081427792641e-03,1.511600739493248633e-03,-2.749464701981344655e-03,1.601891219615936279e-02
-2.688915757636640702e-01,-2.748196276244225245e-01,-2.618344549487192641e-01,2.756900386190841521e-03,-1.167928204345317078e-03,-9.043708989456297840e-04,1.249508187174797058e-02
-3.006163904403040266e-01,-2.849469839769862012e-01,-2.216090362006279679e-01,-9.272314499725339831e-02,6.424360141264065516e-02,-7.493651120685665412e-02,2.455007135868072510e-01
-2.691198684481435621e-01,-2.674566201952059408e-01,-2.678300547098972362e-01,1.048055676727371562e-04,-8.460766339129757903e-04,-2.508535907654655100e-04,2.157314447686076164e-03
-2.820649871454055657e-01,-2.911603754896979201e-01,-2.320295423127568812e-01,-7.870873195307152848e-03,2.367804847622385217e-02,-1.770713602773363315e-02,7.648394256830215454e-02
-2.677864929563570362e-01,-2.683207156466723142e-01,-2.685046733843451938e-01,1.371525747298080796e-03,-1.683108044915921460e-03,-1.355375628639771991e-03,4.480004776269197464e-03
-2.697794524456466614e-01,-2.653404546560909072e-01,-2.694706313590150559e-01,1.081673910925696211e-03,-2.768222017254860171e-03,-1.028870113897120990e-03,6.935715675354003906e-03
-2.661566317501790069e-01,-2.710505509736264029e-01,-2.669929328129166946e-01,1.555169998936806229e-03,-2.577330902557040137e-04,-4.856485976091481308e-04,5.359063390642404556e-03
-2.695991622764360995e-01,-2.756468521600036747e-01,-2.581102614697751152e-01,4.554703932127307855e-03,-3.592951494726867590e-03,-2.084879802304777287e-03,1.876312308013439178e-02
-2.868344812159386858e-01,-2.522615337716180850e-01,-2.654599100377051379e-01,4.192378697927277896e-04,1.796913718683288905e-03,1.814770198493894336e-03,3.054952062666416168e-02
-2.749391844991656564e-01,-2.688698524845883342e-01,-2.610496251287615088e-01,-3.499774664698238058e-03,-9.626708716815085467e-04,1.125163186967511122e-03,1.373971439898014069e-02
-2.677973099177309302e-01,-2.790639619055084730e-01,-2.586389689213769993e-01,4.582294447853364414e-03,-8.227361375379015074e-03,-5.056427408743606293e-03,2.562732063233852386e-02
-2.629450501902276804e-01,-2.788602529814599995e-01,-2.620817735264583948e-01,2.495179167711324142e-03,-2.100521670035358952e-03,-1.189301659090245301e-03,1.743375509977340698e-02
-2.718967250621545095e-01,-2.704639617405885654e-01,-2.630130220691795917e-01,5.825930543090572511e-03,-4.623138118386379419e-03,-6.383815898195109584e-03,1.887984760105609894e-02
-2.610047266910245911e-01,-2.834623530660005386e-01,-2.584042430315779959e-01,5.727997991327683433e-03,-8.441224090899691196e-03,-5.276499237537864845e-03,3.106807358562946320e-02
-2.833979459068622919e-01,-1.634619016549107018e-01,-3.369922615865552640e-01,-9.215699746656763613e-02,1.826689745526991968e-02,-2.874279831852263184e-02,2.294408828020095825e-01
-2.687241966187682851e-01,-2.735658696666132261e-01,-2.623435285598413325e-01,3.097813739128257339e-03,-4.159290858446993561e-03,-6.264949297724263337e-03,1.713140495121479034e-02
-2.713591882655373988e-01,-2.666594442944232313e-01,-2.662685757936285036e-01,-4.582861868547837307e-04,-4.580512747600513088e-04,-4.377870475862660651e-05,5.034144967794418335e-03
-2.325308505319619301e-01,-3.469009877531950559e-01,-2.230141395154437434e-01,-2.822519536768003379e-02,1.180976883958869683e-01,-8.652032061380914019e-02,2.845136225223541260e-01
-2.836728379215642804e-01,-2.594003279533730888e-01,-2.615936576848292283e-01,6.571427188210253987e-05,3.895565220463721636e-04,7.278162430298107388e-04,2.329775132238864899e-02
-2.777065616544773796e-01,-2.649795558163255960e-01,-2.615515665800220435e-01,-2.848081855539746823e-03,-1.375067402194102457e-03,1.616955099762386284e-03,1.597518660128116608e-02
-3.522729501827836507e-01,-3.484100410238254453e-01,-1.328545455083401106e-01,-4.270787432050360960e-02,-8.506845128258905264e-02,8.903665367669354180e-02,3.134902715682983398e-01
-2.842503252889629906e-01,-2.551662474321312879e-01,-2.660676235944126056e-01,4.611207602449357741e-04,1.326962539984714601e-03,2.652492971404460560e-03,2.597488462924957275e-02
-2.863326283928320781e-01,-2.648454891772021313e-01,-2.553268859335433016e-01,-2.404842241933098472e-03,-7.603830838184967404e-04,1.922338626879648016e-03,2.805350348353385925e-02
-2.681524462599799707e-01,-2.716871049391676451e-01,-2.639837065151977580e-01,2.466850017746658342e-03,-9.808591002181627026e-04,-1.464886810450655033e-03,8.496308699250221252e-03
-2.511237011248310114e-01,-2.841844950826692973e-01,-2.657655970468024709e-01,-8.589011492707796999e-03,1.679470510537087874e-02,-8.061517711710073503e-03,4.567047581076622009e-02
-2.530308098988143239e-01,-2.824605446907647033e-01,-2.682064920512580164e-01,-1.714761881547164019e-03,3.852917617577022481e-03,-3.993832160726467836e-03,2.740442566573619843e-02
-2.611124651587862222e-01,-2.775954856765168732e-01,-2.654916081169866326e-01,-1.666892733930969064e-03,1.629455790133916985e-03,-2.701724062071515428e-03,1.602760888636112213e-02
-2.760807951245054515e-01,-2.688296819956242922e-01,-2.616798914886834249e-01,-5.917009088824925697e-03,6.687339318605925106e-03,-7.291845543160493937e-03,2.354250662028789520e-02
-2.380555289801272456e-01,-2.883055423125549521e-01,-2.782952979729214626e-01,-1.018409245996539959e-02,1.041659949542724124e-02,-8.025058646307082350e-03,5.433343723416328430e-02
-2.608854127677440737e-01,-2.843802769549281240e-01,-2.594930805557683628e-01,-1.220535687045135474e-05,-3.690311842603757539e-03,2.011688071799998430e-03,2.529142610728740692e-02
-2.532089198947550801e-01,-2.832341048711429776e-01,-2.676856380900371479e-01,5.245958358309019826e-03,-1.235925841234187736e-02,-4.067240458823510180e-03,3.559301048517227173e-02
-2.952645042803830888e-01,-2.739429041594337311e-01,-2.266105176731504356e-01,-2.344956774505307581e-02,-4.723946345413598813e-02,6.120221371298260882e-02,1.525963544845581055e-01
-2.842679691586790791e-01,-2.645700007793331809e-01,-2.561919635139794371e-01,-3.812471524099984442e-04,1.037935319168289090e-05,2.221386133380832961e-03,2.526799961924552917e-02
-2.696697095090140328e-01,-2.756437404381276712e-01,-2.607463676573022471e-01,-4.468970312569465163e-03,6.562178783073700609e-03,-5.836179914994326333e-03,2.144546620547771454e-02
-2.549816419755864261e-01,-2.785766074415287896e-01,-2.689312900025417896e-01,-2.042367415048483657e-03,4.041593579924033716e-03,-3.813176742721674679e-03,2.296327054500579834e-02
-2.737685031557386961e-01,-2.826221093525281280e-01,-2.488373234792182198e-01,-4.183886287984486460e-03,-2.671725832644102766e-03,1.889479827563316817e-03,3.170678764581680298e-02
-2.626888997766487766e-01,-2.813383098415570549e-01,-2.597506426894533038e-01,-2.080281669621615332e-03,3.175615218013654560e-03,-8.359715052542497030e-04,2.136734500527381897e-02
-2.673430234808389927e-01,-2.706353194241263860e-01,-2.671945288250243133e-01,-2.060353642059666295e-03,1.495776746811300177e-03,-2.047584826991837286e-03,6.585983559489250183e-03
-2.563299385230290994e-01,-2.829483112904459530e-01,-2.658817506473376002e-01,-3.432490171881258205e-03,1.032649512263155572e-02,-2.492846097232504984e-03,3.032193146646022797e-02
-2.639939167141868159e-01,-2.768333604290506567e-01,-2.646962113933130079e-01,-2.836918086794239235e-03,2.069998484441121743e-03,-2.734462492436421071e-03,1.468871347606182098e-02
-2.676363492327802907e-01,-2.812958247753608032e-01,-2.553810859862236105e-01,2.760990665555709996e-03,-2.276205487243568738e-03,-9.915186811126715152e-04,2.335669286549091339e-02
-2.664151310880160106e-01,-2.856158081870753818e-01,-2.516250063468437603e-01,1.384611955051878512e-03,-3.147542358927891883e-03,-5.542967093897213562e-04,3.012952767312526703e-02
-2.612206609268902247e-01,-2.764808695733898536e-01,-2.696343194170858215e-01,-5.220737734808569494e-03,6.532702374969813486e-03,-5.526334448001947973e-03,2.183317393064498901e-02
-2.619085114525323554e-01,-2.766075134660641588e-01,-2.673971795038486143e-01,-4.648817587448558081e-03,7.253478955431382283e-03,-3.614218450599998925e-03,2.067291177809238434e-02
-2.703441570792355364e-01,-2.782301091219533395e-01,-2.546392572822174794e-01,-4.252826989060916850e-03,2.910837428604107820e-03,-4.200708748347310381e-03,2.377596683800220490e-02
-2.527101957369099483e-01,-2.651303875340418337e-01,-2.871589024197240270e-01,-2.369801411741603858e-03,7.514747510486208867e-04,-2.037618948528120786e-03,3.072641789913177490e-02
-2.929271940310599898e-01,-2.940141995048902723e-01,-2.177435237620836406e-01,-1.203841357411748563e-04,-8.734953922884203248e-03,8.148573627123920169e-04,7.724263519048690796e-02
-2.773946459612280369e-01,-2.881197559655259144e-01,-2.401363659760582803e-01,1.482137987378618488e-02,-2.196647557339523674e-02,-1.493494110553868562e-02,6.840001791715621948e-02
-2.818273037297276962e-01,-2.908400519539178775e-01,-2.338264844560213884e-01,7.031168871935220173e-03,-1.018862615870187206e-02,-3.621459927962654250e-03,5.759347975254058838e-02
-2.622365567211393800e-01,-2.713428274569700815e-01,-2.700311733419668014e-01,1.462658430171402983e-03,-1.237069186593514657e-03,-3.301854543121640877e-03,1.078963279724121094e-02
-2.646361648272755329e-01,-2.544263420069894921e-01,-2.865162043636930167e-01,-2.483302839130406819e-03,8.173769419471507876e-04,-1.171510145920293708e-04,2.875610813498497009e-02
-2.903945834530461956e-01,-2.932771840644511352e-01,-2.205512023669146671e-01,2.933500998713495928e-03,-8.084558034353083247e-03,-2.594149358064836049e-03,7.300563901662826538e-02
-2.810188737912279189e-01,-2.620413388349818740e-01,-2.617784570115126441e-01,5.193951866274404677e-04,-1.240807008466680503e-03,-1.179976533873542061e-03,1.936000958085060120e-02
-2.945439525018879734e-01,-2.895751264555308513e-01,-2.201546003284680364e-01,2.730496325701431328e-03,-2.092208733708994951e-03,-8.767191976049828334e-03,7.385747879743576050e-02
-2.701783636708787184e-01,-2.704066947164657231e-01,-2.647277400784401324e-01,1.876432615508111419e-03,-4.911619397884997833e-04,-5.208983641015228023e-04,6.565569434314966202e-03
-2.853406380071503712e-01,-2.964986520424477412e-01,-2.294717543238823099e-01,-1.818927756268579575e-03,-2.251841896849927915e-02,1.191351117230471726e-02,7.632940262556076050e-02
-2.579201714304660831e-01,-2.880159059460664084e-01,-2.580836572498120818e-01,-4.956472838110325026e-03,-1.277735197834256251e-02,7.528695045557681070e-03,4.042753577232360840e-02
-2.762005608494081388e-01,-2.972364374748550642e-01,-2.361073110681102816e-01,7.007105062240338335e-04,-2.088421360688082901e-02,-1.524030659509962487e-03,6.488656252622604370e-02
-2.804106185796680917e-01,-2.654411130715274014e-01,-2.540745563090485715e-01,-2.197524457787209534e-02,2.308327346686434717e-02,-5.260558338426703923e-02,1.089620366692543030e-01
-2.695088328826543145e-01,-2.697615392186419880e-01,-2.652110692430620364e-01,3.014324315165650171e-03,-7.783867825262643248e-04,-8.020081350771279729e-04,7.115227635949850082e-03
-1.290127757075686943e-01,-3.095792689774983231e-01,-3.716581155764904221e-01,4.853201809759299934e-02,3.001060868175910168e-02,2.933848035420813516e-02,2.449849396944046021e-01
-2.703205730706564336e-01,-2.648753274774051647e-01,-2.701945502505251895e-01,8.312855375647322780e-04,-1.673170508197393755e-03,-7.327703370915356670e-04,6.408027838915586472e-03
-2.673377091330436106e-01,-2.711442960536829538e-01,-2.661290852418735087e-01,3.478794053012323486e-04,3.139035373572435879e-04,-5.531165835185789231e-04,4.704050254076719284e-03
-2.777499760215959013e-01,-2.630377800282608924e-01,-2.639725352304134187e-01,-2.130350570849775963e-04,-1.305548154941880848e-03,-4.905167418471827277e-04,1.447554863989353180e-02
-2.826870858875580317e-01,-2.752167017314660624e-01,-2.455778207843772321e-01,4.945476305762102134e-03,-1.085816688394601820e-03,-4.165832537275372151e-03,3.584210574626922607e-02
-1.028505729945235481e-01,-3.361841868509182207e-01,-3.388687769148256979e-01,-5.599545266200781947e-03,-1.231884986829134138e-02,4.239791863836892992e-04,2.358559966087341309e-01
-2.324661355216836589e-01,-2.910126420162334471e-01,-2.836031038336280785e-01,-5.796328125778862916e-03,4.211002608604589616e-03,-1.753709217172303358e-03,5.667458474636077881e-02
-2.903009993442237646e-01,-2.409648957302471528e-01,-2.741087941204328193e-01,-2.124594811092362593e-03,-2.960477147444207438e-03,3.354859939863837764e-03,4.439570382237434387e-02
-2.903916636292953046e-01,-2.385850581950549887e-01,-2.752705663087067212e-01,1.464340750201481838e-03,3.503177263368005469e-03,7.249972600894679861e-03,4.827147349715232849e-02
-2.740412754178053190e-01,-2.750121855348808264e-01,-2.557063570433798505e-01,-3.993492891679341003e-03,-1.896897860804057194e-03,2.143268473952564084e-03,2.067203074693679810e-02
-2.353244978099733875e-01,-2.923059938403353430e-01,-2.768059828511622023e-01,-3.586291655008746158e-03,9.655564275326397258e-03,1.095196659073231180e-04,5.405772477388381958e-02
-2.749006063937493582e-01,-2.744121886838518654e-01,-2.556106097618612294e-01,-4.217972057316802734e-03,-1.922390170991675196e-03,2.156455602938413436e-03,2.100791409611701965e-02
-2.451976323251189860e-01,-2.883911555220696754e-01,-2.705551343204660730e-01,6.409814867161497780e-03,2.690559208756085341e-02,1.363825372454154083e-02,6.531768292188644409e-02
-2.466783651079880457e-01,-2.759673330126389268e-01,-2.819692336113032716e-01,-6.500698703308100193e-03,-8.521700642012524848e-03,5.515834249443281843e-03,3.880160674452781677e-02
-2.647667251295848234e-01,-2.759375267291638845e-01,-2.637845556982488238e-01,-2.512691959592588172e-03,-1.653343670739421296e-03,2.117497222355147184e-03,1.331600453704595566e-02
-2.776605307051142058e-01,-2.626810053203982309e-01,-2.639764184843034212e-01,-7.215682062123350907e-04,-1.675652586984589321e-03,6.922057260260352889e-04,1.476761512458324432e-02
-2.842165094478863452e-01,-2.607072734998378549e-01,-2.600203497776902850e-01,2.206221628447723078e-03,2.725333074974245484e-03,5.399864973199912897e-03,2.633752673864364624e-02
-2.329621522239213038e-01,-2.913511036887660999e-01,-2.787724493093782230e-01,-6.720877727916787711e-04,8.784293549741330892e-03,-1.858248272265381525e-03,5.546389520168304443e-02
-2.596936208392833234e-01,-2.961629888605565308e-01,-2.350044419235522430e-01,-2.363702783915741165e-02,-5.112653453527000319e-02,2.954017244308806966e-02,1.223753616213798523e-01
-2.235572836085318593e-01,-2.929144486967821259e-01,-2.885137371363751257e-01,-4.287622889410282884e-03,7.463194090525069463e-03,-3.376055380398323719e-03,6.914480030536651611e-02
-2.198626655368771943e-01,-2.935939668350181497e-01,-2.906102521005441974e-01,-5.165020145372517692e-05,5.508755443572132746e-03,9.165250869939251498e-04,7.292997837066650391e-02
-2.478898809079771448e-01,-2.777239655111817251e-01,-3.159813830597403839e-01,1.175724286780534533e-01,9.163224763924983363e-02,7.389278166723174668e-02,2.941678762435913086e-01
-2.599767820025560838e-01,-2.615158848774839506e-01,-2.834496198430380698e-01,-4.728590484103826000e-03,9.224430846449251879e-04,-1.581823017941682858e-03,2.437937073409557343e-02
-2.209354749211103752e-01,-2.926512466970818127e-01,-2.919069414200473611e-01,2.241606652899977726e-03,7.284862357539051772e-03,2.001036968753453632e-03,7.264035940170288086e-02
-2.170033594117704023e-01,-2.936593176318923470e-01,-2.934139764772711878e-01,-2.840629252684180334e-03,-2.385791127130316644e-03,9.082090124811260413e-04,7.681892812252044678e-02
-2.646352455896904265e-01,-2.559804820206589282e-01,-2.855468468902040979e-01,-1.083236270477667441e-02,-1.964826060694969262e-03,1.449590866913020486e-03,3.260507434606552124e-02
-2.792666686335228965e-01,-2.671922563641265236e-01,-2.589119831763199153e-01,-3.531389871270602769e-03,-1.558678730704160563e-03,1.689602607434053912e-03,1.917286217212677002e-02
-2.570712849249742193e-01,-2.614629594435770588e-01,-2.865899748964229610e-01,-3.020387769577981881e-03,-1.993604224083726187e-04,-6.804350179972991396e-04,2.810480073094367981e-02
-2.961934677450855924e-01,-3.009695012216712651e-01,-2.141870956902281742e-01,-2.297495570951506999e-02,4.609253147134236700e-02,-4.105374488573472480e-02,1.419607698917388916e-01
-2.830557680019746281e-01,-2.840543456320812621e-01,-2.385097054192383825e-01,-3.974042312515621567e-03,-3.561731120946573341e-03,3.009965237849575401e-03,4.628658667206764221e-02
-2.413912818783142400e-01,-2.497767541972221728e-01,-3.043458433163672150e-01,-4.601231763558108478e-02,3.914766812914921221e-03,-4.104250936030636072e-03,9.976772964000701904e-02
-2.626338881780077572e-01,-2.950136053155356097e-01,-2.462431833030466199e-01,-1.661330079868223288e-03,-2.413111438387542662e-02,1.222518037421879700e-02,6.365064531564712524e-02
-2.704858974661384363e-01,-2.232413751810037594e-01,-3.029644614354906618e-01,-4.408600536767540157e-02,-7.532161270323302696e-03,1.282875480479397402e-02,1.063766628503799438e-01
-2.592916001037530727e-01,-2.585462729501646351e-01,-2.859849816856092075e-01,-4.673600780092988446e-03,1.885273456135506780e-03,-4.456595028227211736e-04,2.845652215182781219e-02
-2.688430111772425191e-01,-2.753946267721892882e-01,-2.612078541516864028e-01,2.345172673742608113e-03,1.591152011922324213e-03,1.286360342560750663e-03,1.342761609703302383e-02
-2.664832553313437047e-01,-2.549481424176903710e-01,-2.817259913948892969e-01,-3.894836588581843465e-03,4.120427258534676597e-03,-2.837863637506344086e-03,2.572605572640895844e-02
-2.847324016791115686e-01,-2.899925016559830038e-01,-2.297288595213793361e-01,2.321489631918477545e-03,-3.663842261012672900e-03,-1.516782167866301961e-03,5.835857614874839783e-02
-2.591299741031791726e-01,-2.610649710174627325e-01,-2.859414493415396441e-01,-4.665076443676264770e-03,5.973645699565151117e-04,-6.915486892026362050e-04,2.717560157179832458e-02
-2.780708554954737788e-01,-2.649364281105459629e-01,-2.620644212631399461e-01,1.940476013586342995e-03,-1.680672322499869717e-03,-3.398669638383062120e-03,1.651989668607711792e-02
-2.791151629028003622e-01,-2.834282592676426460e-01,-2.390933971074235553e-01,1.690831961400374173e-02,-2.670385968875526456e-02,-2.999051253930597877e-02,8.653448522090911865e-02
-2.800766404922405695e-01,-2.882014202809272674e-01,-2.336723996600975628e-01,5.154873365912118234e-03,-1.400713752110351387e-02,-1.203679109942792230e-02,6.082237139344215393e-02
-2.724220865127684466e-01,-2.658960040385358603e-01,-2.665252132652046746e-01,2.396810100821488831e-03,-2.224762978571287290e-03,-1.587999701721040961e-03,8.861569687724113464e-03
-2.851601713813974870e-01,-2.606737808779929222e-01,-2.590493423149416441e-01,9.945183647564138831e-04,-1.459668441135468986e-03,-2.589571188877631564e-03,2.591284364461898804e-02
-2.847538925940346632e-01,-2.576001095901873650e-01,-2.616931305995031098e-01,7.409807526090512759e-04,-1.240547759626712491e-03,-2.987635446424466174e-03,2.599964849650859833e-02
-1.452100975438209984e-01,-3.228714150624782953e-01,-3.218181084249555624e-01,3.859584403525488649e-02,4.409468356283791773e-02,1.441631058185445166e-02,2.056768089532852173e-01
-2.752485782060503650e-01,-2.748885180880606960e-01,-2.546039089181899584e-01,4.326864351752664033e-03,-2.489392336693610486e-03,-2.221232341040719604e-03,2.254898659884929657e-02
-1.984734795454540512e-01,-2.935977645254411739e-01,-3.157684029996814523e-01,2.745687892522751319e-02,-6.770339868663809504e-03,-1.002284764463747500e-02,1.197900623083114624e-01
-2.811709640382147324e-01,-3.340021324186973617e-01,-1.839703396336511698e-01,-2.588484937008993583e-02,-9.363043020055830667e-02,5.152393098017184203e-02,2.316214889287948608e-01
-2.752010958387943740e-01,-2.690783575135765604e-01,-2.613798205642827166e-01,2.609642783233283476e-03,-1.143805473445536373e-03,-1.240309304793390383e-03,1.314770709723234177e-02
-3.042915111073156154e-01,-2.761544648436968230e-01,-2.272848137047988049e-01,-7.875223699324685606e-03,1.562484407222365992e-02,-3.204385825087497502e-02,9.248716384172439575e-02
-1.890832447455791099e-01,-2.784827190552732756e-01,-3.227644068994440230e-01,7.773214960305600829e-02,3.612232373198787094e-02,2.207363109189548755e-02,1.934294700622558594e-01
-1.912606548206790547e-01,-2.663629326637568795e-01,-3.268446588704680411e-01,9.433347135686213913e-02,-3.724302631824198684e-02,-2.813715083416653412e-02,2.169639319181442261e-01
-2.114988100446317243e-01,-2.821237196064036445e-01,-3.119786210676380733e-01,4.880464316637031508e-02,-1.151669376882143332e-02,6.880872837527337096e-03,1.251931041479110718e-01
-2.325481031963658463e-01,-2.766381696276588031e-01,-2.911552382681808493e-01,-1.659623200499758464e-02,-7.040379712213113393e-03,7.873137881482595787e-03,6.289437413215637207e-02
-2.843775555649325493e-01,-2.593670852713597097e-01,-2.609605188628500994e-01,2.814948842001220542e-04,-3.013916093527742139e-04,-8.759740017084844408e-04,2.431095205247402191e-02
-1.999876244768497568e-01,-2.949538234578634177e-01,-3.018809522888402097e-01,-2.923640269315341822e-02,-8.369498121409080227e-03,3.406302762881752936e-03,1.119538471102714539e-01
-2.182380563225916892e-01,-2.879427161984976502e-01,-2.940848999422349674e-01,-1.055647585774389073e-02,1.098918326610079420e-03,1.938901357620958273e-03,7.532478868961334229e-02
-2.306331997760405206e-01,-2.841422659817862129e-01,-2.906700668420454936e-01,-3.683695676525945359e-03,-3.678377935297472319e-03,1.298856121630704132e-03,5.780562385916709900e-02
-2.817338035412406683e-01,-2.590940626419586112e-01,-2.627636157462329147e-01,1.312745565510929895e-03,-2.033790321109217505e-03,-2.885742575666596591e-03,2.203422598540782928e-02
-2.457036134762180524e-01,-2.732921392058576537e-01,-2.876192330676557996e-01,-3.783523865693986556e-03,-8.912693462747482004e-03,3.474521234585934391e-03,4.097714275121688843e-02
-2.338759033123921915e-01,-2.707999060662160673e-01,-2.935429083212222623e-01,-1.892361366126354624e-02,-3.704088160888797422e-03,3.411725881178890706e-03,6.221558153629302979e-02
-2.365157113424112278e-01,-2.832029470561795437e-01,-2.878620277904332392e-01,-3.192263744054407801e-03,-1.987047682925457970e-03,3.049605400955147493e-03,4.989229887723922729e-02
-2.797372436565518372e-01,-2.729605113198676491e-01,-2.544728282570619116e-01,7.920748096633276059e-03,-3.123832478241841092e-03,-8.245585822661350220e-03,3.056899458169937134e-02
-3.671154032656081534e-01,-3.224388227554138564e-01,-1.437557640632476097e-01,-2.178853467451989309e-02,5.940610895448751594e-02,-1.241896977582331585e-01,3.165237903594970703e-01
-2.708533242289702936e-01,-2.672244694083484307e-01,-2.669119991349082621e-01,2.236797999389323905e-03,-1.954239006905744182e-03,-2.480806153028482144e-03,7.702615112066268921e-03
-2.582859183769743994e-01,-2.699666102588760275e-01,-2.754248090566386864e-01,-2.839915975934287958e-03,1.653053868531115548e-03,-4.353170446344969621e-03,1.786699332296848297e-02
-2.657526702183069522e-01,-2.640545355847461195e-01,-2.750547209687508876e-01,-7.852194274628379177e-05,2.197307969695909847e-03,-6.096031018587410710e-04,1.099207811057567596e-02
-2.748849360577153011e-01,-2.618856258100160650e-01,-2.687835722717036302e-01,8.288410733711475652e-04,2.754646061182898942e-03,9.953814505502121997e-04,1.243755221366882324e-02
-2.601894674007959596e-01,-2.706625083622127836e-01,-2.717281359512863093e-01,-3.132118102781778022e-03,2.400401180782589343e-03,-4.008756024488489833e-03,1.472776848822832108e-02
-2.822435696489046242e-01,-2.503336084486970092e-01,-2.729167508832846534e-01,2.210203935563882869e-03,4.022733815299052787e-03,3.390244764051620740e-03,3.008820675313472748e-02
-2.641094520622795927e-01,-2.683652625571973926e-01,-2.717340780321749749e-01,-1.617716088371971145e-03,1.747818650581915538e-03,-2.621662440359879935e-03,9.024014696478843689e-03
-2.658265961219116180e-01,-2.617622071213534518e-01,-2.752239575106386615e-01,-2.060077845066520669e-03,3.285703847541819340e-03,-2.600429241910929244e-03,1.443711202591657639e-02
-2.824454952355368587e-01,-2.738336617061641332e-01,-2.475247779324604158e-01,-3.419392732790959687e-03,-2.352406379861476070e-03,3.536719783555547069e-03,3.289517015218734741e-02
-3.133781081439543925e-01,-2.855558259151579348e-01,-1.993606134430186971e-01,-1.309391746331587010e-02,-3.522552172641481294e-02,4.905775804503491322e-02,1.485217064619064331e-01
-2.675892671615987539e-01,-2.669636831631945206e-01,-2.683503476241117514e-01,-4.046708722777698358e-03,3.071219756791625059e-03,-3.220572639497629869e-03,1.048750244081020355e-02
-3.425091857772379345e-01,-2.604891830221710558e-01,-1.832347890585434014e-01,2.396298461178419936e-02,3.815507626641424788e-02,1.017632727969360745e-01,2.370428740978240967e-01
-2.840039788519055919e-01,-2.655762318962333057e-01,-2.560754953357494146e-01,4.378898834756254563e-03,6.260758572563699526e-03,1.030842959587332033e-02,3.314860165119171143e-02
-2.821744685128875774e-01,-2.652753570098204672e-01,-2.572304391788551303e-01,2.659468528978249993e-03,3.401199442709115718e-04,1.595306723178198426e-03,2.270358987152576447e-02
-2.542088251574886604e-01,-2.680631334034919155e-01,-2.834375386778503758e-01,-6.214777905150598025e-03,3.832788870031022220e-03,-4.720932761585291092e-03,2.946385554969310760e-02
-1.488544481967082889e-01,-3.801502548864472697e-01,-3.071080043739825016e-01,1.082589426405475633e-02,-1.050937316855408976e-01,-6.071615215223051878e-03,2.748360037803649902e-01
-2.988100584391783499e-01,-2.599060335363035379e-01,-2.537148939832014061e-01,3.113210148093781965e-02,3.324612375193847225e-02,5.491917409459430577e-02,1.306315362453460693e-01
-3.060706824559020767e-01,-1.929320385792444859e-01,-2.891216876616420350e-01,5.418979379854372419e-02,3.080253003778568588e-02,7.111368220820664388e-02,1.949294507503509521e-01
-2.566227228055675269e-01,-2.850194116309134329e-01,-2.621569081090981967e-01,-3.803415929908633046e-04,-3.176046928610033997e-03,7.585822150419494663e-04,2.668836340308189392e-02
-2.303727943423857505e-01,-2.898782514725420367e-01,-2.845054845677204569e-01,-3.403194062613809981e-03,-3.319541438973884224e-03,3.982575529150557056e-03,5.801244080066680908e-02
-3.007950465367884019e-01,-2.220807036845914295e-01,-2.814131745173595323e-01,2.873791906196042356e-04,-2.027848873680595382e-03,3.113568101494971346e-02,8.925721049308776855e-02
-3.148589164828871634e-01,-2.291496273092009650e-01,-2.764097287774291423e-01,1.049607460369134451e-02,-4.729674032594404615e-04,5.416282847437292602e-02,1.210825294256210327e-01
-3.236318673053980022e-01,-2.685408885221453601e-01,-2.275170563265346835e-01,1.275069778619668769e-02,2.017470328451105230e-02,6.093021763634641486e-02,1.407987326383590698e-01
-2.673247812918243538e-01,-2.782116549399016314e-01,-2.594784998172540713e-01,3.332201519486404761e-03,-1.413538028432411147e-03,-7.718849039888074463e-04,1.751005463302135468e-02
-2.754599358370726225e-01,-2.699890690502730894e-01,-2.583582501104261797e-01,4.820385404489275355e-03,-2.152334499870975013e-03,-2.824068078549430739e-03,1.834036596119403839e-02
-2.786347254648749439e-01,-2.745440216865383531e-01,-2.516834774687004561e-01,5.191861150853655828e-03,-3.610025085272279034e-03,-2.472041356914238524e-03,2.776958979666233063e-02
-2.790650274461279889e-01,-2.766135813112082786e-01,-2.468288921015651671e-01,6.512341682109605394e-03,-6.018288937609690518e-03,-6.451093311648697926e-03,3.642655536532402039e-02
-2.789989959465892233e-01,-2.839712015844566007e-01,-2.373847118537344425e-01,-1.396651469362780035e-02,3.796870901852284624e-02,-3.204853369102979299e-02,9.977360069751739502e-02
-2.801503669335076441e-01,-2.877929672567012265e-01,-2.402533193199163364e-01,1.281849327493380774e-03,1.987809762067594896e-02,2.792200128164700965e-03,5.629241466522216797e-02
-2.758497496612263844e-01,-2.880865309445351241e-01,-2.416191731479484517e-01,3.367007272718084560e-02,-5.192371488657424733e-02,-5.122703349924156990e-02,1.452659964561462402e-01
-2.838800163389638143e-01,-2.820577323680564241e-01,-2.404946575428670019e-01,3.988034230409285077e-03,-2.708695948369864090e-03,-3.856482290821598193e-03,4.382797330617904663e-02
-2.802742697138315142e-01,-2.607797165104625003e-01,-2.658673360948710096e-01,5.094156653554829037e-03,-4.052696316807381273e-03,-7.970687511211002954e-03,2.498920820653438568e-02
-2.749339584081614274e-01,-2.876253065514742246e-01,-2.409816423014150555e-01,2.056056130424170712e-03,4.610739800933389039e-03,-4.372148392882029065e-04,4.268211498856544495e-02
-2.834464297149933421e-01,-2.829264071357465160e-01,-2.403323513945175294e-01,3.613980486158701981e-03,-2.807338336370945788e-03,-3.493751743931693826e-03,4.400134831666946411e-02
-2.331298304348914385e-01,-2.864149826679928679e-01,-2.801136466610717468e-01,1.763159220069808464e-02,-2.492238843016429672e-02,-1.098757898497196815e-02,7.550776749849319458e-02
-2.839363869453203071e-01,-2.741336698381637849e-01,-2.463343426486528931e-01,-4.270291434584645024e-03,1.907156700366537030e-03,-3.048157117427745168e-03,3.514109551906585693e-02
-2.807988498747580608e-01,-2.616729514874213125e-01,-2.618606649116468899e-01,1.591680162474561197e-03,-6.141175965355156075e-04,-9.325827873619292867e-04,1.932837069034576416e-02
-2.803086259947268344e-01,-2.673699154109497322e-01,-2.575071874181285025e-01,3.062784199955194582e-03,-9.098600426518104346e-04,-2.256682929908351582e-03,2.093317732214927673e-02
-2.921144148099416027e-01,-2.556542442124127290e-01,-2.564347979802476529e-01,1.339285915532353660e-03,-3.409977495191536664e-04,-9.822599543977093839e-03,3.995840996503829956e-02
-2.687248561146504677e-01,-2.830017088568240746e-01,-2.515019566354935177e-01,4.107429003077372673e-03,-4.095994210943362974e-03,-1.789851814667653938e-03,2.927286736667156219e-02
-2.790242017481550652e-01,-2.623392849129166371e-01,-2.621338403713606158e-01,2.832184898913485058e-03,-3.506416669608301579e-03,-3.061247458479517385e-03,1.925925351679325104e-02
-2.910939143967112841e-01,-2.425667509910090780e-01,-2.656128824484970119e-01,4.738032032585974378e-03,-4.319948689045815735e-03,-2.151423406301463878e-02,5.726749449968338013e-02
-2.723886468466877320e-01,-2.632215828525706902e-01,-2.692906465840740338e-01,6.566510180395781441e-04,-2.987928415632153199e-03,-1.248693029116804392e-03,9.898864664137363434e-03
-2.771653075726335791e-01,-2.657755408464022029e-01,-2.600404388072211637e-01,1.064359809012948785e-02,-1.426484635905209825e-02,-1.444180071824654327e-02,4.247296229004859924e-02
-2.831447931864351508e-01,-2.634578331109656557e-01,-2.593306719791639292e-01,3.149703687263431719e-03,-3.613791266718758936e-03,-8.147878998420801655e-03,2.745842747390270233e-02
-2.867536409225214800e-01,-2.693913673098529138e-01,-2.486050359006181099e-01,1.206431796962483200e-03,3.368006759113532553e-04,7.816433315180707289e-03,3.581081703305244446e-02
-2.821889060813820294e-01,-2.532734165059857823e-01,-2.686227804227643845e-01,1.684219061185355647e-03,-4.535643221261303343e-03,-6.316614359902066392e-03,2.859718352556228638e-02
-2.867420928316024020e-01,-2.647180893367406251e-01,-2.533121686367755809e-01,1.060283218924326989e-03,2.767693908205579967e-04,3.124748898092483303e-03,2.998750284314155579e-02
-2.086059964253067223e-01,-2.915998272490648024e-01,-3.061799228268184958e-01,-2.008834225071251534e-02,2.939802652009935232e-03,4.934596792836234026e-04,9.771333634853363037e-02
-2.834177033754306518e-01,-2.621807279404436697e-01,-2.579674596838765765e-01,-2.123157223174762607e-03,-1.141140281133536495e-03,3.032573586095129239e-03,2.456129714846611023e-02
-3.122163422711397573e-01,-2.406920105232839557e-01,-2.352914429241818872e-01,4.734560767187198649e-02,-4.936000593426015381e-02,-9.110174924650150940e-02,2.108644247055053711e-01
-2.911345452327443462e-01,-2.493351655137185652e-01,-2.639663565787178090e-01,3.912377409255598897e-03,7.509456684895624663e-04,8.366377029028199477e-03,4.009097069501876831e-02
-2.747843654093189980e-01,-2.708106819055752235e-01,-2.621673891849538585e-01,1.889347405353190845e-02,-1.798893741822830614e-02,-2.096464144556483764e-02,5.903462320566177368e-02
-2.772414587235359495e-01,-2.763180149284841236e-01,-2.521634611005576510e-01,7.317460009828996581e-03,-1.098109206379901427e-02,-8.414251043990617768e-03,3.662496805191040039e-02
-2.851258564390332095e-01,-2.655183886938559112e-01,-2.536138199792737913e-01,1.764313648275236653e-03,1.063115848551652394e-04,3.168914673688811440e-03,2.826815098524093628e-02
-2.645879801790019803e-01,-2.953136220815929525e-01,-2.505728178127137329e-01,3.243636622896795690e-02,-5.520892275176321473e-02,-3.926798972292654816e-02,1.360054016113281250e-01
-2.515218048485056146e-01,-2.687751411597053552e-01,-2.826563110283079050e-01,7.364592480480427680e-03,-3.257344064279089121e-03,-7.234764388567004392e-03,3.288508579134941101e-02
-2.877847682979713939e-01,-2.746765214221907336e-01,-2.414997236724829299e-01,-9.372280291301700837e-04,3.765938183270770988e-04,3.425062854850677210e-03,4.178120940923690796e-02
-2.525623399000284652e-01,-2.636330333473860810e-01,-2.851785993773818806e-01,7.006544656711282543e-03,-2.774423476930664920e-03,-4.237100214596932826e-03,3.239633142948150635e-02
-2.954915686855529855e-01,-2.941576440330099240e-01,-2.131742810146298184e-01,5.388012750451413868e-04,-7.861715762458665671e-04,-1.565052361172954978e-03,8.172015100717544556e-02
-2.619901263212938147e-01,-2.597952508244373293e-01,-2.841074404293183475e-01,4.331946325584393361e-03,-2.187169733580627759e-03,-2.147483658792320987e-03,2.504039369523525238e-02
-2.698708847699036739e-01,-2.820748204169902795e-01,-2.524716895071945078e-01,4.933298718676261754e-03,-4.305036781719208394e-03,-1.825867424849031504e-03,2.833055518567562103e-02
-2.625142697047502249e-01,-3.217827081963088309e-01,-2.335918320746384613e-01,1.046379604479642398e-03,5.720414034176164730e-02,-6.376121865258587438e-04,1.260352730751037598e-01
-2.907362727473578601e-01,-2.845108996354422382e-01,-2.294222218487879106e-01,-5.920085929867491010e-04,-2.072699792221341809e-03,4.124420589438641295e-03,5.900370702147483826e-02
-2.632333229552443199e-01,-2.611967831149341057e-01,-2.792524333964640504e-01,2.743551618987002168e-03,-3.210210369178040802e-03,-1.300492398424340059e-03,1.876044645905494690e-02
-2.787411245560702522e-01,-2.608132805074238614e-01,-2.637970759694844847e-01,5.038439508420368548e-04,3.157569533793800655e-03,2.559134520424616831e-03,1.808694005012512207e-02
-2.616229046340339259e-01,-2.671758281413085800e-01,-2.769194983392255227e-01,6.643966562500465758e-03,-4.753193111067008196e-03,-3.769523440299888013e-03,2.055999077856540680e-02
-2.872970557389717960e-01,-2.756912562865569405e-01,-2.409724238761015158e-01,1.816168491765160660e-03,9.105319381341111802e-05,-4.451596680371961400e-03,4.257231578230857849e-02
-3.492847149601959189e-01,-2.565513627841479738e-01,-2.312024124615849607e-01,-5.289018223270583463e-02,5.893688626208011538e-02,-1.211284003599260028e-01,2.728035748004913330e-01
-2.788836151338975888e-01,-2.746026762059191606e-01,-2.547500213472475572e-01,-1.106953235796422248e-02,1.785298048094275877e-02,-8.368218224712771144e-03,4.507010057568550110e-02
-2.557623994236438159e-01,-2.663702237936673711e-01,-2.828925597353871835e-01,1.899699204392501541e-03,-1.206050509377624676e-03,-2.547338100819104487e-03,2.440156973898410797e-02
-2.106637174287439018e-01,-2.897727900208420526e-01,-3.025183911719409036e-01,2.167094476051393062e-02,-3.637929071021436811e-03,-3.428627476139058800e-03,9.440787881612777710e-02
-1.353790746602171746e-01,-3.411702817403105548e-01,-3.420152577238572134e-01,9.932558719262540858e-02,3.320496405393373596e-02,-2.723932664881610968e-02,2.786664664745330811e-01
-1.957600688198141703e-01,-3.051451999849696395e-01,-3.104426000606596014e-01,2.516399290842523048e-02,-2.261876709247562234e-02,-8.399585014117303024e-04,1.265276521444320679e-01
-2.342604297367558985e-01,-2.908378543130228366e-01,-2.785148619748906151e-01,1.082799253016687258e-04,9.727965871351435326e-03,1.474855696422991283e-03,5.427816137671470642e-02
-3.090365763018285694e-01,-3.368587735385190629e-01,-1.471522953478589246e-01,-2.154709951041972049e-02,-7.418134119783838243e-02,3.987288692852714728e-02,2.327134758234024048e-01
-1.358386430793231681e-01,-3.247466952624386560e-01,-3.387271298174292511e-01,7.656755832560853403e-02,-1.686474593339659829e-03,2.782794840854984058e-03,2.369435727596282959e-01
-2.903254471083105970e-01,-2.554795204965943922e-01,-2.559148350800208305e-01,-1.603623802857311043e-02,3.192606915782895960e-02,-5.027556540495960874e-02,1.123007610440254211e-01
-2.601306194629232627e-01,-2.811160802516986523e-01,-2.632056155852335322e-01,1.215214575668677058e-03,2.401800047529828973e-03,2.165145834861513519e-03,2.052108012139797211e-02
-1.493126337393019532e-01,-3.182681268704063426e-01,-3.335142804314203957e-01,6.859781043492817199e-02,-3.688458373250182165e-02,-3.857849176193909463e-02,2.324169129133224487e-01
-3.364181483860564925e-01,-2.066455597235855035e-01,-2.373976791999472258e-01,2.327781251843783969e-02,-2.430231185931898408e-02,-1.084512169077092719e-01,2.290812283754348755e-01
-3.030756087070744509e-01,-2.340098645416514023e-01,-2.490674600399687133e-01,5.776731797040116079e-02,-6.173347805562452717e-02,-9.481171532287044346e-02,2.288424819707870483e-01
-2.940629370741825732e-01,-2.862062074399653877e-01,-2.248599710288497477e-01,-2.914189499600346200e-04,-3.960763015065108732e-04,-4.929519250703982142e-03,6.618682295083999634e-02
-2.646908473788303628e-01,-2.875888757282664687e-01,-2.554501189079954049e-01,-2.087033473986953710e-03,-1.179871265508851234e-02,1.664643990929143801e-03,3.550090640783309937e-02
-2.604618982012518180e-01,-2.841585041741974127e-01,-2.611577520348448700e-01,-1.683870600351963960e-03,-4.530607629443528413e-03,1.223878424936722820e-03,2.490186877548694611e-02
-2.845662006053270576e-01,-2.606125010433744671e-01,-2.596345232597583874e-01,2.789638026042112469e-04,-1.763301950055998170e-04,-8.526047447837026717e-04,2.450856752693653107e-02
-2.806933287353353679e-01,-2.607980732618243591e-01,-2.634036068597638836e-01,-7.229879452680540658e-04,1.702895084605201810e-03,-2.767672896963287491e-04,1.900709606707096100e-02
-2.864064659265349588e-01,-2.644255238048348056e-01,-2.546920040756560644e-01,6.440808254486494284e-04,2.243466946314689320e-04,-2.021952354438753124e-03,2.838160656392574310e-02
-2.856675571989071849e-01,-2.755501028741929592e-01,-2.416840571081915190e-01,5.990259962943418094e-03,-7.528898442528074962e-04,-2.969846062927559375e-03,4.156585410237312317e-02
-2.632548588401052991e-01,-2.775964695436956009e-01,-2.644853319057849372e-01,-2.227334759942136647e-03,-2.558470862458177980e-03,2.233907703422000589e-03,1.546092797070741653e-02
-2.706342907443162749e-01,-2.721469737163609848e-01,-2.617507819470082930e-01,-6.897326169706579149e-03,6.618625934855247410e-03,-7.205251780076258120e-03,2.290257066488265991e-02
-2.618718839959303657e-01,-2.806926808145926988e-01,-2.619265779728787158e-01,-7.251169942026955808e-04,-8.655365060385792058e-05,5.397786230176975257e-04,1.885921321809291840e-02
-2.487015112593097266e-01,-2.879045104845468495e-01,-2.666688387640879232e-01,1.003269827691912830e-03,-5.306145323015851872e-03,-1.733300916703877422e-03,3.538113832473754883e-02
-2.850161141545019539e-01,-2.574045185871595698e-01,-2.586810591495668499e-01,-3.509580111689005258e-03,-2.911335932993959572e-03,1.039593965317798553e-02,3.339742869138717651e-02
-2.847097835786602249e-01,-2.653737347711456196e-01,-2.555148137490166893e-01,-2.343523754737713866e-03,4.660011435408960333e-04,1.980473165445025691e-03,2.627942711114883423e-02
-3.288465940584450742e-01,-2.708967727220505939e-01,-2.091008011100497499e-01,1.745970090416103584e-02,-2.289524254026079758e-02,1.390047309773236317e-01,2.668558359146118164e-01
-2.837614835347161413e-01,-2.670011459934147902e-01,-2.543428952205626925e-01,-7.486532439079636100e-03,-2.365325047706470871e-03,8.790349573920965692e-03,3.271140903234481812e-02
-2.802137834059711952e-01,-2.612399273357277063e-01,-2.633918756551204554e-01,5.517488553445461848e-04,6.047178785541475676e-04,1.284017778484030422e-03,1.818691194057464600e-02
-2.605401903489059090e-01,-2.792293747262294401e-01,-2.632877802259942501e-01,-2.289337624911181104e-02,-2.054211632543433488e-02,2.173629276861415924e-02,6.753621250391006470e-02
-2.709338220174118961e-01,-2.704828936468347544e-01,-2.615760363898805285e-01,5.182105805418679018e-03,2.111555247745081597e-03,2.924530741778781466e-03,1.425303798168897629e-02
-2.934951979385214127e-01,-2.713986987688719599e-01,-2.453367463769805523e-01,6.323235612752697507e-03,1.047604063008040695e-02,2.370728368560863844e-02,6.227886304259300232e-02
-2.806269991626619831e-01,-2.675471518795476955e-01,-2.543717000572053855e-01,-5.377874912988008481e-03,-3.470874817576285846e-03,5.614497544035534915e-03,2.710131183266639709e-02
-2.828280815613527510e-01,-2.580545357638107107e-01,-2.636140126173974751e-01,-1.166041644387368808e-03,-2.383254475653848788e-03,2.460376719443005834e-03,2.337065339088439941e-02
-2.423990326793133698e-01,-2.872422674986384039e-01,-2.742106970534497479e-01,1.324381997854228842e-03,3.307288983306987291e-03,8.610048069943414262e-04,4.045565798878669739e-02
-2.660266643805839215e-01,-2.582882756913726374e-01,-2.810506814847572032e-01,2.217290611317162055e-03,3.003812770780115316e-03,9.035870061987450429e-04,2.112185209989547729e-02
-2.838209462759111457e-01,-2.501426639734214974e-01,-2.689327902585466057e-01,-1.447888618758642236e-03,-3.149650229925771063e-03,4.311308681344061706e-03,3.076180256903171539e-02
-2.934272091611926370e-01,-2.939469425037141148e-01,-2.159432371361985625e-01,6.332398787492134369e-04,1.924378885413182035e-03,1.870678033807045889e-03,7.789170742034912109e-02
-2.827248006280945747e-01,-2.565039541058383166e-01,-2.654485451939181395e-01,-1.130546916090374417e-03,-2.463001669178160619e-03,1.509647328072160830e-03,2.370388992130756378e-02
-2.770554275820957257e-01,-2.635214038729049579e-01,-2.629121545677139959e-01,-4.629616677777630487e-03,-4.097071887241211796e-03,4.719422487688768736e-03,1.932002790272235870e-02
-2.774070623679489866e-01,-2.558936883421777386e-01,-2.697039938696290107e-01,-2.832314499673503801e-03,-5.468121012820203498e-03,3.405605860854513459e-03,2.247231639921665192e-02
-2.659692791854404437e-01,-2.623673524396344936e-01,-2.759690812517712200e-01,1.572812547887439448e-03,6.532478344191567374e-04,9.261239552096178339e-04,1.265950221568346024e-02
-2.741932157936943226e-01,-2.742462352272516113e-01,-2.565527911855560173e-01,4.669004829873694105e-03,1.842154685852114178e-03,1.888352065020350475e-03,1.995995268225669861e-02
-2.117029661820440112e-01,-2.631368005142339928e-01,-3.004183714820634066e-01,9.909345171017169829e-02,5.833082193196725829e-02,4.627827256480503831e-02,2.281313538551330566e-01
-2.792774309586230630e-01,-2.626180135167465179e-01,-2.619595315510013789e-01,-3.575771043060487191e-03,1.555581846747178124e-03,-2.091078354439130944e-03,1.864605769515037537e-02
-2.844409871058157235e-01,-2.624126600080836091e-01,-2.581063775334289656e-01,-2.172518954921790531e-03,9.351485070805097555e-04,-2.505221057921053988e-03,2.518457546830177307e-02
-2.841039283783090008e-01,-2.555995340433209195e-01,-2.653018251853667686e-01,-1.022132282177067551e-03,2.350940301665475300e-03,-1.769899837822708471e-03,2.567468956112861633e-02
-2.926575872201694350e-01,-2.958955652227740485e-01,-2.170174498872237401e-01,-1.586575928438137576e-03,3.565788458759521981e-03,-1.345115359969119859e-03,7.763993740081787109e-02
-2.767079436578831486e-01,-3.116303817481680394e-01,-2.228372392170151484e-01,1.860004545301181464e-02,4.048804077632223164e-02,3.693878968757299125e-02,1.266967952251434326e-01
-2.837914194573231685e-01,-2.619485512509922009e-01,-2.585211145069089556e-01,-1.215304716243037052e-03,8.535763381617968376e-04,-2.581118024435834300e-03,2.429663389921188354e-02
-2.244239832234949938e-01,-2.671195970269320541e-01,-2.977844360340922147e-01,8.346943145484927995e-02,-5.861731546735582388e-02,-5.118344981819376166e-02,2.077044695615768433e-01
-3.232340657065130296e-01,-3.371089663677313553e-01,-1.145810923251256164e-01,7.516819273850460642e-03,-5.747543042207628461e-02,-2.850754726442682185e-02,2.431901246309280396e-01
-2.852327505065090918e-01,-2.574892874299616885e-01,-2.609910753561973662e-01,-4.877935037468575244e-04,9.870007833788975882e-04,-2.950087957992235995e-03,2.673117816448211670e-02
-2.694399209412953744e-01,-2.669324447701280079e-01,-2.679159179548523118e-01,8.015427022518847129e-04,1.662778526336644797e-03,7.660331355721168491e-04,4.095234908163547516e-03
-3.036291939173661469e-01,-2.927518370040695928e-01,-2.343896547883474457e-01,-7.235477187869721050e-02,9.466470929395708056e-02,-1.019214873426427942e-01,2.791292071342468262e-01
-2.809555332723446264e-01,-2.612829554727036929e-01,-2.618240231809315088e-01,-7.227596708174917339e-04,5.625002121336848161e-04,-2.767137076262753841e-04,1.947831921279430389e-02
-2.859739363459096739e-01,-2.649215198502325452e-01,-2.542940770367289050e-01,4.104415463363201471e-04,-7.511677500552563615e-04,-1.722123237341598731e-03,2.812428586184978485e-02
-2.864851527295045885e-01,-2.494043469067301899e-01,-2.659317657931896672e-01,1.427822935555412903e-03,-2.672564103063252046e-03,-6.589315701413920971e-03,3.454117476940155029e-02
-2.849546531656122483e-01,-2.593812845076706175e-01,-2.606157746876492931e-01,4.912849861350285696e-05,-2.194743710662478981e-04,-7.098172535716379275e-04,2.501228451728820801e-02
-3.393789672043179828e-01,-3.109479852065522576e-01,-1.358773654187582780e-01,-7.570809614890840243e-05,7.475225571712883904e-03,-4.756057643411100433e-02,2.083006352186203003e-01
-2.934734280528393802e-01,-2.870772136728880208e-01,-2.217542662781885332e-01,-1.764798313911806202e-03,8.882326154676912187e-04,-2.972107111647704844e-03,6.902194768190383911e-02
-2.871532033845304310e-01,-2.950757529828877956e-01,-2.184185303415575596e-01,-5.482830448740350386e-04,3.494283907996012083e-03,-5.478573391974355354e-03,7.388743013143539429e-02
-2.925294065778571428e-01,-3.191051836000735054e-01,-1.743764307736431207e-01,2.593465455496351407e-02,-7.657812654372825323e-02,-5.481480269227981261e-02,2.154781669378280640e-01
-2.831804674080909412e-01,-2.617750063374818525e-01,-2.600188371398411968e-01,-1.244722954923897524e-03,3.914987198936966816e-04,-7.245400581931000497e-04,2.248448878526687622e-02
-2.863359300966473175e-01,-2.647923052702334523e-01,-2.544103522298298281e-01,-1.827902835201802422e-03,7.842768681264400757e-04,-1.762640897603455969e-03,2.857914008200168610e-02
-2.903339033322219209e-01,-2.741207183951355209e-01,-2.406497214643376070e-01,-1.073748372589213192e-03,5.795268653228641655e-04,-3.898469018148277045e-03,4.445117712020874023e-02
-2.840732323550840266e-01,-2.609875731400589927e-01,-2.592997982357646003e-01,-5.561446452132940137e-05,3.737129446503761540e-04,-7.239186433595272635e-04,2.401582896709442139e-02
-2.763301031248568407e-01,-2.537356253587869093e-01,-2.758685602960012639e-01,1.205734868133812553e-02,6.966444569445874591e-03,1.174737923549091546e-02,3.867856040596961975e-02
-2.801696191147488579e-01,-2.412346959698438986e-01,-2.910418424769494194e-01,1.152653606652952745e-01,2.781139799307198041e-02,6.082994647008234390e-02,2.352382242679595947e-01
-2.846393914803777014e-01,-2.649732251748655454e-01,-2.549705026253918927e-01,-5.181956814789121955e-04,8.703450287223685753e-04,-1.747566233431835587e-03,2.637741155922412872e-02
-2.853081997724158381e-01,-2.612420232716234358e-01,-2.597112703028263136e-01,-1.061655857657898801e-03,7.330610683905263358e-04,-4.352391410855664319e-03,2.608039230108261108e-02
-2.795577678981997494e-01,-2.389166615085500933e-01,-2.839606823198718155e-01,3.054934211277932771e-02,1.622990381719850370e-02,4.294215991503995411e-02,1.047479286789894104e-01
-2.819243882996319006e-01,-2.669173850167861906e-01,-2.562009879205468521e-01,-3.731728749560106820e-03,1.298069041961418934e-03,-1.931593400033339465e-03,2.364102005958557129e-02
-2.423068307355097095e-01,-2.920692683983733273e-01,-2.654861540794595798e-01,-4.375617940559306702e-03,-2.214013932784356445e-02,4.624356205868151125e-03,5.875603109598159790e-02
-2.879869220031014976e-01,-2.540387004851953345e-01,-2.649851289240288676e-01,5.229452240041980319e-04,1.151660215619026420e-03,1.222277857134013851e-02,3.679242730140686035e-02
-2.701017723685779637e-01,-2.673128341931300112e-01,-2.659771771543378294e-01,3.404748572078256270e-03,1.975733850585081885e-03,2.142656159983951161e-03,8.575993590056896210e-03
-2.678861441727401482e-01,-2.681479996688531653e-01,-2.683260815663737198e-01,1.745545488317724403e-03,1.667200722767248153e-03,1.994432774508855463e-03,5.436879582703113556e-03
-2.435386529919306153e-01,-2.449030603778006299e-01,-2.956196907611723379e-01,8.658510668718159831e-02,5.696458269665395646e-02,4.735270882154519329e-02,2.039507478475570679e-01
-2.572601256609173825e-01,-2.615926543737653875e-01,-2.851165238253910994e-01,-3.465487530786145673e-03,5.725786890795072324e-04,-1.134598067650556281e-03,2.673827484250068665e-02
-2.674019757423913290e-01,-2.493265765037676329e-01,-2.891269637009695748e-01,-1.205508605994248458e-02,-1.467807811999940820e-03,1.430508341450109112e-03,4.049642756581306458e-02
-2.504557152679587895e-01,-2.625802679762200831e-01,-2.930201632846807236e-01,-2.401825416955881073e-02,-1.125832484089613408e-02,2.418811985966047833e-03,5.975862592458724976e-02
-2.748173675313670405e-01,-2.661095263787043863e-01,-2.645024421319213115e-01,3.452809084390167206e-04,8.787321669772935528e-04,5.301896683126759539e-04,9.793922305107116699e-03
-2.670773401626562182e-01,-2.478258198110618316e-01,-2.891525588362298116e-01,-6.604593169683818828e-03,-2.396205024881199741e-04,-1.652524989141344620e-03,3.771133348345756531e-02
-2.841191840700041382e-01,-2.924453105965515998e-01,-2.294073836972811975e-01,-1.661952062760739708e-04,4.058251020182783095e-03,-3.157536199327337255e-04,5.973301455378532410e-02
-2.676408731507694538e-01,-2.481213043319569767e-01,-2.872741950923375920e-01,-4.873462196664441089e-03,6.032406044903948104e-04,1.136592519080872757e-04,3.495850786566734314e-02
-2.605548581809139508e-01,-2.784808628719950829e-01,-2.652801436756158648e-01,2.217074624991399647e-03,2.038301778160595597e-03,3.243028492612477515e-03,1.782488264143466949e-02
-2.897283547019229855e-01,-2.917826397922571591e-01,-2.247623833307760832e-01,-1.296601976991007283e-03,3.459514820258504687e-03,-1.892129393678604679e-03,6.640741229057312012e-02
-2.605314925337537946e-01,-2.601183925431317934e-01,-2.846974854700041746e-01,-5.141616266609037693e-03,9.686598919616284963e-05,2.776469564571424817e-04,2.595605701208114624e-02
-2.673467254519892311e-01,-2.750821937277382334e-01,-2.618739931159630441e-01,3.908851440954800964e-03,2.071679474138137054e-03,1.502019473980091557e-03,1.405715197324752808e-02
-2.516850573244534539e-01,-2.668512672967616184e-01,-2.863978131283335116e-01,-1.297324791149643934e-02,-7.834124778919437232e-04,-8.201613875370656129e-04,3.764708712697029114e-02
-3.736957813452966293e-01,-1.771930441965755554e-01,-2.622876875578364353e-01,-4.731592844377023772e-03,4.332486940405060050e-02,1.079873695113593712e-01,2.642256617546081543e-01
-2.744012664868546447e-01,-2.745114745902528797e-01,-2.563780153372078874e-01,4.260542161690140418e-03,1.771377683307236292e-03,1.806895863269292624e-03,2.001251280307769775e-02
-2.614665675559133540e-01,-2.621280092635142611e-01,-2.826061664241518168e-01,-3.818205025672485702e-03,2.744851136712192757e-03,-2.557007595497119094e-03,2.278795838356018066e-02
-2.634416602537116847e-01,-2.661823899249995962e-01,-2.754816507871500342e-01,7.098698547600492152e-04,9.171309745825584770e-04,1.965486025626802125e-03,1.162321586161851883e-02
-2.809636961478486072e-01,-1.873325631427270599e-01,-3.664657376772134656e-01,1.268461697134702637e-01,3.034670937581695344e-02,3.089804680990283769e-02,2.792485058307647705e-01
-2.661971591559679218e-01,-2.822947801295574988e-01,-2.555434342324728325e-01,3.141036378093532873e-03,-2.363195879707488505e-03,-9.452123096618842042e-04,2.435503154993057251e-02
-2.656488923841738292e-01,-2.532784645203687846e-01,-2.885138679389175342e-01,-1.083492250013048420e-02,-2.735475547621137038e-03,3.420830132195135619e-03,3.699223697185516357e-02
-2.503867522889672848e-01,-2.658115395115634438e-01,-2.860640693233397758e-01,-5.905016277476736811e-03,-1.418283520606925625e-03,3.113876003962763508e-03,3.316942602396011353e-02
-2.720467132224281825e-01,-2.650836666813879972e-01,-2.732612596821156759e-01,5.309339232235164158e-02,4.536309015030797614e-02,5.040591381926375764e-02,1.493681371212005615e-01
-2.919398861646458343e-01,-2.929241114480142238e-01,-2.201374208394511200e-01,3.570678412329707360e-04,7.971486602684680657e-04,-2.817588487913197035e-03,7.247991114854812622e-02
-2.748113979922150452e-01,-2.843586138351866799e-01,-2.445902031384485364e-01,3.691186623505062631e-03,3.000453456683287255e-03,1.846748305543334610e-03,3.702853620052337646e-02
-2.607326551503947876e-01,-2.604438268716400828e-01,-2.843684363153044514e-01,-5.506746912746470282e-03,1.004370142533723195e-03,-1.704324473647997242e-03,2.585098519921302795e-02
-2.622688114275141813e-01,-2.583644128690951725e-01,-2.835140705559211494e-01,-2.929401292080717131e-03,1.874587610076805522e-03,-7.968378675633758495e-04,2.424348518252372742e-02
-2.615106957261847387e-01,-2.607805097568194341e-01,-2.828989390188602626e-01,-5.088735879806281261e-03,1.927091513204562748e-03,-1.633012005421887857e-03,2.388376928865909576e-02
-2.592792783800962897e-01,-2.614584809735248094e-01,-2.838413867601692897e-01,-1.129934651964741282e-03,3.412592962803738717e-05,-3.857134850487563531e-04,2.363895811140537262e-02
-2.486221567049921866e-01,-2.678482345731204028e-01,-2.871355112853684055e-01,-4.953058065817515267e-03,1.061846482363376643e-03,-1.843570733826682250e-03,3.463577479124069214e-02
-2.478121766140686244e-01,-2.736438353876459728e-01,-2.834460660370033414e-01,-2.837043427823042648e-03,1.342538676562479759e-03,-3.730985702746765324e-03,3.298303484916687012e-02
-2.539677791827101294e-01,-2.820451942251579469e-01,-2.686922634989398762e-01,1.444613363616534859e-03,4.630539091237039981e-03,4.011642548255719629e-03,2.665694057941436768e-02
-2.729984568078037688e-01,-2.898672521159443849e-01,-2.434878862271227795e-01,-1.543662040357824186e-03,3.931764219069066625e-03,-1.223344247481435859e-03,4.136728867888450623e-02
-2.614266321457270337e-01,-2.843722405897103345e-01,-2.592323830542070384e-01,-7.998329500003857531e-04,8.573885690171320758e-04,-2.993481287247630614e-04,2.420862391591072083e-02
-2.592346819043765405e-01,-2.606960439344345182e-01,-2.847244489850270233e-01,-1.018860701137124609e-03,1.773661898072415206e-04,-2.816136443461793879e-04,2.486082352697849274e-02
-2.857167596151505840e-01,-2.850361868585931102e-01,-2.323741153999006603e-01,-3.147940128411765709e-03,3.465103703897834744e-03,-3.075747701157061868e-03,5.388624593615531921e-02
-2.739016416666592013e-01,-2.611225255984436777e-01,-2.696377343497963208e-01,4.746341254926987781e-03,-3.764480265310168536e-03,-4.887559718818193857e-03,1.757155917584896088e-02
-2.944131101363207659e-01,-2.149816308098818352e-01,-2.922875166487770571e-01,8.881952951273400579e-03,-3.211318495655852631e-03,-1.556707764034907793e-02,8.449642360210418701e-02
-2.613291939087689086e-01,-2.690639414709673494e-01,-2.750071025601130148e-01,-1.087070879472065363e-03,1.015724645684622490e-03,-2.653255644754559401e-03,1.299522537738084793e-02
-3.194671053210675349e-01,-1.920885596105285087e-01,-2.787604410644384245e-01,-3.010692002019019903e-02,2.599776281181066101e-02,-7.928853696976531640e-02,1.905363947153091431e-01
-2.807593338569200347e-01,-2.636225749893920112e-01,-2.606852733961959045e-01,-1.758757397423987064e-03,8.061620653669722761e-04,-3.738441717260124458e-04,1.908613927662372589e-02
-1.996362639101634251e-01,-3.209680501571910982e-01,-2.920982141218491646e-01,-1.108820006917198148e-01,5.783659326431739300e-02,-3.810033043216430604e-02,2.516478002071380615e-01
-3.096100693940976867e-01,-1.551216332819613519e-01,-3.376980012719327795e-01,-4.939852721199253227e-02,-4.306224478979394331e-03,-1.532283853836220039e-02,1.925500184297561646e-01
-2.703092233301726544e-01,-2.662888796631767696e-01,-2.680528784327444458e-01,-9.519038746821804550e-04,2.076305825933550363e-03,-7.321146454550617579e-04,5.426089745014905930e-03
-2.738762840353254346e-01,-2.746749677348053753e-01,-2.565363842139865569e-01,-4.592908314383460817e-03,1.994730137276213514e-03,-1.461729269083099922e-03,1.991959661245346069e-02
-2.845108034382130002e-01,-2.653461266839682309e-01,-2.550524765880384237e-01,1.486008317614461458e-03,2.245061648801249289e-04,-2.021659742282708692e-03,2.625939249992370605e-02
-2.813987042480329270e-01,-2.657150485514656046e-01,-2.568385178037204120e-01,-2.236786221248366572e-03,1.383654860589139017e-03,-1.793369721328352036e-03,2.223483659327030182e-02
-2.827831500289896272e-01,-2.236656494678697094e-01,-3.095629160571308769e-01,-1.211253703273777738e-01,2.804863645293854957e-02,-5.583844824259862755e-02,2.480387687683105469e-01
-2.720958064210812211e-01,-2.638762493972157674e-01,-2.682395593494859565e-01,-1.620083600527693355e-03,2.768229370066984090e-03,-1.491014423002425546e-03,9.395093657076358795e-03
-2.748688683343031847e-01,-2.690225367747832164e-01,-2.607485270145460943e-01,-3.638157797946696935e-03,1.018912332514860554e-03,-4.363415937906181584e-04,1.394294574856758118e-02
-2.893578984453038516e-01,-2.386253265353853459e-01,-2.784760151367873249e-01,-4.126415702241766070e-03,3.160791050811820931e-03,-1.870524843574692536e-02,5.719139799475669861e-02
-2.661695321745812803e-01,-2.670034442857056600e-01,-2.711563614598580529e-01,2.351019282718601333e-04,5.818479853882750196e-04,-3.633874193570397712e-04,4.794049542397260666e-03
-3.188371773307968615e-01,-2.115699487271984758e-01,-2.815183564883456668e-01,2.894207695899492228e-02,-2.322828243721182170e-02,-3.770708170435097678e-02,1.315025836229324341e-01
-3.196471223818908580e-01,-1.830427985396908819e-01,-3.138226918258188447e-01,-3.289342382067787351e-03,7.057844915920749801e-04,-2.381435916721648741e-02,1.401226222515106201e-01
-2.655291817693667955e-01,-2.678560733473207556e-01,-2.708173969839721695e-01,1.391454671787474475e-03,1.067551560098327443e-03,1.902948994150857782e-03,6.416044197976589203e-03
-2.751042506112857389e-01,-2.672537134525347358e-01,-2.617154367621941091e-01,4.022547311366983860e-03,1.471638968489320364e-03,1.647513741256607933e-03,1.410548202693462372e-02
-2.705454866210515452e-01,-2.699057808925280910e-01,-2.650184491591055513e-01,1.520467259585985042e-03,3.732813443643487154e-04,5.717848793345779029e-04,5.979630630463361740e-03
-2.747089916492030937e-01,-2.686927228699342307e-01,-2.613314148227737777e-01,3.120340866496965852e-03,1.471942765589032880e-03,1.695134748721623596e-03,1.337915658950805664e-02
-2.970568429432818292e-01,-3.331932541424289518e-01,-2.043588338160333140e-01,-5.538144423950767947e-02,1.086137801956514742e-01,-9.019477247751039872e-02,2.867856323719024658e-01
-2.641805550729164342e-01,-2.661127975459069428e-01,-2.744962120000281058e-01,1.643380003219762405e-03,1.961556241443476907e-03,2.390721073369007216e-03,1.126968674361705780e-02
-2.585186338478970836e-01,-2.704286116804342499e-01,-2.751341665637548894e-01,4.077936316029926074e-03,1.331793118012577961e-03,5.185850448656591574e-03,1.886588707566261292e-02
-2.407442849631244997e-01,-2.853572763981074845e-01,-2.778351459783450217e-01,-8.098886199408638492e-03,1.761272148548119476e-02,-5.844562768220539460e-03,5.423276871442794800e-02
-2.343269791259852408e-01,-2.905212845451917159e-01,-2.874064805219329610e-01,-3.667065393785516603e-02,3.892976793419852116e-02,-2.194173321770950119e-02,1.140946000814437866e-01
-2.443262189822247021e-01,-2.821717714449940018e-01,-2.808599313922682805e-01,-5.654870119386821992e-02,6.021539552497535974e-02,-3.233383476327124362e-02,1.580877602100372314e-01
-2.259177765124278647e-01,-2.805290663325956113e-01,-2.945924540928502311e-01,-8.452931699985739844e-02,6.391805188594676390e-02,-5.542290792214230044e-02,2.164612114429473877e-01
-2.640623986183157079e-01,-2.769579610357245092e-01,-2.648828451678923446e-01,2.277882343648153507e-03,3.614141838982869691e-03,3.080968896019012360e-03,1.547959819436073303e-02
-2.562758648411538331e-01,-3.261330796923029296e-01,-2.346047940214746053e-01,-2.728305033890426889e-02,1.214971613964509201e-01,-7.575844138327661459e-02,2.657053768634796143e-01
-2.592307609150388270e-01,-2.848094338353312494e-01,-2.604824064584783105e-01,2.143017345034920872e-03,4.964158054098914349e-03,-6.799650623348170355e-04,2.670042961835861206e-02
-2.645716618602441117e-01,-2.756981958418063261e-01,-2.640981587033292000e-01,7.399422565063882304e-04,1.412753442759973640e-04,6.081067849421563799e-04,1.149365957826375961e-02
-2.473026595596519439e-01,-2.996170381322839082e-01,-2.438154145630649916e-01,-6.106836215442217053e-02,1.068381590045381219e-01,-5.371055858041544340e-02,2.387824803590774536e-01
-2.305085390500609954e-01,-2.857401930701274351e-01,-2.881798763571523092e-01,-3.350813777256038840e-03,4.163896968823153910e-03,-3.753327454893860306e-03,5.761246383190155029e-02
-2.554578608693014452e-01,-2.830271040245973535e-01,-2.677275917171580977e-01,3.515161452970533198e-03,1.059568643122800122e-02,2.078943117885769919e-03,3.097068145871162415e-02
-2.947563246362474021e-01,-2.881240198355606852e-01,-2.209754137637026106e-01,4.317408596352889823e-03,1.896553560876006704e-03,9.656650938067662740e-03,7.310770452022552490e-02
-2.640865146458539203e-01,-2.549024874233563609e-01,-2.866894789363777507e-01,2.094937743356796965e-03,1.257658540695572773e-03,-4.222708997314019385e-04,2.865785919129848480e-02
-2.686120758711822432e-01,-2.732727902810914711e-01,-2.634226570324237349e-01,-3.485095811738760530e-03,1.067480216605802947e-03,-1.265385691388908312e-03,1.083967462182044983e-02
-3.035298753803187255e-01,-2.249408476833843207e-01,-2.868380900516115939e-01,2.567170852485880020e-02,1.769439867488412435e-02,4.623294740897607863e-02,1.202992126345634460e-01
-2.742409997185633608e-01,-2.824610308317068164e-01,-2.475082216845776728e-01,-3.577404641198051426e-03,2.766200640448618960e-03,-2.262133300218308052e-03,3.284288942813873291e-02
-2.643082334813184886e-01,-2.734177202297634057e-01,-2.661683970835746482e-01,-9.169569138317808839e-04,1.262804684836004278e-03,-2.383688538089728283e-03,9.687630459666252136e-03
-2.722995672882598250e-01,-2.679961965090310039e-01,-2.640646387202408296e-01,-2.390941877939779196e-03,1.235862822909384630e-03,-1.374730577820133326e-03,8.848538622260093689e-03
-2.719934886862823142e-01,-2.692231275194380546e-01,-2.630771733403933776e-01,-2.941983516328823024e-03,5.451418803204492042e-04,-1.131382871793509349e-03,9.652542881667613983e-03
-2.600989353825660100e-01,-2.693215497765307220e-01,-2.740484440284111645e-01,3.160956586199984309e-03,-1.937332563179531165e-03,-4.060281937172543348e-03,1.554628089070320129e-02
-2.645877371397264421e-01,-2.674843603381570345e-01,-2.728166613369268356e-01,6.706387295092530124e-04,-7.652190691258025550e-04,-2.122943990576920802e-03,8.300370536744594574e-03
-2.745063171936826807e-01,-2.865510738412255232e-01,-2.441602884829222608e-01,1.478698045324371105e-05,3.955182801588764778e-03,-1.336634110740494638e-03,3.851959109306335449e-02
-2.675095182264438654e-01,-2.648501202099732277e-01,-2.717428061706884668e-01,9.976185455618190572e-04,-2.139878368479209824e-03,-1.011857644976330928e-03,7.486364804208278656e-03
-2.591619461589501072e-01,-2.688486166823511048e-01,-2.755944918712794345e-01,2.560384975740427008e-03,-1.565283887287804423e-03,-4.102769365324470362e-03,1.679877005517482758e-02
-2.668599563024330878e-01,-2.674597347629940058e-01,-2.710246245374883234e-01,1.508478330532108573e-03,-1.995542964315484124e-03,-1.739526822848887688e-03,6.561804097145795822e-03
-2.657350063122779216e-01,-2.643446690789044706e-01,-2.751254627393629471e-01,8.016223944497537744e-04,-6.233434682016617380e-04,-7.419711674896806684e-04,1.038819737732410431e-02
-2.638758814365046446e-01,-2.648462881323276896e-01,-2.756197016621550477e-01,4.712393314269620794e-04,-1.805200705796904288e-03,-7.410746972823474077e-04,1.181324478238821030e-02
-2.782143625886018823e-01,-2.638774669407267792e-01,-2.625379035898108282e-01,-1.550795031578704273e-03,2.070739580712154893e-04,-5.812317092666485384e-04,1.532655209302902222e-02
-2.609464952342006594e-01,-2.599234510175789659e-01,-2.844353851881663009e-01,4.733741634736046353e-03,1.307751586706887943e-03,1.899942976851787344e-03,2.569026313722133636e-02
-2.685698077578445031e-01,-2.675693842107376152e-01,-2.681674800986300067e-01,-2.794324596087179231e-04,5.171979332867782109e-04,-3.106145922731238466e-04,1.444434048607945442e-03
-2.716809650067449899e-01,-2.772303088303427199e-01,-2.554220245546863777e-01,5.142513142562551640e-03,-8.216650873921647544e-03,-6.524903278876615677e-03,2.819528803229331970e-02
-2.041066095151475579e-01,-2.903823936947071971e-01,-3.022198874036993721e-01,3.993375328180563677e-02,2.563029751926181043e-02,1.582392343758096120e-02,1.269289851188659668e-01
-2.416595369969696261e-01,-2.801956032010431974e-01,-2.970692904719487992e-01,3.798391831411566943e-02,4.362233706094934688e-02,2.745852231781394093e-02,1.213217452168464661e-01
-2.489101186818134526e-01,-2.830824755441473384e-01,-2.843032911751273706e-01,4.116175178670217899e-02,3.881007904010656123e-02,2.712759405855310127e-02,1.141061484813690186e-01
-2.731902258738016509e-01,-2.654904110316974597e-01,-2.654703254312715810e-01,2.146678358732260431e-03,2.280293998391772544e-03,2.278786918755487580e-03,1.021981984376907349e-02
-2.446521324949212095e-01,-2.747905420087388140e-01,-2.842366529318384738e-01,6.037120562334461968e-03,3.500549543851107746e-03,6.132724475891044441e-03,3.925782069563865662e-02
-2.610987504699475159e-01,-2.807044162562357115e-01,-2.635583257106974275e-01,8.714753520634815854e-04,-6.740521049836639775e-04,-1.640535422201880268e-03,1.881290972232818604e-02
-2.693297182367328513e-01,-2.678699931022147651e-01,-2.672877678851493521e-01,9.601350952295739909e-04,3.327107066522897480e-04,2.453656920610289738e-04,2.568647963926196098e-03
-2.450319888066190832e-01,-2.741279558445874898e-01,-2.854902826228115642e-01,3.130413096754791971e-03,3.329661232318141973e-03,4.202584499666774630e-03,3.770834207534790039e-02
-2.785731496872184132e-01,-2.458405082742697034e-01,-2.778486345562991011e-01,6.726960486476176761e-03,6.957051539361220303e-03,6.318832259060837807e-03,3.806541860103607178e-02
-2.511830878661970856e-01,-3.644938263977056114e-01,-2.125950272907892735e-01,3.324144737506615904e-02,-1.491833849725826000e-01,-4.647728799125048355e-02,3.086474537849426270e-01
-2.643527924994175660e-01,-2.760617873307313896e-01,-2.638743309655780522e-01,1.520377679015745597e-03,4.968915015830212755e-04,6.278991292477239736e-04,1.232030522078275681e-02
-2.349107147941631724e-01,-2.759209200175579135e-01,-2.948078294101866836e-01,1.692790433173958775e-02,5.769931701928576739e-03,2.151470818559681787e-03,6.153481081128120422e-02
-2.660085357893349212e-01,-2.737098141514682781e-01,-2.648703996897754931e-01,1.227657937917315482e-03,3.046111054876467087e-04,3.098662859686693218e-04,8.628904819488525391e-03
-2.451880950655743463e-01,-2.498246007588841022e-01,-3.055883746844886839e-01,4.125441549592710755e-02,3.322667228040645029e-03,1.285360199521238221e-03,9.237695485353469849e-02
-2.782446656625481296e-01,-2.561476374563788072e-01,-2.692825299259571370e-01,-2.199037390952771065e-03,5.572326801507074094e-03,-3.354936493275768958e-03,2.262716367840766907e-02
-2.761579586870329117e-01,-2.576469709230985727e-01,-2.693484848078602223e-01,-2.101543368317087320e-03,4.819831564552926224e-03,-3.413316015836730371e-03,1.951587758958339691e-02
-2.599058442523715651e-01,-2.587487349763688549e-01,-2.847875248022754269e-01,-8.182198618742609134e-03,5.786942733550222949e-03,-4.860596672848293588e-03,3.195958584547042847e-02
-2.728979771090175865e-01,-2.643805065015753519e-01,-2.663776740614006711e-01,-1.132584979553052018e-03,2.337294275811940738e-03,-1.949083413379802503e-03,9.547723457217216492e-03
-2.720408096026840084e-01,-2.598789019705000647e-01,-2.700849269887629633e-01,-3.064382569894025677e-03,4.659584490876180450e-03,-3.751106894678075260e-03,1.623173244297504425e-02
-2.704002297237012575e-01,-2.660841085263806471e-01,-2.687999696650251735e-01,-4.569729251379807400e-03,4.184911021464396592e-03,-6.121612053522073292e-03,1.555290725082159042e-02
-2.651439679937855343e-01,-2.864521646988182901e-01,-2.537983208663420198e-01,-1.363392043399529359e-03,2.134018736353365982e-03,-8.837979588645027400e-04,2.908780053257942200e-02
-3.381533625207658877e-01,-2.430402387212141357e-01,-1.958249103162096605e-01,-1.241647221443750206e-02,2.175207471786196403e-02,-1.121474637494907223e-01,2.353289574384689331e-01
-2.689659893271135749e-01,-2.773902084248969779e-01,-2.559260475562224468e-01,-7.982868242858572397e-03,1.141946839826285705e-02,-9.614231821708407039e-03,3.479296714067459106e-02
-2.830979379515130567e-01,-2.672019787557123882e-01,-2.527656236193955852e-01,4.118257457670420826e-03,1.667134382896268315e-03,4.119386011422832353e-03,2.829656749963760376e-02
-2.792152532723262692e-01,-2.716063721037581535e-01,-2.577631004264634429e-01,-3.549930651180473185e-02,7.879905526417009531e-02,-1.114923230977888507e-01,2.450611144304275513e-01
-2.596810084414000741e-01,-2.696175978621439540e-01,-2.765294244357537345e-01,-7.578724247649841830e-03,4.127549152527392080e-03,-4.170087564312635955e-03,2.215353772044181824e-02
-2.908051202520595679e-01,-2.631019174998711629e-01,-2.555158893623598049e-01,-1.021599247147098218e-02,9.150057276511552873e-03,-2.378840829156097028e-02,5.742044746875762939e-02
-2.695083689559891194e-01,-2.786257495643713056e-01,-2.588144398786678679e-01,3.527494997069439541e-03,6.904784556075316618e-03,5.628458495278300389e-03,2.388270944356918335e-02
-2.398307207752446435e-01,-2.483932469546837607e-01,-3.074653169916806705e-01,4.928173409433538738e-02,-6.013822549949524553e-03,-7.808327383184217318e-03,1.079171374440193176e-01
-2.657511279325320275e-01,-2.844001394484675371e-01,-2.549647107470113805e-01,1.436607172062451645e-03,1.806919474652990670e-03,5.438424896375672552e-04,2.611823379993438721e-02
-2.848112155315868366e-01,-2.531239339374896091e-01,-2.479927071210293599e-01,-5.548265944847648873e-02,5.258045846886160585e-02,-8.026420654956412104e-02,1.950618475675582886e-01
-2.923036394448788045e-01,-2.802036801768570951e-01,-2.338424562114547745e-01,-9.039461471912037596e-03,9.232755438049791361e-03,-2.598081988446818147e-02,7.336632162332534790e-02
-2.967531644440000727e-01,-2.305778161899559031e-01,-2.776902843053210557e-01,-6.451994093216758923e-04,-4.163840933847259319e-03,1.178916278718720317e-02,6.285930424928665161e-02
-2.616089135775516716e-01,-2.828377784522388971e-01,-2.607343844365532792e-01,-1.824170518065779470e-03,4.422922194263984377e-03,-1.624730241163797060e-03,2.337912656366825104e-02
-2.245830064015333360e-01,-2.889868837565466309e-01,-2.927728987968536978e-01,5.819067454335947152e-03,-7.641956890589510221e-03,-5.263440024506155224e-03,6.903565675020217896e-02
-2.772322060510843955e-01,-2.645418917611722653e-01,-2.632879606120814286e-01,-2.830987537437306550e-03,-2.174683853451026602e-03,2.558533306813035903e-03,1.537526212632656097e-02
-2.864411264061227369e-01,-2.536727693373114767e-01,-2.650485618121355968e-01,6.288208513529439667e-04,-3.234563978687301643e-04,1.347852707457204875e-02,3.710687160491943359e-02
-2.851941609826881829e-01,-2.418307999712907830e-01,-2.766977004260102735e-01,-1.443785424451633510e-03,-5.968870715459340462e-03,2.322837734946597409e-03,4.139393940567970276e-02
-2.823583984564025373e-01,-2.615254136018019260e-01,-2.611299053167118189e-01,-2.352601696061267390e-03,-1.409475365998969073e-03,4.635982195005515505e-03,2.300978824496269226e-02
-2.807783764970852025e-01,-2.603340187121576110e-01,-2.635432063667822455e-01,-9.184064355134634837e-04,-2.135161759977025758e-03,2.136471573271266858e-03,1.981316693127155304e-02
-2.677414729079493627e-01,-2.685292333808299570e-01,-2.682504914853283129e-01,-2.444482758520907643e-04,-1.822023597185925474e-04,1.784686707285908453e-04,9.236303158104419708e-04
-2.680101453157810454e-01,-2.685549217325624016e-01,-2.679117879669895008e-01,-2.800262627422473436e-04,-1.214820660617226477e-04,1.428781972773384638e-04,8.371371659450232983e-04
-2.598885669807467491e-01,-2.810711439353695273e-01,-2.635190925976524379e-01,-1.082441993118841463e-03,1.780539328358323207e-03,-2.360488097719305733e-03,2.036467753350734711e-02
-2.699414423667789720e-01,-2.739743529136335343e-01,-2.601216183577705343e-01,-4.618698306291249382e-03,2.822134514812234089e-03,-2.416443709343129697e-03,1.605315692722797394e-02
-2.726720974239508766e-01,-2.661811666448490321e-01,-2.654825808304154267e-01,-1.029217555614382216e-03,-3.850963427050169531e-04,3.447359203115551930e-04,7.150801829993724823e-03
-2.726639505671080710e-01,-2.654325991823083264e-01,-2.663133824133417926e-01,-2.766906557056201263e-04,-1.138584673260980597e-03,4.470512842391373941e-04,7.170587778091430664e-03
-2.728077142756695217e-01,-2.647882197713661290e-01,-2.665949350678548102e-01,-1.264471570222574755e-03,-3.139151584207683279e-03,1.187079311106121939e-03,9.574681520462036133e-03
-2.705135058961597450e-01,-2.645163914542920103e-01,-2.699839812486618529e-01,-1.314503989533987371e-03,-2.230919990286321306e-03,1.877838004380640979e-03,7.985221222043037415e-03
-2.582775817727662737e-01,-2.615991144124101830e-01,-2.837618833140732044e-01,-3.440853989213361191e-03,7.229206227625413483e-04,-1.680792462540654396e-03,2.492783032357692719e-02
-2.679296125355891123e-01,-2.679839554811887514e-01,-2.685668200282428364e-01,-3.487466855240370296e-05,2.500141656980976127e-04,-5.016159219007368760e-05,7.570187444798648357e-04
-2.703400046697599368e-01,-2.678505716096041267e-01,-2.663889121298250728e-01,-1.713372476143041126e-03,9.123927943900016300e-04,-7.319929340526270135e-04,4.988405387848615646e-03
-2.685029436756113941e-01,-2.676190369249323298e-01,-2.686130712034036638e-01,-4.116369036103613411e-04,-2.461730003844778270e-08,3.955914502247303145e-04,1.366958022117614746e-03
-2.703793461749301463e-01,-2.690972432160826378e-01,-2.650349705239781195e-01,-2.423892082570281749e-03,2.101848590324494276e-04,-6.237152248153168084e-04,6.502265110611915588e-03
-2.675078015228071204e-01,-2.642124971125986432e-01,-2.726977883264303792e-01,-1.481189952192806750e-03,-3.096388177847466620e-03,1.104936875026674538e-03,9.690452367067337036e-03
-2.607952826737174323e-01,-2.820731294823413116e-01,-2.630768954988898511e-01,6.274394575612594026e-03,5.917891842537342621e-03,5.090804334963948928e-03,2.665186673402786255e-02
-2.627371287627809915e-01,-2.736883097610607884e-01,-2.691335978610085444e-01,-1.495211858376877586e-03,-1.453889891104230862e-03,3.249853095005435840e-03,1.164161879569292068e-02
-2.466156951130797081e-01,-2.758733135540349379e-01,-2.804409882775814045e-01,-6.375046787728188766e-03,-6.598481407919185200e-03,5.155148917677734172e-03,3.664398193359375000e-02
-2.666337734340771259e-01,-2.664966547449320600e-01,-2.713849871187716256e-01,9.757335178391656763e-05,-5.388351660195658116e-04,4.895904496111239731e-04,4.986281506717205048e-03
-3.012632910571442224e-01,-2.032291065162564192e-01,-2.983141917470188975e-01,-2.165595222350813476e-02,8.760876398217402536e-03,-6.368228753826334770e-03,1.053050234913825989e-01
-2.495076182146770127e-01,-2.559124757756283675e-01,-2.936687646744164382e-01,-2.373994707132250775e-02,1.491783672127196345e-03,-2.037995086403644567e-03,5.846601724624633789e-02
-2.604170801922667811e-01,-2.826802895353350831e-01,-2.619327118033385471e-01,4.365818565326940685e-04,4.757081722375612696e-04,9.654686123172361197e-04,2.163912914693355560e-02
-2.665664455372617758e-01,-2.709719768521204886e-01,-2.660885110004594378e-01,1.675206377865534699e-03,5.454929536976052236e-04,5.820226077428357304e-04,5.663088522851467133e-03
-2.678579952299286471e-01,-2.711303711676306127e-01,-2.655564196236973595e-01,4.194379923278612017e-04,1.324747273282322804e-03,8.766078849555053107e-04,5.624525714665651321e-03
-2.681033609039726873e-01,-2.680817824213132528e-01,-2.679368369587193932e-01,7.669389491549975400e-04,2.513333667564917272e-04,1.492160144699571089e-04,1.430206350050866604e-03
-3.159466149389064116e-01,-1.900529436966416630e-01,-3.010980468880707916e-01,-2.438429522957333978e-02,7.796390250486954360e-03,-8.631963344830800508e-03,1.280235201120376587e-01
-2.607989964368746527e-01,-2.593899476034179363e-01,-2.844553919059882863e-01,8.036350062809691523e-04,3.451050365308247622e-04,2.888371663598476771e-04,2.444357797503471375e-02
-2.655248656892864045e-01,-2.705024092479375031e-01,-2.685423302283957425e-01,8.977766297272331188e-04,7.837383204177846138e-04,1.833403087648923218e-03,5.762492306530475616e-03
-2.951151217234668778e-01,-2.093465721357901377e-01,-2.999634840575163275e-01,-1.423852659351042271e-02,-1.838465051305754414e-03,-7.751376146242871037e-03,9.270483255386352539e-02
-2.607457623984802408e-01,-2.843868507822010505e-01,-2.600075551835906440e-01,2.211644769380392725e-05,7.764845589853349361e-04,9.049119592936578796e-05,2.405686676502227783e-02
-3.136024190678618484e-01,-1.306642452318359238e-01,-3.360480164390402535e-01,-6.570745819999232462e-02,2.289989349930539873e-04,1.206369499821326793e-03,2.259054481983184814e-01
-2.921285693851466414e-01,-1.483545213664096141e-01,-3.374773573737393506e-01,-7.802192273180322268e-02,-8.802911884473799825e-03,1.542764658024665947e-02,2.201277762651443481e-01
-2.612740537106457706e-01,-2.809735491830734899e-01,-2.624091327306335431e-01,1.802715541014067186e-03,1.124643913674213585e-03,7.598178661905278120e-04,1.955182477831840515e-02
-2.917361334952468521e-01,-1.806240527262986673e-01,-3.207279032678296282e-01,-8.401087807587312439e-02,2.482475958553945206e-02,-3.319507205734553712e-02,2.067263424396514893e-01
-2.462517928651991317e-01,-2.634952889883284688e-01,-3.070957946407784633e-01,4.871893145276080805e-02,-2.333945277433016260e-02,-2.761592676047381831e-02,1.182914972305297852e-01
-2.609979704012170831e-01,-2.803644312311013298e-01,-2.634905142422642732e-01,-5.786944062487571136e-04,1.119643247671209740e-03,-6.283203549592732660e-04,1.841061189770698547e-02
-2.611404226036094789e-01,-2.835888756887474105e-01,-2.601562706863454477e-01,3.708882453078382146e-04,7.823193706676481209e-04,6.782708338548090635e-05,2.300558239221572876e-02
-3.232174515046413732e-01,-3.347698389767081451e-01,-1.165521472975949713e-01,8.671061847636349004e-03,-5.735092649497396111e-02,-3.039116497669808875e-02,2.410296648740768433e-01
-1.869748904048793292e-01,-2.643750164328789176e-01,-3.351065334248516381e-01,9.632433321499805912e-02,-1.872242390078751248e-02,-1.074287455743006686e-02,2.137786298990249634e-01
-1.281759517407535798e-01,-2.984798880778428698e-01,-3.869773016806778987e-01,6.866233770089200106e-02,-4.190716362654383492e-02,-2.151925508695412548e-02,2.696443796157836914e-01
-2.644268598744954346e-01,-2.691267534825216301e-01,-2.707557137521307000e-01,6.770266712771578349e-04,8.875927849875000055e-04,2.265042570379252607e-03,7.178319152444601059e-03
-2.118889531467730292e-01,-2.567948333533165983e-01,-3.249010879979262745e-01,9.325261811636605114e-02,-4.460929862958386283e-02,-2.959730547187471722e-02,2.107118666172027588e-01
-2.374551494701319376e-01,-2.686754007269133715e-01,-3.102036567523064892e-01,5.339932055818315954e-02,-2.324341019926379551e-02,-2.302336088177021900e-02,1.255439370870590210e-01
-2.640839827413151153e-01,-2.647059053696593223e-01,-2.767162517749626183e-01,-2.638314798045995283e-03,2.725996064581549805e-03,-2.796360065720497959e-03,1.478982344269752502e-02
-2.611066930936863373e-01,-2.838842770095443835e-01,-2.595301403429444154e-01,-1.009531230979077696e-04,7.617552068749410335e-04,-4.198882459375239697e-04,2.365405298769474030e-02
-2.578764289834152845e-01,-2.804999636190123602e-01,-2.670965735375868677e-01,-9.597110783129256164e-04,1.388421732883574067e-03,-2.608137052466581382e-03,2.042539045214653015e-02
-2.638354160833438766e-01,-2.663738516895850506e-01,-2.735679710999561198e-01,-1.464653356532677085e-03,8.104665003360730577e-04,-2.422883884887159014e-03,1.012314762920141220e-02
-2.628929498524256725e-01,-2.658164938554588019e-01,-2.756229964576759617e-01,-1.061635063888947310e-03,1.089321372192465515e-03,-2.503544135533812380e-03,1.261461898684501648e-02
-2.633147177459672639e-01,-2.755021961270791575e-01,-2.656206636019453060e-01,-1.128988851635250208e-03,8.391304925971837438e-04,-2.535972872970283353e-03,1.228731404989957809e-02
-2.624990384530905829e-01,-2.635558998430174715e-01,-2.784237058226760597e-01,-4.424345848536001872e-04,6.942857397388179416e-04,-1.590875398935828440e-03,1.573238149285316467e-02
-2.650274342055632948e-01,-2.656625462849376840e-01,-2.735588333144950424e-01,-2.870714907640642671e-03,2.863401868065923624e-03,-2.998737528961216425e-03,1.200280152261257172e-02
-2.639104100114676443e-01,-2.768936146298857093e-01,-2.656253491710684478e-01,2.016303550875146820e-03,-3.256764749625743523e-03,-3.658109060732404015e-03,1.527744997292757034e-02
-2.670076759701062730e-01,-2.818091906223696985e-01,-2.565335358742633076e-01,-3.660270925889196232e-03,1.269050930790730381e-03,-1.193419211121831856e-03,2.308944612741470337e-02
-2.606195477753746603e-01,-2.778462984405593583e-01,-2.662793075861660252e-01,1.436288224109462082e-03,-1.817005579260271269e-03,-3.752529627099968415e-03,1.701858639717102051e-02
-2.670152289199901330e-01,-2.673554158392166258e-01,-2.710121251162058709e-01,2.072681586087808323e-03,-2.266349865914259534e-03,-2.585355890596904935e-03,7.942320778965950012e-03
-2.680514548761661064e-01,-2.680391209218243032e-01,-2.680591593592897004e-01,-2.936126756499954317e-04,3.000578141067542903e-04,-7.114452566245747832e-04,1.430908450856804848e-03
-2.647977054337942726e-01,-2.728433032727570207e-01,-2.672422870200465428e-01,2.221099834215580979e-03,-1.998363673986026674e-03,-2.031172156817570140e-03,9.497194550931453705e-03
-2.560631119145331258e-01,-2.780338525519738813e-01,-2.687566485566852403e-01,3.285381176472665452e-03,-4.068644874266419409e-03,-3.700631549583824863e-03,2.209252677857875824e-02
-2.630549703171988218e-01,-2.697330384700379335e-01,-2.713174547660892055e-01,8.998386488657623625e-04,-7.822523368999723201e-04,-2.961122688783760122e-03,9.394543245434761047e-03
-2.587691154853648534e-01,-2.612034095153460966e-01,-2.837084400223001679e-01,3.135423981915287390e-03,7.866189116053515316e-04,1.791113422234750846e-03,2.466088533401489258e-02
-2.615642988285432069e-01,-2.574157324992669138e-01,-2.850382522875647973e-01,3.414506255751056062e-03,8.086023793878404330e-04,2.605516177349915564e-04,2.650965936481952667e-02
-2.603704210981545031e-01,-2.613889154386458968e-01,-2.830579119158013746e-01,4.979738433542004643e-04,4.671181224079823868e-04,1.101306097407659876e-03,2.230895869433879852e-02
-2.601677718255925309e-01,-2.602014701876891323e-01,-2.857750117125481548e-01,4.777915335143145641e-03,7.715228306962105664e-04,3.438618360215063021e-04,2.693501114845275879e-02
-2.659973808725919486e-01,-2.705593989211030892e-01,-2.679143295318949236e-01,6.585651868673955342e-04,2.690311456888447024e-04,1.109976657612368137e-03,4.577766638249158859e-03
-2.629773688598731618e-01,-2.776033396114888641e-01,-2.639837580709243903e-01,1.055273149289806447e-03,5.054552690041531860e-04,1.118162038753562878e-03,1.442464999854564667e-02
-2.701368761631845472e-01,-2.651004919255345871e-01,-2.701041177200240173e-01,6.533480589597405117e-04,1.724327590751555421e-03,6.906325908433890229e-04,6.068993825465440750e-03
-2.899346219483182607e-01,-3.395824251748891243e-01,-1.637341972438766668e-01,2.888729747910045303e-02,8.651072346959608195e-02,2.632304972622423467e-02,2.273575961589813232e-01
-3.481965401128175319e-01,-3.296627994473142476e-01,-1.347602520190442632e-01,1.628527400591608595e-02,9.690211718644820005e-02,3.368232422482025923e-02,2.726022005081176758e-01
-2.674168276841323855e-01,-2.812475366630378670e-01,-2.555144237888654080e-01,3.349423487152791441e-03,2.796384318701108321e-03,7.315610380681866623e-04,2.358590997755527496e-02
-2.957910812144514123e-01,-3.120257556155369705e-01,-1.928962161143666920e-01,1.295424196674688569e-02,2.912710334307773430e-02,4.184544932999342826e-03,1.249900609254837036e-01
-2.615945274016344690e-01,-2.754863812461580963e-01,-2.675150333107833567e-01,1.155618741755428747e-03,1.180913459764231909e-03,2.795233251122445153e-03,1.331988070160150528e-02
-3.026152878145543790e-01,-2.953877010893813937e-01,-2.027637549555004193e-01,3.921515372964489571e-03,8.526782784152864281e-03,1.288324209295999001e-02,1.003148406744003296e-01
-2.545999839174634682e-01,-2.667187941247354810e-01,-2.840678751330741325e-01,1.165601886197560264e-02,3.578622189452443370e-03,2.567206133912966048e-03,3.352440893650054932e-02
-2.543182853841403079e-01,-2.861319917327782014e-01,-2.653481918210667256e-01,1.268631907614633505e-03,2.037105281614885050e-03,2.060030198706799300e-03,2.851100452244281769e-02
-2.636300146729720906e-01,-2.799997127862876578e-01,-2.619004752206247066e-01,6.065969799436202181e-04,1.125813514530678294e-03,7.602811115362575730e-04,1.749030314385890961e-02
-3.176934654011421832e-01,-3.157586780645794122e-01,-1.837924451003980220e-01,-1.658737254646656598e-03,-2.881652533056744403e-02,-3.457861857244535781e-03,1.421599686145782471e-01
-2.550126534553939783e-01,-2.844495115519198314e-01,-2.655984598580067857e-01,-4.223118967787792494e-04,2.047912609530581213e-03,-1.347107646610932932e-03,2.618274278938770294e-02
-2.634912159812621280e-01,-2.711494307018516570e-01,-2.696436416653872348e-01,-7.987470498843414913e-04,9.029814436288233128e-04,-2.989130306016639111e-03,8.974899537861347198e-03
-2.614501079672306716e-01,-2.593544539091883760e-01,-2.841710106240332712e-01,5.054650682947995841e-04,-8.082525809941596556e-04,-3.700529619454067938e-04,2.390362881124019623e-02
-2.755017036202260794e-01,-2.597578994419921239e-01,-2.692536942442336767e-01,6.777845556629940281e-03,8.561145416987147108e-03,1.082596952337773651e-02,2.996397204697132111e-02
-2.509824088600897674e-01,-2.824737597701539871e-01,-2.732150427307222240e-01,1.632242292264036868e-03,2.468254201309761850e-03,4.483859778063740802e-03,2.953716367483139038e-02
-2.180100263071725331e-01,-2.902275340346601173e-01,-2.952392439701045923e-01,-1.558628544812602421e-02,5.889856447610621916e-03,-1.475358754905648157e-03,8.026093244552612305e-02
-2.619127162592083669e-01,-2.805261341674754050e-01,-2.621753533071715658e-01,1.006056987420728696e-03,-1.292364880375685495e-04,3.602437536427605569e-04,1.857728697359561920e-02
-3.288717762752526030e-01,-1.674960504136229766e-01,-2.830707766652329482e-01,3.152420810428790271e-02,1.891340695215297518e-02,8.849150830139096424e-02,2.197621613740921021e-01
-2.514772138214512731e-01,-2.813982623560347118e-01,-2.729554642971684930e-01,1.658226792215627575e-03,2.454676200504026396e-03,3.329610975757727430e-03,2.781217359006404877e-02
-2.628333793090237847e-01,-2.812583821791981298e-01,-2.600683672452560047e-01,2.761648901887915272e-03,3.435982141561846632e-03,1.239188038787326874e-03,2.147035486996173859e-02
-2.062356845204199596e-01,-2.928849110693433344e-01,-2.907287145211593926e-01,-5.767920709658536094e-02,5.812466155288435743e-02,-3.188363213331616569e-02,1.746187359094619751e-01
-1.760421293555290978e-01,-3.234179639049692412e-01,-3.109211323919813252e-01,-1.189932413798360511e-01,3.972768301603383373e-02,-3.860099761025586468e-02,2.678007185459136963e-01
-2.612896777538131210e-01,-2.848311866921138247e-01,-2.584781588513508366e-01,-1.105963108108805283e-03,2.991191660229429103e-03,-1.170877248051377037e-03,2.574720792472362518e-02
-1.861623840373834993e-01,-2.987572409824997277e-01,-3.130310286648623763e-01,-2.690650802151695747e-02,8.283460780998322739e-03,-4.482270934839670089e-03,1.301018744707107544e-01
-1.867426237157491231e-01,-3.426198635707940476e-01,-3.096906302896126340e-01,6.279363157241800442e-02,1.035424682935512236e-01,4.386300665724481712e-02,2.646002173423767090e-01
-2.041287769172768773e-01,-3.034136789251246635e-01,-3.094947610596867071e-01,-4.456876670577834126e-02,1.864487403820780376e-02,-6.449747282384067984e-03,1.327593624591827393e-01
-2.611238802641393519e-01,-2.853290221364062074e-01,-2.573399928144265991e-01,-1.981647829694069697e-04,3.525453135133818205e-03,-1.583813556747386308e-04,2.700510621070861816e-02
-1.812244942298361361e-01,-3.026616329851469223e-01,-3.320639822243767747e-01,-1.199562721100690676e-01,6.429748834354476195e-02,-8.747116422669240846e-03,2.738294601440429688e-01
-1.761806484980227849e-01,-3.179707731563407025e-01,-3.103928948749315464e-01,-2.150216160648834793e-02,2.180724718908946119e-02,9.284427036265507568e-03,1.488613188266754150e-01
-2.660038549083847959e-01,-2.750481456784940049e-01,-2.639724111716553190e-01,-1.803611770033787271e-03,2.664902230152160268e-04,-7.524193394925317909e-04,1.076890993863344193e-02
-2.148868405693890593e-01,-2.945460439533686414e-01,-2.936328287045079088e-01,3.585947974589534753e-04,1.606970870680253256e-03,-1.220660443761825611e-03,7.928606122732162476e-02
-2.580457159564731318e-01,-2.816096351456937041e-01,-2.655280486862370837e-01,-7.238613816633377752e-04,1.821705707192554369e-03,-3.004522580378874656e-03,2.176096849143505096e-02
-2.589900126656624058e-01,-2.834527627109332815e-01,-2.612639873693117787e-01,5.902364869199863782e-04,2.719795411176040810e-03,9.749855385783900465e-04,2.395951189100742340e-02
-2.839269627351703185e-01,-2.498756191010405858e-01,-2.675178634132067690e-01,1.223387250527011721e-03,3.604451163872640120e-03,6.671663829024453672e-03,3.235738351941108704e-02
-2.834374101512250888e-01,-2.669084564715494823e-01,-2.552172723208658844e-01,3.523071210547636632e-03,3.255123597152054325e-03,1.187012111019188770e-02,3.308860957622528076e-02
-2.790130119819947963e-01,-2.646098530708796415e-01,-2.610920805651956167e-01,2.626519872996829676e-03,1.043823584498230778e-03,1.465612770322564451e-03,1.734650693833827972e-02
-2.615386973263411630e-01,-2.830258029956564392e-01,-2.602750783849065996e-01,-1.074843736701927349e-03,6.717597020450807779e-04,-4.985027861714575294e-04,2.227126248180866241e-02
-2.638940712577375614e-01,-2.697738583713700788e-01,-2.708663764527692308e-01,-5.609787003107558241e-03,5.781372524483585802e-03,-3.926696093924778898e-03,1.682640798389911652e-02
-2.788223636980255993e-01,-2.627071554602433689e-01,-2.634216562801537931e-01,7.595817839337071784e-04,1.549563969617473664e-03,5.093387023906461013e-04,1.607509702444076538e-02
-2.763496480536775102e-01,-2.966802600573800741e-01,-2.320588367622076209e-01,3.471162816790294980e-03,1.244191940050405447e-02,-1.594751204156861710e-03,6.151137873530387878e-02
-2.642434993299409007e-01,-2.757582846181195202e-01,-2.639912270520023418e-01,-7.928821349530492399e-04,5.611753564938591924e-04,-1.815768622064323819e-03,1.217705104500055313e-02
-2.933604481167858546e-01,-2.995490798210291294e-01,-2.139286787854032812e-01,1.742982627393801316e-03,-1.234829168596620307e-02,-4.052248541122380893e-03,8.576186001300811768e-02
-2.841455961884374881e-01,-2.614054162424547245e-01,-2.581962797150697542e-01,1.276545700017834304e-03,9.102782121308196795e-04,3.393596672403648845e-03,2.534392848610877991e-02
-2.663779055712481858e-01,-2.724966974341612169e-01,-2.655058631694214299e-01,-1.380491213116202820e-03,5.832619504989334245e-04,-4.293742831651131014e-04,7.129295729100704193e-03
-2.623728351020220284e-01,-2.749747372512498789e-01,-2.674749710724493301e-01,-1.180131376332377432e-03,1.568296877243302795e-03,-3.667901505169031059e-03,1.313241850584745407e-02
-2.673445427600450452e-01,-2.691757529568573060e-01,-2.679015227800771171e-01,7.889245803911388330e-05,1.936127225230104584e-04,-6.050372366697788279e-04,1.967981224879622459e-03
-2.111431501682398126e-01,-2.230419181388808014e-01,-3.907160931791058278e-01,-1.525928585131872683e-01,4.123575249588890684e-02,-3.850344197899429471e-02,3.311401009559631348e-01
-2.805263304510545730e-01,-2.636162374733068692e-01,-2.607080475836965894e-01,4.683867999577901115e-04,5.734302418222875534e-04,1.585010245691535887e-03,1.878211833536624908e-02
-2.834724381780269198e-01,-2.613465022678226890e-01,-2.600988780960623026e-01,5.057476204852104883e-04,5.432220730534251772e-04,5.702487338957049285e-04,2.283301576972007751e-02
-2.704108218245248607e-01,-2.647864211715805771e-01,-2.692781743900065083e-01,-4.892371980507970132e-04,2.538906745410608734e-03,-4.915697037981783422e-04,6.879493594169616699e-03
-2.516118666264735015e-01,-2.665622888150075975e-01,-2.890626678906220715e-01,-1.148098566748649747e-02,3.122544598397482708e-03,-2.836839920390776034e-03,3.892306983470916748e-02
-2.669162789366829047e-01,-2.645688773054278853e-01,-2.730360664103014812e-01,-7.680884718193599445e-04,2.340906183958557391e-03,-8.561581227823842873e-04,8.816808462142944336e-03
-2.681107461276641679e-01,-2.716719378918762140e-01,-2.655242395287545909e-01,3.509374716716849932e-03,2.496158416711189484e-03,2.482840091566886932e-03,1.013489905744791031e-02
-2.650200626140863935e-01,-2.667240757024493814e-01,-2.724286908614195202e-01,8.959522620218072358e-04,1.140018880784026897e-03,1.575340147480154985e-03,7.675887085497379303e-03
-2.643539565110978318e-01,-2.705805286694007994e-01,-2.695000692457726332e-01,2.976533172418280673e-04,5.932275195622861968e-04,2.436598176485282874e-03,7.234819699078798294e-03
-2.674796763514189490e-01,-2.640498107647051840e-01,-2.727520454063274147e-01,1.038389027974174214e-03,2.202453385895381237e-03,8.680543476561117374e-04,8.814368396997451782e-03
-2.772259313628382960e-01,-2.606751982992124295e-01,-2.660729217518467693e-01,-1.533967393044601436e-03,3.238856397502615052e-03,-2.433754607615529284e-03,1.643244177103042603e-02
-2.719655180428516283e-01,-2.651775798910582238e-01,-2.639720856329253462e-01,4.698146459779764875e-03,5.424472306184405582e-03,5.084284830039275706e-03,1.696332544088363647e-02
-2.891332823413316766e-01,-2.726925486863859827e-01,-2.441051338942812898e-01,2.011238007658512975e-03,2.806486198102346990e-03,4.155565690126596448e-03,4.055991396307945251e-02
-2.619200224304651936e-01,-2.659442083069486484e-01,-2.737375281271547944e-01,1.102232363934648601e-02,8.176951488202804583e-03,7.768952061545637486e-03,2.923053130507469177e-02
-2.748236635560099561e-01,-2.895216577139453351e-01,-2.403180234494118328e-01,5.204003501544826301e-04,4.731470089067405134e-03,1.213146241533264054e-04,4.451798647642135620e-02
-2.485148723038206053e-01,-2.737775941415667158e-01,-2.822638952425785552e-01,3.275066602310301115e-03,2.503418254307262190e-03,3.341100894472515646e-03,3.176598623394966125e-02
-2.707100824452962073e-01,-2.687134313453340417e-01,-2.657619811568124324e-01,1.077766129193874966e-03,7.812486639597825654e-04,2.594272692038617932e-04,4.910029005259275436e-03
-2.457744799036786776e-01,-3.005536883904684764e-01,-2.579779019891043079e-01,1.063678253978661732e-02,2.067228046327386839e-02,7.090538863564578749e-03,6.521864235401153564e-02
-2.703173394248850614e-01,-2.751832471109557088e-01,-2.586261533831533677e-01,4.238355308480436581e-03,2.485202379040969342e-03,1.814482410899383603e-03,1.730739139020442963e-02
-2.550612819337325643e-01,-2.748391155426554988e-01,-2.747852778857881040e-01,1.863160405445673986e-03,1.632060371438345640e-03,4.545683471192210265e-03,2.169090881943702698e-02
-2.623750914837169601e-01,-2.845386993262283282e-01,-2.579607627685711613e-01,1.116923510148667368e-03,1.936797456317467404e-03,8.202988947797291638e-04,2.501127868890762329e-02
-2.565424705359240498e-01,-2.816906302557049546e-01,-2.670910132136669057e-01,1.105420393817573574e-03,1.996530584332129824e-03,3.332355948296908399e-03,2.296439185738563538e-02
-2.908589572626620878e-01,-1.673978353369182381e-01,-3.762013392203119033e-01,1.263389749966789544e-01,-1.735935640302594882e-02,-1.929150565335351411e-02,2.880409359931945801e-01
-2.794128906336524332e-01,-2.625083543250635865e-01,-2.632005272289985043e-01,-2.662958587364768360e-03,-2.815580434278785928e-03,3.298559651772554283e-03,1.876804791390895844e-02
-2.588894852539431191e-01,-2.783637704998894180e-01,-2.674513061752486487e-01,2.441838121822623598e-03,1.785561637697080650e-03,3.792050362966623706e-03,1.887878589332103729e-02
-2.709065238178766100e-01,-2.720416834469476242e-01,-2.612812110023209344e-01,3.885761989784903940e-03,1.209358251998105763e-03,1.592303188315141683e-03,1.273392606526613235e-02
-2.625479689622827184e-01,-2.597771977118652487e-01,-2.815765272669982222e-01,1.919428840551799971e-03,2.104735093130406971e-03,1.127733863518865041e-03,2.122839353978633881e-02
-2.538036853529717640e-01,-2.880954259252925809e-01,-2.681229662686377413e-01,4.251942076502507328e-02,5.630353877016601449e-02,5.010208258420816713e-02,1.528219729661941528e-01
-2.798934670018914939e-01,-2.629679851800075241e-01,-2.615061160248622896e-01,-2.623043859922995040e-03,-2.116458318639407709e-03,2.335800246794137499e-03,1.907351613044738770e-02
-2.484875045359574708e-01,-2.671202737508502900e-01,-2.876057844518951079e-01,5.671248111221849700e-03,9.582268330567604662e-04,1.472152891199769807e-03,3.541586548089981079e-02
-2.878191721810455239e-01,-2.378376553245170055e-01,-2.777615284498404780e-01,-6.136270912524562082e-03,-3.622803077090341883e-03,1.101863384403311587e-02,5.111925676465034485e-02
-2.628462023020378679e-01,-2.708881034788604425e-01,-2.699397035085591701e-01,1.431866148511965701e-03,1.415898797602051316e-03,3.343026056644933346e-03,1.018023584038019180e-02
-2.531718919440519300e-01,-2.866305751143513048e-01,-2.654632219018863704e-01,2.941042710771221225e-04,-1.878826680255875608e-03,-2.626142125231869292e-03,2.984707430005073547e-02
-2.645980010776505797e-01,-2.857672076271638439e-01,-2.550070862103547831e-01,-2.761768347961337969e-04,-1.599001074820637167e-03,-2.134011117855895727e-04,2.740782499313354492e-02
-2.562042029271549004e-01,-2.601145044528225259e-01,-2.857478634971903908e-01,9.940084614280640316e-03,3.297198986764753991e-03,3.996579472573033760e-03,3.390489891171455383e-02
-2.656298448374643795e-01,-2.509313497029726503e-01,-2.853497291986649698e-01,6.701734609108445095e-03,3.019034117493381644e-03,2.198098650856865257e-03,3.273149207234382629e-02
-2.538083816140432325e-01,-2.683850628790808712e-01,-2.846989708213061299e-01,1.058165098428014844e-02,4.387868026352803250e-03,4.520323733053116175e-03,3.422572091221809387e-02
-2.612420048696650898e-01,-2.749033058061147727e-01,-2.690555970782840811e-01,1.173299643604106468e-03,1.323877948414041959e-03,3.624870074842779198e-03,1.377484761178493500e-02
-2.659184761050548129e-01,-2.540159865049453347e-01,-2.856666298373035096e-01,1.160692917019877195e-02,5.150531377413164165e-04,-1.196999004634242266e-05,3.422966226935386658e-02
-2.402227802656303757e-01,-2.956953709330996660e-01,-2.726171556521812533e-01,2.919270136867011499e-03,-2.022640839249799025e-02,-1.202317590705078440e-03,5.989014729857444763e-02
-2.216542502476392951e-01,-3.088950135150177467e-01,-2.884361673765580281e-01,-8.164554772635427074e-03,-4.883998334421978810e-02,-2.608921385729623746e-03,1.167094707489013672e-01
-2.897183487460847084e-01,-2.845999525768728167e-01,-2.305388562247979167e-01,1.952737081071476317e-03,1.399161214782234427e-03,4.039182745852582489e-03,5.737389251589775085e-02
-2.310024247511968110e-01,-2.776259727340375516e-01,-2.926093495004105094e-01,-1.850199590509426020e-02,3.298592993895170088e-03,-3.313229708576984414e-03,6.472542881965637207e-02
-2.490062339948846681e-01,-2.860488916746612986e-01,-2.684230156409991852e-01,-2.311481316770271684e-03,4.375131223211716457e-03,-4.814186109097411473e-03,3.424768522381782532e-02
-2.470249066718316344e-01,-2.665575947041708971e-01,-2.907985911274293955e-01,5.694426436519018676e-03,2.287688237077240477e-05,6.899793940595253146e-04,3.926006704568862915e-02
-2.617584092899575277e-01,-2.568422189183742210e-01,-2.861333126510885450e-01,2.415439815095438755e-03,9.744536149506636494e-04,1.441776632520790980e-04,2.754179760813713074e-02
-2.607909726961566976e-01,-2.722642592787185012e-01,-2.707183295237001741e-01,1.398691954610004192e-03,-2.261645185071475134e-03,-3.756636888857084119e-03,1.341045834124088287e-02
-2.274728775508291223e-01,-3.103650910805454965e-01,-2.784847866495950841e-01,2.725783064960180663e-02,-4.388808728828390987e-02,-1.014146493694798729e-02,1.164510697126388550e-01
-2.615070546921673955e-01,-2.712465848824702208e-01,-2.713623606943121880e-01,-9.934831758287704633e-04,1.133251538974848743e-03,-3.184094515728002131e-03,1.154247112572193146e-02
-2.619127730389186892e-01,-2.748247454364386999e-01,-2.688741462520262693e-01,-1.104480949954393708e-03,1.105266550269744415e-03,-2.587711720175775269e-03,1.235750503838062286e-02
-2.675233772398074583e-01,-2.753715425924077587e-01,-2.615685553268456420e-01,-2.904484696301368706e-03,1.419776281759225090e-03,-8.139084566188580817e-04,1.330904848873615265e-02
-2.669678546459326451e-01,-2.789479438492689645e-01,-2.595040091924843417e-01,-3.307341644914642189e-03,1.621241263152450613e-03,-1.288891930159212149e-03,1.828479021787643433e-02
-2.544248032448158114e-01,-2.751046093590554520e-01,-2.750652416604990602e-01,-2.280218630528298932e-03,1.982868765880977605e-03,-4.282255746369630599e-03,2.256653457880020142e-02
-2.792958633992306261e-01,-2.696795897202216019e-01,-2.559120957376470051e-01,-4.795986225786472330e-03,3.894382404177551722e-03,-5.065863395774295591e-03,2.461504936218261719e-02
-2.282353959964488199e-01,-2.960435984876352289e-01,-2.789331226549692788e-01,-2.730566982038307253e-04,-1.601977039031447086e-02,-3.301126157180966306e-03,6.732982397079467773e-02
-2.672766188558799993e-01,-2.691982059253493764e-01,-2.679080728068770623e-01,-1.415420790218841884e-03,6.242191902133422234e-04,-9.081770648726168564e-04,3.539970377460122108e-03
-2.471693437364508861e-01,-2.773589601302580143e-01,-2.783286380119180947e-01,6.075232275962654492e-03,-5.407863918587814921e-03,-6.038715492780178697e-03,3.534806892275810242e-02
-2.578520698842938219e-01,-2.813888666077402068e-01,-2.673125551184006854e-01,5.694336395465375220e-03,-8.963674967559016882e-03,-5.936880367502719510e-03,2.940868027508258820e-02
-2.649497266932256401e-01,-2.727825764503522543e-01,-2.664396599603036098e-01,1.521947545379889960e-03,-1.687444061702970607e-03,-2.906776976432433410e-03,9.630287997424602509e-03
-2.639690175735667776e-01,-2.642201847810817794e-01,-2.758635149887299631e-01,-2.058814951284576188e-05,6.517136034022318796e-04,-7.450806474310634744e-04,1.189518999308347702e-02
-2.658586064851320430e-01,-2.637484704934153212e-01,-2.752573457798326295e-01,-2.936960834027244798e-04,1.763635640774191245e-03,-7.613059748426162336e-04,1.113329920917749405e-02
-2.650660720871370613e-01,-2.696743224642306758e-01,-2.696071689825162987e-01,-7.122092873270423645e-04,7.289828119323655056e-04,-2.815324133098868857e-03,6.915572565048933029e-03
-2.493299533296525206e-01,-2.862649622177385611e-01,-2.682220857909060618e-01,2.161219100436263720e-03,-4.091641215895080487e-03,-4.650063011355269442e-03,3.394750133156776428e-02
-2.828733577906797914e-01,-2.605904402626441074e-01,-2.614849495963439963e-01,-7.534791444645063166e-05,-9.677162870114261028e-04,4.736705534821275716e-04,2.192933671176433563e-02
-2.476289747937720498e-01,-2.925767519489055890e-01,-2.625843420088666003e-01,1.156126165838659804e-03,-1.844172593740166580e-02,1.001332413182463247e-03,5.098102241754531860e-02
-2.530659782770748878e-01,-2.302777192820205376e-01,-3.564093605669008125e-01,1.405036617827342682e-01,4.390291004116349954e-02,4.084910894734045811e-02,2.890784740447998047e-01
-2.550741028971159063e-01,-2.752120629071068136e-01,-2.743776290610965285e-01,1.870993874839462640e-03,1.640934121632997003e-03,4.515702856298833834e-03,2.166066691279411316e-02
-2.824468464774092524e-01,-2.741442781069748369e-01,-2.475010560795454229e-01,-3.530510835337610006e-03,2.203926117130161622e-03,-2.912418241240727866e-03,3.282396867871284485e-02
-2.616322127907538819e-01,-2.807636172498567118e-01,-2.620501959892531652e-01,9.795694579400036385e-04,-1.995340973639523404e-04,-3.859591321408900361e-04,1.901667006313800812e-02
-3.259258750804959193e-01,-1.409366382298180009e-01,-3.658849789461054991e-01,8.152159482363333098e-02,2.099182193208031302e-02,4.462416124592161193e-02,2.654109597206115723e-01
-2.671594617844255115e-01,-2.257977142810058679e-01,-3.039205177886831200e-01,-3.648757382967821733e-02,-5.082409466225550759e-03,6.251510482675218423e-03,9.365595132112503052e-02
-2.546713978157337244e-01,-2.662663680620460660e-01,-2.842649821109155539e-01,2.404861134879165453e-03,-4.642103330666360684e-04,-1.443539026238895798e-03,2.629324607551097870e-02
-2.573584306678729505e-01,-2.611863606473759369e-01,-2.851360156347770847e-01,2.979894433227886583e-03,-6.298117892107493558e-04,-1.082493629925390839e-03,2.666948176920413971e-02
-2.454632850185344550e-01,-2.849866620330537836e-01,-2.760333109539208074e-01,2.546580894776231951e-02,2.300473498360464109e-02,1.483694627031421215e-02,7.404035329818725586e-02
-3.026570081300474779e-01,-1.885689323976706966e-01,-3.115495832918168118e-01,-8.578962388610232191e-04,-1.153025651542335939e-03,2.653122574769884931e-02,1.273876726627349854e-01
-2.140387673078897879e-01,-2.945039661418979993e-01,-2.942258291725262098e-01,1.591922787046542477e-03,-5.029168762558847540e-04,-1.324098664441612956e-03,8.041123300790786743e-02
-2.655872333934256035e-01,-2.820839272173198964e-01,-2.571615292360719396e-01,3.046459005635629609e-03,-1.903839589723719129e-03,-7.271360920000598856e-04,2.285677939653396606e-02
-2.576592032516576425e-01,-2.661098826807591355e-01,-2.817049639850925935e-01,1.800619293417303306e-03,-5.913348101422362824e-04,-2.448857082958416208e-03,2.179853245615959167e-02
-3.041467562144614667e-01,-2.214211627696658913e-01,-2.804624179731707856e-01,-3.245604144117014700e-02,-1.185559115344627171e-02,2.483650213492257994e-02,1.042956113815307617e-01
-2.579733199216991402e-01,-2.755102535946958309e-01,-2.704082628409993361e-01,-2.090526043133018527e-03,2.840751315432003300e-03,-4.576740141974329143e-03,1.855427771806716919e-02
-3.296364223726193643e-01,-2.869502269459469623e-01,-2.140287099267079163e-01,6.393401246610655453e-02,-9.656590664820723091e-02,-1.307787793314729441e-01,3.190599679946899414e-01
-2.148460784945109836e-01,-2.573024182916788805e-01,-3.669253335139380234e-01,1.433002150887471571e-01,-4.416799090287536200e-02,-3.079299751433479948e-02,2.979527413845062256e-01
-2.895452941578631201e-01,-2.173263606495257627e-01,-3.079450686375643231e-01,-3.836121863080724226e-02,-8.892395799088162814e-03,1.857881334719209410e-02,1.121179237961769104e-01
-3.383266926113465689e-01,-3.173320547074013342e-01,-1.332642455994427488e-01,-3.059311497016769642e-03,-5.039138976832657595e-03,6.154570323279491550e-02,2.228318750858306885e-01
-3.121055582030565212e-01,-2.982279278712943738e-01,-1.973288812938098769e-01,-1.131382800546242538e-02,-3.405699069519652501e-03,3.117375262946948944e-02,1.229132190346717834e-01
-1.634770662776951489e-01,-2.956588681922089901e-01,-3.731811289239761464e-01,1.376506900246665110e-01,6.465956112496873062e-03,5.595569884886609190e-03,3.013158738613128662e-01
-2.935552543586441021e-01,-2.949048107729068113e-01,-2.155351634863525712e-01,-2.948519419465605727e-04,1.893157039124139605e-03,1.787603223767897896e-03,7.883431017398834229e-02
-2.494417463290790060e-01,-2.815450373010710550e-01,-2.743063442569114718e-01,-1.546886240407386627e-03,2.502457234566963108e-03,-4.372230046099412869e-03,3.056057542562484741e-02
-2.957021829475543484e-01,-2.902725543938959873e-01,-2.188404950169146046e-01,7.573516141974289935e-04,2.662519513472528295e-03,1.986875110602577196e-02,8.201926201581954956e-02
-3.124883806342249049e-01,-3.143035782335929507e-01,-1.649295412805383554e-01,1.653122919384417480e-02,5.403809640628984973e-02,4.398186300432050527e-02,1.934635937213897705e-01
-2.651879573479860031e-01,-2.659524819734797596e-01,-2.733155363639085400e-01,3.203610890550916070e-04,-9.855073762276636562e-04,-1.387289846830582320e-03,8.332082070410251617e-03
-2.809541525470745094e-01,-2.619523252757418041e-01,-2.614937456571104213e-01,-6.305146580792262995e-04,-7.099950566712646266e-04,8.741020439368937019e-05,1.930599473416805267e-02
-3.120816520900287494e-01,-3.113913876600274966e-01,-1.762071929875436149e-01,3.251593365635679911e-02,4.564586586375819766e-02,6.665974826514632634e-02,2.027846574783325195e-01
-2.333099184923691782e-01,-2.848704424160943272e-01,-2.892821368664748038e-01,1.009451806317728829e-02,2.682577822556124134e-03,8.431932396203506907e-04,5.687564983963966370e-02
-2.431038663723693316e-01,-2.897562598761402874e-01,-2.730315785982686538e-01,3.457892118443958046e-04,4.114575381055897429e-03,-7.310996735616390012e-04,4.157722741365432739e-02
-2.167958516464352781e-01,-2.903538415607463397e-01,-2.962381952189855894e-01,8.030018382492716197e-03,2.976350610872381761e-03,3.146553575960287560e-03,7.828132808208465576e-02
-2.248060042031644334e-01,-2.881618244875941981e-01,-2.920428704464751446e-01,6.552766381285311283e-03,6.618509672639972218e-03,4.426864372939852584e-03,6.777854263782501221e-02
-2.210142391786659166e-01,-2.900911579925350980e-01,-2.927714780422248642e-01,6.744933140446722659e-03,2.030655715602403422e-03,1.780130097608637095e-03,7.157033681869506836e-02
-1.956380368468933484e-01,-2.986553328255338036e-01,-3.162612122685947158e-01,4.629678905596873451e-02,3.070493749477923306e-02,-4.187831761910678144e-03,1.484837085008621216e-01
-2.807358182323101969e-01,-2.634793291140675731e-01,-2.610119668349339950e-01,-1.763620707752932681e-03,-6.470452891620923378e-04,5.820057228083020577e-04,1.892235688865184784e-02
-2.367082121159516106e-01,-2.780000100955992703e-01,-2.872522477914398187e-01,1.720161477708806105e-02,7.862738145555232122e-03,4.395012351646456102e-03,5.747835338115692139e-02
-2.342616064171716972e-01,-2.747757209655272703e-01,-2.920405554382351498e-01,1.153833598023550067e-02,-1.720869032402704956e-03,6.087202089512362907e-04,5.521170794963836670e-02
-2.779620149223486214e-01,-2.701238063542037993e-01,-2.548847378891874182e-01,4.939930416401910711e-03,3.981797673458248830e-03,3.671874813421023565e-03,2.396527864038944244e-02
-3.131482239264022915e-01,-2.859125975459670399e-01,-2.177980155113414529e-01,1.445713864612456143e-02,-2.892232638777818970e-02,-4.241697002159781210e-02,1.255812346935272217e-01
-2.382236146222425077e-01,-2.832964354206170543e-01,-2.843215591359371519e-01,-2.499328830796353901e-03,2.475373533224043375e-03,-3.119808271058517168e-03,4.631562530994415283e-02
-2.265767594742441327e-01,-2.935267300542906410e-01,-2.847696160215789640e-01,-7.008200357056073096e-04,3.710415036957355472e-03,-8.276060886344559393e-04,6.338396668434143066e-02
-3.382080534934288063e-01,-2.364917074242700035e-01,-2.060326517645474365e-01,-6.958837878518550277e-03,7.712897802488618768e-03,-1.148326377494864325e-01,2.329280972480773926e-01
-2.618106653878937151e-01,-2.676854926032576909e-01,-2.750782708226647832e-01,-1.550170473474299501e-03,1.116298603715667461e-03,-3.783404910258378849e-03,1.365606021136045456e-02
-2.914035965816959561e-01,-2.358613134212360074e-01,-2.761470806543603329e-01,-1.744367398864873128e-03,3.173701675158678223e-03,-9.110615142140248215e-03,5.252313986420631409e-02
-2.670591813302459205e-01,-2.587643062762244872e-01,-2.794601273141928965e-01,-1.533924225120986400e-03,3.254132249382455950e-03,-1.251884805028740917e-03,1.920888572931289673e-02
-2.688048021866801252e-01,-2.630796826768749264e-01,-2.731214297096553056e-01,-1.196353124404942988e-03,3.220630190597123955e-03,-1.417761373629790322e-03,1.084272935986518860e-02
-2.618413590685174097e-01,-2.615516889539867829e-01,-2.808102652084464301e-01,-1.882582334642787650e-04,4.347489975345805919e-04,-7.769703120407871807e-04,1.918026059865951538e-02
-2.900965730747353533e-01,-2.541139132269836232e-01,-2.632805233121350286e-01,1.009973100875960527e-03,-1.062304056289454894e-03,-1.195375079339845541e-02,3.852352127432823181e-02
-2.614137155428836734e-01,-2.582122187590068507e-01,-2.849346295091880754e-01,-3.238197100513318105e-03,9.870997480174615191e-04,-1.198509287657987003e-03,2.602835372090339661e-02
-2.816679306009466366e-01,-2.626084232248256378e-01,-2.593255685121182430e-01,-2.183823789923263186e-03,-8.433521831761627268e-04,3.824726654946538490e-03,2.229210920631885529e-02
-2.480227208555385587e-01,-2.744278448117343783e-01,-2.829416558895451739e-01,3.476187993678993195e-03,2.300141995929614290e-03,4.487942631014991968e-03,3.327269479632377625e-02
-2.481220768849564107e-01,-2.669785423115981216e-01,-2.876449256163036705e-01,6.001784661625078968e-03,-7.187387387909878207e-04,-7.872806198438510620e-04,3.583063185214996338e-02
-2.674078151542201853e-01,-2.556970274262344023e-01,-2.836600153451930839e-01,1.065651155813380352e-02,-4.461965773918944583e-03,-3.756453800333984724e-03,3.216125816106796265e-02
-2.834199352386257975e-01,-2.587334763303961171e-01,-2.614271669771299211e-01,-8.847892194184287136e-04,-1.528873570170647712e-03,2.627376014034271852e-03,2.408837340772151947e-02
-2.656071719140734033e-01,-2.578913253963557861e-01,-2.788494851699755417e-01,1.322119011438142346e-02,-8.881152455218121675e-03,-9.775319074973098238e-03,3.721241280436515808e-02
-2.574951569625834602e-01,-2.739664310487622823e-01,-2.740215431714833616e-01,1.328764539060071394e-03,-1.543777254618292245e-03,-4.646447405186441421e-03,1.869301125407218933e-02
-2.667797808436480622e-01,-2.526292042106774161e-01,-2.850884846989192312e-01,7.379094034727761570e-03,-4.305132414850368176e-03,-3.618140090509043560e-03,3.244617953896522522e-02
-3.070448166910212939e-01,-2.691823775051852552e-01,-2.300223257899163820e-01,1.845378241946634204e-02,-1.072953284257237121e-02,-4.582286846709567735e-02,1.100725680589675903e-01
-2.561887470560932356e-01,-2.471602931142516113e-01,-2.933361098911994036e-01,3.961887242772481332e-02,-1.960579148179394590e-02,-1.976365550428761317e-02,9.397210180759429932e-02
-2.684005894697251149e-01,-2.675862753650279924e-01,-2.682829588187915504e-01,-1.474863948557683224e-03,1.371679633101253711e-03,-1.099061415441551304e-03,4.046622198075056076e-03
-2.684395535231549612e-01,-2.680839797293562698e-01,-2.679629667841163521e-01,-1.838960820822882751e-04,1.077453192013104770e-04,-5.177702617075767501e-05,5.730871926061809063e-04
-2.851110477805592347e-01,-1.182677140835231566e-01,-4.041069375082336212e-01,8.647394972078936703e-02,-2.888109248519914532e-02,8.970940160786068651e-03,2.950040698051452637e-01
-2.620654407149331511e-01,-2.575728917117719452e-01,-2.846557341594699864e-01,2.226072476565383457e-03,9.335923575014910998e-04,6.320887309406453009e-04,2.550827153027057648e-02
-2.677502914429219505e-01,-2.684618479700875970e-01,-2.684572846983018235e-01,-2.937556663800663438e-04,3.002008997760275354e-04,-1.333215950119100054e-08,1.016034162603318691e-03
-2.685892368460714996e-01,-2.681917412080347396e-01,-2.675195071215500375e-01,-4.566295342851639169e-04,3.623859854722081848e-04,-3.245253244008339277e-04,1.487468951381742954e-03
-2.761722465502788881e-01,-1.756035599601033503e-01,-3.772029451747100914e-01,1.328373592249326718e-01,-3.026032229422737779e-02,-3.141735377971523191e-02,2.985419332981109619e-01
-1.867556003553606792e-01,-3.186819018605595022e-01,-2.939391116797458459e-01,-1.471538572750999765e-02,6.255646597435468581e-02,-4.525632645238465007e-03,1.649349480867385864e-01
-2.289839182970291875e-01,-2.844572984097563650e-01,-2.924558446978233195e-01,4.399636298749934685e-03,2.663820928403275601e-04,-1.502706327356825974e-04,6.036000326275825500e-02
-2.439123592617597203e-01,-2.734572165530967935e-01,-2.867469031625731191e-01,4.458676524826522478e-03,-9.167099808594777674e-04,-2.631089026602999401e-03,3.905232995748519897e-02
-2.355507185570074324e-01,-2.853656340117733947e-01,-2.834971597302941571e-01,3.121140010732187820e-03,3.419302793549325575e-03,3.617090983303342718e-03,4.995486512780189514e-02
-3.022566447823257230e-01,-2.551210837104119222e-01,-2.394386986612837553e-01,3.192750680067778235e-02,-5.091021214042023429e-02,-9.665636525606005613e-02,2.051046043634414673e-01
-2.606209791505033624e-01,-2.844790821805575076e-01,-2.597004521944628053e-01,2.714039247140305846e-04,-8.955433313581288163e-04,-2.056592179108354982e-04,2.438795566558837891e-02
-2.672596564576192324e-01,-2.679012865315945069e-01,-2.692266996573097204e-01,-1.988366867950005687e-04,-2.566363470629942162e-05,-6.166951785917012185e-04,2.068902365863323212e-03
-2.680293513268778849e-01,-2.690959428020913702e-01,-2.674344009178507564e-01,-5.166091910068843678e-04,3.824142761997487020e-04,-9.561864731508019818e-06,1.834612688980996609e-03
-2.928061351993649364e-01,-2.277055640432248396e-01,-2.836921465968849088e-01,5.971413049106601666e-03,2.049520251419827653e-03,1.066965860594152118e-02,6.472188979387283325e-02
-2.884885192111751318e-01,-2.361590696825103253e-01,-2.829270824772379678e-01,1.527801768920221620e-03,2.669813675856717861e-03,4.557065369643320193e-03,5.068491771817207336e-02
-2.402803048042033707e-01,-3.683448412904964941e-01,-2.300874906784378671e-01,1.317460270233237508e-02,1.294008769937079473e-01,1.856302146740351766e-02,2.638143002986907959e-01
-2.944762256723055804e-01,-2.157913346494980955e-01,-2.931278320466063070e-01,5.971581589200784627e-04,7.892048976213429786e-04,1.034736420508665031e-02,8.006981015205383301e-02
-3.191310008477882265e-01,-1.959351437380673078e-01,-2.898770225070686490e-01,3.505446525704403789e-03,-4.628410351933656870e-05,2.088204107722310687e-02,1.173630952835083008e-01
-3.141433126670560294e-01,-2.080320564267710559e-01,-2.965509694289245601e-01,-1.710497129066425315e-02,-6.058803397192002137e-03,3.506061918987071063e-02,1.199081018567085266e-01
-3.003795143100475018e-01,-1.998963209191546575e-01,-2.955416324395609973e-01,9.777926848622039979e-03,4.685571963761032271e-03,2.245430979363057314e-02,1.072353795170783997e-01
-2.538964525455849053e-01,-2.652955120323997606e-01,-2.861466073643711971e-01,-2.222738913776519439e-03,4.625045858556178996e-05,-7.332589139015372164e-04,2.861521951854228973e-02
-2.628787785716383274e-01,-2.640496728715189256e-01,-2.780198026361943020e-01,6.496985531086213895e-04,-7.101859970895282436e-04,-1.850776908559691614e-03,1.503158733248710632e-02
-2.635387539049279804e-01,-2.833553318751902972e-01,-2.578920318677727641e-01,-3.001121607469096984e-03,-2.825907764969484356e-03,8.155709194939988983e-04,2.427867054939270020e-02
-2.523808040794564000e-01,-2.691419181750326350e-01,-2.823745444567876683e-01,3.843710476544258230e-03,-1.560732510342554245e-03,-4.234842679419084308e-03,2.798682823777198792e-02
-2.844435856883463787e-01,-2.920054402535516846e-01,-2.299583441443597553e-01,9.243423950524853612e-05,4.904401862218312445e-03,9.549154377565100514e-04,5.926848575472831726e-02
-2.653145729337488823e-01,-2.538244440471866814e-01,-2.863637057032404343e-01,-2.319323707944337138e-03,-4.637962738234668739e-04,2.428107622226308997e-05,2.887440286576747894e-02
-2.585224016730736096e-01,-2.589541688126962282e-01,-2.855235335519119566e-01,8.095322635720547666e-03,-3.245246478206775635e-03,-2.294845760889928105e-03,3.100944869220256805e-02
-2.689575644136731891e-01,-2.625287527248361674e-01,-2.763264257131594626e-01,6.473812757410822225e-03,-5.483460753280535067e-03,-4.869967635634579912e-03,2.073857001960277557e-02
-2.495065525846268950e-01,-2.664403915479364171e-01,-2.860785217371601408e-01,6.452866724739099273e-03,-1.484473425345094475e-03,-2.291461836254756260e-03,3.394468873739242554e-02
-2.614438411293623643e-01,-2.589833027530437093e-01,-2.844573638075257316e-01,-8.484404647735521113e-04,8.719890814154185581e-04,-2.885260764307503957e-04,2.443343028426170349e-02
-2.664042725718683835e-01,-2.566472076211059328e-01,-2.812114671700481350e-01,-1.834238355095392081e-03,2.053573202773269473e-03,-7.702857896930257083e-04,2.198756299912929535e-02
-1.982970223641896124e-01,-3.127121360861829791e-01,-2.977063177961680185e-01,-2.601347449744434437e-02,4.081575901211196428e-03,-4.028206603719610215e-03,1.171659529209136963e-01
-2.159185452794282201e-01,-2.970449527219901076e-01,-2.926234459722337755e-01,5.443901630196539172e-03,-1.792072449620107227e-03,8.128936548590883133e-05,7.962980121374130249e-02
-2.908181826430249473e-01,-2.288552699049522798e-01,-2.847695834947982507e-01,-6.574331527596385082e-04,-2.193741977143523134e-03,4.375657607597099180e-03,5.978605523705482483e-02
-2.215547013752299232e-01,-2.913235819825459871e-01,-2.924888678385101359e-01,-9.291317794950233570e-04,-3.217153296796016523e-03,1.081696865719924613e-03,7.062227278947830200e-02
-2.217175878251424481e-01,-2.848425341953606527e-01,-2.978925884863358742e-01,-9.500529391292745346e-03,-5.688004347314722965e-03,1.965214936231003164e-03,7.320022583007812500e-02
-2.092953752972080972e-01,-2.912973805911976966e-01,-3.014598978407719843e-01,-1.784848067427935100e-02,6.068989838772830166e-03,-1.731233727697045408e-03,9.346735477447509766e-02
-2.578862597421466285e-01,-2.657067482512745493e-01,-2.817562948467061124e-01,-1.926493330056345144e-03,7.117887614448319741e-04,-2.856065364579331214e-03,2.194057218730449677e-02
-2.574588366418816832e-01,-2.610159789154012366e-01,-2.854917783493363115e-01,-3.142367194299017924e-03,-5.298202230080844579e-05,3.057026974182623907e-04,2.699433453381061554e-02
-2.922982883726255587e-01,-2.846475626071277576e-01,-2.285431701789523706e-01,8.162796461059605583e-04,5.541087117414020225e-04,-3.715975404851979032e-03,6.066153198480606079e-02
-2.699637976094014236e-01,-2.686830228409574084e-01,-2.659426191058099076e-01,-1.207397115919199397e-02,-8.857363204504491508e-03,1.333967616306828974e-02,3.491707146167755127e-02
-1.910396351388614911e-01,-3.013826040329125600e-01,-3.043458750143115954e-01,-8.606727476351066011e-03,5.259341350650748731e-03,-2.616429651778591145e-03,1.133008152246475220e-01
-2.440133946630812511e-01,-2.768950162785970837e-01,-2.838440959111572237e-01,-1.616070609175485062e-02,-8.068214766761660009e-03,6.863011497512973118e-03,4.978035762906074524e-02
-2.798754854654273982e-01,-2.937133735310072935e-01,-2.328213400298687896e-01,3.884920323169484269e-04,-1.794440761382735949e-02,6.182266131161085962e-03,6.432595849037170410e-02
-2.448648625914150723e-01,-2.734262420959789885e-01,-2.866300063182535274e-01,3.633850894822752454e-03,1.475091455957086963e-03,1.213105755040577553e-04,3.759516030550003052e-02
-2.750169841019137751e-01,-2.490278679548590945e-01,-2.837102168270403957e-01,-1.767929668510867178e-02,-4.200364597252774848e-03,7.957545550223323397e-03,4.644895344972610474e-02
-2.782841320376212568e-01,-2.468723558804352958e-01,-2.784760467228504233e-01,-5.597358158169156786e-03,-6.291214695544649488e-03,6.781834803361717900e-03,3.665343299508094788e-02
-2.448397302191826219e-01,-2.859023288676719732e-01,-2.740799283111364781e-01,-3.444170514955816574e-03,3.574926645306015192e-03,-4.045048556075267303e-03,3.825522214174270630e-02
-2.792692727765922478e-01,-2.363117915838918170e-01,-2.885417403695951788e-01,-1.267931312871475001e-02,-5.353853806831114504e-03,1.392178879459023827e-02,5.898627266287803650e-02
-2.439480851629441949e-01,-2.726673714981649455e-01,-2.898556691866924773e-01,3.640806866687408376e-03,1.328000567322711132e-03,2.247605873386240675e-03,4.091555997729301453e-02
-2.212471586531221113e-01,-3.174838622464624671e-01,-2.760950600036930491e-01,-1.903755677558445145e-02,4.367843611276980842e-02,-1.158389691903560781e-02,1.191833764314651489e-01
-2.644161494900569287e-01,-2.862871795748981318e-01,-2.549805389432471259e-01,6.285903775154097180e-04,-2.051429690760513472e-03,1.174278008904935445e-04,2.806405350565910339e-02
-1.307761310049048442e-01,-3.149867088363481615e-01,-3.355502186027214950e-01,6.248547711905681756e-02,1.825564369275531167e-04,8.907627719133950949e-04,2.232939600944519043e-01
-2.947342788426557392e-01,-1.907823899572887449e-01,-3.260258049418785498e-01,5.455910907858717296e-02,-3.641147724688122145e-02,-1.014832522950713661e-01,2.425736933946609497e-01
-2.530647439239729346e-01,-2.826708521055662504e-01,-2.681297217092121210e-01,1.818442842222067236e-03,-3.746382662285885345e-03,-4.026535776696890320e-03,2.753407321870326996e-02
-2.363190523301071932e-01,-2.871002300199734791e-01,-2.786159236530426075e-01,-5.416196749752869022e-03,7.882880204263561022e-03,-7.927827405773395925e-03,5.179618299007415771e-02
-2.429102348294740477e-01,-2.860361663035401181e-01,-2.790888855822283299e-01,-1.080254313958644262e-02,1.333547852188884768e-02,-9.050628683433904753e-03,5.232431739568710327e-02
-2.240346304401743815e-01,-3.009568580588274922e-01,-2.801631179266807492e-01,-6.761857941741945301e-03,3.881603046699895476e-02,-1.797662737949022246e-02,1.018656268715858459e-01
-2.247587706612801106e-01,-2.861945426193410191e-01,-2.919057002530897060e-01,3.615523181107831684e-03,2.388303565956865181e-03,1.142177571243410726e-03,6.494676321744918823e-02
-2.249491501121954062e-01,-2.877196781105805234e-01,-2.896710966162068246e-01,-5.645283812687596110e-03,7.737323155429055854e-03,-5.863993841449595401e-03,6.666936725378036499e-02
-2.741306637100130450e-01,-2.749413272618432824e-01,-2.559178857898308235e-01,-4.143172173455850898e-03,-2.287685931276523584e-03,1.855074202869640750e-03,2.060701139271259308e-02
-2.711978274565680080e-01,-2.672060841652960095e-01,-2.673420388560882044e-01,-2.183540744245487594e-03,2.787336231857401401e-03,-1.569938104933749296e-03,7.772721350193023682e-03
-2.634860012384162564e-01,-2.805173978233495014e-01,-2.612868839305617086e-01,-1.779408578005704398e-03,-4.869136914226690699e-04,6.633993946118721050e-04,1.854424551129341125e-02
-2.442221756687111833e-01,-2.738148329604212505e-01,-2.865654709339715001e-01,-3.336366807541678390e-03,8.905873655618486715e-04,-2.153426159530988631e-03,3.827942907810211182e-02
-2.784524101078951763e-01,-2.649983360663409893e-01,-2.611883076884008448e-01,-2.912201674356038137e-03,8.777813998127132139e-04,-1.380652960684273243e-03,1.674101874232292175e-02
-2.145850473726524932e-01,-2.948887790895016181e-01,-2.940934531959785159e-01,1.210635053502883926e-04,1.889659686864672908e-03,-5.343262514404794467e-04,7.998166978359222412e-02
-2.386564892227070744e-01,-2.842924334761066096e-01,-2.827382403579110082e-01,-3.572519459214340727e-03,-3.132805496199776805e-03,3.656962064149237718e-03,4.606495425105094910e-02
-2.632751877371825033e-01,-2.667021158040690509e-01,-2.761899139977797568e-01,-1.670838373529559204e-02,-1.492692974266731157e-02,2.101829606099736569e-02,5.445670336484909058e-02
-2.756798912917901023e-01,-2.656170417260034222e-01,-2.625877967598799212e-01,-2.529118732972813425e-03,1.293114616390310910e-03,-1.809348951211748810e-03,1.322675682604312897e-02
-2.725440229012702775e-01,-2.663789243466291867e-01,-2.654267016969047988e-01,-1.276521599634367413e-03,5.959221511830824691e-04,-3.120894813574217903e-04,7.143654860556125641e-03
-2.789004349815609185e-01,-2.700492442444595853e-01,-2.566906648208799324e-01,-4.627760169476994798e-03,4.389560968067338781e-03,-6.680744222359541983e-03,2.511941082775592804e-02
-2.658074409564564755e-01,-2.531999842406482126e-01,-2.862809473252228565e-01,-2.032211230669157733e-03,1.655576582570358240e-03,-6.609909058612554447e-04,2.929427288472652435e-02
-2.901458452496919471e-01,-2.484592205447139213e-01,-2.608678843043796824e-01,-5.996902717027664809e-03,5.914734783706900208e-03,-2.186628466580878630e-02,5.497016012668609619e-02
-2.564770247848390805e-01,-2.471370713120207008e-01,-2.956088170429894135e-01,-4.060373676939236370e-02,2.039166165786907015e-02,-1.748546010085649804e-02,9.536611288785934448e-02
-2.624299722461529427e-01,-2.626682571695743706e-01,-2.821820519684047346e-01,-2.539690453911848389e-02,1.275112991337410025e-02,-7.072450110284397157e-03,5.439058318734169006e-02
-2.296585849775502897e-01,-2.839699333234247391e-01,-2.921174739633929374e-01,-3.519853407232635505e-03,4.737123814911475307e-04,-6.193306670212726014e-04,5.914051830768585205e-02
-2.358858778700078374e-01,-2.832327885411212165e-01,-2.879153463660241719e-01,-3.365997861744749690e-03,-7.078351951144570093e-04,9.170152029223063196e-04,5.023322254419326782e-02
-2.614471088763203888e-01,-2.592810922728256418e-01,-2.837649092017525687e-01,-1.060162194826542179e-03,-3.921810715831141833e-04,1.238300464996263187e-04,2.355834841728210449e-02
-2.882474809428427487e-01,-2.879040114932521766e-01,-2.322756725737102346e-01,-9.704731077353526657e-04,4.993494357078111234e-03,-8.855174210308862717e-03,5.853724852204322815e-02
-2.473724419597537194e-01,-3.025488584920131840e-01,-2.501633779058414775e-01,-5.880157726658467345e-03,4.010864266551497637e-02,-4.541575130512272816e-03,8.882538229227066040e-02
-2.425949084724162985e-01,-2.777465056635956553e-01,-2.838505132396568209e-01,-5.477025815515654955e-03,2.402872541747859587e-03,-5.218601286230454064e-03,4.094478487968444824e-02
-2.859975815148579348e-01,-2.947247040472050772e-01,-2.292010972382983180e-01,-6.712697338598168275e-04,1.327450109416652632e-02,-1.420349014401183158e-03,6.583095341920852661e-02
-2.555373437574669504e-01,-2.816925994536317868e-01,-2.664085583036737703e-01,1.069950769676485157e-03,-2.179393110867598911e-03,-2.459154582525207612e-03,2.353226020932197571e-02
-2.660349738981026557e-01,-2.542572327976634350e-01,-2.844728323938077730e-01,-2.258567196438759309e-03,-1.474412816924281075e-03,5.009774336299004311e-04,2.680306136608123779e-02
-3.578623115653126741e-01,-1.443369522315386677e-01,-3.188443758299216446e-01,2.515953358534131490e-02,-2.443624824552742200e-02,-4.316053732099948970e-02,2.192328721284866333e-01
-2.860190503014766739e-01,-2.818333835966622125e-01,-2.358552753891067777e-01,-7.547626688496346728e-03,4.792414535405312148e-03,-8.665328282870707680e-03,5.281117931008338928e-02
-2.275617453445866190e-01,-2.695815959052189625e-01,-3.211417915466264761e-01,5.676975683377261106e-02,-3.390230683311913282e-04,4.821334753410567477e-03,1.277856379747390747e-01
-2.648821171743964142e-01,-2.543157605810919542e-01,-2.863636909527511598e-01,1.690014578795798498e-03,-2.095680944575417388e-03,-1.000558680038488978e-03,2.871994674205780029e-02
-3.564242371207766991e-01,-2.254640114986244670e-01,-2.619228217435659034e-01,2.326380626686698483e-02,-3.309560039491830918e-02,-1.299906058619428872e-01,2.632630169391632080e-01
-3.147282228657385383e-01,-2.808781127210046025e-01,-2.011267857924939340e-01,-7.115809127820872659e-03,3.042384468965306232e-02,-4.619581314991281357e-02,1.397733539342880249e-01
-2.941576642841175482e-01,-2.869370954856472755e-01,-2.280893373117453549e-01,-8.753710807506009809e-04,2.176440995333180865e-03,-1.022490430860694029e-02,6.534726172685623169e-02
-2.904234563078805231e-01,-2.610440016767834881e-01,-2.581335529434045095e-01,9.866008725753334929e-03,-1.025376969248291935e-02,-2.263631546990178475e-02,5.569355934858322144e-02
-2.956319474418740434e-01,-2.861897770012769016e-01,-2.233341122147195490e-01,-2.886799851625238434e-03,-3.208459415242388094e-03,-4.279476132016505306e-03,6.887894123792648315e-02
-2.544531766698734376e-01,-2.652063291532115175e-01,-2.859151743839195570e-01,2.599857076502315456e-03,-3.384292854523551888e-05,-9.337473861168129642e-04,2.810816280543804169e-02
-2.572527234923893125e-01,-2.742138298222903114e-01,-2.744305247778617840e-01,1.193641783165074301e-03,-1.363716902307798851e-03,-4.079729134721178478e-03,1.873999834060668945e-02
-2.576952549594453967e-01,-2.671616112785588082e-01,-2.805557144413540760e-01,1.546964993569759084e-03,-8.872039976024638898e-04,-2.533053122098716074e-03,2.060575224459171295e-02
-2.916128044125900209e-01,-2.861526239641314362e-01,-2.261659864026222266e-01,-2.298471997346950534e-03,3.752022769934544762e-03,-2.531598021861826940e-03,6.350635737180709839e-02
-2.917611567938035999e-01,-2.948920625922975547e-01,-2.170433752824130758e-01,-3.728890346115935721e-03,6.628278927613175109e-03,-3.686521907903470181e-03,7.772240042686462402e-02
-2.699496272063463542e-01,-2.611117102927386080e-01,-2.750832431124768940e-01,-5.445428349024910089e-03,-5.029653446810464744e-03,5.023069817510284092e-03,1.975796744227409363e-02
-3.190971703225535805e-01,-2.685887028776753338e-01,-2.080332123973039904e-01,-1.188504977601660510e-02,5.893698671134888281e-03,-4.512898901391089457e-02,1.261526197195053101e-01
-2.594242810138238098e-01,-2.676277861362301169e-01,-2.775584732944997302e-01,1.180066855271123686e-03,-1.282898250994012014e-03,-3.264365952475481274e-03,1.698428392410278320e-02
-2.499619774680520434e-01,-2.726704084426377350e-01,-2.828521702796178983e-01,3.336698228018481188e-03,-1.416783227915659020e-03,-3.861884041850767099e-03,3.057315573096275330e-02
-2.220712466594917389e-01,-2.944296890348823137e-01,-2.864084349329488188e-01,1.216278258956060695e-03,-3.859017610624353341e-03,-6.153155813872229372e-04,6.906467676162719727e-02
-3.068334407330932656e-01,-3.124863581500948451e-01,-1.914631233275747302e-01,-1.217607769245534349e-02,3.471230287570021417e-02,-3.100542832233802587e-02,1.446998864412307739e-01
-2.668808850896472462e-01,-2.814023804480432212e-01,-2.575439863463806489e-01,-3.693132327224097657e-03,-1.116475693523946841e-03,1.159316231665706879e-03,2.196193300187587738e-02
-2.480462394467264631e-01,-2.781269148454317830e-01,-2.773520070640063673e-01,-4.287733680723791740e-03,4.968646252173684885e-03,-6.483042365991723531e-03,3.372600674629211426e-02
-2.742340959140095458e-01,-2.747547564943533249e-01,-2.555100815461473496e-01,4.809147866214088900e-03,-2.506970310965476317e-03,-2.212071639480101600e-03,2.152967453002929688e-02
-3.208465676262010624e-01,-1.506838197209995622e-01,-3.275559848035999311e-01,5.179342711378961787e-03,-1.137866959212152813e-03,-5.053179405789058609e-02,1.946453601121902466e-01
-2.649936711722587490e-01,-2.846038043288068309e-01,-2.550943651967522707e-01,-5.981919964328641500e-04,-1.920261962256636715e-03,7.185212942645149503e-04,2.627479471266269684e-02
-3.090605318897798326e-01,-1.914704945889496579e-01,-3.023613601054214173e-01,2.339193479951974172e-02,-6.917234154868226285e-03,-2.096338019139807468e-03,1.219951510429382324e-01
-1.985797671683616761e-01,-2.914063557839835505e-01,-3.145639893039543500e-01,-3.104738412394208308e-02,-6.364608224640263970e-04,7.170850087633103345e-03,1.197914630174636841e-01
-2.344200023345470729e-01,-3.424638375696241188e-01,-2.135856537790223886e-01,2.257241280681094794e-02,-1.063167428607560694e-01,-6.221414161671301978e-03,2.234121114015579224e-01
-2.949993512508946591e-01,-2.058943411785801869e-01,-3.018404561398304597e-01,1.834109457041823918e-02,-2.777477577568175562e-03,-5.075904597422752117e-04,9.812840074300765991e-02
-2.174402219600282682e-01,-2.919231110226290227e-01,-2.949465287788654022e-01,-1.570672353073037123e-03,-1.628419502576944128e-03,4.117462556892041822e-04,7.614394277334213257e-02
-2.929824087424816037e-01,-2.164827606329856602e-01,-2.986960080657140026e-01,6.573098310883146791e-03,-1.591953763129178674e-03,-1.543670628556869989e-04,8.036927878856658936e-02
-2.226263512159794566e-01,-2.927457419316510379e-01,-2.866082261978261103e-01,6.300167480316648831e-04,-3.769750934615212143e-03,-1.885071285674338234e-03,6.766478717327117920e-02
-2.480708206044348607e-01,-2.843090451057050383e-01,-2.668164864836339856e-01,-9.051367574941527813e-03,-1.885524173044516097e-02,9.702334829174983841e-03,5.079416558146476746e-02
-2.658346342181727162e-01,-2.574242134666792636e-01,-2.818527417868979534e-01,-2.116870241994734878e-03,-2.941012050808538159e-03,6.478923900953415102e-04,2.242064476013183594e-02
-2.983840602204236303e-01,-2.079064456790461479e-01,-2.998954053127036445e-01,3.019283069018557138e-03,-2.817086494337367377e-03,-2.241862626061133339e-03,9.160491079092025757e-02
-2.546487773269394683e-01,-2.656339770521626287e-01,-2.844739436357758278e-01,-2.308063472548901873e-03,-4.247072062960744864e-04,3.327204480079083313e-04,2.644682303071022034e-02
-2.350026577768980218e-01,-2.826638867551422574e-01,-2.908470738087831631e-01,-3.253095420523441708e-03,-2.231233282509799409e-03,2.951941436944971985e-03,5.292828008532524109e-02
-2.658387923347992898e-01,-2.752572282818726568e-01,-2.638825009341191907e-01,-1.704869365098062159e-03,-6.016928347945288305e-05,5.600533487925000086e-04,1.098320540040731430e-02
-2.578657659152608916e-01,-2.577146807710945509e-01,-2.862880487175765709e-01,-9.638384627292242296e-03,-2.827215566795477416e-03,2.823324221310903517e-03,3.374509513378143311e-02
-2.594970260734912881e-01,-2.908359017102420396e-01,-2.588562257265152322e-01,-1.650197246826944075e-02,-2.764305619012674339e-02,1.756451263862249257e-02,7.097545266151428223e-02
-1.939813224341685738e-01,-3.043426811687967026e-01,-3.000469874759681965e-01,-2.406047442618663643e-03,-1.676180094045839203e-02,6.706989890469728559e-04,1.121855378150939941e-01
-1.558905750688469594e-01,-3.257804671772956406e-01,-3.097471929882362751e-01,-5.476188324204257774e-02,-5.667752038828735572e-02,1.688726021635314142e-02,2.142076194286346436e-01
-3.109034464636577511e-01,-2.063023990036896016e-01,-2.663132599631707342e-01,5.380160898569158467e-02,-3.755376437519804961e-02,-8.992350343836522097e-02,2.131639868021011353e-01
-3.003214017616367415e-01,-2.301337249925497208e-01,-2.784881660625850297e-01,-3.367447157947636022e-02,-5.150861688252011440e-03,3.631497327069888731e-02,1.063410192728042603e-01
-3.162760296125894932e-01,-2.023257081990489370e-01,-2.890367104579182334e-01,1.917811254427606430e-04,7.102811691348991183e-04,1.743059141902700282e-02,1.074049696326255798e-01
-2.601475040008554007e-01,-2.616466137375985657e-01,-2.829390518417046474e-01,-6.923644840025976578e-04,-3.657814757464372267e-04,1.248333295297688337e-03,2.222722396254539490e-02
-3.429630389673306579e-01,-1.025345824027410757e-01,-3.339992281724230572e-01,-5.277671829682230309e-03,4.602774705502487608e-03,-1.045358078128554762e-03,2.363925427198410034e-01
-2.980938681290671854e-01,-1.972302772879825361e-01,-2.968045956892785275e-01,-5.608415668420088651e-02,-3.979639595187035167e-02,6.943094358034460067e-02,1.967094540596008301e-01
-2.620393834713352632e-01,-2.640382013108080739e-01,-2.784338571159090114e-01,-5.432631077137133752e-04,-4.809786496997326679e-04,1.727264037755951850e-03,1.582827232778072357e-02
-3.715492342217507349e-01,-1.637949188973351067e-01,-2.817389009005741296e-01,-5.032390162385141918e-02,-3.418705731854686236e-02,7.440962527661093562e-02,2.455267757177352905e-01
-2.739769244699139517e-01,-2.422947035563572382e-01,-2.893417935386229933e-01,3.634173148998802103e-03,-1.889887717454047378e-03,-1.133974615902133163e-03,4.219987988471984863e-02
-3.226557325641312701e-01,-2.201737118041252605e-01,-2.780296745201496500e-01,-6.896861167688652684e-03,1.800512718239535110e-03,4.875861221139426299e-02,1.233098283410072327e-01
-2.988889114843894523e-01,-2.181809401460928777e-01,-2.851193173980146600e-01,6.964807400151570675e-03,2.879441245575890297e-03,2.115591335085867733e-02,8.429222553968429565e-02
-3.302892745311205025e-01,-1.579318078806535020e-01,-2.932147956287862178e-01,-1.877596468257946346e-03,-2.195489324442260505e-03,7.116524005416362264e-02,1.997750252485275269e-01
-2.978775457177267882e-01,-2.362925970780175300e-01,-2.755013000074460483e-01,3.897126577911596938e-03,1.708609396332601759e-03,2.155490947881771868e-02,6.605698913335800171e-02
-3.465183190445493278e-01,-2.803965079461810950e-01,-2.097582432613909198e-01,4.283028091557712635e-02,-6.654129851705475884e-02,-1.333368576125347205e-01,2.935221791267395020e-01
-2.638192706447920477e-01,-2.657473588965826305e-01,-2.752794359368641586e-01,-9.814213611905628180e-04,-6.480740338728896302e-04,6.206056078746286560e-04,1.087482087314128876e-02
-2.625624519081600772e-01,-2.626815455562145907e-01,-2.787678233655606075e-01,-3.513727820835508414e-03,-2.328670020469188542e-03,2.616407288994647938e-03,1.829048991203308105e-02
-2.988314672689109663e-01,-2.317607943052487074e-01,-2.758779977297027286e-01,9.966678590572282566e-04,2.840934364949812378e-03,1.782928395150245454e-02,6.683319061994552612e-02
-2.741417085347411797e-01,-2.927070445669707199e-01,-2.062762047383472908e-01,-6.022804293256757424e-02,-9.742825344625710704e-02,8.198353904529016856e-02,2.563850581645965576e-01
-2.496125261991040956e-01,-2.716387760618652059e-01,-2.909501576837901782e-01,-8.062698130782555705e-02,-1.110207812093654128e-01,4.726207715102841156e-02,2.538966834545135498e-01
-2.103317752420092723e-01,-2.822708066354299161e-01,-2.973856155576302673e-01,-6.927940789292776069e-02,-7.659490839439252186e-02,5.390715708766780079e-02,2.172745317220687866e-01
-2.811253736712017171e-01,-2.513987539576084118e-01,-2.695851217956244383e-01,1.331365903828074342e-02,-1.486537618333683489e-02,-1.461488050498130006e-02,5.009271204471588135e-02
-2.861398172203757362e-01,-2.960670085834883891e-01,-2.208720306723798710e-01,4.128407128492921768e-03,-3.581255933363586275e-03,1.527895463418103188e-03,7.143507152795791626e-02
-2.981178445604724669e-01,-3.095406222353009329e-01,-1.932826826949148868e-01,5.975800855817169598e-03,-2.041549335015545308e-02,-7.560070068328206272e-03,1.176748573780059814e-01
-2.577985424712829765e-01,-2.802664312194393381e-01,-2.673936737504947203e-01,1.135520759368604778e-03,-1.297883924336396813e-03,-2.766965213679964050e-03,2.032683603465557098e-02
-3.093234129186857029e-01,-3.490026716987413291e-01,-1.710731982911471716e-01,5.430353974396301409e-02,-1.236020979187373303e-01,-8.339383162941778338e-02,3.189292848110198975e-01
-2.188258333121577970e-01,-2.939408069446526328e-01,-2.923044852053727771e-01,-2.564920829237957861e-03,1.834144789535380876e-03,-6.335381851452807304e-04,7.451883703470230103e-02
-2.611602855114470434e-01,-2.635459070355867794e-01,-2.790992590201148427e-01,2.207251404398313799e-03,-1.010847418162738424e-03,-2.549644945945640177e-03,1.794117502868175507e-02
-3.007532059449784523e-01,-2.020979754298397046e-01,-2.992665444162292410e-01,-6.007952265691582014e-03,-4.679848674792658723e-03,-1.804417416931708776e-02,1.036299392580986023e-01
-1.929936007043311086e-01,-3.535322945626729885e-01,-2.355802493898296601e-01,1.092695248078384695e-02,-1.099985851219929811e-01,-7.364146215856251509e-03,2.399363368749618530e-01
-2.752634450940263933e-01,-3.417560492961860263e-01,-1.744989542380818159e-01,8.120937761651942852e-03,-9.305498380071994258e-02,1.339991438055428315e-03,2.178434431552886963e-01
-2.529130690026092920e-01,-3.730146108667019011e-01,-1.848951176567644461e-01,-5.090739635031713006e-02,-9.611722685835484559e-02,6.613683523174276879e-02,2.753767967224121094e-01
-2.771988008594024611e-01,-2.892416959517147834e-01,-2.354928723033885007e-01,-5.855225058697561928e-03,-1.671940510618419654e-02,4.413551389236360957e-03,5.819433555006980896e-02
-2.617546127523607824e-01,-2.831590955857009595e-01,-2.587519362050840210e-01,-1.561656564652068617e-03,-3.220188846405485326e-03,5.263061207794602573e-04,2.388921938836574554e-02
-2.981232706769084140e-01,-3.109743208623788613e-01,-2.049906706951600821e-01,2.878867522285132041e-02,5.108988292102972784e-02,4.081489729017160478e-02,1.592172831296920776e-01
-2.783759962871632521e-01,-2.829847591272507956e-01,-2.446825158835365110e-01,5.301602786489332739e-03,6.744789890694611982e-03,5.573556286164125725e-03,4.032080993056297302e-02
-2.891897407987508162e-01,-2.889684545213271338e-01,-2.236655475488834866e-01,5.095769501904500592e-03,5.272736541360999521e-03,8.184008971382206871e-03,6.812641769647598267e-02
-3.218886685948418869e-01,-2.288587024017579297e-01,-2.694874588323480924e-01,-8.901132395843185455e-03,-1.477514082505324705e-02,-1.410279981137820549e-01,2.590074837207794189e-01
-2.655325893470301124e-01,-2.535644610008551125e-01,-2.860313288514118590e-01,-1.892431750020012217e-03,2.498587235002323898e-06,5.364394465658547072e-04,2.864215709269046783e-02
-2.849878048660867691e-01,-2.780404783628402932e-01,-2.406433321446317941e-01,6.686178755170464443e-03,2.964820912498298232e-03,7.424613640686503896e-03,4.508305713534355164e-02
-2.556706105727044598e-01,-2.762922105105108384e-01,-2.700553231472217486e-01,-1.920572797763264467e-03,-5.093201747619602836e-03,4.870257836838246500e-03,2.226164191961288452e-02
-2.386670574939862566e-01,-2.831492647455129963e-01,-2.838531084323322462e-01,-3.586692933060303332e-03,-3.147731075810508445e-03,3.632770475046746307e-03,4.602585732936859131e-02
-2.875894273109637078e-01,-2.848055803927964091e-01,-2.321051480640954068e-01,4.042576585037907858e-03,4.627698254161369436e-03,3.629122011289760176e-03,5.553900450468063354e-02
-2.910566948547181343e-01,-2.669202325351716643e-01,-2.454612763649144658e-01,1.275376523207618663e-03,-2.359854218055584970e-04,1.336534460080738423e-02,4.584695398807525635e-02
-3.090779461367266223e-01,-1.812143247639766974e-01,-3.278837827239988734e-01,4.189815985087012862e-02,-7.897947322065444406e-03,-2.024822685992357443e-02,1.605952084064483643e-01
-2.838413037832485664e-01,-1.622573037242734939e-01,-3.674969095242875405e-01,6.740358176783559085e-02,6.833820712993647628e-03,1.725325325926787418e-02,2.159049957990646362e-01
-2.934007037422236563e-01,-1.543755509840699092e-01,-3.694425773183258599e-01,9.811895361577689656e-02,2.230402449770028939e-02,1.434413317867452853e-02,2.582125961780548096e-01
-2.515831813805576300e-01,-2.737596801850672446e-01,-2.804727054771090078e-01,-1.933778338488905887e-03,-1.750779382750774485e-03,3.086577600534944326e-03,2.710587158799171448e-02
-2.510484315666733912e-01,-2.735277732187728628e-01,-2.821474472498508579e-01,-1.935295503124954096e-03,-1.743840261201565125e-03,4.333885533959468649e-03,2.915631793439388275e-02
-2.511410713317522303e-01,-2.757461582920002208e-01,-2.760805313102460135e-01,-1.990841878708005368e-03,-3.110898739235467506e-03,4.743779446139987852e-03,2.687346562743186951e-02
-3.162014621179463636e-01,-1.792753984736193407e-01,-3.200263128712994010e-01,3.672660007486897027e-02,-1.111382170174845738e-02,-3.094201412920697530e-02,1.630227118730545044e-01
-2.673934170037984837e-01,-2.708718527307972246e-01,-2.668414654162758470e-01,3.977231963026023201e-04,-5.589681647281486213e-04,-5.780507024909511352e-04,4.091260023415088654e-03
-3.065774960335002630e-01,-1.913928644187542216e-01,-3.117935291876902104e-01,2.893960513486396741e-02,-5.974436877389886942e-03,-6.718137772085143976e-03,1.290367990732192993e-01
-2.650383177878143925e-01,-2.620082212374455488e-01,-2.762205190987555015e-01,3.755284561447304673e-03,-2.822767867451734473e-03,-1.013043341113363397e-03,1.540764700621366501e-02
-3.916896920807972915e-01,-1.006626844496759932e-01,-3.265612926024556995e-01,4.524733294828353625e-02,-4.549514786517934450e-02,-5.363289913742647769e-02,3.016043007373809814e-01
-2.185518241992086830e-01,-3.048953022666835988e-01,-2.933681547434753289e-01,1.149552427233174051e-02,-3.410496085862824156e-02,-1.027520052082736210e-02,1.039009317755699158e-01
-1.767677108739021952e-01,-3.769134017679115489e-01,-2.625841227486681029e-01,2.954473914589683670e-02,-9.802757423090069366e-02,-2.571365148769026721e-02,2.523438930511474609e-01
-3.070868095806175146e-01,-2.121619059671334406e-01,-2.827969209293508812e-01,-9.319997641123806825e-03,-7.993495766495852667e-03,-5.335870004982525006e-02,1.276273876428604126e-01
-2.424184111792480889e-01,-3.097507933460801333e-01,-2.658447387927410643e-01,2.359031663924272826e-02,-5.885417282054999921e-02,-1.254621030806750588e-02,1.266422718763351440e-01
-2.433397547017916718e-01,-2.809280342032592914e-01,-2.760087201276055779e-01,1.275076882420709927e-02,-1.925615287881824941e-02,-1.051886261009227046e-02,5.642919242382049561e-02
-2.647107477018934008e-01,-2.697595132636419479e-01,-2.695895971548133430e-01,9.377457033588638014e-04,-8.446445970722143417e-04,-2.999219240084857394e-03,7.511681877076625824e-03
-2.893615827535070406e-01,-2.732151845449644623e-01,-2.431183646547138144e-01,-2.766520897697315965e-03,1.239363490394951046e-03,-3.893137768170454836e-03,4.153935983777046204e-02
-2.473202342154639521e-01,-2.803698796039531538e-01,-2.815015748941716578e-01,2.607262885859714177e-02,-4.303987307772524917e-02,-2.010578865996253198e-02,9.970119595527648926e-02
-1.927087756840949184e-01,-3.124456184825994964e-01,-2.880956080175021694e-01,1.127542380215360886e-02,-4.622524590972641734e-02,-4.641261455411831334e-03,1.373702734708786011e-01
-2.495091738679658111e-01,-2.828185455297256290e-01,-2.732122412564366720e-01,1.478705549652355828e-03,-2.645231829130230677e-03,-4.063338509977696897e-03,3.096609376370906830e-02
-2.814165134698338733e-01,-2.955352313909399564e-01,-2.254715715001954224e-01,-1.550866414399223894e-04,1.630841601824921383e-02,-8.104198923750602010e-03,7.151255011558532715e-02
-2.629049530276327262e-01,-2.812098831418360367e-01,-2.597444117874553315e-01,2.071389882967354483e-03,-2.645479187644465564e-03,-1.110995630245323199e-03,2.098770067095756531e-02
-2.725063001099976567e-01,-2.651072635381168663e-01,-2.665420367172804950e-01,-2.346039057353916171e-03,2.991373195678041774e-03,-3.119322221155451918e-03,1.089658308774232864e-02
-2.272994332957045949e-01,-3.196864046831640049e-01,-2.572744695102842649e-01,4.011883426061730110e-03,-5.527860064857467032e-02,-8.425138374490690613e-03,1.268580257892608643e-01
-2.787689254056372468e-01,-2.613920497022188538e-01,-2.634232142487072381e-01,-1.046517095821133210e-03,2.736734999255999775e-03,-2.684020746790569990e-03,1.783683896064758301e-02
-2.753336807991719759e-01,-2.628352335410348295e-01,-2.664494665812669472e-01,-1.020576916554366944e-03,2.344674416360725995e-03,-1.106678596117384450e-03,1.214055158197879791e-02
-2.781686204043316568e-01,-2.639445186456043646e-01,-2.626183498094897817e-01,-1.463804912358572562e-03,6.049384613820483038e-04,-6.452437684110002908e-04,1.522243116050958633e-02
-2.573150683214448509e-01,-2.809926261671232273e-01,-2.659815395577768138e-01,-7.889677279502985748e-04,-1.594640255381639914e-03,2.224820452285429778e-03,2.132789604365825653e-02
-2.642926358092825834e-01,-2.782371401364500119e-01,-2.610284928330388610e-01,-2.215929802603463453e-03,-2.491528776520206441e-03,5.846727557007976766e-04,1.688195392489433289e-02
-2.998063126735673878e-01,-2.887146832130433882e-01,-2.174932781096755030e-01,6.300000652026774848e-04,9.725281483012873304e-04,-8.172426918264330889e-03,7.867571711540222168e-02
-2.522959791285736553e-01,-2.861344832034606878e-01,-2.665165405017684841e-01,-2.173911594858484592e-02,1.950443948659626517e-02,-6.498230318823179467e-03,5.959684774279594421e-02
-3.042998476904406058e-01,-2.925671386104978788e-01,-2.144728728191777622e-01,-6.269541054482410773e-03,1.590331190241039971e-02,-4.986170391796004159e-02,1.244502440094947815e-01
-2.439595644702813870e-01,-2.867766072430540936e-01,-2.737436361276027186e-01,-4.099600426364962335e-04,-3.713865421508709234e-03,9.618495756063367638e-04,3.859769925475120544e-02
-2.610850526907107505e-01,-2.860597675991283784e-01,-2.577163666628159433e-01,-8.904171875951784419e-04,-3.056322879872900872e-03,-5.203427789708689553e-04,2.739398740231990814e-02
-3.159432973682799739e-01,-2.925693435327182956e-01,-2.010682378598591113e-01,-9.049010629523623894e-03,-3.664288110996036067e-03,-2.254650699361903168e-02,1.134394407272338867e-01
-2.672383816452429950e-01,-2.827475345428847597e-01,-2.534945557446908193e-01,-4.313279978322507799e-03,-4.326338324004217438e-03,1.782323739220662050e-03,2.764193341135978699e-02
-2.660746620674795948e-01,-2.727885115839443486e-01,-2.654880004608111133e-01,1.202034082742545933e-03,-5.328500941040701944e-05,1.775155854498157394e-04,7.334603928029537201e-03
-2.853082608560581490e-01,-2.954648774027303082e-01,-2.253752883246925298e-01,-8.005176526525725495e-04,-4.856028229217358716e-03,-1.171321883431790303e-03,6.618621945381164551e-02
-2.690693709190612459e-01,-2.681776647350819776e-01,-2.667870775580223341e-01,1.438940113493665301e-03,-4.254828987194430256e-04,-9.588140179122366883e-04,3.671729005873203278e-03
-2.638842685621300421e-01,-2.677699956271394899e-01,-2.734764604442329605e-01,-1.644794883966851527e-03,-1.036888166088541924e-03,3.691529614963621510e-03,1.104807760566473007e-02
-2.688573678533863198e-01,-2.674527614426878142e-01,-2.681098140416182107e-01,4.947290807090943144e-04,-6.610705560448704513e-04,-2.944098465787445317e-04,1.946042641066014767e-03
-2.681193779399436150e-01,-2.671706888570866134e-01,-2.691547571337001288e-01,4.192250256888885827e-04,-7.797814729586399242e-04,-3.499144608424689467e-04,2.381810452789068222e-03
-2.700439177803826696e-01,-2.620730480131494011e-01,-2.714665367483641290e-01,-1.110824019891205276e-03,-3.434549701086774855e-03,1.284007624658071783e-03,1.099701505154371262e-02
-2.492064587785230712e-01,-2.791456231174045399e-01,-2.800649589748440138e-01,-1.313667190834164923e-02,-1.199111695160575211e-02,7.704482959006681703e-03,4.529765248298645020e-02
-2.691251561814928528e-01,-2.777536693915756971e-01,-2.568953231033537232e-01,-4.421705954407190164e-03,-2.302421309318747073e-03,2.262536757430048690e-03,2.048073336482048035e-02
-2.684364616596751629e-01,-2.684644992261994156e-01,-2.677795377363687557e-01,2.565189884910330514e-08,-3.730803056377731460e-04,-4.547947585619288840e-04,1.220178324729204178e-03
-2.672783164023594948e-01,-2.689015661055023099e-01,-2.684799424875916607e-01,1.306190829692302968e-03,-1.339143516625244858e-03,-1.009796272450860788e-03,3.960516303777694702e-03
-2.680640213367250224e-01,-2.678570789882250835e-01,-2.686192934381824160e-01,6.521328942409108497e-05,-2.896577875557966412e-04,-9.799944853485481109e-06,8.548759506084024906e-04
-3.040828964477046981e-01,-2.033334103152009964e-01,-2.951906448568464292e-01,-1.220615638373386165e-02,-4.392816606804052226e-03,1.151352835166622596e-02,1.011740416288375854e-01
-3.050802813190984231e-01,-1.918050211964308638e-01,-3.066703496332889856e-01,-2.591873309578190260e-02,6.105429167668707802e-03,9.157415484021051016e-03,1.240672171115875244e-01
-3.017601971693696927e-01,-2.019823847988258536e-01,-2.995956671043522590e-01,-1.956957115696230168e-02,7.014801339572414654e-03,-1.609796675792901990e-02,1.087119355797767639e-01
-3.079970538460452545e-01,-1.916198336853289219e-01,-3.048761030949893591e-01,-1.894541324613392697e-02,2.980601612651600282e-03,2.301254572326471778e-02,1.260252296924591064e-01
-2.375878634368741027e-01,-2.730481919912742805e-01,-2.993813142180813958e-01,-2.768036638857110723e-02,3.523335715347602359e-05,-1.904621900970268015e-03,7.207041233777999878e-02
-2.670696696921174840e-01,-2.708185019290703099e-01,-2.664634452087590866e-01,6.494935539045331449e-04,-5.525018855687841577e-04,-1.421872846939608095e-03,4.994031507521867752e-03
-2.666865709263273598e-01,-2.663447115345443650e-01,-2.707486146708691366e-01,4.147552730507674305e-04,-6.183752770846657597e-04,-1.576099245914804438e-03,5.207803100347518921e-03
-2.663530426310464216e-01,-2.718327275745677785e-01,-2.653849283078834609e-01,3.606332342538653112e-03,-3.759760702146230926e-03,-3.449862197884188790e-03,1.238539908081293106e-02
-2.584375879325125358e-01,-2.757347375475421858e-01,-2.696980046384070961e-01,1.326267362774514319e-03,-1.946204144853108664e-03,-2.941551254546463049e-03,1.654731109738349915e-02
-2.642386427716973962e-01,-2.705170870851241749e-01,-2.701166754184153862e-01,9.384521340501533488e-04,-8.452812173612101127e-04,-1.887565081417867142e-03,7.248414680361747742e-03
-2.651191587133304162e-01,-2.647880776373670586e-01,-2.744490784111061621e-01,2.077611926941884835e-03,-2.886196361753676221e-03,-1.951663912469852463e-03,1.181578449904918671e-02
-2.777905475072020014e-01,-2.627948128736197209e-01,-2.638941033551482351e-01,4.331707088356569744e-04,-1.483416097000943724e-03,-6.448895262373945331e-04,1.476509217172861099e-02
-2.659894689102528798e-01,-2.675378161812959621e-01,-2.708641397866868861e-01,3.038164518940652484e-03,-3.658834682685215348e-03,-3.731873171812648445e-03,1.132454350590705872e-02
-2.671966323242292440e-01,-2.680710655636120987e-01,-2.691497302264272418e-01,4.822289432784884321e-04,-7.481037415910829925e-04,-1.595142216210641319e-03,3.589069470763206482e-03
-2.729210238859334225e-01,-2.661031156918256535e-01,-2.650257304909346967e-01,2.507435773126118813e-03,-1.742435504873826634e-03,-2.249513716316325993e-03,9.906615130603313446e-03
-2.623472466432886230e-01,-2.755199507822248539e-01,-2.663766303425166293e-01,1.408571634481568802e-03,-1.452330310503902695e-03,-2.879225213422991966e-03,1.318438537418842316e-02
-2.640244745532516202e-01,-2.757858025359636867e-01,-2.643510921300976646e-01,1.665754876063506003e-03,-4.359876833889885037e-04,-5.427799808174772192e-04,1.201550476253032684e-02
-2.545786406918942313e-01,-2.845987914093169313e-01,-2.674547885202354092e-01,4.859027331283587506e-03,-9.839736946180569627e-03,-4.493294674032317915e-03,3.320122882723808289e-02
-2.675565224891819915e-01,-2.749222892889408021e-01,-2.621370361390990000e-01,3.789886632839288907e-03,-1.870852626957917111e-03,-1.318293693871538897e-03,1.350361853837966919e-02
-2.627767679247209887e-01,-2.784380650592572226e-01,-2.634071124127084773e-01,2.363295132218254640e-03,-3.978171331036371890e-03,-3.045390739044709794e-03,1.810684427618980408e-02
-2.603643533660071618e-01,-2.844305158725000116e-01,-2.606753535049128323e-01,1.186267886523171894e-03,-4.808216136304105728e-03,-1.217467648798771940e-03,2.549151889979839325e-02
-2.578862166019475488e-01,-2.818441856981712679e-01,-2.655781197567518848e-01,7.628780461317260803e-04,-1.772758427911254537e-03,-2.972503174608374672e-03,2.205784618854522705e-02
-2.611321081350940765e-01,-2.786021310132717477e-01,-2.641384871973462278e-01,1.202845391608120193e-03,-2.040004338812025520e-03,-2.582587583815696211e-03,1.727868989109992981e-02
-2.614708878491833755e-01,-2.809146471105691822e-01,-2.619452629228413709e-01,6.701977332470460689e-04,-7.150891073824962568e-04,-1.253689001226914726e-03,1.940767653286457062e-02
-2.674461430679208607e-01,-2.903775170414288342e-01,-2.457067676567540604e-01,2.225441260823695418e-03,-5.947222652477588724e-03,-1.717854173921255648e-03,4.033337533473968506e-02
-2.598218534537442559e-01,-2.808897471706813254e-01,-2.636622338559264089e-01,1.327890208404634885e-03,-1.596751077435775877e-03,-2.379759962899610694e-03,2.018971182405948639e-02
-2.748950966153242970e-01,-2.629452022816765044e-01,-2.673825735478410626e-01,-1.274265388695324094e-03,-3.333116388771585788e-03,1.285459570589869271e-03,1.235401071608066559e-02
-2.592705936869108552e-01,-2.845869713084591135e-01,-2.609249433867598666e-01,1.977416947536127700e-04,-7.941269096576398286e-04,-2.124950730861575052e-04,2.457475103437900543e-02
-2.836751837444075885e-01,-2.566922688715249645e-01,-2.668568374105356189e-01,-3.765341282089090975e-03,-4.072154915632633654e-03,9.753152410954457271e-03,3.057415783405303955e-02
-2.544917595418776934e-01,-2.865293742109536468e-01,-2.646631190027686209e-01,-1.680298098836256716e-04,-2.012224133589969773e-03,-5.624575686350863227e-04,2.858636341989040375e-02
-2.861439634599775572e-01,-2.504175453873450086e-01,-2.666370942449489134e-01,-1.410014081000812627e-03,-2.850624651675094483e-03,6.370924782540763123e-03,3.334805741906166077e-02
-2.592091276893701002e-01,-2.843415606969201259e-01,-2.615630687036092916e-01,-2.745044116788300363e-04,-8.141863940092965981e-04,9.560413655676409678e-04,2.414491213858127594e-02
-2.538976783428216755e-01,-2.862297438919962911e-01,-2.653119828734104013e-01,-7.233635982354823983e-04,-1.742688309105013336e-03,1.870610007325434511e-03,2.877114899456501007e-02
-2.544499079161136046e-01,-2.846940557231077418e-01,-2.653536188205622981e-01,-2.048298511262862712e-04,-1.868381129772398678e-03,5.794951440940347394e-04,2.674755640327930450e-02
-2.902415370792344462e-01,-2.779913553516160096e-01,-2.438201292790629637e-01,-1.170041162752676923e-02,-1.846543753649533895e-02,2.461073803302256044e-02,7.061886787414550781e-02
-2.590235604914834511e-01,-2.859398360906296177e-01,-2.576979593382744960e-01,-2.985087501813283618e-03,-8.785881223232665585e-03,2.526061812222155437e-03,3.223931789398193359e-02
-2.613968957593476028e-01,-2.804086339721804100e-01,-2.635009995554319362e-01,-6.799282844286780921e-04,-5.912034748103923900e-04,1.657200013358006490e-03,1.834516786038875580e-02
-2.828112964769532445e-01,-2.537246851709954454e-01,-2.670260966533606894e-01,-2.008640182551223608e-03,-3.974666167236307231e-03,5.542323315882210187e-03,2.806626819074153900e-02
-2.772194351238141952e-01,-2.567651134881716035e-01,-2.673776111273793998e-01,-4.433785874911565922e-03,-6.702987584977066447e-03,5.838642173738236262e-03,2.469752356410026550e-02
-2.613664058303359350e-01,-2.787162112106061351e-01,-2.638807443787989926e-01,-1.150152447520922001e-03,2.109667330628855857e-03,-2.625607598222578533e-03,1.736998744308948517e-02
-2.567476359902880478e-01,-2.814627809760624766e-01,-2.670490644804261460e-01,-1.045949640043842589e-03,-1.187805753096537933e-03,3.555186839762416399e-03,2.253418043255805969e-02
-2.637111817953836090e-01,-2.782733847018046824e-01,-2.627654143796006037e-01,-1.596193016463426633e-03,6.208387340544756997e-04,-6.415286004510696583e-04,1.538698095828294754e-02
-2.639185897398679259e-01,-2.748768684308904864e-01,-2.661138500213261482e-01,-6.388976227301169626e-04,-1.162825316190584221e-04,1.558343208762492547e-03,1.045931130647659302e-02
-2.634206056632399373e-01,-2.649327438400229107e-01,-2.776918023250746215e-01,-5.762989700771533295e-03,-5.445441213343562951e-03,2.554773731609348390e-03,1.981284469366073608e-02
-2.617467153754912124e-01,-2.751528484229901483e-01,-2.675309805421681175e-01,-1.015748631824041782e-03,-1.358413265394350748e-03,2.902086382752756041e-03,1.302055735141038895e-02
-2.673026356126901870e-01,-2.728170574231905121e-01,-2.646718306919418340e-01,-2.469326704264607122e-03,6.090353206472189128e-04,-9.293283343337916530e-04,8.592659607529640198e-03
-2.643769300625130048e-01,-2.714428969689235416e-01,-2.679563808651596601e-01,-1.181819112410304774e-03,9.978515221106460699e-04,-2.221895320110495176e-03,7.709458004683256149e-03
-2.637249768148764439e-01,-2.753104829748743709e-01,-2.658500042114270157e-01,-8.026303484388964743e-04,8.939330474111435547e-04,-5.943232227692716793e-04,1.093205530196428299e-02
-2.653274039694822894e-01,-2.726031362172176009e-01,-2.662560525201822514e-01,-4.440935394352518435e-04,3.179040307463621459e-04,-1.365758891608779549e-03,7.316611707210540771e-03
-2.950716864371840664e-01,-2.244633919996154026e-01,-2.856076855733865050e-01,-8.237362389247599240e-03,-1.668738973939368512e-03,5.982940601883290563e-03,6.874711066484451294e-02
-2.638686950991472879e-01,-2.673090596677496489e-01,-2.768052403894641356e-01,-8.128485769985900958e-03,-3.750484210676583059e-03,5.268504239312596024e-03,2.140958979725837708e-02
-2.778771655470699264e-01,-2.437301645847194109e-01,-2.830815109792228501e-01,-5.014693195015788862e-03,-5.241472140753366919e-03,2.600039742120504541e-03,3.935679048299789429e-02
-2.677668581227650169e-01,-2.704274599166214266e-01,-2.667019863333088270e-01,-1.220467287713508002e-03,-2.111273670052060648e-04,4.713458503610214742e-04,4.039158113300800323e-03
-2.639028367691977350e-01,-2.695272894379561190e-01,-2.709631275312024967e-01,-1.127196391683748383e-03,-1.216439874689908109e-03,2.373405338163632385e-03,8.180583827197551727e-03
-2.630751581847342591e-01,-2.624620425068372453e-01,-2.788924427330219391e-01,4.615035332913409484e-03,3.476991783601748182e-03,3.200579952793115076e-03,1.977765001356601715e-02
-2.700697899344776665e-01,-2.598829032713951825e-01,-2.745753198023543895e-01,-3.467119886782888500e-04,-4.025689415857808956e-03,-2.065690360051618962e-03,1.522334292531013489e-02
-2.754668417369022237e-01,-3.386020409026914701e-01,-1.643876010320458048e-01,-3.314373422118054718e-02,1.019271958104931153e-01,-4.473738423247740348e-02,2.525964081287384033e-01
-2.273503957718943091e-01,-2.853444031468329034e-01,-2.926815908198837635e-01,-4.013521115124915606e-03,-4.903199424540455971e-04,5.527378813160738072e-04,6.239082291722297668e-02
-2.542182687125870144e-01,-2.796344810712635964e-01,-2.695484701664508931e-01,-9.155737318936745667e-03,1.064646883338721088e-02,-9.020426339042241989e-03,3.642790019512176514e-02
-2.737138219376670234e-01,-1.532534630543786747e-01,-3.790728469742926654e-01,-7.669424515839841361e-02,-1.281522199346844110e-02,5.133105207804038173e-02,2.536654174327850342e-01
-2.730281387948222394e-01,-2.427293153758045829e-01,-2.899415364050011990e-01,-2.933281678719981082e-03,-9.708707778984723962e-04,1.010885069053666047e-04,4.177569225430488586e-02
-2.177945317641579726e-01,-2.935013946612657909e-01,-2.927011380980754640e-01,2.649122625516598870e-03,2.295671031764586183e-03,9.930515101565253171e-04,7.557385414838790894e-02
-2.704684660015224673e-01,-2.637362781970061243e-01,-2.706252855266392254e-01,-8.137666415052215033e-04,1.938619896673954637e-03,-1.138816273721226634e-03,7.972124963998794556e-03
-2.711016651590921200e-01,-2.294819698666969998e-01,-2.928284012184750873e-01,-3.638710985317569757e-02,-1.946108863904537703e-02,2.300167138151539697e-02,9.901519119739532471e-02
-3.727606617141906997e-01,-1.266901209741945200e-01,-3.053075353409072656e-01,-1.704755020924963657e-02,-2.868708708018087583e-02,-7.218491036217050683e-02,2.597596943378448486e-01
-3.213468338771405253e-01,-1.091063715483534535e-01,-3.825914500292083020e-01,1.663988059591633420e-03,2.167843453307829321e-02,-4.666157284763451651e-02,2.640938758850097656e-01
-2.980374022921531418e-01,-2.910652172182227604e-01,-2.163032274876189598e-01,5.607376081238680838e-05,1.533778558695872516e-03,1.070968844623032719e-02,8.068692684173583984e-02
-3.222129558922988135e-01,-3.166977181230913319e-01,-1.482118656178706972e-01,-1.125919795594722272e-02,3.671283346999344027e-02,-5.623704045089158998e-02,2.079873979091644287e-01
-2.748799877077880427e-01,-2.465248416895903516e-01,-2.826463108210776620e-01,4.114556043577374464e-03,-3.288527902543721473e-03,-1.228528537168122265e-03,3.423894196748733521e-02
-2.727659056053839404e-01,-2.640508786000149155e-01,-2.680109460197736548e-01,1.107401323690148948e-03,-2.915624835513625206e-03,-1.706059950990548900e-03,9.748604148626327515e-03
-2.920105340257780902e-01,-2.838498124854397231e-01,-2.299621526749325018e-01,6.292215431789937663e-04,4.439833182439216746e-04,4.106903039560863555e-03,5.884401872754096985e-02
-2.493018707033628767e-01,-2.825168821985057366e-01,-2.737118595640800622e-01,-1.294813216071718370e-03,2.606807142793417329e-03,-4.047120386429863340e-03,3.102998621761798859e-02
-1.786964955250953946e-01,-3.013350316875272328e-01,-3.580542105883221526e-01,1.248586303770633787e-01,2.773200567266569799e-02,2.090233684770381739e-02,2.749548852443695068e-01
-1.424585432610104840e-01,-3.320252239429852814e-01,-3.136801598941330593e-01,4.127899669094291929e-02,-5.041805172334498653e-02,-1.027062588147464699e-02,2.141231447458267212e-01
-2.722109344530971309e-01,-1.787585964957725815e-01,-3.870369000000261628e-01,-1.354363383147798305e-01,1.060826744931956528e-02,-9.951483392526513580e-03,2.971746921539306641e-01
-2.865545990808776033e-01,-2.426926981495199087e-01,-2.759804045126471039e-01,7.582065533810612712e-03,-6.411538188125680444e-03,-9.088309385068566587e-03,4.599406942725181580e-02
-2.520703792128389242e-01,-2.584842094065043505e-01,-2.977165106482116963e-01,-3.038690129973230930e-02,-1.898444360186061532e-03,3.778861522141106939e-03,6.823256611824035645e-02
-2.979418600873854905e-01,-1.759248011031581960e-01,-3.219047617191193589e-01,-5.045324829234446029e-02,3.285336651812538478e-02,-7.270676790430646852e-02,2.124140113592147827e-01
-1.997875476064682188e-01,-3.145310479243583757e-01,-3.049404031608571319e-01,-2.429697378303379354e-02,-2.332231465904622061e-02,3.998939469404537775e-03,1.249335110187530518e-01
-3.173169248201292980e-01,-1.095549976152347393e-01,-3.973736565144372346e-01,-1.983664301271403918e-02,-1.546145979092405920e-02,4.298300359805716508e-02,2.713800072669982910e-01
-2.133974576512480403e-01,-2.952218667623632276e-01,-2.952142517334742089e-01,1.932909099707653608e-03,-9.129548784036498402e-04,1.333770863679504507e-04,8.190465718507766724e-02
-2.676402521962938930e-01,-2.778864958704344579e-01,-2.926090086197296602e-01,9.625139693926750006e-02,-8.152160425988005943e-02,-9.068372386576110944e-02,2.699509561061859131e-01
-2.749662262235738619e-01,-2.483573212951912523e-01,-2.825233900029653911e-01,4.354855674561803475e-03,-4.307544226500644585e-03,-2.455537744220145403e-03,3.311918675899505615e-02
-2.740323818661459798e-01,-2.422848104296718430e-01,-2.893120898912043826e-01,3.370563404988433445e-03,1.192010792449445982e-03,6.824406680701469241e-05,4.200988262891769409e-02
-2.676810744443124945e-01,-2.653903828069007487e-01,-2.708165265734142624e-01,1.433541899990271526e-03,-1.803054585928387955e-03,-8.920578854085246291e-04,6.369154434651136398e-03
-2.835978365219176678e-01,-1.807863305374259877e-01,-3.258778267105312265e-01,-7.586776226134384071e-02,-2.994138996429317884e-02,5.128358171824110023e-02,2.110732197761535645e-01
-2.737180889211567880e-01,-1.593703357201681214e-01,-3.891954323352653788e-01,-8.690107415205057528e-02,1.817212903057511056e-02,-2.093041969209577524e-02,2.541167438030242920e-01
-2.930908793072259377e-01,-2.839493375481770832e-01,-2.287513044037930154e-01,-2.130971834052175582e-03,-1.655579697571591541e-03,4.137472342720472339e-03,6.089489161968231201e-02
-2.879600913599295042e-01,-2.648936484161256710e-01,-2.501214539037889817e-01,-4.521180085011202582e-03,-8.146677868355291924e-03,1.678432735692792291e-02,4.686779156327247620e-02
-2.826977528113874816e-01,-2.628498071012254633e-01,-2.596983790838383599e-01,1.660490159771892257e-03,1.368690986829661487e-03,4.189740653043999910e-03,2.308625541627407074e-02
-2.057038758274133960e-01,-3.141077498568388138e-01,-3.210817158110471081e-01,1.133859913806327391e-01,-8.508088263288689224e-02,-5.926280333030518876e-02,2.887519598007202148e-01
-2.915922837927774069e-01,-2.189837919623958129e-01,-2.933732808110570689e-01,6.252608223775482296e-03,7.180348212219211847e-04,1.495055482203818883e-03,7.436408847570419312e-02
-2.772327418944263155e-01,-2.705684936355513548e-01,-2.544182742717961410e-01,-6.902237266606348412e-03,-5.532089507607291720e-03,4.585867638439602816e-03,2.665888331830501556e-02
-2.845381049727328526e-01,-2.595008485418145439e-01,-2.609049748197037610e-01,-5.436160470574772529e-05,-8.415826519295958180e-05,5.135833908086320570e-04,2.438240684568881989e-02
-2.148082786210917527e-01,-2.940846648889153259e-01,-2.943037504923940451e-01,1.884072519276381479e-04,2.031771111233950794e-03,5.319527124672529788e-04,7.947012782096862793e-02
-2.837551048393176512e-01,-2.609350337325676561e-01,-2.598166471386919030e-01,-2.246659236281398769e-04,-2.843394717128970854e-04,5.835252451639375395e-04,2.342954464256763458e-02
-2.617614935799866260e-01,-2.613809046916298340e-01,-2.812643779136408395e-01,7.508554856924183922e-04,-1.389030789458328002e-03,-6.194933042900507706e-04,1.991383545100688934e-02
-2.888819705925844694e-01,-2.238182659352229709e-01,-2.943380210781015860e-01,-2.096183725995561312e-02,1.611745107183131008e-03,6.458541181050578110e-04,7.710567861795425415e-02
-3.068591778968609018e-01,-3.049176098359736020e-01,-1.954604427113632026e-01,1.718143859787624661e-03,-4.146106939329458931e-03,3.101029190505605326e-02,1.230548694729804993e-01
-1.512998618111572047e-01,-3.146237302882544107e-01,-3.257794570869203543e-01,6.210693100928110777e-02,-3.574549283100136171e-02,-2.043166800465039123e-02,2.127875089645385742e-01
-2.841982479498784686e-01,-2.615137232978300696e-01,-2.594400829493220817e-01,-1.108766934416629537e-03,-2.719814751473924840e-04,5.982914643192956128e-04,2.389374561607837677e-02
-2.849364840570416391e-01,-2.598592512892496931e-01,-2.594440341337955758e-01,-2.182049082450413771e-04,-2.628693032774340296e-04,1.462161589870600948e-03,2.542078681290149689e-02
-2.862938647634428735e-01,-2.550697105301198420e-01,-2.640064658914160201e-01,8.902958381303592366e-05,-3.196359117117013857e-04,1.736012100664952821e-03,2.802038937807083130e-02
-2.833775871870042873e-01,-2.619662032516945627e-01,-2.598381662150693883e-01,3.850281963672973012e-04,7.030677012124063731e-05,1.433780176321930314e-03,2.269728854298591614e-02
-2.470507156096930779e-01,-2.084678876864080599e-01,-3.539626267848737795e-01,-1.053970639491972755e-01,3.133644839823735394e-03,6.011983900115480672e-02,2.474712580442428589e-01
-2.853686934309977441e-01,-2.198033288446305522e-01,-3.055578180639692554e-01,7.339045786258313608e-02,-8.594496309026510017e-02,-7.412676121292183229e-02,2.466425448656082153e-01
-2.571125838688836929e-01,-2.676448513444497079e-01,-2.825789308466221117e-01,-9.361573233842368849e-03,5.607494554625787331e-03,-5.584399280735675465e-03,3.069284558296203613e-02
-1.838140830173533857e-01,-2.837120377484564915e-01,-3.197434773558460175e-01,7.090086285086476259e-02,4.585858706365803644e-02,2.210643623835271271e-02,1.942504644393920898e-01
-2.630034190758208101e-01,-2.453522397280415435e-01,-3.087343938140240107e-01,-5.748357123885136644e-02,-1.442669146195426841e-02,1.705489286624906758e-02,1.209139004349708557e-01
-2.051555913851596247e-01,-2.786695806609341686e-01,-3.135016943689845070e-01,-4.381448480764717213e-02,-6.785668062080841244e-03,2.239127204040451680e-03,1.228435337543487549e-01
-2.807006846298121250e-01,-2.668600357455714889e-01,-2.571896984499716377e-01,2.563349588103765696e-03,3.005135631777364614e-04,1.640694275924660774e-03,2.114193886518478394e-02
-2.109198619505859296e-01,-2.879679233561644458e-01,-3.026947027307516080e-01,7.676064010060973386e-02,7.469192158534471160e-02,4.335011267586636602e-02,2.175750136375427246e-01
-2.768499384824589793e-01,-2.594206469257931968e-01,-2.680665713954426543e-01,1.693868177297572740e-03,3.535639750805873345e-03,1.242302712614439279e-03,1.669070497155189514e-02
-2.898464606700720814e-01,-2.571198477575734609e-01,-2.561192832741258085e-01,-3.680814097206935452e-04,-1.407014193366919533e-03,8.432659489765993721e-03,3.639302402734756470e-02
-3.111124361075824907e-01,-2.551431517545138528e-01,-2.510225850880020704e-01,1.998712137336910652e-02,2.044882006638091762e-02,5.414176267368344536e-02,1.209424436092376709e-01
-3.272720859970015272e-01,-1.808725585141446879e-01,-2.797374784605523024e-01,-3.792858672920133845e-02,-2.339189953900974381e-02,8.929643194668659967e-02,2.158984690904617310e-01
-3.253135627012714304e-01,-3.280859206022460617e-01,-1.559813583071512910e-01,-5.797935990888998525e-02,9.054296927528343586e-02,-5.052448120428997685e-02,2.673716545104980469e-01
-2.285693562200262208e-01,-2.674482607221737585e-01,-3.239197059835511316e-01,-5.454636560346032281e-02,2.420873285066704652e-03,-3.132367756004147789e-03,1.259725242853164673e-01
-2.766733666893139154e-01,-2.745560488444032665e-01,-2.300975804552170823e-01,-6.850754698239787388e-02,8.242532306937765119e-02,-9.564995535144721339e-02,2.529497444629669189e-01
-2.651429922784484527e-01,-2.830035727034871385e-01,-2.559391481922697609e-01,5.419387751250527401e-03,6.156070460556150106e-03,3.433530843630644685e-03,2.837719768285751343e-02
-2.741047612465915551e-01,-2.433907932057274570e-01,-2.870849191325224870e-01,-3.767874219672869354e-03,2.617416940107693962e-03,-6.656051609647831635e-04,3.968597576022148132e-02
-2.731011754245604717e-01,-2.645653396512744893e-01,-2.667572399312111986e-01,-1.593038349620363222e-03,2.228665271741094803e-03,-1.671564520741440803e-03,9.479016996920108795e-03
-2.651173050436121947e-01,-2.730627996701293636e-01,-2.668229780830908560e-01,-2.457979534976134466e-03,2.210674301166060986e-03,-2.346555340511214446e-03,1.008925121277570724e-02
-3.129751182479508786e-01,-1.882706807139217509e-01,-3.101733625236202663e-01,-3.562293602348271665e-02,-8.210119565824031823e-03,5.333388585862854428e-03,1.389395147562026978e-01
-1.977652080311205207e-01,-3.047043702702375012e-01,-3.026565877532734761e-01,9.133554097573340358e-03,-2.360450368694479162e-02,-6.892868554775303733e-03,1.152627766132354736e-01
-2.633352580325826753e-01,-1.863938438274726217e-01,-3.385251662728145927e-01,-9.722041833533537347e-02,-1.499091417042870689e-02,1.921045896769229058e-02,2.179345339536666870e-01
-3.018017987191544682e-01,-2.308594162642588210e-01,-2.723967506905986546e-01,-3.579341951204603051e-02,1.393791807222189219e-02,-4.965016531567733454e-02,1.250325292348861694e-01
-3.739672346548718607e-01,-9.557739715884511211e-02,-3.602240300066787415e-01,1.190152623378190784e-02,-6.467806780517172151e-04,-5.170049374992155555e-02,2.868951559066772461e-01
-2.762690352484057921e-01,-2.614924127080782146e-01,-2.684515658861993948e-01,5.414181409743122793e-03,-4.987498807533847014e-03,-6.930846978435775164e-03,2.169380150735378265e-02
-2.543180075147874475e-01,-2.582245241566961669e-01,-2.889124760315949780e-01,-1.133008695747086438e-02,7.428926325733191264e-04,-1.148343560463912930e-03,3.830951079726219177e-02
-3.146084980920725860e-01,-1.771677165224931350e-01,-3.116951896696890656e-01,5.428768256982893781e-03,-1.396841105719820973e-02,-2.226057305599253230e-02,1.437303423881530762e-01
-3.608999217811825755e-01,-1.098421832473514270e-01,-3.603386737572992216e-01,3.144402981679361025e-02,-3.476384723410111226e-03,-4.795490391285119058e-02,2.697978019714355469e-01
-2.810582202343645530e-01,-2.633612489030303649e-01,-2.600056608631124422e-01,2.359308025327660173e-03,-1.123754317370322759e-03,-1.845120022627648893e-03,2.035994641482830048e-02
-3.721267348096085614e-01,-1.011777967184270544e-01,-3.717539834410248378e-01,-5.227574420622784629e-02,4.421848067548720881e-03,-2.702452626253562876e-02,2.894138395786285400e-01
-2.170112141420286744e-01,-2.943080487611198226e-01,-2.939773803052981860e-01,2.192547764007023864e-03,1.699434412009777524e-03,-7.883518257749395994e-04,7.729360461235046387e-02
-2.739387548808342454e-01,-2.818022704086545760e-01,-2.492227584592950351e-01,-3.530549694867427066e-03,2.661085068933789332e-03,-1.741928387582102489e-03,3.057468496263027191e-02
-3.754450507411465909e-01,-1.070756155763812334e-01,-3.347518629793880818e-01,-4.800429524258795905e-02,2.938531918557258163e-02,7.147069485815401614e-03,2.690989673137664795e-01
-3.046727097348311819e-01,-2.742183485434265267e-01,-2.216422227751326246e-01,8.533189966706456256e-03,1.155508553121206792e-03,-3.492410191017113197e-02,9.578318893909454346e-02
-2.733663612182061220e-01,-2.498331347609206721e-01,-2.826645799961830519e-01,-2.842071146731121444e-03,3.465925958831316336e-03,-1.219951764459380498e-03,3.039443306624889374e-02
-3.649281421324930275e-01,-1.050954868679661869e-01,-3.709572433699485083e-01,-5.513694974360271867e-02,1.716588656530372570e-02,-2.564259607753003115e-02,2.847679853439331055e-01
-2.838946620378223762e-01,-2.573270517997616746e-01,-2.661488362796952112e-01,5.537813882475716570e-03,-4.014508265223224424e-03,-9.693436118192632484e-03,3.116933070123195648e-02
-2.865293095197820050e-01,-2.511880752141179562e-01,-2.639056404089751839e-01,9.386289883892237965e-03,-7.843344455768850101e-03,-1.730668688517669404e-02,4.804904386401176453e-02
-3.327384215307345183e-01,-1.300993463663771832e-01,-3.263742314401300026e-01,-2.299559614524551016e-02,-1.009803674729417176e-03,-3.677102320575597466e-02,2.132117301225662231e-01
-2.764027004580064117e-01,-2.873488012758826926e-01,-2.441538943104849257e-01,3.968876067352766247e-03,1.659245271640672620e-02,1.151524001831672611e-02,5.276161432266235352e-02
-2.757731735274669971e-01,-3.087425740483891179e-01,-2.286094174968043569e-01,-9.966950791802688114e-02,1.010200453466065934e-01,-6.669941383160329917e-02,2.804103791713714600e-01
-2.565417992755166798e-01,-2.687061648087221699e-01,-2.768642523653396803e-01,6.001851076914432176e-03,3.666024586172266474e-03,6.880970980560422064e-03,2.458034269511699677e-02
-2.906403415481416674e-01,-2.216348027466087944e-01,-2.926923778698963252e-01,-7.509408342162415123e-03,2.099391462579286438e-03,-2.345168540193442834e-03,7.145958393812179565e-02
-2.746760693304831080e-01,-2.872857621512407422e-01,-2.424960053435549212e-01,2.078429981167501106e-03,3.973107191374053784e-03,8.764034897779925679e-04,4.077943414449691772e-02
-2.611174799127449209e-01,-2.834565461671609832e-01,-2.604043052568139061e-01,2.719037493705190765e-04,6.609376652218471211e-04,2.009182000654268613e-04,2.274043858051300049e-02
-1.822941783585149689e-01,-3.206248774821744418e-01,-2.947597974836052570e-01,-6.520913995327475010e-02,8.132257312227170187e-02,-1.991788131079317431e-02,2.236367464065551758e-01
-2.607487364171581778e-01,-2.840231860307976808e-01,-2.586740269918000323e-01,-9.697382075048578513e-04,2.575143892020317644e-03,-4.321863873635975635e-04,2.485091052949428558e-02
-3.690326354751968796e-01,-3.371567798511732050e-01,-1.254095805513200101e-01,-9.244258836618366587e-03,1.352389701603300999e-02,-8.845338611989003730e-02,2.772717773914337158e-01
-2.566296784236277162e-01,-2.699318448146544869e-01,-2.775586232464383185e-01,-3.303864179282042443e-03,1.450395292402956388e-03,-5.239568841940170363e-03,2.140058018267154694e-02
-3.109261187566081941e-01,-1.897447897406522310e-01,-3.179414685863694023e-01,-3.037983512787546803e-02,3.574701617704640916e-03,-5.827386809745800297e-03,1.359899789094924927e-01
-3.043874061447816581e-01,-1.390623700560332521e-01,-3.375365708648755403e-01,-7.656417108976745767e-02,1.056645661075790964e-02,-2.021326179198048092e-02,2.303443402051925659e-01
-3.200022448712089296e-01,-1.784558618638618088e-01,-3.203862159257745978e-01,-7.085177738656177684e-03,-1.159467581548344383e-03,-1.159040365207032568e-02,1.436924487352371216e-01
-2.600712667485019503e-01,-2.420198117391573478e-01,-3.181571220245461573e-01,-5.978250829520280474e-02,-5.536119330158299073e-03,8.133849879842378061e-03,1.255413293838500977e-01
-3.645130829005825968e-01,-3.536033417014675662e-01,-1.158305143980861707e-01,-1.237045420863876199e-02,3.018023487480162720e-02,-6.430165660759991353e-02,2.735776305198669434e-01
-2.611365804292910542e-01,-2.638133065216109463e-01,-2.787906402943194362e-01,-2.615150350072395231e-03,1.165847382400789873e-03,-3.201825122295270422e-03,1.808107644319534302e-02
-2.742818993296638475e-01,-2.816313974735594750e-01,-2.492490653941574485e-01,4.189559060692174194e-03,2.571849228360366824e-03,1.478034193359906677e-03,3.071955218911170959e-02
-2.974421125389501985e-01,-1.837995318257391875e-01,-3.270428665493556042e-01,-1.491599020560841621e-02,-3.979478909210943348e-03,-1.168962422249362337e-02,1.352022886276245117e-01
-2.178493783322957567e-01,-2.932253467838557559e-01,-3.056744500004381360e-01,3.230078779650547016e-02,2.400799673400105805e-02,1.050473124713133082e-02,1.093851104378700256e-01
-2.765214878879175830e-01,-2.767795506675542749e-01,-2.528038549180295358e-01,-6.845170539201225583e-03,7.977416013192462074e-03,-8.728942738973574991e-03,3.359736874699592590e-02
-2.908637251093341702e-01,-2.599236626516626680e-01,-2.575461102941868918e-01,-2.877654672013297762e-03,-4.640645644753523674e-03,2.805824128365893774e-02,5.905714258551597595e-02
-2.202647937974457071e-01,-2.915168790730395254e-01,-2.882957293665863174e-01,2.015524462960121416e-02,2.473597039598693370e-02,8.601722093580056044e-03,9.018867462873458862e-02
-3.314722686440950694e-01,-1.711003852504202061e-01,-3.036011984954690712e-01,8.454836082668971964e-02,4.812453639088049712e-02,5.057042452236877594e-02,2.410217672586441040e-01
-2.609251408447920140e-01,-2.578566748135828202e-01,-2.848010817360094316e-01,-3.414136796208778503e-03,1.221235651691346923e-03,-5.174994716810696772e-04,2.632461301982402802e-02
-2.596359670553963217e-01,-2.602590181421529647e-01,-2.842980499156899099e-01,3.520665366117707844e-03,1.786829915146609295e-03,5.848436122050034184e-04,2.531857974827289581e-02
-2.294293957955539920e-01,-2.844335488287402791e-01,-2.903154173815916117e-01,4.407779943429759352e-03,1.633761008723631910e-03,2.269840342446604459e-03,5.886705219745635986e-02
-2.287726216700149695e-01,-2.845255797560121702e-01,-2.919793941788232372e-01,4.241381193068420423e-03,1.098794006730292481e-03,7.639164598174275241e-04,6.032300367951393127e-02
-2.876235692788995379e-01,-2.262089473947773433e-01,-2.892955479216055004e-01,6.306574650740484622e-03,-6.464678793637641460e-03,-6.222876119335707563e-03,6.510071456432342529e-02
-2.470666271236512390e-01,-2.755891362505158981e-01,-2.790943817317721454e-01,6.895577853840170399e-03,6.213981723850904929e-03,7.570205891414600111e-03,3.682676330208778381e-02
-1.901314788400854383e-01,-3.403128164470307637e-01,-3.018714585511623749e-01,8.281639192955655981e-02,9.326165764179232542e-02,4.182031509899210298e-02,2.649050652980804443e-01
-2.339989477711656995e-01,-2.851046716490295285e-01,-2.861791851583663226e-01,2.449570945419289603e-02,2.045835742793909728e-02,8.612111406649827078e-03,7.711109519004821777e-02
-2.776754057207319604e-01,-2.615166978261966868e-01,-2.641236240374730815e-01,-1.681523714016036923e-03,-3.213042270280111381e-03,2.235482091555876169e-03,1.673980243504047394e-02
-2.765693802324795114e-01,-2.820352362984796524e-01,-2.593593140791869978e-01,3.185043403328177009e-02,3.883460231457638162e-02,3.019184382963689683e-02,1.035495102405548096e-01
-3.115876318094823461e-01,-3.014254955055247764e-01,-1.927944028076752359e-01,-8.932122600988112379e-03,-4.088080399461176129e-02,1.272800900976432149e-02,1.369196176528930664e-01
-2.193055853595416993e-01,-2.801483987662282682e-01,-2.988160558839060288e-01,3.292783981188793924e-02,6.623617089034735360e-03,4.715273829293579848e-03,9.293636679649353027e-02
-2.936300872817197982e-01,-2.267684509452253527e-01,-2.847456632141800448e-01,2.029122123369235357e-03,3.349250326956108685e-03,3.908473788684098914e-03,6.361774355173110962e-02
-3.849376736723694181e-01,-2.139218158641877920e-01,-2.324677817915580536e-01,-1.079998182458418582e-02,-2.154260722459588537e-03,1.364171138970254049e-01,2.874220907688140869e-01
-2.748225202434899095e-01,-2.850898754293369475e-01,-2.442935061552524989e-01,4.229437617628603596e-03,3.394080588596192459e-03,3.628196431407174939e-03,3.845265507698059082e-02
-2.599643368093185192e-01,-2.537890031804420632e-01,-3.008261396837495494e-01,1.370075535440600234e-01,6.764494531686168766e-02,3.652663413301691225e-02,2.756872773170471191e-01
-2.859475645952770373e-01,-2.928211952074038504e-01,-2.262654500939139390e-01,4.723534400222922664e-04,-5.085747480025514834e-03,-8.611318710722944874e-04,6.403063982725143433e-02
-2.036638907526133191e-01,-3.568691200610205616e-01,-2.785285447663009006e-01,-6.229460748298916439e-02,1.185413242640960263e-01,-4.289016616803869447e-02,2.773510217666625977e-01
-2.434997751031572066e-01,-2.770742158665217558e-01,-2.866077062187810109e-01,1.520845217359204429e-02,1.398286166968449283e-02,5.319944017477821335e-03,5.388478189706802368e-02
-1.479370868496056868e-01,-3.212357349185124833e-01,-3.715115531356809608e-01,1.165449127840540167e-01,-3.666660288523448247e-02,-2.383432109829793782e-02,2.962406277656555176e-01
-2.605855806497205940e-01,-2.436656827743364229e-01,-2.933577278343355021e-01,2.409747747824451600e-02,4.081978757512783398e-03,3.493169895783455187e-03,6.118380278348922729e-02
-2.834990776644804589e-01,-2.744487699996360219e-01,-2.469064211651199603e-01,-4.859902899854913819e-03,-2.737566010758292565e-03,3.255062086572330874e-03,3.485514223575592041e-02
-2.966006625539557851e-01,-2.121103960117085574e-01,-2.983293677048578507e-01,-4.702387068905920092e-02,-6.761766544248442971e-03,1.826404810665315306e-02,1.227162405848503113e-01
-2.660881655354611630e-01,-2.587457007167783818e-01,-2.793470494309965857e-01,3.273464459786099186e-03,4.624055015418965763e-03,2.924129677604374658e-03,2.118977718055248260e-02
-2.499325108475580759e-01,-2.739335277783653266e-01,-2.816684827802702351e-01,3.045776354372521384e-03,-1.677362850210462964e-03,-3.793428062750363663e-03,3.001610003411769867e-02
-2.135280606199848885e-01,-2.975043963859423379e-01,-2.943396900997132248e-01,-2.434425953401285589e-04,-1.022687686882196075e-03,-2.129401802581194704e-04,8.246048539876937866e-02
-2.272280477123606590e-01,-2.920696203131273871e-01,-2.847654552956344065e-01,-1.652320745513615342e-03,-4.899471570128497225e-03,1.818198833578088102e-03,6.224378943443298340e-02
-2.908348353457195778e-01,-2.972805163706198628e-01,-2.190776729262210454e-01,1.308058773183828124e-03,-9.592195701103551492e-03,4.516710020437506891e-03,7.743078470230102539e-02
-1.978355711140588058e-01,-3.058762198380910458e-01,-3.420417780002109054e-01,1.188084411145733932e-01,-7.977835789435452907e-02,-4.998920568325686958e-02,2.929589450359344482e-01
-1.925040097540214323e-01,-3.107103589945579558e-01,-3.146313004555728599e-01,2.364845782950641961e-02,-5.180454611840730125e-03,2.000542919534177328e-04,1.273183971643447876e-01
-2.479077322681077777e-01,-2.746177083485054626e-01,-2.857678719562655734e-01,1.100878033035597968e-02,-7.424791357916795190e-03,-4.474038550367561047e-03,4.152809828519821167e-02
-2.967406128073918903e-01,-2.978365788034405548e-01,-2.142332560185233881e-01,-2.488651396215992018e-03,4.123946993563490891e-03,8.333611609423368857e-03,8.471740037202835083e-02
-3.327147563406958608e-01,-2.022526334144972293e-01,-2.930971308824841248e-01,6.600102373913104004e-02,4.772862068980318617e-02,1.128890122809023122e-01,2.674987316131591797e-01
-2.882282219318665351e-01,-2.905881789801704196e-01,-2.239762302546752237e-01,5.767480412133536676e-03,7.502515211521213270e-03,5.314242729833866356e-03,6.810945272445678711e-02
-2.982619471966904134e-01,-2.974996729686579799e-01,-2.132064109542571029e-01,2.044847847153566291e-03,-9.354710793072021704e-03,-2.405578577322179008e-03,8.638649433851242065e-02
-3.180853398859672110e-01,-2.990633451765050688e-01,-1.937608333373643243e-01,1.299260902093571281e-03,2.463239280120371657e-03,-1.243191251088939658e-02,1.180696561932563782e-01
-3.174869073425302113e-01,-3.205221390417470895e-01,-1.653108496717451137e-01,4.223032012607222385e-03,1.500212363368848625e-02,1.503250903254249246e-02,1.582254022359848022e-01
-2.649944841977346366e-01,-2.494006699597634269e-01,-2.898426160237342897e-01,6.597999251205341475e-03,9.624205490933097386e-04,2.028989267104217356e-03,3.733368217945098877e-02
-1.084059892533376090e-01,-3.640840251030342811e-01,-3.664691208757395180e-01,3.617092548469444391e-02,2.808333625104601772e-02,-1.794476314286245610e-03,2.688632607460021973e-01
-2.272519991879151935e-01,-2.909748518090123359e-01,-2.855163632487420777e-01,-4.617240084932636547e-04,3.715928541262045887e-03,-2.374358929470159283e-03,6.165665760636329651e-02
-3.014966634583969296e-01,-3.083190277226480203e-01,-1.882227564532907016e-01,-5.009191666814292662e-03,-1.970327564863735836e-02,4.938559903125047321e-03,1.223250553011894226e-01
-3.285983456913119660e-01,-1.780340410774492454e-01,-3.013227713421010034e-01,1.199233364874725122e-03,-2.444071398040989409e-03,6.242502250454181299e-03,1.394488513469696045e-01
-2.303601069659740597e-01,-2.840197335564094705e-01,-2.901918900285160308e-01,-3.687364765053983105e-03,1.178885735533118312e-03,-2.228657825169924785e-03,5.751961842179298401e-02
-2.933314520923039903e-01,-2.215813438902791144e-01,-2.936380117280490420e-01,-5.874602812945877751e-03,-1.526841246480390053e-03,5.190026061697290000e-03,7.322228699922561646e-02
-2.172566632213048243e-01,-2.942944765983928068e-01,-2.930641660223514133e-01,-1.880330690780475291e-03,-1.835176498483344874e-03,8.308907542894850744e-04,7.657897472381591797e-02
-2.395342046698492600e-01,-2.773936295339832214e-01,-2.862066831403907718e-01,7.335832488083633002e-03,-3.830459305327085263e-03,-6.240689225212213247e-03,4.655064269900321960e-02
-2.407616545182107992e-01,-2.710984019352621344e-01,-2.928687456406354750e-01,2.223237166587203884e-02,-2.844278774501902279e-03,-9.692845505992612673e-03,6.199730560183525085e-02
-2.739367727270864972e-01,-2.839844709501515019e-01,-2.470561037937219484e-01,-4.629504477032489462e-03,2.795544384819321441e-03,-1.856465688593604731e-03,3.452096506953239441e-02
-2.276863059414740154e-01,-2.839249478888488110e-01,-2.952109060730274126e-01,4.334348060284340040e-03,-3.090535010844137377e-03,1.983480853095154553e-03,6.341672688722610474e-02
-2.149386784155748464e-01,-2.980246216052539476e-01,-2.949918952425599761e-01,-2.423415174611483203e-03,-5.635008997859424808e-03,-1.331984719494362776e-03,8.233283460140228271e-02
-3.292030720238614538e-01,-3.185400517251161800e-01,-1.524162237122591301e-01,-4.041201929945002422e-03,8.739242999515168045e-03,8.361945103869997120e-02,2.252486646175384521e-01
-2.482809354174010941e-01,-2.877811917500900929e-01,-2.666579792614593436e-01,-2.232057652411724869e-04,-5.459054403785767486e-03,1.368680527961854947e-03,3.559861332178115845e-02
-2.433271388685531444e-01,-2.885108460826186771e-01,-2.737118102716983858e-01,-9.717846047287764452e-04,-3.575178865160907361e-03,2.429322812262754271e-03,4.062988236546516418e-02
-2.608419843839672181e-01,-2.591303257907283109e-01,-2.842530631435437050e-01,1.914799518312524859e-03,1.093801300528830052e-03,8.365467872910610893e-04,2.465295419096946716e-02
-2.939772765500420770e-01,-2.124829919749806062e-01,-2.978108728494330837e-01,1.435651660661454933e-04,3.153335650967971533e-03,3.616658564024546711e-03,8.389019221067428589e-02
-2.101561581337029194e-01,-3.433850937756552368e-01,-2.821355009425020044e-01,7.221270744953250942e-02,-1.145066799366440680e-01,-4.014319158355845324e-02,2.704718708992004395e-01
-2.740705027082610545e-01,-2.902289528705874755e-01,-2.401333086567800368e-01,-2.489067038124355424e-03,-4.328680546315784826e-03,1.376319057317711104e-03,4.518498107790946960e-02
-2.966552869116511060e-01,-2.172335006339910779e-01,-2.951699629759264032e-01,6.577510866585641741e-03,1.471318539974321221e-03,5.612586253050828693e-03,8.014266937971115112e-02
-2.372686817638572920e-01,-2.878501312733680595e-01,-2.758526836682987926e-01,3.470391370272730199e-03,-9.027956341338409102e-03,-5.308205366274755185e-03,4.960592091083526611e-02
-3.131584861290077626e-01,-2.032738569685366703e-01,-2.987753137881898335e-01,7.228575716109479545e-04,2.191909433827734718e-03,3.556529467860090887e-02,1.204643920063972473e-01
-3.041639369082066446e-01,-1.912271059106022131e-01,-2.999707226486325040e-01,1.040691465201360258e-02,2.990314891229281773e-03,1.622583012934946875e-02,1.159323602914810181e-01
-2.597862484582129095e-01,-2.613995157393782520e-01,-2.839188914640005668e-01,5.066198590988809378e-04,3.666542587563923470e-04,7.017735977725758417e-04,2.342446334660053253e-02
-3.478928547207482680e-01,-3.471474001174922330e-01,-1.454605014496506699e-01,3.745612243142872055e-02,-9.638135452007785819e-02,-6.482752173709818710e-02,2.924265861511230469e-01
-1.455711707501370911e-01,-3.756485785988488146e-01,-2.889452519970288624e-01,1.429667281104779475e-02,-1.083366761503230802e-01,2.944794784237247942e-02,2.809445559978485107e-01
-2.963731840356281788e-01,-2.916377737024928862e-01,-2.190860818455112324e-01,8.428959066266117567e-04,-6.411001739885995726e-03,-2.382665763983544786e-03,7.597499340772628784e-02
-2.979624820901327076e-01,-3.246119397497263526e-01,-1.819467029525182189e-01,-1.444089227728232068e-03,-2.050792873051034138e-02,2.747980358355735404e-03,1.362066417932510376e-01
-2.673035170579441400e-01,-2.565265170086087898e-01,-2.813583657223279744e-01,-1.730803156403313203e-03,-3.695838907270872914e-03,1.348753403488547322e-03,2.281608432531356812e-02
-3.232045665696492986e-01,-1.277868699872906355e-01,-3.445504739059690458e-01,5.324855431612769696e-02,-1.468523012246360920e-02,-3.555302405864275289e-02,2.361362725496292114e-01
-2.798585786256319041e-01,-2.617756484390591498e-01,-2.636608128413626129e-01,5.195455115808096701e-04,-6.158188585363205594e-04,-1.180726126831007066e-03,1.739501953125000000e-02
-2.732736474383341552e-01,-2.647621156290645983e-01,-2.653314053152682761e-01,3.465573528139302261e-03,-3.293475039884625685e-03,-3.606324958441671676e-03,1.324813254177570343e-02
-2.876089809820866483e-01,-2.669682856659045811e-01,-2.487307458712983144e-01,-1.846257060412743404e-03,7.994719728608902119e-04,-6.030985576853728838e-03,3.544493764638900757e-02
-2.600791330796925482e-01,-2.607405797999577390e-01,-2.837828852828831461e-01,5.265366209576953938e-04,3.576783009849575519e-04,1.393704283306782572e-05,2.340603992342948914e-02
-3.673088833133503206e-01,-1.779817456717900370e-01,-2.825495760274749357e-01,-4.666180104775078524e-02,3.270958263898954971e-02,-1.341839234281627380e-01,3.012297451496124268e-01
-2.786471892438827092e-01,-2.544877154305829614e-01,-2.678460447507666764e-01,-1.074701070099743500e-02,1.112620209669648412e-02,-1.461488414276446851e-02,4.240343347191810608e-02
-2.951216360203828271e-01,-2.231381842155099049e-01,-2.859402484071276174e-01,6.393014550823997123e-04,4.655206768181890335e-04,-4.115039532565876838e-03,6.824722886085510254e-02
-2.962850805002128496e-01,-2.929990681233299865e-01,-2.155807207259878289e-01,1.720721221660435592e-03,3.867122295043606481e-03,-2.073072412689778207e-03,7.953260838985443115e-02
-3.113914290835725351e-01,-1.869914838464399875e-01,-2.940033375945338423e-01,-4.018508055466399331e-02,2.454451048404381053e-02,-6.388450325119857109e-02,1.803056448698043823e-01
-2.845506216606855654e-01,-2.865056759903600314e-01,-2.322615637467849159e-01,-3.409568193820259295e-03,3.751719704859936624e-03,-3.505831585690509164e-03,5.435227602720260620e-02
-2.924059861038000308e-01,-2.224797609983034663e-01,-3.209286752464350356e-01,-1.051704770252100130e-01,5.240620343827651767e-02,-7.848970732331501943e-02,2.600025534629821777e-01
-2.188967847989255755e-01,-2.899389490839292538e-01,-2.932690419352292910e-01,9.855909468654397779e-03,-1.797830292857171067e-03,-2.056834146237140892e-03,7.488965988159179688e-02
-2.873033217757420821e-01,-2.458500526403971931e-01,-2.727953321726170333e-01,2.067670175397263738e-03,-3.870442535582948630e-03,-3.404297146944870907e-03,3.768270462751388550e-02
-2.834215466939593586e-01,-2.353265289248996361e-01,-2.857392631599051658e-01,-3.497910711037377756e-03,3.959273284134296085e-03,-3.165239264308544048e-03,5.043573305010795593e-02
-2.955891562326368183e-01,-2.127341238166158832e-01,-2.953101248471742823e-01,3.083027432604178945e-03,-3.160654435983517672e-04,-1.024883575025509934e-03,8.290886878967285156e-02
-2.986435196762078359e-01,-2.094598384250282164e-01,-2.875942850278332963e-01,-1.087954655420756041e-02,6.302929020747326250e-03,-2.476297305770317619e-02,9.697572886943817139e-02
-2.784786865811489931e-01,-2.260513324986405670e-01,-3.003418594578287637e-01,-3.032869460622895919e-02,1.275147271755691127e-02,-3.784436354763578286e-02,1.091637834906578064e-01
-2.850459788677671691e-01,-3.412322956210429581e-01,-1.917790979529412909e-01,-6.537198140482144981e-02,1.079503756040012113e-01,-1.660586484544887553e-02,2.563270032405853271e-01
-2.413373708610373480e-01,-2.890423507636438183e-01,-2.739382723152292143e-01,-1.858278624072800481e-03,5.245639446458589573e-03,-1.958471103169122374e-03,4.344853386282920837e-02
-2.709611857418718350e-01,-2.628684254437094747e-01,-2.706375549880030151e-01,4.210713761848423366e-03,4.283861447813544845e-03,6.105470795704710449e-03,1.682419329881668091e-02
-2.844060104235480169e-01,-2.828638224787136113e-01,-2.372441588640851473e-01,-3.908968767660043683e-03,-3.550779075100970582e-03,3.624631924806904354e-03,4.771754518151283264e-02
-2.251538797849906293e-01,-2.896591155444105392e-01,-2.896412017098510816e-01,6.256883594379146138e-03,6.826188551010299414e-03,3.426330486815956471e-03,6.672500073909759521e-02
-2.931723191016081809e-01,-2.219558058447899662e-01,-2.902123674260519981e-01,4.856171052851979142e-03,-2.262859034696259632e-03,-7.556020520661916456e-03,7.160408049821853638e-02
-2.756939259010231513e-01,-2.580676367932158155e-01,-2.700748626757314419e-01,-1.154983283839477147e-03,-3.397781660108055348e-03,1.390911156145065511e-03,1.696046441793441772e-02
-2.861888117672974352e-01,-2.246013010506134888e-01,-2.917387443037217643e-01,-4.581792613366687632e-03,-2.207119452695351699e-03,5.806763327886715334e-04,6.514778733253479004e-02
-2.893192714717892633e-01,-1.824755078237370043e-01,-3.631820902127324002e-01,-1.233760323411995374e-01,-3.072412135559075830e-02,3.942213309948215672e-02,2.791455686092376709e-01
-2.969561902745255777e-01,-2.134267630476914812e-01,-2.945926143122328256e-01,7.514695319271281343e-03,1.258974556965321680e-03,-1.415350179785913008e-02,8.695087581872940063e-02
-2.929743851486687478e-01,-2.288332164776643862e-01,-2.839072777669322534e-01,4.555586769690726442e-03,-2.236190543525211696e-03,-4.111582695186168958e-03,6.117764487862586975e-02
-3.552225672155265856e-01,-1.670543426693135713e-01,-3.087484437164065287e-01,-6.211478324594435496e-02,2.868284913333716407e-02,-1.079157775846600331e-01,2.789309322834014893e-01
-2.665311974209365609e-01,-2.465380803222938511e-01,-2.902912830650037912e-01,7.072652441730236175e-03,3.746885877445653608e-03,7.833391278510848377e-04,4.041447862982749939e-02
-3.069325072037940583e-01,-2.556279349056120309e-01,-2.472567525554767165e-01,2.944616454948718182e-02,-1.527792772903099200e-02,-4.136595978711928717e-02,1.075482144951820374e-01
-2.163583446161178314e-01,-3.039836580046818004e-01,-2.782950198495044991e-01,-1.412284160019117336e-02,-3.457998386605215524e-02,4.393759963169321762e-03,1.016402095556259155e-01
-2.909945826606028518e-01,-2.359830685583032273e-01,-2.762498322732171996e-01,-1.961374781937461498e-03,3.270821153195691954e-03,-9.190591076928062569e-03,5.224538221955299377e-02
-2.380921797782943605e-01,-2.751912905724724356e-01,-2.900375688226865534e-01,-4.427110119891911229e-03,-1.015294086142518601e-03,2.381407338251418076e-03,4.718520492315292358e-02
-2.692551988658462570e-01,-2.604850146056209570e-01,-2.752058853356454948e-01,-1.039460406451019623e-03,-3.624888930934373581e-03,1.113059580510327535e-03,1.452215574681758881e-02
-2.337723444814950591e-01,-2.782529912321018428e-01,-2.917704572266629492e-01,-9.584856281083676405e-03,-6.972494033034814772e-04,-8.430968162678581220e-05,5.513260141015052795e-02
-2.387394449347887693e-01,-2.828324216871154206e-01,-2.834013072537524547e-01,-2.716227177623548993e-03,2.795715546155333030e-03,-4.309141031862591398e-03,4.550698772072792053e-02
-2.479655721165409943e-01,-2.745154946529948514e-01,-2.821605792521628131e-01,-2.736279248392644008e-03,1.542222363555703982e-03,-4.087370447323010990e-03,3.234252333641052246e-02
-2.743334393074766675e-01,-2.481659989886857987e-01,-2.829077566084473583e-01,-3.221265228978031914e-03,4.382646284062875243e-03,-1.856163355640767353e-03,3.288936242461204529e-02
-2.785236256870139426e-01,-2.130746279119277997e-01,-3.021113436543419462e-01,-3.871557774275494884e-02,2.718920374456334534e-03,-2.895576663453058516e-03,1.045359373092651367e-01
-2.942214903350397481e-01,-3.006787318585120716e-01,-2.090133938577977135e-01,1.119401333430328173e-03,-2.067121798256082218e-03,-2.881534504755095625e-03,8.884713053703308105e-02
-3.018080545315875995e-01,-3.023539996656693374e-01,-2.007000123008292614e-01,3.200889466511484555e-03,4.867607382836766118e-03,-1.246344071720834924e-02,1.041449159383773804e-01
-2.919115172868960162e-01,-3.016777289279154450e-01,-2.154915877319580619e-01,-4.588195536924288657e-03,-2.091228648203580578e-02,-7.940817779092723683e-03,9.080756455659866333e-02
-3.051582457557640016e-01,-3.250508945964186713e-01,-1.889017033326148010e-01,-2.572809915897540222e-03,-3.885479418850659034e-02,1.813934498878092059e-04,1.441283971071243286e-01
-3.241237385673572113e-01,-3.056005893915280103e-01,-1.624723927069951501e-01,-1.838451520182890139e-02,-4.636856995421584360e-02,7.602223727983206669e-02,2.197321504354476929e-01
-2.291093196829687983e-01,-2.896249711660381920e-01,-2.850562693405764847e-01,-1.610315569790285234e-03,-4.249753437274890987e-03,2.406866640324064298e-03,5.904133245348930359e-02
-2.137382383226013316e-01,-2.941378152885003039e-01,-2.950176011313438984e-01,6.904346698620632489e-04,-2.632168747088454303e-03,-8.973528490522504055e-04,8.099525421857833862e-02
-2.956603594876573426e-01,-2.168703125275211474e-01,-2.907119499185116251e-01,1.157217452925441174e-03,-2.811951891685316764e-04,-7.563742147789711059e-03,7.757807523012161255e-02
-3.035421924081465050e-01,-3.088602716342043752e-01,-1.989337641044194305e-01,-3.603517024520201499e-03,1.270556912077506172e-02,-2.671850631561114957e-03,1.098735108971595764e-01
-2.996260050837338818e-01,-3.068234537323686895e-01,-1.906841208567655044e-01,2.925514679930460611e-03,-1.527864281033395125e-02,-1.324209745355336108e-02,1.181367337703704834e-01
-3.008783846348192514e-01,-3.298134044308383417e-01,-1.660966562720888606e-01,-1.116365709240457749e-02,-8.033007558224121436e-02,2.446020727125428063e-02,2.107861787080764771e-01
-2.663383271967619259e-01,-2.668893238399040468e-01,-2.712107813641820853e-01,-2.033310040840625240e-04,5.275965413732711584e-04,3.277591718447254651e-04,4.758264869451522827e-03
-2.946348577399791613e-01,-2.138328699747570893e-01,-2.948944138040303642e-01,8.386400474553108199e-04,9.058169900949324073e-04,2.583722952209292854e-03,8.108390122652053833e-02
-2.613313510259733796e-01,-2.638569066904344895e-01,-2.787268606625631917e-01,2.358530398349714067e-03,1.087730533642988599e-03,2.296604752935488963e-03,1.735250651836395264e-02
-2.894549564404791386e-01,-2.429377664946964777e-01,-2.735420696971672672e-01,-1.115225202980861790e-03,2.177093848149454051e-03,-4.096217662085835896e-03,4.177479445934295654e-02
-2.818890024016592610e-01,-2.531512159877685741e-01,-2.691964803817706309e-01,-1.704243134242550703e-03,4.200815201241015276e-03,-4.663725747929541726e-03,2.736988104879856110e-02
-2.969312189280545189e-01,-2.147318668857952917e-01,-2.940996044909648943e-01,-2.284263194935715058e-03,2.186373445306607425e-04,-2.796707109151647195e-03,8.106328547000885010e-02
-2.776637774943142012e-01,-2.831677248429750882e-01,-2.436701458973401513e-01,5.573814842202315552e-03,-6.017082243780072504e-03,-3.468354648046883398e-03,4.013559594750404358e-02
-2.936922134450364874e-01,-2.234979852372026565e-01,-2.862885220578243461e-01,7.199922779426012540e-03,-4.409964865549694142e-03,-2.340732196132909448e-02,7.949790358543395996e-02
-2.892705302982461757e-01,-2.173455265993697316e-01,-2.957394824594934413e-01,9.873228734753576943e-03,-1.265530305108346527e-03,-1.449880978644273925e-04,7.731521874666213989e-02
-3.582140472779415385e-01,-1.083665029056796458e-01,-3.688935650742718453e-01,-3.932905019373615640e-02,6.630900962945893498e-03,-3.975918822892308968e-02,2.733508944511413574e-01
-2.790919204565255884e-01,-2.386934868552341715e-01,-2.860543186546409267e-01,2.572941596327698449e-02,1.401419696452014217e-02,1.822200934148253404e-02,7.438484579324722290e-02
-3.503103593312698605e-01,-1.348908100571790114e-01,-3.015709233177293336e-01,4.423532792396297000e-03,-1.846031137156543128e-02,-8.124260598249123666e-02,2.432361394166946411e-01
-3.473690666877424782e-01,-2.020322704903351196e-01,-2.818722854585555826e-01,7.609554538358903608e-02,-5.083662999134309912e-02,-1.146222873355622618e-01,2.836071550846099854e-01
-2.940530248931483293e-01,-1.841491813101306940e-01,-3.140043179612070912e-01,-6.415252366888166136e-02,-2.280003256725689903e-02,5.213076223366173989e-02,1.916471868753433228e-01
-2.577140446300446031e-01,-2.658662326143585442e-01,-2.809528367528255077e-01,2.038261688332351166e-03,-7.215813785441981595e-04,-2.316486320447845755e-03,2.114654891192913055e-02
-2.120429300943843243e-01,-3.039217051505921363e-01,-2.919796098160361564e-01,5.568390198611687311e-03,-1.341029145496539995e-02,-4.837167616947805199e-03,9.049762785434722900e-02
-2.757590415243947324e-01,-2.338556310063251709e-01,-2.959576794972820779e-01,2.294921083732631359e-02,-2.694404034951595941e-03,2.574769770475813981e-03,6.805834919214248657e-02
-2.478637027431783157e-01,-2.740268011016049332e-01,-2.831818797619531369e-01,2.873439254574271587e-03,-1.669255015908331424e-03,-4.372057687354377782e-03,3.314094617962837219e-02
-2.975930667875381075e-01,-2.172193114835766214e-01,-2.897121733392987730e-01,-2.240250535277126497e-03,1.223314714400365122e-03,-7.545815982250589013e-03,7.796791195869445801e-02
-2.911850734604896629e-01,-2.199722798934118928e-01,-2.942859232215011556e-01,-1.686542743994994160e-03,-1.373573790374534216e-04,-2.498506997406021220e-03,7.300010323524475098e-02
-2.826401902000947874e-01,-2.460321478237354198e-01,-2.749006337799082544e-01,1.222790779744809594e-03,3.618146354031585334e-03,3.825642446927035936e-03,3.470424562692642212e-02
-2.851930483500195179e-01,-2.436754903997398469e-01,-2.754548030971962769e-01,1.087213406141456905e-03,5.605552361761555365e-03,4.718621669867681390e-03,3.973464295268058777e-02
-2.743156071278785579e-01,-2.328159581093731945e-01,-3.010830843565046600e-01,2.322073969785935776e-02,-1.857339562308802771e-03,6.831556312523744427e-04,7.196469604969024658e-02
-2.876789041751708353e-01,-2.414955860809721300e-01,-2.762581911265157841e-01,1.150358784961159030e-02,3.126100197893875478e-03,1.781106589101703191e-02,5.580235272645950317e-02
-2.802554400888614961e-01,-2.422983523652491034e-01,-2.836067963353243182e-01,4.377981717680629742e-02,1.734423998369769016e-02,2.055720337231271844e-02,9.746517986059188843e-02
-2.416159554565462109e-01,-2.873424854843386611e-01,-2.750561731167503465e-01,-6.262999020638284481e-05,-3.486223135698519795e-03,-7.974960415667751643e-04,4.145406559109687805e-02
-2.357549844652453430e-01,-3.177973133040412068e-01,-2.516990404550753513e-01,1.544558702908102599e-02,-3.961078279511957151e-02,-7.422000645159219229e-03,1.061370223760604858e-01
-2.581792619965277980e-01,-2.927067065317849326e-01,-2.663991855031956346e-01,-3.630256192137433502e-02,-5.118508916171139733e-02,4.198491599784479056e-02,1.344524621963500977e-01
-1.900864900045480810e-01,-2.649597521166417446e-01,-3.519204576294968634e-01,9.382636203537482456e-02,-6.340162437318783151e-02,-1.299217459213611661e-02,2.421880364418029785e-01
-2.830211775065655799e-01,-2.281101114819360232e-01,-2.903004784970905083e-01,2.612967321413915689e-02,1.023683201223294509e-02,1.315475551972735205e-02,7.968518137931823730e-02
-3.604008194331339565e-01,-2.629317652907626757e-01,-2.159055510567434721e-01,4.196897607619088505e-02,-4.612078294915840371e-02,-1.377705183233018937e-01,2.913811802864074707e-01
-2.967608818426539230e-01,-2.137803443722878505e-01,-2.890946051117337379e-01,1.504271858443660681e-02,4.873981364755405020e-03,1.893327535160142447e-02,9.018821269273757935e-02
-2.797110296520904926e-01,-2.547570379779834360e-01,-2.727659524134705693e-01,3.391658727670307343e-03,7.862915947331931485e-03,8.211376852458558001e-03,3.032976947724819183e-02
-3.046637566204302150e-01,-1.976686423569028461e-01,-3.060773940228976864e-01,-1.757623069525810627e-02,1.182527738109932260e-02,-2.081388838331858782e-02,1.193613931536674500e-01
-2.605462265272937561e-01,-2.597219223505115582e-01,-2.848687000555804039e-01,4.565933676825686093e-03,-4.512661251163172351e-04,6.714881904388704352e-04,2.601572871208190918e-02
-2.534749485719383078e-01,-3.077731805117523423e-01,-2.313114441480309258e-01,5.933754535666171948e-02,-8.581212093496687343e-02,-5.449321231385623882e-02,2.149545997381210327e-01
-2.731862750321426003e-01,-2.890646635980216317e-01,-2.438380600471871940e-01,1.156518806821250260e-03,-3.604480589454595561e-03,3.211125433829343763e-04,4.028327390551567078e-02
-3.355710133747636936e-01,-1.254443642039354823e-01,-3.475055340408473858e-01,-5.692208769365975085e-02,5.992194292847601023e-02,-3.019603136880529698e-02,2.646338939666748047e-01
-2.943842834232014427e-01,-2.110154718723535883e-01,-2.987670227236049469e-01,-2.096837207876947693e-03,-9.226679181885471745e-04,2.754734899227773842e-03,8.586885780096054077e-02
-2.652183228824340766e-01,-2.550095659044072649e-01,-2.858162292035510976e-01,1.353980519458012136e-02,-6.283370436570774088e-05,-1.162095572586425681e-03,3.595571964979171753e-02
-2.848124836639808199e-01,-2.752030027232942877e-01,-2.447951808287445741e-01,3.128471251242269033e-03,-1.707491735842436680e-03,-4.330603459684038807e-03,3.746401146054267883e-02
-2.957935622153011757e-01,-2.400315292588275362e-01,-2.738665769176501508e-01,-5.719340684941480110e-03,-7.782746832545614155e-03,-6.368586326433925415e-02,1.217169538140296936e-01
-2.763505621620889752e-01,-2.475251199375888556e-01,-2.815146819778469034e-01,1.252708991551319817e-02,-8.791855024187318277e-03,-1.126275350359036594e-02,4.571274667978286743e-02
-2.740794901260577565e-01,-2.826665306680294365e-01,-2.486348497399199498e-01,3.670823948002378996e-03,-2.817970296362804893e-03,-2.226272033820403569e-03,3.191829845309257507e-02
-2.689364591867692278e-01,-2.624701739084321916e-01,-2.746373115497041661e-01,1.141086615152182154e-03,-2.590059753861013135e-03,-1.039129440091150769e-03,1.176633872091770172e-02
-2.630895084284256003e-01,-2.627888866374821220e-01,-2.787396025914449238e-01,3.731840272456148728e-04,-1.432096822221306772e-03,-4.515793347318891463e-04,1.602819003164768219e-02
-2.916888804416008507e-01,-2.033106361221808100e-01,-3.044192980166098850e-01,-1.947998843077912781e-02,-2.393972151457187357e-03,5.728440304946311699e-03,1.017443761229515076e-01
-3.298377223956782123e-01,-1.356174723203443788e-01,-3.188506868820311091e-01,-4.171714131340455156e-02,1.117241822947490949e-02,-4.481201195566358875e-02,2.175502032041549683e-01
-3.526628717045836026e-01,-1.872127572661427819e-01,-2.709152458795593965e-01,2.694564712423700228e-02,2.414913910739353853e-02,-1.195791902896961578e-01,2.595314085483551025e-01
-3.237631263834270801e-01,-1.709615607113952884e-01,-3.210796971842739267e-01,4.344247713281472035e-06,-2.370654996132338325e-03,3.599356482462742887e-04,1.515346020460128784e-01
-3.914811503076184862e-01,-9.677403401441470043e-02,-3.507957951788827078e-01,5.710543733774640918e-02,-1.988193748191042706e-02,-8.852319805394763541e-02,3.331596553325653076e-01
-3.694447667763847698e-01,-2.606425771830320204e-01,-2.100025029852836678e-01,2.986035052516473887e-02,-2.562160466740015519e-02,-1.408998887215813789e-01,2.900254130363464355e-01
-3.249596004716879261e-01,-8.115525914071600178e-02,-4.084274580065715976e-01,6.194575592560955940e-03,1.513111303038990572e-02,4.170326898605237337e-02,3.045927286148071289e-01
-3.188184641338492331e-01,-1.292099424004369834e-01,-3.412027121868204116e-01,-5.673636651005395382e-02,-6.482806737474388660e-03,-6.840220924331627452e-04,2.246802598237991333e-01
-2.660554245204229673e-01,-2.633449159730473221e-01,-2.754751547482365837e-01,1.709585620465274916e-02,2.231250132622810897e-02,1.749829629823924579e-02,5.839974060654640198e-02
-3.885747599523177165e-01,-1.138151648842533337e-01,-3.118650783219180656e-01,-3.068746471867969672e-02,-9.370071580309939641e-03,3.095652947908793945e-02,2.574178874492645264e-01
-2.104478892797557732e-01,-3.127017901164244051e-01,-3.132219288080091424e-01,-9.917615763289926167e-02,9.081123289100738460e-02,-5.238024814555220648e-02,2.701632082462310791e-01
-2.130998417145024137e-01,-2.877138612622824887e-01,-3.045991651405750011e-01,-2.257672371831278071e-02,-7.482784373780929088e-03,9.869728409452967113e-04,9.387368708848953247e-02
-2.746427466610537604e-01,-2.551550638936433413e-01,-2.750785073105065370e-01,-2.285631831181116329e-03,4.243793555488466034e-03,-2.112826054385360738e-03,2.171509712934494019e-02
-2.821648126914656496e-01,-2.699155098314741652e-01,-2.525420122577182735e-01,-4.311148185411092619e-03,1.611984477726918904e-03,-4.793302343699297474e-03,2.823433652520179749e-02
-2.630812760437349351e-01,-2.697716836781001715e-01,-2.713260262484116780e-01,-9.072056928457776157e-04,9.595195362836798306e-04,-3.010007976886287882e-03,9.486214257776737213e-03
-2.577974697517981806e-01,-2.671467360121381751e-01,-2.805569969665717700e-01,-1.545189684908991048e-03,9.896774983623789299e-04,-2.648113011724357278e-03,2.058540098369121552e-02
-2.746513323457315803e-01,-2.737849885996161969e-01,-2.565788886531631952e-01,-4.493531181752877766e-03,2.079288125557856096e-03,-1.568617569635545128e-03,1.981500163674354553e-02
-2.754176719333376044e-01,-2.614009820869976908e-01,-2.677542098809628235e-01,-8.363964593938946626e-04,2.860629746408411157e-03,-7.776019077557743547e-04,1.327562239021062851e-02
-2.963869288361102861e-01,-2.006698557344168687e-01,-3.037319654031390703e-01,-1.901694737165752006e-02,2.409622383576030032e-03,6.005947709558616052e-03,1.054955869913101196e-01
-2.983674403040579848e-01,-2.094525869581603528e-01,-2.981527002171453500e-01,-8.679894390986122883e-04,-2.363383171961484265e-03,3.148575411045082765e-03,8.908176422119140625e-02
-2.333397791593597170e-01,-2.917444006083220187e-01,-2.505796770933263473e-01,-6.628354279760795276e-02,9.095953432971980168e-02,-5.977807162704072697e-02,2.267666459083557129e-01
-2.658517506498047633e-01,-2.811083486890404437e-01,-2.572187590619254283e-01,-2.053895914867117853e-03,1.727032381579600038e-03,-8.498138802927319817e-04,2.151214331388473511e-02
-2.818100891895232163e-01,-2.710451230418049473e-01,-2.818012655589818838e-01,-9.103924664220368335e-02,8.049915498949045123e-02,-8.944152612125670643e-02,2.615720331668853760e-01
-2.611564580930345603e-01,-2.618545634331636562e-01,-2.812291729456269374e-01,7.124729992191757358e-04,-6.730593133149020664e-04,-1.353756874157463225e-03,1.994412764906883240e-02
-3.813502598759431206e-01,-2.012293070455767330e-01,-2.499220842658162745e-01,2.138742146094722851e-02,2.258646742549654321e-02,1.346712648344160490e-01,2.887139022350311279e-01
-2.916771473067987785e-01,-2.368777215120465018e-01,-2.681804408179601640e-01,-2.049086108170651566e-02,1.926573493976284357e-02,-3.146679365436510362e-02,8.724147826433181763e-02
-2.522255520512531324e-01,-2.504868351899933177e-01,-2.971739661319046100e-01,-3.919462026339979449e-02,1.903792263483447891e-02,-2.119827584882325727e-02,9.563272446393966675e-02
-2.284943434649175376e-01,-2.871751593670118785e-01,-2.910387697108683946e-01,-2.083192385505057420e-02,-2.275914893656486460e-03,4.339635784627943129e-04,7.073257118463516235e-02
-2.646390499164927856e-01,-2.702034762385757682e-01,-2.702397142333966551e-01,-4.740107557112495157e-04,4.649497764812012598e-04,-1.809884385399293961e-03,6.505031604319810867e-03
-2.857311455065909001e-01,-2.482665544984949402e-01,-2.694110591434500934e-01,-3.660707146823643544e-03,5.450846276941676699e-03,-6.109963272880568341e-03,3.605340421199798584e-02
-3.206344146656251448e-01,-1.914187339808510468e-01,-2.984613709408379667e-01,-2.216541494719123651e-02,-7.246406976911472881e-04,5.181685064048965894e-03,1.260129809379577637e-01
-2.978007578228936136e-01,-2.174096774091797968e-01,-2.906365222735489140e-01,-1.064951993740825701e-03,1.160688488629166586e-05,7.161625464006676420e-03,7.807292044162750244e-02
-2.220597427188510664e-01,-2.377114695258130683e-01,-3.264085164362885427e-01,-9.977228899651040261e-02,4.163166673051692940e-02,-4.958887312567403921e-02,2.279050052165985107e-01
-3.225868565306602709e-01,-1.659707019462825506e-01,-2.977022111026623730e-01,3.909278925162826268e-02,1.993820326162009521e-02,6.170811025156956731e-02,1.960906237363815308e-01
-1.963919770756782923e-01,-2.570924116926923686e-01,-3.333240336627331102e-01,-1.088636898793739344e-01,2.820058902577274318e-02,-1.910813545749428730e-02,2.305605858564376831e-01
-2.336913991533881019e-01,-2.898162000825665885e-01,-2.807509322982905675e-01,6.597512808014304809e-04,1.078224461688574720e-02,-4.255333377969246211e-03,5.592660978436470032e-02
-3.773097245400186539e-01,-1.992003339355666314e-01,-2.609688707472443969e-01,-2.019731487804006520e-02,1.456125213513465976e-03,-1.458641474823640372e-01,2.993258237838745117e-01
-2.745902431155312629e-01,-2.780841267130795824e-01,-2.511729113718437212e-01,-5.270993575325472885e-03,2.513805338762088726e-03,-4.419959107620422337e-03,2.834275923669338226e-02
-1.460112316814599354e-01,-2.960735016888594862e-01,-3.754708955594083242e-01,-7.383798809544946107e-02,2.840335470900409026e-02,-3.567534158392300647e-02,2.516580522060394287e-01
-2.903939472076693118e-01,-2.340833333090827084e-01,-2.830190692583367529e-01,-4.963498607083611895e-03,-2.914610036516030421e-03,3.690512982505533487e-03,5.431614443659782410e-02
-1.888720720065978909e-01,-2.392557576871104097e-01,-3.703927713062452609e-01,-1.432650308015913920e-01,2.186755171752404261e-03,-4.291856370237840529e-02,3.057082891464233398e-01
-1.663916017169213279e-01,-3.020354657042153002e-01,-3.700019262701266798e-01,-1.202348661447702749e-01,6.941295935155696040e-02,-4.477447862962802977e-02,3.099611997604370117e-01
-2.323958776839182283e-01,-2.540260283852563972e-01,-2.915214221950843676e-01,-8.223373533557637449e-02,6.231284678454325487e-02,-5.400310965586715972e-02,2.082537859678268433e-01
-3.512805660699523380e-01,-3.054492130988600840e-01,-1.805321011006039145e-01,-4.742184092061527828e-02,-8.498227084137070786e-02,1.055096501474566406e-01,2.919575870037078857e-01
-3.842123308132933124e-01,-1.839964243248806419e-01,-2.654431445511701848e-01,-1.314468102760803919e-02,-7.041594598148001594e-03,1.331405664044282011e-01,2.902746498584747314e-01
-2.546608772353259331e-01,-2.861586189458995566e-01,-2.648408617366600493e-01,9.029009788215812610e-05,2.150406738181290071e-03,-5.253045535010833836e-04,2.810370735824108124e-02
-2.668387042647187846e-01,-2.607609832845978470e-01,-2.788105477372854191e-01,-8.810709118421971783e-03,3.999999163171841232e-03,-4.288893989039536253e-03,2.427127584815025330e-02
-3.742166462535737592e-01,-1.117557130992674619e-01,-3.193789438025269045e-01,-5.424061676905373580e-02,-1.956127950718177314e-02,-2.022551925780640986e-03,2.597816288471221924e-01
-2.555221159683747634e-01,-2.660100800203376026e-01,-2.832946077355389392e-01,-1.593654835420843085e-03,1.427337807664541243e-03,-2.522300887283595444e-03,2.495693974196910858e-02
-2.402230055442732826e-01,-2.733477262222149262e-01,-2.911133230363009972e-01,-4.283252430162027939e-03,1.754423089746045411e-03,9.785894752109218064e-04,4.548064991831779480e-02
-1.089150133300933743e-01,-3.653632645890818043e-01,-3.690283622835732191e-01,-4.238282535918973942e-02,3.235986287957055840e-02,-6.022517973135288298e-03,2.745145857334136963e-01
-2.583230089167574128e-01,-2.254479021750615264e-01,-3.073869597663727582e-01,-8.536200369755882200e-02,-3.974607907456708528e-02,4.615853456172662461e-02,1.951720416545867920e-01
-1.894789943626402906e-01,-2.414243655523798937e-01,-3.842881521808072520e-01,-1.134977118575418442e-01,5.923336278828601753e-02,-1.025566841548112250e-02,2.828709781169891357e-01
-2.114974059809797691e-01,-3.075435455272092500e-01,-2.896301446622127074e-01,1.120521348993856747e-02,1.720778839143478900e-02,-5.331042273928477369e-03,9.578879177570343018e-02
-2.951368693966798240e-01,-2.010580937571695981e-01,-3.078615350692635033e-01,-1.954561711956267350e-02,-1.691916858829577847e-02,1.852852119243026882e-02,1.150853633880615234e-01
-3.758678437114408855e-01,-3.489245809154321587e-01,-1.092985397657387225e-01,2.197207627515294567e-03,-2.906185754078097205e-02,-6.626986152116183526e-02,2.834188342094421387e-01
-3.493231917586230306e-01,-3.362698696474732407e-01,-1.506175155282157563e-01,2.371654424200410685e-02,-7.186725802590375467e-02,-7.631929955957469924e-02,2.677995562553405762e-01
-3.472004736451287377e-01,-3.487407268669845961e-01,-1.382761966366116146e-01,-1.808551868148082151e-02,8.078625555579362072e-02,-9.753838559430882960e-02,3.050823509693145752e-01
-2.896409114631493531e-01,-2.730197165910558388e-01,-2.434007574244229644e-01,3.853734175863888600e-04,-6.087918444783385142e-04,-3.854501024942710852e-03,4.113366454839706421e-02
-3.254348098686060120e-01,-3.001004593565342882e-01,-1.898071951124227219e-01,-1.380476082604510484e-02,-6.167740297772370678e-03,4.584708422285704854e-02,1.503075063228607178e-01
-1.678417684699137213e-01,-2.833502126447997593e-01,-3.796322541762817138e-01,-1.410554861419154038e-01,-3.360545467234699653e-03,2.506946874918589314e-03,3.057392835617065430e-01
-3.434038364194281212e-01,-3.385596092934958223e-01,-1.038235548350459614e-01,-6.165283774107584158e-03,1.346288179711544776e-02,2.621011538793645290e-02,2.428585737943649292e-01
-2.689279762665703344e-01,-3.593259894171621505e-01,-2.053224158709057168e-01,-9.179941255594433261e-03,-1.345698989057685369e-01,1.243408845416430104e-02,2.702056467533111572e-01
-2.475001868237382552e-01,-2.882706313422030431e-01,-2.651162151448027693e-01,-9.272475138516022078e-03,-2.002888980787655149e-02,9.140062187449735434e-03,5.446437373757362366e-02
-2.968592611202767184e-01,-2.927933190269185193e-01,-2.202123212170045696e-01,-2.775674639241189606e-03,-8.531193915533766270e-03,1.642429795110650001e-02,8.142710477113723755e-02
-2.844409068144553299e-01,-2.930524614458034360e-01,-2.277942868720302383e-01,-2.263648572443020986e-03,-4.262144916486455999e-03,1.284440873752204894e-03,6.201316788792610168e-02
-3.082108584589203226e-01,-2.919552541680692226e-01,-2.058787630653030332e-01,3.721368756751941131e-03,-1.683949104896908383e-02,3.867004893673701982e-02,1.202123165130615234e-01
-2.847286895742247581e-01,-2.916076830130717168e-01,-2.338642485822468586e-01,-4.407424691096176010e-03,-1.037709470808392299e-02,1.953282927148078038e-02,6.715899705886840820e-02
-2.955944399061642969e-01,-3.106639837880552646e-01,-2.348477768554893541e-01,8.110798189245871370e-02,-1.118923308369043912e-01,-9.134306837973600601e-02,2.952262461185455322e-01
-2.780633576784578009e-01,-3.631642717018426780e-01,-1.944637260431859582e-01,5.025606975924915010e-02,-1.418053157011682219e-01,-6.061986639416047651e-02,3.166591823101043701e-01
-2.542918846716564762e-01,-2.658615101721964469e-01,-2.842945548054882643e-01,2.483399486451637501e-03,5.753017997953981631e-04,4.163618609261282057e-04,2.658780850470066071e-02
-2.973923551649711450e-01,-2.983583904020256083e-01,-2.120274057037404014e-01,-2.854317946935045012e-03,-4.214105772015166312e-03,9.129762379711506629e-03,8.774023503065109253e-02
-2.986523776143228948e-01,-2.904465972677618968e-01,-2.147066465158765924e-01,-6.035511117495715762e-03,-4.182633513906799765e-03,9.023604563385866778e-03,8.265241980552673340e-02
-2.145113989720797976e-01,-2.890624184887234382e-01,-2.981956962220466689e-01,1.885807974294382780e-02,1.428118695961252266e-02,1.028756008425469985e-02,9.120529890060424805e-02
-3.305774239859419761e-01,-2.967041389595375112e-01,-2.127775441989126493e-01,5.030029744488918875e-02,-7.968834608478193859e-02,-1.091816025697789350e-01,2.709923684597015381e-01
-1.029379632670019695e-01,-3.583420698496982970e-01,-3.739612163667170308e-01,4.535383562315074835e-02,-3.681427159913651381e-02,-9.437454295849254451e-03,2.827868163585662842e-01
-2.843535310498101487e-01,-2.824890513923441482e-01,-2.386092861134848642e-01,-3.743275314292707212e-03,-3.512185156881950272e-03,2.939570633077869498e-03,4.599661752581596375e-02
-2.957655786121697883e-01,-2.947176437325576548e-01,-2.118544508424842210e-01,-6.850133343975972275e-04,-8.973916390103266281e-04,1.206018363964197647e-03,8.344117552042007446e-02
-3.805489415678208198e-01,-3.079922072950955769e-01,-1.280463807604279858e-01,2.656270407386511316e-03,6.201649378273806079e-02,-3.619875609996266175e-02,2.572773098945617676e-01
-2.923753008511513762e-01,-2.884563151083430199e-01,-2.221121736331760355e-01,-5.563357799722817160e-03,-5.489597978004639653e-03,7.856984874627761725e-03,7.103071361780166626e-02
-2.913103846499993099e-01,-3.202570620504077148e-01,-1.978563152849085460e-01,1.428418177947802549e-02,-4.212098542223715464e-02,-6.723266346439686278e-03,1.354511380195617676e-01
-2.843426200478279542e-01,-2.924970180953319066e-01,-2.289377640828252347e-01,5.073584816411476090e-04,-3.571126614658964339e-03,-6.777303387625477219e-04,6.023615598678588867e-02
-3.063526366684216629e-01,-3.112919929881011738e-01,-1.971232057968475559e-01,-9.009062217496486072e-03,1.097200317593135903e-02,-5.402935971912296506e-03,1.148355677723884583e-01
-1.613232789869810668e-01,-2.874983596046507550e-01,-3.407054579193737331e-01,-8.738337075146423993e-02,9.238981094476961253e-03,-2.369415039101909794e-04,2.205183953046798706e-01
-2.840014274345259437e-01,-2.841302764066144237e-01,-2.375533086274574379e-01,3.087404556564912837e-03,2.460206201696435533e-03,2.778564400166719500e-03,4.725827276706695557e-02
-3.142728044172548585e-01,-1.871765324741421210e-01,-3.119218772204512269e-01,2.024769405435369353e-03,2.241052336841066212e-03,2.536509498054016765e-02,1.334830522537231445e-01
-3.291200715787628850e-01,-3.634990552406196507e-01,-1.409097416120134727e-01,1.208131726912832840e-02,-1.142575347185152690e-01,-6.916527856409688396e-03,2.877868413925170898e-01
-2.938867692174251256e-01,-2.069103882225758473e-01,-2.995131181020390110e-01,1.953999721429868983e-02,2.770894235551891885e-04,1.084867859920226598e-03,9.609943628311157227e-02
-3.060724797426773724e-01,-1.897031502239217848e-01,-3.055171356999020205e-01,3.307941559955491703e-03,-3.878960246633723734e-03,8.058512803011865649e-03,1.172616258263587952e-01
-2.978309374754271044e-01,-2.119713782724703122e-01,-2.950490919146930846e-01,3.121454415726981121e-04,2.357233610093668538e-03,2.991403167563324444e-03,8.476179838180541992e-02
-2.876314002265973890e-01,-2.969038844591390114e-01,-2.212034638338499781e-01,-4.021259293286157631e-03,-9.139071897845211720e-03,7.189819290457800244e-03,7.462413609027862549e-02
-3.017245142528273694e-01,-3.060799144637004754e-01,-1.942354591409453102e-01,-4.350860492896493491e-04,-8.989207539946319353e-03,-2.163879251514299034e-03,1.108966022729873657e-01
-2.975815140182775931e-01,-2.944234556450607831e-01,-2.183108234244094115e-01,-2.088725219234709423e-03,-5.128548292977130538e-03,7.063267345992442839e-03,7.927886396646499634e-02
-2.982809310595094798e-01,-3.171427304541163950e-01,-1.901952810755189738e-01,1.126625010433265385e-02,-2.312492807283525117e-02,-2.381614683033198140e-05,1.267361044883728027e-01
-1.726452232638576723e-01,-3.098059508402867257e-01,-3.116426599133171882e-01,-6.529341196932027247e-02,4.013925124025101432e-02,-2.265642250530137264e-02,1.955287009477615356e-01
-2.365681649404800801e-01,-2.770154414034000645e-01,-2.937570388723891313e-01,1.816830632106889235e-02,3.623874177923177946e-03,4.381106086254425540e-03,6.066842004656791687e-02
-3.043139095185312115e-01,-3.170445719909392723e-01,-1.953909400207894387e-01,2.387118273860079284e-03,-3.567496506276828655e-02,-8.698474664478671181e-03,1.321935653686523438e-01
-2.904554769177685736e-01,-2.951988733665437126e-01,-2.217890117010470619e-01,-1.986740573456319183e-03,-2.003238690232638647e-02,5.940582223487045517e-03,7.990555465221405029e-02
-3.038380924438026653e-01,-3.016161882014697926e-01,-1.910510882524391885e-01,-1.030061333675655333e-03,-6.508023397156476042e-03,1.457905462428621055e-02,1.150788217782974243e-01
-3.035476255662261647e-01,-3.029375832888999698e-01,-1.920916018649578838e-01,-2.717816598015034262e-03,-9.759666175196298615e-03,1.109504076601473474e-02,1.141579449176788330e-01
-2.654915888503905363e-01,-2.725859048997945067e-01,-2.649490657008349848e-01,-1.021008046782092204e-03,-1.556485202001344501e-03,9.552365591839612202e-04,8.222240023314952850e-03
-3.099410935104307541e-01,-2.886759128116574424e-01,-2.080355616326797219e-01,2.354143827400892106e-03,2.488357968201831711e-03,2.139029122538456743e-02,1.003879532217979431e-01
-3.296962177466526978e-01,-3.681155421291529839e-01,-1.397811447021246323e-01,3.221875222888472001e-02,-1.114254339139189309e-01,-4.135963978557360976e-02,3.005546033382415771e-01
-2.790911858216429398e-01,-2.863362167827983029e-01,-2.364904197461065449e-01,-5.474850336544651377e-03,8.668432085848706836e-03,-5.163916066693675921e-03,5.070803314447402954e-02
-2.944099399661554983e-01,-2.994090393117796456e-01,-2.109069518764829232e-01,2.885347887571508606e-04,-6.328288042557248362e-04,-5.235377014875665196e-04,8.612463623285293579e-02
-2.692859136604579540e-01,-2.387676142538371904e-01,-2.891559143820298106e-01,-8.368983516015447710e-02,-5.719284065334126477e-02,5.921576299891151418e-02,2.080315649509429932e-01
-2.975016980233051167e-01,-3.108497797275273644e-01,-2.000541961066432672e-01,6.898146526228995240e-03,9.187011344725522569e-03,-1.457988802067322967e-02,1.095837578177452087e-01
-2.957673083105857859e-01,-2.956058316981097778e-01,-2.186095375572811306e-01,-1.609907429047333733e-03,-6.534746756195607999e-03,5.632291007028632224e-03,7.856170088052749634e-02
-2.929345631786481330e-01,-2.977892509986865277e-01,-2.153263729980490759e-01,-7.949870643717715140e-04,-9.675370304908657761e-04,6.338675421457712691e-03,8.092344552278518677e-02
-2.868409735386256432e-01,-2.794597909408712000e-01,-2.422542248656570918e-01,-5.510333715003624087e-03,1.149019333327506304e-02,-1.402469191626090281e-02,5.282611027359962463e-02
-2.971702205324538992e-01,-2.942534803625410644e-01,-2.155527513339396406e-01,9.649264580550700673e-04,1.616226889783724903e-03,6.610524304059330232e-03,8.107767254114151001e-02
-2.932815585768887567e-01,-3.032369305429961637e-01,-2.036731397545349653e-01,2.307981609593971403e-03,1.265633463243354129e-02,4.209624153549716696e-03,9.782921522855758667e-02
-3.119144633797764632e-01,-3.022902496803164252e-01,-1.930315627029407510e-01,-3.922695127892074883e-03,2.367504854734193455e-03,-2.894194713281062360e-03,1.147594079375267029e-01
-2.212419115891585408e-01,-3.158577796528571624e-01,-2.698005061528497839e-01,-1.052892767695829540e-02,3.841527136534766962e-02,8.318373582507743863e-03,1.080881431698799133e-01
-2.680523735687483367e-01,-2.663987693434081705e-01,-2.702791241448342374e-01,-1.162392808536198707e-04,-1.273291079573993191e-03,5.054694770071546227e-04,4.128660075366497040e-03
-2.304687271015343486e-01,-3.026274447200451023e-01,-2.632378378732182500e-01,-8.053133224209979221e-03,3.829113012189410553e-02,-8.102968345084926235e-03,9.330746531486511230e-02
-2.653390195875489077e-01,-2.884888363466265315e-01,-2.536683704536634165e-01,-3.218909595316304982e-04,1.228145228174350699e-02,-2.904668669154185953e-04,3.735448420047760010e-02
-2.777743492539856973e-01,-2.934585198689086405e-01,-2.319034490290500239e-01,3.560148859172972743e-03,1.163281164942410635e-02,2.522080506252335087e-03,5.943612754344940186e-02
-2.686264165363963508e-01,-2.918177669327243762e-01,-2.432238221112340004e-01,-3.423498287785823897e-03,1.964985589447179951e-02,-1.228043747003597060e-03,5.450033769011497498e-02
-2.902704238112389645e-01,-2.336850069605206082e-01,-2.632996031792932956e-01,7.361338478432521981e-02,-5.850741316024361816e-02,-7.136112992691287515e-02,2.102535516023635864e-01
-2.864507627975386161e-01,-2.405251945398814151e-01,-2.749615884471749427e-01,8.452201436291583922e-03,4.753308439789401436e-03,4.001791213050574780e-03,4.520681500434875488e-02
-2.616421725655924679e-01,-2.898170488198589800e-01,-2.536692724411417355e-01,1.608397269279182628e-03,2.908761125408833303e-02,5.271106613331440769e-04,6.024025380611419678e-02
-2.697110076727561867e-01,-2.944227406798647362e-01,-2.358893326651678446e-01,-3.897293065336625457e-03,1.333378573021083355e-02,-3.013271107112315637e-03,5.653798207640647888e-02
-2.661824388084665372e-01,-2.908423450449164060e-01,-2.470366679259557718e-01,5.182367447702768528e-04,5.682575848699284067e-03,3.002526794824243034e-04,3.930337727069854736e-02
-3.388537993504964208e-01,-2.994468213483337249e-01,-1.987020456494457132e-01,4.808622958291072780e-02,7.763778665930053113e-02,1.262085161777676545e-01,2.974524796009063721e-01
-2.875894982140363987e-01,-2.510705506136883813e-01,-2.701302666446643297e-01,-1.813280053374242626e-02,-1.281808955375650372e-02,2.664775997940023802e-02,6.790051609277725220e-02
-3.258164766799242495e-01,-1.469376124505237802e-01,-3.155801129364758095e-01,-7.717152944059313055e-03,-6.429991131044472501e-03,6.045216752598395193e-02,2.038073986768722534e-01
-3.890995492276994039e-01,-3.227946267035618488e-01,-1.017336171055104599e-01,-5.980725160344757541e-03,-2.464845501567580061e-02,2.861248598835434281e-02,2.689009308815002441e-01
-2.864814357570460990e-01,-2.896089626490596647e-01,-2.280783492637001031e-01,7.663336522681658131e-03,2.394658971636537403e-02,1.063545561228632433e-02,7.641462981700897217e-02
-2.721093799317436668e-01,-2.410249676371168659e-01,-2.872947073691504705e-01,3.203667626780084404e-02,1.322027106428298911e-02,2.100234593138575884e-02,8.121287077665328979e-02
-3.339283095199911955e-01,-3.824717453870015715e-01,-8.560502000408495848e-02,-6.677032806230983296e-03,2.876701343811190886e-02,-8.205545195623286520e-03,2.808803021907806396e-01
-3.733144553552070755e-01,-1.987656045633936497e-01,-2.328827936673092402e-01,6.785658938585811817e-02,4.316717279360055698e-02,1.028283982563158172e-01,2.771298885345458984e-01
-3.745217636100625636e-01,-3.606094503409281726e-01,-1.048965245285392867e-01,-3.719711648604255051e-03,-2.601010448573462530e-02,6.751196487541585856e-02,2.913501262664794922e-01
-2.792859409147438465e-01,-2.443755442927367794e-01,-2.482373269859901310e-01,6.589216495663627327e-02,6.455319646162419045e-02,8.738441745158571916e-02,2.225614935159683228e-01
-3.050135083662591784e-01,-2.996777449770081092e-01,-2.285891606809726251e-01,7.300116956708553595e-02,8.584522052144234749e-02,1.066323740610155696e-01,2.786906361579895020e-01
-3.080132710790407513e-01,-1.363384812279380409e-01,-3.670833785583879072e-01,-5.312472472872534213e-02,6.549446986406143832e-03,6.145531815856747349e-02,2.510538101196289062e-01
-3.320876832123167977e-01,-2.000724339359902237e-01,-2.426762695303398831e-01,3.489058519364553190e-02,2.172562181913793508e-02,1.134812348784384750e-01,2.394176125526428223e-01
-2.830759292405180538e-01,-2.731840512206447080e-01,-2.488272583486948741e-01,3.737062897019190894e-03,1.560575250800387863e-03,3.264046403913463488e-03,3.183083608746528625e-02
-3.096276153986732282e-01,-2.086216353687880276e-01,-2.873943747525296022e-01,1.872853073101709773e-02,-1.250707497173243971e-03,2.152886886800877905e-02,1.043948158621788025e-01
-2.990396804841372047e-01,-2.391361978442418379e-01,-2.653048805563007484e-01,-6.365358578729038430e-03,4.397495400469624872e-03,2.664336278752015355e-02,7.081529498100280762e-02
-3.343118952813917133e-01,-3.703867026593896661e-01,-1.310139341819147596e-01,2.508640063696418454e-02,9.774522045684889970e-02,7.527168218236253427e-02,3.122710883617401123e-01
-3.284847352551094612e-01,-1.686574978789361912e-01,-2.862021260696305802e-01,-6.895021390503320961e-03,-4.387935184149755266e-03,8.263167933963527778e-02,2.031231671571731567e-01
-2.574513547827360638e-01,-2.659385208823470403e-01,-2.810109569174791266e-01,1.512829164471244173e-03,1.931644009302210634e-03,2.184028194047262818e-03,2.143600210547447205e-02
-2.190488349459239203e-01,-3.020106621445714512e-01,-2.885850142454172151e-01,-8.057228225679657907e-02,1.108033411554914804e-01,-1.941047768817066865e-02,2.517681717872619629e-01
-1.788856200947010477e-01,-3.263190102665367576e-01,-2.911326056609995216e-01,4.180118872518163303e-02,8.888326284667792676e-02,5.881857707561707893e-03,2.164105921983718872e-01
-2.517197268429015033e-01,-2.795244609572215544e-01,-2.504901916964274999e-01,7.320018052754348470e-02,9.362356855224188146e-02,7.809174527653066356e-02,2.479408830404281616e-01
-2.899228106372250258e-01,-2.329830044173997472e-01,-2.815237950574734360e-01,1.272404669035622979e-02,9.881398476888000881e-03,2.786069271372016570e-02,7.708262652158737183e-02
-3.458361426347560386e-01,-1.308076243381062209e-01,-3.610491670595653568e-01,-7.436347659412366473e-02,-2.160732211724455606e-02,5.076723129612445429e-02,2.747039794921875000e-01
-2.560660687280664760e-01,-3.544336647317377631e-01,-2.197742064996586753e-01,-5.920530396322350175e-02,-1.378175581779901016e-01,7.288426140825231270e-02,3.130438029766082764e-01
-2.678541187257616474e-01,-2.556675182138479774e-01,-2.818759134461332194e-01,2.377917831020583735e-03,-4.064871324172518105e-03,-1.580798194349113421e-03,2.429056912660598755e-02
-2.751700579497685650e-01,-2.350725074492146516e-01,-3.076272715118089640e-01,4.566318734853246769e-02,9.981455016452277229e-03,2.651963639080506460e-02,1.123693957924842834e-01
-3.501690001917204809e-01,-1.991411474834074991e-01,-2.897331947737013524e-01,-5.506989926156614923e-02,-3.822133355891479956e-02,1.111346373729024117e-01,2.605145275592803955e-01
-2.683785377458437482e-01,-2.871131205850115942e-01,-2.532192266113056922e-01,4.463980908927510718e-03,9.431610488953615437e-03,4.066289237059676417e-03,3.522845357656478882e-02
-2.558146607007293905e-01,-2.675743644699730694e-01,-2.807368602934940949e-01,2.756520460613204326e-02,2.180520924802643173e-02,2.296905191567097382e-02,7.586161047220230103e-02
-2.593842836312340583e-01,-2.606973407315277824e-01,-2.849617316857657179e-01,7.003509325994018665e-04,8.489077485302055470e-05,-2.036460490709593267e-04,2.497924864292144775e-02
-2.660970688847081878e-01,-2.553187536750327613e-01,-2.842843715076905919e-01,-1.155734485844954820e-02,2.258589280890304155e-03,-2.725237027925208298e-03,3.288281708955764771e-02
-2.910842620776117329e-01,-2.911550720126685476e-01,-2.239164870202415558e-01,9.147108049993599253e-04,1.269605749498925636e-03,4.888410255282012694e-03,6.778869032859802246e-02
-3.303627139370755028e-01,-2.861110925662814775e-01,-1.971776518256339594e-01,-2.389665163460450489e-03,1.115897986532537675e-02,5.354428137796476278e-02,1.509784162044525146e-01
-3.186138260826881230e-01,-3.169460904663990997e-01,-1.648271339731852692e-01,1.780475144603756383e-03,1.666555022577165257e-02,2.238708299378606385e-03,1.557383090257644653e-01
-2.610350657273060038e-01,-2.594455768971894449e-01,-2.839437780802476774e-01,6.713275660554681151e-04,7.886617729217092101e-05,4.342186983925449086e-04,2.378413453698158264e-02
-2.905628004930093655e-01,-2.671960342054592874e-01,-2.456860534518822137e-01,2.482323492757360344e-03,3.906798707436537257e-04,6.197035395961393925e-03,4.056423529982566833e-02
-2.632160210797116484e-01,-2.410494332282509533e-01,-3.014997736407949436e-01,2.296391617837615848e-02,-5.482278117889663460e-03,3.697129769892694065e-05,6.691650301218032837e-02
-3.339774098522786394e-01,-2.136965298147118775e-01,-2.890470546903628479e-01,-8.469104942984080620e-02,6.817090124643544746e-02,-1.242749826691921800e-01,3.047528862953186035e-01
-3.742927863465645988e-01,-1.808434282101776258e-01,-2.903141455919711622e-01,-3.943626094892159484e-02,2.205403044584269834e-02,-1.364263454434169465e-01,3.003176450729370117e-01
-2.851937585476148063e-01,-2.458071775742427245e-01,-2.736952548604024704e-01,2.807510290261688423e-03,-3.839711087793912757e-03,-3.354998618282672117e-03,3.650035709142684937e-02
-2.637813355446899655e-01,-2.660272301932712913e-01,-2.732172883179757039e-01,-5.136204094966762002e-03,5.270952387140965742e-03,-4.775636162473982822e-03,1.742985285818576813e-02
-2.653624842392046101e-01,-2.810575829048546637e-01,-2.583413923013865854e-01,-2.329848130121750429e-03,1.055613587299558545e-03,-9.651581905808369506e-04,2.069421857595443726e-02
-2.808154489875511750e-01,-2.789705414907752701e-01,-2.513879495559129262e-01,-1.799505451145149912e-02,2.009510481301935922e-02,-2.075334593629031207e-02,6.549885869026184082e-02
-2.798659853756352844e-01,-2.624332905203851651e-01,-2.613141013008624669e-01,-3.626470221513451372e-03,3.711483100737837139e-03,-5.877640987787676255e-03,2.256282605230808258e-02
-2.819170507335066467e-01,-1.653972446247657380e-01,-3.607665478976489482e-01,-7.751829617930053318e-02,3.983020022371651370e-02,-5.673026655679695718e-02,2.478370368480682373e-01
-2.940610641622797838e-01,-2.879705034514470907e-01,-2.213895393924365518e-01,-3.570193594492753354e-03,3.019719190706111195e-03,-8.560308075481351184e-03,7.184056192636489868e-02
-2.310668537631888064e-01,-2.570603010447139458e-01,-3.040489484648939977e-01,-5.117289592695818679e-02,-1.124369806819183228e-02,8.753420857977702377e-03,1.121165230870246887e-01
-3.493382668544753322e-01,-2.693321560702826578e-01,-1.859922593506714295e-01,-4.685334953539697922e-02,-9.549271342415560637e-02,8.615637808505202666e-02,2.760892212390899658e-01
-2.687219352422425822e-01,-2.558960641266322389e-01,-2.783633412537084295e-01,-4.352625320940155251e-03,-5.579584321456090325e-03,3.591698345836085403e-03,2.387574687600135803e-02
-2.629071077721001348e-01,-2.601008834057217389e-01,-2.810373533754644271e-01,2.733781960385788922e-03,2.241615227182329993e-03,9.110150489038152874e-04,2.067470178008079529e-02
-2.573681742331136446e-01,-2.615442301715595330e-01,-2.853871564852697995e-01,3.247533232921187042e-03,-5.708275805278163176e-05,-5.098919470153977966e-04,2.679408714175224304e-02
-3.007915788188404993e-01,-2.351753428983775762e-01,-2.404660790359487987e-01,6.478530430218677749e-02,6.492144841230368391e-02,9.347821736008002369e-02,2.354498803615570068e-01
-2.615775258873166420e-01,-2.590652954409373709e-01,-2.844331478771923716e-01,7.782750701501999239e-04,9.714682958101496669e-04,3.344994124749152637e-04,2.431241236627101898e-02
-2.760451014693442451e-01,-2.526843916225628983e-01,-2.748096449055357215e-01,-4.306555265757394495e-03,-5.877021432967963199e-03,3.157704570798411901e-03,2.659997530281543732e-02
-2.572523903196421990e-01,-3.357373452902852051e-01,-2.055808536854034363e-01,-1.629494821459113313e-02,-1.019672274238329762e-01,2.491454633645580341e-02,2.161851078271865845e-01
-3.722691155562440901e-01,-1.525893045571174167e-01,-3.104800635032488043e-01,4.379858490628897594e-02,1.948294163568378354e-02,1.000110074272500815e-01,2.745971679687500000e-01
-2.667380789356303405e-01,-2.478440630955512647e-01,-2.879534895841852626e-01,5.971526334169977718e-03,1.103794502395358344e-03,4.920309082575646071e-04,3.632190078496932983e-02
-2.652639662487733530e-01,-2.561536167830105182e-01,-2.842357466194047055e-01,1.611522616012124121e-03,1.850614734366020243e-03,1.138575168616214051e-03,2.525313571095466614e-02
-2.203856301704864573e-01,-2.953101826966232357e-01,-2.912126899958934478e-01,4.912935080327066398e-03,1.738280203501319562e-03,1.276174556497667537e-03,7.355159521102905273e-02
-3.032473725800146624e-01,-3.402743923548463556e-01,-1.529742094491965410e-01,1.518025383864800943e-03,-8.246916893907009494e-02,5.846868252381703067e-03,2.236742079257965088e-01
-2.922696055534955706e-01,-2.334504335678276310e-01,-2.761714885548062215e-01,-5.662947716285932249e-04,-2.587049808249638344e-03,1.004570148849555887e-02,5.563951283693313599e-02
-2.749165180991250401e-01,-2.692179578863214684e-01,-2.605128350324072972e-01,-3.704595789733002714e-03,8.949250701420058927e-04,-9.685351925298863168e-04,1.429154910147190094e-02
-2.841487334774270845e-01,-2.650875188979449626e-01,-2.558661527720760831e-01,-2.271126507010829852e-04,-2.948439203350171627e-04,1.856058348292924723e-03,2.519691176712512970e-02
-3.684788633046050532e-01,-9.562199843041932490e-02,-3.768835657411042095e-01,6.632198347434498098e-02,4.977874862580257409e-03,3.404001274294849583e-02,3.058775961399078369e-01
-3.186520664812928505e-01,-2.547959067683134293e-01,-2.336729647404461874e-01,2.567728497805985000e-02,8.642584450952410513e-02,1.154069679144972549e-01,2.649814486503601074e-01
-1.928609121396230863e-01,-3.010587573766703717e-01,-3.046520285904363301e-01,8.912693535617010124e-03,1.733575128805288270e-03,3.696147781661393919e-03,1.113408207893371582e-01
-2.115171455407114098e-01,-3.009123731357552511e-01,-3.011737897524427998e-01,4.619405585280027954e-02,-1.919428870124520459e-02,-7.620650554967189905e-03,1.252840906381607056e-01
-2.178035864637981045e-01,-2.925037903482823887e-01,-2.959812799340049150e-01,1.483359193808371978e-03,-5.610430498039315102e-03,-1.459495075313005938e-03,7.719717919826507568e-02
-1.905943196163910613e-01,-3.039504151292037326e-01,-3.037577571246792840e-01,-6.826129141139120581e-03,2.583069111442047767e-03,4.804651591649682215e-04,1.139662191271781921e-01
-2.766340016847165240e-01,-2.903871438713628295e-01,-2.371321758227678544e-01,-2.291593530994119523e-03,-5.320946466258327963e-03,1.217930941795179051e-03,4.896895959973335266e-02
-2.354449956985254222e-01,-3.274592729787655365e-01,-2.710598976998975229e-01,-8.629587909783860422e-02,-1.147052230192735778e-01,7.373554812204351216e-02,2.908290922641754150e-01
-2.435562916643456977e-01,-2.756135988482834032e-01,-2.841160076854565286e-01,-7.118246476539845727e-03,-2.593016271496887976e-03,5.262945168582332765e-03,4.034602269530296326e-02
-2.186729152234056228e-01,-2.893583633512119002e-01,-2.944121413863917680e-01,9.725319572813497654e-03,-1.584992997583211261e-03,-2.152777421446289141e-03,7.539487630128860474e-02
-1.907010593297777945e-01,-3.218289677534587612e-01,-2.956515035168791883e-01,1.137760091878589272e-02,-1.501978958380641854e-02,-9.812431390912356236e-03,1.257027238607406616e-01
-2.139260182188879311e-01,-2.958866916226257637e-01,-2.972459143076563448e-01,-5.483125293140160735e-03,3.029986448049189034e-03,-2.101400951406861076e-03,8.343732357025146484e-02
-2.678089596602248879e-01,-2.692502005303006873e-01,-2.670072210882423747e-01,1.114297178330194132e-03,-7.488443828544712449e-04,-1.533770518978894637e-03,4.042288288474082947e-03
-2.701047880180874605e-01,-2.598488717627839284e-01,-2.747164787419419940e-01,-2.390892467940584649e-03,5.154652849359393600e-03,-2.607193796908004700e-03,1.705876365303993225e-02
-2.041323656609326243e-01,-3.057170164795102729e-01,-2.938462540732301176e-01,1.585095110415189745e-02,-3.894402367960773242e-02,5.358672709292095632e-03,1.210135668516159058e-01
-2.843043822728258396e-01,-2.847957878527629383e-01,-2.404540353850046219e-01,2.833691814349761223e-02,-2.575434222218077676e-02,-3.198909513301260304e-02,9.702242165803909302e-02
-2.078631480277672861e-01,-3.893534084966886466e-01,-2.359334934522936411e-01,-1.924748642505203639e-02,-1.557576452174987969e-01,1.534713456365427442e-02,3.212966024875640869e-01
-1.852337976973598144e-01,-3.268105918599670257e-01,-2.977488139004373924e-01,3.373546860869017228e-02,-1.055691481301159335e-01,-4.425883053196948136e-02,2.439250200986862183e-01
-1.983265125250036620e-01,-2.976390530146373337e-01,-3.032497739813713733e-01,2.799718124724498436e-02,-1.940880857035798962e-02,1.322659954701327009e-03,1.180616617202758789e-01
-2.011183955871632678e-01,-2.977609789027269027e-01,-3.000571185679766217e-01,1.431175957105535954e-02,-1.132695123865341304e-02,-1.446486622050831500e-03,1.028232574462890625e-01
-2.586325364679346039e-01,-2.828617007154897722e-01,-2.626909062231191361e-01,-9.891061010645551752e-04,-2.608104694718744315e-03,2.109299684130270473e-03,2.327833510935306549e-02
-2.813763105490844074e-01,-1.762201681231763128e-01,-3.346119528740165716e-01,-9.061744397381218952e-02,-8.305606560804869656e-03,-7.316424130638607762e-03,2.109312862157821655e-01
-3.357922826565324370e-01,-3.696345327135481806e-01,-1.236183708558798999e-01,1.834346008421656321e-02,-1.193131122967131807e-01,-3.944118239971155376e-02,3.189461231231689453e-01
-3.567177404753098524e-01,-3.854001403299565087e-01,-8.188540924199300131e-02,-1.456288566221977318e-03,-8.560846339980121567e-02,2.973889326839092989e-02,3.299762606620788574e-01
-2.687339903164132071e-01,-2.630042437069545769e-01,-2.743477573298052086e-01,-6.383668174469736296e-04,2.872951561496364919e-03,-2.797129858836158961e-04,1.107829622924327850e-02
-2.565671284718715750e-01,-3.681234349975980313e-01,-2.128682690312798109e-01,1.011744590459930614e-02,-1.423665461172866076e-01,-1.796232407967988942e-02,2.851473391056060791e-01
-3.358429146680198540e-01,-1.777163278810242053e-01,-2.788600153774223323e-01,-2.706994700666847872e-02,-4.676849014616899988e-03,8.900504178989286641e-02,2.127679884433746338e-01
-3.396687693846466294e-01,-2.709586815779446711e-01,-2.244295923052907482e-01,-5.967117442985211961e-02,-7.596982544307123719e-02,1.212557303438899781e-01,2.866846621036529541e-01
-2.036511339742995697e-01,-2.330223420472223306e-01,-3.638149080969990123e-01,-1.095467339954165203e-01,-2.518305507037304353e-02,5.658778032741538372e-02,2.632896602153778076e-01
-2.897048992391367817e-01,-2.730689846111348240e-01,-2.428833179476526938e-01,-1.987761641080839237e-03,-9.895814692133793160e-04,3.269474254239755195e-03,4.167678207159042358e-02
-2.822520498892406304e-01,-1.874697881693925816e-01,-3.215801346936864036e-01,-7.068197857191967082e-02,-2.001002479698029204e-02,4.368100264127903337e-02,1.901870071887969971e-01
-2.601985465598814495e-01,-2.252766130873918582e-01,-3.174544957438608650e-01,-3.524443985173181249e-02,-1.180221308508132456e-02,1.650375398669829893e-02,1.070457100868225098e-01
-2.739239004796673038e-01,-2.427705046872191685e-01,-2.962334635523745652e-01,-5.823510625007007058e-02,3.138690108820002024e-03,4.984650106563806582e-03,1.115407869219779968e-01
-2.975432875113266928e-01,-3.043675994678917140e-01,-1.996055058856758269e-01,-7.174855101200371815e-03,-2.935852851842474243e-02,1.102305435845862130e-02,1.158078834414482117e-01
-2.558804646562241047e-01,-2.608890299375011268e-01,-2.895504444568487434e-01,-1.391904308928185521e-02,6.423944857894785384e-04,-1.303693310474802417e-03,3.971990942955017090e-02
-1.612746000651089084e-01,-3.435884137638683389e-01,-2.919557491295864948e-01,-3.052316854702950139e-02,7.221332446476012856e-02,-8.090356251081233865e-03,2.124301195144653320e-01
-2.594214738973295575e-01,-2.575010887434961426e-01,-2.846592072521727523e-01,-9.959107085245288288e-03,-3.496311496746603697e-03,3.648893213685154915e-03,3.260773792862892151e-02
-2.606397857214030611e-01,-2.590873972972849715e-01,-2.850384427444431212e-01,-7.442998950566508901e-04,3.538963310328452881e-05,9.229954168772110503e-05,2.524424344301223755e-02
-2.594294666154030038e-01,-2.609280643940278810e-01,-2.838998566320879990e-01,-7.676138072806098708e-04,-4.393127813171735277e-04,7.750607409250957953e-05,2.380628511309623718e-02
-2.590340857422473442e-01,-2.615286520518034785e-01,-2.843722552923229063e-01,-8.830952326860739415e-04,-3.398255154495653341e-04,1.005679022486219258e-03,2.430551685392856598e-02
-3.808528772126801298e-01,-3.154187679303296910e-01,-1.529265522568008240e-01,-1.040246197854920347e-02,-2.400460751009412304e-03,1.349737053216909233e-01,3.103441596031188965e-01
-2.488038698656904468e-01,-2.687776842457166304e-01,-2.857246625457214306e-01,5.571645588619448392e-03,-3.122129573397385092e-03,-5.380920000915657281e-03,3.512669727206230164e-02
-2.739742185950574949e-01,-2.558169296780343771e-01,-2.749490626903107193e-01,2.159107967145018972e-03,4.524189250582475418e-03,1.807436552743292048e-03,2.082134969532489777e-02
-2.261300850871670320e-01,-2.722670152963391210e-01,-3.210311618020463276e-01,5.043086144282406258e-02,2.295521237383683563e-02,2.166908375634468698e-02,1.318168193101882935e-01
-2.784216716969730165e-01,-2.645651285321418689e-01,-2.613535247045778998e-01,-2.870863345069943947e-03,1.238178855569981116e-03,-2.168416281065688352e-03,1.703674905002117157e-02
-2.798128652269102901e-01,-2.634248661935703617e-01,-2.612835678329977762e-01,-2.267610364650521348e-03,1.472070912649078075e-03,-2.228457229406089705e-03,1.857601851224899292e-02
-2.811874704243163547e-01,-2.600856559498042619e-01,-2.629535658888703664e-01,-1.147353973339831088e-03,2.407369386123264354e-03,-2.341172848272236179e-03,2.075505256652832031e-02
-2.832773809325349057e-01,-2.630884284377490445e-01,-2.584393658480330647e-01,-2.221772468977958361e-03,8.353394173350351748e-04,-2.294988428714886050e-03,2.357478253543376923e-02
-3.013975787478889723e-01,-2.623512149697998508e-01,-2.412988875287233326e-01,3.396624339527744025e-03,1.810808674083092418e-03,2.071059668311041324e-02,6.419556587934494019e-02
-2.588762341861574057e-01,-2.829781699938169748e-01,-2.609953524796644331e-01,-1.143876287244148873e-03,-3.306050382452544508e-03,2.224042590386240623e-03,2.420482411980628967e-02
-2.545452060078718381e-01,-2.936339506507283370e-01,-2.836346404772532859e-01,1.001167405702462487e-01,8.162890418396993863e-02,7.536002401796014494e-02,2.614084482192993164e-01
-2.467836794832959091e-01,-3.204231716712402922e-01,-2.393184812586908183e-01,-1.261646947746267004e-02,6.195608393487245236e-02,7.820353598616361715e-03,1.349255591630935669e-01
-2.270251128292152532e-01,-3.760211792414134835e-01,-2.387341663636406708e-01,2.999819742523513605e-02,1.398454154654142079e-01,2.032749621841817289e-02,2.884472906589508057e-01
-1.496754902807314602e-01,-3.219639270292876110e-01,-3.730752587980138424e-01,1.034935936867554113e-01,7.907882003176601449e-02,2.738384118237173481e-02,3.069924116134643555e-01
-2.115713562832867711e-01,-2.955524650136894804e-01,-3.008963088401607755e-01,-3.761573669273495651e-02,1.428041910166632025e-02,-2.064171361425951035e-02,1.168975085020065308e-01
-2.653470969852684269e-01,-2.650737836028593808e-01,-2.722748286656342942e-01,4.893350364106997460e-03,3.414379540082777050e-03,3.889838136749189726e-03,1.421839371323585510e-02
-2.695593152873670406e-01,-2.830411479853149337e-01,-2.540841102141492280e-01,4.456051213396120154e-03,9.423133421056838904e-03,2.650998909360647877e-03,3.125563636422157288e-02
-2.465652410773858105e-01,-2.595111073587167416e-01,-3.104875681568314283e-01,-5.418135546749872078e-02,1.623630344316807222e-02,-1.593920731823444958e-02,1.174138635396957397e-01
-3.078983018016604456e-01,-2.998727378083150263e-01,-2.031525086314099338e-01,1.080726635426795118e-02,3.099946108506723003e-02,4.117489201037204810e-02,1.360692977905273438e-01
-2.519143843363893520e-01,-2.861925318956757835e-01,-2.604219652056293799e-01,2.191262087938626590e-02,3.663111813975926390e-02,2.310826863810232223e-02,8.957526087760925293e-02
-1.943004498772196720e-01,-2.382810529652618914e-01,-3.829957851009229142e-01,-9.822230130696327222e-02,3.427655082348315951e-02,-1.012495166846003221e-02,2.490307986736297607e-01
-2.732130286566799571e-01,-2.371165084902991660e-01,-2.978608756470054186e-01,-3.984606872457634869e-02,3.636308028354762190e-02,-3.225759064263330339e-02,1.210445463657379150e-01
-1.954995885666022948e-01,-3.155105677722373492e-01,-3.000740129614566931e-01,2.462779561195148001e-02,-2.028897008941011465e-02,-8.763157637843179901e-03,1.267803460359573364e-01
-2.530289561847320901e-01,-2.314285175069607237e-01,-3.034199820169178885e-01,-9.749389463011658152e-02,5.805905361394780861e-02,-6.060352572756129430e-02,2.318197637796401978e-01
-2.198801393357982525e-01,-2.892385015596369291e-01,-2.942286633846453170e-01,9.674052913330987921e-03,-2.342619754095618626e-03,-3.008441585988719073e-03,7.420223206281661987e-02
-2.651253511370472715e-01,-2.838185022279494651e-01,-2.562242124909875907e-01,-2.832308698001890623e-03,1.558054243656818586e-03,-4.079538455112496800e-04,2.503801696002483368e-02
-2.360807073484747221e-01,-2.263200298864856963e-01,-3.176328927170288807e-01,-9.466758388924353951e-02,3.689741763234494903e-02,-4.271920233494197472e-02,2.097306251525878906e-01
-2.676276607143290853e-01,-2.821988114896878952e-01,-2.556676659297889564e-01,6.687625713994960371e-03,9.529132597391980555e-03,3.322739922303767114e-03,3.113420493900775909e-02
-2.325470234797452629e-01,-2.947214186010044812e-01,-2.800370873197589594e-01,-1.678057104988903364e-03,1.113879446285559113e-02,-1.677188028224224419e-03,5.964394658803939819e-02
-2.367087988656188524e-01,-2.774454915818296841e-01,-2.932247001132313180e-01,-1.771787828183821537e-02,4.826144823926208820e-04,3.606500223909787852e-04,5.911102145910263062e-02
-2.344165486425636158e-01,-2.845924411517222197e-01,-2.857227485076834772e-01,-2.206501725753584435e-03,-5.168870304981583279e-03,6.352804004196058521e-03,5.283411592245101929e-02
-2.753313015350808968e-01,-2.636591701038430435e-01,-2.659340834214618532e-01,-8.312240891617070793e-04,5.040944728673554765e-04,-1.031227957818186972e-03,1.099482737481594086e-02
-2.512674336862384394e-01,-2.669866395348792776e-01,-2.863270113005415562e-01,-1.918618914064177533e-02,1.908648362760365785e-02,-1.254248905883665124e-02,5.995257943868637085e-02
-3.040990069729438972e-01,-1.866475488767192492e-01,-3.062889393398181559e-01,1.578295362758042747e-02,-6.819518937591376390e-04,-1.770679517153589747e-02,1.254836320877075195e-01
-2.940394625016461427e-01,-2.177194547835515359e-01,-2.895404964750503685e-01,3.263401022223098857e-02,-1.064323281241694175e-02,-3.484664833306160697e-02,1.126022264361381531e-01
-2.532465898569453699e-01,-2.775882922301391997e-01,-2.763133832631622933e-01,9.612771080589105691e-03,-8.986047120445145656e-03,-7.553843158595323695e-03,3.540840744972229004e-02
-2.216076392696219588e-01,-3.008272811662459634e-01,-2.508969659968398602e-01,5.828655669475575618e-02,9.223132888856286349e-02,4.453645486947721555e-02,2.155820876359939575e-01
-8.200733321318318114e-02,-3.519942760659920400e-01,-4.042910106464716602e-01,5.415878158708424539e-02,3.028088527749383391e-02,-2.844958075126372866e-03,3.183110654354095459e-01
-2.928718111632577781e-01,-2.118623608379981149e-01,-2.987720537669923404e-01,1.645223762501136708e-02,-1.178452989590978144e-03,-8.355737885465086903e-03,9.000538289546966553e-02
-2.826680956108377218e-01,-2.322633515745533006e-01,-2.772158891163684635e-01,3.586803830988485875e-02,-2.248631393049376273e-02,-4.440402740604579290e-02,1.165639385581016541e-01
-2.347143071561915151e-01,-2.899561839289300225e-01,-2.785425824983385201e-01,-1.484535274163348208e-03,-6.706300387993822942e-03,2.620243617317703864e-03,5.209182575345039368e-02
-2.370770663271178913e-01,-2.895751674322007974e-01,-2.758572418867348830e-01,6.573238386293226918e-03,1.118303883764776817e-02,3.892416352939501514e-03,5.267184600234031677e-02
-2.939474592228539240e-01,-2.197845062609452005e-01,-2.951247267194152535e-01,4.765610247499099325e-03,-4.730336120653239919e-03,-8.249421165923280161e-03,7.699519395828247070e-02
-1.482244674882140234e-01,-3.128658546871488366e-01,-3.246992314887563458e-01,3.724161005542727526e-02,4.337688684887725660e-02,1.081784378491344040e-02,1.983724534511566162e-01
-2.882828839950223876e-01,-2.205766425182289769e-01,-2.969004531596731167e-01,8.409347426282335128e-03,-2.765121025999432800e-03,-6.662943167179125742e-03,7.490082830190658569e-02
-2.608494999271652182e-01,-2.634448925439873412e-01,-2.804732149371056971e-01,1.131068167694286673e-03,-5.734091620689502587e-04,-6.317788960916342119e-04,1.862570270895957947e-02
-2.656791113360339462e-01,-2.684479984779609141e-01,-2.703471834336499957e-01,3.931059828723817745e-04,-7.975345236006027875e-04,-1.934544434893378101e-03,5.489211063832044601e-03
-2.656411344992938850e-01,-2.553137322995941982e-01,-2.837912435722067528e-01,-1.886843267107524494e-03,-2.136746564506585705e-03,1.620873794587771553e-03,2.560828812420368195e-02
-1.599910219453164750e-01,-3.716041204411433818e-01,-2.941065933533703602e-01,3.186236120560822366e-02,-1.187097913681304240e-01,-2.460666515501917784e-02,2.855251729488372803e-01
-2.482388293247829170e-01,-2.880716282932993533e-01,-2.659544288594846151e-01,-1.429257387170276925e-03,8.433608761512265128e-03,1.422909239146090659e-04,3.760849311947822571e-02
-1.512931464408544535e-01,-3.113281925984460186e-01,-3.360571780646167128e-01,2.762224746084413970e-02,4.840460934964966114e-03,1.145506343724718955e-03,1.803979873657226562e-01
-2.583112701388771137e-01,-2.779917096436118062e-01,-2.680408531418946305e-01,2.672421791457923307e-04,-1.078051752015880783e-03,-3.203764393632819920e-03,1.802762225270271301e-02
-2.573469021924167932e-01,-3.700435874154568427e-01,-2.041107181389741343e-01,-4.247572460832896302e-02,-1.433470500969093175e-01,6.111910884356185070e-02,3.159089982509613037e-01
-2.566615809045419971e-01,-3.428335863809695017e-01,-1.807876389779694282e-01,1.456904102750423979e-02,-1.178047074099107250e-01,-3.203311477457292805e-02,2.550875544548034668e-01
-2.557233083802124551e-01,-2.817521049223317142e-01,-2.692483497292469941e-01,-7.331998733314207262e-03,-9.987850487250756609e-03,6.453920698498982755e-03,3.307400643825531006e-02
-2.717941438953878630e-01,-2.692869499685658363e-01,-2.626627804894969831e-01,4.506049974928877898e-03,-2.686608234639425562e-03,-1.947570298871393810e-03,1.267753355205059052e-02
-2.621269736082307289e-01,-2.717430780270947421e-01,-2.706325266340688374e-01,1.346390157886426762e-02,-1.919062238042359286e-02,-1.347297210397848874e-02,4.771012812852859497e-02
-2.850232104108151865e-01,-3.117329736584495414e-01,-2.110128353291281511e-01,2.616870640536319605e-03,2.382599405582768934e-02,1.978117047544473983e-02,1.051912978291511536e-01
-2.780081669830465341e-01,-2.947439497276226894e-01,-2.647864080654728225e-01,9.986232162190179784e-02,-1.036408348749121994e-01,-8.340094693842022011e-02,2.892836928367614746e-01
-3.164005298114863085e-01,-3.235740145170388216e-01,-1.662047921489657187e-01,-2.381813697095253035e-03,9.399913135181701962e-03,-9.181189355650621123e-03,1.556361913681030273e-01
-2.644658280326188660e-01,-2.694474229888442762e-01,-2.705883620152647606e-01,-4.665712070650267348e-04,3.138578817757441239e-04,-2.503862882189327160e-03,7.180410902947187424e-03
-2.976890332682452511e-01,-1.798671512316386001e-01,-3.018499824800160991e-01,-7.754797918017733438e-02,3.898585139516488884e-02,-7.931587118647837054e-02,2.363542616367340088e-01
-2.092278187738727535e-01,-3.166472942362668630e-01,-2.575488505742485890e-01,4.097220285388181865e-02,-8.568545121197622405e-02,-3.161918496974951837e-02,1.968367844820022583e-01
-3.598432966915745546e-01,-3.091110734493826007e-01,-1.437429722191519987e-01,-1.587825495977776558e-02,5.622161577525093545e-02,5.485189061510383629e-02,2.399479448795318604e-01
-2.655363291024525618e-01,-2.659562475175847318e-01,-2.734161182776996268e-01,-2.871813687022593841e-04,2.251192174104207997e-04,-1.207457886782514278e-03,7.983223535120487213e-03
-1.777765713884456034e-01,-3.653347311368497774e-01,-2.884204043400319661e-01,-6.350401704694139116e-02,-1.118209211800097469e-01,4.353461902099830388e-02,2.862931787967681885e-01
-1.930709928058533253e-01,-2.601259602263472082e-01,-3.392663144086138782e-01,-1.004889162274775621e-01,4.605335714062266245e-03,-2.681021403394953737e-03,2.155123502016067505e-01
-3.018278772271720256e-01,-2.884697011199458538e-01,-2.157075764485197611e-01,5.998517735765565746e-03,2.235077815396147374e-02,2.075540486087393277e-02,9.666290134191513062e-02
-2.908090165112457992e-01,-3.012174599885248383e-01,-2.042507037781251811e-01,2.060465154501329738e-03,2.338627175637137193e-02,3.496482701120511016e-03,1.009543463587760925e-01
-2.920641179591049741e-01,-3.204539431133092142e-01,-1.763833649109949886e-01,2.345895161816373767e-02,7.171484540040595768e-02,3.673642437354836254e-02,1.964711099863052368e-01
-2.769685169975386607e-01,-2.549903293237748003e-01,-2.758918415556486092e-01,-9.448470663384053031e-03,-6.075936572267267091e-03,8.061914553457756941e-03,3.215729817748069763e-02
-7.967428235416834648e-02,-3.515027714023208349e-01,-4.009013935483125013e-01,7.420938893512682433e-02,3.995755059258265102e-02,6.003146059424671784e-03,3.334335684776306152e-01
-2.949625733931600102e-01,-2.552106864791810481e-01,-2.492565722656948091e-01,-1.583100983757328899e-03,-5.544184933841287896e-03,3.102162617236324527e-02,6.956369429826736450e-02
-3.709698287241525172e-01,-2.703342171935865790e-01,-1.676943996929047276e-01,-2.170445024985969557e-02,-7.551000203548124956e-03,9.535725051311594314e-02,2.446528077125549316e-01
-2.625494312397406160e-01,-2.929142873210419107e-01,-2.445593133661600471e-01,2.128640902000795022e-03,2.177806977173504452e-02,7.896698336074382905e-04,5.683531612157821655e-02
-2.841214391265525774e-01,-2.327097606623214077e-01,-2.874087027962962115e-01,3.096496698008860578e-03,4.586445741658441884e-03,5.573256010222344195e-03,5.484546720981597900e-02
-2.780625583663730582e-01,-2.660579874649515730e-01,-2.601836659043208488e-01,-3.537576846899290021e-03,-4.999134512423035123e-03,4.165712385053809384e-03,2.033993415534496307e-02
-2.547914105122042194e-01,-2.708893774817998090e-01,-2.779102990767919334e-01,-3.310570223079039708e-03,-3.237302629488202944e-03,5.693477524480581101e-03,2.414596267044544220e-02
-2.426529541307171911e-01,-2.854714366224472832e-01,-2.762041181773196019e-01,-6.952964130982342006e-03,1.714164582306733006e-02,-4.829453635907054489e-03,5.117619782686233521e-02
-2.626212021999675961e-01,-2.615657976768818727e-01,-2.793200201242140301e-01,-2.733230639204191435e-03,-2.492484627533982349e-03,1.401320241068348613e-03,1.856148056685924530e-02
-2.599383253535271221e-01,-2.626339146062432461e-01,-2.813951272639200751e-01,-1.804186098230133387e-03,-1.088954177338903161e-03,2.224495500982837191e-03,2.092820405960083008e-02
-2.894303366653259713e-01,-2.209348240967931032e-01,-2.957998904875741575e-01,-2.049673761353510218e-02,1.372450116990720599e-03,3.960978595577451487e-03,8.050813525915145874e-02
-3.407417774650458586e-01,-1.396348763916893665e-01,-3.592998539598576402e-01,-8.926464528253691411e-02,-1.603163188672748068e-02,4.875172410303885845e-02,2.762721478939056396e-01
-2.765492635452765358e-01,-2.837654529934956482e-01,-2.429126970879988412e-01,-5.023440659327913123e-03,-6.746825982584838712e-03,2.526654175474987978e-03,4.071407020092010498e-02
-2.783732746053507179e-01,-2.883284642839990530e-01,-2.370143059659968465e-01,-4.226277191100223825e-03,-1.647119432658323418e-02,1.180369467630172468e-02,5.921885743737220764e-02
-2.912439401451126786e-01,-2.941225424774201458e-01,-2.427719027432229393e-01,-9.208949162036633718e-02,-1.054891607237698481e-01,9.477709663037144072e-02,2.971039712429046631e-01
-2.727026613604537908e-01,-2.668455900039222728e-01,-2.646975499836979329e-01,-2.531652086621695615e-03,-1.153816452007655480e-03,1.015120382633686669e-03,8.821205236017704010e-03
-3.422476176803183612e-01,-3.453648517959232445e-01,-1.610670458030996621e-01,-4.129257214085903238e-02,-9.142015373150309820e-02,1.047341927832645542e-01,3.106393516063690186e-01
-2.949912217610101139e-01,-2.600825078195448392e-01,-2.550158938358507710e-01,2.191236923906085207e-05,1.778210814450491978e-03,2.056006079678478551e-02,5.194991454482078552e-02
-2.766311465423047511e-01,-2.487255727233098623e-01,-2.781799378004629064e-01,-4.033222147885621653e-03,-7.335110416526683524e-03,4.865077932686024537e-03,3.324994444847106934e-02
-2.721862685631140089e-01,-2.564862924910734643e-01,-2.800894282825864834e-01,-2.755808192484470592e-02,1.727744267806387291e-02,-2.073994532218705056e-02,6.998098641633987427e-02
-2.896288210957226883e-01,-2.744022331456387742e-01,-2.405846083381237566e-01,9.197634411294937015e-04,-5.111378413043192286e-04,-4.249594457678388879e-03,4.413509368896484375e-02
-3.713224026476107942e-01,-7.356135167911792561e-02,-3.931382929466322729e-01,5.818423429604410724e-02,-5.980374070089609787e-04,2.626660025360280648e-02,3.284213542938232422e-01
-2.774165326971460011e-01,-2.472166143468407518e-01,-2.773834297947321281e-01,-1.171844822475687567e-02,8.104507216124556129e-03,-1.277857530695312299e-02,4.483221471309661865e-02
-2.864272753023057727e-01,-2.570794892422147426e-01,-2.613603239010541257e-01,-4.893833012907670884e-05,-5.804874668837346633e-04,-2.884711121143266298e-03,2.792790345847606659e-02
-3.832231932940732277e-01,-3.672915401664783031e-01,-7.797369214886890054e-02,-5.194844257284501540e-03,-5.290562282709795200e-03,-9.984961465810624978e-03,2.983822524547576904e-01
-2.893358562747261886e-01,-2.897119671540246966e-01,-2.233673806027870745e-01,6.192769369341331702e-03,-7.718301275379863338e-03,-8.249842048676502351e-03,6.981933861970901489e-02
-2.834645617511763471e-01,-2.808516970987082750e-01,-2.409068863449479458e-01,-4.983686204600655187e-03,2.252121269770898052e-03,-6.450480099711829694e-03,4.383308067917823792e-02
-3.824309624364365390e-01,-3.011844405760972232e-01,-1.313627013042694136e-01,-1.459145745421095916e-02,-2.932005981291155999e-02,-7.418295191866837446e-02,2.626117169857025146e-01
-2.950584221448807054e-01,-2.919455073543961166e-01,-2.213353142284669173e-01,4.032121504973978920e-03,-7.637057952692840462e-03,-1.366171226903687384e-02,7.745300978422164917e-02
-3.148251293555388020e-01,-2.841137859194567405e-01,-2.138621898432146728e-01,-9.601504083836356548e-03,2.565692489169294974e-03,-3.466917317250516051e-02,1.092619076371192932e-01
-2.743721123090465674e-01,-3.908142264773978303e-01,-1.547689601844924601e-01,2.242000972875693443e-02,8.819259098225872007e-02,6.209096757521273546e-02,2.796393334865570068e-01
-3.832654982568914348e-01,-2.746737897092088598e-01,-1.451466983794626742e-01,-2.897678231636517665e-02,1.195121830379065365e-02,-9.050296180653216727e-02,2.648675441741943359e-01
-2.847041245823422329e-01,-2.740069914129354411e-01,-2.456145923132240227e-01,-5.070093157519574983e-03,2.087704461771562950e-03,-4.306691744011943712e-03,3.701499849557876587e-02
-2.936591719174939663e-01,-2.787986807101533460e-01,-2.332792116581088870e-01,1.943253280505098570e-03,-9.287062747732211659e-04,-7.095728376586778186e-03,5.598448216915130615e-02
-2.891040417911415750e-01,-3.680278773259136327e-01,-1.784410004796965210e-01,-1.748289779458790313e-02,1.229185870057262486e-01,-1.936575269580133665e-02,2.730901241302490234e-01
-3.109469129029733825e-01,-3.106293829611031510e-01,-1.767082306092278010e-01,-2.882754714617900837e-02,7.748849588756148710e-02,-4.898345527437648200e-02,2.137337625026702881e-01
-2.549168248500692235e-01,-2.801427701312502183e-01,-2.680739950444200326e-01,-2.860734365123002339e-03,4.800389681294212410e-03,-5.140200429859098120e-03,2.550499886274337769e-02
-3.330593498432912192e-01,-2.939471765726162089e-01,-1.569225946375196190e-01,-1.426315845292198958e-02,2.111865578567134055e-02,-8.366033061405460380e-02,2.204774022102355957e-01
-2.858681781775382347e-01,-3.139570872498330667e-01,-2.158820035946285021e-01,6.081291152570665604e-02,1.173980972700325309e-01,4.165496476619652555e-02,2.555383741855621338e-01
-2.831786014165303955e-01,-2.837024336286610993e-01,-2.380194577914906962e-01,4.161758309260568320e-03,2.744453189367516022e-03,2.974055407153357224e-03,4.652279242873191833e-02
-2.696908917627963698e-01,-2.582831755134102902e-01,-2.758695890331875344e-01,1.839757896084536024e-03,3.881153500686221683e-03,1.635820967073263552e-03,1.738300919532775879e-02
-2.668064881267749322e-01,-2.601177558745044749e-01,-2.740673488203496655e-01,1.008476698559138823e-02,8.169568230229492037e-03,8.126273819101189483e-03,2.914562262594699860e-02
-2.832396364900943708e-01,-2.878194564523737786e-01,-2.349447087070170304e-01,-1.035702444759019174e-02,2.456126792548447846e-02,-1.279141838007277765e-02,7.209014892578125000e-02
-2.759599324552886590e-01,-2.496081702173352512e-01,-2.776565028661400203e-01,4.358234151082776391e-03,7.045054389005484322e-03,4.488087474019059227e-03,3.175391629338264465e-02
-2.915836252937228368e-01,-2.927499176214772292e-01,-2.207548754460323392e-01,3.156489215379342569e-04,7.277645186426222670e-03,-5.727027875297156139e-04,7.253174483776092529e-02
-2.657452874616849092e-01,-2.643236119200941259e-01,-2.751079177696751921e-01,-8.134944864733803516e-04,5.350079997403216648e-04,-4.752195920684132088e-04,1.032047253102064133e-02
-2.688405213526953719e-01,-2.708880711319098800e-01,-2.672972685576923690e-01,9.248689133269505716e-03,8.341576305673926994e-03,9.388784429837281065e-03,2.719452604651451111e-02
-2.798343046322071537e-01,-2.901246659406281903e-01,-2.349495392951426453e-01,-1.537568975510552119e-03,6.287279540703859942e-03,-1.009728998722215706e-03,5.206875130534172058e-02
-2.927883983390535128e-01,-2.618051354995857283e-01,-2.571023373580090254e-01,-8.003870802361003761e-03,-8.047782351963943953e-03,2.565383461432350215e-02,5.906463414430618286e-02
-3.053205081197015724e-01,-2.414214117196966658e-01,-2.871785377546545726e-01,9.256532051559959728e-02,6.586074983619366607e-02,1.084515254612479773e-01,2.779498100280761719e-01
-2.650129940545894458e-01,-3.251061167623703896e-01,-2.272916261062311316e-01,3.728046616067758057e-03,5.867415936146706812e-02,1.071315490730874453e-02,1.342194527387619019e-01
-2.857167749359219577e-01,-2.606913930892199582e-01,-2.575713676451618084e-01,-1.218364170406040399e-03,-1.604355916222558289e-04,1.767127081923001650e-03,2.698115631937980652e-02
-2.269608190199884357e-01,-2.752935567247684068e-01,-3.064077743806267740e-01,-4.618878388137044599e-02,3.237979416913091407e-02,-2.019278582348984705e-02,1.248070225119590759e-01
-2.774871225039260425e-01,-2.894446458223299268e-01,-2.365819392740083349e-01,-2.942896004437031438e-03,8.962777004660943403e-03,-3.211673915953470147e-03,5.102216824889183044e-02
-2.904479698122228726e-01,-2.972068104457199489e-01,-2.204488557477845556e-01,-6.163282501148182593e-04,9.980685910667953797e-03,-3.754377430242135903e-03,7.590084522962570190e-02
-2.847071202581946125e-01,-2.929719827615807626e-01,-2.282632409824910669e-01,-2.168812719912982523e-03,6.033274057461652552e-03,7.169056750785043767e-04,6.201269850134849548e-02
-2.880053076566980730e-01,-2.303077040422981114e-01,-2.852526605065940912e-01,-9.092610966146663642e-03,-5.346140544323810077e-03,3.763042563200101435e-03,5.961561203002929688e-02
-2.827973404114050848e-01,-2.482419048983088572e-01,-2.751870482206112967e-01,5.409339887798652290e-03,5.148646667840322752e-03,1.015742017444677854e-02,3.828636556863784790e-02
-2.114143485816164514e-01,-3.061347332345062955e-01,-2.964965530127521287e-01,-3.129058395625029364e-03,2.695194105435096826e-02,-7.455141540377520706e-03,1.026023626327514648e-01
-3.106301874145570019e-01,-2.995047147506890162e-01,-1.980306262390646166e-01,-1.383965982155488383e-02,1.320314722878613428e-02,-1.239506558863219358e-02,1.144910678267478943e-01
-2.300239415011295641e-01,-3.140225599111081678e-01,-2.986516864845665253e-01,1.080757105816848862e-01,1.087122770976512026e-01,6.767502404495483181e-02,3.003943860530853271e-01
-3.448812329537762622e-01,-3.510097540290808560e-01,-1.406774669670120270e-01,2.335727835961919074e-02,8.222027335435502793e-02,8.784587566069851361e-02,2.967424988746643066e-01
-1.951589890928493165e-01,-2.829310532035270720e-01,-3.147139287039825151e-01,6.196330285005403893e-02,6.829780298919216341e-02,4.689004226254309821e-02,2.088345885276794434e-01
-2.912399701607077951e-01,-3.032035682059424087e-01,-2.017512850386794232e-01,-3.234539229816118210e-03,2.273900352500228539e-02,-8.464024916438925294e-03,1.049735769629478455e-01
-2.379582231270723214e-01,-2.906360052065037891e-01,-2.760359736358944938e-01,1.237964526550021718e-03,2.097994514186712900e-02,4.187655940140224114e-04,5.953663215041160583e-02
-2.631936675920856228e-01,-2.786945012629536977e-01,-2.660834078491711718e-01,7.665014016899581936e-03,1.079565449200388730e-02,1.079813404311054034e-02,3.285617008805274963e-02
-2.875035986974239233e-01,-2.936901851101333394e-01,-2.230432476359479887e-01,-6.045554574175091012e-03,1.140071140403362687e-02,-5.320029223903722376e-03,7.194916903972625732e-02
-1.435956076969307216e-01,-3.346195229908699442e-01,-3.571620303025465071e-01,8.496741608669765300e-02,4.370137006801933649e-02,1.740296732155413931e-02,2.638197541236877441e-01
-2.849171148647213769e-01,-2.978515929745453317e-01,-2.195406324807651632e-01,2.403260906925340328e-03,3.275587506343579508e-02,2.984515557921021533e-03,9.246560186147689819e-02
-2.846390491651778487e-01,-2.136029678317609981e-01,-3.087249019213313961e-01,-5.296681692586188706e-02,1.292409623541935712e-02,-2.957970094809257971e-03,1.275970786809921265e-01
-2.730557266077099920e-01,-2.199833403401947329e-01,-3.038813483108351310e-01,-8.877050384643556113e-02,-4.646508915172918586e-02,5.307506909755013019e-02,2.096935808658599854e-01
-2.672420410360471510e-01,-2.486026947702137946e-01,-2.937386977172151692e-01,-5.911980981030015569e-02,-1.089299076631515366e-02,1.050032413914089510e-02,1.127633675932884216e-01
-3.355835858885640732e-01,-3.713775630656891424e-01,-1.318786298163711901e-01,4.534869786219102375e-03,9.132755110994460190e-02,4.379686436566851068e-03,2.742439210414886475e-01
-2.927400674139972181e-01,-2.167193993219367065e-01,-3.095192346813446238e-01,-3.966444752855573935e-02,-1.648471734920528564e-02,3.306911259174070972e-02,1.270904690027236938e-01
-2.684398958051757433e-01,-3.650049197045028837e-01,-1.818337323531322713e-01,-3.676428997966740830e-02,-9.935766765780919274e-02,1.029182147263512093e-01,3.010576665401458740e-01
-2.642303873888263710e-01,-2.688458794968011101e-01,-2.770331689575859513e-01,-1.464700508372155166e-02,-1.358398993266988000e-02,1.210901810578714731e-02,4.199031367897987366e-02
-2.826733325648077555e-01,-2.436517404628162631e-01,-2.821080208438632164e-01,-3.182084715154660792e-02,-1.620957405038978352e-02,2.433280012580824048e-02,8.428018540143966675e-02
-2.843424308068341344e-01,-2.938505176090420168e-01,-2.275756407289326599e-01,-2.519659192577277957e-03,-5.996437357157620614e-03,-2.908944571279289720e-04,6.308555603027343750e-02
-2.908492064142712552e-01,-2.965147124842683612e-01,-2.179265567857032182e-01,3.657613017442495895e-03,7.558998958432597975e-03,1.554780309539170735e-03,7.734181731939315796e-02
-2.677743213469263028e-01,-1.674359728431437100e-01,-3.823836503997061764e-01,-1.027852892441334515e-01,2.683681690242822188e-02,2.192933783643667700e-02,2.645762264728546143e-01
-2.584354106876390333e-01,-2.003392026958825123e-01,-3.500279651938054126e-01,-1.312923136800701607e-01,-3.119711198427441851e-02,-1.006451209132804350e-02,2.683695554733276367e-01
-3.525554392962351180e-01,-3.765127469219788359e-01,-1.138155401398938393e-01,-8.906728899410592051e-03,-8.026612997123828974e-02,1.813078559628665196e-02,2.895554900169372559e-01
-2.396504379434048759e-01,-2.266185361320196268e-01,-3.353744687495749943e-01,8.690065001901670083e-02,-1.893088377551908549e-02,-1.316192757909692181e-02,1.866290420293807983e-01
-2.382910262413192037e-01,-2.304595730556591726e-01,-3.176822202612137880e-01,-9.942156757833192637e-02,-3.392262703039877064e-02,4.020191417415427959e-02,2.119924575090408325e-01
-1.997740295700313196e-01,-2.964645876013291548e-01,-3.018871441520477039e-01,2.611730497907338924e-02,9.124815126095224202e-03,1.442288097525695105e-04,1.104489415884017944e-01
-1.741942948968697169e-01,-3.118129071113446837e-01,-3.298730803527682998e-01,4.316986775718274771e-02,1.812660997676030557e-03,4.800720103248994064e-03,1.655910015106201172e-01
-2.862009315418678201e-01,-2.577354825455532850e-01,-2.615389886218150717e-01,7.326245253652358504e-05,-6.936894721695958943e-04,4.183949967752426981e-03,2.775708772242069244e-02
-2.661069555955438704e-01,-2.500396411819740816e-01,-2.872716085114199736e-01,5.101530217194259059e-03,-1.830082597101387234e-03,-1.062152431777206021e-03,3.372935205698013306e-02
-2.263268934239227592e-01,-2.224855244528240461e-01,-3.864175414734792868e-01,1.432212257948028977e-01,-2.197489323617004241e-03,-4.115982995302652075e-02,3.047828376293182373e-01
-2.737183180949734895e-01,-2.696541588429146596e-01,-2.605052390515819050e-01,4.400877690443799443e-03,3.273635252319731081e-03,3.549962804832118308e-03,1.629302650690078735e-02
-2.602018805928664191e-01,-2.766365648885998896e-01,-2.681221755074738589e-01,5.481273077914528176e-03,-7.983102759153284239e-03,-3.671068363244853021e-03,2.290011942386627197e-02
-2.648540602785935394e-01,-2.758883799758712341e-01,-2.632404808875106195e-01,2.460482550321357875e-03,-8.724538917299054421e-04,-1.198475463650187098e-03,1.291971653699874878e-02
-2.477310711947242616e-01,-2.675643026437899974e-01,-2.973189146698810847e-01,4.258780173043558159e-02,-3.710892557927568391e-02,-2.275172254548316758e-02,1.139917820692062378e-01
-2.678478267946557967e-01,-2.180333461921931115e-01,-3.500076041053604703e-01,1.135679407096832627e-01,4.221414777213475938e-02,6.088192266790914964e-02,2.616933584213256836e-01
-2.757339145463311714e-01,-2.629082120337870587e-01,-2.651845991136289049e-01,1.141822601718587302e-03,-2.362886770812016451e-03,-2.000944501652809730e-03,1.315889973193407059e-02
-1.907322055426423080e-01,-2.351068443379198958e-01,-4.139927796195571608e-01,1.535643600523294294e-01,3.232828399592471008e-02,-2.310374879853723321e-03,3.403008878231048584e-01
-2.964358242561483947e-01,-2.320081986831503962e-01,-2.767340336273866885e-01,1.986805207545035753e-03,3.931081492741755716e-03,8.600266978501993481e-03,5.958050116896629333e-02
-2.687983662836602727e-01,-2.679222071533507443e-01,-2.675244664233362157e-01,8.109847365618652647e-04,-1.780480721551486504e-04,-2.146347996939117360e-04,1.865672296844422817e-03
-2.785885890297294387e-01,-2.687483124483291408e-01,-2.549234813775975161e-01,3.923531221936081559e-03,-1.953711806627421443e-03,-4.239458624944785793e-03,2.314194105565547943e-02
-2.851451196646614394e-01,-2.672441311545480924e-01,-2.501871000136025591e-01,3.434940238518821055e-03,3.344734155802318344e-03,5.655886336581075237e-03,3.288846090435981750e-02
-2.847061745925661969e-01,-2.292134393821192995e-01,-2.904058423133810685e-01,4.140688856486491112e-03,-2.412267817488681840e-03,-1.154584561017868612e-03,5.917019769549369812e-02
-2.676611451883900705e-01,-2.676404384234205569e-01,-2.685776642060405117e-01,1.049282337602454578e-03,-2.260364094649231978e-03,-9.260664529810106859e-04,4.697119351476430893e-03
-3.162233471889562830e-01,-1.845606725945470039e-01,-3.079477201511185425e-01,4.250654207508535072e-03,-3.303631962070042571e-03,2.626526080485054593e-02,1.359061896800994873e-01
-2.281912572166526210e-01,-3.652146332946561991e-01,-2.342190898384692022e-01,-5.573551400665024969e-02,1.447395032516563262e-01,-5.801177047108664608e-02,3.166224956512451172e-01
-2.177464959694286051e-01,-3.025456585571484336e-01,-2.870439296209543745e-01,1.100095721934464012e-02,3.152681397017219334e-02,1.535392716939404378e-02,1.008403673768043518e-01
-2.772699875176758422e-01,-2.675625878713771555e-01,-2.597251395522381379e-01,3.304839221638230292e-03,-1.333631571707729604e-03,-1.100740528498970940e-03,1.653713919222354889e-02
-3.011459608616431360e-01,-2.071930269246258227e-01,-2.949226607829743552e-01,1.879695140854684490e-03,-2.684082346953333212e-03,1.398813612977788980e-02,9.434194117784500122e-02
-2.662768647458772509e-01,-2.824381668238632459e-01,-2.554955160481014453e-01,3.306032918845651456e-03,2.527444377890326888e-03,1.021110915012219409e-03,2.463224157691001892e-02
-2.766917781722101344e-01,-2.346611738803283109e-01,-2.911996122127402664e-01,8.976763401478043969e-03,2.190323556248835284e-03,1.178454190820738988e-03,5.335848405957221985e-02
-3.085339893442815562e-01,-2.836130818979250012e-01,-2.168495506011926532e-01,-2.195516953231708198e-03,-5.334530510578784634e-03,4.099959536870634996e-02,1.090181693434715271e-01
-3.070812974694338005e-01,-2.815770771918293947e-01,-2.187103733086892821e-01,-7.399231802421970053e-03,-1.022983740958950324e-02,6.154583475892570765e-02,1.343425363302230835e-01
-2.952023141745138135e-01,-2.565416580205621688e-01,-2.527542840531151191e-01,6.062369480428082477e-03,1.289829598757272211e-02,2.061367288281356139e-02,5.949402227997779846e-02
-2.980782063095087642e-01,-2.989487990269106832e-01,-2.103130344296305632e-01,4.156792083039989247e-03,1.684677163486640941e-02,2.090649161123821556e-02,9.997206181287765503e-02
-2.549690433973840764e-01,-2.843133159200704752e-01,-2.654062132218593661e-01,6.548561382361649122e-04,2.183027684558860263e-03,5.381789747463776308e-04,2.608068101108074188e-02
-2.800054845233650447e-01,-2.508351742854528776e-01,-2.765644745761716705e-01,-8.945310612065038997e-03,-6.149492450737615960e-03,9.539988815531584218e-03,3.726809471845626831e-02
-2.785108008119766554e-01,-2.847967245877037756e-01,-2.426247419247646309e-01,2.748716164427918770e-03,1.931445233980024281e-02,7.571212730402683555e-03,5.354138091206550598e-02
-2.715741071329749734e-01,-3.460179158955207224e-01,-2.212005680335412394e-01,6.981491767757756761e-02,1.140064696486075557e-01,7.258824728336663035e-02,2.850461900234222412e-01
-2.630699901032664823e-01,-2.757634144824609446e-01,-2.652816868932845185e-01,1.300355276550800923e-03,1.809905444243139344e-03,2.494585640212773972e-03,1.309616491198539734e-02
-3.057766498009839573e-01,-3.003590778284925267e-01,-2.118581579649843338e-01,1.826365124918663541e-02,-2.947418450659321926e-02,-4.827154191957809537e-02,1.376172751188278198e-01
-3.353103158004674955e-01,-3.401922474699947685e-01,-1.554770012301337767e-01,-3.700744778185482975e-02,-1.005444426915858280e-01,9.834309443929224737e-02,3.109535276889801025e-01
-3.839811650886426619e-01,-3.541701660466842760e-01,-9.481286373316397120e-02,-1.072296669531258573e-02,-4.291181878064694727e-02,8.253698445398648109e-02,3.196762204170227051e-01
-3.374892044589949402e-01,-3.180293950266523950e-01,-1.709277649123933651e-01,1.488895772394351405e-02,-4.403743381597843148e-02,1.187111477819960126e-01,2.713670730590820312e-01
-2.920029908755086834e-01,-2.665623034232843525e-01,-2.476584899327650136e-01,-9.269329817397749943e-03,-1.439839853515862550e-02,3.481528892502068484e-02,7.746951282024383545e-02
-2.369516964697497285e-01,-3.099053094661801122e-01,-2.668784043948439488e-01,-6.251087953485987003e-03,-5.416586404672871918e-02,5.112749238333788235e-03,1.141579896211624146e-01
-3.170589065884077962e-01,-2.850980774237532045e-01,-2.106422895557024111e-01,-2.285951142210780607e-02,-1.997559886066014798e-02,6.197299200574941935e-02,1.524189263582229614e-01
-2.468418061323106316e-01,-2.796599829366211987e-01,-2.752516816586718651e-01,4.386336351421111189e-03,-5.841927897295127320e-03,-4.778002561435470107e-03,3.435673937201499939e-02
-2.667667707341342398e-01,-3.316552104107614585e-01,-2.225321288368592998e-01,-2.822333343758055141e-02,-1.366319530701046170e-01,2.298299139539177263e-02,2.627103328704833984e-01
-9.393203974843508663e-02,-3.968087768805521609e-01,-3.257979875620939381e-01,-2.984376487887452356e-02,4.748733000552163991e-02,1.021070782561595870e-02,2.915805280208587646e-01
-2.964460701664430875e-01,-2.089857220441129204e-01,-2.914837273958185149e-01,-7.985864385202885718e-03,-3.713805571619799815e-03,2.071542372239061278e-02,9.359494596719741821e-02
-1.991829539951267825e-01,-3.206090135043853095e-01,-3.096240497931682101e-01,8.596126933056931485e-02,-8.961068968884676467e-02,-5.163836870279092661e-02,2.603630423545837402e-01
-1.884944652349762051e-01,-2.752301258028517772e-01,-3.717230465606347622e-01,1.224717272220132991e-01,-3.686927682994745048e-02,-4.559785764563011046e-02,2.837548851966857910e-01
-2.920560928775569054e-01,-2.376652922733779871e-01,-2.749827443941161298e-01,-4.579542480650396902e-03,-3.379895769903031467e-03,8.132664895287477352e-03,5.115499719977378845e-02
-8.963846859604143735e-02,-3.828627991883719606e-01,-3.606909234120434515e-01,-1.096440043041622264e-02,-6.643261866279188965e-02,-2.515853073455145798e-03,3.059253096580505371e-01
-2.618883253558771385e-01,-3.230339057194374086e-01,-2.270419481491366409e-01,-1.792951947028849358e-02,-6.308115172558043104e-02,1.907205829685987286e-02,1.451794803142547607e-01
-2.838219735284671086e-01,-2.426046381036941202e-01,-2.766507454507711183e-01,-3.002177652697067371e-03,-6.068910962515638649e-03,1.022741281162665647e-02,4.365833848714828491e-02
-2.621167662995680936e-01,-2.681686516156601141e-01,-2.757455956126369512e-01,6.656803015194943593e-03,-5.947679292512490778e-03,-3.857356466807968301e-03,2.058134041726589203e-02
-1.296490799080247391e-01,-3.134964364240809265e-01,-3.820215168461572608e-01,6.984996723533860863e-02,-2.944613253675359976e-02,-1.158706791396901109e-02,2.621731162071228027e-01
-2.771798588660582263e-01,-2.344382924327816364e-01,-2.912417577583634731e-01,8.019603763699654012e-03,-2.441667581349948012e-03,-1.141415212635751245e-03,5.329485982656478882e-02
-2.859329531324272256e-01,-2.462754379980754971e-01,-2.733277028463124148e-01,-3.059464832392111422e-03,-3.883318909931446350e-03,3.376180246554447758e-03,3.659556061029434204e-02
-2.649556875913716691e-01,-2.546486855343568778e-01,-2.883874878191620694e-01,1.137485936067446184e-02,-1.881504180865019998e-03,-5.033689551219585646e-03,3.703500702977180481e-02
-2.638799146223961833e-01,-2.639687930644599723e-01,-2.760189537880867738e-01,6.105801092423082319e-04,-7.933672975647959461e-04,-1.793186346656582345e-03,1.260708272457122803e-02
-1.743870814178607731e-01,-2.552467905133380399e-01,-4.108985732555619497e-01,1.386975787509196201e-01,2.540513753424320301e-02,1.096145147039268540e-03,3.209402561187744141e-01
-2.674313779039685368e-01,-2.708054055352440148e-01,-2.661383059204198154e-01,1.669452772082847831e-03,-4.645521680215855976e-04,-6.999422037516247856e-04,5.281795281916856766e-03
-5.655783428732175100e-02,-3.651036952209794073e-01,-4.131384935674935477e-01,3.168721706822011375e-02,3.844299995480589260e-02,7.107085720757994052e-03,3.463036119937896729e-01
-2.811655457566914484e-01,-2.578577380399367791e-01,-2.672602637601184661e-01,-6.236063050550898559e-03,6.781776457226656486e-03,-9.414064442205898400e-03,3.054547309875488281e-02
-2.633573011521997964e-01,-2.657714581562562461e-01,-2.756383325905906179e-01,9.360894929682688284e-04,-8.130548637518521726e-04,-5.623115683688088492e-04,1.151364855468273163e-02
-2.081490072545504333e-01,-2.848617285762793938e-01,-3.138954675485038370e-01,-5.364916927602326330e-02,3.698528514804114847e-02,-2.465909870649105745e-02,1.533548384904861450e-01
-2.672731300402995669e-01,-2.680024104888142356e-01,-2.691465248564939849e-01,4.196080177106098052e-04,-3.329706717561386488e-04,-7.651669929246658402e-04,2.300541382282972336e-03
-2.391956086503880807e-01,-2.774989782932228977e-01,-2.846751302745883505e-01,-8.792525121887806092e-03,-2.776140858033336080e-03,5.112222672583968154e-03,4.611905291676521301e-02
-1.587056346395689099e-01,-2.878222032476449588e-01,-3.429594944274085289e-01,-9.285736983366570108e-02,1.773096211122055996e-02,-1.227941632454561741e-02,2.325797379016876221e-01
-2.020199260648464223e-01,-2.497296413446707108e-01,-3.328169108708836088e-01,-1.039414476710566748e-01,-1.813751944074410392e-03,1.087183375481894608e-02,2.142888605594635010e-01
-2.092801476385569015e-01,-2.941581475399153711e-01,-3.004862278694968025e-01,-1.774632593584906173e-02,-3.433251416602817359e-03,5.591237044874991730e-04,9.360838681459426880e-02
-2.862285813781768606e-01,-2.019610332571676325e-01,-3.444991929599900415e-01,-1.204690570831227214e-01,4.424416317790359071e-02,-6.018072814847764962e-02,2.751054167747497559e-01
-2.702194949709139093e-01,-2.885966024324368440e-01,-2.434270982506043790e-01,4.806296065183749723e-03,-1.326203402559977818e-02,-8.048555665760735375e-03,4.836528748273849487e-02
-6.561244970286361777e-02,-3.927467252105382167e-01,-3.879704545606054156e-01,-3.070911747273494252e-02,4.005380144834167627e-02,-2.242761692764605116e-02,3.385679125785827637e-01
-6.026383962981507469e-02,-3.871638187998568403e-01,-4.074581081619043088e-01,-2.391735778268958695e-02,3.291926120805652861e-02,-9.909519801897994501e-03,3.452121317386627197e-01
-2.914434208764548617e-01,-2.339371809668835955e-01,-2.779825057041084846e-01,-1.707685921175094122e-03,-2.094971412935354906e-03,1.121068924425533755e-02,5.579454451799392700e-02
-2.675939102339793263e-01,-2.686501797468864861e-01,-2.680550025297090966e-01,2.114204205787944147e-03,-1.841285418561394542e-03,-2.182439086775622705e-03,6.221814081072807312e-03
-9.127736842167599729e-02,-3.551698232887072759e-01,-3.837488471228257536e-01,-5.545464373949737791e-02,-4.531379864758626475e-02,1.079436968192691235e-02,3.061584532260894775e-01
-2.205171218175413228e-01,-2.935108723037922474e-01,-2.903138925009386417e-01,-2.434132637278388356e-03,-6.563512983252574491e-03,1.959022256471495017e-03,7.254981994628906250e-02
-2.677803357117740646e-01,-2.677468698753845966e-01,-2.685952578582100903e-01,2.309711227790260061e-03,-2.054957267938521681e-03,-2.077667738152871781e-03,6.505032535642385483e-03
-2.643453884051983893e-01,-2.680727469224372106e-01,-2.717274902610084530e-01,1.339586128406741652e-03,-1.543890042200654882e-03,-2.584106032526690619e-03,8.569711819291114807e-03
-1.436027103523648540e-01,-2.894251788328209285e-01,-3.955793115414313332e-01,-1.424611735737185414e-01,-1.367204673590192640e-02,1.089015092650495210e-02,3.313829600811004639e-01
-2.661298480947352774e-01,-2.678179083637961533e-01,-2.707923082347902244e-01,9.229121487613004948e-04,-7.685938312731373798e-04,-2.621662613671557119e-04,4.609910305589437485e-03
-2.552854100568586748e-01,-2.726711131567139956e-01,-2.842464019068985936e-01,-4.550022206340386538e-02,4.889644077215291734e-02,-3.036862693621828618e-02,1.295671761035919189e-01
-2.702124647722731754e-01,-1.943381628322061461e-01,-3.696486469340187764e-01,-1.338123021611013763e-01,2.687816597215266640e-02,-2.842246976542767145e-02,2.854770123958587646e-01
-1.828287033341494394e-01,-3.159844807951631696e-01,-3.318535330386209181e-01,-1.051177711438089357e-01,9.293962912079223315e-02,-5.126788091394512970e-02,2.950306534767150879e-01
-2.658914369858401128e-01,-2.855265114645499369e-01,-2.544601516571110000e-01,8.092600053834910845e-04,1.078163545325371703e-02,2.846707144447597516e-03,3.340166807174682617e-02
-2.861289109635552497e-01,-2.135789696397740467e-01,-3.078534333352723196e-01,-2.471814986246990628e-02,-8.636292060784592911e-03,3.197078985303588444e-02,1.115108653903007507e-01
-1.894046353451940279e-01,-3.177776409441180339e-01,-2.863127619496446674e-01,-4.369733824132723127e-02,7.659616425452681066e-02,-2.267987078842649204e-02,1.957111209630966187e-01
-2.184641099694542843e-01,-2.902504440225391891e-01,-2.914710222897658465e-01,-1.502787496726146893e-02,1.520655583060659746e-02,-4.051532487997382137e-03,8.162635564804077148e-02
-3.017801818971435068e-01,-2.871780486402695232e-01,-2.067743283323324466e-01,-2.441916122610449276e-03,5.685462107429511101e-03,-2.495581693339174803e-02,9.917301684617996216e-02
-2.739697516333718386e-01,-2.501052421491537503e-01,-2.813270551712989120e-01,-2.765933560435180402e-03,4.098548081373858641e-03,-1.579472441818656047e-03,2.966568432748317719e-02
-2.496421450135256070e-01,-2.731773906265023144e-01,-2.824499966436607723e-01,-3.116341388487015897e-03,-1.480624870980679552e-03,3.759460259768190524e-03,3.059794381260871887e-02
-3.200270909212752368e-01,-2.690163315998472804e-01,-2.359999592658487133e-01,-1.661645364193658006e-02,7.474498324010562730e-03,-6.421606946546937200e-02,1.369065493345260620e-01
-2.401269595976103233e-01,-2.737720417548918372e-01,-2.903338483421294969e-01,-4.014490632931137087e-03,1.490636352604086002e-04,6.985250015699532309e-04,4.487078264355659485e-02
-2.678789355622294144e-01,-2.826284469108587549e-01,-2.530164084578493955e-01,-4.082395692904472462e-03,3.996155791052152968e-03,-1.469685997981432391e-03,2.760513313114643097e-02
-3.704173967848917726e-01,-1.219102778465302739e-01,-3.491331858524802101e-01,-3.127818759055730341e-02,-1.055473125492274906e-02,6.908284397413740063e-02,2.729579210281372070e-01
-2.105507644594542260e-01,-3.071790612974215073e-01,-2.986386053224608372e-01,7.008502581627117783e-03,2.450411055303075916e-02,2.229226998471636918e-03,1.027050986886024475e-01
-2.928650081877145483e-01,-2.218521060937649336e-01,-2.892184193170374562e-01,1.490078221756420233e-03,-7.874900675301383388e-04,-7.738238408359784937e-03,7.060692459344863892e-02
-3.677126081227201637e-01,-8.657984599478169008e-02,-3.929583798806536854e-01,-3.547103148889031721e-02,1.446346352660654632e-03,3.319923442005318082e-02,3.063622415065765381e-01
-2.985613260063136321e-01,-2.104261620793708987e-01,-2.949571217941734380e-01,3.488882585037771707e-03,-1.473737761400392417e-04,-1.707132650691339229e-03,8.665139973163604736e-02
-2.940189156640807266e-01,-2.099212058473166054e-01,-3.011554468573794385e-01,-1.180424085468356364e-03,5.234809268942721599e-04,3.215694479798691073e-03,8.808828145265579224e-02
-3.085048442807091784e-01,-2.176023881287145190e-01,-3.100385927684283227e-01,-1.000559745649750171e-01,-6.126736026182917627e-02,9.274607697238265724e-02,2.747820913791656494e-01
-2.867892828895702850e-01,-2.750300522255930691e-01,-2.380254784726119621e-01,7.354477085158907593e-03,-7.828681432232451748e-03,-1.249263465167379031e-02,5.250800773501396179e-02
-2.359985702913566796e-01,-2.916020648562349105e-01,-2.802766332644008318e-01,4.550728379023766777e-03,-6.164999242841212417e-03,-6.590964964504475790e-03,5.382148176431655884e-02
-2.779091114973287757e-01,-2.326382368457791672e-01,-2.939141518096899386e-01,-1.107514230287145150e-02,-4.379177621802950865e-03,7.796101842135813717e-04,5.880056694149971008e-02
-2.979247303479433673e-01,-3.093777629996711798e-01,-2.012924753174845927e-01,1.069051031098291159e-02,4.043174791196015895e-04,-1.584387108246085307e-02,1.080376505851745605e-01
-2.917608402920816579e-01,-2.250494538545404211e-01,-2.859874243322912402e-01,-2.016288041204335277e-03,-1.530603863923999785e-03,4.799553238887811248e-03,6.470641493797302246e-02
-3.093617367868859991e-01,-3.108450713508043584e-01,-1.964511982571732762e-01,7.559305010471376041e-03,-1.647726743993231657e-02,-3.815898463063023549e-02,1.351766586303710938e-01
-2.898258277559083163e-01,-2.060402644090734703e-01,-2.897546225220170579e-01,7.438523834000446144e-02,4.534593083118606399e-02,7.187632228431523052e-02,2.127931565046310425e-01
-3.562687911801646345e-01,-1.005504755353047175e-01,-3.899664537607646642e-01,5.202720507929850524e-02,5.303395837997012738e-03,5.179973629483423242e-02,3.023226857185363770e-01
-2.668902013782898930e-01,-2.833146771415669951e-01,-2.528558511375069151e-01,9.770303463980454031e-03,1.823727746351918449e-02,1.235957845820748364e-02,4.939313977956771851e-02
-2.918192350490228515e-01,-2.197089152858604233e-01,-2.948957383629133844e-01,-1.397228497572699981e-03,-1.553585895575434030e-03,5.566102338275692035e-03,7.441271841526031494e-02
-2.142267663479020257e-01,-2.976781059468247004e-01,-2.923696488696916340e-01,4.752298542143564702e-03,9.132626344017262185e-03,1.522573023087487589e-03,8.291097730398178101e-02
-1.464429861074872385e-01,-3.588608814384413037e-01,-3.086163793283953072e-01,-9.410544996875500404e-03,9.148548543577336711e-02,2.156520671688368432e-02,2.524731159210205078e-01
-2.378184907400706372e-01,-2.774369591362808585e-01,-2.902762622699535111e-01,-1.779970285874189415e-02,1.099919158614427132e-03,-2.879326285510244113e-03,5.676383897662162781e-02
-1.507586053131869108e-01,-3.446189856689095277e-01,-3.132872499437983627e-01,3.240698636489828480e-03,1.923755557980445091e-02,2.550562263133248405e-03,1.834415793418884277e-01
-3.822810218740200772e-01,-1.403909667299606812e-01,-3.147003416328421621e-01,-4.767290822009002081e-03,-3.370778213379043656e-03,1.005021952671368846e-01,2.777322232723236084e-01
-2.916294960396151326e-01,-2.380846277814682999e-01,-2.739611629417347261e-01,-1.157211537215366596e-03,3.706752870148128688e-03,4.080322542020884714e-03,4.825307056307792664e-02
-2.862199132983050953e-01,-2.393886036298066844e-01,-2.806940375437801949e-01,-7.962920012631101094e-03,-2.995725635850012263e-03,1.951071929950098580e-02,5.765479058027267456e-02
-1.662020132699671138e-01,-2.906560115388046595e-01,-3.762043985345528418e-01,-1.321387660865717961e-01,-3.444287148656426101e-02,2.391034085697394534e-02,3.018446266651153564e-01
-2.597479308921147867e-01,-2.606852816457300159e-01,-2.848311800803756677e-01,-4.231548025252000050e-03,7.297740060072531627e-04,9.314883951676063839e-04,2.577702328562736511e-02
-2.055433573249442203e-01,-3.015123756179977077e-01,-2.981924111902752861e-01,-4.995014496279764557e-03,4.171529923248336498e-03,-5.264714760535405685e-03,9.546029567718505859e-02
-2.605639669691284244e-01,-2.604149204283457975e-01,-2.815740171753782772e-01,-6.565503069650984944e-03,-2.329498767211553561e-03,2.044868104442422192e-03,2.455030567944049835e-02
-2.735494899151140191e-01,-2.426296010914484047e-01,-2.896881036846212787e-01,-3.726739913286890304e-03,8.543793815644082704e-04,1.009114077802018546e-04,4.194502159953117371e-02
-2.588634452774684624e-01,-2.680673045856617476e-01,-2.770914516182603760e-01,-1.889481064094109940e-03,1.725747774349805329e-03,-4.158405684812755548e-03,1.790880411863327026e-02
-2.417279129506867130e-01,-2.192325871679435267e-01,-3.752749493506268852e-01,-1.324731028227865426e-01,-3.181212092101614458e-02,2.839125469502189192e-02,2.818627655506134033e-01
-2.945593830305350824e-01,-2.347234339603943010e-01,-2.762122209775934034e-01,-5.013633399545391542e-03,6.178671762934838515e-04,-9.715734397713348541e-03,5.638156458735466003e-02
-3.083309411481509055e-01,-1.987677573590693747e-01,-3.223823165892691911e-01,-1.094717569916410088e-01,-5.854516497976362810e-02,8.571973335681215556e-02,2.863904237747192383e-01
-2.825128644434481417e-01,-2.607280124343256955e-01,-2.587737573005760017e-01,-6.155146639777702398e-03,-6.067739132004761234e-03,8.154377541027964596e-03,3.073375299572944641e-02
-2.575304894188476523e-01,-2.629122924378902160e-01,-2.839943024313263953e-01,-2.582144476016470357e-03,1.691325660231923420e-03,-2.632036223828598809e-03,2.522382140159606934e-02
-3.189385901750600438e-01,-1.436888402126752784e-01,-3.822875103134477648e-01,-1.094898996730698237e-01,-5.712817602383396878e-03,1.747784088998109372e-02,2.877601385116577148e-01
-2.015221831639588679e-01,-3.106767144591410235e-01,-3.051357595736431949e-01,2.314038743252981242e-02,1.767523459276893263e-02,6.659751808274553403e-03,1.183947846293449402e-01
-1.849860185049658212e-01,-3.322202637740820363e-01,-3.172698688194686145e-01,-9.201769675757741351e-02,8.765982046231508840e-02,-5.504565849762764473e-02,2.779294848442077637e-01
-1.273214543274409360e-01,-3.604751972843267538e-01,-3.065348993631482055e-01,-1.411720078956762298e-02,-7.442279448774717643e-02,6.694101248590432138e-03,2.490831464529037476e-01
-1.968981878819709985e-01,-3.066564572232508001e-01,-3.042703433382275002e-01,-7.715016631646548495e-02,-6.074300472837600162e-02,2.953067315023091832e-02,2.081644535064697266e-01
-2.083762851011032313e-01,-2.870677280575917867e-01,-3.015196146117027354e-01,-4.051434528426917786e-02,-1.472601349247931735e-02,1.730766269964071138e-02,1.183719113469123840e-01
-1.207971709799788296e-01,-3.500015266973801609e-01,-3.453263753032492778e-01,1.628400872305540287e-02,6.759459847271501176e-02,-3.559802552410941401e-02,2.641764283180236816e-01
-2.141458099301776219e-01,-2.968089166097250819e-01,-2.939696403348684428e-01,-6.752400733273255899e-03,-3.431616789533419726e-02,9.394658861172084773e-04,1.013843119144439697e-01
-1.123390748409208439e-01,-3.766642997989485542e-01,-3.227454343325822927e-01,4.351914026344862879e-02,-2.317995783148743549e-03,-2.111911480982383085e-02,2.560446560382843018e-01
-1.999053713953581057e-01,-3.077822711306615888e-01,-3.034034655989157891e-01,-8.520079767267854653e-02,8.100672061821727332e-02,-8.684568408577428289e-02,2.743620574474334717e-01
-2.444464671512810994e-01,-3.225661146994493467e-01,-2.470920697642150776e-01,-8.592524574010846489e-03,7.047448590583020589e-02,-2.934003876096656725e-03,1.450871676206588745e-01
-2.144652719991383960e-01,-2.948473006985515288e-01,-2.903510884321880980e-01,-1.462990392618095450e-02,-2.131325161899923215e-02,1.971426631128491997e-03,9.020309150218963623e-02
-2.686540893762954796e-01,-2.673379816772218920e-01,-2.674373255548268546e-01,2.242581662869717885e-03,1.110702364533544496e-03,1.205069668419277195e-03,4.975574091076850891e-03
-2.745299276521897536e-01,-2.782939807225640605e-01,-2.519105973179065483e-01,4.964494205927927339e-03,2.225699428591591290e-03,3.390460181913748476e-03,2.709664218127727509e-02
-1.320758775273070673e-01,-3.373564921964942176e-01,-3.134987390506781546e-01,-2.245859751703161225e-02,-7.199075477197518225e-02,-1.997221581974678931e-03,2.342753261327743530e-01
-2.331613829897802859e-01,-2.898699779292489009e-01,-2.834079060288575147e-01,-5.091646041684354772e-03,-3.157639936665598661e-03,3.643585731791499326e-03,5.512424185872077942e-02
-2.377685929574342993e-01,-2.762589878922959152e-01,-2.904133562205897245e-01,1.938372132214534124e-02,1.996547725036505218e-03,6.734358113414520364e-04,5.802731215953826904e-02
-3.100445085993297489e-01,-3.125678637114589487e-01,-2.150533778714340261e-01,5.286169632107807353e-02,8.957271768547343804e-02,1.102895290408423823e-01,2.796669602394104004e-01
-2.185267503676195933e-01,-2.859799639181925257e-01,-3.003230601042901626e-01,-2.537825335446425648e-02,-1.896929194030897575e-02,1.011663028846492875e-02,9.508867561817169189e-02
-2.852286143552010822e-01,-2.528156111256950056e-01,-2.655666938464800175e-01,-3.715948257131394036e-04,5.024489132768145908e-04,1.976802383233790348e-03,2.850941754877567291e-02
-2.609579917800397553e-01,-2.552174919835464295e-01,-2.935717652274837386e-01,-2.755878052828917776e-02,8.648123974068885195e-03,-7.335629246506845946e-03,6.283386796712875366e-02
-2.824711966684889108e-01,-2.724002705819826842e-01,-2.515405559924065448e-01,3.882125398822598369e-03,5.521094771934727339e-04,1.955041095926817948e-03,2.835880219936370850e-02
-2.747375964637138179e-01,-2.822738592473216790e-01,-2.554018376876407981e-01,-1.557379428147393635e-02,-2.114423254804434840e-02,2.001999134242997067e-02,6.202943995594978333e-02
-2.709015486782652693e-01,-2.664667881609794065e-01,-2.666947215628425183e-01,1.519972550644538289e-03,-5.455823308094818807e-04,-2.798503128053183220e-04,5.173693411052227020e-03
-3.447903426651094949e-01,-3.363772970802352824e-01,-1.560453910942971312e-01,2.042457345021900586e-02,5.917362579763403574e-02,1.068796146351020243e-01,2.830782830715179443e-01
-2.853925361047113807e-01,-3.676282355375059541e-01,-1.558754980078966568e-01,2.057325478721818909e-02,9.578576023298483733e-02,-3.756678731971366952e-02,2.592616379261016846e-01
-2.387562886793183348e-01,-2.765152241060421789e-01,-2.894777948775797971e-01,-8.219401150278450585e-03,-4.318429258098159529e-03,4.899097288589322405e-03,4.913088679313659668e-02
-2.490118732937124102e-01,-2.892671806412372981e-01,-2.669483222034150782e-01,-2.804012526438847634e-03,-6.559986011575770146e-03,1.173218278316167165e-03,3.710775822401046753e-02
-2.610921011562211680e-01,-2.855099130672584806e-01,-2.572401842848643927e-01,1.159541446002246030e-03,-3.936964594370645845e-03,-7.589180600462167242e-04,2.752058766782283783e-02
-2.553713694083155072e-01,-2.941371833972835081e-01,-2.900174034489088060e-01,-1.050712478499551406e-01,9.930682517357447558e-02,-8.458838345140151649e-02,2.924569547176361084e-01
-2.759909960461671141e-01,-3.470729318123536578e-01,-2.016753481290197159e-01,-7.149020752590554140e-02,1.498499413394160096e-01,-8.256349834952672606e-02,3.449720442295074463e-01
-2.621878652363148765e-01,-2.834101909751807202e-01,-2.595351654063246527e-01,-1.120591671887013899e-03,-8.204548872329192697e-04,3.887201828497240824e-04,2.280263788998126984e-02
-2.537272939075141398e-01,-2.644461915774534710e-01,-2.868705753759236421e-01,-1.661461992804393311e-03,-2.955725439277677035e-04,1.907345865931498884e-04,2.944087423384189606e-02
-2.837664913403313838e-01,-3.122172467502056792e-01,-2.261728497533103399e-01,-8.880351848728466890e-02,1.372725636818111217e-01,-1.046832837929838472e-01,3.447177112102508545e-01
-2.615016938446386163e-01,-2.676938877398666317e-01,-2.754721845610482722e-01,-7.059811060916478930e-04,8.428380002135964439e-04,-2.975540466369764030e-03,1.331156492233276367e-02
-2.714170916355730934e-01,-2.774855111382920625e-01,-2.542919408766494138e-01,-5.414358633091096232e-03,3.927953561944040432e-03,-3.962881692781074390e-03,2.480654604732990265e-02
-2.926307524456654985e-01,-3.814204449073795855e-01,-1.619477330362278367e-01,-2.067756938308369652e-02,1.329800406674221114e-01,-1.172379347290452949e-02,3.021772205829620361e-01
-2.516627331158184377e-01,-2.905054371138053315e-01,-2.661250617043491307e-01,-4.491227895842431900e-04,-1.248565252483540590e-02,3.279643500704338722e-03,4.070265963673591614e-02
-2.595119197361505647e-01,-2.833978209619198996e-01,-2.617990844283716867e-01,-1.185582041181677880e-04,-1.051449884954560243e-03,4.774061651986738486e-04,2.291678264737129211e-02
-2.662783436692116035e-01,-3.784267313300806457e-01,-1.981003501431668756e-01,-1.566127007034437760e-02,1.428362375358445679e-01,-1.907047010766307893e-02,2.964877784252166748e-01
-2.077139254186672612e-01,-3.365751010392906695e-01,-2.438406673653014667e-01,-1.776096948737436107e-02,1.141871762757530329e-01,-1.926956879951814347e-02,2.333054840564727783e-01
-2.605295899212920485e-01,-2.842731224612738972e-01,-2.610509619397400338e-01,-3.914277956745561542e-04,-4.898132480916720863e-03,1.705665153831860588e-04,2.498339489102363586e-02
-3.392578112604524021e-01,-3.599499592186221619e-01,-1.387081853687827382e-01,-2.035192224368723504e-02,8.525672824827167096e-02,-4.309828745649937898e-02,2.709598541259765625e-01
-2.599544054336474508e-01,-2.965514081089432041e-01,-2.494297837082970482e-01,-1.390207682987294746e-02,2.444084530741743450e-02,-1.292097397478041490e-02,6.861487030982971191e-02
-2.506875123710247677e-01,-3.486460336779187985e-01,-2.396007248733220130e-01,-4.523482922946994028e-02,1.407343982685627382e-01,-4.603199857348774793e-02,2.876086831092834473e-01
-2.733414721626200028e-01,-2.825723587533582326e-01,-2.505458894316633378e-01,4.340657130552348815e-03,3.169028861964385668e-03,5.895695585460651589e-03,3.172067180275917053e-02
-3.140090922413589780e-01,-3.625667576172609263e-01,-1.578377798900258977e-01,1.455700291314283162e-02,1.211599625454172213e-01,4.204715212566428884e-02,2.903608977794647217e-01
-2.669084078248781799e-01,-2.867451380326299093e-01,-2.492437950905594668e-01,2.362870516801000419e-03,6.924697999727451488e-03,1.389854186904897204e-03,3.496199846267700195e-02
-2.630167999687001434e-01,-2.656249728822693279e-01,-2.756746980105692635e-01,-1.298550002103089716e-03,1.003895606440820612e-03,-2.677845455928902149e-03,1.279084198176860809e-02
-2.705276008594373893e-01,-2.706419051301753309e-01,-2.591831854998309370e-01,-1.386792101063361732e-02,1.732220451870199532e-02,-1.794829104767796391e-02,5.073029547929763794e-02
-1.544105109807100695e-01,-3.185726952842655724e-01,-3.186682932998838869e-01,-4.721107493947863248e-02,4.350394710361917688e-02,-7.276669899156295793e-03,1.987164169549942017e-01
-2.637460767698779351e-01,-2.649252193956272428e-01,-2.754700265923444857e-01,-5.297396899704725657e-04,1.952473858538960553e-03,-4.492699469903123095e-04,1.174312736839056015e-02
-3.027752473195983729e-01,-2.739587402917534886e-01,-2.308462825441436328e-01,4.066090793789523677e-02,3.512379536260415436e-02,3.434910910455130084e-02,1.270117312669754028e-01
-2.631968601273851349e-01,-2.751094357140478897e-01,-2.691611594926325290e-01,-1.092682241554649748e-02,1.945935194471523633e-02,-1.278880190322169257e-02,4.573049396276473999e-02
-2.340838489612423468e-01,-2.778877088460322553e-01,-2.911769395255776050e-01,-9.435894973384801807e-03,1.401657979110804532e-03,-2.549937371381916489e-03,5.449780076742172241e-02
-1.226626810388690425e-01,-3.857112765987382175e-01,-3.211528777025717263e-01,-1.596468776416512872e-02,9.162755529232545493e-02,-7.039211627455795733e-03,2.871941030025482178e-01
-1.711344950840975598e-01,-3.480097835582317556e-01,-3.040570052004745172e-01,-7.379358358702960141e-02,1.086614775723277332e-01,-4.378833445900565113e-02,2.880160510540008545e-01
-2.135684285762816104e-01,-3.124827372800051961e-01,-2.776225698496914696e-01,-2.840261799102020406e-03,4.361561842726162375e-02,1.090008850499881408e-02,1.167848706245422363e-01
-2.777342420976080528e-01,-2.841243840064833215e-01,-2.395214300336516167e-01,8.572490003052053720e-03,1.549672988349991634e-02,9.104604028132061433e-03,5.417405441403388977e-02
-2.207024077609650858e-01,-3.078843023955027958e-01,-2.626773887087808235e-01,-4.537026037622613785e-03,4.612091364882461852e-02,-6.270185936278764756e-03,1.107440218329429626e-01
-2.698233780332222054e-01,-2.826581943694546628e-01,-2.534774102415753849e-01,3.099218146166516762e-03,6.468473063856260315e-03,3.767295466033527239e-03,2.895923145115375519e-02
-2.873853319785533156e-01,-3.211461928973634028e-01,-2.085421973022377473e-01,-6.260414047275702836e-04,4.619116384084475530e-02,4.848934273217447855e-03,1.284150779247283936e-01
-2.945695128566876431e-01,-2.109987037566860013e-01,-2.982722591599550888e-01,-2.112367358389075338e-03,6.413859569329650372e-05,-3.987194168633081785e-03,8.583894371986389160e-02
-3.502827982090063186e-01,-1.061491461139906778e-01,-3.866739903579723414e-01,-6.037490141876039607e-02,-1.423646152191774920e-02,4.201358927926137493e-02,2.943615317344665527e-01
-2.957095155280612953e-01,-2.137948972365444900e-01,-2.939210934860799762e-01,1.039003385052568755e-03,9.924677287430068266e-04,2.752284361033529268e-03,8.121344447135925293e-02
-2.833951308910404032e-01,-2.428460077528134253e-01,-2.759463131179189510e-01,-3.018988542258829971e-04,-3.810103036559654190e-03,2.993801298840454480e-03,3.831952437758445740e-02
-2.999965435292139548e-01,-2.998614207442387714e-01,-1.994107327040849365e-01,-5.632326388199136898e-03,-1.795728041639076469e-02,2.556824454426807891e-02,1.145761683583259583e-01
-2.733491095090989642e-01,-2.646538493023540828e-01,-2.659552360017001238e-01,9.576603035645575406e-04,2.186794729774854847e-03,1.434767429499966612e-03,9.447671473026275635e-03
-2.648479164820647380e-01,-2.689813333542993012e-01,-2.705969169779847139e-01,4.794763756330556407e-04,-7.880687111081315305e-04,-2.340228248365582627e-03,6.734685041010379791e-03
-2.708480493439709980e-01,-2.677961652155445016e-01,-2.662263520580557263e-01,4.147137672796256166e-04,-6.549435187436164832e-04,-7.542832752410096866e-04,4.480942152440547943e-03
-2.750534966920892277e-01,-2.616659896422977583e-01,-2.675268463265307872e-01,1.157830625621111007e-03,-3.777919818710878848e-03,-1.855101495024228699e-03,1.386638637632131577e-02
-1.997156388567021823e-01,-3.056846938668402736e-01,-3.046005487288352964e-01,1.540648058010945023e-02,2.313006459349068247e-02,5.267771522208890798e-05,1.159000322222709656e-01
-2.790782892356932221e-01,-2.825911854318777783e-01,-2.441464690256447967e-01,1.553007813315899002e-02,-1.978313557168682665e-02,-1.080418953330080159e-02,6.002618744969367981e-02
-2.776714216043109640e-01,-2.708264866263536130e-01,-2.546923781250465257e-01,-4.715778951515757142e-03,3.771873581385863303e-03,-3.362280571186785846e-03,2.368356287479400635e-02
-2.693589768188646705e-01,-2.678433326255170166e-01,-2.668464865317592416e-01,-1.527446792516524857e-03,-6.755196925490261238e-04,8.578595839246817064e-04,3.921450581401586533e-03
-2.242219532512047531e-01,-2.898753208156357730e-01,-2.925044956097925253e-01,1.801075288764017804e-02,-6.552350270154072912e-03,3.376322377463653827e-04,7.478097826242446899e-02
-2.853463330961970024e-01,-2.580525733765287044e-01,-2.615662285349674709e-01,8.959351003576234091e-04,3.949521616877725550e-04,3.676870173811669536e-03,2.654860541224479675e-02
-2.697683226845426496e-01,-2.636259878100621346e-01,-2.706663760857200840e-01,-3.231151863182025780e-04,-2.541345015349418760e-03,4.772918246289547693e-04,8.026384748518466949e-03
-2.294889974287853129e-01,-2.846635381125245390e-01,-2.913846087683252817e-01,4.722055884356244661e-03,-1.729965649408523405e-04,-4.977606094996992782e-04,5.939664319157600403e-02
-2.346615694622193882e-01,-2.772370994039688452e-01,-2.908382229051156287e-01,1.111712766901595470e-02,-2.485722258235960064e-04,-1.273033555318047860e-03,5.433746427297592163e-02
-2.652224484161708196e-01,-2.704548712219622120e-01,-2.704510536232568874e-01,1.651125696765060741e-02,-1.050538920080018937e-02,-1.128135677196876081e-02,3.947302699089050293e-02
-1.853292352053200476e-01,-3.164995219832796303e-01,-2.885536857837446845e-01,5.072206106287462102e-02,-8.071491246519521545e-02,-1.987171897696525524e-02,2.068054229021072388e-01
-1.813845819757123889e-01,-3.037898436035401661e-01,-3.099102582081575408e-01,7.361245580988498571e-02,-5.192323039333780754e-02,-3.171660319368568154e-02,2.076823413372039795e-01
-2.606260386328884682e-01,-2.770413253845671053e-01,-2.697211683934136461e-01,-6.786287918360412244e-03,5.324847570121410759e-03,-6.720644493017981051e-03,2.369827404618263245e-02
-3.339127475591268102e-01,-3.151506813921860495e-01,-1.425099276721621677e-01,8.497947685822944061e-03,-4.490282769004461105e-02,-5.179701857148603233e-02,2.184265851974487305e-01
-3.042646707607209455e-01,-3.113759016490956766e-01,-2.012929363628108148e-01,-5.642637990144330935e-03,-4.610747096251508609e-02,2.945329687135297275e-02,1.430444270372390747e-01
-3.043937365956249086e-01,-3.043088555922900951e-01,-1.870066378873750101e-01,-3.274841637182991823e-03,-1.013747316814967749e-02,1.529091026613496260e-02,1.217032819986343384e-01
-2.812344428573170241e-01,-3.020809258561833466e-01,-2.061640149581935866e-01,1.557316419059620247e-02,-4.294124772609593521e-02,-2.389940334608184336e-02,1.249322444200515747e-01
-2.806003239794012116e-01,-2.896826525974341981e-01,-2.335547288126407495e-01,3.348325724604789017e-03,-7.626502385229348702e-03,-8.092888310984048747e-03,5.592557042837142944e-02
-2.767498568115302482e-01,-2.923976083575429707e-01,-2.319404591473903099e-01,1.772753362526639743e-03,-9.924181381112551908e-03,-8.790745048581128686e-04,5.710617452859878540e-02
-2.975665746734931782e-01,-2.871193713220371868e-01,-2.215223821203259058e-01,4.002008264630150733e-03,-5.266064713362090741e-03,-7.871924524023939454e-03,7.358368486166000366e-02
-2.684215291932546266e-01,-2.499662448871419196e-01,-2.846489914875093841e-01,6.434226432994473964e-03,5.600302464559745418e-03,3.209458019682702185e-03,3.394996747374534607e-02
-2.688383731065752125e-01,-2.747743452473379588e-01,-2.613041976762053853e-01,-3.526154238637428488e-03,1.025907837146650559e-03,-7.299688646473040604e-04,1.337084639817476273e-02
-1.810998755126529414e-01,-3.009608713386079937e-01,-3.272112226826199843e-01,-2.291926273357934238e-02,1.828015409067924174e-03,8.885854929209218572e-03,1.415093988180160522e-01
-1.894220166919224346e-01,-3.104408260126794161e-01,-3.031104344958427399e-01,-1.814944095855601860e-02,-3.087558472920639424e-02,1.206118160138880619e-03,1.329084187746047974e-01
-1.089529451393041193e-01,-3.035370441245647255e-01,-3.948683305707582081e-01,-7.253972166960157009e-02,-4.381996309981127380e-02,3.637499622333251192e-02,2.991521656513214111e-01
-2.681479662072343562e-01,-2.678492306954939894e-01,-2.685683529692025062e-01,-1.302301106044551516e-04,-2.627950116254476414e-04,4.110438765464922382e-05,8.091257186606526375e-04
-2.649335955455247582e-01,-2.726507219240429380e-01,-2.667372010991673204e-01,3.133382747829514120e-03,-3.018442934387202681e-03,-2.691961586693061848e-03,1.128785219043493271e-02
-2.750489991643103038e-01,-2.611048863810782050e-01,-2.689269943107757133e-01,-8.364685912870277375e-04,3.557273795992574924e-03,-7.778717222440453523e-04,1.372691430151462555e-02
-8.847391805952092847e-02,-3.473716145173817993e-01,-3.548605559755382832e-01,5.233999803141010758e-04,-1.094396174229295658e-02,2.882214015358838897e-03,2.634540200233459473e-01
-2.009514313726593615e-01,-3.025558582302082522e-01,-3.142787220563991180e-01,5.412682819903112674e-02,1.011327180642638407e-01,6.642930669872990079e-02,2.536989450454711914e-01
-2.778920108976847825e-01,-2.952506287559806264e-01,-2.383265274053242289e-01,-6.381583892169970630e-04,2.010212867588197228e-02,3.383993334428754291e-03,6.165560707449913025e-02
-2.659603308367813890e-01,-2.889122837085870699e-01,-2.481973597997260972e-01,-1.058287938408530989e-03,-6.275527428001175662e-03,-4.128095218273226019e-04,3.704089671373367310e-02
-2.556511014392624515e-01,-2.840673735170988201e-01,-2.671404639992311925e-01,-4.726165934836209365e-03,9.057175629810227183e-03,-4.669265513215504516e-03,3.148838505148887634e-02
-2.649109001663132457e-01,-2.842255177363550711e-01,-2.569471482649854366e-01,-1.959915470030273825e-03,1.122320717139072867e-02,-2.980665007526462924e-03,3.172302991151809692e-02
-3.183621092215906945e-01,-3.313900691150821753e-01,-1.603575843302431636e-01,-6.517871344234399400e-03,-8.950014355626441376e-02,-6.344600031659795858e-02,2.518493533134460449e-01
-2.212801402583831623e-01,-2.879318277296563089e-01,-2.918493468341528119e-01,1.475071925791940700e-02,1.367823290353816119e-02,6.469763526891519900e-03,7.783643156290054321e-02
-2.561340708412150891e-01,-2.830918396165861828e-01,-2.656857916722878965e-01,-1.096071354185663982e-03,1.420229634379861858e-03,-2.602247428397853456e-03,2.429884672164916992e-02
-2.677399463097668297e-01,-2.682235771008451564e-01,-2.684617074871227249e-01,1.038924210035423315e-04,9.002511698718737262e-05,2.603664428280089561e-04,8.159892749972641468e-04
-2.650612437978322466e-01,-2.981018308809127992e-01,-2.417936723197339766e-01,-4.519141005695315703e-03,2.310657859264475186e-02,2.575557308891730356e-03,6.391201168298721313e-02
-2.480649340785752999e-01,-2.684099451905909151e-01,-2.890686005055138064e-01,-7.653432743086538426e-03,-1.047650129999430722e-03,-1.837440985953575374e-03,3.808078914880752563e-02
-2.497873461239536463e-01,-2.646560210440813687e-01,-2.880867032016415918e-01,-6.024264993483341261e-03,-1.165412235080748489e-03,1.989127995441394500e-03,3.526013717055320740e-02
-2.679271826121101263e-01,-2.681816934415075515e-01,-2.685083734652104481e-01,-2.609867077248450957e-05,2.699591051204315193e-04,1.151558612177606576e-04,7.177039515227079391e-04
-2.430855581731367621e-01,-2.523075397866365033e-01,-3.026001924869558546e-01,-4.376746091538834954e-02,-5.679700128064548749e-03,7.122396570694479977e-03,9.525717049837112427e-02
-2.081208134286745282e-01,-2.891957433880893436e-01,-3.081899925788131878e-01,1.820663408561550012e-02,1.573317379590430040e-02,1.690138357509479716e-02,1.052040681242942810e-01
-2.604782074019382221e-01,-2.595607302718789811e-01,-2.839249257487441169e-01,2.595466286216426693e-02,-2.693537293909903374e-02,-2.545271487985013500e-02,8.193351328372955322e-02
-2.664582948808114082e-01,-2.651399164401163633e-01,-2.731513763997533428e-01,7.219904945118784311e-04,-1.633773037504137205e-03,-7.422880622188421850e-04,8.159896358847618103e-03
-2.691863309809328086e-01,-2.554600102628346581e-01,-2.793296787347514520e-01,-4.461577805777531928e-03,-4.887354402158613706e-03,3.417508790849644543e-03,2.443243935704231262e-02
-2.515061705061083508e-01,-2.666121443839313265e-01,-2.874755346905063513e-01,-1.127092425096020735e-02,8.492992825152474983e-04,2.078084721532852137e-03,3.707902133464813232e-02
-2.755591268344860234e-01,-2.674689321700762790e-01,-2.610664080506362450e-01,-2.890542405744908009e-03,1.112775934028636211e-03,-9.034085367811003301e-04,1.376481726765632629e-02
-2.677140351127424434e-01,-2.681449102981371957e-01,-2.687095759757207047e-01,-2.309305691425496713e-04,-1.638089291821071122e-04,2.432769837770056660e-04,1.079740351997315884e-03
-2.704688239930215787e-01,-2.581717614622255352e-01,-2.756075951439808103e-01,-3.651552119906034503e-03,-4.890676805048961573e-03,1.726241146048898122e-03,1.901351846754550934e-02
-2.729847064374658072e-01,-2.657492690972544924e-01,-2.646458556432935705e-01,-1.828040146285015745e-03,1.020707213877292217e-03,-1.792595815054046516e-03,9.183880873024463654e-03
-2.698147476048605165e-01,-2.620670535355095199e-01,-2.741737727499316546e-01,5.770456438479087437e-03,-6.016724592709769490e-03,-5.138099266542500015e-03,2.001244388520717621e-02
-2.317498161339118790e-01,-2.751100481569109801e-01,-2.941408178931633199e-01,-2.042979701231366699e-02,-5.111292751821799180e-03,6.431044804361623658e-03,6.724610924720764160e-02
-1.954383118582136425e-01,-3.050479130784438109e-01,-3.055499569757129108e-01,-3.058282577906606264e-02,-1.855696396640010501e-02,1.872522251178335671e-03,1.261708140373229980e-01
-2.410680261019505222e-01,-2.903297137043626686e-01,-2.735651879874264059e-01,-6.283601507884784285e-06,5.100318366849758422e-03,2.821088628515312086e-03,4.454020410776138306e-02
-2.278773372641672013e-01,-2.456152248978169250e-01,-2.989193404263429388e-01,1.064156332721531290e-01,-6.648852537610214219e-02,-6.231040786316091595e-02,2.509666383266448975e-01
-1.322193187371806244e-01,-3.502840969609787303e-01,-3.127266587229003414e-01,2.343420415751384239e-02,-6.419125892815862044e-02,-4.304420166351078519e-03,2.341740280389785767e-01
-2.217728554456849799e-01,-3.030803792263950247e-01,-2.827376497304553982e-01,-1.584337857275111908e-02,-2.975807378038679285e-02,2.070456167444803194e-02,1.003315821290016174e-01
-2.570848228996757134e-01,-2.811478008470625345e-01,-2.661640899746260946e-01,1.301270207061983649e-03,1.728233619248430121e-03,2.060733378989148146e-03,2.167408540844917297e-02
-2.571315095808065498e-01,-2.606392227915921289e-01,-2.856633327034660552e-01,3.333334338259287630e-03,4.460004389556583332e-04,4.519644503720074945e-04,2.758315578103065491e-02
-2.398151142019857851e-01,-3.090710798240963730e-01,-2.597799063318225743e-01,-2.423327784521280351e-02,-4.093148127405431269e-02,1.267498889982833152e-02,1.052719354629516602e-01
-2.060665763447709353e-01,-3.340411093878404847e-01,-2.357181905781135789e-01,-1.400105862882052542e-02,-1.063187558889010648e-01,1.099244298599672508e-02,2.198264598846435547e-01
-2.417742916504980466e-01,-3.113788944738524744e-01,-2.519182938125579807e-01,-3.922607834887170686e-02,-9.000314700025299763e-02,2.875804618655918715e-02,1.887868195772171021e-01
-1.657866625867971122e-01,-3.326637857605431181e-01,-3.048020326109441847e-01,-1.173708609577532851e-03,-2.121971078718592335e-02,-1.707823142242731723e-03,1.591806262731552124e-01
-1.869431186730087791e-01,-3.351964441498910263e-01,-2.567702398345358961e-01,3.649905058929922303e-03,1.069488448815006931e-01,-2.556466599202146094e-03,2.255582213401794434e-01
-2.268541963384023696e-01,-3.183284336339569087e-01,-2.734119626845889495e-01,8.800036000706426900e-03,5.797239702855083721e-02,4.459690354200540954e-03,1.290376335382461548e-01
-2.701542897659839904e-01,-2.669517507948054869e-01,-2.678126311233158252e-01,-5.162059884130606492e-04,1.221803900733950355e-03,4.848610776301050674e-05,3.677667817100882530e-03
-2.672236930158168877e-01,-2.678879226518898204e-01,-2.692447566759806898e-01,-5.675291471716926864e-04,1.468483210524586073e-03,-9.053451137588997607e-04,3.616351168602705002e-03
-2.160239131417628078e-01,-2.968756121070031950e-01,-2.907683722231684254e-01,4.606612360344001546e-04,1.119903678102850131e-02,-5.933195439827146974e-04,8.036456257104873657e-02
-2.345068467871824769e-01,-2.928523738462610604e-01,-2.757672336570676785e-01,-1.676608389264885304e-04,1.313554471432182812e-02,3.832814775790064493e-03,5.710555613040924072e-02
-2.767605684738212446e-01,-2.748703566599518533e-01,-2.515789277724231332e-01,-6.391352046545841284e-03,-4.674780306495169430e-03,3.752476078985206645e-03,2.864334732294082642e-02
-2.842188096465561586e-01,-2.748140463005909750e-01,-2.442723955424081494e-01,-5.178278980528099387e-03,-1.691474825004709182e-03,3.283081281933529234e-03,3.781324997544288635e-02
-2.417710305941183080e-01,-2.866201022711764579e-01,-2.741804388035940510e-01,3.903678409380147672e-03,7.162419725412993293e-03,6.358213673150814316e-03,4.392237216234207153e-02
-2.179860763409027513e-01,-2.993903567720951897e-01,-2.814938211495672804e-01,-5.246081772191902529e-04,3.927351835095289206e-02,2.931704306899220267e-03,1.007170602679252625e-01
-2.679173598126461942e-01,-2.700483430715147071e-01,-2.675838320141439297e-01,2.503490278358425428e-03,2.137899534872907646e-03,2.022462110282035284e-03,7.081551011651754379e-03
-2.759552427968778865e-01,-2.644493275973271440e-01,-2.638355131727310732e-01,5.079097817429062672e-04,6.614937321308783603e-04,8.171391501703391196e-06,1.191269047558307648e-02
-3.656828485108827298e-01,-1.085332816253203880e-01,-3.608391090259366329e-01,5.267098649200703531e-02,1.069730603214701786e-02,4.506854376525519512e-02,2.822468876838684082e-01
-2.751044680562456102e-01,-2.738793760524592114e-01,-2.559502390909461078e-01,-4.066628649749966587e-03,-2.071586121914691277e-03,1.603159125124424978e-03,2.037441544234752655e-02
-2.751077859384186697e-01,-2.475193679377155342e-01,-2.887055328537058152e-01,-1.920734946544408114e-02,-8.409870825575609457e-03,5.735871115804635871e-03,5.233359336853027344e-02
-2.862351724573067857e-01,-2.322995617418779357e-01,-2.865274512166734455e-01,1.967128327622872166e-02,6.150947670618250526e-03,1.118348826591902649e-02,6.763498485088348389e-02
-3.190878071681571004e-01,-1.697028021705933587e-01,-2.928110908090121312e-01,4.327496409184147796e-02,2.385897703436140604e-02,7.893861280837090322e-02,2.123695611953735352e-01
-2.944795120455526161e-01,-2.076291995260875212e-01,-3.006393435299242189e-01,1.715396792663303333e-02,4.010749034121758455e-03,7.488275621631448539e-03,9.599562734365463257e-02
-2.977160192879554357e-01,-2.186919594962107027e-01,-2.907482787418671499e-01,5.880248654110913249e-03,9.780666132976352078e-04,1.024518289498582528e-02,7.851257920265197754e-02
-3.330050841257919947e-01,-1.146469709598605391e-01,-3.341732246885067426e-01,6.195365264840979429e-03,5.752577022531202636e-03,3.380341605694758139e-02,2.271104156970977783e-01
-2.242932040061140775e-01,-2.864379783454223394e-01,-2.900867730095955110e-01,-1.054199118859219103e-02,-8.752341023441542397e-03,4.305388740377845240e-03,6.870851665735244751e-02
-2.848996220515044864e-01,-2.572474228262499052e-01,-2.620399260749328163e-01,-1.642700815934393594e-04,2.310189777316160368e-04,3.872288794521773665e-03,2.646344341337680817e-02
-2.441617678484339637e-01,-2.632444515222271408e-01,-2.953632247184688198e-01,1.881044786801275293e-02,-1.198049941488290096e-02,-9.504028288769460903e-03,6.141459569334983826e-02
-2.960250577275492234e-01,-2.143876584681441710e-01,-2.984537619833928512e-01,-7.554301318237997831e-03,6.367853314787198619e-04,2.090020831102558461e-03,8.399023860692977905e-02
-2.752495102251993897e-01,-1.855939801092812980e-01,-3.335836978067586722e-01,1.096891536783114324e-01,-2.519386929729653876e-02,-2.392393394398363918e-02,2.374602258205413818e-01
-3.145982427054224151e-01,-1.652490098906498617e-01,-3.335448015909575070e-01,4.727051131165607017e-02,9.704467782195034045e-03,3.661665309434028459e-03,1.803332418203353882e-01
-2.459945556912713494e-01,-1.966929938836201597e-01,-3.977829281463387545e-01,1.522222576478037548e-01,-2.096464904155317943e-02,-3.907649257042077745e-02,3.291930556297302246e-01
-2.638313366292981410e-01,-2.709469255521931852e-01,-2.697380162483234423e-01,-1.164230964612551766e-03,-1.244619593547104238e-03,2.541998426907069331e-03,8.461073972284793854e-03
-2.633594304026213306e-01,-2.600007594882524087e-01,-2.809741120675489645e-01,-2.149089501026902986e-03,-2.398312205727238296e-03,1.137489362016935084e-03,2.038903348147869110e-02
-2.353145763477664243e-01,-2.918090230455688827e-01,-2.778317600022987000e-01,-2.848465322907041115e-05,2.432148303093243855e-02,2.230505596485828860e-03,6.623353064060211182e-02
-3.330345994525246711e-01,-1.317678492668220291e-01,-3.240136557392906402e-01,7.950747366981416805e-03,-2.734393659066235507e-03,-4.483769141773443628e-02,2.121730297803878784e-01
-3.057032540519526442e-01,-1.889546377177203085e-01,-3.039634090487550733e-01,-4.649257257733092202e-03,-2.724778204185978854e-04,-5.691992665463550469e-03,1.165864840149879456e-01
-2.083759867026803714e-01,-2.950639715267657781e-01,-3.037992269675261481e-01,3.341890577338935131e-02,4.026717262534404429e-02,2.921435544174683790e-02,1.382880806922912598e-01
-3.083995991077642662e-01,-1.909066197405601961e-01,-3.094143237937662105e-01,3.845226824768978140e-03,-1.107814632805705080e-02,-2.864702791488411837e-02,1.296122819185256958e-01
-3.044311349544686629e-01,-2.079696987137801545e-01,-3.057808491445447308e-01,-2.808110352836795665e-02,1.229621684103995513e-02,-3.588150398626593907e-02,1.269586831331253052e-01
-2.381259830086092655e-01,-2.842692063178631212e-01,-2.840589928778000095e-01,2.555224236526920916e-03,-2.236600939125140547e-03,-2.537445434815327559e-03,4.662029445171356201e-02
-2.852698732895705414e-01,-2.241033457599558021e-01,-2.942442073300676197e-01,-3.445507284253153564e-03,3.249183574271183230e-03,-7.431218560354613256e-03,6.785106658935546875e-02
-3.384232764959210771e-01,-2.388961195152192185e-01,-2.261351589083767932e-01,-1.024591963842218754e-04,3.570536702213818192e-02,1.405268110825884098e-01,2.727756798267364502e-01
-2.971535250748272294e-01,-3.195497175393248179e-01,-2.267418356537060087e-01,6.028819498748962113e-02,1.040356328577651673e-01,9.722946558411725559e-02,2.806622385978698730e-01
-3.065074993829060013e-01,-3.402810799385312945e-01,-1.675074491799988241e-01,-1.775560259912561598e-02,1.298568501041781065e-01,1.943423640316030085e-02,2.789685428142547607e-01
-2.659064143517667067e-01,-2.578944908425950810e-01,-2.807482095293749036e-01,1.644876050936638348e-03,1.918443516300178536e-03,1.073312089106561200e-03,2.063965238630771637e-02
-2.797771811033759048e-01,-3.387759333625005587e-01,-2.194643325221072305e-01,4.593165679441736649e-02,1.208571560468449657e-01,6.536515408730786403e-02,2.713727951049804688e-01
-2.671720689274014737e-01,-2.646331983060976611e-01,-2.727796107273966486e-01,9.334791292426676459e-04,2.080653063087215589e-03,7.650845079348869357e-04,8.335753343999385834e-03
-2.604611374971588234e-01,-2.832707302617551992e-01,-2.613580107427870836e-01,4.137694517348784826e-04,3.482861172648976677e-04,7.200944856033363040e-04,2.242894843220710754e-02
-2.635450055307829165e-01,-2.801347192255733698e-01,-2.611108987274882165e-01,5.881436060164366413e-04,1.193208755684304484e-03,6.044336998102157760e-04,1.810882613062858582e-02
-2.736482808437266101e-01,-2.428719886575345932e-01,-2.893972416902070854e-01,-4.107568495741639389e-03,-2.143980472493724025e-03,1.314006093138867003e-03,4.182691499590873718e-02
-2.760722926110667497e-01,-2.337311296923719472e-01,-2.916749826804599932e-01,-4.215195552792880621e-03,-6.334027938235227894e-04,7.636742116064102956e-03,5.409547686576843262e-02
-2.775073808719555335e-01,-2.389493499506752938e-01,-2.926268384859870841e-01,-1.775268740996967937e-02,3.796917775136391185e-03,-4.999862568006310272e-03,5.798289179801940918e-02
-2.614225947642841441e-01,-2.603082986420868217e-01,-2.827608745885053509e-01,-6.667607341231514490e-04,-1.118764431206162313e-03,3.252220855579688696e-04,2.203966677188873291e-02
-2.957382370014540740e-01,-2.205929490437656404e-01,-2.872760191985828659e-01,7.547553735047134518e-03,5.753662931855660877e-03,1.255643280107275085e-02,7.632647454738616943e-02
-2.332694007244928147e-01,-2.855685866536580853e-01,-2.850210659388490164e-01,-3.672303461200111981e-03,-3.021917359954218608e-03,3.591384152534535332e-03,5.304165557026863098e-02
-2.479825334656550750e-01,-2.675466918069956401e-01,-2.901119775933635458e-01,-6.820509332232922370e-03,1.749528598063727208e-03,-1.792781072503372031e-03,3.862385451793670654e-02
-2.700251838910485702e-01,-2.807082278571230161e-01,-2.542111841724579713e-01,-1.418350583416679023e-02,1.834911738864344194e-02,-9.934374925894367409e-03,4.942481964826583862e-02
-2.693190458457685454e-01,-2.484068320782085726e-01,-2.859931800289761683e-01,-5.475876689080194995e-03,-5.466275120692158131e-03,3.298491403813259490e-03,3.572501614689826965e-02
-2.026218768313535201e-01,-2.879469833929829137e-01,-3.121966479916716275e-01,-8.613466751458560833e-02,4.382536255243430628e-02,-3.639230709494149785e-02,2.047687917947769165e-01
-2.433060271003255892e-01,-2.751220187488694346e-01,-2.836380472560501853e-01,-3.351774941605621672e-03,6.027945698009276078e-04,-3.841158852439094037e-03,3.787852451205253601e-02
-2.517768966117015506e-01,-2.691058947125974932e-01,-2.827462398812506383e-01,-8.718244424051002639e-03,7.104397486523846526e-04,-3.678500867269935901e-03,3.150965645909309387e-02
-2.162774205977365527e-01,-2.891935002701050417e-01,-2.997745092961042190e-01,-7.406469224463065049e-03,-1.751298880556231754e-03,7.786237509996253234e-04,7.984876632690429688e-02
-2.625297871353317603e-01,-2.571659621156874298e-01,-2.841206772444456741e-01,-2.462163633130507075e-03,-3.013781018810664496e-03,1.650718975536645625e-03,2.577512152493000031e-02
-2.496735528951152805e-01,-2.739048034090674766e-01,-2.816377964182714133e-01,-2.950428502254811257e-03,-1.681460613586628627e-03,3.832605366715769943e-03,3.021582961082458496e-02
-2.530828685623645047e-01,-2.676771847530487469e-01,-2.826651125601506997e-01,-4.460227945453454010e-03,-1.645468828235402544e-03,3.915597319418707457e-03,2.775193564593791962e-02
-9.534454032040681759e-02,-3.269557099643347620e-01,-3.995711438561293516e-01,-4.213089028155812821e-02,3.885408354663524855e-02,-9.202605810385013421e-03,2.929902672767639160e-01
-1.131821316583940806e-01,-3.334084858793161521e-01,-3.917368008657343692e-01,-7.570832962502899166e-02,2.573617107445111407e-02,-1.414325744638098882e-02,2.907398641109466553e-01
-2.685165083051666013e-01,-2.541604505113295720e-01,-2.818373347501372250e-01,-5.129353879374941479e-03,4.317994567902019160e-03,-1.475183422438697441e-03,2.676135115325450897e-02
-2.212692849095770353e-01,-2.926953119082201793e-01,-2.915726053062453471e-01,-2.010606441190313735e-03,6.184300108519588494e-03,-2.930108536139813379e-03,7.194003462791442871e-02
-2.334034160555096271e-01,-2.789545782977653210e-01,-2.908906249798806076e-01,-9.802820548221721775e-03,-5.935578250929094508e-04,2.121058185711046686e-03,5.535266920924186707e-02
-7.013553409308645459e-02,-3.360245934080243746e-01,-4.195418932989118943e-01,3.302145839285066178e-03,4.174070022244595612e-02,1.499972822204991701e-02,3.252891302108764648e-01
-3.576964444339629234e-01,-1.807538649661473706e-01,-2.949654447367150434e-01,6.890461381153181741e-02,4.015794273659236552e-02,1.063234005248151065e-01,2.777401506900787354e-01
-2.626903991359841317e-01,-2.636641949113952554e-01,-2.783011622106555949e-01,3.726282231227338415e-04,7.274086593632874114e-04,1.518595273842051653e-03,1.543906796723604202e-02
-2.734517906248635222e-01,-2.490246881448235916e-01,-2.831631752857772799e-01,3.053857523186207564e-03,4.249259886650307884e-03,2.286107346620458360e-03,3.203187510371208191e-02
-2.918346386545139781e-01,-2.264638191240445630e-01,-3.102932905138430231e-01,9.939144225350241002e-02,5.273466684841698199e-02,8.081551463129378610e-02,2.517796158790588379e-01
-2.682984403698647768e-01,-2.671765934288310995e-01,-2.690612741723188983e-01,1.849367266435596874e-03,2.298311890408798706e-03,2.218835012213833842e-03,6.600993685424327850e-03
-2.680124442261150874e-01,-2.705373665117116744e-01,-2.658963157281239997e-01,1.962465845402747849e-03,8.382451738166620675e-04,1.107160780467605519e-03,5.790983326733112335e-03
-2.690845973943639113e-01,-2.646950392079472913e-01,-2.706822719619862427e-01,6.815104929690761221e-04,2.471997093929742973e-03,4.085261998526829442e-04,7.004300598055124283e-03
-2.308736582896729339e-01,-2.835041690537645764e-01,-2.923255032594356262e-01,4.041996769097230303e-03,-1.780462246091846137e-03,-2.378475285654659769e-03,5.820268765091896057e-02
-2.599924700450385595e-01,-2.771292573242213897e-01,-2.675632457796347508e-01,1.140584766808229802e-03,1.092425116845481374e-03,3.134390511980052457e-03,1.606871373951435089e-02
-8.397710608697819823e-02,-3.483261269166489926e-01,-3.629193701968383423e-01,1.347229804320288979e-02,3.789310411064049713e-03,-3.611597274469119552e-03,2.730893492698669434e-01
-1.605389395861196167e-01,-3.814816747685793596e-01,-2.935953661269377624e-01,3.190865042296365389e-02,1.064708704160570868e-01,1.659994831824309486e-02,2.738816440105438232e-01
-1.971201277061804258e-01,-3.107123989355873306e-01,-3.058919435903491579e-01,2.047958180511987719e-02,2.020027070845100553e-02,7.137028093764372257e-03,1.225319504737854004e-01
-2.330563563690181694e-01,-2.836059384035324871e-01,-2.889638079395659420e-01,3.764510823297487034e-03,6.542123596382117684e-03,3.714247395355528211e-03,5.538144707679748535e-02
-2.728151476058096603e-01,-2.664171304860382117e-01,-2.652861858643038029e-01,-1.510700265305624712e-03,4.832264074354139776e-04,-6.186101069829096338e-04,7.625265046954154968e-03
-2.689665932280826954e-01,-2.702396280773121107e-01,-2.658778481093667101e-01,-2.560099270337407116e-03,3.592645236196333240e-05,-2.906277070160837072e-04,5.917147733271121979e-03
-2.551407454457550461e-01,-2.695635487778971773e-01,-2.790823656880853099e-01,2.732237762530970431e-03,2.815186747034525289e-03,4.967248747396240879e-03,2.358187921345233917e-02
-1.839768318538165803e-01,-2.502878238338510086e-01,-3.486448444424609105e-01,1.096837992583933885e-01,5.336830055352596164e-02,3.257270996854540884e-02,2.615577876567840576e-01
-2.626096249590117448e-01,-2.533727396092879669e-01,-2.879256123689827307e-01,1.570310821629693904e-02,1.143246523979269368e-02,1.264453102295273745e-02,5.071074143052101135e-02
-2.301503762304964729e-01,-2.572084192713067208e-01,-3.080212840951198627e-01,5.679710649478601769e-02,4.980808106832684823e-03,4.786969693187551923e-03,1.204569861292839050e-01
-2.677232450650421924e-01,-2.686752922820677680e-01,-2.682460326425624708e-01,1.438207478143214285e-02,1.883426356795680698e-02,9.921917745773571953e-03,4.450546205043792725e-02
-2.673495087203789922e-01,-2.542609309513902960e-01,-2.805007969096494636e-01,5.582783694345806562e-03,4.648327019802915225e-03,2.330872097537988862e-03,2.628728002309799194e-02
-2.769046678863573141e-01,-2.597182188962417482e-01,-2.674352440928655650e-01,-6.970152223143164828e-03,-5.296305263270051009e-03,8.802934223779269526e-03,2.616629190742969513e-02
-2.672246435344204918e-01,-2.787630811320258584e-01,-2.594385837911775128e-01,-4.620436597764340965e-03,-6.996088196468025142e-03,6.504541638992175981e-03,2.492800541222095490e-02
-2.904255927507449209e-01,-2.754127829867270560e-01,-2.386770269491184926e-01,-1.151598849575020131e-04,-3.140144072464904831e-03,1.885640985194819361e-02,5.676901340484619141e-02
-3.908131441152522534e-01,-2.681518620595122471e-01,-1.711149258570618947e-01,-2.645390054568539165e-02,-1.183009219577140468e-02,1.475878855969049719e-01,3.228474259376525879e-01
-3.097148231700917465e-01,-2.268298828492321118e-01,-2.798615030257400327e-01,-4.462197450619452554e-03,-1.724541769676659437e-03,4.802303573109968637e-02,1.107882410287857056e-01
-2.840700474037501921e-01,-2.384361703138249133e-01,-2.837409950203685360e-01,-3.012855603889525238e-03,-2.043906541848457444e-03,3.260169871110947526e-03,4.625141993165016174e-02
-2.889126340520304370e-01,-2.250923168409370012e-01,-2.870682987393345376e-01,1.196718467706534700e-02,3.518097226261928008e-03,2.771049951525198299e-03,6.669734418392181396e-02
-2.616852543166352518e-01,-2.615953292666934882e-01,-2.815200427161191898e-01,-1.087689356937870770e-02,-4.551115436611819290e-03,5.457001732335427929e-03,3.002674691379070282e-02
-2.804961861179143812e-01,-2.571267545265896737e-01,-2.676306022023343112e-01,-1.546864057048043381e-03,-2.465703293107183135e-03,2.192687122500462053e-03,2.123283408582210541e-02
-2.815117643607935594e-01,-2.599918934363003586e-01,-2.558729326988923303e-01,1.962410819695237923e-02,-2.574519363541856454e-02,-3.747536585545205301e-02,8.902629464864730835e-02
-2.695266495208684665e-01,-2.695980330666580826e-01,-2.654300750257796992e-01,2.831650700241179503e-03,-9.233578909416790235e-04,-9.271240162088488067e-04,6.802252028137445450e-03
-2.674974145178826146e-01,-2.559402230948810142e-01,-2.772297840295585014e-01,7.618046965238890397e-03,-8.280661783325480793e-03,-5.071041647970917464e-03,2.824402414262294769e-02
-2.736566584218341203e-01,-2.623789616615281317e-01,-2.696461699416936031e-01,6.382359444407690111e-03,-6.946905615882944217e-03,-6.485777614986679498e-03,2.216346934437751770e-02
-2.749713054752240260e-01,-2.675052618348814915e-01,-2.621801453808153548e-01,3.867320171433857173e-03,-1.197916016150345859e-03,-1.662511378660117131e-03,1.346556935459375381e-02
-2.589103914234673898e-01,-2.906630787024319096e-01,-2.655395697329691052e-01,2.937207500270119787e-02,-4.552741539044281860e-02,-3.028145827601577689e-02,1.113507002592086792e-01
-2.827207267165127713e-01,-3.125393524723475980e-01,-2.101234514734495740e-01,-4.328425031406595534e-03,5.702061931585168664e-02,-2.715298261168718700e-03,1.347465962171554565e-01
-2.572909779848914780e-01,-2.853768772103103535e-01,-2.613816196147193405e-01,-3.804280201236339440e-05,-3.224965964745149429e-03,3.710393328555300677e-04,2.687527239322662354e-02
-3.074931567076959471e-01,-1.908151480088757512e-01,-3.125213814055126660e-01,2.700387305825754924e-02,-2.032011794672379133e-04,-1.009020379966894289e-02,1.293016374111175537e-01
-2.610704908647076827e-01,-2.588294345771581240e-01,-2.840617556557987755e-01,2.722865577994108399e-03,-6.805135607506013293e-04,-7.772541034318251798e-04,2.471009828150272369e-02
-2.608386807331941615e-01,-2.650812376097756995e-01,-2.776402461318824288e-01,1.119002755513032535e-02,8.880231147384268567e-03,6.607396111422065774e-03,3.118026629090309143e-02
-1.647958228535676417e-01,-3.181530846866731377e-01,-3.240858431026106823e-01,6.841239013558979287e-02,4.497507768064506334e-02,2.533307719117128612e-02,2.156335115432739258e-01
-3.029118911079705101e-01,-2.502439061565112088e-01,-2.413030581191783763e-01,7.312388966305956653e-03,-9.832646823711601106e-03,-4.589082860822354948e-02,1.004644855856895447e-01
-2.537235054715362703e-01,-2.653459173540097527e-01,-2.863479866962085341e-01,2.472407268813662986e-03,1.216273597699402262e-03,1.745366199433290993e-03,2.919207699596881866e-02
-2.657263781545015635e-01,-2.490338103552487969e-01,-2.900050826780499746e-01,6.388374446672766098e-03,-9.215679985370226336e-05,-2.608416414124982690e-03,3.763299435377120972e-02
-3.034673972216465621e-01,-2.570622231158439797e-01,-2.457963570802479680e-01,-3.241705687382467893e-02,-1.988945501644612257e-02,5.659233323476545174e-02,1.294241100549697876e-01
-2.836387433713327133e-01,-2.646912609891722834e-01,-2.571643293019705845e-01,3.617759683183687479e-03,1.269671447325841293e-03,3.055128893184405614e-03,2.510737627744674683e-02
-2.836422688982612184e-01,-2.291784989167357789e-01,-2.935214515046264960e-01,3.663212529013315684e-03,-5.314414656186303588e-04,7.626236805361948133e-04,6.037224084138870239e-02
-2.758694192332457051e-01,-2.696440577852796117e-01,-2.578971882565150864e-01,4.442849805645136992e-03,1.845042841250984101e-03,2.526937773402575423e-03,1.839723065495491028e-02
-2.702442642641524340e-01,-2.754836324855713947e-01,-2.580079349482202744e-01,4.566153183546904117e-03,2.188976703861502532e-03,1.810414308045006811e-03,1.811204850673675537e-02
-2.255171874464913240e-01,-2.893375881146605377e-01,-2.888450837059236553e-01,2.379385422014385770e-02,8.490416485938319727e-03,4.706059025587877587e-03,7.760798186063766479e-02
-2.694713492427646684e-01,-2.823314956879285909e-01,-2.521398871371490769e-01,4.069299521076699330e-03,3.791778087451197314e-03,1.529307619552158857e-03,2.807979285717010498e-02
-2.886017747243488363e-01,-2.887286692407542432e-01,-2.244337553943465402e-01,5.838215351594290906e-03,6.491820423309631848e-03,8.570910781765656711e-03,6.763697415590286255e-02
-3.577423190629530625e-01,-2.509881921412945860e-01,-2.271889267646029498e-01,5.399366983443821405e-02,4.871153577429308823e-02,1.386231895854344587e-01,2.966767251491546631e-01
-2.594065471273619972e-01,-2.709461608738618632e-01,-2.748385605989359104e-01,8.398002574653954961e-04,-1.485662570432760062e-03,-3.922975691215990247e-03,1.575236022472381592e-02
-2.112181565837538688e-01,-2.841697615580902059e-01,-3.002614288898111106e-01,2.470004971260471999e-02,7.180263395686075148e-03,4.600535325809202748e-03,9.382554143667221069e-02
-2.891141406624480603e-01,-2.133862707429208250e-01,-2.918638902440424676e-01,3.036189798440892817e-02,-1.687911586394431548e-02,-2.470143324940533500e-02,1.067765653133392334e-01
-2.976719721321048340e-01,-1.983649022643660942e-01,-3.188124179654035495e-01,1.105740346153093745e-01,-8.861196947463251955e-03,-4.297595261082084311e-02,2.342315465211868286e-01
-2.804669026536646959e-01,-2.670414562569266570e-01,-2.579460136313654339e-01,2.595524914302294560e-03,-1.006714450189359882e-03,-1.456775942965452030e-03,2.036411873996257782e-02
-2.817515309224862818e-01,-2.654100655280497989e-01,-2.580739258398940805e-01,2.895145244330112576e-03,-7.170688252134808406e-04,-1.895533632172473684e-03,2.186808176338672638e-02
-2.527852071951763868e-01,-2.667270899997919442e-01,-2.860427100693510027e-01,1.188819781746234920e-02,-5.705687579731621301e-04,-9.952383367650002866e-04,3.556263819336891174e-02
-2.748300696471257520e-01,-2.839468300297419701e-01,-2.451956875872197128e-01,3.534427756416683771e-03,-3.653160335265168840e-03,-1.873584208499701632e-03,3.632527589797973633e-02
-2.608341497458792624e-01,-2.655075403391811695e-01,-2.778179410419500672e-01,1.731217692096406833e-03,-1.547422405818747867e-03,-2.734212582114442774e-03,1.641708053648471832e-02
-2.629330251829758436e-01,-2.609869140231685924e-01,-2.809662729721571495e-01,4.238092658272114063e-04,-1.381666160066808043e-03,-8.135016681708194574e-04,1.929588802158832550e-02
-2.766957262835668119e-01,-2.672032202012333824e-01,-2.616544336813220184e-01,3.778342317898850111e-03,-4.223310879360224479e-03,-7.249386301077119857e-03,2.067767083644866943e-02
-2.855781208974027541e-01,-2.608654054296324909e-01,-2.574176909428391169e-01,-1.243511448876292575e-05,-1.680916456958744408e-04,-3.365283771590109677e-03,2.723725512623786926e-02
-2.097985819775803340e-01,-3.028740801059703891e-01,-3.009726525862830293e-01,8.327673265668787683e-02,-5.972152030353509999e-02,-9.355394219581106285e-02,2.573941051959991455e-01
-2.844416051411061130e-01,-2.597700929755483723e-01,-2.582739966706017465e-01,3.355934862088552975e-03,-3.370973546218197173e-03,-8.416365161290132596e-03,3.046663291752338409e-02
-2.836208006816058891e-01,-2.732659309623110544e-01,-2.488151903315392044e-01,3.627962453463704287e-03,-1.231509102121806009e-03,-3.041753796857210763e-03,3.209422528743743896e-02
-2.549601618225987854e-01,-2.833525204004725406e-01,-2.665201026675513840e-01,3.517962132711882628e-03,-1.109475856375118086e-02,-2.364785209626593752e-03,3.216722235083580017e-02
-1.487997295020076494e-01,-2.968421446507715777e-01,-3.337443872032446190e-01,-8.383712499730965051e-02,-1.265751805295397756e-02,3.611030622686471278e-03,2.243817597627639771e-01
-1.707597935997438032e-01,-3.879676153525708493e-01,-2.774651035269654620e-01,-1.942495022910396482e-02,-1.307786346033493474e-01,1.117660793213503916e-02,2.969914376735687256e-01
-2.435743560284177600e-01,-2.902268387264098637e-01,-2.726202011568165107e-01,-2.958877797980837931e-04,-3.520202520680794974e-03,-4.736102260576743840e-04,4.126942530274391174e-02
-2.270562043851034606e-01,-3.022799776601099442e-01,-2.668460519295292599e-01,3.676911388722232943e-03,-3.961090351291796791e-02,-2.173914368785780007e-03,9.492372721433639526e-02
-1.103276639585818730e-01,-3.600326200749766614e-01,-3.687644188449114568e-01,-6.169136397926490434e-02,-2.699368667693652010e-02,7.536293775226467553e-03,2.799696922302246094e-01
-1.101078163793601794e-01,-3.564479152983230925e-01,-3.733346331004770979e-01,5.376082366714254185e-02,-3.841144441452550712e-02,-1.089256807372140402e-02,2.803237736225128174e-01
-2.127822366723668146e-01,-2.943151028875123920e-01,-2.983304339557276696e-01,1.332995483422483697e-03,3.270912982298155203e-04,1.630228968939000057e-03,8.369430899620056152e-02
-2.883680462679855117e-01,-2.990911126847192736e-01,-2.286352117644181448e-01,2.699821519269332559e-02,-3.902674242235432134e-02,-4.673206084887034789e-02,1.327823102474212646e-01
-2.733989254051074624e-01,-2.882047126702699247e-01,-2.442875992237686367e-01,-2.678073980371575152e-03,4.048218520152393508e-03,-2.108871678001709906e-03,3.977083414793014526e-02
-2.752250485761302823e-01,-2.540437010179653066e-01,-2.752229494517192676e-01,-2.419656073972567718e-03,-4.491858453016004532e-03,2.242513594420094108e-03,2.327630110085010529e-02
-2.893888728606468508e-01,-2.667196174458025260e-01,-2.494695018060748282e-01,-1.166493390296072154e-03,-2.207342095181769742e-03,5.829480721273168527e-03,3.637522086501121521e-02
-2.750620312310462778e-01,-2.658299758050542416e-01,-2.641802829148278131e-01,-1.694809415838516862e-03,-6.904358142092044924e-04,4.031490890457268997e-04,1.066382788121700287e-02
-3.314872592655095374e-01,-3.171330409006982709e-01,-1.407921074398590378e-01,-2.077440369438941087e-02,-5.313803098520517715e-02,6.748456294077831430e-02,2.392939180135726929e-01
-2.691310647662233380e-01,-2.671459456927747778e-01,-2.682215623841353036e-01,-1.516204272248126766e-03,-1.464291816438735572e-03,1.302496296174320087e-03,4.623958375304937363e-03
-2.709328802512863121e-01,-2.636154822885859450e-01,-2.695307414178050864e-01,-7.977376592216935862e-04,-2.566686624095387663e-03,9.312856094610883796e-04,8.338163606822490692e-03
-2.723973488142505395e-01,-2.655296318238092312e-01,-2.664500457829469537e-01,-2.480616209225634805e-03,-2.986723655493953109e-03,2.557005003040862048e-03,1.032125484198331833e-02
-2.759131925332927171e-01,-2.643465204269080937e-01,-2.640066468382923914e-01,-7.299385624625684540e-04,-6.227732053943300927e-04,-3.226783538012837509e-04,1.187050808221101761e-02
-2.649938699518378793e-01,-2.705224626155159906e-01,-2.700077828841391248e-01,-7.899766394549080379e-04,-6.863232407571133236e-04,1.832596691486325369e-03,6.430032663047313690e-03
-3.005159907642097616e-01,-2.918364452049559965e-01,-2.099388172619895687e-01,-2.908041321010239755e-03,-7.560604784630806791e-03,1.927082872058340918e-02,9.383145719766616821e-02
-2.890142454221259483e-01,-2.847250083277571564e-01,-2.307009818882994057e-01,-4.950362606458718132e-03,-6.520961301495655296e-03,3.821261154075624063e-03,5.842608958482742310e-02
-3.756733762365715990e-01,-2.073177834030777433e-01,-2.530901498167676955e-01,-1.259376897801716202e-02,1.393830000729386585e-02,-1.379545128887572636e-01,2.844040393829345703e-01
-2.869700580629428455e-01,-2.745141198172731944e-01,-2.429410963379314559e-01,-8.881476388150849697e-04,1.335744905688086414e-03,-3.721616685623626089e-03,3.993179276585578918e-02
-2.922552700837027229e-01,-2.823980339084394275e-01,-2.299054629629089519e-01,-4.965325000440767682e-03,-2.565340416083250474e-03,1.020927822142419540e-02,6.145291775465011597e-02
-2.939070723704990118e-01,-2.274627379805281013e-01,-2.873837957453920233e-01,-2.362849990777297644e-03,1.878653666938001447e-03,-9.569297977032089828e-03,6.577248126268386841e-02
-2.826714319542563136e-01,-2.491627362883824803e-01,-2.739718701871782236e-01,-1.893278968458227650e-03,4.554465372109127094e-03,-2.687488413176810937e-03,3.164893016219139099e-02
-2.810861490117309569e-01,-2.573592505050735779e-01,-2.657644454412550483e-01,-1.457154851784682285e-03,2.239085546281740363e-03,-1.685885716762989270e-03,2.154346369206905365e-02
-2.790563365032479592e-01,-2.611900076308980578e-01,-2.632076122376660887e-01,-8.845663701033923106e-04,2.777088848744552977e-03,-2.692865333148652344e-03,1.828846335411071777e-02
-2.859413236762573529e-01,-2.697487934532922238e-01,-2.488160083646233367e-01,-4.773727325632627812e-03,2.623361898916032591e-03,-5.753595984666881255e-03,3.503794223070144653e-02
-2.703118907443557983e-01,-2.601981649067637292e-01,-2.725741835833669913e-01,2.371922993538970546e-03,3.512500602128289066e-03,2.083216262417516250e-03,1.404265034943819046e-02
-2.693792470827442442e-01,-2.589514001903190366e-01,-2.754306182063396835e-01,3.978963753223631328e-03,6.384064680152013761e-03,1.491317467137334490e-03,1.961884833872318268e-02
-2.683733396048352815e-01,-2.555989372997452547e-01,-2.803515648199734200e-01,5.718212854610335051e-03,2.999333791770133258e-03,4.992824217271780302e-03,2.568160183727741241e-02
-2.738418354449509429e-01,-2.536457170770660130e-01,-2.832757027275792372e-01,5.363430464789769453e-02,3.890322143285135370e-02,4.111694886707255303e-02,1.375845819711685181e-01
-3.778613834793009829e-01,-9.502081881717591716e-02,-3.698598881400818605e-01,2.917920484902834094e-02,-8.950105574248931259e-03,-2.959840262790899845e-02,2.884830236434936523e-01
-3.535050835779567358e-01,-1.210415078326654015e-01,-3.621726125380298478e-01,-6.174881271836968333e-02,-1.880017066703732267e-02,4.158257588989870690e-02,2.716905176639556885e-01
-2.897296937012089346e-01,-2.236966742039410150e-01,-2.934121075180553539e-01,1.863149555798675194e-02,-2.058562733487737941e-04,-1.636998549635943498e-03,7.527711987495422363e-02
-2.757816599170757055e-01,-2.373587190740760466e-01,-2.891540750401216386e-01,9.467649504011479977e-03,3.815916838966937515e-03,2.848402304212354838e-03,5.005880817770957947e-02
-2.902046418358687485e-01,-2.172976870180421960e-01,-2.942991386673592946e-01,9.816747345023390733e-03,-1.481884425893358927e-03,-1.002624556688811288e-03,7.700269669294357300e-02
-2.672080155457339234e-01,-2.551363148510662482e-01,-2.843888405991658597e-01,-1.064719438602159708e-02,4.053199973086981170e-03,-3.406918565268384717e-03,3.274909779429435730e-02
-2.924266034212539833e-01,-2.164473068175186699e-01,-2.970675549039306640e-01,-9.838745588119300958e-03,1.880998571089678413e-04,-4.809495501682957766e-03,8.066542446613311768e-02
-2.851995367499504663e-01,-2.450581990108786912e-01,-2.743248267958571240e-01,-3.352640810784412312e-03,4.560607246120157617e-03,-3.536344139880999871e-03,3.777163103222846985e-02
-2.898233040728592225e-01,-2.424962995950709910e-01,-2.732752624184835999e-01,-2.745473831705476852e-04,5.511693137276084615e-04,-4.149012803485436704e-03,4.222906753420829773e-02
-2.792675979375377482e-01,-2.522312076055122088e-01,-2.689453883383370325e-01,-9.689659643832268521e-03,1.002785620354877845e-02,-1.523649416916785654e-02,4.287462681531906128e-02
-2.842681133102007984e-01,-2.600527769254497024e-01,-2.585288319882947938e-01,-4.072207672737290785e-03,4.928002251511837302e-03,-8.538403537328544471e-03,3.109541721642017365e-02
-2.618714203642238947e-01,-2.624064937893338945e-01,-2.783628938048488544e-01,-6.552979821287186271e-03,4.114880794994586234e-03,-4.185234518379664197e-03,2.226209267973899841e-02
-2.842842380358831522e-01,-2.613649651075260483e-01,-2.595547626038802180e-01,-9.702803413699687650e-04,4.086503819798015073e-04,-7.080536537985647038e-04,2.397681772708892822e-02
-2.855860524012819868e-01,-2.576293298450614278e-01,-2.608195835327524192e-01,-5.727839087694630506e-05,7.697813327915153546e-04,-2.741140323452414575e-03,2.696100994944572449e-02
-2.838897452202426286e-01,-2.596955336099197598e-01,-2.610193458841558178e-01,-4.787194272213062462e-04,1.463403592955873531e-04,-5.320469895160836495e-04,2.359416708350181580e-02
-2.391487055377251036e-01,-2.633695129389780898e-01,-3.014269420792617393e-01,2.070087031458032675e-02,-8.418256697564096593e-04,-1.702089723928104257e-03,6.521650403738021851e-02
-2.791278471013491358e-01,-2.437806384266404669e-01,-2.824592492198388927e-01,5.438062132939747335e-03,4.771433250333271744e-03,2.157405878075377426e-03,3.936063498258590698e-02
-2.311733590104129710e-01,-1.901103831521455123e-01,-3.867192992812531482e-01,1.087913494756349159e-01,-4.860307410133272304e-02,-3.024000446168597506e-02,2.785762250423431396e-01
-2.912316047499593497e-01,-2.182694737291661913e-01,-2.960140007939056073e-01,6.832375286688678780e-03,2.116728604751042658e-03,2.179686097147382493e-04,7.647813856601715088e-02
-2.864335488340082336e-01,-2.378822418203340172e-01,-2.821568655477280085e-01,7.243454493963470686e-03,-4.066165168628482762e-03,-4.536016423865869840e-03,4.936204105615615845e-02
-3.420839929291160653e-01,-9.452323851249827547e-02,-3.435096887834965251e-01,1.020211784753616291e-02,-9.667295521340526099e-04,1.006478364070022800e-02,2.495200634002685547e-01
-2.673799024512105160e-01,-2.598016890194723705e-01,-2.764593702900304262e-01,1.063396909809433827e-02,-6.868256847287854995e-03,-7.877497405985218332e-03,2.959053590893745422e-02
-2.711244329554632904e-01,-2.559979289851752049e-01,-2.760057318563265416e-01,3.859088002159926853e-03,-6.325404551173431297e-03,-2.736427237819178456e-03,2.266382984817028046e-02
-2.736968098022359852e-01,-2.476863268186274558e-01,-2.843732825659077146e-01,2.731103774958541699e-03,-4.544993614932938547e-03,-3.693066065340761504e-03,3.454701602458953857e-02
-2.317924014432583002e-01,-2.920983181043491084e-01,-2.835094401887552351e-01,9.021602251539834194e-03,-3.548975517915794672e-03,-2.157693186742948386e-03,5.906380340456962585e-02
-2.696975431121251821e-01,-2.589900656420242586e-01,-2.750987203954631255e-01,4.370007952614655966e-03,-5.455147270784692880e-03,-1.467602321598530284e-03,1.883305981755256653e-02
-2.725898615846577555e-01,-2.626283577556722815e-01,-2.693258332029591640e-01,3.407786694645488696e-04,-3.409791074214478003e-03,-1.104679586653519287e-03,1.078240107744932175e-02
-2.356272836060674947e-01,-2.838382791507129133e-01,-2.848179458983186585e-01,2.774177411982800372e-03,3.150851792577345420e-03,3.438443736050400979e-03,4.960676282644271851e-02
-2.428553626594358028e-01,-2.244125666474163228e-01,-3.309156412926174129e-01,8.967899333223298963e-02,-2.769148240522513807e-02,-2.918869835484337594e-02,1.967287212610244751e-01
-2.381698869343017166e-01,-2.875880986719017707e-01,-2.776654758149623703e-01,3.898666051047724491e-03,7.713332285187149764e-03,6.007635523610116955e-03,4.881209135055541992e-02
-2.294456957591391455e-01,-2.959913607743679953e-01,-2.848641507674270490e-01,5.837944686906919312e-02,4.398791497054933830e-02,2.875936203870199659e-02,1.494063735008239746e-01
-2.645697065574740270e-01,-2.776430964242441179e-01,-2.628990833914826020e-01,2.172561891463628981e-03,3.084387253677862636e-03,1.685473495183602288e-03,1.570885442197322845e-02
-3.665346431831131291e-01,-2.850140902032884394e-01,-1.861155480547993513e-01,3.789925089094368926e-02,5.950616193794612541e-02,1.402138955691260014e-01,3.136886954307556152e-01
-2.742232619750086253e-01,-2.623298558823237148e-01,-2.694382713397983076e-01,7.001826055508238687e-03,5.390109158364364723e-03,5.364247413704868045e-03,2.068819478154182434e-02
-2.950945344385548230e-01,-2.517059445879031854e-01,-2.582923277248804772e-01,9.485609862094819891e-03,1.967413277619145875e-03,2.775460907786135578e-02,6.505899876356124878e-02
-2.853221528045888911e-01,-2.666981933302483010e-01,-2.498048526913101974e-01,5.653107671362630517e-03,3.529228069264048195e-03,6.301382782212594513e-03,3.462974354624748230e-02
-2.361678572509724183e-01,-2.673036800325618301e-01,-2.932933384235813512e-01,4.939571746911250449e-02,4.434561064659731100e-02,2.904378534238744730e-02,1.349227428436279297e-01
-2.894704783211001220e-01,-2.609282008759500338e-01,-2.568301008619305881e-01,-3.907017241239626841e-03,1.358587274086698509e-03,2.121357017590291133e-02,4.847477003931999207e-02
-2.759500058763727504e-01,-2.546448459800322861e-01,-2.715128674620524984e-01,4.530825165493175197e-03,5.860944290070317468e-03,3.777180154757068913e-03,2.421781420707702637e-02
-2.931918916985533086e-01,-2.841704332269150424e-01,-2.278956765099569570e-01,1.736501040836937451e-03,1.194472326136048748e-03,5.228502984066068539e-03,6.205847114324569702e-02
-2.678374263306373404e-01,-2.769727363388331254e-01,-2.586441432940572716e-01,4.297017138993181745e-03,2.450041261404034727e-03,2.737545968596253633e-03,1.865040138363838196e-02
-2.693840769261162671e-01,-2.809512988359537111e-01,-2.550539501523574892e-01,4.416604629846604749e-03,7.163274598424484302e-03,4.313111498123050301e-03,2.780608646571636200e-02
-2.777838910171567255e-01,-2.769107528305745358e-01,-2.483864346347131602e-01,6.853315317554759846e-03,5.224561383549489874e-03,4.192980905027930000e-03,3.338921815156936646e-02
-2.672264732357733652e-01,-2.686562445978543656e-01,-2.668139853995270538e-01,-2.271281255037489386e-03,-3.266476544457630384e-03,2.746187316674187501e-03,8.539001457393169403e-03
-3.724518554452798114e-01,-3.525949998795678830e-01,-1.010316426600704198e-01,9.383782271412816067e-03,-8.087266236930514343e-03,9.599414938121446361e-02,3.110927343368530273e-01
-2.721987712607463750e-01,-2.690280173307683098e-01,-2.633592546749379815e-01,-3.308070340683864994e-03,-8.684875421556569920e-04,1.295627484387888674e-03,1.001456752419471741e-02
-2.732456316967927235e-01,-2.641797830968091176e-01,-2.668945644516677596e-01,-1.310988323720420822e-03,-2.320855089265197371e-03,1.053721236609521557e-03,9.465411305427551270e-03
-2.820501336663391312e-01,-2.614241724915771781e-01,-2.626313410092774858e-01,-2.940547199682045157e-03,-2.372482574756691002e-03,3.512613405679950503e-03,2.195063419640064240e-02
-2.657422264358086927e-01,-2.724405096252362490e-01,-2.661602604746578504e-01,-1.076841054862074911e-04,2.159516012314295576e-04,1.334378811854498338e-03,6.910718511790037155e-03
-2.659926541611098427e-01,-2.748783336322022097e-01,-2.643383679279138754e-01,4.888460688503221737e-04,6.250974939758834406e-04,8.448328019407768102e-04,1.002106815576553345e-02
-2.625571321951508108e-01,-2.792000176200858941e-01,-2.629374923987291557e-01,2.388361946981172167e-03,4.324741007850667167e-03,3.174799564716877277e-03,1.934582740068435669e-02
-2.672782609617403993e-01,-2.792274308079829570e-01,-2.584136853377680398e-01,3.659443170517486486e-03,1.636367615845033723e-03,2.087098350807388251e-03,1.971200853586196899e-02
-2.612274588266746966e-01,-2.784679273934077548e-01,-2.641399825595475703e-01,5.599745844401093475e-04,1.801209533682469107e-03,2.707611540589869269e-03,1.697558723390102386e-02
-2.637046313626008054e-01,-2.694654796799597629e-01,-2.712691348572847105e-01,8.308128363466890610e-04,9.453834581459551450e-04,3.137894240633786348e-03,9.006789885461330414e-03
-2.585691010035900406e-01,-2.752761831507933854e-01,-2.699091700834925223e-01,1.857435256757522957e-03,3.084856344299100484e-03,4.507452804701822004e-03,1.783577539026737213e-02
-3.008298616236446676e-01,-2.870476982227424534e-01,-2.191098174536412757e-01,6.984657520055946242e-03,1.000840327767584491e-02,1.627298030996604181e-02,8.356509357690811157e-02
-2.855263729136835460e-01,-2.671172007656637537e-01,-2.517671660679809409e-01,1.392686031633010892e-02,9.048059385340088620e-03,1.854461485458454295e-02,5.211799219250679016e-02
-3.523529035235855589e-01,-3.656888305391592930e-01,-1.158336446877610559e-01,2.141729211825679595e-03,7.267413630498281707e-02,-1.857009021145820254e-02,2.759824395179748535e-01
-3.755936218597719645e-01,-3.357356050961294858e-01,-1.306960177152628189e-01,1.244690541848627631e-02,3.413594582798403637e-02,1.062661846115672409e-01,2.994001209735870361e-01
-3.225456438708044771e-01,-2.873540232151935436e-01,-1.896124969974286034e-01,-3.100502910099555819e-03,1.043023756230924796e-02,4.921207314654495873e-02,1.478250026702880859e-01
-2.917860927529335457e-01,-2.753071807056092224e-01,-2.339490867800725626e-01,-9.670585750053289648e-04,-3.850929689506841385e-04,1.113637576011972628e-02,5.512612685561180115e-02
-3.619340048077939187e-01,-2.749584334086702664e-01,-1.941617809793323157e-01,-1.314056676423416142e-02,-2.132093842775014542e-02,1.434765769676260017e-01,2.911331951618194580e-01
-2.842317371568690021e-01,-2.883558564447478711e-01,-2.327433242128150170e-01,3.861391039628118971e-03,-3.046460341787373977e-03,-5.694504363186587981e-03,5.522920563817024231e-02
-2.953887817977469687e-01,-2.941909786716706554e-01,-2.132003807613889190e-01,5.980856449714309084e-04,-7.526041489048023673e-04,-1.567316397122090008e-03,8.165821433067321777e-02
-3.170479470878713180e-01,-2.861701634259219973e-01,-2.164045567998016950e-01,7.573061748449112437e-03,-2.700681996009378729e-04,5.196519496215044193e-02,1.274688243865966797e-01
-2.706330083690999810e-01,-2.722841708554655793e-01,-2.607581040019895102e-01,4.697626078554926338e-03,3.295244369471946651e-03,2.965816624908222416e-03,1.554710045456886292e-02
-2.776343906786497562e-01,-2.430893697903696027e-01,-2.838001042559464837e-01,5.855988190709491940e-03,5.327043829033997757e-03,3.135594867614398523e-03,4.076610133051872253e-02
-2.649383023181711150e-01,-2.639614622516137099e-01,-2.740222660281325662e-01,4.203797079974827544e-03,3.940442761146329721e-03,4.035799433977889719e-03,1.551793236285448074e-02
-2.792633743006262548e-01,-2.469806495609518093e-01,-2.756650825025705465e-01,1.061527970138510801e-02,6.006138316825047375e-03,2.604242087584913816e-03,3.749105334281921387e-02
-3.059520807766010209e-01,-1.767025110651821440e-01,-3.107547985829893777e-01,3.480294259565429316e-02,1.602899670958832581e-02,3.293532764345210445e-02,1.581391692161560059e-01
-2.624087902378187120e-01,-2.654061638216980157e-01,-2.761429158833085817e-01,3.558504242934319890e-03,1.075201263750025964e-03,2.452877362230589282e-03,1.469527184963226318e-02
-2.691663098215066330e-01,-2.689936483630210873e-01,-2.665591577130339007e-01,1.711459714835722977e-03,7.034387873466552360e-04,5.823074491910763774e-04,4.203082993626594543e-03
-2.528151066931836888e-01,-2.777700394104724579e-01,-2.742676775170964087e-01,2.213067462000774428e-03,2.242269968468368294e-03,5.288174982131718486e-03,2.571545727550983429e-02
-2.488273145382218776e-01,-2.785121082732855968e-01,-2.761510795871939261e-01,3.694829126400207310e-03,4.666998481690550621e-03,7.026316321604051014e-03,3.272736072540283203e-02
-2.649314405271023243e-01,-2.762078633625215107e-01,-2.628954446927401212e-01,2.423550089332606860e-03,1.176194695825794750e-03,1.243656584149937508e-03,1.344146113842725754e-02
-2.666581652450774609e-01,-2.780722606311583633e-01,-2.603124331091489219e-01,7.343458143220075313e-03,1.089156782911787288e-02,6.623219286967079074e-03,2.987038157880306244e-02
-2.408356512140808481e-01,-2.982218706119061924e-01,-2.703878133159580144e-01,5.070113936601524859e-03,5.031495748821185332e-02,1.103251575822663567e-02,1.025069430470466614e-01
-2.794130123691251910e-01,-2.400583656455548553e-01,-2.912378160149534656e-01,-5.237308918271639524e-02,7.075214899193316836e-03,-2.722594043270226347e-02,1.129456833004951477e-01
-2.517674063419613750e-01,-2.784797493435376969e-01,-2.783134132943494987e-01,-1.667056828919329797e-02,1.072665407059074719e-02,-1.099431794806108621e-02,4.744118079543113708e-02
-2.766923945882471814e-01,-2.830065866512315176e-01,-2.456972459134610653e-01,-6.883933789785162682e-03,1.304332461864242398e-02,-6.892490878173177654e-03,4.462451487779617310e-02
-3.493787136289711603e-01,-2.768841186528753773e-01,-2.117571987948120849e-01,-5.016310131830382241e-02,7.876204513110755812e-02,-1.234064710567179535e-01,2.933686971664428711e-01
-2.835924003879230493e-01,-2.827022678643901776e-01,-2.394544049064127600e-01,-3.476136370740810343e-03,3.225638288496887260e-03,-2.997119478828655457e-03,4.476694390177726746e-02
-2.761736342838068681e-01,-2.692517573758004268e-01,-2.603604393944145556e-01,-4.741462384968123459e-03,5.359000414488163458e-03,-6.887019743595252513e-03,2.200924046337604523e-02
-2.885719524981785744e-01,-2.513972879998992438e-01,-2.663798285560892709e-01,-2.162323081938300178e-03,2.394277095281073173e-03,-1.021680199429182180e-02,3.733409941196441650e-02
-2.710151686163482787e-01,-2.750409106568169615e-01,-2.583913561221032329e-01,-4.406042556756949342e-03,2.608399383667222085e-03,-1.536439494117324001e-03,1.766692660748958588e-02
-2.690738885421585236e-01,-2.258243241441219573e-01,-3.122313139930859016e-01,-7.986376935179953507e-02,9.251270190755456202e-02,-9.622839743505723353e-02,2.796244025230407715e-01
-2.629913663669296020e-01,-2.813910508656566334e-01,-2.593214635939661838e-01,2.264953541951564894e-03,2.951023120094638762e-03,1.149588933802360739e-03,2.156436815857887268e-02
-2.638986640336414280e-01,-2.765151241945920657e-01,-2.651088434235011615e-01,2.443489233743254430e-03,2.293237510418818809e-03,2.295840821082642362e-03,1.395968534052371979e-02
-2.609405343484852424e-01,-2.774982679312065770e-01,-2.655436475921010842e-01,1.323095367936546725e-03,9.606668651466563486e-04,2.688868252103332641e-03,1.577467843890190125e-02
-2.626907273194749037e-01,-2.831319290394780364e-01,-2.581109311817576524e-01,1.478632821909020350e-03,2.438426273496155459e-03,1.896494185853752398e-03,2.382479235529899597e-02
-2.613673409165505612e-01,-2.765320458158447292e-01,-2.675093281632600073e-01,4.472281414501918725e-03,7.784548151819351003e-03,3.708276820451625842e-03,2.139173448085784912e-02
-2.627497502824110986e-01,-2.793987911192146179e-01,-2.620083669474282395e-01,2.504979246302103339e-03,2.625804432078103143e-03,1.812659876742533926e-03,1.842417009174823761e-02
-2.583678093622021610e-01,-2.831248788258919902e-01,-2.629413252933255341e-01,1.515938991118463870e-03,2.696643465039677209e-03,2.732505715245088507e-03,2.391050569713115692e-02
-3.095496433982404816e-01,-2.890153221200492673e-01,-1.764095939802367841e-01,-3.244607835644536947e-02,7.131156777278052639e-02,-9.397376729227827075e-02,2.456042766571044922e-01
-3.738469517049700097e-01,-1.315742343114677249e-01,-3.076287247350878995e-01,-3.355483587936483603e-02,2.308083875610800889e-02,-5.441182001590540857e-02,2.467710375785827637e-01
-2.989636712587031009e-01,-3.320339364877289423e-01,-1.517509742598753819e-01,-1.438615117197980520e-02,7.151732156016732400e-02,-3.219777616493354339e-02,2.161220461130142212e-01
-2.848745191678952460e-01,-2.600595956828018473e-01,-2.584277201100046994e-01,-3.482589157731699140e-03,3.684863248225010018e-03,-7.365824310015213136e-03,2.998039871454238892e-02
-3.601415089378875445e-01,-1.331349365256917494e-01,-2.848541733240955720e-01,-1.358431231274422057e-02,1.676241327928019650e-02,-9.625435612869617796e-02,2.632502317428588867e-01
-2.877443885669724311e-01,-2.571082397136882913e-01,-2.577034982184436274e-01,-8.170098773986006566e-04,3.864609635594220671e-04,-9.365931433936042563e-03,3.444276750087738037e-02
-3.353076904879531139e-01,-1.201972732715679837e-01,-3.533494417760728590e-01,2.875799162259929515e-03,-1.748362050444357205e-02,-8.602372838154034862e-02,2.713319957256317139e-01
-2.536002596943446874e-01,-2.852495929370907901e-01,-2.653730044245410369e-01,-3.862111326970010848e-04,2.988624719260762983e-03,-5.351480366566545386e-04,2.820958197116851807e-02
-2.842985115735113255e-01,-2.930865198137435068e-01,-2.271182573244321379e-01,-1.290758165877738985e-03,4.361293510821972856e-03,-1.509247409333909018e-03,6.259556859731674194e-02
-2.652073637262742367e-01,-2.846257806956673519e-01,-2.546300673145993620e-01,-6.880438976285733034e-04,2.541961932929670716e-03,-2.947087124343670053e-04,2.674722298979759216e-02
-2.390181977142647463e-01,-3.013336019300725810e-01,-2.618581474923216135e-01,-2.843341344738237186e-03,2.553703601107113266e-02,-3.676934604003017498e-03,7.073065638542175293e-02
-2.749752142133830568e-01,-2.771891583451690511e-01,-2.515091233928616887e-01,-5.625128787068446080e-03,2.368867197253568709e-03,-3.731335233449342877e-03,2.758697047829627991e-02
-2.704033506874982673e-01,-2.654569381157325658e-01,-2.690486582306854668e-01,-4.244309218478702940e-03,3.669977835711456249e-03,-4.161600414595947525e-03,1.288436166942119598e-02
-2.483282864972546355e-01,-2.835517199251345044e-01,-2.775133560729896032e-01,-1.949579199157691622e-02,2.074979549779330454e-02,-1.198087314845110163e-02,6.266581267118453979e-02
-2.632541928301691536e-01,-2.789520794350114352e-01,-2.613026536203043593e-01,-6.033650778913267863e-03,7.476185288487705721e-03,-4.546368567863441450e-03,2.489518932998180389e-02
-2.764121348343664963e-01,-2.372796673554922464e-01,-2.945254316396943572e-01,1.749858262201903908e-02,-1.590517285745763482e-03,2.306622025184959079e-03,5.924872681498527527e-02
-2.416729024003693160e-01,-2.843414404075757518e-01,-2.773939626513276524e-01,2.108759611882846888e-03,8.238039422345787635e-03,5.049332148484547700e-03,4.319556057453155518e-02
-2.169632717895765561e-01,-2.927546057815747504e-01,-2.902580714814126384e-01,-1.249104776653432031e-02,1.748558305646040825e-02,-3.936868634176901582e-03,8.362509310245513916e-02
-2.163530533478369433e-01,-2.870046670904820574e-01,-2.999401863873754071e-01,-8.185199536320861627e-03,2.590958091783039478e-03,-3.504959348067242329e-03,7.956682145595550537e-02
-2.946729421271766514e-01,-2.768988390599723126e-01,-2.335437177353238691e-01,-4.440292618419020183e-03,-3.467769358421791265e-03,2.182847428285225252e-02,6.701384484767913818e-02
-1.908136871051544503e-01,-3.013748735321131189e-01,-3.161325961914792648e-01,-1.249621008583109288e-02,-8.175131229877253061e-03,-9.648852854719064051e-03,1.225620806217193604e-01
-1.107303075036019935e-01,-3.776966606919186509e-01,-3.502930358763344243e-01,-2.063585226658413985e-02,7.463571060777977884e-02,-6.210126000505154786e-03,2.877686917781829834e-01
-2.108045638380807441e-01,-2.995675334975626547e-01,-2.899364833163483590e-01,-2.494422503109611309e-03,1.668231255718408829e-02,-4.330734101336746540e-04,8.927972614765167236e-02
-2.280128699701552686e-01,-2.906421633787119041e-01,-2.852976182236727776e-01,3.945104883111785906e-04,3.522481186877476217e-03,7.584087491643703169e-04,6.046224758028984070e-02
-1.587939051564813409e-01,-3.554706192822303934e-01,-3.077289487087643827e-01,-1.663911797401064485e-02,1.015316285356256398e-01,2.497754277430479231e-02,2.553420364856719971e-01
-2.867094986811497548e-01,-2.691470909958782465e-01,-2.535036637720645136e-01,1.290936154321810879e-02,1.800568328688783790e-02,2.381920584843740321e-02,6.326550245285034180e-02
-2.783093933762508798e-01,-2.871354393660971449e-01,-2.397922061085367706e-01,3.644794800237749488e-02,1.055172752608957709e-01,9.005430757220361793e-02,2.522256970405578613e-01
-2.672751496869522625e-01,-2.572375336528880396e-01,-2.811791540085528673e-01,8.877680104223541896e-03,5.428118340323622587e-03,3.008037324805788466e-03,2.802884206175804138e-02
-3.331383896198956696e-01,-1.899762251720247819e-01,-2.809684338042614526e-01,9.161722890974477451e-02,2.870116156941628777e-02,7.157995863439590989e-02,2.424290329217910767e-01
-2.622237543648405222e-01,-2.776030981209509640e-01,-2.625522871496179800e-01,4.688531485870170608e-03,3.815276595998890255e-03,2.453421168411253593e-03,1.895397901535034180e-02
-2.885166433118928064e-01,-2.520772470744627736e-01,-2.636009510505222253e-01,-4.680103176123453189e-03,-3.269274507767380190e-03,1.379502358616408082e-02,4.134478420019149780e-02
-2.840861686211069714e-01,-2.891138777109375502e-01,-2.323315092488185685e-01,3.875370183029921457e-03,3.180701546636062992e-03,3.455727887010258230e-03,5.545504763722419739e-02
-2.776633432388478928e-01,-2.263160812564904423e-01,-2.873036832471157487e-01,9.675503459144667306e-02,4.681982977990785388e-02,6.691569767780612688e-02,2.265359014272689819e-01
-2.796280286642657820e-01,-2.409548270457431418e-01,-2.839336475759607348e-01,6.023152612125907621e-03,5.468928302662855352e-03,3.644247212930764798e-03,4.380720481276512146e-02
-2.866859743863808263e-01,-2.386929161737926242e-01,-2.768540949753799940e-01,-6.385552286493551173e-03,-6.097237046521230587e-03,8.574075884542117082e-03,4.881123453378677368e-02
-2.676945514241930169e-01,-2.623645202296896461e-01,-2.746103564776423700e-01,-1.267288793065478401e-03,-3.627488108330353261e-03,1.010755916979539509e-03,1.266720145940780640e-02
-2.775097185569217473e-01,-2.579583270243236415e-01,-2.684219964344023435e-01,-7.921382265596784182e-04,-4.619074849965766096e-03,1.282259938753508742e-03,1.892058551311492920e-02
-2.750086803777659350e-01,-2.412426681211720658e-01,-2.915379539272680010e-01,-2.035011410160296116e-02,-7.636189435040602325e-03,9.839572723956758679e-03,6.065686419606208801e-02
-2.786288463741877219e-01,-2.631807684909476808e-01,-2.627874468526201213e-01,-3.537668867944098426e-03,-3.563600594834067953e-03,3.864593325628017106e-03,1.911340281367301941e-02
-3.255344410926085952e-01,-2.526025408232335234e-01,-2.575928271348311149e-01,-7.606978080617347870e-02,-7.239550952398028649e-02,1.097593765259097659e-01,2.724051177501678467e-01
-3.087944494936049056e-01,-2.506580897856320322e-01,-2.611038786076017026e-01,2.746679331476460997e-02,-3.234209568336310348e-02,-5.613248889052056823e-02,1.331748813390731812e-01
-2.779350712816635594e-01,-2.629931330061076045e-01,-2.638048602480952964e-01,2.799633077904158107e-03,-1.976759382575666701e-03,-5.393085913261275567e-04,1.574486494064331055e-02
-3.009514811404249701e-01,-2.837060547863814453e-01,-2.158611554000460231e-01,-4.265183408961419065e-03,8.111738394641947658e-04,-3.138987610994618815e-02,9.530410170555114746e-02
-2.808985626177644135e-01,-2.372504532718574255e-01,-2.900999580014433366e-01,2.020232947043013733e-02,-1.022176499116984535e-02,-1.920675939440546348e-02,7.096479088068008423e-02
-2.931934517246869154e-01,-2.344620212771844070e-01,-2.772114788361829119e-01,4.793463755456295154e-03,-2.226458529369500228e-03,-1.964135746437618846e-02,6.330333650112152100e-02
-2.773126919226462928e-01,-2.698358019977338262e-01,-2.592374056493580436e-01,4.842925752227057214e-03,-3.808446435184971446e-03,-7.305601653123793005e-03,2.283556386828422546e-02
-2.528319549739346805e-01,-2.784714640671331898e-01,-2.722305826288230479e-01,7.653119353726546212e-03,-6.949513247055660696e-03,-5.489081905739941203e-03,3.077836707234382629e-02
-2.540404024853303855e-01,-2.582360708631248891e-01,-2.856870712539638646e-01,2.223958137616335179e-02,-9.907828070674128476e-03,-8.501695254483276551e-03,5.367927998304367065e-02
-2.207305535132534358e-01,-3.035408302663784585e-01,-2.891153008635939936e-01,9.064187202304614666e-02,-1.067396741376488989e-01,-2.171402352437003941e-02,2.571254074573516846e-01
-1.654871166272810501e-01,-3.545948655581947495e-01,-2.954235015651743845e-01,5.953638633345433202e-03,-8.820931568856824057e-02,-3.483739117599788521e-02,2.348683625459671021e-01
-2.734857493854305210e-01,-2.896163997985851668e-01,-2.419103227109991039e-01,1.318574113366178082e-03,-4.967695968017386138e-03,-1.260815944990106331e-03,4.301809519529342651e-02
-2.616761936103834674e-01,-2.615384513500351726e-01,-2.808421753533853482e-01,-6.724870364770138879e-05,-4.357717547229218529e-04,7.206877279013908753e-04,1.929080672562122345e-02
-2.077640579404538557e-01,-2.558899578983704903e-01,-3.165492363120963049e-01,-9.879033273434997819e-02,-5.015860629381262842e-02,3.135775296543009266e-02,2.206606119871139526e-01
-2.692805693354718977e-01,-2.723267870369199817e-01,-2.632264348955051236e-01,-3.378896945522978645e-03,-9.702468363156490239e-04,7.314463389810243110e-04,1.015156228095293045e-02
-2.457338276427717683e-01,-2.848155227779202714e-01,-2.738008747483027250e-01,-1.816661531400477238e-03,-3.667694565129444098e-03,4.004324122436411781e-03,3.628485649824142456e-02
-2.594510543593619434e-01,-2.711079756571544985e-01,-2.705287077113700533e-01,9.219956073247201345e-03,8.824932848608959754e-03,6.925937157050559255e-03,2.760495990514755249e-02
-2.666282183092043012e-01,-2.672299663036553086e-01,-2.719460283191777461e-01,1.409512383116592188e-03,2.073588800917387006e-03,2.631710372576184526e-03,8.067118935286998749e-03
-2.649029052673612106e-01,-2.544702170193068325e-01,-2.881240449362524325e-01,1.099798209695941609e-02,1.887590889359126896e-03,8.840836038222735661e-04,3.558401018381118774e-02
-2.442817027371613492e-01,-2.721907307583334434e-01,-2.885200687977788614e-01,3.327413421066180432e-02,2.599680696281407924e-02,2.288368633593471785e-02,9.176760166883468628e-02
-2.654179283298870318e-01,-2.694849968829253206e-01,-2.716934924285491215e-01,4.253454678761745857e-03,4.324034592920258935e-03,4.752463985835734400e-03,1.444042194634675980e-02
-2.539927382995247895e-01,-2.652952821032109609e-01,-2.861343663822200623e-01,2.109582865665627326e-03,-2.708255027632260536e-04,-4.023024614052632788e-04,2.848870307207107544e-02
-2.884900542198844953e-01,-2.189918717958860561e-01,-2.979672552597061874e-01,8.967286221010284386e-03,-2.611486079852313666e-03,4.067594513551626469e-03,7.674500346183776855e-02
-2.670272365036618356e-01,-2.581024573363456254e-01,-2.805535933676162053e-01,1.981389214284419702e-03,2.568755852584669788e-03,9.666328039460575505e-04,2.043795771896839142e-02
-2.689478262497427274e-01,-2.654493809025013640e-01,-2.711794028224812636e-01,3.286723001265116559e-03,3.430504435096400333e-03,3.528335877810921239e-03,1.140553783625364304e-02
-2.617538401508167079e-01,-2.601915139611228889e-01,-2.818119065640791177e-01,1.201097444230370299e-03,1.269805011167980321e-03,8.786424364683684003e-04,2.115621231496334076e-02
-2.619335681150992690e-01,-2.588895432110189243e-01,-2.837123180062405825e-01,2.676523946602931987e-03,1.115227206948877191e-03,1.257043073821299340e-03,2.407982759177684784e-02
-2.646557547014896650e-01,-2.612806262415467984e-01,-2.784327497835217269e-01,-1.995493683650880791e-03,2.520065446575093463e-03,-1.220013533099530059e-03,1.682734861969947815e-02
-2.719595262223689636e-01,-2.700086344827846152e-01,-2.608668509098972521e-01,-4.644511170008998671e-03,2.335104186775021403e-03,-3.211367588766895174e-03,1.473852246999740601e-02
-2.713750873452682177e-01,-2.659278239913621666e-01,-2.665520599380657996e-01,-3.938648677857649674e-03,4.473423534942812078e-03,-3.702472105945098235e-03,1.320455502718687057e-02
-2.835710208014901035e-01,-2.566803312502138890e-01,-2.675326473408973227e-01,-6.269677017629255236e-03,4.975901330159228537e-03,-9.391675352456710021e-03,3.171548247337341309e-02
-3.535809852897509042e-01,-3.172101525240864639e-01,-1.492426432770223022e-01,-3.740625928945481155e-02,4.676877498899822266e-02,-6.139655408195152098e-02,2.402359098196029663e-01
-3.049167881543343173e-01,-2.954494449726641214e-01,-2.015157659331229811e-01,-4.891426636725749316e-03,1.618580852074456150e-02,-2.211172494708856309e-02,1.101225391030311584e-01
-3.279881156663252972e-01,-1.611479434242441278e-01,-3.161643713295968494e-01,-2.975110011232531132e-02,2.522833830419603240e-03,-3.818821678402563313e-02,1.818028241395950317e-01
-3.016716120834136983e-01,-2.774905482916465438e-01,-2.257056690295700385e-01,-5.534963347736447659e-03,8.218283220802979905e-03,-3.302939909138486591e-02,8.992198109626770020e-02
-2.236336589336583858e-01,-3.151458861057703231e-01,-2.387820151327321172e-01,4.930723041689152875e-02,1.112264916741871335e-01,4.622902180538237399e-02,2.409080266952514648e-01
-1.988313518328266305e-01,-3.322486037583154417e-01,-2.494852330827408426e-01,-7.219661774294379095e-03,9.773893702032571129e-02,-1.738419229678381511e-03,2.059903293848037720e-01
-2.675375800912357938e-01,-2.817428286335764698e-01,-2.566657325009621404e-01,-6.361575643961391545e-03,9.720429049002644872e-03,-5.965781077431425716e-03,3.140166029334068298e-02
-2.742972991733248489e-01,-2.599165212321746798e-01,-2.758849912290493034e-01,-3.506172603812870298e-02,1.441230694169470111e-02,-3.533725865309135517e-02,9.104637801647186279e-02
-2.438081175862440719e-01,-2.867051799588509198e-01,-2.741874528015904033e-01,-5.239280423100656095e-04,4.003856201817855912e-03,-2.363011054272993582e-03,3.905823081731796265e-02
-2.448771653960820083e-01,-2.860493592228909310e-01,-2.736676952041592337e-01,4.168306938227993655e-03,2.852645201196087141e-03,3.785915505668827931e-03,3.818653523921966553e-02
-2.486219990358018717e-01,-2.866890823869337468e-01,-2.689506292847882452e-01,2.778485690134523123e-03,4.329775189315550332e-03,3.638836450384358608e-03,3.475094959139823914e-02
-2.482492893574610171e-01,-2.886457512199244735e-01,-2.662338935976335530e-01,4.932539139004878462e-03,2.285909610543606502e-02,7.457172000571408998e-03,5.510207638144493103e-02
-2.573822342443164990e-01,-2.729179263801321809e-01,-2.760042142604510751e-01,1.188767030053563406e-02,8.308568653583455269e-03,7.514900520529870648e-03,3.315567597746849060e-02
-2.846078326489565602e-01,-2.750005796070222885e-01,-2.489582236086915479e-01,5.404642517678785556e-03,8.417388649992826530e-03,1.128588835697220613e-02,4.126742854714393616e-02
-2.366002370337905170e-01,-2.915008373103519790e-01,-2.778697981342492795e-01,3.744684581791731838e-03,7.780093310624345768e-03,2.687597619998875059e-03,5.193126201629638672e-02
-2.473146992054258420e-01,-3.331413394034558606e-01,-2.338049156987782595e-01,1.068298953305725080e-01,1.028084687020854732e-01,6.155947536794702246e-02,2.932977378368377686e-01
-2.506975459075905799e-01,-2.546747381820281264e-01,-3.066315065682524432e-01,8.995386055923919322e-02,6.613173543221946560e-02,1.074888563396417113e-01,2.738226354122161865e-01
-2.366947836103138192e-01,-2.881236331755979707e-01,-2.767599217917856014e-01,9.467944217158396139e-03,1.678467715475385688e-02,7.021527357928664635e-03,5.875070765614509583e-02
-2.674358130894808894e-01,-3.381779272716824991e-01,-1.747012371133047082e-01,9.570858794158925917e-03,9.406928916097825888e-02,1.749960831304549561e-02,2.188721001148223877e-01
-2.724086632278860387e-01,-2.645917507228968124e-01,-2.660361316711399859e-01,9.998785111666984304e-04,1.266153410599534738e-03,1.533657801612315491e-03,8.170971646904945374e-03
-2.713181768517251569e-01,-2.665826196293110684e-01,-2.661563746076440751e-01,5.707012880165460069e-04,4.241714952773366549e-04,-5.524788647037198871e-04,5.201755091547966003e-03
-2.743573345345098891e-01,-2.656009494186168385e-01,-2.654004001093938081e-01,1.177523589175886228e-03,1.478752243500165405e-03,6.203683800056138056e-09,9.444066323339939117e-03
-2.734321989718099810e-01,-2.687937207666808992e-01,-2.632344073822535102e-01,3.099896658308242542e-03,1.715719190668165599e-03,1.088307212114335157e-03,1.092797331511974335e-02
-2.712830771191844792e-01,-2.713822776466505715e-01,-2.614518059832408037e-01,5.168434898315238564e-03,6.553342780703029329e-03,4.371866285328770453e-03,1.907762326300144196e-02
-2.646468137639744755e-01,-2.702245215995470740e-01,-2.700049573262239266e-01,6.575513587101815792e-03,5.292955237718334829e-03,4.008590816166828809e-03,1.708505302667617798e-02
-2.972616981094480804e-01,-2.874295986204194464e-01,-2.162892521210474372e-01,-2.000676829696787680e-03,-2.603002975516752974e-03,1.189843640245496700e-02,7.946150749921798706e-02
-2.706203014574544152e-01,-2.661961416785880163e-01,-2.679068714117553429e-01,6.356076532566225712e-04,1.336598366810694922e-03,-1.105943582889896146e-04,4.641057457774877548e-03
-2.636011552730465057e-01,-2.597099177552431026e-01,-2.812028379293809999e-01,2.088811892485366306e-03,-2.208113608186612446e-03,-9.916148164090612688e-04,2.059417217969894409e-02
-2.666963253172539017e-01,-2.598249660907452352e-01,-2.787110049605068807e-01,1.318717080200569993e-03,3.338322738525135482e-03,1.018097804083084980e-03,1.777315698564052582e-02
-2.843671519308810791e-01,-2.309530917601464173e-01,-2.897594570644615453e-01,4.392716143270970243e-03,5.603203273518259867e-04,1.507192057167453360e-03,5.688416585326194763e-02
-2.357441670331335559e-01,-2.072852298049707165e-01,-3.438375739520450614e-01,1.205473944238227013e-01,1.600008750985438752e-02,7.799622021151166734e-04,2.448166161775588989e-01
-2.794443631460671873e-01,-2.363862469718831516e-01,-2.893208382930338440e-01,1.148396761073052115e-02,-1.086911899012229111e-03,-2.623691097102835799e-03,5.288334935903549194e-02
-2.945402929102514666e-01,-2.323616726589649017e-01,-2.784898467966298585e-01,3.039430179353773236e-03,-2.358021234349767965e-03,1.126314516289012892e-02,5.958836898207664490e-02
-2.656521341583948925e-01,-2.551400632635319465e-01,-2.843629818832130174e-01,1.918988096410001454e-03,-1.439079004041087569e-03,-4.908595180825749528e-04,2.598600462079048157e-02
-2.792195750730206982e-01,-2.185464844153267583e-01,-3.113875791655582037e-01,2.669296808663575507e-02,5.981592961877941865e-03,1.243732538959552159e-02,9.683325886726379395e-02
-3.055514609605226584e-01,-3.002679992534783571e-01,-2.215530474856489684e-01,6.982558744592812228e-02,-5.554305311672716461e-02,-9.159764330648466346e-02,2.359918653964996338e-01
-2.944401411874825181e-01,-2.896658684679073725e-01,-2.203244258497946695e-01,-2.858068971552257115e-03,-2.624777274114407834e-03,6.505115914648793018e-03,7.303566485643386841e-02
-2.681984316923608502e-01,-2.867977085781848734e-01,-2.497937910406177187e-01,2.144684594357626484e-03,-3.274350116533305665e-03,-1.398969288848561730e-03,3.284526243805885315e-02
-2.970131014911764900e-01,-2.795832167040568916e-01,-2.233079086236511024e-01,1.266906938704266336e-02,-2.364082704133631599e-02,-3.614587506375150500e-02,1.026125624775886536e-01
-2.784793651888770594e-01,-2.891128640702413377e-01,-2.385145396460964795e-01,8.062456033861905430e-04,-2.009691217510387734e-02,-5.881213687313002238e-03,5.875881388783454895e-02
-1.711704936345944672e-01,-3.420572321897616397e-01,-2.974534255446107389e-01,1.013062675240362642e-01,6.672625535631794558e-02,2.802897608815996949e-02,2.647121250629425049e-01
-2.764811437639724812e-01,-2.873197320242017461e-01,-2.367918744416812327e-01,4.671019518070442661e-03,1.006124107115522089e-02,2.807721292747791288e-03,5.015655234456062317e-02
-2.756616069827412807e-01,-2.914262696490224069e-01,-2.349333872996196004e-01,2.529256884939113867e-03,1.064388816691434758e-02,1.584946887949139184e-03,5.399984866380691528e-02
-2.406140435812136880e-01,-2.950364872463508981e-01,-2.629714477747903123e-01,-7.475773899910840518e-04,2.621534039127221966e-02,-6.706104652428372887e-04,6.564807146787643433e-02
-2.193276605902085841e-01,-2.883738209178759448e-01,-2.967550116419095940e-01,1.720371817416635474e-02,5.013574385030800454e-03,-5.074480145831299213e-04,7.987733930349349976e-02
-2.646824076141549575e-01,-2.860455769404828819e-01,-2.542215080901781832e-01,1.082528047974835178e-03,1.949215957281402820e-03,-3.191183216570939347e-04,2.836393564939498901e-02
-2.763927744771703110e-01,-2.613714594747102438e-01,-2.692183498298800770e-01,4.484190060601194946e-03,4.858979110518421921e-03,6.106754621249015601e-03,2.030697464942932129e-02
-2.184735088297797279e-01,-3.183408764118561551e-01,-2.752055743102215790e-01,1.560371390815569123e-02,4.289189503603842157e-02,-3.013557670524823640e-03,1.174868196249008179e-01
-3.044205431087340097e-01,-2.935090883784708393e-01,-2.053889407501145459e-01,1.661865436716890732e-03,2.197226913679093188e-02,5.137954985845601813e-02,1.349886655807495117e-01
-2.392830804282815305e-01,-2.826980946515411652e-01,-2.833912845123300883e-01,2.582252076416447547e-03,-3.408739642634559756e-03,-2.978863683556817049e-03,4.468693584203720093e-02
-2.179777261685170997e-01,-3.100488158887413914e-01,-2.821070502184350737e-01,8.172375648371700552e-02,-7.621673713991607146e-02,-8.277191498724573160e-02,2.543659806251525879e-01
-1.363888830113522965e-01,-3.197029874142143235e-01,-3.371644267472282408e-01,7.112162833930123218e-02,2.686798402260797813e-03,-4.508991787983944975e-03,2.288392484188079834e-01
-2.365933058465922167e-01,-2.914753551352516903e-01,-2.747590312440752469e-01,1.826893850270299054e-03,-1.081099674779237470e-02,-1.117256221285978972e-03,5.233009532094001770e-02
-2.446471547009944347e-01,-2.744957912398974798e-01,-2.852079996260541428e-01,3.714786628304320333e-03,-2.609813674309246351e-03,-4.587393038508432927e-03,3.808414563536643982e-02
-8.853756735154852398e-02,-3.853381292035242822e-01,-3.738256246448945497e-01,-3.097113489012103676e-02,-4.631248019191226695e-02,1.383940229685103745e-02,3.077222108840942383e-01
-2.303799744882497058e-01,-2.961223094093570207e-01,-2.817653188742189618e-01,-3.692477696254175407e-02,2.824028122096837456e-02,-1.565981084280587340e-02,1.039368212223052979e-01
-2.401767366322160036e-01,-2.474051277387134540e-01,-3.075900851034356065e-01,4.750975235234291411e-02,-6.057804045304691389e-03,-5.718339330637781277e-03,1.053054481744766235e-01
-2.912393473042113046e-01,-2.329725296167093340e-01,-2.789945958716742447e-01,-1.073645391888539006e-03,1.980504748470695263e-03,-9.218399696824457895e-03,5.569250509142875671e-02
-2.592001613902102375e-01,-2.638574712678423695e-01,-2.833462500320066968e-01,1.145104820065935905e-02,7.972458120686530189e-03,8.407400380510734669e-03,3.589402884244918823e-02
-2.714603483961133823e-01,-2.557632340165417184e-01,-2.767552592519075816e-01,6.078477405171816769e-03,4.498126652774108065e-03,4.189260012530953911e-03,2.411935105919837952e-02
-3.061331044853383698e-01,-2.070555185287248634e-01,-3.077388553789870418e-01,3.482373603554782954e-02,5.983993177962589061e-03,2.697814465277436138e-02,1.261229664087295532e-01
-2.701228043197760886e-01,-2.267759406714163761e-01,-3.202279158023357830e-01,5.338577332138360471e-02,3.780543148103100888e-03,1.383428852371448511e-02,1.254134625196456909e-01
-2.749508872829308781e-01,-2.521422485522328838e-01,-2.767823687753587225e-01,2.662017869072599071e-03,5.485913861501640239e-03,3.675889869859076155e-03,2.678512968122959137e-02
-3.521183799541073300e-01,-1.406626200521736980e-01,-3.181889723666032066e-01,2.368371837951963044e-02,-2.755489692862475928e-02,8.270445037197091120e-02,2.513380646705627441e-01
-2.927873626087269532e-01,-2.701292264414566491e-01,-2.584947632385496408e-01,3.844243031883991246e-02,3.705538701984488481e-02,4.901904176283861797e-02,1.291268169879913330e-01
-2.790304233048473970e-01,-2.459944592413289832e-01,-2.774680720023479652e-01,1.369412240333309043e-02,6.326117184720425612e-03,1.256992236127551545e-02,4.689197242259979248e-02
-3.195407193970734583e-01,-1.498510208568374635e-01,-3.293377388713698006e-01,3.312148878727729645e-02,1.303543804581860227e-03,5.163689777322780922e-02,2.045686542987823486e-01
-2.585424437540591036e-01,-2.636849086589134195e-01,-2.838845627476249689e-01,3.897977639649023371e-03,1.633498756506608380e-03,2.371898951816625838e-03,2.467412315309047699e-02
-2.387928295828946890e-01,-2.748159208883322879e-01,-2.885265280136086186e-01,-4.097884892242567578e-03,-1.689959331520989039e-03,7.592072181112054447e-04,4.516876488924026489e-02
-2.676141465913550177e-01,-2.502545767907459751e-01,-2.864744465863687251e-01,-1.211904477599793327e-02,4.265314288131376807e-04,9.331523964650428968e-04,3.779211640357971191e-02
-1.815898019491683502e-01,-2.881959389694438434e-01,-3.629667115765586871e-01,-1.317038041015461680e-01,-3.188941680031487369e-02,1.934895025028037299e-02,2.848476469516754150e-01
-2.663989557344457193e-01,-2.495378681812614186e-01,-2.862827948584538706e-01,-6.034879073807179056e-03,2.492659641351612377e-03,-1.316263160685198679e-03,3.388249501585960388e-02
-2.651307902483232559e-01,-2.843461097231165802e-01,-2.561407403694870855e-01,2.079208875084102761e-03,-1.420776734561449758e-03,-6.107763376865620302e-04,2.535627037286758423e-02
-2.513881747830266078e-01,-2.830975027818311562e-01,-2.679175959941287322e-01,-1.382335405706184087e-03,-5.090718426931861544e-03,3.888123013090696335e-03,2.972200699150562286e-02
-2.692763526600813750e-01,-2.829449781337550207e-01,-2.532778652294996879e-01,-4.043615006418694105e-03,-1.039697042047549660e-02,2.836145265333413646e-03,3.254127874970436096e-02
-3.015614670763044902e-01,-1.953156341680822861e-01,-3.040494786698649254e-01,-1.335614363719363380e-02,-1.577947002266653995e-03,-6.629429038118303703e-03,1.106037348508834839e-01
-1.931345416274050653e-01,-3.359348001273957940e-01,-2.455237957064217713e-01,-4.943535134210211984e-02,-1.187367716593005773e-01,3.989419405363826138e-02,2.646824717521667480e-01
-2.943302059481436306e-01,-2.354063364046390938e-01,-2.770995620943252358e-01,2.996645659439685621e-03,2.652640905462398039e-04,-2.059045196461496349e-02,6.366059929132461548e-02
-2.846336724589872968e-01,-2.950346205368851726e-01,-2.386904279244759786e-01,-2.317346890596428191e-02,-5.229392779318978862e-02,3.817044582206472608e-02,1.299336701631546021e-01
-2.764188769593833861e-01,-2.413798197061439721e-01,-2.886729770771690462e-01,1.996286197175859908e-02,-3.919469553738725090e-03,-4.444235835462611792e-03,5.575086176395416260e-02
-2.644069307264006463e-01,-2.547937381730471795e-01,-2.859286419256621969e-01,1.381729344682798089e-03,5.125401147710043548e-04,3.173366064518566543e-04,2.773639559745788574e-02
-2.736282642002795251e-01,-2.471148894145464014e-01,-2.839137851115005606e-01,3.934488298908465562e-03,4.518741310726413947e-03,2.766834908881565195e-03,3.481549397110939026e-02
-2.472899354719375054e-01,-2.664370615969889888e-01,-2.901972056512160947e-01,5.989001465302063246e-03,-1.427363400035543876e-04,-1.750161769995530088e-03,3.876790031790733337e-02
-2.283463109967112659e-01,-2.800272562159784595e-01,-2.911618074082731322e-01,1.755982232472120749e-02,-9.864231205852726572e-03,-4.594989090593054604e-03,6.819556653499603271e-02
-2.496953672919443035e-01,-2.682735781047682622e-01,-2.863299026682975534e-01,6.270119575814303570e-03,2.222944382308098508e-03,4.891017943225203779e-03,3.480185195803642273e-02
-2.648598145125352077e-01,-2.375163122221536915e-01,-2.901843838066690551e-01,3.560568299543270809e-02,1.914762248893595378e-02,2.320427217784916396e-02,9.273600578308105469e-02
-2.934358132762396876e-01,-2.178463521438430694e-01,-2.900825764655042827e-01,-1.113038000608107189e-02,3.210847151355495158e-03,-1.683465375442698767e-02,8.200208842754364014e-02
-2.520939821237643264e-01,-2.663269432100875966e-01,-2.890130162160673422e-01,1.135834127612973810e-02,7.275393033337257875e-04,7.046217726449556127e-04,3.781849145889282227e-02
-2.827531629117695511e-01,-2.527667130898280101e-01,-2.676920240183310318e-01,1.805086551681739371e-03,-4.172471737368404696e-03,-4.152055528169534132e-03,2.807342633605003357e-02
-3.136186577341759651e-01,-1.946874295186470372e-01,-3.031391031757480481e-01,1.748848704840878440e-02,-2.621969437127999198e-03,-2.350143515427565929e-02,1.249128878116607666e-01
-2.856964339923238061e-01,-2.622489980829958989e-01,-2.583488355795305336e-01,2.265342485162533809e-02,2.384132536540499100e-02,5.318385973447109505e-02,1.112958714365959167e-01
-2.860252490950028759e-01,-2.293125377666079268e-01,-2.881033450535332441e-01,4.283619982220127943e-03,-4.622934669418048322e-03,-4.902385337627451593e-03,5.941184610128402710e-02
-2.869122128155745521e-01,-2.379114175893125849e-01,-2.763732439664525753e-01,-6.564266913816214563e-03,6.659131459923813869e-03,-9.557453695145637709e-03,5.031963437795639038e-02
-2.772380322650387363e-01,-2.514356403790589667e-01,-2.757581003601365932e-01,4.295240186791329448e-03,-4.949788098214247603e-03,-3.122415925860541359e-03,2.806892804801464081e-02
-2.771050524570874418e-01,-2.741127306902924610e-01,-2.540381685146147484e-01,5.958390993958694037e-03,1.045326609832473823e-02,1.286569970300272155e-02,3.745543956756591797e-02
-2.744913142168846076e-01,-2.841337047919551551e-01,-2.453754684332571101e-01,-5.038792175726097139e-03,4.074561574481059927e-03,-3.265229132291045007e-03,3.714046627283096313e-02
-2.470057420248806535e-01,-2.900767497621796198e-01,-2.673239191432302819e-01,-9.114936802727688706e-04,9.211595338575434555e-03,-3.223258831922132424e-03,4.100044816732406616e-02
-2.765793591439497656e-01,-2.841837714756633160e-01,-2.429928336897684837e-01,4.948655382549417212e-03,5.837663754208853237e-03,2.548533516760924378e-03,4.045337066054344177e-02
-2.758952380881083410e-01,-2.916391236873146497e-01,-2.340758476660464438e-01,2.522759978257507838e-03,1.038597383768696293e-02,2.365756336435859749e-03,5.490555241703987122e-02
-2.705193083595862080e-01,-2.663651576955890499e-01,-2.679099697578969375e-01,-4.173699657176466464e-04,-1.152856745073743867e-03,-1.890497025969351658e-04,4.224106669425964355e-03
-3.724183494498279345e-01,-1.164989641012841581e-01,-3.315460585712337038e-01,6.203728268269792512e-02,-1.584544538759219412e-02,4.362947854674515541e-02,2.733403742313385010e-01
-2.085229398453926630e-01,-2.985100286658377566e-01,-2.969598862316920052e-01,5.069479161109610027e-03,3.232876932378510749e-03,1.768123610314584595e-03,8.988001942634582520e-02
-2.624387371381062262e-01,-2.589175241500534796e-01,-2.832046592438267618e-01,2.332830809902470322e-03,2.050615081019538724e-03,9.148667279596618077e-04,2.341358549892902374e-02
-2.501001743847332537e-01,-2.667565551986257333e-01,-2.863305364559701194e-01,5.822453078827885195e-03,3.635428117038310911e-03,3.568722759913875182e-03,3.414918109774589539e-02
-2.623006558534048960e-01,-2.474584723284170007e-01,-2.926398061979606502e-01,3.390056206186335686e-02,2.871244869239054226e-04,4.448727400118978616e-04,7.099041342735290527e-02
-2.635131079076181715e-01,-2.610563735613821157e-01,-2.803947449089996824e-01,9.916353247755717130e-04,-6.258316894736161992e-04,-5.561156886566975691e-04,1.837258040904998779e-02
-2.313003572338242775e-01,-2.948392220164136601e-01,-2.782754504206905732e-01,4.196975593400116729e-03,-1.547378828652716531e-02,-2.729007651800420368e-03,6.366006284952163696e-02
-1.888643460789605211e-01,-3.057958011921727004e-01,-3.113788918323877053e-01,1.322512281042511478e-02,6.536598055056506464e-03,-8.686317621904453973e-03,1.234351024031639099e-01
-2.551299026784292767e-01,-2.661944747629397257e-01,-2.854255963664517060e-01,1.218232054388246333e-02,2.137016073573259293e-03,-8.525090370060309361e-04,3.414897620677947998e-02
-2.706272441562819764e-01,-2.680939685690064134e-01,-2.658162767526102144e-01,1.646705822447358742e-03,-6.054397939249771265e-04,-4.682925984973311572e-04,5.221864674240350723e-03
-2.266853103512413703e-01,-2.996719639971528459e-01,-2.913301760786722316e-01,3.795243360429787632e-02,-4.200348914924199178e-02,-1.485772159551515884e-02,1.227358728647232056e-01
-2.900164002256397922e-01,-2.425356632529177825e-01,-2.727166349629960851e-01,-4.675276624989694457e-04,-6.820558596610221515e-04,3.216467885253325269e-03,4.201648384332656860e-02
-2.661481193656535793e-01,-2.908088768212652164e-01,-2.471417602799797220e-01,1.098113101187702864e-04,6.102394603446113092e-03,3.921861520301390632e-04,3.937411680817604065e-02
-2.936622856374371815e-01,-2.554506384817902820e-01,-2.583400427511134412e-01,-2.462546544009466733e-03,2.838346297335763921e-03,2.363899184257822403e-02,5.546924099326133728e-02
-2.888525618644439685e-01,-2.241341555312806877e-01,-2.899057731701663032e-01,7.757901918343973122e-03,6.185905235588355471e-03,6.440955579791764023e-03,6.839263439178466797e-02
-2.917475309431768471e-01,-2.178166720673190559e-01,-2.910011929841979095e-01,1.909465444071655263e-02,5.706564729284401005e-03,1.547003667397699525e-02,8.556067943572998047e-02
-2.881263621920016615e-01,-2.572186290483855498e-01,-2.594296676917281497e-01,2.159276370605373117e-03,4.011855618859693461e-03,1.386702649618099491e-02,3.912791982293128967e-02
-2.627854012786844384e-01,-2.697382528629612697e-01,-2.714751339167493782e-01,-9.907627958723854225e-04,1.001834606390400624e-03,-3.027654949366079956e-03,9.843328036367893219e-03
-2.670876160110936537e-01,-2.644340288779727377e-01,-2.731968173251535514e-01,-8.475419958692928957e-04,2.503176585860189540e-03,-1.018162639294282849e-03,9.199880063533782959e-03
-2.709529529108804513e-01,-2.665640851739400907e-01,-2.664754493529110646e-01,-5.331348560754168220e-04,1.426826629794896535e-03,-3.443335418054929383e-04,5.193739198148250580e-03
-2.732461686558339542e-01,-2.653513166653583832e-01,-2.660786845355985197e-01,-1.071551605110690085e-03,1.436419854546679056e-03,-3.480849381181807633e-04,8.192273788154125214e-03
-2.758923278743889984e-01,-2.651567971593347672e-01,-2.627508128428659995e-01,-2.788588655395835524e-03,1.097682786711284223e-03,-2.724224386049872975e-03,1.400276739150285721e-02
-2.721222109239797016e-01,-2.690568744853911176e-01,-2.637466800850405413e-01,-3.333741250675592571e-03,1.631878949356279154e-03,-1.298521112534898898e-03,1.001304294914007187e-02
-2.789361865648720684e-01,-2.394601976453852588e-01,-2.884508491627782445e-01,-1.758512417279176759e-02,1.850666168185426466e-03,-8.579414187980142353e-03,5.642062425613403320e-02
-2.777219192652772839e-01,-2.470858081917313986e-01,-2.795523361078477986e-01,-5.514767705500249646e-03,5.716780694342572453e-03,-6.652347094153816982e-03,3.633238747715950012e-02
-2.634074309359850097e-01,-2.780514828204529998e-01,-2.625462025444372238e-01,-4.543316713190674420e-03,5.702824614413805858e-03,-4.180651534254148372e-03,2.096967399120330811e-02
-2.751574641487218309e-01,-2.424740737020407988e-01,-2.889889586204547056e-01,5.750035243905536088e-03,3.694057265748851141e-04,-7.486097836555112659e-04,4.257762059569358826e-02
-2.700608391977077360e-01,-2.782159982081421346e-01,-2.552226722871019371e-01,5.628787036517779799e-03,-3.230841178313292438e-03,-2.741967037551861896e-03,2.359248511493206024e-02
-2.759202776359758746e-01,-2.673299541283904457e-01,-2.614717661319935216e-01,1.422890121669214032e-02,-1.379418586820831301e-02,-2.108563378624397217e-02,5.167660117149353027e-02
-2.439908682583885879e-01,-2.865743716078638648e-01,-2.752935721814467329e-01,1.157668098485549642e-02,-1.699151879228140774e-02,-4.653444345209444000e-03,5.285255610942840576e-02
-2.918759591627683170e-01,-2.072232359543185742e-01,-3.013001710327083971e-01,2.428999061318236688e-02,-5.516440176178548805e-04,-4.864313912518553008e-04,9.911769628524780273e-02
-2.968415997445663645e-01,-2.175226353898697118e-01,-2.949724679170651620e-01,9.125748388327221960e-02,-3.685951835256874587e-02,-1.058712993441957712e-01,2.623596489429473877e-01
-2.905810489504320748e-01,-2.344334991539470392e-01,-2.774012096446714093e-01,1.239622732834858021e-02,-5.072692396515261770e-03,-1.622472693758836293e-02,6.256325542926788330e-02
-2.669904478464134590e-01,-2.707802057676361174e-01,-2.663147894710967689e-01,-5.826762017012266466e-04,4.362748193112106227e-04,-1.484213557017228634e-03,5.057427566498517990e-03
-2.665149988228209255e-01,-2.707688997165574318e-01,-2.676212114277590759e-01,-5.830187621375820285e-04,4.366889913151759061e-04,-3.622282070101444070e-04,4.074200987815856934e-03
-2.678773140950552190e-01,-2.701482818570209998e-01,-2.667962174248807994e-01,-1.120009607029090991e-03,-2.208768317061255511e-04,-3.685655291369620084e-04,3.619163762778043747e-03
-2.656936953657966782e-01,-2.676986037324780021e-01,-2.707712624691459014e-01,-2.356929530043866882e-04,6.087973723183856545e-04,-1.520837710628099478e-03,5.276238080114126205e-03
-2.761997055134587931e-01,-2.624531006930420629e-01,-2.686202206682853921e-01,-3.493583579193462480e-03,5.066850221091282781e-03,-6.825846084061637856e-03,1.989061012864112854e-02
-2.668331217490820806e-01,-2.662943595638665450e-01,-2.708682570814570645e-01,-4.654284134679443881e-04,5.951710202075167827e-04,-1.507165342572238786e-03,5.222428590059280396e-03
-2.687502998243291308e-01,-2.609439391190678248e-01,-2.769093076704908785e-01,-7.721951417053571701e-03,5.170657803381761668e-03,-5.765877609431255442e-03,2.345270849764347076e-02
-2.649540291223881350e-01,-2.737911191742684602e-01,-2.656205428548623626e-01,-3.009675950578178088e-03,2.341865633843742082e-03,-2.750734700693280212e-03,1.178878452628850937e-02
-2.850908715803284754e-01,-2.534893223697089470e-01,-2.686355585417413705e-01,-4.435695855169369262e-03,-5.419476312159909361e-03,1.093220198023630435e-02,3.542738035321235657e-02
-2.879721972757801618e-01,-3.117202983104385705e-01,-1.858623469332595923e-01,-4.613842510861775742e-02,-9.310495705535352939e-02,7.021357377182597947e-02,2.461645901203155518e-01
-2.440767397454418064e-01,-2.903937499797899502e-01,-2.731697976296494912e-01,-5.123458366928151930e-02,-6.271302883580287535e-02,3.204497892935424808e-02,1.562002897262573242e-01
-2.783133502528691849e-01,-3.728898630925835955e-01,-1.596545594444422345e-01,5.786046899749756889e-02,-1.116514157048896783e-01,-4.206635278784968263e-02,2.949530780315399170e-01
-2.784798222566720605e-01,-2.774680688751402502e-01,-2.517516438699575199e-01,-7.825429397818720739e-03,-9.617800141573365144e-03,1.104962667148537414e-02,3.893427550792694092e-02
-3.518374739117692274e-01,-2.150209540963608779e-01,-2.689234452196943570e-01,-6.330725843012294241e-02,-4.337009426370261322e-02,1.185765279729541211e-01,2.722076177597045898e-01
-2.761509465223352389e-01,-2.832560429626571619e-01,-2.452019214393532931e-01,-8.530853685768642961e-03,-3.427969836884520345e-03,8.010410120823652225e-03,4.091820865869522095e-02
-2.615037301328345110e-01,-2.601373350452056976e-01,-2.831412588947251341e-01,-6.857579834238201888e-04,1.079019664037447496e-03,-4.458138902697073827e-04,2.247476391494274139e-02
-2.595255779111565464e-01,-2.677151134480255101e-01,-2.772823770721243308e-01,-1.167634019118941316e-03,1.186731910822302026e-03,-3.400264554797769855e-03,1.673179492354393005e-02
-2.610798812002976255e-01,-2.633371109561535861e-01,-2.804368395004631642e-01,-1.100412465741784597e-03,5.828322249149196213e-04,-6.316372064024807160e-04,1.849168725311756134e-02
-2.636582135832170604e-01,-2.626079806408295747e-01,-2.783207874618386368e-01,-6.111096439970666993e-04,1.513218525456415560e-03,-7.463597097401883200e-04,1.552913989871740341e-02
-2.607750643608927055e-01,-2.759977244088673842e-01,-2.682741237377521681e-01,-5.977023047818289837e-03,-5.347497989327545768e-03,4.537815307275592722e-03,2.070136554539203644e-02
-2.599293103662195792e-01,-2.633677066078568552e-01,-2.811580279769875790e-01,-1.968473109523111164e-03,1.101773173188063618e-03,-2.421675148931270831e-03,2.055111154913902283e-02
-2.678071834738471879e-01,-2.518077425799341573e-01,-2.832079800221073973e-01,-4.699521572920208577e-03,3.878718566057042134e-03,-1.680048491063981537e-03,2.931600809097290039e-02
-2.897242068381281621e-01,-2.741600993911996742e-01,-2.409710311286007989e-01,6.507003553595901027e-04,1.594612684040333300e-04,3.706764145519769391e-03,4.362202063202857971e-02
-2.867745006570692201e-01,-2.184544721983727456e-01,-3.033297642343100176e-01,5.353442322762179406e-02,6.242986934867054971e-02,1.131575590422087274e-01,2.545131146907806396e-01
-3.074601086227791713e-01,-2.407403239231231118e-01,-2.288262903772866341e-01,5.723850685710192565e-02,6.205949047630737736e-02,9.582682079568174971e-02,2.330656498670578003e-01
-2.912652244862098949e-01,-2.882039871759468630e-01,-2.221590946028893232e-01,-8.395157170402341423e-04,1.539181806548614714e-03,-3.158203683887531293e-03,6.791628897190093994e-02
-2.912056297824086037e-01,-2.748496698711571096e-01,-2.356864187977181779e-01,-3.685115749215120591e-03,2.024565622963411630e-03,-1.051794086965493480e-02,5.316717177629470825e-02
-2.562795331581704250e-01,-2.458370965071753622e-01,-3.104863027623436800e-01,5.602509345770396304e-02,2.425859317412848437e-03,1.734412589813374983e-02,1.181101724505424500e-01
-2.966391555179436201e-01,-3.012408740201492074e-01,-1.834201276613135756e-01,3.351550905805268654e-02,-7.297157025601878899e-02,-6.225227665227500706e-02,2.105497121810913086e-01
-3.203392777016552673e-01,-3.540245486687813026e-01,-1.324560722901682863e-01,3.702451491574924175e-02,-2.362499705386312751e-02,-6.918860192454256985e-02,2.508221268653869629e-01
-2.968773841309726436e-01,-2.891743788212713384e-01,-2.185174480971693867e-01,1.436893196446933224e-03,5.651857619946020449e-03,1.765473404035809712e-02,8.144386112689971924e-02
-3.334603059465451880e-01,-3.367952205133916133e-01,-1.188132889905530176e-01,1.535958046641512946e-03,-3.443157458762666906e-02,2.902750724658573894e-02,2.299820780754089355e-01
-3.209738792043496103e-01,-1.268396699398193217e-01,-3.376327184796451553e-01,-5.876928709188149191e-02,-6.498289308115350049e-03,1.460328155252310980e-02,2.287522554397583008e-01
-2.524590330273090988e-01,-2.890372613705883831e-01,-2.660502234809999922e-01,3.450878388257943696e-03,1.210586633931714368e-02,2.949427173395759248e-03,3.907716274261474609e-02
-2.878909180269311752e-01,-2.878042538589705157e-01,-2.318537587114238852e-01,-1.297302451922879613e-04,2.489117844733426763e-03,-1.012473614900102903e-02,5.883436650037765503e-02
-2.843500715611881335e-01,-2.903078616695966563e-01,-2.309157167499294450e-01,-1.016755222415560353e-04,2.768837930552863185e-03,-2.349700526452265601e-03,5.699710547924041748e-02
-2.940522872818442379e-01,-3.149700942933668646e-01,-1.753846681046337119e-01,4.442417594481401499e-02,8.979450428839946818e-02,7.311480337716583233e-02,2.512943148612976074e-01
-2.747673412695350592e-01,-3.708871334630646222e-01,-1.963702524953278017e-01,3.983166199530738943e-02,1.233103160421070710e-01,4.903123191050553359e-02,2.837407290935516357e-01
-2.112816795128851233e-01,-3.283797579978418035e-01,-2.388256464324992889e-01,3.415804505312860367e-02,1.118922651579268568e-01,4.099236447337926970e-02,2.394710034132003784e-01
-2.839915991216472313e-01,-2.731386285332156882e-01,-2.528372008426796880e-01,1.432117700713870026e-02,1.893402920332317579e-02,2.384971838674522851e-02,6.440088152885437012e-02
-2.744948461674205920e-01,-2.896651303424478407e-01,-2.410737608633868323e-01,-4.972083006535980062e-04,4.411472358640503195e-03,-1.685513756494379537e-03,4.383790120482444763e-02
-2.933740633189479974e-01,-2.882836258519853589e-01,-2.217580949068373719e-01,2.919263325346058320e-03,2.435012028802684483e-03,8.317337605500952497e-03,7.100064307451248169e-02
-3.320333922360865220e-01,-3.341399167126050118e-01,-1.381485786914639080e-01,1.249269698768338058e-02,1.641868440518043587e-03,-2.143567738432874265e-02,1.996470242738723755e-01
-3.468977244681336058e-01,-2.937039142401627334e-01,-1.674099606961256814e-01,5.608957358175504365e-02,-6.568421467636417765e-02,-6.597154780839205312e-02,2.468519955873489380e-01
-3.351353075118596037e-01,-2.699338983181454044e-01,-1.862739018239362165e-01,-2.520077672136455255e-02,2.366183398862905726e-02,-1.079345005596291790e-01,2.350306808948516846e-01
-2.954411057714508848e-01,-2.862796367295420974e-01,-2.140850331319256727e-01,9.842992798894381265e-03,-2.257254996074180634e-02,-2.687927902830553051e-02,9.972012042999267578e-02
-3.069756265469995027e-01,-1.934651577010924606e-01,-3.086070318595570128e-01,-5.312090862448375951e-03,8.127586358040847850e-03,-1.541909493498928169e-02,1.186108887195587158e-01
-3.006953087327912666e-01,-2.988934006448582537e-01,-1.948460501516866006e-01,5.328297890263706789e-04,-1.072983626931743942e-02,-1.494670623264449799e-02,1.096951887011528015e-01
-3.164253827381640072e-01,-2.630709034780197575e-01,-2.373336198438575906e-01,1.355280563729201193e-02,-7.071027840973154177e-02,-1.212092056394247774e-01,2.539846301078796387e-01
-2.640887403387118804e-01,-1.469616073904937703e-01,-4.142335351080541628e-01,1.060473144863647438e-01,-1.344252262607592563e-03,1.113652915744975207e-02,2.965869903564453125e-01
-2.818394786897062687e-01,-3.350901433998897394e-01,-1.713848353935036872e-01,-3.257493584072976983e-02,7.084919891018987004e-02,-5.728440756631927866e-02,2.213692814111709595e-01
-2.808104050911822691e-01,-2.628021202410757984e-01,-2.616655866288749022e-01,-1.095878014706899543e-02,1.644113305851628223e-02,-1.468503443147620505e-02,4.652123153209686279e-02
-2.871725462046008093e-01,-2.432836000513693142e-01,-2.788005350172379493e-01,-1.141881325978684296e-02,8.616491616939947473e-03,-1.591493967795632250e-02,5.479641258716583252e-02
-2.484655646909131044e-01,-2.823155515992726849e-01,-2.742603387184495700e-01,-3.644786836769984585e-03,-3.074358905128630592e-03,5.849897694759464972e-03,3.330032527446746826e-02
-2.512308598382955727e-01,-2.829125792897666525e-01,-2.685326660693688194e-01,-1.605737395303243574e-03,-7.213294833478618023e-03,4.651778598956625259e-03,3.136367350816726685e-02
-2.194868585411971496e-01,-2.899828046236214707e-01,-2.938468905149690391e-01,-7.316142720155627277e-03,-2.099734753769716585e-03,2.289987797434712286e-03,7.380073517560958862e-02
-2.647440477794876235e-01,-2.721213594267231084e-01,-2.673434964623811472e-01,-1.656715834813604323e-03,-1.809285258216889163e-03,2.252685971797755045e-03,8.676598779857158661e-03
-2.544437950533032233e-01,-2.822690830394499750e-01,-2.687073205962430267e-01,-5.593624532011675331e-03,-4.304940108624287672e-03,7.034524212132155924e-03,2.964329905807971954e-02
-2.792819945556079264e-01,-2.885951319907151258e-01,-2.366872512998942357e-01,-3.199600375494846948e-03,-8.440151431204257967e-03,5.172670602420049481e-03,5.120964348316192627e-02
-1.461664636602553746e-01,-3.184372305740396092e-01,-3.334280012228787449e-01,4.036746183408633504e-02,-3.574590059499822142e-02,-1.105725555233251153e-02,2.038948386907577515e-01
-2.603942118698835406e-01,-2.868164722553641632e-01,-2.578212393943411507e-01,9.583017872392307797e-04,-3.734576862103555946e-03,8.706205497071447218e-04,2.862882986664772034e-02
-2.785763598523214313e-01,-2.895182571168331553e-01,-2.364250309857159338e-01,-1.417888004316647261e-03,-8.921723775129699469e-03,3.611385060761279631e-03,5.139673128724098206e-02
-2.311317116830945984e-01,-2.915582629906405265e-01,-2.745157140226411330e-01,2.114042313833721862e-02,-3.082764616566278232e-02,-1.453857737602827840e-02,8.796527236700057983e-02
-2.712502620224171435e-01,-2.605072748124953042e-01,-2.711074592264016148e-01,-3.721731342962135945e-03,-4.496408087885581974e-03,2.605966460776509321e-03,1.537784561514854431e-02
-2.977543594416328654e-01,-2.338904552747639309e-01,-2.763420693452132704e-01,-9.428788550684198688e-02,7.838051256520441046e-02,-5.057773874497085986e-02,2.365270853042602539e-01
-2.738497651213887552e-01,-2.435705512091739244e-01,-2.868569709379926169e-01,-3.465104528410274404e-03,5.820303197744354290e-04,-5.678030253341310313e-04,3.895985707640647888e-02
-2.723075873790135049e-01,-3.154061077736605712e-01,-2.023193118495049125e-01,-2.305722517291640405e-02,9.255237431155348415e-02,-3.921480353024137111e-02,2.041528075933456421e-01
-2.623232186526730514e-01,-2.506506489634490187e-01,-2.942803828579115821e-01,-2.676789083209268200e-02,8.373052226701007544e-03,-9.484634046535569268e-03,6.450030952692031860e-02
-2.815016019591226049e-01,-2.327202270470777323e-01,-2.717508661660845148e-01,-6.076203016301222337e-02,5.445590943912224230e-02,-7.031671335327543959e-02,1.918457150459289551e-01
-2.762822886074298157e-01,-2.443147501577156988e-01,-2.808423329159674964e-01,-2.702907471685880164e-02,1.849256861111709185e-02,-2.400499461936096701e-02,7.832527160644531250e-02
-2.810225841825251258e-01,-2.186478762477656046e-01,-2.978752136408441831e-01,-3.434423733490728214e-02,1.887348428445291548e-02,-2.790413945015788461e-02,1.103128343820571899e-01
-2.444816489016000127e-01,-2.577586649330876334e-01,-3.089872022649440830e-01,-6.469377688130220627e-02,1.738475183763134660e-02,-2.356452889443862858e-02,1.364155709743499756e-01
-2.643234085241965570e-01,-2.630318527603757173e-01,-2.764876812576611553e-01,-4.586344153593798281e-03,-4.447107483961187588e-03,5.381215716441315952e-03,1.935600303113460541e-02
-2.773333081517067589e-01,-2.747836172958438294e-01,-2.519410753392140045e-01,5.298406198844197480e-03,3.800534822058210076e-03,2.421312994801648293e-03,2.704928629100322723e-02
-2.749028564102427574e-01,-2.712415537922694408e-01,-2.576477398575921507e-01,8.735471343616388676e-03,1.757309610319198606e-02,1.651953995512187370e-02,4.713830724358558655e-02
-2.872917619760164687e-01,-2.168302946498344430e-01,-3.036057136085311692e-01,-2.024635260201915546e-02,-6.497902984087784196e-03,1.429975867041800158e-02,9.138014167547225952e-02
-3.189645634395099627e-01,-2.480145439250378558e-01,-2.376520863918627491e-01,8.527468019391133691e-02,7.985004764981894210e-02,7.985202633907181879e-02,2.568052709102630615e-01
-2.877159911273039494e-01,-2.587958462534754034e-01,-2.606907929679913027e-01,-1.605410716683072087e-03,-9.013981184995453050e-05,1.727601924800334365e-02,4.108895733952522278e-02
-2.889552105761835077e-01,-2.677502516631527496e-01,-2.490962456525304958e-01,8.613817751995854434e-04,2.153551387768495341e-03,8.310161875750220542e-03,3.763635456562042236e-02
-3.018054239068567179e-01,-2.904389033337480552e-01,-2.107336706982911312e-01,1.923964094216744011e-02,5.296502781623388389e-02,3.107957711474255980e-02,1.407561302185058594e-01
-2.656302968706388823e-01,-2.954980841160309013e-01,-2.478606171154884019e-01,3.374073230510356985e-02,3.758677128179730570e-02,3.750365473519806647e-02,1.166694760322570801e-01
-2.917298567850493130e-01,-3.120630238400921019e-01,-2.071905667937566364e-01,6.291874810032010990e-02,5.325445753401761989e-02,1.201112320725681304e-01,2.700811326503753662e-01
-2.697763674555049285e-01,-2.924522905858434330e-01,-2.436794667528151270e-01,6.642719592565790761e-03,-2.531689478435242627e-02,-8.247658837094535775e-03,6.361054629087448120e-02
-2.676555165897500643e-01,-3.010639664786332048e-01,-2.202634342176181814e-01,-5.899283561467005832e-02,-8.641090828898113918e-02,6.700130158157595328e-02,2.263933569192886353e-01
-2.735245853297021412e-01,-2.873045922803136865e-01,-2.455085759090744058e-01,3.707366712563912522e-03,-2.842664740392527190e-03,-2.549812108023572551e-03,3.802402690052986145e-02
-2.539825338973136781e-01,-2.849197252681361925e-01,-2.649803459368960667e-01,8.938047993076896937e-04,-1.569093298060556842e-03,-7.308747420446509409e-04,2.737162075936794281e-02
-3.197717136844203667e-01,-3.579134289730167007e-01,-1.341562063797343551e-01,3.390409507030258535e-02,-8.537486349994743984e-02,1.308418378665749358e-02,2.623285353183746338e-01
-2.934061022185182055e-01,-3.369605079392652969e-01,-1.576411540077735651e-01,-3.472303751439621833e-03,-8.435014868381540687e-02,1.560945633949191100e-02,2.198959887027740479e-01
-2.970714880316086548e-01,-2.143050724073811975e-01,-2.954066620540090060e-01,-8.610231385072608656e-03,1.415072388349238692e-03,-4.144830416977272544e-03,8.363739401102066040e-02
-2.703483556549414191e-01,-3.221276061615581665e-01,-2.168162179737077311e-01,-8.663449162554100191e-02,-6.613315256150689714e-02,8.702952899738801429e-02,2.582216858863830566e-01
-1.974200045123157277e-01,-3.595275385046097227e-01,-2.288253790022562462e-01,-2.932647530025887100e-02,-1.334584033026285088e-01,2.768704605380131745e-02,2.837029695510864258e-01
-2.777173885465570313e-01,-2.589359177951519597e-01,-2.679177264068662301e-01,1.093399775070176549e-03,3.531480805850695237e-03,1.623552409409561269e-03,1.770969666540622711e-02
-2.833900054752717113e-01,-2.605231396587682213e-01,-2.612292874350619076e-01,1.270286016656920879e-03,2.079470180607885781e-03,4.984757798950748692e-03,2.448676526546478271e-02
-2.919607883006803406e-01,-2.768234488529781601e-01,-2.325817640250594232e-01,-9.959122946830421298e-04,-1.643727353995369468e-03,1.216618656363070705e-02,5.754386633634567261e-02
-2.845922466263128281e-01,-2.611943475260086744e-01,-2.594095288974289648e-01,2.429827096599300809e-02,2.530853161269371737e-02,2.366746261719940986e-02,7.723753899335861206e-02
-2.850628278685350403e-01,-2.576477052573909465e-01,-2.613153794353898496e-01,-5.757960831745200609e-04,9.894637246626743730e-04,-3.238042207283955195e-03,2.645519934594631195e-02
-2.862626203634495714e-01,-2.615840024000362640e-01,-2.568385732170608282e-01,1.210829123233008071e-03,-3.506628108683516420e-04,-3.063122204367974954e-03,2.795673906803131104e-02
-2.845566336638055693e-01,-2.607315814723233927e-01,-2.595114661025179625e-01,3.344978053449577200e-04,-2.347018437927293473e-04,-8.530333320615075257e-04,2.451275289058685303e-02
-2.854192935474462178e-01,-2.574718445429611258e-01,-2.612480866460383244e-01,1.202043616034426132e-04,-3.729434595272275595e-04,-3.244035093785424886e-03,2.686662413179874420e-02
-2.829004024573413822e-01,-2.604254133971567464e-01,-2.615489203807560004e-01,4.211384691373902772e-04,-1.051231797171083178e-03,-6.361438878400132437e-04,2.204989641904830933e-02
-2.933791380813956517e-01,-2.801552277631567667e-01,-2.293115125039354163e-01,-2.413760179210266889e-03,4.053603318646262395e-03,-1.786162735171057184e-02,6.675473600625991821e-02
-2.863639965360383899e-01,-2.654663482948265707e-01,-2.536702557392581103e-01,-2.116027503713218197e-03,5.711642024450735988e-04,-2.110506039826545981e-03,2.915723249316215515e-02
-2.836761380471681804e-01,-2.615386499001745579e-01,-2.595386639201819889e-01,3.978079373619242674e-04,-1.297438560633880995e-04,-9.433710643521389921e-04,2.327097021043300629e-02
-2.839929841000694566e-01,-2.316047151246222180e-01,-2.895306240191539149e-01,-3.102768476583322825e-03,2.863132561708518677e-03,-4.277194656481682171e-03,5.633525550365447998e-02
-2.882526118328761489e-01,-2.479522777043580706e-01,-2.661343509194689649e-01,2.096687113950712275e-04,-1.595678956155563259e-03,-6.683590157957434996e-03,3.692888841032981873e-02
-2.781952986145312945e-01,-2.790989865011608284e-01,-2.592152758637291110e-01,-3.212485929859192763e-02,3.529710375285359525e-02,-3.871889484427745026e-02,1.082097291946411133e-01
-2.682597598841153785e-01,-2.574541062514641432e-01,-2.873775218435468681e-01,-4.067265572913391497e-02,3.326368135903411127e-02,-3.476885057587897343e-02,1.122393086552619934e-01
-2.999584561367185653e-01,-2.348021570337908703e-01,-2.747958813071871842e-01,-9.241954005453668908e-04,-9.768857839905279155e-05,-1.863273895290142382e-02,6.544559448957443237e-02
-2.789435765709846748e-01,-2.516131567002330982e-01,-2.744401843761199999e-01,-4.314014452778038716e-03,4.976675128132028274e-03,-2.550684512438628100e-03,2.817454189062118530e-02
-2.658009093824936220e-01,-2.549224292844675666e-01,-2.844879692457392695e-01,1.080727333284075067e-02,1.212498970503686317e-03,2.994990135090550183e-03,3.244296833872795105e-02
-2.419260751928742625e-01,-2.732536001439043738e-01,-2.896739583069836699e-01,3.735068455498262614e-03,-5.894104450377203629e-05,2.535178899869872972e-04,4.251478239893913269e-02
-2.061346218403437291e-01,-2.668774156638297201e-01,-3.075378707655908039e-01,9.005373099806288084e-02,-5.951807517796123270e-02,-4.358761477873693974e-02,2.201559841632843018e-01
-2.623438345520914261e-01,-2.780435373935615795e-01,-2.624678541694706047e-01,4.338810127325019687e-03,5.953105591197958846e-03,4.138038682133870355e-03,2.141759358346462250e-02
-2.685567638891636078e-01,-3.108535098107036987e-01,-2.291496664045015175e-01,9.723311068417071767e-02,7.186015200127357505e-02,7.228711860291339719e-02,2.540462315082550049e-01
-2.823565235949780372e-01,-2.604430628909419343e-01,-2.622474409113961791e-01,1.538118978928460986e-02,8.718036196599394938e-03,1.702590069906274178e-02,4.744802042841911316e-02
-2.614025372612041598e-01,-2.702454073442397409e-01,-2.706873422292296882e-01,3.086402298586165150e-03,3.007210277757408397e-03,5.090719589414608760e-03,1.468854956328868866e-02
-2.898406707350155154e-01,-2.730473621159899555e-01,-2.493607693301842509e-01,8.067135966473569161e-03,1.246458293097943426e-02,2.568420750803429575e-02,6.229940056800842285e-02
-2.784228284520806063e-01,-2.657204596661600360e-01,-2.610051700147960618e-01,2.402409592711800962e-03,3.409128419242340481e-03,5.039158879336982748e-03,1.928315311670303345e-02
-3.018980606845603765e-01,-2.196368454637664391e-01,-2.824618199711813604e-01,1.587818306762273091e-02,2.015151018355863452e-02,3.602429972191380225e-02,1.068348139524459839e-01
-2.117779940627763646e-01,-2.683332658072563603e-01,-3.240471119235887043e-01,-8.121770345110849998e-02,-6.589712005093267821e-02,4.569703290641669718e-02,2.203051000833511353e-01
-2.808201067039372001e-01,-2.935077689514679067e-01,-2.284135410670421196e-01,-3.761224900099995744e-02,-4.212862839373134050e-02,3.702041607373505322e-02,1.313483268022537231e-01
-1.863473401066100821e-01,-3.335495891607928587e-01,-2.972463653358999314e-01,-2.429589410646320821e-02,-1.105138259033404541e-01,3.545491574057307860e-02,2.445903718471527100e-01
-2.986994423664560139e-01,-2.736634157227840203e-01,-2.281613511950054130e-01,-6.755882311598264932e-03,-9.688322606420872798e-03,2.870178941556380398e-02,8.201418071985244751e-02
-2.965018042196840287e-01,-2.140922112059137905e-01,-2.943296207399989650e-01,-4.523698771833344241e-03,4.757228335934031633e-05,-6.911559894028035909e-03,8.259393274784088135e-02
-2.370147609245623899e-01,-2.966630318931609556e-01,-2.772140228774769288e-01,5.576685733734915770e-04,-1.898930064426511410e-02,3.733932498171389476e-04,6.212255731225013733e-02
-2.760717260742396317e-01,-2.643875033348345727e-01,-2.651110563085038452e-01,-2.860960758856128609e-03,-2.202229619283316026e-03,2.011074832700023799e-03,1.341001223772764206e-02
-2.650456691614086480e-01,-2.674174384775267477e-01,-2.774216777891569952e-01,-4.740630188257129868e-02,-4.599178810751403113e-02,4.175956682663582720e-02,1.358264684677124023e-01
-2.558579729417216897e-01,-2.756389309621015693e-01,-2.711519710349283852e-01,-4.264441081330019000e-03,-4.560812574866320371e-03,5.879868934867045656e-03,2.330967038869857788e-02
-2.370889551717131893e-01,-2.745100020229019333e-01,-2.939714970516810189e-01,-5.413670373122580343e-02,-9.110549486041468262e-03,1.272571405471353313e-02,1.097020506858825684e-01
-1.734053604952063288e-01,-3.146901209858414816e-01,-3.311434922165316097e-01,-2.846928826032871923e-02,-2.425030447071027662e-03,-4.782813867275683903e-03,1.583492308855056763e-01
-2.488275243575787388e-01,-2.758826490157172406e-01,-2.781588326379233478e-01,-4.362805415948575044e-03,-5.548251610971348738e-03,7.941146546088405020e-03,3.372506797313690186e-02
-2.625176637578656713e-01,-2.699509699062497825e-01,-2.725686413164360444e-01,-5.973210962941926348e-03,-4.850718596606878874e-03,5.917096129126929796e-03,1.908471807837486267e-02
-2.929575159023934949e-01,-2.179355988735253158e-01,-2.931923092640820738e-01,-2.216779538516853824e-03,1.782426728014779036e-03,-2.463405368120563221e-03,7.542172074317932129e-02
-2.631420752123558859e-01,-2.804765495366156602e-01,-2.613273665655682643e-01,6.460772831050860332e-04,-9.745015675025941928e-04,-7.470933834344289535e-04,1.846645213663578033e-02
-2.526666511090782108e-01,-2.866536310723464820e-01,-2.657233243518812293e-01,1.947023917417627526e-03,-1.432287397672153337e-02,-6.632582313712407545e-04,3.885821998119354248e-02
-2.644257951080851154e-01,-2.756753405914649790e-01,-2.641847130943034139e-01,5.444086922455875898e-04,1.451231403844977408e-04,-6.183394283603156193e-04,1.146393548697233200e-02
-2.613186535603663208e-01,-2.812969620093469514e-01,-2.616963991365757192e-01,1.513992682614220819e-03,-8.847557680690769626e-04,-7.653370952177441112e-04,2.006765827536582947e-02
-2.771990540295108940e-01,-2.611542310158859181e-01,-2.681981437038789551e-01,3.207564207279455654e-02,-2.438582348226820892e-02,-5.388678839161517575e-02,1.173709407448768616e-01
-2.858011649117348507e-01,-2.672739533098973386e-01,-2.505797530952508789e-01,-3.711895132406612362e-03,-9.335817980757916013e-04,4.616587034524618528e-03,3.223567456007003784e-02
-2.755627226854545642e-01,-2.700028131901299200e-01,-2.582097162458293904e-01,-4.447321058684757314e-03,-1.806724499889846534e-03,2.850590734455682972e-03,1.814013905823230743e-02
-2.709672178486731697e-01,-2.811355329859643870e-01,-2.534757557866005317e-01,-4.452505461922285843e-03,-5.945223805260023940e-03,1.399722793657452204e-03,2.754257991909980774e-02
-2.832302660470006339e-01,-2.680483530701370243e-01,-2.511545942178517454e-01,-4.508481005483793054e-03,-1.838676029068537100e-03,5.005529235650509404e-03,3.030934743583202362e-02
-2.819010259202798241e-01,-2.523324286844392805e-01,-2.701058266727330848e-01,-8.898246211490526761e-03,-3.315752892431146712e-03,9.936259113922967651e-03,3.509085252881050110e-02
-2.767963909445611548e-01,-2.601347612300034529e-01,-2.675681545854683430e-01,-6.819719532548437334e-04,-3.454681407000061502e-03,1.388440754204944057e-03,1.587437652051448822e-02
-2.016790782993331255e-01,-3.201021192625299050e-01,-2.929170343528691434e-01,-1.349911705003305901e-02,1.198434703527348211e-01,-3.973573349596076082e-02,2.447744756937026978e-01
-2.806492037755466962e-01,-2.674951780422037961e-01,-2.637164869377042198e-01,-3.011353331378464199e-02,3.509506735992952431e-02,-3.918170962422517362e-02,1.061041802167892456e-01
-2.681431381727667485e-01,-2.781537424325755681e-01,-2.604999764325180989e-01,-4.143152521865651160e-03,7.083280899404535182e-03,-4.541341697525840861e-03,2.233897708356380463e-02
-2.604504648316093851e-01,-3.164906185930562721e-01,-2.365516181467406387e-01,-4.993429888033174523e-03,5.860580186746625064e-02,-2.457051382742752015e-03,1.242891103029251099e-01
-2.797034797953853458e-01,-2.842212355000142132e-01,-2.449821649197798379e-01,-9.266748340321004015e-03,1.483892884746904062e-02,-1.013629706413452999e-02,5.108106508851051331e-02
-2.784953763620666711e-01,-2.808336567183746801e-01,-2.458818385552212216e-01,-5.540628913130690551e-03,6.856331311590669296e-03,-6.390536130186547786e-03,3.874287381768226624e-02
-2.793761411192031696e-01,-2.740590209075384198e-01,-2.511016272659455928e-01,-5.895055830287869447e-03,6.289553731084000440e-03,-2.317013355307125447e-03,3.027238138020038605e-02
-2.669166725649492200e-01,-2.867505400422734607e-01,-2.500049746468308021e-01,9.079878379001310798e-04,6.457825225781768652e-03,9.015102599879809119e-04,3.383539989590644836e-02
-2.540631173597524550e-01,-2.840466455691970649e-01,-2.689808664442385755e-01,6.490641476592536388e-03,1.015996479906330040e-02,3.631795062816139605e-03,3.391008824110031128e-02
-2.519301315064934599e-01,-2.829600517742120735e-01,-2.689563202198111957e-01,2.479460252281121685e-02,2.529591018010031445e-02,9.197299917584274981e-03,6.886336207389831543e-02
-2.314133106057263967e-01,-2.890588109499642733e-01,-2.839384751180356048e-01,6.181838213948124237e-03,-3.531639437423020160e-03,-3.142077094828952047e-03,5.688354745507240295e-02
-2.621243154866109704e-01,-2.819675556230353264e-01,-2.602832915404329484e-01,2.144423455964381605e-03,3.876535048232300495e-03,1.773149793782113947e-03,2.240503951907157898e-02
-2.750518558013772541e-01,-2.763553386994548333e-01,-2.520923835897752596e-01,5.924602383927292902e-03,2.871025385905903293e-03,4.636229940702776484e-03,2.744592353701591492e-02
-2.794249165491873299e-01,-2.839211183856623633e-01,-2.411752996442186880e-01,5.135116590654649656e-03,4.992001334604269022e-03,2.522282477938331963e-03,4.275723546743392944e-02
-2.234104766147321230e-01,-2.956682534144912111e-01,-2.854716248348277419e-01,-2.241919669850966131e-03,-3.835449114859590912e-03,-5.489113789905875193e-04,6.817980855703353882e-02
-2.299871050262642658e-01,-2.923277136699379830e-01,-2.781661647208449328e-01,-9.923059264773746030e-04,-1.684697968589586592e-02,5.316262193827611931e-04,6.371283531188964844e-02
-2.452176017101690142e-01,-2.877758272587815358e-01,-2.732889481100190809e-01,-2.065897635934336573e-03,-3.243361520605535838e-03,2.785144958513749956e-03,3.836885839700698853e-02
-2.202375839929261725e-01,-2.993281040936826565e-01,-2.821590851630064734e-01,4.059140187946669656e-03,-2.491579161754358188e-02,-4.490405343596478790e-03,8.464331179857254028e-02
-1.757630769934200310e-01,-3.458429171739311747e-01,-2.778376933023881667e-01,5.179285280003989231e-03,-9.281022003273756149e-02,2.647966728497255437e-03,2.189252525568008423e-01
-2.469171205245957179e-01,-2.744796400593835228e-01,-2.831654428357073261e-01,-3.779265055275089595e-03,-3.796324984452935196e-03,5.099872554969764674e-03,3.519444912672042847e-02
-2.427946022916361857e-01,-2.891625931487864509e-01,-2.740977387692691281e-01,-1.098112285951203517e-03,-1.994020807707028511e-02,5.099141886335699023e-04,5.362505465745925903e-02
-1.107261977571593892e-01,-3.370145316772872324e-01,-3.362833118364665919e-01,1.039111001805924188e-02,-1.309086234039187613e-02,-6.026521371749659012e-04,2.277731448411941528e-01
-2.613189369989390443e-01,-2.744828041078525849e-01,-2.693625472065752091e-01,-9.541590994885640852e-04,-7.949036466549089979e-04,3.908251378073390910e-03,1.351118832826614380e-02
-3.222749330222483555e-01,-3.706359306774457130e-01,-1.063797021033650037e-01,-4.236019671837092798e-02,-8.410933866785197388e-02,2.149563081489775165e-02,2.956060469150543213e-01
-2.284068677509837886e-01,-2.891805049224122071e-01,-2.887553102084675638e-01,-7.075482092494622330e-03,-1.617717818518242881e-02,7.968134906829986083e-03,6.923539191484451294e-02
-3.257490538132148949e-01,-2.323019106266954459e-01,-2.172501133519612049e-01,4.032844916642590316e-02,4.559573751842844330e-02,1.067194415287927856e-01,2.358996719121932983e-01
-2.937200230141445156e-01,-2.611884898255894538e-01,-2.615427602475660085e-01,3.315733704006434274e-02,3.836071265518901235e-02,4.666646483522719074e-02,1.236650198698043823e-01
-2.917469591283190500e-01,-2.666656644239010499e-01,-2.424686045124967992e-01,2.256897703315162949e-03,3.078566224189574051e-03,1.678633617460395869e-02,5.206264927983283997e-02
-3.565552074760531820e-01,-2.876942189828040064e-01,-1.618186996081827922e-01,4.439965049990989010e-02,7.904206905029245722e-02,8.121552952240944367e-02,2.714760005474090576e-01
-1.984691647742063414e-01,-2.974514564353402113e-01,-3.053275863874365115e-01,1.418261074969569616e-02,-2.199543050544600434e-02,-5.537797664513448292e-03,1.130750328302383423e-01
-2.575023027073609083e-01,-2.697495267716155110e-01,-2.758977736437075445e-01,-3.497771634957897672e-03,1.869829922873062628e-03,-4.534971108457967054e-03,1.928689517080783844e-02
-2.580284024621011252e-01,-2.655722164524321194e-01,-2.795363426604328683e-01,-2.495118138797684099e-02,2.307441343315080537e-02,-2.138206394806212510e-02,7.206799834966659546e-02
-2.473426016087155455e-01,-2.886731194646935950e-01,-2.651489875291851983e-01,-3.636645085545880149e-04,7.845463232732880279e-03,-5.361020708035712286e-04,3.840891644358634949e-02
-2.589822812355697668e-01,-2.668435113905919809e-01,-2.839386615687036763e-01,-2.077813765760222128e-02,1.706872139608711300e-02,-1.138401509989160100e-02,5.519453063607215881e-02
-2.563441445558238829e-01,-2.857317563057139576e-01,-2.633492632860798266e-01,-8.413196222675218064e-03,-2.890147026741032160e-02,9.523949894498277835e-03,6.080449745059013367e-02
-3.097621137727822327e-01,-3.144606874064544422e-01,-1.924974916284419857e-01,-6.402596243688186799e-03,-3.759949802649210915e-02,3.498018919216447364e-02,1.495293676853179932e-01
-2.500026094850994474e-01,-2.894593129606786164e-01,-2.573493424758799275e-01,-2.214909188064160053e-02,-4.193636243612250403e-02,1.918645997172995638e-02,9.577583521604537964e-02
-2.687243966864789058e-01,-2.670574656653566525e-01,-2.684242374662375585e-01,1.923026368297121522e-03,2.084107377793638360e-03,1.701416243267558307e-03,5.931059364229440689e-03
-2.298702448131828002e-01,-2.875954857964644340e-01,-2.839950779218718968e-01,-2.539210783975144603e-02,4.409590495583027431e-02,-1.220501656477826838e-02,1.065450310707092285e-01
-2.327305591648285432e-01,-2.837986041089835543e-01,-2.884314795406683340e-01,-3.090823308350880774e-03,4.281112358066848853e-03,-3.786545011508006021e-03,5.470518767833709717e-02
-2.669593322883435649e-01,-2.497761180820175231e-01,-2.888812776248829151e-01,-1.183204569534031768e-02,1.150767142211354260e-03,-6.592748137739098610e-05,3.970518708229064941e-02
-2.673533432745516247e-01,-2.496936013739288196e-01,-2.954495493766463032e-01,-1.212059941441325783e-01,-5.910378912060075540e-02,3.388091677311662331e-02,2.441180795431137085e-01
-2.132444369015304708e-01,-2.943934690542745480e-01,-2.924713773376343973e-01,1.995071398497336515e-02,-2.075864201354770538e-02,-4.669392685487907396e-03,9.479003399610519409e-02
-2.222955520276186647e-01,-2.871831454880102164e-01,-2.936180270842972950e-01,-7.543760738775572017e-03,2.935065779332815886e-03,-3.270649926005429926e-03,6.998579949140548706e-02
-2.532690287893223369e-01,-2.204122462235688085e-01,-3.562960426258011681e-01,-1.341998681176093111e-01,-5.071330766352462327e-02,4.984866334573277713e-02,2.903071939945220947e-01
-1.754994581059754755e-01,-3.296452989854218862e-01,-2.925184791029051268e-01,-3.574739914567281324e-02,-8.705020458431217412e-02,2.061520857364043668e-02,2.173895090818405151e-01
-2.106287819853592258e-01,-3.149436553590468368e-01,-2.830231712610813410e-01,-4.219704145014216250e-03,-5.155687426728448874e-02,-2.098623887708653529e-03,1.288863569498062134e-01
-3.057025920749572023e-01,-2.124452647511366754e-01,-2.588779591480475095e-01,5.156749214152924615e-02,-4.729055360654863677e-02,-8.780732370303327705e-02,2.105704694986343384e-01
-2.725076997081974928e-01,-2.684473259622162655e-01,-2.634066053128598650e-01,6.499580808932748505e-03,-4.552251941800166714e-03,-5.409770170236047858e-03,1.841364242136478424e-02
-2.715107546461756338e-01,-2.918789214423088141e-01,-2.518551642974480864e-01,9.541619283544247598e-02,-5.065590942977191841e-02,-9.304810133267600591e-02,2.493716329336166382e-01
-3.464757187002605598e-01,-2.430585517719705269e-01,-2.262476301490355945e-01,1.316811186551563109e-02,-7.004761649961549486e-02,-1.116784732040462524e-01,2.556808590888977051e-01
-2.842412477516204627e-01,-2.472049254480294944e-01,-2.749316670396482198e-01,9.034799007067561422e-03,-5.396176376598727821e-03,-1.451064917648775196e-02,4.557938873767852783e-02
-2.730117628221417347e-01,-2.401147135775716923e-01,-2.867692441679299264e-01,1.193010727807603324e-02,-8.088314063210850710e-03,-7.114252313449427600e-03,4.999147355556488037e-02
-2.312915045154786409e-01,-3.119459744332508389e-01,-2.726876668415810223e-01,1.476997954913786618e-02,-4.842813071853457191e-02,-9.736653827806770675e-03,1.133786365389823914e-01
-2.663464701690477221e-01,-2.587692482262854421e-01,-2.803841693856197193e-01,1.103296294047396292e-02,-7.658495153751512796e-03,-6.455986285451114498e-03,3.204705566167831421e-02
-2.344998831739238121e-01,-3.147868937211093510e-01,-2.706955321039721807e-01,1.930552224798204319e-02,-5.018162028556050896e-02,-1.361948257745717109e-02,1.186560317873954773e-01
-2.019337621939197858e-01,-3.372634431117704779e-01,-2.428668515818322715e-01,3.405485950995870703e-02,-1.019007791654655964e-01,-2.532157636804163725e-02,2.258411645889282227e-01
-2.981589161920579212e-01,-2.934903343069612536e-01,-2.141804289983270659e-01,-1.926964649465282963e-03,3.779471184766128571e-04,-1.966435495066927875e-03,8.188583701848983765e-02
-2.638669967689026286e-01,-2.793238710462188079e-01,-2.617282254431659849e-01,-3.440616621770306756e-03,-4.683317235010344727e-03,3.921783524036503293e-03,2.059133537113666534e-02
-2.765462380494347339e-01,-2.752610037019274647e-01,-2.516385854723000026e-01,-6.582807143734587148e-03,-5.531726954014292742e-03,3.638884034000268962e-03,2.918142080307006836e-02
-2.437328793720401898e-01,-2.884500112122996285e-01,-2.757941517471478310e-01,9.565094268378638437e-03,-1.853588155273833485e-02,-8.539751911728480846e-03,5.583771690726280212e-02
-3.025393600481345313e-01,-2.419111559336195316e-01,-2.584721962658515504e-01,-3.491785499979921468e-03,1.712193265606038123e-03,2.789668918127304401e-02,7.297965139150619507e-02
-2.368354525147703393e-01,-2.924037562315649486e-01,-2.791255455349490600e-01,5.414265601365976684e-03,-2.048377108591531090e-02,-2.045663098435019332e-03,6.233419105410575867e-02
-2.952265916803871182e-01,-2.892822348894607543e-01,-2.175086964664908196e-01,-1.205815959799953329e-03,-9.744807842891956614e-04,1.208641667907333142e-02,7.783880084753036499e-02
-3.303420819348382165e-01,-1.631139485646561083e-01,-2.892776850829786306e-01,-3.916812916295214081e-02,-2.025517573562993570e-02,7.708244536961160465e-02,2.155058383941650391e-01
-2.916089390669215908e-01,-2.901952322442422627e-01,-2.184034635777259425e-01,-6.017305302510455624e-03,-1.426578292645203777e-02,1.541834711516491471e-02,8.179172873497009277e-02
-2.864841825498550820e-01,-2.764351571401521546e-01,-2.458554974594892029e-01,-5.565863577119416379e-03,-5.388900443969865499e-03,1.260780235027218754e-02,4.472495615482330322e-02
-2.637472453207945211e-01,-2.462870259224761993e-01,-2.943404274353829675e-01,2.133012208067930002e-02,-4.673483143004693134e-03,-9.503308442094014416e-03,5.896058678627014160e-02
-2.373972130526736390e-01,-2.763427973614558386e-01,-2.933372134338640969e-01,1.969773872478128643e-02,-8.949844928642905831e-03,-8.292580581994637295e-03,6.385944783687591553e-02
-2.774452763132125299e-01,-2.353898873511302003e-01,-2.909500184233820286e-01,8.464002715964853360e-03,-4.732873290652848432e-03,-1.536555242067887865e-03,5.299228429794311523e-02
-2.376119920194970925e-01,-2.781068552363366586e-01,-2.867515091853305442e-01,6.786523671495329861e-03,3.468903982055084132e-03,4.564335939614563332e-03,4.797289147973060608e-02
-2.664607888953051118e-01,-2.458942861755617493e-01,-2.904934688645503527e-01,6.460186023235293604e-03,-3.237009460611354941e-03,-1.886155568845137697e-03,4.076920822262763977e-02
-2.609766055303908705e-01,-2.501092792399158826e-01,-2.884037966439456646e-01,2.068546634925143290e-02,7.752746215420280168e-03,7.810783166340366790e-03,5.306049063801765442e-02
-1.978735207725493828e-01,-2.921226720461294057e-01,-3.143240296485248497e-01,-2.805681541212064201e-02,2.453952001541841177e-02,7.787128669883907825e-04,1.250527948141098022e-01
-2.348450153322007572e-01,-2.951649797439716005e-01,-2.760793320983785937e-01,-1.195565648432302857e-03,2.347719188733600124e-02,8.698459123467096321e-04,6.716850399971008301e-02
-2.608163211023836192e-01,-2.847454951842701143e-01,-2.574521770157929268e-01,5.302561532542845665e-03,8.858465559161671221e-03,5.363657013579402333e-03,3.271848335862159729e-02
-2.394424470826599649e-01,-2.965426585896526746e-01,-2.750588900421983007e-01,9.425896523338089458e-03,2.072505878368648136e-02,8.475501913327510711e-03,6.531376391649246216e-02
-2.621763523166471543e-01,-2.996740693097478259e-01,-2.434266762862185574e-01,9.151441739449395554e-03,1.996566954268262292e-02,8.078062667322881418e-03,6.405930966138839722e-02
-2.576559683151649072e-01,-2.871570297088922308e-01,-2.600152124234972884e-01,-3.288083285471094051e-03,6.905932123596057043e-03,-3.955671598500182587e-03,3.207382932305335999e-02
-2.562514106871367492e-01,-2.828867008807348649e-01,-2.656928062418502101e-01,1.374801392252605111e-03,1.656086049058673546e-03,2.815277348412528573e-03,2.418222092092037201e-02
-2.961560480349419988e-01,-2.285954291845053721e-01,-2.791474680493025162e-01,3.540964122077256901e-03,3.827427746788920199e-03,4.131310290082514797e-02,9.437424689531326294e-02
-2.600357353372254599e-01,-2.837259767516550069e-01,-2.611054124707900548e-01,-5.237437794300002676e-04,1.092843164376381673e-03,5.553589292442921005e-05,2.326899021863937378e-02
-2.526221039994684392e-01,-2.828051866934330194e-01,-2.681463729741204727e-01,-1.712695522242723215e-03,4.084214889076835664e-03,-4.108178006794277470e-03,2.815892174839973450e-02
-2.634574595054762769e-01,-2.812158539044771199e-01,-2.598124591445751808e-01,-2.239395386691862052e-03,1.849281158424141355e-03,-1.010022680376303867e-03,2.053632400929927826e-02
-1.927763102543660345e-01,-3.087833893911181571e-01,-3.116589765925774635e-01,-2.424733448360100879e-02,2.577246517390012481e-02,-6.552534924432977699e-03,1.329840868711471558e-01
-2.880088114742487826e-01,-2.662049783575403672e-01,-2.488168946386343505e-01,1.908073991136289074e-03,-1.324592454784931372e-03,-5.596039668424008552e-03,3.559511527419090271e-02
-2.839824593636016692e-01,-2.818498263567273399e-01,-2.417848775153558782e-01,3.558248067029947097e-03,-8.221418984029511823e-03,-3.443387378847838961e-03,4.440181702375411987e-02
-2.755791016440038987e-01,-2.907210906565764197e-01,-2.361097999368716172e-01,2.394694763952332980e-03,-1.142683179475386702e-02,-2.981429081202162032e-03,5.310684815049171448e-02
-2.860599842473962595e-01,-2.320081531592861901e-01,-2.856191887057104584e-01,-6.007603729368789572e-03,4.066477137158217708e-03,-4.537339521969867978e-03,5.583559721708297729e-02
-2.834086999853028810e-01,-2.390168677257091812e-01,-2.796683901389161453e-01,2.348374751362319445e-03,-4.881187042939049391e-03,-1.083828345162863790e-02,4.752907902002334595e-02
-3.206311564631909028e-01,-2.155554318548014714e-01,-2.702486779057509114e-01,-1.714757546900198132e-02,-1.025829037517668983e-02,3.564574688047182638e-02,1.153039485216140747e-01
-2.889907465955574573e-01,-2.648256913228860809e-01,-2.541373911079525261e-01,1.033452594953097230e-03,-8.148856232632695554e-04,-1.138404791502757758e-02,3.674858808517456055e-02
-3.243765844714206481e-01,-3.332967400605384989e-01,-1.594261397345614617e-01,-7.379866285905601828e-03,2.934000120995277489e-02,-1.205826128463028113e-01,2.740912139415740967e-01
-3.346419394805402181e-01,-3.204471228886601186e-01,-1.373661597471276252e-01,-2.857284976767469290e-03,1.833818740432514860e-03,-5.931092777736285404e-02,2.165799438953399658e-01
-2.952154467747070132e-01,-3.134397149999023635e-01,-2.074214107049957845e-01,8.012650429852300957e-03,-4.512718523195021619e-02,-2.870300139064102529e-02,1.356962919235229492e-01
-2.896043180675768602e-01,-2.858858208694960434e-01,-2.260284231291742330e-01,4.157528782320831992e-03,-1.185787244506305779e-02,-3.950700721647002270e-03,6.587731838226318359e-02
-3.385429329842327695e-01,-3.374823208632297677e-01,-1.120478665638685034e-01,-8.910256517140552682e-03,-2.176281279805178989e-03,-2.913659356821814150e-02,2.320778518915176392e-01
-2.954989380304319790e-01,-3.375702749428047267e-01,-1.735329109042737517e-01,5.342867585480691461e-02,1.055779742002383587e-01,2.182110224222859329e-02,2.553614377975463867e-01
-2.924612732822940986e-01,-2.929862465687377848e-01,-2.205073264027711533e-01,-1.425260285726620123e-03,8.400799218000099336e-03,-1.248344671482304628e-04,7.371079176664352417e-02
-2.587982605021646454e-01,-2.876131548160333340e-01,-2.552099165601240949e-01,2.586885212684782252e-03,1.067072925257965890e-02,2.879012748995019889e-03,3.651174530386924744e-02
-2.584352467325020664e-01,-2.922134068922338512e-01,-2.519246218501560164e-01,3.685260159389351642e-03,1.157247784114848188e-02,5.441541918616538782e-04,4.297287389636039734e-02
-2.846028351106404952e-01,-2.871654811005898145e-01,-2.329476114100654249e-01,4.590907734778954669e-03,4.404063200024204393e-03,4.987765630614571753e-03,5.480194836854934692e-02
-3.024665909371986872e-01,-3.011566428706359821e-01,-1.965191555234507836e-01,-2.135131128205412126e-04,6.038343399163303808e-03,2.018264745274633148e-02,1.114420443773269653e-01
-2.967644117983604946e-01,-2.908875193298200434e-01,-2.067177147280864768e-01,8.301185968103010071e-03,-1.410828484201763489e-02,-2.943432993196582609e-02,1.049607098102569580e-01
-3.424962995936322585e-01,-2.567239832332555705e-01,-1.854582401295546412e-01,2.267232954189104047e-02,-3.267664013651409155e-02,-9.303171911003935146e-02,2.219423800706863403e-01
-2.851503425004121017e-01,-2.463775655014129873e-01,-2.439747218869228740e-01,-7.571871126952746389e-02,7.449597000170346539e-02,-1.006194714923374783e-01,2.565619349479675293e-01
-3.293624174573018260e-01,-3.068947312674853434e-01,-1.919982088411493759e-01,-6.038433411843208143e-02,1.086281512292053830e-01,-1.177231861660001655e-01,3.228044807910919189e-01
-2.792576789379744850e-01,-2.703580923459031338e-01,-2.540329542565441523e-01,5.878288171815267485e-03,-3.460115897852769715e-03,-2.789680770174562258e-03,2.557199075818061829e-02
-2.830434297766716845e-01,-2.655864646075512536e-01,-2.563021392641118834e-01,2.267803856754245333e-03,-1.132949711306556473e-03,-1.268971804131630021e-03,2.402354776859283447e-02
-2.847654128582547961e-01,-2.667996771333199790e-01,-2.503527181226458120e-01,2.546597889907335592e-03,-1.412597319610562653e-03,-5.385807354270519438e-03,3.164197131991386414e-02
-2.653055783560894221e-01,-3.082537873116388827e-01,-2.255558286772373910e-01,3.368846129409237833e-02,-9.086360940708165801e-02,-5.166150889471021052e-02,2.032531201839447021e-01
-2.672959345433309486e-01,-2.642107702753034859e-01,-2.732112529681205992e-01,1.498756304734621394e-03,-2.365235576691742357e-03,-1.063414385927957716e-03,9.469600394368171692e-03
-2.826362380352075432e-01,-2.611176522895100049e-01,-2.616128578971042562e-01,1.625619935017889525e-03,-1.884863818050608233e-03,-4.239491758423536392e-03,2.291603200137615204e-02
-3.191766942115885075e-01,-1.571514481162311627e-01,-3.052724297022406108e-01,-5.150089262217213970e-02,-2.076472963308020891e-02,6.772256828788417171e-02,2.172607928514480591e-01
-2.734342274668578043e-01,-2.648044478116048372e-01,-2.652776597855818763e-01,1.060945042422848641e-03,-1.866930318700764715e-03,-1.873764805510044935e-03,9.745737537741661072e-03
-2.781240659294419992e-01,-2.616028183762665327e-01,-2.646632510755665413e-01,9.090950169049994908e-04,-2.633323748175875334e-03,-1.555239728172197163e-03,1.619550958275794983e-02
-2.824040636607497157e-01,-2.622013198877888862e-01,-2.614408411466945803e-01,2.310120208171174451e-03,-2.325144899235488064e-03,-3.553626729058667003e-03,2.223075740039348602e-02
-2.645380362008442066e-01,-2.871259362792676906e-01,-2.536334921244179919e-01,-4.728264528542313033e-04,-1.938948611580354735e-03,1.202114869616161853e-03,2.986164018511772156e-02
-2.568087042343740189e-01,-2.846256070740887933e-01,-2.601043723240815120e-01,4.730784148667665882e-03,-1.171893904683182427e-02,-5.311367995734561642e-03,3.545052558183670044e-02
-2.698545110513661527e-01,-2.874426381574941569e-01,-2.490047152144715392e-01,3.244714698062013680e-03,-5.347184492700726190e-03,-3.186988224364853926e-03,3.547671809792518616e-02
-2.499507209075634562e-01,-2.680953996472051348e-01,-2.845965993288188112e-01,-4.836132233306738443e-03,1.658797453532597811e-03,-3.012190833624986842e-03,3.172644227743148804e-02
-2.636814145847909407e-01,-2.773175087473257472e-01,-2.632464017592787697e-01,3.910471732549914391e-03,-5.358792402186648811e-03,-4.110360733971812550e-03,1.935909874737262726e-02
-2.638604859579057327e-01,-2.834855973707843257e-01,-2.565573028172196124e-01,3.641456139785134369e-03,-3.930250276209781325e-03,-1.893170567619957990e-03,2.605150267481803894e-02
-2.613139915161037385e-01,-2.831498492346201101e-01,-2.605851062044631794e-01,8.570151373563393354e-04,-5.377915604403283971e-04,-3.604998598319434570e-04,2.228705398738384247e-02
-2.559576456378565013e-01,-2.832652723473464418e-01,-2.657645784730988114e-01,1.202721226989285569e-03,-1.307209087964774936e-03,-2.506130158038167265e-03,2.454356104135513306e-02
-2.681081842086395772e-01,-2.804544143168130610e-01,-2.557500500086345996e-01,3.999284443712786651e-03,-4.322716332913870835e-03,-3.388059884865738964e-03,2.441734075546264648e-02
-2.622998818596876669e-01,-2.835067428658415434e-01,-2.588111037119412705e-01,1.815820905461497554e-03,-2.291914364284739890e-03,-7.343470569600865985e-04,2.373092062771320343e-02
-2.611948761839922306e-01,-2.800301984541590516e-01,-2.635800268177380112e-01,5.771949708129697851e-04,-1.006431455097492149e-03,-6.043826233053549088e-04,1.790718361735343933e-02
-2.637657544603823623e-01,-2.779284487637092016e-01,-2.629118926177378968e-01,1.579758367502918405e-03,-3.650494701754832308e-04,-2.691035307893980860e-04,1.488314196467399597e-02
-2.869261017637528832e-01,-2.899588667625221938e-01,-2.248176116489589427e-01,4.485647220761326479e-03,-3.525627422321741308e-03,-8.276102736730678658e-03,6.601634621620178223e-02
-2.342600105320922221e-01,-3.052362915916931319e-01,-2.561831638900599062e-01,3.103402598208837831e-03,-4.234232399402984570e-02,-1.878625101604823600e-03,9.685210883617401123e-02
-2.418411764178515222e-01,-3.328848594083732015e-01,-2.228636923010477722e-01,2.707483563799481172e-02,-9.467719861376526491e-02,-4.393730463207886489e-02,2.127411365509033203e-01
-2.763262875977092192e-01,-2.840419548503726466e-01,-2.430452193202974065e-01,-5.671097332093684093e-03,7.313279715639810219e-03,-2.511693102372306551e-03,4.122873768210411072e-02
-2.929432003352913094e-01,-2.838562600132355507e-01,-2.285988005968721815e-01,-2.026980397024933604e-03,1.801963380622971685e-03,-4.413428571045137014e-03,6.098018214106559753e-02
-2.775889125911398247e-01,-2.849375160379333805e-01,-2.396047669477091857e-01,-6.980844811897025243e-03,7.798022937687516115e-03,-5.089553929656978268e-03,4.671469330787658691e-02
-2.776804185084464915e-01,-2.750103383989077610e-01,-2.508960225361301366e-01,-5.783487130131626311e-03,4.269174758450637944e-03,-2.449678144164373853e-03,2.874096669256687164e-02
-2.899112199263559342e-01,-2.929441330955739886e-01,-2.218930806074660977e-01,2.748711456091585108e-03,9.352628854343569831e-03,2.920026102583227548e-03,7.178175449371337891e-02
-2.901000459971831980e-01,-2.729853160864726958e-01,-2.430362283233523935e-01,-1.372846149231003634e-04,-5.857256027711863107e-04,-3.403202285730266841e-03,4.169248789548873901e-02
-2.768251966618121562e-01,-2.864243933319772784e-01,-2.440872987023531560e-01,-4.283354897521184611e-03,1.480219778119682209e-02,-8.935831500512043252e-03,4.929580166935920715e-02
-2.826527060856979245e-01,-2.687012000464538142e-01,-2.523810018678265266e-01,-4.036209944977721745e-03,1.773722407173355725e-03,-3.277700252731784430e-03,2.791461907327175140e-02
-2.910848084316535189e-01,-2.601610156346335634e-01,-2.499704395063069018e-01,-7.005337712008065723e-03,7.318757112070185117e-03,-2.034416980638280650e-02,5.408172309398651123e-02
-3.829053857440143371e-01,-1.458508572478541265e-01,-2.839898428819165321e-01,3.027282910523369092e-02,3.030765870233748799e-02,6.408432120110557628e-02,2.456748932600021362e-01
-2.620205029516116113e-01,-2.602672249200949084e-01,-2.828652154520336359e-01,4.120599621412318267e-03,2.069897230818186409e-03,1.840000100938909630e-03,2.341091260313987732e-02
-2.687952142011371115e-01,-2.633191322717001182e-01,-2.728468154772297760e-01,1.097459467478209419e-03,3.304215100667288844e-03,8.806384098834857616e-04,1.035775989294052124e-02
-2.287060166266011441e-01,-3.392379281241876265e-01,-2.321139941743328161e-01,-2.011692093282485896e-02,-1.532753753880053138e-01,5.675040740506123033e-02,3.053000867366790771e-01
-2.534386319955561073e-01,-2.893028693752046632e-01,-2.648711491914407801e-01,2.210331567727076563e-03,-1.070703309861888858e-02,-1.054972978131264510e-03,3.699790313839912415e-02
-2.341587529458953043e-01,-2.770348352311564066e-01,-2.857156618403034476e-01,-3.240291918755144884e-02,-2.591612204049299067e-02,1.973359005506838612e-02,9.283825755119323730e-02
-2.568805795588072760e-01,-3.320760158037199261e-01,-2.048677054684889254e-01,-4.309655933298851306e-03,-1.052307821162537793e-01,1.510655048279403029e-02,2.150156199932098389e-01
-2.583420444228861079e-01,-2.839172540560733760e-01,-2.616800195204271873e-01,6.186389001269090122e-04,-2.988348107519349373e-03,-1.531449559264696017e-03,2.479594387114048004e-02
-2.947857358937551742e-01,-2.844351420262495322e-01,-2.269919676747448878e-01,-1.477634698342607722e-03,1.202152884817563137e-03,4.661666580065329177e-03,6.385532766580581665e-02
-2.597307358292592627e-01,-2.773383953170731608e-01,-2.675770901440205352e-01,-1.421608792743585389e-03,1.094553283079195780e-03,-3.193391981728748059e-03,1.654355786740779877e-02
-2.520926254463005112e-01,-2.685202925746791869e-01,-2.828414543753534627e-01,-4.516909328580920660e-03,1.674495462306303285e-03,-3.816751183877084737e-03,2.869754657149314880e-02
-2.543784299748145794e-01,-2.786969049326771253e-01,-2.702899407760315786e-01,3.493951086872882066e-03,2.667203765072163977e-03,5.216158889017254163e-03,2.443789504468441010e-02
-2.677027100906206880e-01,-2.789854207279014453e-01,-2.601414770279418809e-01,4.722567971234365933e-03,7.124070970309471368e-03,4.508537630439736835e-03,2.345056273043155670e-02
-2.523121369963128302e-01,-2.779080139462976051e-01,-2.744318797311208757e-01,3.762182802188287351e-03,2.183001039282108768e-03,4.962341271315916236e-03,2.662500180304050446e-02
-2.556493782739279741e-01,-2.859439740570077770e-01,-2.655627370252945374e-01,-3.696703019302130175e-03,8.827748546955175440e-03,-2.987612615730408233e-03,3.189479187130928040e-02
-2.336976745419345192e-01,-2.920976646986778169e-01,-2.760066486034138955e-01,1.584341627741566805e-03,1.216383241733895795e-02,2.608019829381078621e-03,5.658247694373130798e-02
-2.413514731102836541e-01,-2.902377210773956495e-01,-2.734899869910455417e-01,1.802628480710803324e-03,4.977865256744471757e-03,1.496669569325199131e-03,4.407293722033500671e-02
-2.537237189763674738e-01,-2.864438724293693617e-01,-2.648888034977876504e-01,6.368488362105733042e-04,2.610127154012867410e-03,1.948089005357132831e-04,2.918412536382675171e-02
-2.622261330817372560e-01,-2.824250626393011721e-01,-2.605107672934443008e-01,1.842556122242549818e-03,5.002743181424925030e-03,1.678793519836145305e-03,2.322305366396903992e-02
-2.880870280778832226e-01,-2.875558975556676833e-01,-2.392049081116141562e-01,2.359909095443584598e-02,1.229960681811811951e-01,6.435561518543252146e-02,2.486836612224578857e-01
-2.800658793996563811e-01,-2.908585358573027024e-01,-2.346741371929159381e-01,3.750457937067283912e-04,7.723568211100834829e-03,-1.537697497711844590e-03,5.341596528887748718e-02
-2.276988641637094080e-01,-3.065877051102158801e-01,-2.663624114528090892e-01,1.201063583498238746e-02,3.794448631258701826e-02,1.406778170987463099e-02,1.000700891017913818e-01
-2.772353774322631748e-01,-2.893894604383709934e-01,-2.443716283742771167e-01,-4.221380711731150676e-02,5.959520145771873834e-02,-5.627197461274355272e-02,1.647044718265533447e-01
-1.419922050785604739e-01,-3.345732230753676317e-01,-3.040999585366453983e-01,2.258253428060772242e-02,6.631574317158367426e-02,8.147405226457274732e-03,2.169559448957443237e-01
-2.515074741199333497e-01,-2.786071102837393565e-01,-2.746261612885568804e-01,-2.845335017764562442e-03,2.209610844071870864e-03,-5.043067280532194732e-03,2.752432599663734436e-02
-2.758438859614289473e-01,-2.576586999970025271e-01,-2.699152796392395581e-01,-2.097972240967083991e-03,-5.260036553016396617e-03,4.601126222717781371e-03,2.043908089399337769e-02
-2.716370872716546425e-01,-2.626873641622856081e-01,-2.814437530857407666e-01,-4.838871685506963144e-02,-3.475733508723164583e-02,4.552275785623127735e-02,1.308801770210266113e-01
-2.559417400466075243e-01,-2.614825236559437660e-01,-2.887541402997977902e-01,-2.708865615427048790e-02,-2.958165473632051561e-03,1.648726347404721950e-04,5.615396052598953247e-02
-2.760084019453059589e-01,-2.592981011028949179e-01,-2.676980786750454144e-01,-8.987936372449300756e-03,-8.058827883546360385e-03,1.111670269957321100e-02,3.189598768949508667e-02
-2.844461463165013360e-01,-2.587444300029345667e-01,-2.752700399913679541e-01,-3.863243993261454567e-02,-3.686429759711481319e-02,5.362674121179711317e-02,1.330065578222274780e-01
-2.165169670876126717e-01,-2.631536760353207494e-01,-3.345888129686807044e-01,1.265398884271763114e-01,-7.298785657496059676e-02,-9.203850014250867378e-03,2.736463248729705811e-01
-2.533835767473712752e-01,-2.678922827081364755e-01,-2.826130935764785690e-01,3.968709518181928741e-03,-1.759655766011482486e-03,-3.615776970628640195e-03,2.713940665125846863e-02
-2.454617499104947143e-01,-2.734645899296137550e-01,-2.851795070646053198e-01,3.947936794902033933e-03,-3.555899944749958339e-03,-4.517048955939504708e-03,3.735441714525222778e-02
-2.323633954574478022e-01,-2.688007200952142739e-01,-2.969828809108791545e-01,3.370115056326489916e-02,1.503491748757269236e-02,1.286485530814650280e-02,8.792472630739212036e-02
-2.179096561211135152e-01,-2.888681513135325507e-01,-2.978688278253892596e-01,9.350894505472150467e-03,5.457692440959056403e-06,-3.164552529704343594e-04,7.757198810577392578e-02
-2.151491192523845575e-01,-3.026821375633487188e-01,-2.791960939709284828e-01,-1.070625542488054700e-02,-2.965860143345471628e-02,5.908996541545864269e-03,9.615267813205718994e-02
-2.833384143417901901e-01,-2.429721923611303791e-01,-2.753904900494204555e-01,9.266748110902923996e-03,7.789695643498427413e-03,1.606865416775733746e-02,5.085306987166404724e-02
-2.771226408614219650e-01,-2.379098659231284885e-01,-2.888041618581441705e-01,8.161880745235099155e-03,-3.805723753126387214e-03,-4.004782956496090798e-03,4.922985658049583435e-02
-2.647166338231149441e-01,-2.628843188026979139e-01,-2.748560466567287475e-01,-5.168282814516635300e-03,5.343378026606838450e-03,-5.976215838612639400e-03,1.994185708463191986e-02
-2.762921973341415649e-01,-2.328014391192098353e-01,-2.929036365801432895e-01,1.998753202440523707e-02,-1.314197660131723178e-03,-2.468057117150312084e-03,6.412323564291000366e-02
-3.086169617798674714e-01,-3.123933116124313902e-01,-1.954449601072347220e-01,4.118829922150664055e-03,2.641127056943542929e-04,-3.488993461277596630e-02,1.302020251750946045e-01
-3.675329142249375014e-01,-2.209263577433162873e-01,-2.202792455166542318e-01,6.623924980444428900e-02,-3.286175991768524457e-02,-1.060785376151810316e-01,2.678606808185577393e-01
-2.820292652399484790e-01,-2.659051071203905603e-01,-2.557510414295632861e-01,5.276462717436053267e-03,-4.253012460289754687e-03,-5.436022251514973334e-03,2.744554355740547180e-02
-2.971199372119787685e-01,-2.273692722285651224e-01,-2.839043408986786643e-01,1.041417077854609602e-01,-1.043050643371054576e-01,-7.218088715803336330e-02,2.914161682128906250e-01
-2.628385648297831279e-01,-2.781479074392670947e-01,-2.622506450252994892e-01,-4.428414201288540832e-03,5.195376346572412943e-03,-4.326241157240895419e-03,2.096854150295257568e-02
-2.780536185285347739e-01,-2.674192983923958655e-01,-2.596293333373967949e-01,3.711922252851810981e-03,-7.953726881488547675e-04,-1.606768259000699965e-03,1.753828302025794983e-02
-2.741302158404190226e-01,-2.919188024437727735e-01,-2.342672294783699760e-01,1.284216698001481183e-03,-1.094308271406994708e-02,-7.952543704818728406e-04,5.459574982523918152e-02
-3.048533073355794154e-01,-3.737244114569573394e-01,-1.307553340798708053e-01,8.997808046690043693e-03,4.304753634050129119e-02,-5.620042171901679789e-02,2.496422827243804932e-01
-2.809591153279515363e-01,-2.658467379118569229e-01,-2.590727074896494453e-01,-4.289146867118126191e-03,4.381147116495566832e-03,-1.065365286719874641e-02,2.880829386413097382e-02
-2.651052999163237556e-01,-2.703783316557674121e-01,-2.677243924178860923e-01,-9.979311638930178988e-03,1.427105609105001026e-02,-6.769215640224684333e-03,3.268133848905563354e-02
-2.638592105574654179e-01,-2.634342146613923852e-01,-2.780425929062186885e-01,-4.141104672449325008e-03,3.183679532329209382e-03,-2.649379565140704516e-03,1.761499792337417603e-02
-2.768927095408293959e-01,-2.593841758061904978e-01,-2.680591165945487853e-01,-1.257653157982092755e-03,3.891548678012856678e-03,-1.270254050319049016e-03,1.688004843890666962e-02
-2.456599093478225027e-01,-2.788693525238493121e-01,-2.826866214809412026e-01,-3.299742177615929382e-03,4.828450739144724349e-03,-6.148866095815861549e-03,3.821309283375740051e-02
-2.501484766800660675e-01,-2.736339379320026910e-01,-2.828967407466868589e-01,-2.745080804782000592e-03,4.746356570351562172e-03,-5.380315905223131794e-03,3.212384134531021118e-02
-3.253833499396371343e-01,-1.489066978408511710e-01,-3.141632815528446754e-01,-4.525660784550903509e-02,1.532736970349249384e-02,-6.186579720886321854e-02,2.182228565216064453e-01
-2.641718394482175936e-01,-2.614109949926326504e-01,-2.785712429388702560e-01,-1.913345312877304250e-03,3.420262655584785979e-03,-1.208738091559120095e-03,1.746940240263938904e-02
-2.695267148936578150e-01,-2.520248956977317878e-01,-2.821882925831522559e-01,-4.303748748219809496e-03,-4.095379449289221832e-03,1.688159165935156731e-03,2.833130210638046265e-02
-2.745541349222445082e-01,-2.505486874295781430e-01,-2.791715702870964377e-01,-2.578741492159165264e-03,-4.571899191773465092e-03,3.163497900660351778e-03,2.865493856370449066e-02
-2.417766686902775297e-01,-2.731598543809265478e-01,-2.900791606408302248e-01,3.743886608561951788e-03,-9.958476371003650938e-04,-4.933041919800399707e-05,4.297884926199913025e-02
-2.434686780909578463e-01,-2.733511366076989968e-01,-2.914378930059184913e-01,2.557361259231448816e-02,-1.079518816018141050e-02,-1.027055474924247480e-02,6.624695658683776855e-02
-2.561112720319810299e-01,-2.653013185319787470e-01,-2.840918057561099275e-01,1.700779017935541209e-03,-8.323827206872049011e-04,-1.640263759962608996e-03,2.508092299103736877e-02
-1.838547574954703390e-01,-3.138337819839505105e-01,-3.216390846869272568e-01,2.174379413557856258e-02,2.187978976979347394e-03,2.259339442915944338e-03,1.393486559391021729e-01
-2.462725407736056360e-01,-2.649485740635341147e-01,-2.883468841195975796e-01,2.065172509577838794e-02,7.203358004004378409e-03,7.561805498421766969e-03,5.422132089734077454e-02
-2.326125269527750949e-01,-2.452738038198455095e-01,-3.015564033607801564e-01,9.918202363977159097e-02,-7.419065055796249253e-02,-6.898853779991709345e-02,2.536589801311492920e-01
-2.644939996397665527e-01,-2.731426048140595531e-01,-2.671167197760804801e-01,6.736244246363028458e-04,-7.274355574863895346e-04,-2.065859199786864320e-03,8.645593188703060150e-03
-2.666678337735678417e-01,-2.687783497454491188e-01,-2.677234363577101206e-01,3.177534081354669616e-03,-3.233909294571866988e-03,-3.337037915001579008e-03,9.920325130224227905e-03
-2.630523588102716137e-01,-2.778383695861655900e-01,-2.637033351962294603e-01,5.263900017408687949e-04,-3.870184190980572973e-04,-1.301410251169585371e-03,1.468966156244277954e-02
-2.656942357270569155e-01,-2.729824477734409394e-01,-2.661738242241010743e-01,4.831013158207383984e-05,-4.146487272234082740e-04,-1.277432869669105830e-03,7.434447295963764191e-03
-2.522929778042097282e-01,-2.826922510865929605e-01,-2.697463415363144379e-01,7.817251480545213752e-03,-1.288753761948071078e-02,-9.065117364611080183e-03,4.032727703452110291e-02
-2.798622576038185539e-01,-2.620868997723078131e-01,-2.617519182932548927e-01,4.153776215240349498e-03,-3.770734290270898008e-03,-5.103792442588977844e-03,2.223944664001464844e-02
-2.781391463733556280e-01,-2.568260132893018244e-01,-2.691996095779044529e-01,8.260988644146856005e-03,-8.753172844858792337e-03,-1.060848790990613806e-02,3.340421244502067566e-02
-2.871902949661381266e-01,-2.540747025487051780e-01,-2.703218392646644652e-01,1.696007633246221155e-02,-2.086629220949904467e-02,-4.485362374442851408e-02,9.501189738512039185e-02
-2.828672501214193336e-01,-2.657308242969749212e-01,-2.566387415272452510e-01,2.307203031550010726e-03,-3.841371830400177115e-03,-1.006745947428412669e-02,2.994040772318840027e-02
-2.650996150412361363e-01,-2.739145852229007416e-01,-2.651801531098642029e-01,-2.973889016722408140e-03,1.141463388870163614e-03,-1.517049324913027171e-03,1.069324184209108353e-02
-2.832368006225681190e-01,-2.631140026070517002e-01,-2.582440413051335093e-01,2.276840141347815424e-03,-1.128153497717999856e-03,-2.346471414423869934e-03,2.371768839657306671e-02
-2.463650384077880895e-01,-2.790180497887979061e-01,-2.779487344915206881e-01,-4.636693612517795056e-03,5.288346228850662571e-03,-5.201929962985966244e-03,3.552496433258056641e-02
-2.671772978086134898e-01,-2.549985967061820791e-01,-2.827857170742243964e-01,-1.067218023039261977e-02,-2.744077813944101503e-03,3.689773051679683460e-03,3.141899406909942627e-02
-2.627248944986590451e-01,-2.594853784271338726e-01,-2.815180244259414821e-01,-3.362494425295523785e-03,1.932532964451970370e-03,-8.300462715838123791e-04,2.171973511576652527e-02
-2.613126722183362616e-01,-2.637421669625016896e-01,-2.787973125715349498e-01,-2.172424154399794655e-03,1.157142643244595285e-03,-2.623414533272164836e-03,1.754874363541603088e-02
-2.663426957506331849e-01,-2.676382134232342391e-01,-2.708603207038669525e-01,-4.658763961138857749e-04,5.955360185773072527e-04,-3.499158490091289100e-04,4.279844928532838821e-03
-2.623381409059798441e-01,-2.628981457361138641e-01,-2.796746895019277535e-01,-3.869216370730171363e-03,2.392601450120916944e-03,-2.879585301090514977e-03,1.944538950920104980e-02
-2.635039113502134489e-01,-2.658368205683769858e-01,-2.754425870512487995e-01,-1.004019358431283444e-03,8.036042440057339928e-04,-5.911246437710513876e-04,1.123086735606193542e-02
-2.662023645012436268e-01,-2.653870932324228771e-01,-2.726831478866605374e-01,-5.806642791174598806e-04,1.397577853802647830e-03,-4.408088154845162844e-04,7.443314883857965469e-03
-2.628188812751153791e-01,-2.614206161497308334e-01,-2.800382864221659940e-01,-2.396787923217336830e-03,2.348345737785312824e-03,-1.703485900609659357e-03,1.910559833049774170e-02
-2.652134459830959301e-01,-2.651114106697005646e-01,-2.736922525579961185e-01,-1.611606265302222051e-03,2.835057867645496017e-03,-1.609295512799386891e-03,1.060375850647687912e-02
-2.657492283506447395e-01,-2.707208855213121268e-01,-2.677179425985473094e-01,-6.183440388354066253e-04,2.957432469689446480e-04,-1.519890275430165090e-03,5.210093688219785690e-03
-2.641556764671934565e-01,-2.629487493324845215e-01,-2.780278565747255626e-01,-3.210501442041957445e-03,2.538860996494563069e-03,-2.669589441004020184e-03,1.680107973515987396e-02
-2.550429708290289366e-01,-2.685159839741964594e-01,-2.798124872161232846e-01,-4.392444195083051832e-03,4.162768750863414698e-03,-4.474114661567415822e-03,2.512470446527004242e-02
-2.336538718792177116e-01,-2.779338003847425798e-01,-2.916048229530425751e-01,-9.605341337466197227e-03,1.366217537177029720e-03,-2.790222822529119222e-03,5.530555173754692078e-02
-1.028281216516080676e-01,-3.495289055996375627e-01,-3.486057798623555803e-01,6.144095986980948818e-03,2.438383896993987290e-02,8.302360326000495644e-03,2.504758238792419434e-01
-2.276885629354730711e-01,-2.784972059652781051e-01,-2.883672386752718086e-01,-8.892955706435212715e-02,-6.719848391164758017e-02,5.847331948569944871e-02,2.251890599727630615e-01
-1.049556969190841293e-01,-3.531863360280906305e-01,-3.459272306922100970e-01,-7.195563823427802985e-02,-2.069945975221754511e-02,-1.964923113521065134e-02,2.790084779262542725e-01
-2.324588778686819124e-01,-2.914627418098327261e-01,-2.838500750200648737e-01,-4.923293817221924273e-03,4.258692056140541554e-03,-1.824798075270151962e-03,5.680974572896957397e-02
-2.462636401262897068e-01,-2.171012220573818319e-01,-3.298227373910716520e-01,-9.710180492498320104e-02,1.836470940650737280e-02,-4.581342192559725857e-02,2.141588926315307617e-01
-2.246773708442811879e-01,-2.803472635075451302e-01,-3.057494503168877720e-01,-2.285553239554664884e-02,-4.348639719508608573e-03,2.114306245135290797e-03,8.243672549724578857e-02
-2.677283332384612913e-01,-2.556861224457026571e-01,-2.841999261179323222e-01,-9.052955721456741253e-03,-4.880599311017681449e-03,5.559621190348114708e-03,3.201155364513397217e-02
-2.447736279136971949e-01,-2.620270091059213047e-01,-2.978359504811555758e-01,-2.169566712554795232e-02,7.275509483107437184e-03,-1.951341527565265879e-03,6.148262321949005127e-02
-2.582876601012729090e-01,-2.657281931019955246e-01,-2.835390429490489694e-01,-7.492620605026471814e-03,-5.958848341543410837e-03,4.536260005499444074e-03,2.901352755725383759e-02
-2.546967505101285778e-01,-2.440876650094239708e-01,-3.176761600206039482e-01,-5.798491037919614732e-02,1.062571798070553394e-02,-2.371026766098227254e-02,1.298426389694213867e-01
-2.717162666456926501e-01,-2.674011792290345579e-01,-2.662547143772153735e-01,-2.350811190330694307e-03,2.542674592303190845e-03,-1.289542848376663050e-03,8.114477619528770447e-03
-2.412884013697280949e-01,-2.651311544367884188e-01,-3.107697286768393852e-01,-5.449954075697983902e-02,1.641856971660432193e-02,-1.398058854016689424e-02,1.185123771429061890e-01
-2.513499375740819719e-01,-3.001825271079231472e-01,-2.320762245802248380e-01,-5.613744096697487196e-02,-1.081251995065224819e-01,6.795028509558120877e-02,2.491513937711715698e-01
-2.897559464318584244e-01,-2.783155373243909048e-01,-2.350499520924119179e-01,-5.458336504162325867e-03,-6.389925315882747335e-03,6.958054498759966462e-03,5.343114212155342102e-02
-2.904821864790320118e-01,-2.923272701160729570e-01,-2.210494348435953216e-01,-7.407514299208069197e-02,-1.276600465315984034e-01,6.597329048435793264e-02,2.887256145477294922e-01
-2.608256308807907486e-01,-3.290267659418271151e-01,-2.187543213923245078e-01,2.279939411292352183e-02,-1.532259746695657787e-01,-1.807490111514633777e-02,2.868184745311737061e-01
-2.684279859492071374e-01,-2.685648866604521401e-01,-2.678407243693035067e-01,1.043214107019616900e-03,1.266774879496265337e-03,9.020013226717293279e-04,3.311174456030130386e-03
-2.525457398880315285e-01,-2.887079521977504726e-01,-2.625988983236504093e-01,-2.320082359016887794e-02,-6.365250354966615898e-02,2.911848848891866043e-02,1.317522078752517700e-01
-2.682615801750827811e-01,-2.787352019650710666e-01,-2.542485147859092076e-01,-9.083181183006081710e-03,-1.226483747613795264e-02,9.459389480172017070e-03,3.768370673060417175e-02
-2.824396644133421730e-01,-2.739596092651536141e-01,-2.493003161416789126e-01,-3.785221359019103581e-03,-4.019898245292039332e-03,4.259336354080330012e-03,3.217130154371261597e-02
-3.660376749452777245e-01,-2.316780091581533418e-01,-2.110172586045198639e-01,-7.064206483422526273e-02,-2.107113160721145462e-02,1.029501993395804393e-01,2.633523643016815186e-01
-2.893203556485210437e-01,-2.735405005712771009e-01,-2.431116350782147328e-01,-2.293539312887382491e-03,-2.435694607507607554e-03,1.700409514869734903e-03,4.119873419404029846e-02
-2.845072417065315218e-01,-2.422225468794137471e-01,-2.761483703132913692e-01,-2.013954574281729033e-03,-4.864550498185266081e-03,1.809696654543948950e-03,3.996746614575386047e-02
-2.877387357336323448e-01,-2.794992770076308308e-01,-2.369843654401212474e-01,4.350973984238754033e-03,5.208813669980479587e-03,9.250505673288576813e-03,5.119189247488975525e-02
-2.916268084870955457e-01,-2.758480953454010010e-01,-2.356337146595901266e-01,-2.959690988522800572e-03,-1.146377629395625318e-03,9.015474488923995791e-03,5.267592892050743103e-02
-2.807835191228059135e-01,-2.508561031998395308e-01,-2.763179230356992977e-01,-8.112864558094047551e-03,-6.718873547255996802e-03,1.260040386898489059e-02,3.988914564251899719e-02
-2.542668674513058336e-01,-2.768070951109340427e-01,-2.716187998056308062e-01,-1.007079501566172409e-02,1.219621309567200246e-02,-8.892597902029878223e-03,3.749367222189903259e-02
-2.982598387107620597e-01,-2.920286239664448558e-01,-2.249658642210688175e-01,2.491457072254879557e-02,4.416750409597573757e-02,4.664871021398241807e-02,1.385530382394790649e-01
-2.790378646752331160e-01,-2.759999650121908732e-01,-2.470826038320222684e-01,6.115074064873316645e-03,-1.010664641503091626e-02,-2.937625394782704055e-03,3.711865842342376709e-02
-2.595702708866803876e-01,-2.608679888545223924e-01,-2.813033260647548883e-01,8.273671013026796459e-03,-3.507254943979225097e-03,-3.773641565049215205e-03,2.703314460813999176e-02
-2.862325137538531683e-01,-2.743856099945987115e-01,-2.437923451059028079e-01,-3.718544393356922398e-03,1.856241075690752505e-03,-3.236097744672344033e-03,3.901242092251777649e-02
-2.839433733991846842e-01,-2.555157591367712144e-01,-2.659258801720277843e-01,1.358841333919224908e-03,-2.025490051628957202e-03,-1.919384908952359234e-03,2.548458799719810486e-02
-2.686859443070338527e-01,-2.648449038229819252e-01,-2.696684819852090964e-01,8.376169499228387078e-03,-7.337732701931859447e-03,-7.553850079371697557e-03,2.372092939913272858e-02
-3.299506996154755734e-01,-2.768414988548853484e-01,-1.728666641592718212e-01,2.135632677145996722e-02,-4.170994796791484271e-02,-9.384384186783920057e-02,2.283874154090881348e-01
-2.907583555565501077e-01,-2.789860382799020933e-01,-2.328805325512451618e-01,1.328537776314268806e-03,-7.777226668102947028e-04,-9.897109348400393025e-03,5.574981495738029480e-02
-2.768052129802086592e-01,-2.896255561375780663e-01,-2.424246353611227978e-01,-1.100757807793825357e-02,-4.018261931919993313e-02,4.831948248897686982e-02,1.183169558644294739e-01
-3.176653166915318627e-01,-2.898543827128400308e-01,-1.811924941746575479e-01,-3.147393643446421557e-02,-5.377722046511387161e-02,7.939372053043915189e-02,2.148504704236984253e-01
-2.777745092828755591e-01,-2.830633815130617070e-01,-2.433326921658777175e-01,-5.311392422413067915e-03,-7.043104873348428850e-03,2.852973228081904459e-03,4.067230597138404846e-02
-2.548692233135826379e-01,-2.844386812596716996e-01,-2.657329295535945657e-01,4.462199570598659602e-04,-1.838176070178772041e-03,-1.444250274674439448e-03,2.623224444687366486e-02
-2.569950911112138248e-01,-2.826391566868947658e-01,-2.668331823640366918e-01,-3.353364394261796125e-03,-9.113062985396873372e-03,5.580089068263518852e-03,2.963795885443687439e-02
-2.616443839918435321e-01,-2.825916262618836661e-01,-2.604206755528655215e-01,-1.318717364892888757e-03,-6.927322281590423802e-04,4.137462222974121868e-04,2.175058610737323761e-02
-2.605220954223685381e-01,-2.848503886284905473e-01,-2.595976620034137761e-01,-1.925388500431625329e-04,-6.614224870838272081e-04,-9.111231336571912014e-05,2.483261749148368835e-02
-2.595457338485707144e-01,-2.839230773969195765e-01,-2.610682167457314407e-01,-4.588261050507060502e-04,-6.093339509107640727e-04,1.658826956402935870e-04,2.369149029254913330e-02
-2.671600139554113906e-01,-2.883166817697487838e-01,-2.464476858419294425e-01,-1.609831934516777266e-03,-7.244268955705500737e-03,1.832921341403137040e-04,3.847236186265945435e-02
-2.614617701596089749e-01,-2.849001939642222814e-01,-2.578121606100686747e-01,-1.240178193398765085e-03,-3.376467942604368441e-03,3.970854353169175877e-04,2.622039616107940674e-02
-2.689439302181878544e-01,-2.788265305241081626e-01,-2.561746408608129855e-01,4.701894335930851578e-03,-2.877125894944240151e-03,-2.142192218418757267e-03,2.217742800712585449e-02
-2.773012227603456337e-01,-2.879157866981123526e-01,-2.386062710746682802e-01,-6.430222359728269936e-03,-8.977868799927027355e-03,4.007915176070556487e-03,4.934306442737579346e-02
-2.661634786874142455e-01,-2.672530484537910533e-01,-2.725550002040437181e-01,-2.194265674290688754e-03,-2.878341304104015379e-03,2.850213315382598388e-03,9.937041439116001129e-03
-2.716984410275857798e-01,-2.685021286922977812e-01,-2.670753973003996973e-01,-5.023949883166632484e-03,2.581348809830067391e-03,-5.614519905127782727e-03,1.439065858721733093e-02
-2.644458717041485718e-01,-2.748644141316847200e-01,-2.634981852407227709e-01,-3.799760289167422762e-03,5.399845094725315604e-03,-3.704365548411245497e-03,1.706675440073013306e-02
-2.804259785288535922e-01,-2.396831183769035367e-01,-2.790662611547058414e-01,-1.334181912768515541e-02,8.046702820779537413e-03,-1.409499961302019058e-02,5.413592606782913208e-02
-2.666373759600856874e-01,-2.684769069714507683e-01,-2.695311041608541847e-01,-1.037452280073110225e-03,9.805141418263350027e-04,-1.819929026234209761e-03,4.741730168461799622e-03
-2.779621782559403287e-01,-2.645025179021123773e-01,-2.626104775426599258e-01,-2.724632211661646378e-03,2.681375351332276804e-03,-3.851459966949024975e-03,1.727859675884246826e-02
-2.774290387660884871e-01,-2.407170539702348233e-01,-2.856468403517075094e-01,-1.572824733582262047e-02,5.748146946035431401e-03,-6.603618211412256959e-03,5.185628309845924377e-02
-2.704602978846016303e-01,-2.656550717100539805e-01,-2.687289951212130656e-01,-6.937227253318842051e-04,2.036452025730730274e-03,-7.699802012730565682e-04,5.782048217952251434e-03
-2.842880801001426150e-01,-2.604037434542846308e-01,-2.601206747515198980e-01,-2.884374023043519988e-04,-8.891641863690693875e-04,1.431562656444219667e-03,2.420892566442489624e-02
-2.820343422062575045e-01,-2.584186958836875436e-01,-2.659788646423530412e-01,-7.104622058238981019e-03,1.056466483576818348e-02,-1.578791301434347844e-02,4.086997359991073608e-02
-2.724164055111574778e-01,-3.143664653473206005e-01,-2.287180541113935650e-01,5.480239475355169060e-02,-7.491234551970391009e-02,-1.060424222262617150e-01,2.551136612892150879e-01
-3.137019662257981567e-01,-2.772287854368788995e-01,-2.240045208542290056e-01,1.198226380197341991e-02,-2.387785158113140196e-02,-5.661642033643705940e-02,1.336480826139450073e-01
-2.854516320053572254e-01,-2.385729692068329910e-01,-2.563355505522867950e-01,7.979672816858038309e-02,-6.884463344532358586e-02,-8.955551031879903368e-02,2.430273741483688354e-01
-2.731643939616883454e-01,-2.700970006214352681e-01,-2.627240458621971086e-01,6.251008356105481646e-03,-4.827973794211667946e-03,-6.336166809574877469e-03,1.984891481697559357e-02
-2.852699518960768454e-01,-2.959541127082286338e-01,-2.106469462034743223e-01,3.283332754261436559e-02,-8.630009868895435754e-02,-6.703637920173050047e-02,2.133983671665191650e-01
-3.236687005154431640e-01,-2.916022485004087783e-01,-2.064316732854168390e-01,6.665919318818246120e-02,-1.160581891474394556e-01,-5.284292779988655764e-02,2.704244554042816162e-01
-2.895351221405316200e-01,-2.180388424623957155e-01,-2.967488918106314655e-01,1.930062733018241689e-02,-4.666117067210498459e-03,-1.683876402304729236e-02,8.782372623682022095e-02
-2.691456243805122051e-01,-2.564539734226679579e-01,-2.771660269442627333e-01,1.181048911988615870e-02,-8.435473102235181014e-03,-9.364627508380390236e-03,3.496026620268821716e-02
-2.703144732468261147e-01,-2.539911259004709598e-01,-2.794153283953250133e-01,3.045649268599265325e-03,-5.662178398182241869e-03,-3.561268597178228988e-03,2.568832971155643463e-02
-2.658255189385627104e-01,-2.561222938595479892e-01,-2.829102038673266817e-01,1.361192244320644663e-03,-2.554064679438588278e-03,-8.934112650210116347e-04,2.406944893300533295e-02
-2.623753827749400469e-01,-2.632048662130016536e-01,-2.780954128854341012e-01,5.015828909968516290e-03,-4.363780158720810196e-03,-4.653167961839017007e-03,2.079247869551181793e-02
-2.407102992701789235e-01,-2.854779818240422151e-01,-2.810433704719014214e-01,1.244615404651390304e-02,-1.229149790298784094e-02,-8.355179283683006677e-03,5.433851107954978943e-02
-2.602847486991624049e-01,-2.626239705735676222e-01,-2.827938888663370509e-01,1.258572528113927058e-02,-3.859440006594350506e-03,-3.470915578033433816e-03,3.186704590916633606e-02
-2.415762038776890219e-01,-2.646295417569104469e-01,-2.937955505246275800e-01,2.137691068089066573e-02,9.512492869558776109e-04,1.532580259671177539e-03,5.861027538776397705e-02
-2.604670419351410304e-01,-2.434894361523431694e-01,-2.942140012168808494e-01,2.429383676046001361e-02,4.646268999931924860e-03,3.067752887951519149e-03,6.215792149305343628e-02
-2.461176297631568477e-01,-2.855270042721244073e-01,-2.734616525136763787e-01,2.375520364573177525e-03,-2.757124562872132704e-03,-4.185227431215117130e-03,3.626935929059982300e-02
-2.487994998923487022e-01,-2.669218008473990267e-01,-2.873462272389968319e-01,6.347372767927210099e-03,-1.170764441199381202e-03,-2.169137588876449575e-03,3.542326390743255615e-02
-2.356114692407058897e-01,-2.786548764016568147e-01,-2.896247698879997889e-01,9.175131298226888929e-03,-8.633393302468245385e-04,-1.771274753377312990e-03,5.205240100622177124e-02
-2.816235092164613985e-01,-2.228840975430351479e-01,-3.027814016064869218e-01,2.973040401346848521e-02,-1.733978457356620539e-02,-4.326585650274360900e-02,1.196255609393119812e-01
-2.781967544065216402e-01,-2.187848701981558452e-01,-3.043819557887751936e-01,3.262753518828088312e-02,4.900361798754055949e-04,-2.108319667429551288e-03,9.475691616535186768e-02
-2.943516744816891961e-01,-2.233521489081795597e-01,-2.880553083124996472e-01,6.368442041055426620e-03,-9.258082605807962766e-04,-6.537696351477355859e-03,6.989996135234832764e-02
-3.583447693168776427e-01,-1.288418656166775977e-01,-3.306453212965116406e-01,3.597459638070002984e-03,2.823021734025210963e-02,-5.645501492505236585e-02,2.430491894483566284e-01
-2.681404228093406394e-01,-1.583366115501187443e-01,-3.839333283310483180e-01,8.066621223351211345e-02,1.057690363955971109e-02,3.964879906535324211e-02,2.505038678646087646e-01
-2.790607400139614169e-01,-2.435643406807556643e-01,-2.825512277438247399e-01,-4.108640677573098532e-03,-4.878606077591370570e-03,2.319754073109134892e-03,3.916971385478973389e-02
-3.083350525580559887e-01,-1.759937492099311052e-01,-3.037048284525833974e-01,-8.000065096408949528e-02,-3.060805791109309781e-02,6.116503792236922810e-02,2.239581346511840820e-01
-2.913784847924381083e-01,-2.238301197122946617e-01,-2.888978263747986053e-01,-6.635470669179940710e-03,4.151658439699582211e-03,-4.123712938868729153e-03,6.808952242136001587e-02
-2.743333788487484770e-01,-2.448609571017925091e-01,-2.855407610481100478e-01,-3.348417229388413879e-03,-4.539389151079008256e-03,2.639522028809759748e-03,3.795909509062767029e-02
-2.614786150704516698e-01,-2.611970381832784960e-01,-2.832114560581405760e-01,-3.377958694540180492e-03,-2.808108624933073737e-03,2.905158647008779585e-03,2.370070107281208038e-02
-2.946742746473737795e-01,-2.308996736564792873e-01,-2.775629692911400492e-01,1.053004593943779495e-02,5.709639210932309457e-04,1.978137781508880130e-02,6.911050528287887573e-02
-3.025651240372859152e-01,-1.985480628719297758e-01,-2.954454150738630713e-01,-3.758482780411973381e-03,-4.734560551477488095e-04,2.088544523451946883e-02,1.071509420871734619e-01
-3.217163194475259336e-01,-1.807702055373596184e-01,-3.123216873263402471e-01,-6.594541618054724358e-03,-3.930063818220482820e-03,-1.317312175297092117e-02,1.390227377414703369e-01
-2.928997005535850517e-01,-1.956592253108692114e-01,-3.136733506644056590e-01,-3.974547613557294357e-02,-1.688156950200610240e-02,4.978195960369947992e-03,1.325734257698059082e-01
-2.425908871962394742e-01,-2.809515821064747509e-01,-2.825418850152499606e-01,6.425852614193494801e-03,2.449157587689246643e-03,4.769325079707899609e-03,4.177542775869369507e-02
-2.886990863480937142e-01,-2.281655921525992392e-01,-2.883777432155679721e-01,1.269939062050249971e-02,-5.498659078480359723e-03,-1.029537030199051753e-02,6.736073642969131470e-02
-3.166679533665275326e-01,-1.304935599247736000e-01,-3.665659949935135553e-01,6.838696675971099592e-02,-3.899146530732069439e-03,-7.665926065876213502e-02,2.795466482639312744e-01
-3.214541339923056018e-01,-1.562374325286362553e-01,-3.019962262054943780e-01,7.077499054551100732e-02,-2.611478055897632419e-02,-9.205466394600257674e-02,2.587582468986511230e-01
-2.967812377835613025e-01,-2.119353467695284654e-01,-2.980182014390828082e-01,9.955261019350201968e-03,-3.065176382682520406e-03,-1.318358955053939609e-02,9.028972685337066650e-02
-2.989248664237409425e-01,-2.251853244372399032e-01,-2.838608453699209555e-01,1.337828058438792107e-02,-3.304629671376955232e-03,-2.439774637074354838e-02,8.312086015939712524e-02
-3.256702171325334128e-01,-1.725962755724507192e-01,-3.025517778668374569e-01,7.309173291629725983e-03,-4.538821671640952231e-03,-8.554109447878693179e-03,1.444605737924575806e-01
-2.962124451047413176e-01,-2.224480972539920332e-01,-2.857945436570212827e-01,1.633843914163653254e-03,3.724540095774426726e-03,-3.348546398946009896e-03,6.974600255489349365e-02
-3.274439749266079280e-01,-1.477791738234154606e-01,-3.676443104914492443e-01,1.017963878863013399e-01,-3.072628033333503483e-02,-4.960012783249609369e-02,2.870861291885375977e-01
-3.160402303054680728e-01,-2.075956127468827905e-01,-2.794880820574283664e-01,1.006453029743968608e-02,4.326340278018575959e-04,-4.659638134343116467e-02,1.262953877449035645e-01
-2.957723179248794021e-01,-2.206431939337710202e-01,-2.914135172613189217e-01,8.189381245175157004e-03,4.971132082130612492e-04,3.139315888222069407e-03,7.461512088775634766e-02
-1.645497204461371932e-01,-3.231096686569900900e-01,-3.443514803474115316e-01,9.164741304392402810e-02,-6.395465488905106854e-02,-3.519153980913595353e-02,2.648475766181945801e-01
-2.640554751081820029e-01,-2.761103577118426688e-01,-2.640078421084653959e-01,-6.887319433070289952e-04,4.016639435252130849e-05,-7.417981848146608641e-04,1.220554672181606293e-02
-2.658365099878189364e-01,-2.754535039117211870e-01,-2.635945877649954472e-01,-1.662606726272140801e-03,4.006547066523761575e-05,-7.419836068894469956e-04,1.135880965739488602e-02
-2.582686400244793568e-01,-2.757661560806557444e-01,-2.698337749972727351e-01,-1.731892871399497331e-03,3.178747053395714929e-03,-4.497258348299099269e-03,1.837231405079364777e-02
-2.680433456612287824e-01,-2.703000610909127022e-01,-2.666360351252781147e-01,-1.346394917541152755e-03,1.039910358424216796e-05,-4.867998930148712509e-04,4.049539566040039062e-03
-2.661130559653407390e-01,-2.713285615298975939e-01,-2.669671495048445697e-01,-5.644911505458290310e-04,-3.336112534133787023e-04,-3.804469512111837088e-04,5.020010285079479218e-03
-2.617169306836956144e-01,-2.762859110403664831e-01,-2.685083079761108604e-01,-5.339766724498875086e-03,6.519407669325890352e-03,-5.184559019799536185e-03,2.128663659095764160e-02
-2.747689987385042443e-01,-2.524810332441638216e-01,-2.753470945636545819e-01,-1.939987149403099229e-02,1.062202002383248051e-02,-1.885604797111449168e-02,5.517400428652763367e-02
-2.417052111171071882e-01,-3.141937019854417201e-01,-2.428833477917261008e-01,2.264135733419727747e-03,4.983424274597093862e-02,2.440891846074056456e-03,1.124907806515693665e-01
-2.315742824465424898e-01,-3.018930130860099093e-01,-2.715475046601801834e-01,5.985689626728311376e-03,-5.109454040579266415e-02,9.040893784113299830e-03,1.091621294617652893e-01
-1.210702265794693644e-01,-3.056194800032300263e-01,-3.881434004984738451e-01,4.805866875356416129e-02,-3.222518633576472447e-02,-3.349927929046380565e-03,2.572475671768188477e-01
-2.676039430405540709e-01,-2.688243841583867755e-01,-2.685122722780711180e-01,9.764839028649722336e-04,-1.290697846032291471e-03,-9.094276845374471042e-04,3.397854743525385857e-03
-2.416134931110689998e-01,-2.836497812419249143e-01,-2.784504821087069870e-01,2.131315700698045972e-03,-5.514347279829935437e-03,-4.850461313420695135e-03,4.184442013502120972e-02
-2.548691877594984057e-01,-2.778608853619060071e-01,-2.731196301008630423e-01,1.321659302852461627e-03,-1.799106840312086810e-03,-4.282844947448404514e-03,2.262889966368675232e-02
-2.595155284015406294e-01,-2.814181283299429515e-01,-2.631841491798526667e-01,1.185626020722174365e-03,-3.433338431569842985e-03,-2.323237855671303476e-03,2.164724469184875488e-02
-2.634180035890788529e-01,-2.765532109341536371e-01,-2.648723463625953789e-01,3.306155855794606913e-03,-4.663717747571830344e-03,-3.355597000832472639e-03,1.695194840431213379e-02
-2.427896516431671259e-01,-3.098473585602522506e-01,-2.597691954624587463e-01,1.848451881814016165e-02,-5.573399041221924893e-02,-1.017256915631159844e-02,1.195857003331184387e-01
-1.903479150042935442e-01,-3.103078605796552591e-01,-3.070528026922989540e-01,-1.380385208520380942e-02,-3.824945038024075983e-02,5.312510963790835657e-03,1.380430161952972412e-01
-2.666807980944561063e-01,-2.839052204132966328e-01,-2.526128661302686762e-01,3.424685679623662698e-03,-2.675398662698622379e-03,-1.884913792629390288e-03,2.835871651768684387e-02
-2.747583335917977432e-01,-2.780273029054253775e-01,-2.517452895319328698e-01,4.745893545488708183e-03,-2.465994983940410050e-03,-3.403780247220567715e-03,2.713091112673282623e-02
-2.698419357144080100e-01,-2.755992125026643924e-01,-2.580675473798522135e-01,4.856787707307708493e-03,-3.264935359333875648e-03,-1.923952891421895975e-03,1.879947446286678314e-02
-2.582100122044941326e-01,-2.818742822086049982e-01,-2.610793928085275439e-01,1.731760276852507482e-02,-2.070093321225953062e-02,-1.503298674255234765e-02,5.799642577767372131e-02
-3.654792824222660164e-01,-3.736032467282230929e-01,-9.752065684232180676e-02,-3.726900899450704460e-03,1.568438541096302263e-02,1.197757466627536772e-02,2.743260264396667480e-01
-2.930880977938911669e-01,-2.935647312411608922e-01,-2.169995008497673794e-01,2.937962333129289579e-04,2.297780945970834352e-03,-5.626755586818798409e-04,7.643962651491165161e-02
-2.867535100839753159e-01,-2.840844112086994833e-01,-2.341674525312999744e-01,-4.954066882151325971e-03,4.991395197865955424e-03,-4.318406251995412712e-03,5.325764045119285583e-02
-2.915591745501187049e-01,-2.974063378599871577e-01,-2.188417986323523134e-01,2.247992676783363382e-04,2.966316215960633149e-03,-5.521558012729383715e-03,7.658464461565017700e-02
-2.408404067624519140e-01,-2.860894235551343923e-01,-2.926576563280168797e-01,3.499550849440558747e-02,-4.066502136663626560e-02,-2.595998184683705537e-02,1.142128333449363708e-01
-2.424475558362686189e-01,-2.731148986697737868e-01,-2.898939503408943241e-01,4.075361769708598508e-03,1.128299864714745696e-03,6.255895862026095286e-04,4.232505708932876587e-02
-2.694745273261642260e-01,-3.870183966055028568e-01,-1.428711408561699203e-01,1.914773011812445809e-03,-1.092252690462864190e-01,-3.866084574915144845e-02,2.915679812431335449e-01
-2.752460088395934923e-01,-2.867677405449352013e-01,-2.403794126711022716e-01,-4.002090734952203945e-03,-3.084077542060191610e-03,9.978868545913332014e-03,4.610283672809600830e-02
-2.710585610835889447e-01,-2.677460949397184042e-01,-2.662121240844259051e-01,4.130172352341346734e-03,-3.079744374188602557e-03,-3.605459054126335453e-03,1.170615945011377335e-02
-2.575279476648601462e-01,-2.727236135933086558e-01,-2.570885999625959206e-01,6.092400637535962116e-02,-7.372445168706270868e-02,-6.159891786785245960e-02,1.976414620876312256e-01
-1.958258313246782623e-01,-3.050862489006934686e-01,-2.935376002055541389e-01,6.834591431554731811e-02,-7.114412343317916276e-02,-3.228025601407524120e-02,2.076858133077621460e-01
-3.067074345770683941e-01,-2.085088084346322368e-01,-2.947384762113733347e-01,2.038851495155077909e-03,-5.107863331199054106e-03,-1.793308983058424996e-02,9.831795096397399902e-02
-2.770079816218941615e-01,-2.525074128317491562e-01,-2.763059085128501957e-01,9.589309372065571782e-03,-6.922062611731967692e-03,-1.065970598049063855e-02,3.666152060031890869e-02
-2.897209450077703474e-01,-2.645455069073042731e-01,-2.540191824035233359e-01,8.960343878518266985e-04,-5.364966729615800378e-04,-1.137100525746038288e-02,3.742702677845954895e-02
-2.844183193365107387e-01,-2.321808251637483000e-01,-2.882329099997150146e-01,3.463150071333105564e-03,-3.722503244579745615e-03,-3.826603265981513326e-03,5.535387620329856873e-02
-2.894444016277908371e-01,-2.488398836557055571e-01,-2.654449949573760570e-01,4.541833437673930413e-03,-5.439637536328589817e-03,-1.295067108023462317e-02,4.363516345620155334e-02
-2.836110879398149875e-01,-2.549518848990366404e-01,-2.675482177611130385e-01,3.188485684590075617e-03,-2.643780749812427514e-03,-1.081408038969896429e-02,3.195806220173835754e-02
-2.922574035566673500e-01,-2.359350929445169220e-01,-2.784713439443388117e-01,4.278427312660939251e-03,-1.112656752609220015e-03,-1.010658712206731653e-02,5.432175844907760620e-02
-2.549391329652382909e-01,-2.694675340971974253e-01,-2.779976264185344270e-01,3.463155079160964555e-03,-4.274055769145667857e-03,-4.054335108795758050e-03,2.340643852949142456e-02
-2.712613573236234421e-01,-2.716310547664599895e-01,-2.613915835230840590e-01,3.343377692241182586e-03,-1.180277585941662136e-03,-9.992217319043509346e-04,1.191247068345546722e-02
-2.976834324917856933e-01,-2.868416854499069024e-01,-2.353011646419973790e-01,-2.541138136212039295e-02,-3.949056280970813376e-02,4.755227846645547485e-02,1.293527930974960327e-01
-2.870371289442010254e-01,-2.498652507318265825e-01,-2.668235441461033752e-01,-2.589950768221770637e-03,-3.774105131570006447e-03,4.903171133876957702e-03,3.426279500126838684e-02
-2.805222795432922855e-01,-2.617345253024027651e-01,-2.600707145348357674e-01,1.573906877323726777e-02,1.676889512316248609e-02,2.471371414670926053e-02,6.169321388006210327e-02
-2.411900565205463698e-01,-2.845865401893105107e-01,-2.719293224538844034e-01,-2.790414678280636954e-02,-3.905734684121557609e-02,1.919929322361664178e-02,9.753139317035675049e-02
-2.806340920106022430e-01,-2.655516675087806200e-01,-2.580121431339394422e-01,-2.215889637337168250e-03,-1.158462171715962056e-03,1.967891757093888708e-03,2.069813199341297150e-02
-2.690525104275490742e-01,-2.681752244952306796e-01,-2.669561435955521977e-01,-1.783577252185294081e-03,-1.000456653527470466e-03,9.353917377653813824e-04,4.300735890865325928e-03
-2.344831501732816958e-01,-2.771417206880903983e-01,-2.912761542205027920e-01,1.080746262296344157e-02,-4.646019083038723614e-04,6.991511879182395238e-04,5.454363673925399780e-02
-2.753284956656225635e-01,-2.524585647407259215e-01,-2.754146158920873222e-01,4.492400694303295104e-03,5.680852637732816332e-03,2.865307321743121825e-03,2.658950723707675934e-02
-2.821472223992270711e-01,-2.444876091528562501e-01,-2.790234305254590819e-01,2.064273278458299103e-03,3.764545751751636853e-03,6.709790435343740422e-03,3.873921558260917664e-02
-2.835524062569377279e-01,-2.585010177025821032e-01,-2.623851767119018685e-01,1.007943570267180343e-03,2.568110905258925297e-03,3.366506662778666597e-03,2.453953400254249573e-02
-2.960783268192074269e-01,-2.042006576515882355e-01,-2.978180875952248230e-01,-1.662419305402252495e-02,-4.414006478096090327e-03,1.154745587944292981e-02,9.945828467607498169e-02
-2.672998547943916114e-01,-2.480860071777725717e-01,-2.879986828567271395e-01,5.527711624340398214e-03,1.605655903819422619e-03,-9.369839967887477717e-05,3.598256781697273254e-02
-3.077903605883027804e-01,-2.114600233209052438e-01,-2.871841837456827751e-01,7.193453836814430943e-03,1.548300645216868152e-02,4.188450238351038718e-02,1.177136003971099854e-01
-2.661499939191852571e-01,-2.585387097940325951e-01,-2.786865679298328180e-01,1.032689464579588691e-02,6.097807792359489880e-03,8.774648162531843362e-03,3.119269385933876038e-02
-2.789037033053570203e-01,-2.469312248485083794e-01,-2.794010836504924877e-01,5.202030396829474511e-03,3.535305840443011931e-03,5.639023690804655618e-03,3.539016097784042358e-02
-2.538544460236458189e-01,-2.773577993535119579e-01,-2.754322057360063525e-01,7.634218700276045391e-03,9.429095178288117093e-03,6.179247784701458017e-03,3.266457468271255493e-02
-2.968424213976958992e-01,-2.682546512379384018e-01,-2.324077675184073322e-01,1.458121221151179384e-02,2.534341414776784818e-02,4.559540893802940115e-02,1.092179790139198303e-01
-2.781282007371267961e-01,-2.935372881665266886e-01,-2.306465080555856195e-01,-7.296100839760948087e-03,1.140664288767260018e-02,-4.823220667674818669e-03,6.199536100029945374e-02
-2.937830705321756719e-01,-2.833160490601457915e-01,-2.291174250223539099e-01,3.238935490717333491e-04,-8.304692499043487544e-04,-4.062716564696687918e-03,6.054955348372459412e-02
-2.841340210328567317e-01,-2.875924250870137699e-01,-2.330710695921250908e-01,-4.344468046808722464e-03,3.878454107743826811e-03,-6.006756166958383131e-03,5.482677742838859558e-02
-2.965426227625356792e-01,-3.070480711582854738e-01,-2.142619037941759508e-01,7.196594826633461936e-03,3.674921085225771322e-02,1.646636268178135534e-02,1.129831224679946899e-01
-3.249853328700556543e-01,-1.726779158473113196e-01,-3.052905583355743913e-01,4.922655952860153367e-03,1.256965617160348339e-02,-3.126948293933086258e-03,1.454709321260452271e-01
-2.938629014271542106e-01,-2.111556427414413295e-01,-3.016467551245509138e-01,2.309276589284303943e-03,3.108908010961862565e-03,4.534165344653921879e-04,8.712331205606460571e-02
-2.199070399779313456e-01,-2.945722991546690928e-01,-2.904870561280029628e-01,-1.322883367007439371e-03,5.988311018270996329e-03,1.949114354510457503e-03,7.355807721614837646e-02
-2.678910538182201484e-01,-2.774595210704060011e-01,-2.591174980359923219e-01,6.451172004100507069e-03,9.806584895213136394e-03,7.823843769217993585e-03,2.914580702781677246e-02
-2.347192193163766261e-01,-2.924249537947167799e-01,-2.777053020849573062e-01,9.136837557168814641e-03,1.667684727699744046e-02,2.699213724831440748e-03,6.167548894882202148e-02
-2.236143998557686696e-01,-2.950900366127607866e-01,-2.886472467383702778e-01,4.411497276866966320e-03,4.899274332215750906e-03,1.267999832541461458e-03,6.946214288473129272e-02
-2.314307380502302891e-01,-2.912797403007815755e-01,-2.836338316190407105e-01,3.564558456361656587e-03,2.908112542349132208e-03,2.950318734190476161e-03,5.720459669828414917e-02
-2.559159040586463929e-01,-3.409389845736706670e-01,-2.151503803411672910e-01,-2.100643669590681207e-03,1.159899931125370764e-01,5.488847258576497884e-02,2.485342472791671753e-01
-2.564100108539956735e-01,-2.708677826163407576e-01,-2.762841426091025565e-01,3.435918055644660365e-03,1.879682960491761787e-03,5.588796264340136627e-03,2.136335149407386780e-02
-2.538965356271742357e-01,-2.658669247081348885e-01,-2.823979486579036857e-01,4.027433945680718858e-02,-3.149241798700759543e-02,-3.669443564257832829e-02,1.117822751402854919e-01
-2.765552207183900046e-01,-2.403736011725676192e-01,-2.915830184698702254e-01,1.906450377990785705e-02,-6.685367590097272480e-03,-5.511293968391039674e-03,5.826015770435333252e-02
-2.637658281099358737e-01,-2.637884460320025215e-01,-2.755398454709651057e-01,5.595894771725879943e-03,-4.253417909496117096e-03,-5.179685282978403575e-03,1.915896497666835785e-02
-3.231343769116440390e-01,-3.725822133919126089e-01,-1.172631610773774147e-01,-4.405264156115067803e-02,-4.552139158899654037e-02,7.659342615287459410e-02,2.909400165081024170e-01
-3.648309874937361585e-01,-3.250768968888076427e-01,-1.246751997246756394e-01,-2.785415799790030150e-02,-8.549993009792603016e-02,4.123798088946167145e-02,2.811903357505798340e-01
-2.387303602959820470e-01,-3.181875256181752598e-01,-2.650730737894075317e-01,-2.576284212820713002e-02,-6.576589262593648955e-02,6.316760177946488530e-03,1.414234638214111328e-01
-2.957085325878947013e-01,-2.991250517737518155e-01,-2.131406480061300845e-01,7.951306449585227986e-04,-6.240647635400875352e-03,-3.110439974768778280e-03,8.519965410232543945e-02
-2.653224154565917425e-01,-2.902126485500309827e-01,-2.484772754076178813e-01,-1.980798592758631002e-03,-5.574187545044704227e-03,2.414265390504459572e-03,3.801359236240386963e-02
-3.029542921086268992e-01,-3.130334235856563896e-01,-1.972819959597587880e-01,-7.058720263196716083e-02,-6.075346181761884234e-02,1.006911502394502583e-01,2.622404098510742188e-01
-2.286928823898790875e-01,-2.837016656920480218e-01,-2.915765992219198632e-01,-1.903191011228418800e-02,1.428867788702935931e-02,-5.130175861011518866e-03,7.279606908559799194e-02
-2.625824662661499498e-01,-3.141716632662789332e-01,-2.246559614320482179e-01,-7.069015722282058489e-03,-5.564947609038220500e-02,3.104378220657840609e-02,1.356027871370315552e-01
-2.526331966785294592e-01,-2.743606294209136598e-01,-2.774349156014740414e-01,-2.138101985795366235e-03,-3.194459589054297281e-03,5.534370075862438121e-03,2.616380713880062103e-02
-2.356231264562078653e-01,-2.798359646256174948e-01,-2.976559464177811476e-01,-4.080384228503402405e-02,-2.677590744947755397e-02,2.264166719800893984e-02,1.083690077066421509e-01
-2.540839197501982838e-01,-2.651508579318188619e-01,-2.864850844195763191e-01,-2.289539321710799217e-03,-1.065352595046428026e-03,1.653338604421088556e-03,2.900107577443122864e-02
-1.874417619211322938e-01,-2.989203999179904092e-01,-3.082349617596293334e-01,-6.680815108062471142e-02,4.993985244370648807e-02,-3.178851998999406014e-02,1.935358047485351562e-01
-2.289841089435471488e-01,-2.837759078525330936e-01,-2.933216167245992212e-01,-4.085314512877852647e-03,6.611757787186437786e-05,-1.217713417259156088e-03,6.058728694915771484e-02
-2.359467984258541706e-01,-2.773077682029564395e-01,-2.906015774201791135e-01,-8.735333084463505274e-03,1.203122618746381867e-03,-2.166307905114295274e-03,5.181350558996200562e-02
-2.496461942427783409e-01,-2.642250589938451855e-01,-2.864632025349537758e-01,-1.886911742496960240e-02,8.617093104301375844e-03,-8.599394953652335707e-03,5.043835565447807312e-02
-2.826822771238573506e-01,-2.679551093458106825e-01,-2.529728596494649207e-01,4.006634188568490053e-03,-1.830289590611207211e-03,-4.117701035162926911e-03,2.776831015944480896e-02
-2.765914763719893865e-01,-2.817051643199844357e-01,-2.456055554709722366e-01,8.587494841398190040e-03,-7.450643094946439449e-03,-5.594296994197892753e-03,4.032851755619049072e-02
-2.847262484124138959e-01,-2.790862054051113095e-01,-2.399541367185685503e-01,4.424460329995411924e-03,-1.931934499273165948e-03,-6.677475993368465167e-03,4.458167776465415955e-02
-2.780456723080457215e-01,-2.626416933208781113e-01,-2.625200744998161251e-01,4.162771034977814054e-03,-4.078132768196070929e-03,-5.479598398873259529e-03,2.076362818479537964e-02
-2.714401065042322259e-01,-2.621235244293553812e-01,-2.706288731793828339e-01,3.595338713425840979e-03,-5.097442952713960446e-03,-6.843026765252687056e-03,1.836058497428894043e-02
-2.850562895629956683e-01,-2.738236091817582984e-01,-2.458551914728941135e-01,3.714919699414682974e-03,-2.755344905418050713e-03,-3.122636348375991931e-03,3.627666085958480835e-02
-2.862182387731573296e-01,-2.380948669912502647e-01,-2.779481112655713404e-01,4.820740750484863064e-03,-5.522353071558216628e-03,-8.020540176059175533e-03,4.837832599878311157e-02
-3.350864052318529573e-01,-2.791757068996061353e-01,-1.874052463712171102e-01,4.629127735196249260e-02,-1.176154461711778065e-01,-9.604366002865956375e-02,3.037774860858917236e-01
-2.939099856071071826e-01,-2.759396932224733034e-01,-2.352908955618459863e-01,3.165185261618301549e-02,-3.880081884694845662e-02,-4.606251321387717923e-02,1.288139075040817261e-01
-3.209806745731463851e-01,-3.390480840832413856e-01,-1.511927194034243527e-01,1.533205250977888109e-02,-2.423574940902394580e-03,-9.145955921871971872e-02,2.409136742353439331e-01
-2.872478010551209882e-01,-2.657448361465900022e-01,-2.485159839664921044e-01,6.594237688401560771e-03,-6.705003325888875092e-03,-1.693321754670951140e-02,4.748902097344398499e-02
-2.846642107196380445e-01,-2.775526165150651314e-01,-2.437931782413544080e-01,4.647164560765199535e-03,-7.171093927768304802e-03,-1.385896907527258207e-02,4.717661440372467041e-02
-3.414868537706794438e-01,-9.979559437036239489e-02,-3.406324665327384871e-01,-7.617425819499253764e-03,-5.398937725609537436e-04,-1.549352339867300990e-02,2.431131303310394287e-01
-2.881435641849540152e-01,-2.943331403371658439e-01,-2.231974354330346078e-01,-9.520714634470085411e-03,-2.417071985853979851e-02,1.512010755159346256e-02,8.584145456552505493e-02
-2.743422694946311968e-01,-2.783581264724117599e-01,-2.515351103622284201e-01,-4.826330488212538308e-03,-2.463323286577172484e-03,4.406480180407680060e-03,2.782479859888553619e-02
-2.368497274689972953e-01,-2.845932627209291077e-01,-2.830523175059686536e-01,-2.597531823440429877e-02,-3.993426171046002976e-02,1.245003389184071683e-02,9.737374633550643921e-02
-2.886699962116200946e-01,-2.906535473994183993e-01,-2.231596117457639583e-01,-6.592880624567015908e-03,-9.085581339638292009e-03,7.051847165579491067e-03,7.037553191184997559e-02
-2.900520048205401658e-01,-2.516193688945610463e-01,-2.662663443235121496e-01,-3.385912242044153420e-03,-3.609082961723697643e-03,1.197254563565123241e-02,4.040018096566200256e-02
-2.532137406746116093e-01,-2.689834192139493596e-01,-2.821230451685640128e-01,4.729351215195488206e-02,-2.757622269243821533e-02,-1.422843567993163985e-02,1.011299118399620056e-01
-2.326645885313820272e-01,-2.845416711039943092e-01,-2.887664671045478970e-01,3.537524248639515017e-03,-5.225979641715578633e-03,-4.049224581157709335e-03,5.564992502331733704e-02
-2.049360956454209515e-01,-2.989689529150245106e-01,-3.124621962166062028e-01,4.754835868899583845e-02,-1.226087331801164852e-02,-5.626154097697845004e-03,1.327461600303649902e-01
-2.275584283945656372e-01,-2.785999405898829662e-01,-2.950375620569988810e-01,1.782969366009952428e-02,-6.510943584685067662e-03,-2.444987391339567117e-03,6.937749683856964111e-02
-2.424077803613325643e-01,-2.768136633188208462e-01,-2.840924599986766608e-01,7.214509547808108797e-03,-2.443193999527106669e-03,-5.050531611949787315e-03,4.168642312288284302e-02
-2.433894599164558026e-01,-2.834728673921696473e-01,-2.775324168335568942e-01,2.520274750832615131e-03,-4.863918641034662045e-03,-5.238530036742241984e-03,3.970151394605636597e-02
-2.313372988327973001e-01,-2.869362070526503272e-01,-2.835246113744616658e-01,1.696719435763402450e-02,-2.645403890236794342e-02,-1.389168373577038054e-02,8.034449815750122070e-02
-2.282819242436008311e-01,-2.931846044409337493e-01,-2.941845884261354849e-01,3.218210508590777646e-02,-3.618297741382232868e-02,-2.503262502134548373e-02,1.148601025342941284e-01
-2.480212699861036318e-01,-2.775550037583368046e-01,-2.788026104428909524e-01,1.126694029206068773e-02,-1.192119285811203168e-02,-4.831139331321987994e-03,4.228286445140838623e-02
-2.790828514084350287e-01,-2.413616009180407085e-01,-2.836549355176609666e-01,-7.060829823268141396e-03,4.568018148549012579e-03,-1.991121654438002264e-03,4.289896786212921143e-02
-2.903030256453490443e-01,-2.267536154793229897e-01,-2.863519325817877603e-01,-5.687250444294273712e-03,2.328046651085222043e-03,-1.680127365644605748e-03,6.264831870794296265e-02
-2.815491785034912597e-01,-2.190958364449189788e-01,-3.128610744348597761e-01,-5.500800348044439930e-02,8.196721643965327805e-03,-1.579706166662064870e-02,1.298623532056808472e-01
-2.695017850080085875e-01,-2.536275022958259240e-01,-2.796355020781117195e-01,-3.915216598592196652e-03,5.456305502849285484e-03,-4.626411242399155847e-03,2.674064598977565765e-02
-2.671962252530614146e-01,-2.846485055111466766e-01,-2.556151967475864262e-01,-4.862380825216087651e-03,9.740551472142294082e-03,-5.751488772857125432e-03,3.310014680027961731e-02
-2.559042681380146456e-01,-2.694012337703685089e-01,-2.779885219943538655e-01,-2.847965818021800516e-03,2.314995657823663844e-03,-4.527788964960819187e-03,2.176522277295589447e-02
-2.804961429453264321e-01,-2.364042961813604959e-01,-2.882694848342076122e-01,-1.972055612193520518e-02,3.576803008987142121e-03,-3.394464503955348187e-03,5.989078059792518616e-02
-2.748628372290364830e-01,-2.509853396313875828e-01,-2.786436636073622575e-01,-2.928995936784673914e-03,5.296648543294203183e-03,-4.692681284980156423e-03,2.916625700891017914e-02
-2.506435174687560163e-01,-2.820869846953077409e-01,-2.855658581015886877e-01,-3.997885837838973527e-02,3.681609155562576979e-02,-3.151038656283244865e-02,1.137984916567802429e-01
-2.357306864964262283e-01,-2.823975386550861555e-01,-2.851418699961489334e-01,8.452572025218573967e-03,6.731777304768842528e-03,6.791244325440926044e-03,5.293436720967292786e-02
-2.849239299866788144e-01,-2.776212100721109910e-01,-2.420682443632125591e-01,4.445944988816900173e-03,-2.648842403616581340e-03,-5.496722844116999282e-03,4.180869087576866150e-02
-3.336765706565907319e-01,-2.772278246078114239e-01,-1.675928618362530209e-01,2.441946893946817312e-02,-4.125442482974930880e-02,-8.977709415126464143e-02,2.290623039007186890e-01
-2.907005442452675337e-01,-2.329007069888385795e-01,-2.801977409852333678e-01,3.411513724319888813e-04,-1.439475945819848179e-03,-9.803342866890414967e-03,5.602634698152542114e-02
-2.912931782384542978e-01,-2.472346557721757654e-01,-2.650405614114377806e-01,7.874664655865811283e-04,1.456038272809199270e-03,-6.448147033813108123e-03,4.008314013481140137e-02
-2.903370245829967056e-01,-2.236329191473102607e-01,-2.919749185359215571e-01,-4.889703637270398362e-03,1.884250793348281675e-03,-1.877052024678289507e-03,6.822260469198226929e-02
-2.736684822250300408e-01,-2.456547300711895143e-01,-2.856269336161979533e-01,-3.642951455370648482e-03,3.905566002642758480e-03,-2.274886549052195471e-03,3.693067654967308044e-02
-2.648662455250189729e-01,-2.431076222330517123e-01,-2.959303154187171159e-01,-1.991729023362041884e-02,9.185251793605965845e-03,-7.842194801937716134e-03,6.117211282253265381e-02
-2.956468339183001559e-01,-2.155471038583905430e-01,-2.945281477665920855e-01,-3.893088833950360261e-02,-8.915765603813807089e-03,6.351318319775727493e-03,1.059903055429458618e-01
-2.999049148331693893e-01,-2.082329066783203120e-01,-2.941122833050135443e-01,-1.501319867652127146e-02,1.633830547158347801e-02,-1.916612179655111103e-02,1.023978441953659058e-01
-3.011131250016996774e-01,-1.828759400513849942e-01,-3.210276858476862616e-01,-1.512834076143585588e-03,7.091471293372147121e-03,7.529565830683582900e-04,1.299642175436019897e-01
-2.739274176338888367e-01,-2.272689169523077202e-01,-3.093390461314390327e-01,-5.863730223715400702e-02,1.654547792612045404e-02,-2.330739131884675477e-02,1.336009502410888672e-01
-3.175235964758250651e-01,-2.676564561678221321e-01,-1.926027919262534582e-01,3.393210796984590105e-02,4.747505701946185680e-02,9.805860830230833658e-02,2.256651818752288818e-01
-2.846268850346203028e-01,-2.748480283528950685e-01,-2.431679483707835654e-01,5.657900201126860387e-03,2.658863795067088146e-03,6.264677124603473118e-03,4.054665565490722656e-02
-2.828595978878136741e-01,-2.611882609746896677e-01,-2.603656029552535722e-01,6.567332100675860387e-03,3.891845641772308587e-03,1.020523475186162557e-02,3.123173303902149200e-02
-2.701475190956881822e-01,-2.789702671528644928e-01,-2.544783032853171201e-01,5.036898435102900480e-03,2.989856676178394030e-03,3.614257094612227834e-03,2.457087859511375427e-02
-2.893855062430484848e-01,-2.801391305636823925e-01,-2.363396693736498633e-01,-2.328254768657478466e-03,-3.854707881976231383e-03,7.094213580880799445e-03,5.119274184107780457e-02
-3.250846461419775735e-01,-3.586173710777824652e-01,-1.155946573628090779e-01,-4.368599890225253329e-02,-5.808182211884663215e-02,8.766183438819491469e-02,3.015542328357696533e-01
-3.933670368184373212e-01,-2.808407957144428146e-01,-1.459059136555930503e-01,3.859018378795765671e-03,-5.778158568777636006e-02,7.789043159715053344e-02,2.726075351238250732e-01
-2.659214610389930011e-01,-2.562960512224079501e-01,-2.833286888764827149e-01,1.554992206115985657e-03,2.119827771993533245e-03,1.268961202087625804e-03,2.426473982632160187e-02
-2.919179635250548910e-01,-2.767560485240336265e-01,-2.326074782604625191e-01,1.254654819299974230e-03,4.181829996223569105e-04,1.223209113635322087e-02,5.746717378497123718e-02
-2.890855239892045625e-01,-2.801806248705788760e-01,-2.321177336555113324e-01,4.675941073251446874e-03,1.166294515839707766e-02,1.697804876072593963e-02,6.446520239114761353e-02
-3.081404306275773997e-01,-3.105072074473025356e-01,-1.960179257377969719e-01,-4.790168725497262470e-02,-3.095089068971489804e-02,1.199856632325690398e-01,2.564950287342071533e-01
-3.264183728096704540e-01,-2.301774224518084999e-01,-2.234939617668477430e-01,-3.257102199994066360e-02,-3.536462602455003185e-02,1.071184701258026672e-01,2.265124619007110596e-01
-3.655571808043251991e-01,-1.531737594308794081e-01,-2.983671662719074025e-01,-6.116533347314392910e-02,-6.735834180474083166e-03,6.052791430243070758e-02,2.402119189500808716e-01
-3.264866443034675769e-01,-2.186712238922579321e-01,-2.668696197358228495e-01,-2.881200882354725129e-02,2.266939156994742660e-02,-5.824580381192895340e-02,1.515273600816726685e-01
-3.370618916229020101e-01,-1.615865996859249809e-01,-2.820131365451467031e-01,-3.720543102687098175e-03,-6.918309411440394865e-03,-9.377772905769472811e-02,2.252335548400878906e-01
-3.813699503960562565e-01,-1.680996583955136070e-01,-2.692605803560621514e-01,-7.307225781074339066e-02,1.393676482723691691e-03,-8.974803846141669872e-02,2.726384997367858887e-01
-2.804974726598439272e-01,-2.219056943658234693e-01,-3.128450879640195526e-01,-1.315736656890654499e-01,1.808259506535907224e-02,-4.148365037594432814e-02,2.538762986660003662e-01
-2.789397381526164121e-01,-2.364745142920236520e-01,-2.868525297856762135e-01,-9.108429303698329857e-03,-4.860029933644486461e-03,3.650337427008331498e-03,5.061275511980056763e-02
-2.600033981952888373e-01,-2.602518127399950920e-01,-2.835970826933315592e-01,-6.654443328732519841e-03,-3.424081182047471542e-03,3.550796542525922351e-03,2.750826999545097351e-02
-2.427461667480443341e-01,-2.487260561815284321e-01,-3.130892258832424502e-01,-4.312899816702964184e-02,-2.396221847816497330e-02,1.342342648777348525e-02,1.113854646682739258e-01
-2.909222973384568145e-01,-2.241449526367791656e-01,-2.879259666264369910e-01,-8.251006253573573562e-03,-8.563400137187270750e-03,8.136092048097913823e-03,6.993515044450759888e-02
-2.949115741675908398e-01,-2.427566359720680911e-01,-2.615939689450299532e-01,2.823864245721702682e-03,2.504136429064201825e-03,2.664589096578831931e-02,6.530901789665222168e-02
-3.445424438961808278e-01,-2.756247648385279914e-01,-1.925556184684922290e-01,-1.620865504923239830e-02,-7.534846407375396515e-02,1.169510231314335180e-01,2.760942280292510986e-01
-2.839225753865181612e-01,-2.783483968553592813e-01,-2.418405481840260329e-01,-5.212090034849123539e-03,-3.058927760962767538e-03,4.713910404837652959e-03,4.175676405429840088e-02
-2.879334044271473214e-01,-2.680203838176805631e-01,-2.477492136546538548e-01,-1.141477953105022106e-03,5.143639259341690681e-04,5.698594990131079958e-03,3.623856604099273682e-02
-3.278859432725553802e-01,-3.041714218607990405e-01,-1.734892702172234069e-01,-5.206914081798026672e-04,1.633509781488444446e-02,4.281342131021090291e-02,1.644370853900909424e-01
-2.593793565180724792e-01,-2.845834655654197465e-01,-2.608646118237984424e-01,-2.400469802825643765e-04,9.779329033351073872e-04,-2.109036446586176085e-04,2.456000633537769318e-02
-2.626289701161082513e-01,-2.795815513067508862e-01,-2.621076132827434013e-01,-2.483303408286001001e-03,2.336875276457365657e-03,-1.699629302068843273e-03,1.844043657183647156e-02
-2.337434082634108345e-01,-2.864691983314219814e-01,-2.847952384369417111e-01,-3.939502362454016561e-03,4.242020849039498422e-03,-5.027618752011756009e-03,5.358100682497024536e-02
-2.576986399634744185e-01,-2.854333130655355988e-01,-2.607980759398768611e-01,-4.022701928882791296e-05,2.831614371075551022e-03,8.353472475687966905e-04,2.681434527039527893e-02
-2.594460831204158935e-01,-2.847050970849280827e-01,-2.607953005540286084e-01,-7.878178350090394341e-05,5.675838139140715333e-04,3.119223888361556153e-04,2.463808469474315643e-02
-2.598217496667705739e-01,-2.837599906836255070e-01,-2.610051397285441110e-01,3.834935105836404672e-04,3.220371866120558930e-04,5.461116407162936630e-05,2.338531054556369781e-02
-2.474513073007617026e-01,-2.876093325682226864e-01,-2.655331448713598719e-01,-6.304444627779048557e-03,1.833383946119473279e-02,-6.519729414750448544e-03,4.968537762761116028e-02
-2.594527187666403334e-01,-2.837806564615601990e-01,-2.614686632637327479e-01,-1.388045588408343611e-04,1.039379296212680466e-03,-3.826251788105030694e-04,2.346501126885414124e-02
-2.608279657030327936e-01,-2.843327957707345588e-01,-2.603920385720863151e-01,-1.001144772251218954e-03,4.808958677692876105e-03,-1.696704825168657413e-03,2.537587471306324005e-02
-2.029533121181446020e-01,-3.082421554043540124e-01,-3.054110546002813398e-01,-2.557187924899050058e-02,1.621963505242560860e-02,-4.566386032921445487e-03,1.166585609316825867e-01
-2.643716827050217044e-01,-2.784001538194814107e-01,-2.617778047647043027e-01,-2.492533683179651207e-03,1.697620004500591901e-03,-1.044642435313343888e-03,1.644603535532951355e-02
-2.573304911447985011e-01,-3.074670543892065733e-01,-2.533576690053927494e-01,2.196747607934871824e-02,6.211773569710500598e-02,3.149808624168697058e-02,1.368523985147476196e-01
-2.106276788551963430e-01,-2.852738230415265419e-01,-3.115200479410407675e-01,-1.687534109916235744e-02,1.402795586493360558e-02,-4.938123839355988351e-03,9.868094325065612793e-02
-2.613434198924371454e-01,-2.651288098879850397e-01,-2.879500606681728025e-01,-4.298722743365276239e-02,3.400110509423324989e-02,-3.140727267068482709e-02,1.122172325849533081e-01
-2.509504075763178688e-01,-2.745341111217509122e-01,-2.791268096416508193e-01,-2.382483986237492624e-03,4.310317793237428141e-03,-4.902649339852411213e-03,2.881787531077861786e-02
-2.430691897744520491e-01,-2.833853145028021325e-01,-2.775571166131934886e-01,-2.304321854089980831e-03,5.285801813092242535e-03,-5.178589651961625247e-03,4.005732759833335876e-02
-2.442246575155659072e-01,-2.889496837493654713e-01,-2.728390356999463306e-01,-2.693743937266535830e-03,-3.349806325344600096e-03,2.343934252718144363e-03,4.014033079147338867e-02
-2.322847857706992203e-01,-2.967295076228357864e-01,-2.761176886529204677e-01,-2.577829543537997828e-03,-1.292596888146137386e-02,1.017683883181716908e-03,6.143232807517051697e-02
-2.441433843808147874e-01,-2.843896970459487417e-01,-2.747928268541779406e-01,3.954895353287569276e-03,-5.023681319824140588e-03,-7.161430891430572467e-03,4.002650454640388489e-02
-2.439078585735766080e-01,-2.891174203642663532e-01,-2.735431180728007394e-01,2.396557878282268642e-03,-3.848720167150828687e-03,-2.579940504762147195e-03,4.079206660389900208e-02
-2.541152446420868460e-01,-2.842427465050769153e-01,-2.659942247161879991e-01,3.531855962916155859e-04,-2.006814205384145882e-03,-2.261166015314751421e-03,2.680834382772445679e-02
-2.530961084845913533e-01,-2.860245848228830101e-01,-2.660283957954194256e-01,-2.240021651348949629e-03,-1.288068914499980282e-02,5.089881958620283940e-03,3.763240948319435120e-02
-2.553963149193151927e-01,-2.853958060791618179e-01,-2.649821526637333724e-01,-2.584300305979172433e-03,-2.301317020436515533e-03,1.748220179419632779e-03,2.737481147050857544e-02
-2.482009901328351420e-01,-2.667066813371913869e-01,-2.862187429699744601e-01,1.759873587553617211e-02,9.004918008267059557e-03,8.708534706175814419e-03,4.984168335795402527e-02
-2.421218730798000707e-01,-2.733723533023467711e-01,-2.895167129439865095e-01,4.328485687603174890e-03,-7.932517264408008766e-04,-9.882167515825681942e-04,4.245911911129951477e-02
-2.890118256809828812e-01,-2.358229808091036883e-01,-2.817902098605131744e-01,-1.419537024367703223e-02,6.257527139319346565e-03,-2.892477925122323434e-02,7.569028437137603760e-02
-2.661918553517388375e-01,-2.811164650900516704e-01,-2.571089250220724431e-01,-1.065084073492561338e-02,-1.727550024260570902e-02,1.417951557771113258e-02,4.774545878171920776e-02
-2.776112841229737005e-01,-2.678033759775862443e-01,-2.596804794910840264e-01,-3.557917415049724041e-03,-7.203677671392320989e-04,1.882904440085181319e-03,1.708842441439628601e-02
-2.772510772333865448e-01,-2.658374312251855498e-01,-2.602938976081940470e-01,-7.479612686888383044e-03,-3.740954820375389477e-03,3.322591590425825157e-03,2.161506190896034241e-02
-2.795504136197198286e-01,-2.579796679259614978e-01,-2.660158404249397535e-01,-9.204458513632714917e-03,-7.829037765456396680e-03,1.069246328057714066e-02,3.372780606150627136e-02
-2.782330052465273318e-01,-2.797253640064483182e-01,-2.452180870815308111e-01,-6.343910119806983258e-03,-6.808597093883306077e-03,3.871721909574016643e-03,3.802971541881561279e-02
-2.740171873138411707e-01,-2.780590447391758091e-01,-2.531083569140314959e-01,-4.800141565635073458e-03,-2.592898172075536276e-03,4.011585888593217908e-03,2.599227242171764374e-02
-2.448219838884532762e-01,-2.914628529807375967e-01,-2.711494100054013812e-01,-4.001332541365116430e-02,-2.942092005183336023e-02,2.786101728070066244e-02,1.066266819834709167e-01
-2.681871570124579884e-01,-2.591339529367548411e-01,-2.764972019526610314e-01,-1.471286852135837405e-03,-3.769624588157907859e-03,1.328480926195427150e-03,1.675317063927650452e-02
-2.685230109427348966e-01,-2.685999674392984260e-01,-2.677898257150071459e-01,1.132908010661843334e-08,-3.044851187520472135e-04,-2.461371649563534863e-04,1.029461156576871872e-03
-2.680448759919721313e-01,-2.681225097577550343e-01,-2.681404881417998598e-01,8.282699914643130686e-04,-3.062168457407083116e-04,-2.478824319614778135e-04,1.591063453815877438e-03
-2.685316086903469790e-01,-2.680301261096388887e-01,-2.683362305108105139e-01,3.578318189878771055e-04,-1.709651161085272278e-08,-3.160516999689965290e-04,9.356684749945998192e-04
-2.673808861111768853e-01,-2.682960389849160521e-01,-2.691022693180554759e-01,3.543893060622756597e-04,-1.333605300154553090e-04,-5.369867190610009937e-04,1.876307767815887928e-03
-2.696271811937482332e-01,-2.685496366870592788e-01,-2.662308790655813495e-01,1.552957759895984453e-03,-4.225336975482793392e-04,-8.635507534657240955e-04,4.363954532891511917e-03
-2.681647338319990692e-01,-2.692731785433474800e-01,-2.665319343742258429e-01,1.019687644448534275e-03,-9.712296535841697439e-04,-3.167667415938002669e-04,3.457560436800122261e-03
-2.750064236027898179e-01,-3.076109890485019815e-01,-2.333528677327908196e-01,1.444298403780636814e-02,4.700342196517457577e-02,2.647380864928110950e-02,1.162433847784996033e-01
-2.441435843725169030e-01,-3.496634057585282229e-01,-1.893806903532154196e-01,7.173987234873967223e-03,1.069613928718835955e-01,1.139069845360968052e-02,2.340466529130935669e-01
-2.403252881961047971e-01,-3.289159261591833583e-01,-2.396952768080954921e-01,6.768597687501740762e-03,1.262882221837514085e-01,5.996979255935780406e-02,2.582193315029144287e-01
-2.507550704768571337e-01,-3.311475320038078651e-01,-1.969287043904234813e-01,1.691192134447153106e-02,1.022267600536470172e-01,2.342465247358165373e-02,2.180425971746444702e-01
-2.739927297193091582e-01,-2.898144869167048610e-01,-2.419575575830015812e-01,6.256301654038419480e-04,3.925355644322124464e-03,-6.951476980149328723e-05,4.278839752078056335e-02
-3.421818808298248138e-01,-3.683671739964875513e-01,-1.258160789391234158e-01,9.344640330034926015e-03,7.013187533807893614e-02,4.085789249141374979e-02,2.705382406711578369e-01
-2.955928883231754845e-01,-2.775294170426486073e-01,-2.304315869839459185e-01,5.265730503216161165e-03,1.816512637383066626e-03,9.926518958716259652e-03,6.151369959115982056e-02
-3.689603504246156129e-01,-3.010883680946859764e-01,-1.488036413608839481e-01,2.616111491697130018e-02,3.865251561632905564e-02,6.616287249373231649e-02,2.404182851314544678e-01
-3.100762203614139678e-01,-2.639431643370001024e-01,-2.222209133272450843e-01,-4.050550466255571245e-04,-1.091404869842314308e-02,6.951090919922496558e-02,1.436903625726699829e-01
-3.286810741975701999e-01,-2.587109744396505762e-01,-2.329254649345687267e-01,-1.298100553888017691e-02,-2.254070719624047883e-02,6.506676978302856906e-02,1.486463844776153564e-01
-2.949321560781640872e-01,-2.822766772535691970e-01,-2.257068579657543761e-01,-4.042916890108690445e-03,-6.823878556625423072e-03,1.733796370464455588e-02,7.188025116920471191e-02
-2.947576436185104232e-01,-2.327633599786656515e-01,-2.785792216146916744e-01,1.019439479414726256e-03,3.755191957422261326e-04,-9.615607792805533002e-03,5.816341936588287354e-02
-3.446150131115425785e-01,-2.440407711152797476e-01,-1.936485027160931571e-01,5.999049002610217819e-03,1.166265353180062463e-02,1.112164355917983904e-01,2.352573722600936890e-01
-3.336851335224517712e-01,-2.990968484855457410e-01,-1.896173133176239922e-01,-1.831259138121100333e-02,-2.473885635168819250e-02,1.243876069058274525e-01,2.573475241661071777e-01
-3.266122955809488415e-01,-2.363138176833760873e-01,-2.126170163541753477e-01,-2.818348506212669385e-02,-4.502145805424649649e-02,1.196369747915726756e-01,2.495152801275253296e-01
-3.074079315597940121e-01,-3.279005233198576397e-01,-1.731904831758600549e-01,5.792967675218674284e-02,4.770039359279971969e-02,9.922569426166985562e-02,2.600297629833221436e-01
-3.307416885203151025e-01,-2.666687171875810614e-01,-2.084007691275431839e-01,-1.489109428689175049e-02,-6.253356007485437462e-03,5.865746314205419476e-02,1.494608372449874878e-01
-3.021504113276048953e-01,-2.181432298426061456e-01,-2.750792273215381112e-01,-4.005970852149901614e-04,-3.470046172266457027e-04,-3.886499405223428627e-02,1.002406477928161621e-01
-2.619019149232877930e-01,-2.807297526269187937e-01,-2.615849051294433791e-01,-4.905086655243133531e-04,2.712046336532683522e-04,-7.176670815464115082e-04,1.905371807515621185e-02
-2.613417037347347538e-01,-2.811953990088459920e-01,-2.617252536621257342e-01,-6.544944364801035105e-04,7.929956832716037992e-04,-1.436746946493871373e-03,1.990140229463577271e-02
-2.634949840486788819e-01,-2.805677835352233807e-01,-2.610581298255376659e-01,-1.729539607119296449e-03,5.165309665408336593e-04,-6.765645766957986956e-04,1.871283538639545441e-02
-2.613409536411193113e-01,-2.824579236181299358e-01,-2.622176891664421139e-01,-2.309306005646024132e-03,3.656508469912256830e-03,-2.487027847339204605e-03,2.242422476410865784e-02
-2.652060650357851435e-01,-2.844290633324664808e-01,-2.556542450060064198e-01,-1.870360041024724581e-03,1.635810160154572675e-03,-7.758201029398374086e-04,2.578184567391872406e-02
-2.692212890205032960e-01,-2.826148968104473802e-01,-2.521078429826719702e-01,-4.198387427214472604e-03,3.192479427124140547e-03,-1.733493708855419688e-03,2.817693538963794708e-02
-2.609582063088153325e-01,-2.702377587212667631e-01,-2.712447903638172675e-01,-3.007464484347338769e-03,2.923999324981977569e-03,-4.710892026788236937e-03,1.469116657972335815e-02
-2.735308347202903834e-01,-2.410929659501662992e-01,-2.856819237649840804e-01,1.463763373794975745e-02,-8.025565517729531251e-03,-4.643718767086781052e-03,4.994719475507736206e-02
-3.532718152912882048e-01,-1.472520285533713835e-01,-3.141522065751126691e-01,-2.032507220211357893e-02,4.081209261157554141e-02,-7.804162210158124835e-02,2.458104491233825684e-01
-3.088238861869890828e-01,-1.506795071372254435e-01,-3.224987066351430176e-01,6.192197466276549989e-02,-9.463739517038988538e-03,-3.446574417749821706e-02,2.066266834735870361e-01
-2.665866190896022392e-01,-2.397497153554432603e-01,-3.089285034130800911e-01,5.276131397959689384e-02,-1.362160919742377678e-02,-1.419922391905392711e-02,1.147264018654823303e-01
-2.753574238031321619e-01,-2.388503853420892997e-01,-3.010213332385962004e-01,4.330417924536506674e-02,-2.057613423118444251e-02,-3.524008264407275243e-02,1.164035722613334656e-01
-3.209806800681606065e-01,-2.027752271723762822e-01,-2.908897328696501972e-01,1.001656958406661607e-01,-2.714985774967808990e-02,-5.523135527444098664e-02,2.297464460134506226e-01
-2.823448406338185945e-01,-2.669338746834384879e-01,-2.677149836624889701e-01,4.045141496211598214e-02,-3.710432231639682055e-02,-3.907857984185193756e-02,1.176716610789299011e-01
-2.604382287927475281e-01,-2.639383511135376947e-01,-2.805945781278379458e-01,-3.322348522641481341e-04,7.587030230421549929e-04,-1.848600619835196347e-03,1.898129656910896301e-02
-2.908782447400829474e-01,-2.159479732701170274e-01,-2.972141600732836619e-01,-8.980959573657850553e-03,3.060882693725001068e-03,-4.163973654784079888e-03,8.032146096229553223e-02
-2.633720633502931729e-01,-2.610632833071069858e-01,-2.803475512222144417e-01,-1.386663634535857236e-03,6.532650046455077070e-04,-5.812607341650688009e-04,1.845948770642280579e-02
-2.607336918973631734e-01,-2.589096691628192115e-01,-2.841174191201501498e-01,-3.547848315533219925e-03,9.104300876951380937e-04,-8.827666875810769248e-04,2.520643547177314758e-02
-2.682056324707819406e-01,-2.670106756711629892e-01,-2.692133165409167361e-01,-2.942236433361910468e-04,8.040454161156086353e-04,-3.490918580660050722e-04,2.492439234629273415e-03
-2.617713419492385674e-01,-2.601630978928952120e-01,-2.832811251096243876e-01,-9.323898636751813337e-04,7.047338188052148502e-04,-7.963007783304670286e-04,2.249111980199813843e-02
-2.547522593231045240e-01,-2.654983194106393940e-01,-2.841175577784226802e-01,-1.883421440979877754e-03,1.792806413959177787e-03,-3.095078319351213247e-03,2.666946128010749817e-02
-3.109244907282521786e-01,-2.948241620363459270e-01,-1.898965086121566226e-01,4.154171798140360999e-02,5.022921207976840940e-02,6.918115852554254652e-02,2.001563459634780884e-01
-3.322293687644559679e-01,-3.217456143045657746e-01,-1.654570435655542682e-01,-4.305799845734356590e-03,4.400266898723591280e-02,1.183411532090180851e-01,2.721263170242309570e-01
-2.833487321103548839e-01,-3.846277800581211492e-01,-1.473637932159220232e-01,1.045409481513989020e-03,7.060536357467371571e-02,3.386202597685570442e-02,2.468204051256179810e-01
-3.337755209009204971e-01,-3.103386355332310997e-01,-1.596783065152715952e-01,7.848558934736722323e-03,2.128109904961821008e-02,8.102003980915759018e-02,2.191233187913894653e-01
-2.903860075093254722e-01,-2.748540355177657157e-01,-2.402828316344243764e-01,4.680458338269684587e-04,6.452668777162566885e-03,1.995435424312985706e-02,5.738872662186622620e-02
-2.950423548014630692e-01,-2.448746081064304136e-01,-2.647909729083854358e-01,7.127122665651221267e-03,1.197912397293438361e-02,1.777303599388905392e-02,5.869270488619804382e-02
-2.901560771037079434e-01,-2.590747546388202927e-01,-2.558240417901686548e-01,6.768709422234361981e-04,-5.629716901787604547e-03,-2.815979650264048215e-02,5.960730090737342834e-02
-2.735429808656205664e-01,-2.889755524130679376e-01,-2.429540052095964797e-01,8.993708267593929651e-04,-3.366632624051402612e-03,-5.586504296469191160e-04,4.102781787514686584e-02
-2.460316116791040064e-01,-3.226576297007223704e-01,-2.485293082460401370e-01,8.453709276244376555e-03,-5.403480917335319600e-02,-4.294183082286457190e-03,1.213070228695869446e-01
-2.704619794848037717e-01,-3.092858062526652185e-01,-2.152794792450850592e-01,7.558130245282538781e-03,-4.316207019224706926e-02,-7.953633523880728612e-03,1.124492958188056946e-01
-2.844774720732128337e-01,-2.934737001473279316e-01,-2.275770119240356770e-01,3.656353823199274579e-03,-6.579394394241464689e-03,-1.068217501895481333e-03,6.327621638774871826e-02
-2.728272578672973347e-01,-2.982435496745274861e-01,-2.313808432924904512e-01,2.605968535235094960e-02,-3.320688464621019548e-02,-3.896560604245558751e-02,1.154018044471740723e-01
-2.756901175023822592e-01,-2.955983891852176915e-01,-2.333932174780564417e-01,3.193333521332772373e-02,-3.750863065298477156e-02,-2.978785131850412993e-02,1.138827428221702576e-01
-2.447136910166756163e-01,-2.915294725687896937e-01,-2.656702260848795016e-01,4.131441086505417866e-03,-2.504926873644098412e-02,-4.482849443055321285e-03,6.036297604441642761e-02
-2.851160739568447400e-01,-2.930294519232801709e-01,-2.283418540639935157e-01,-1.390020407256075709e-02,2.402125686505848443e-02,-1.511161139098209788e-02,8.204267919063568115e-02
-3.866732474927784269e-01,-2.113303359576801377e-01,-2.144481150060047192e-01,-7.835373855949477606e-03,1.979823642309014309e-02,-1.146292296501073560e-01,2.664354443550109863e-01
-3.144688182545894994e-01,-2.868653563510090709e-01,-2.099877504967535835e-01,-3.146054521677036503e-02,4.231357404883184792e-02,-1.326976933651126678e-01,2.645011246204376221e-01
-2.886833664255825660e-01,-2.894778925766766653e-01,-2.237134021228953662e-01,-6.318588720325852767e-03,9.405044153683006850e-03,-7.159126673800969912e-03,6.937035173177719116e-02
-2.881963357142664495e-01,-2.560220521417777007e-01,-2.634056229129984050e-01,1.995696568085044646e-03,-2.671137795089542025e-03,-1.217857671439242888e-02,3.647529333829879761e-02
-3.791461200736282455e-01,-3.295472721740667077e-01,-9.716719374472795878e-02,-1.857965769568802397e-02,2.418187667335151489e-02,-2.377051155597919782e-02,2.692050337791442871e-01
-3.156168107673344991e-01,-3.085983382950839848e-01,-1.911421716258711045e-01,-1.207136148844047477e-03,-3.267791586709451780e-03,-2.676675511797099033e-02,1.298281848430633545e-01
-3.288918924834751678e-01,-2.180456165725619677e-01,-2.313812559008562586e-01,-4.985258861541255054e-02,4.048834201784159981e-02,-1.195416060512061174e-01,2.573536038398742676e-01
-2.868563681295390189e-01,-2.653040397243422999e-01,-2.498098543851905162e-01,-3.847858348552542739e-03,2.033373468414876109e-03,-6.660683821229396694e-03,3.504888713359832764e-02
-2.128892905375390499e-01,-2.360024393239421037e-01,-3.626968233782370543e-01,1.268296586614481025e-01,1.614649481240926915e-02,4.775114379507680584e-02,2.745795249938964844e-01
-2.887733394355962990e-01,-1.948158796358385458e-01,-3.045820470450878448e-01,7.224552249440704954e-02,3.307093027196975760e-02,5.537009596043250548e-02,1.967234462499618530e-01
-2.666340476305844032e-01,-2.319542966684906005e-01,-3.020164962790374830e-01,7.605451755478803699e-02,8.387697345953608330e-02,6.313021188197656675e-02,2.325872629880905151e-01
-1.966771105407493503e-01,-2.635746149499527125e-01,-3.150756108250334364e-01,1.007412102064309811e-01,6.422302405708150974e-02,4.352154416518296681e-02,2.430544346570968628e-01
-2.528644434461918000e-01,-2.739096481764350943e-01,-2.783081600863084315e-01,2.097224686535527176e-03,3.026574050982517011e-03,4.871679504718649106e-03,2.582034841179847717e-02
-2.044256244787030774e-01,-2.815995055085511733e-01,-3.247453558964943365e-01,4.344403954958458297e-02,7.082642030126382396e-03,1.863582367051972929e-02,1.341701596975326538e-01
-2.554027983778643929e-01,-2.775263765529473736e-01,-2.711306092704698911e-01,2.587842038247819328e-03,-3.790228924400033603e-03,-6.315680618850012633e-03,2.391052246093750000e-02
-2.570912471019554113e-01,-2.678907449518869166e-01,-2.787851635459115962e-01,1.108147643465113609e-02,-7.857851090988778042e-03,-7.061342772379540500e-03,3.249914199113845825e-02
-2.562626939415793004e-01,-2.802569271942753071e-01,-2.717279209632831871e-01,6.274509858569812630e-03,-1.136561417715777457e-03,-6.344283262195809375e-03,2.620217017829418182e-02
-2.511005406095668802e-01,-2.749099380896968814e-01,-2.775324836719968435e-01,2.626588241240360600e-03,-4.741757872342251476e-03,-5.209399208925632845e-03,2.838608063757419586e-02
-2.600732763385434354e-01,-2.667586245423609337e-01,-2.789730768323009369e-01,1.317457170669063477e-03,-1.384918922986134527e-03,-3.977113621321102209e-03,1.827451772987842560e-02
-2.570916128731132733e-01,-2.776101720115681792e-01,-2.687613333743184008e-01,2.236958583902261006e-03,-2.526913141010734328e-03,-4.813269869856885534e-03,2.052847668528556824e-02
-2.611254732019592795e-01,-2.770748015593892943e-01,-2.663419807902650538e-01,1.340762684394811123e-03,-1.647775957662685241e-03,-2.499054957485158119e-03,1.518774125725030899e-02
-2.639299828861365049e-01,-2.614520080265505531e-01,-2.786111069474039859e-01,2.362217225051426069e-03,-2.422836171718850771e-03,-1.332649582656171778e-03,1.725496165454387665e-02
-2.434470694659479628e-01,-2.893100263882223411e-01,-2.730034313834999171e-01,5.808582803595943329e-04,-3.229256218911939150e-03,-1.579221059229285332e-04,4.066716879606246948e-02
-2.671633167360507599e-01,-2.863154052445743281e-01,-2.528412197812188178e-01,-3.027092716463168198e-03,-1.201995685591701439e-02,4.546877143206990921e-03,3.700233995914459229e-02
-2.123048702429891910e-01,-3.173031188789489643e-01,-2.860928518100009921e-01,-2.324594050879927321e-02,-4.521583233653514444e-02,2.343232078044134303e-02,1.346233487129211426e-01
-2.672773137464433679e-01,-2.699834534979802525e-01,-2.623541012246133897e-01,-1.634600741772828866e-02,-1.698246399289961642e-02,1.796723498952587997e-02,5.177003890275955200e-02
-2.648580978724481283e-01,-2.499240257893802497e-01,-2.866089700236669202e-01,1.696860412109215191e-02,-6.869663273898635354e-03,-5.957007927510217342e-03,4.618215188384056091e-02
-2.681551622274758739e-01,-2.503755768573863172e-01,-2.851051609679002841e-01,4.828090279751721947e-03,-5.013417299967093746e-03,-1.556045830415231845e-03,3.251735493540763855e-02
-2.737584134248763346e-01,-2.473462094805266853e-01,-2.842281896933455121e-01,3.002722316419935596e-03,-4.226803101160649632e-03,-1.347251188153826117e-03,3.420295938849449158e-02
-2.773869221424596354e-01,-2.421859172591420972e-01,-2.839281492343099789e-01,5.720201683162663871e-03,-4.970007122012350120e-03,-2.231502863515613840e-03,4.122329503297805786e-02
-2.905252992946019686e-01,-2.779307501278167059e-01,-2.349877110789310442e-01,2.365818104932859278e-03,1.258225160716162786e-03,8.079549573449185812e-03,5.254477635025978088e-02
-2.943611834379407100e-01,-2.773932570514254792e-01,-2.318604025500476395e-01,-5.382378033498141055e-03,-6.231312479081569690e-04,1.003568411290393578e-02,5.936302989721298218e-02
-2.946461681058832327e-01,-2.753417175212691248e-01,-2.325957083692666294e-01,2.620585215784534700e-03,1.947419320562209302e-03,1.109198179039448499e-02,5.853329971432685852e-02
-2.837578911999119602e-01,-2.778408124728333206e-01,-2.422936507267195450e-01,4.787263872478300479e-03,2.467105276890335566e-03,5.752377489794311370e-03,4.117318242788314819e-02
-2.965296140162447247e-01,-2.764602087649928319e-01,-2.276510234368109009e-01,8.413605891660271008e-03,2.246703705917445920e-02,4.097743571178195238e-02,1.026099845767021179e-01
-3.757382937046966909e-01,-2.803888795782820131e-01,-1.533051303755010031e-01,4.983889728543271225e-02,3.271234224249817274e-02,1.002075184232991134e-01,2.795457541942596436e-01
-3.178348397805612624e-01,-2.988965739175157843e-01,-1.913955794373357611e-01,6.311999850497541746e-03,1.097733337194427153e-03,2.232947636505253769e-02,1.247796416282653809e-01
-2.845721602397250916e-01,-2.408667748371696726e-01,-2.782757979854913466e-01,-2.001548194471823323e-03,5.378067185025877696e-03,-4.135863023327576021e-03,4.271680489182472229e-02
-2.833647727501173441e-01,-2.299624190397177026e-01,-2.941276700369909181e-01,-4.555966856604919644e-03,-6.496430990709943423e-04,-2.995097322783096642e-03,6.027324125170707703e-02
-2.808422737605034136e-01,-2.243645671231704330e-01,-2.956761388958410453e-01,-2.029989558147718073e-02,-4.691589412703764742e-03,3.755794609188488516e-03,7.478078454732894897e-02
-3.071374496142992294e-01,-1.850026606240761373e-01,-3.075459654094414574e-01,-1.126472374308014378e-03,1.001342431144595837e-03,3.882485577087145187e-03,1.225520446896553040e-01
-3.727796878251612434e-01,-1.527402625084534060e-01,-3.105884017785300877e-01,-5.992436672613345172e-02,2.395031791132221435e-02,-1.035212767350398438e-01,2.885206639766693115e-01
-2.370593796485245541e-01,-2.749328890909724654e-01,-2.913858570565633910e-01,5.505265417832113164e-03,4.737794427861082534e-03,5.796746857791730198e-03,5.086556077003479004e-02
-1.119012090475613175e-01,-3.223593469677560885e-01,-3.937558962570232302e-01,7.039790530639732091e-02,2.051231048714602032e-02,3.024599024865896879e-02,2.886007726192474365e-01
-1.322326210299633598e-01,-2.782823313407266075e-01,-4.053182892362881540e-01,1.104553381239036236e-01,-1.794689988578088841e-02,2.945331850254471681e-02,3.101485669612884521e-01
-1.287610877937430121e-01,-3.365336417389219736e-01,-3.728585679327401925e-01,9.437512981181095384e-02,-4.030748189857207009e-02,-5.495422052429395701e-03,2.893456816673278809e-01
-2.041022134905957075e-01,-2.971848938297040887e-01,-3.011053658304831404e-01,6.254455388497580370e-02,8.243787206355743247e-02,7.491549358271214210e-02,2.408425807952880859e-01
-3.057105029817667741e-01,-3.213578904713081386e-01,-1.876427055070075123e-01,-7.632573302777601737e-03,-3.499441807732368154e-02,-4.830677835426686398e-03,1.412476599216461182e-01
-2.655785716967358212e-01,-2.734449634275857299e-01,-2.643842012377523032e-01,2.411705159609185342e-03,-1.456008658404644128e-03,-8.519143838430189497e-04,9.934190660715103149e-03
-2.684119846048911295e-01,-2.719048656595996483e-01,-2.631286441020574962e-01,4.672818789880337810e-03,-2.393588921422514990e-03,-2.814919070128757764e-03,1.284650899469852448e-02
-2.577170375334402186e-01,-2.865612754653369398e-01,-2.574582299731392188e-01,2.776075391026869982e-03,-9.901865111529354474e-03,-2.807035965421919316e-03,3.435725718736648560e-02
-2.638707012746817626e-01,-2.923943238417873181e-01,-2.430013672422292603e-01,4.150019304471565598e-03,-2.208388415959481460e-02,-6.259240865292987552e-03,5.896347388625144958e-02
-1.938205396663412738e-01,-2.994113169191498502e-01,-3.041431742680651973e-01,1.543728387312354525e-02,-9.172748603400362327e-03,-3.797981601997867107e-03,1.126146689057350159e-01
-2.786727200266538862e-01,-2.834557481389722300e-01,-2.426967391452365119e-01,6.148587897340780303e-03,-4.692938712674078403e-03,-3.129060650503753642e-03,4.120779410004615784e-02
-1.713517304341899417e-01,-3.151217678925335997e-01,-3.251072261124131613e-01,-1.906195631263956150e-02,2.544138146633278738e-02,2.546312139980922047e-03,1.589228063821792603e-01
-2.286194582988559931e-01,-3.556685241139265763e-01,-2.260017146115492759e-01,7.655396632088837250e-02,-1.069910400031718889e-01,-1.993898585671809165e-02,2.638112306594848633e-01
-2.360179019211557927e-01,-2.872701690923055162e-01,-2.787714150405475877e-01,6.090810015078283561e-03,-6.921421720747414526e-03,-7.311857519499765853e-03,5.175756290555000305e-02
-2.355828606091895927e-01,-2.919565791420205003e-01,-2.758413294184820508e-01,1.557036812347283765e-03,-8.270167438300363161e-03,-2.524577170166083118e-03,5.254333093762397766e-02
-2.180602866642009086e-01,-2.891253202619245566e-01,-2.953603858114754455e-01,1.024957669622625182e-02,3.179718377600457518e-04,1.568688181856070507e-03,7.651834934949874878e-02
-2.663082748068470451e-01,-2.885128348096340778e-01,-2.522409200675154173e-01,1.829389422433031105e-03,-1.169404072524866597e-02,-3.441350578479480601e-03,3.819833695888519287e-02
-2.918682280087466774e-01,-2.698174879985822949e-01,-2.399675811532214764e-01,-1.276180107051118427e-03,-2.404552839591354678e-03,1.402218885737270722e-02,5.145446211099624634e-02
-2.861638764259456513e-01,-2.610188930997498491e-01,-2.576168175546809658e-01,4.007484293141551682e-04,-5.457500036618829825e-04,2.765979240668842067e-03,2.745390124619007111e-02
-2.949960329891365696e-01,-2.212981542376920019e-01,-2.836637741647095035e-01,-5.930599114961780487e-03,-6.309620604280230180e-03,3.267958621701094746e-02,9.029645472764968872e-02
-3.246178281754423245e-01,-2.329217487795496033e-01,-2.477531924235839289e-01,-8.728273649735116338e-03,-1.460609405537522526e-02,5.394860918635352443e-02,1.298771649599075317e-01
-2.900400297740383659e-01,-2.733646837952993236e-01,-2.411934577089582810e-01,1.325023327323921482e-03,5.855068330070289841e-04,4.305326201584433986e-03,4.371983930468559265e-02
-2.674525317061025587e-01,-2.660339915700872249e-01,-2.687172889479164106e-01,-5.978163014716775421e-03,-5.022396745676620429e-03,4.853499884279160147e-03,1.609236001968383789e-02
-2.870981506847080089e-01,-2.677493298158674651e-01,-2.493859158088401473e-01,-1.699797366597514351e-03,-1.186169001018454790e-03,4.254084739799978213e-03,3.367614746093750000e-02
-2.903272604981600447e-01,-2.602920191574361608e-01,-2.572885565213388626e-01,-1.195171230651540482e-03,-5.737412182793157457e-04,1.813274247114667406e-02,4.464311897754669189e-02
-2.666726904123650210e-01,-2.665725612013175594e-01,-2.711892079673486888e-01,1.110950534078133410e-05,5.107420433989254141e-04,5.134629705975450554e-04,4.736566916108131409e-03
-2.709036934717499734e-01,-2.676660743073027704e-01,-2.662691311765050250e-01,3.483953496070156335e-04,7.182037544868975949e-04,8.131805920907591700e-04,4.566374234855175018e-03
-2.733814924824249926e-01,-2.647987145768490036e-01,-2.660109673974195288e-01,1.780260746404712215e-03,2.972658511679110958e-03,1.991107399414450072e-03,1.061323471367359161e-02
-2.711654461378653624e-01,-2.667083517194559494e-01,-2.665246622607134741e-01,9.513856236073444869e-04,7.195420510350796894e-04,5.458019104556258768e-04,5.087286233901977539e-03
-2.692873366234956323e-01,-2.634807039608886292e-01,-2.720409641247182875e-01,7.030577036480391284e-04,2.661673485617935004e-03,5.414086752489009067e-04,8.994692936539649963e-03
-2.716166982546182052e-01,-2.635182693595279346e-01,-2.693839040490406678e-01,8.917166636236095950e-04,2.855211578858581154e-03,9.437569445186367190e-04,9.055495262145996094e-03
-2.665909914309212980e-01,-2.689078637644116143e-01,-2.689500289514297204e-01,8.868416666039708905e-04,6.866471223879829682e-04,1.258296992484978210e-03,3.740483662113547325e-03
-2.661835379702907622e-01,-2.668379693808823894e-01,-2.709163269795464846e-01,3.873790424041353574e-04,1.578692855516082702e-03,6.058276311091525396e-04,5.362682975828647614e-03
-2.643532514825135959e-01,-2.714092595211557435e-01,-2.679933973028065797e-01,2.376132071588461271e-03,2.078872898536210986e-03,3.045529470773734610e-03,9.750995784997940063e-03
-2.784559259031037515e-01,-2.342369296370550580e-01,-2.907846572352053571e-01,-9.613088576085412548e-03,-2.514763538578538692e-03,1.592396353775563361e-03,5.437182262539863586e-02
-2.275670920242373607e-01,-2.950366889025166639e-01,-2.842933042569857904e-01,3.390218593068663371e-04,4.018083429137674599e-03,-9.854173199136991978e-04,6.320133060216903687e-02
-2.889252819860463894e-01,-2.172712054281594751e-01,-2.973820888312448396e-01,-1.000248213369817063e-02,1.254732274195607565e-03,8.959754241777378829e-04,7.822448015213012695e-02
-2.831843852617326185e-01,-2.298662673541919110e-01,-2.947163078581547246e-01,-4.575479311655288733e-03,1.229318991466301497e-03,1.390832229995609846e-03,6.052940711379051208e-02
-2.773397268179415565e-01,-2.323716297112870255e-01,-2.948283820786299914e-01,-9.524305830838361922e-03,4.938995178541074130e-03,-5.119552529717697528e-04,5.882617458701133728e-02
-2.701158878915468353e-01,-2.187949154665503326e-01,-3.072194546488379863e-01,-4.741063229093320230e-02,-1.693468911061294930e-04,-6.478224738749822041e-03,1.130663529038429260e-01
-2.776139113915745416e-01,-2.345642171508431073e-01,-2.911384194827700833e-01,-7.810192105499319873e-03,2.538973210995472754e-03,-1.430620338250213064e-03,5.316851288080215454e-02
-2.703993975699741648e-01,-2.481926751032015321e-01,-2.887734092144790821e-01,-1.065810763690442850e-02,2.799895821733585852e-04,-3.535110852564873462e-04,3.975129127502441406e-02
-2.178637247915051756e-01,-2.886993810691778073e-01,-2.981646011491562165e-01,-7.522833161500623589e-02,6.835588161027918164e-02,-9.125236969979488855e-02,2.485039830207824707e-01
-2.240221927040206840e-01,-3.310693761172462390e-01,-2.261664105028086125e-01,-1.942682255313535680e-02,1.032105365186137824e-01,-1.177251544144018031e-02,2.115168720483779907e-01
-1.984044666984504934e-01,-3.023194885337769366e-01,-2.917452853871951857e-01,-5.524712771588236732e-02,7.010651363166817140e-02,-2.959030521598377678e-02,1.906294524669647217e-01
-2.120281615905231232e-01,-3.054091334883707320e-01,-2.881409448471832224e-01,-1.058992916597025803e-02,1.904325155140957140e-02,4.158253377157423124e-03,9.424396604299545288e-02
-2.210437762936156292e-01,-3.000611808933478231e-01,-2.781808793919305356e-01,-6.991372285450142511e-04,3.419713788082866940e-02,-1.095677034780131228e-03,9.223325550556182861e-02
-2.426776354256100776e-01,-2.947733572468726471e-01,-2.601133772037542702e-01,2.251662691781189819e-03,2.556641669980349793e-02,1.965563708515475488e-03,6.401067972183227539e-02
-2.345908826076955889e-01,-2.903984013395612962e-01,-2.791214710643035724e-01,-4.744708373588972300e-04,8.711432738442116339e-03,-1.725434315733227189e-03,5.338150262832641602e-02
-2.876258051935286497e-01,-3.090794254913370454e-01,-2.052911495885741400e-01,-1.400230632897584912e-02,4.831535120034610720e-02,-4.176819766557945263e-02,1.477521210908889771e-01
-2.100858852423631573e-01,-2.982684367572444040e-01,-2.950475541869308493e-01,4.774995140094755869e-03,2.968100503911001893e-03,4.801115434495114914e-04,8.716669678688049316e-02
-2.044700641400560570e-01,-3.138777149549498158e-01,-2.875323369151197017e-01,2.187838096682788794e-02,1.952403376381255454e-02,4.671588679646043393e-04,1.111842468380928040e-01
-1.880809187167324648e-01,-3.281560081025912678e-01,-2.908087550865880999e-01,1.087425012193194741e-03,2.045352966737860184e-02,-1.486245512944514308e-03,1.305742859840393066e-01
-2.152658366031495740e-01,-2.932049932446630924e-01,-2.902732681426891670e-01,1.556666173685280694e-02,1.825763086406040347e-02,6.207334302798738455e-03,8.773363381624221802e-02
-1.759265173517106651e-01,-3.282320627599117357e-01,-3.118981309134431501e-01,5.986859806482836867e-03,-3.976550416558783524e-02,4.884019674558218171e-03,1.609316766262054443e-01
-2.290923078364838217e-01,-2.793629484704034383e-01,-2.974088749344850902e-01,-2.655477930482922494e-02,9.466994480073346804e-03,-5.896347487782152043e-03,7.904817909002304077e-02
-2.084474072680135293e-01,-3.007177266980588515e-01,-2.996842056077940741e-01,-1.468121566482573056e-03,-9.501685785452739039e-04,-3.111388113655810111e-03,9.196593612432479858e-02
-2.761765927542239596e-01,-2.758158653039570751e-01,-2.446792942340504651e-01,-2.645776938177661977e-02,-3.328366978160893219e-02,3.767912562120486614e-02,1.032639667391777039e-01
-2.321731189831466591e-01,-3.115026064709207065e-01,-2.413266750685906237e-01,4.833552230323293064e-02,-8.772319231924922966e-02,-4.783176661057782914e-02,2.064206451177597046e-01
-3.090381672097962107e-01,-3.051588134280473485e-01,-2.008609529836978824e-01,-6.873110963586024323e-03,-1.279651762688339793e-02,4.711897539656339368e-02,1.363497972488403320e-01
-2.878716519106787608e-01,-2.776740710432843984e-01,-2.373121404791594946e-01,5.584239532339325789e-03,4.902624081045030453e-03,8.713461952824937476e-03,5.037957802414894104e-02
-2.893424191157634162e-01,-2.813719632145138538e-01,-2.332239989922408607e-01,-2.563012288815724304e-03,-1.163347213856029579e-02,1.166272671003409749e-02,5.999411270022392273e-02
-2.254285027862981683e-01,-2.923032773530699346e-01,-2.729052116880369971e-01,2.707753323417330660e-02,3.883572683069586723e-02,1.879329751076332100e-02,1.064662486314773560e-01
-2.842490848733614794e-01,-2.785600333210898616e-01,-2.404389310389757617e-01,-6.871803015174864949e-03,-2.595186894626246542e-03,5.918137273846747759e-03,4.437791928648948669e-02
-2.901565933037495437e-01,-2.846208513797217066e-01,-2.296818054862282132e-01,-3.110321232859338675e-03,-6.409325144482148906e-03,2.573520399616448587e-03,5.937340483069419861e-02
-2.773723263234174619e-01,-2.271523027436199160e-01,-2.966561936543949951e-01,1.825114403638543326e-02,-8.613616232531557315e-04,-1.550435215200469605e-03,6.979329884052276611e-02
-2.884388630811255405e-01,-2.040806614129391516e-01,-3.136540770218534946e-01,2.331128990821115451e-02,-2.119457792019845046e-03,-5.193893486445872940e-03,1.077212989330291748e-01
-2.850416088397506043e-01,-2.184797078153821182e-01,-2.993739126479172952e-01,3.087169437107985942e-02,1.287745205527732932e-03,3.101309130079487990e-04,9.194745868444442749e-02
-2.512198796163308545e-01,-2.352634528513833645e-01,-3.232825558412298905e-01,7.446339750563187032e-02,6.063260254373871797e-03,4.734195588559433898e-03,1.530013680458068848e-01
-2.542130502367261347e-01,-2.550248865780246899e-01,-2.918764591876437664e-01,3.444404091873497220e-02,-2.707029854330138263e-02,-2.031917415649456618e-02,9.156855940818786621e-02
-2.760599379078846893e-01,-2.234916056277988505e-01,-3.247320846028927677e-01,7.028498410034635102e-02,-1.463065448336664607e-03,-2.663861594639379063e-02,1.569911688566207886e-01
-2.773626339047976508e-01,-2.399036535363333611e-01,-2.867688651632765984e-01,1.925266816219789109e-02,4.573949302239690637e-03,7.333966215964056456e-03,5.639255419373512268e-02
-2.834756208301287828e-01,-1.814485004293989734e-01,-3.437673650582842022e-01,1.053492676287567653e-01,4.516729829183104700e-02,1.460257112199866980e-02,2.454615682363510132e-01
-2.958957305957626849e-01,-1.703598069210920940e-01,-3.224299020729986531e-01,7.157636717754028988e-02,2.183063004859498585e-02,3.791959872380654822e-02,2.022554576396942139e-01
-2.937894906320971389e-01,-1.626455885352279251e-01,-3.407476537286828755e-01,8.953050596888424695e-02,7.222798410523453231e-04,-2.860043984933646755e-02,2.281769514083862305e-01
-2.910333150051587769e-01,-2.521646008515145976e-01,-2.644924750195967733e-01,8.699330492565092790e-04,7.842189036534849859e-04,1.271334835852059621e-02,4.089728370308876038e-02
-2.875209901556060599e-01,-2.487593828591649625e-01,-2.668970463432104312e-01,-8.483779358760694432e-04,-2.202935113676379123e-03,5.769307521962042593e-03,3.528405725955963135e-02
-2.793693274080360500e-01,-2.595024301549851975e-01,-2.667228076277353699e-01,-5.354131161639931295e-03,-6.757973975363952383e-03,9.730078875442709288e-03,2.846778929233551025e-02
-2.752069910784697981e-01,-2.185847969147595438e-01,-3.194950521068735672e-01,-5.854709134174376772e-02,-3.496439626618328030e-03,-3.386839965210918998e-03,1.342742145061492920e-01
-1.996709692870780595e-01,-2.914671233240828663e-01,-3.266757918559834994e-01,5.826510805501752821e-02,1.955954637638648505e-02,9.261967832751190344e-03,1.564856320619583130e-01
-2.877961644766972027e-01,-2.570752458569023902e-01,-2.570621101445061951e-01,1.328228435923208646e-03,1.397181032923864642e-04,1.136305631770441124e-02,3.656346350908279419e-02
-2.849973147465422185e-01,-2.549069923309207342e-01,-2.652264231349403256e-01,-1.320517302167433221e-03,-2.364643373861879862e-03,1.890887035923074361e-03,2.709493413567543030e-02
-2.848404502143753736e-01,-2.596990824987006063e-01,-2.613271287350876215e-01,1.137455340687689321e-03,3.331840700633673124e-04,5.537880967217883275e-03,2.626835368573665619e-02
-2.891634029619729596e-01,-2.487071598080473900e-01,-2.663884481359319323e-01,2.272669267589258208e-03,3.598519450800906371e-04,7.684159767360540863e-03,3.777617588639259338e-02
-2.855093710639854399e-01,-2.547818676270435789e-01,-2.650210047760211407e-01,7.352384072246357771e-04,1.838254658122381348e-03,1.753324484752104891e-03,2.748414129018783569e-02
-2.856077077613010107e-01,-2.678580910335394138e-01,-2.501801689557832109e-01,-2.429759836367165280e-03,-1.342289973670926419e-03,4.482692792904655922e-03,3.201146796345710754e-02
-2.641113725076424945e-01,-2.658235333169522985e-01,-2.752019542514415607e-01,1.296173437935382096e-04,3.524545293079218034e-04,-1.676010351840862131e-03,1.076075062155723572e-02
-2.611793669410431562e-01,-2.658612242104806955e-01,-2.776529502803308791e-01,-5.110756658907031520e-03,4.882340482195812563e-03,-2.687226145205951888e-03,1.969026587903499603e-02
-2.645468061431924811e-01,-2.642782157757777584e-01,-2.755628360660239973e-01,2.566636665873310336e-04,3.568614750295578280e-04,-6.497852649500364657e-04,1.123522128909826279e-02
-2.676055369093163772e-01,-2.677565889424433077e-01,-2.693033641923515131e-01,-3.475537696352886709e-04,5.822775664520916895e-04,-8.675369926273297479e-04,2.507261000573635101e-03
-2.634796334561603226e-01,-2.631247320854058214e-01,-2.779948859156427532e-01,-3.501278340113537298e-04,1.717342553409934155e-03,-3.878644952554937591e-04,1.502121426165103912e-02
-2.635641725401700608e-01,-2.701900205036828484e-01,-2.713229304849847923e-01,-6.173462079030939131e-03,5.847934861675366421e-03,-6.485714425998058939e-03,1.989510655403137207e-02
-2.560134476992725894e-01,-2.693857618012939215e-01,-2.776348438053272139e-01,-6.247480402976836496e-03,3.731223865771543524e-03,-6.045720922496894932e-03,2.501373179256916046e-02
-2.707176045745738335e-01,-2.582648153165697513e-01,-2.752502651254888910e-01,-1.200226838155113874e-03,4.834411309275210740e-03,-1.451686103985870037e-03,1.768670789897441864e-02
-2.139953727653516879e-01,-3.001337074354082923e-01,-2.906833824927265719e-01,-4.117656526793641615e-03,9.829300260836695141e-03,-2.117468163446090384e-03,8.395979553461074829e-02
-2.090838682270156068e-01,-3.004984073335184580e-01,-2.946020121009917947e-01,-4.602833421808437755e-03,3.048612576947593890e-03,-2.328603440925731526e-03,8.921926468610763550e-02
-2.394566293979839000e-01,-2.807420663868891442e-01,-2.840528158158781569e-01,-3.189253471579009316e-03,1.561713217203807404e-03,-5.772733196635161657e-03,4.460872337222099304e-02
-2.216717876939708343e-01,-2.900610880706048778e-01,-2.926808334796209277e-01,-5.946302246300716465e-03,1.632952802303136051e-03,-1.290976568727811909e-03,7.058467715978622437e-02
-1.894704625408193399e-01,-2.979939344136861568e-01,-3.065278517091378774e-01,-2.894989471807474929e-02,3.418259012634903855e-03,7.764264322777286774e-04,1.238040924072265625e-01
-2.382562913909373470e-01,-2.873465013015299996e-01,-2.765225411712859960e-01,-4.556539782789815682e-03,9.262775495192727970e-03,-5.363754635783544826e-03,4.900662228465080261e-02
-2.121211228564289231e-01,-2.946446528568732459e-01,-2.970573771790361861e-01,-2.945465019848295292e-03,3.741222798415842765e-03,-1.025737370130567344e-03,8.417977392673492432e-02
-2.272130468901135403e-01,-2.849160254056861130e-01,-2.939943383750263650e-01,-3.687281772589878076e-03,2.552857193692101485e-04,-3.741721426184010653e-04,6.306582689285278320e-02
-2.324149412623864874e-01,-2.782501473945568904e-01,-2.944985432519535706e-01,-9.426940209109137964e-03,3.537815366078486028e-04,5.637733310341307147e-04,5.811674147844314575e-02
-1.087226041105810725e-01,-3.395337264056159654e-01,-3.412922055256276677e-01,-1.505353481818477376e-02,4.296223909817644543e-02,-6.454023070972828881e-03,2.449995875358581543e-01
-2.847843829119408587e-01,-2.618285145287788107e-01,-2.577885660290324399e-01,1.219256676719874307e-03,-6.367198625527635894e-04,-2.807706013351085519e-03,2.579455822706222534e-02
-2.899697950420628834e-01,-2.431852684413612353e-01,-2.727765765757523830e-01,2.492414128069944603e-04,-1.164070811010271215e-03,-4.167278173501574173e-03,4.166980087757110596e-02
-2.901265660242955402e-01,-2.366844378077780642e-01,-2.774775666054956069e-01,2.233787580780386556e-03,-3.439635956717786072e-03,-7.464049492162526389e-03,5.057338997721672058e-02
-2.857596942398780149e-01,-2.592507535174503053e-01,-2.580847054433098031e-01,3.171128457913494070e-03,-2.617534599385744516e-03,-8.153942498401286348e-03,3.138753399252891541e-02
-2.956814069318989824e-01,-2.248211314731602684e-01,-2.845038366919440120e-01,3.465730077453054586e-03,-1.004709922940093172e-03,-3.715003767671928338e-03,6.659232079982757568e-02
-3.013366314594783657e-01,-2.412894297477818362e-01,-2.620496899299372129e-01,-1.152062542326201229e-03,3.354279915167195005e-03,-2.144987257920992832e-02,6.486976146697998047e-02
-2.481463269015414808e-01,-2.875332355068487833e-01,-2.680034348658927867e-01,-3.741061338602532033e-04,-7.125863998203755406e-03,-1.351686574231053062e-03,3.635599091649055481e-02
-2.636556336065485895e-01,-2.811739317937535509e-01,-2.596966494766568823e-01,2.552185824059033034e-03,-2.626794459628255165e-03,-1.197170075093656125e-03,2.089161984622478485e-02
-2.654917740583416785e-01,-2.754639971992340342e-01,-2.634730935931635099e-01,2.703264706106160015e-03,-1.143614511436946007e-03,-9.299263732410313708e-04,1.233255118131637573e-02
-2.699363425086092616e-01,-2.703939603879714215e-01,-2.640881283016301984e-01,4.546366412693316622e-03,-5.240253217661158466e-03,-5.952071432241396072e-03,1.696342602372169495e-02
-2.832506688985473864e-01,-2.604572166815434797e-01,-2.613601043282731129e-01,6.153458311481043320e-04,6.553347251925707457e-04,4.622461731271615111e-04,2.242414094507694244e-02
-2.825389079597016018e-01,-2.533519749505310781e-01,-2.678387844908116100e-01,2.233644356407115533e-03,4.095909274578128471e-03,4.064449997592335488e-03,2.745497040450572968e-02
-2.830627735107897336e-01,-2.559831200957251585e-01,-2.662044301543103342e-01,7.784048777854538168e-04,2.633933227735324283e-03,1.977444331847337446e-03,2.439989149570465088e-02
-3.038129712984851682e-01,-2.501557589938575021e-01,-2.426770028846530480e-01,7.929080995213852109e-04,9.283512366159807176e-04,5.046355832893164445e-02,1.047878861427307129e-01
-2.785968847362076395e-01,-2.645388848714010921e-01,-2.615835923934718976e-01,2.796860341608669275e-03,1.160061758737422058e-03,1.165247560768220818e-03,1.671779155731201172e-02
-2.802221739201398720e-01,-2.637623761001265388e-01,-2.608464163483140696e-01,6.009571780178089894e-04,5.557543533438330258e-04,1.251010793336925116e-03,1.827919483184814453e-02
-2.753539349383365975e-01,-2.586292879163767933e-01,-2.701345363455100457e-01,1.510518590416457018e-03,4.235679850327600006e-03,2.425680070958802139e-03,1.726218499243259430e-02
-2.755713332991626685e-01,-2.634418989516661980e-01,-2.653509854660258682e-01,1.068627874035851452e-03,2.272411084727514290e-03,8.275331834214119360e-04,1.218948420137166977e-02
-2.761004406828432844e-01,-2.687320309249610073e-01,-2.612772740809063410e-01,4.914400628923332875e-03,5.166223985263878465e-03,6.851825434213840854e-03,2.140473574399948120e-02
-1.768103568872096409e-01,-3.950109378320082465e-01,-2.392112974773074607e-01,3.180965342826659603e-02,1.023906571072194377e-01,1.913376232259699980e-02,2.710624635219573975e-01
-2.831169929436209154e-01,-2.584692066424830736e-01,-2.645265639835598370e-01,-4.615064514255162210e-03,2.330608912137260326e-03,-1.085227256959910361e-02,3.046984784305095673e-02
-3.105809857394796758e-01,-2.409725976945333026e-01,-2.631019819814263694e-01,-1.847474813302931590e-02,1.124583134405832650e-02,-5.481810214688538629e-02,1.192186027765274048e-01
-2.885835347147819308e-01,-2.478189236014125552e-01,-2.658792306173171083e-01,-8.448416623343223001e-04,1.703595818969667712e-03,-6.820665352506347090e-03,3.744488209486007690e-02
-2.859405231639869926e-01,-2.495794021728922063e-01,-2.660021425199272649e-01,-2.590391168614529071e-03,2.799041681022598933e-03,-7.027977407206481564e-03,3.444560989737510681e-02
-3.188886478961348026e-01,-2.342486044980880422e-01,-2.661622304726670718e-01,8.429849374988529487e-03,-9.965337504650980185e-03,-5.861678287812732702e-02,1.276720017194747925e-01
-3.006287841510942305e-01,-2.063618639185981207e-01,-2.979572700023693788e-01,-5.455300775634659531e-03,-4.513756014951188569e-03,-1.771758094863651323e-02,9.865948557853698730e-02
-2.675159963425601806e-01,-2.667705693786835974e-01,-2.708153297738430942e-01,5.089132695863110090e-04,-3.958872056887239059e-04,-5.622563679074662297e-04,4.012010525912046432e-03
-2.654527424907690003e-01,-2.666737396484078482e-01,-2.724980650104613100e-01,4.920374414920015592e-04,-3.888655034735115910e-04,-1.205972367973512588e-03,6.933119613677263260e-03
-2.678140897877877569e-01,-2.676477942827206746e-01,-2.691262768557291518e-01,1.726694923030436236e-04,-7.318292028661411248e-04,1.414413316704079789e-04,1.929736579768359661e-03
-2.680475845002069923e-01,-2.689055441745124564e-01,-2.673500695052088982e-01,6.575986389133100770e-04,-1.398968203294553012e-04,-2.745695499546865065e-04,1.844789483584463596e-03
-2.743996866034293935e-01,-2.515067599070220927e-01,-2.788764081015533414e-01,2.260455534102847209e-03,-5.024032441232784141e-03,-3.632782750964106203e-03,2.787930145859718323e-02
-2.635970424130111844e-01,-2.685381761224487351e-01,-2.730554139557359039e-01,8.060250298062349899e-04,-8.695617667525904881e-04,-2.994001025157832022e-03,9.912118315696716309e-03
-2.663045888122319571e-01,-2.702573367116830050e-01,-2.683299064895624531e-01,8.624931738117021024e-04,-9.124273772474556562e-04,-1.825421908026796363e-03,5.142597481608390808e-03
-2.796729817689426190e-01,-2.619653334285229063e-01,-2.627111895797617502e-01,1.910496534384726382e-03,-2.458812393510649737e-03,-2.434985701388378554e-03,1.864898018538951874e-02
-2.140526004373716207e-01,-2.742683205316160944e-01,-3.279520946312873830e-01,4.185760639943875844e-02,-1.235207924428470029e-02,-1.310865766739454340e-02,1.263720542192459106e-01
-2.377199755878116050e-01,-2.902492613294057056e-01,-2.748066666053932683e-01,-4.826661013787735162e-03,-1.020922872219555584e-02,4.101050512306619183e-03,5.118243768811225891e-02
-2.350843396219079173e-01,-2.948070574272226851e-01,-2.786992685563483008e-01,-3.593569343391236903e-03,-1.842143519284437925e-02,3.845323222478853149e-04,6.262184679508209229e-02
-2.335584701046425626e-01,-2.886737823726749363e-01,-2.857245000976227356e-01,-5.216823319591283765e-03,-7.980700774086763732e-03,2.201221327161391461e-03,5.631253868341445923e-02
-1.888647053423572475e-01,-3.184630121426936245e-01,-2.991266029885165656e-01,2.446207112986359400e-02,-7.338954938220770136e-03,-6.690937403755529977e-03,1.294400095939636230e-01
-2.759292038107882261e-01,-2.688837003668247960e-01,-2.610896280259948354e-01,-6.269390652469581521e-03,-8.338114841585060957e-03,6.581890117466126199e-03,2.493495494127273560e-02
-2.797738643690624305e-01,-2.618434861374214773e-01,-2.625168225038768122e-01,-4.075221701820606370e-03,-4.278615433922016743e-03,4.546103726776361438e-03,2.183166891336441040e-02
-2.622650871642108195e-01,-2.581201163300980705e-01,-2.846779782133926351e-01,2.843379688257583349e-03,-2.245437670684742853e-03,-7.556469198327581474e-04,2.556389383971691132e-02
-2.651740808925919235e-01,-2.552384426986402111e-01,-2.846477971270486851e-01,1.713638562618040014e-03,-2.070737058229272978e-03,-3.133945546546982436e-04,2.633238583803176880e-02
-2.680448952829521669e-01,-2.514729885292714684e-01,-2.833333614294789582e-01,8.373238087450250028e-03,-3.325839024986941474e-03,-1.211283303094522201e-03,3.177487850189208984e-02
-2.772646506751719198e-01,-2.332850763260098381e-01,-2.914143448087517241e-01,1.011734477235265266e-02,-3.076940158812330704e-03,-2.087516010957087432e-03,5.572496727108955383e-02
-2.612269561423227193e-01,-2.595592989294013830e-01,-2.817569532013277089e-01,7.821786146813810084e-03,-5.874643938193508698e-03,-7.556268884818726633e-03,3.027979098260402679e-02
-2.767650206288790882e-01,-2.323004862036432694e-01,-2.959344771371443250e-01,9.065058005847236727e-03,-2.863207113938231454e-04,3.330056432552971598e-04,5.868584290146827698e-02
-2.351088385917299572e-01,-2.801381504759332119e-01,-2.891968784592151565e-01,4.962765089755096642e-02,2.533576848024587935e-02,1.528013017612196017e-02,1.119485124945640564e-01
-2.742683002331434694e-01,-2.354708124986977791e-01,-2.955713811029889726e-01,1.166585483040266831e-02,-4.948974497622336431e-04,-8.022290276627900771e-03,5.820356681942939758e-02
-2.765349753696068058e-01,-2.507699628807836256e-01,-2.758195299451071114e-01,4.169914467133169211e-03,-6.019928748441061642e-03,-5.878431044924981204e-03,3.017391823232173920e-02
-2.750612277930469252e-01,-2.660251837622077953e-01,-2.638722030677372876e-01,-1.649151930368976480e-03,6.929884064724117863e-04,-5.837040710131133250e-05,1.074010599404573441e-02
-2.758524183735612256e-01,-2.641024943219112409e-01,-2.642881175919807313e-01,-6.687741368419799310e-04,6.411875160050147437e-04,2.602069154458758649e-04,1.177677232772111893e-02
-2.782022296217736557e-01,-2.627362435903630722e-01,-2.636072156582096038e-01,-2.447647997903422065e-04,1.456692898255461865e-03,-5.224769716841047226e-04,1.529213599860668182e-02
-2.174209994762923426e-01,-2.882629210400787234e-01,-2.958814515882960960e-01,-1.070078382037299713e-02,1.089283621913334280e-04,-1.091249192243457997e-03,7.722344249486923218e-02
-2.795062706795714558e-01,-2.553505434677469932e-01,-2.692275289863462762e-01,-3.629777479803125012e-03,4.612857425144914654e-03,-5.186629220429347410e-03,2.499851584434509277e-02
-2.756145690417217131e-01,-2.692347918814951835e-01,-2.584946291992624712e-01,-4.646434638672380241e-03,2.028747566365217327e-03,-2.208565385064030582e-03,1.778542436659336090e-02
-2.860533693277095280e-01,-2.645480987833931374e-01,-2.547126084544966695e-01,-2.879481982934346796e-04,3.461897324066530922e-06,-1.555960420749544909e-03,2.789695747196674347e-02
-2.541508644216353696e-01,-2.790003399807736706e-01,-2.707206414331301825e-01,-3.003369089889362104e-03,3.104236646793815356e-03,-5.726979682034864447e-03,2.519262023270130157e-02
-2.564009914685532743e-01,-2.825842172544285047e-01,-2.664286620140099426e-01,2.964683899261454005e-03,1.177357171663416524e-02,2.751564451640935334e-03,3.144027665257453918e-02
-2.690266062123434776e-01,-2.855694591503309954e-01,-2.487650426568469852e-01,3.999785008045001790e-03,5.794045517888009658e-03,3.396221162361607714e-03,3.467984497547149658e-02
-2.632910192701483632e-01,-2.723735643271378293e-01,-2.701544476808085959e-01,5.808002869401298826e-03,6.356675773744810409e-03,5.676594335342156038e-03,1.965588331222534180e-02
-2.803782770830465232e-01,-2.631624883246884705e-01,-2.576103581949487076e-01,4.037569345736179149e-02,4.139705048756504163e-02,5.766882521784594262e-02,1.429391801357269287e-01
-2.792471656918398271e-01,-2.732579944402157013e-01,-2.533557437076322527e-01,4.190690192140767226e-03,1.957152273689222958e-03,1.867890630396746611e-03,2.501622959971427917e-02
-2.773520471542439414e-01,-2.884258882761389642e-01,-2.362561022029885660e-01,6.499614577620735877e-03,7.679325865461619771e-03,5.037517784467676618e-03,5.144295468926429749e-02
-2.065696795718789391e-01,-3.261619219721454410e-01,-2.450871121975804201e-01,4.529810228495531610e-02,9.901759609497208514e-02,4.074329427384124763e-02,2.274395823478698730e-01
-2.447114661142985870e-01,-3.011623564618980953e-01,-2.583873423115174983e-01,8.233138455635486894e-03,2.218615172857101372e-02,7.124156144049431649e-03,6.658834218978881836e-02
-2.638589724142847426e-01,-2.904393143513988029e-01,-2.514317579179620177e-01,1.427099897786084440e-03,1.474425038750842853e-02,1.436478379986291277e-03,4.307840391993522644e-02
-2.654427847468392998e-01,-2.883517504690924493e-01,-2.469115722123618739e-01,5.534396064473902366e-03,1.912142235175312913e-02,6.396625633088711196e-03,5.103217437863349915e-02
-2.486628061798791256e-01,-2.892975550705510490e-01,-2.615200176460443227e-01,7.055542720135734615e-03,2.150296225084579252e-02,6.223762110257747247e-03,5.428370833396911621e-02
-2.744319434284839265e-01,-2.851290759495123672e-01,-2.482799454298210695e-01,7.993026475934894223e-03,1.408812125639193925e-02,1.296617532868514500e-02,4.867815598845481873e-02
-2.869365792783198366e-01,-3.016284739766326162e-01,-1.982555472302134358e-01,3.315172048876640493e-02,7.237682976026676984e-02,5.323367362173062750e-02,1.920855790376663208e-01
-2.695550355331717829e-01,-2.630212186336831071e-01,-2.716632420480285526e-01,1.861258277620169658e-03,-4.126581662994850686e-03,-2.087885663931543685e-03,1.163901202380657196e-02
-2.641798642494784799e-01,-2.773315268325735605e-01,-2.619424839298128971e-01,3.335412301077158703e-03,-2.492470309261113782e-03,-1.917296805376163087e-03,1.644498668611049652e-02
-2.704935520823976147e-01,-2.708630154841089044e-01,-2.642541555159316768e-01,3.345339056842567670e-03,-3.154473734582785311e-03,-3.876392277498007417e-03,1.224242802709341049e-02
-2.628320723820156135e-01,-2.753907168023533858e-01,-2.663322924952104542e-01,1.026584257438389273e-03,-1.648944225553183613e-03,-2.565050621114482905e-03,1.253276504576206207e-02
-2.619299372470393350e-01,-2.778044922227310698e-01,-2.633803468775193779e-01,2.546939057730134709e-03,-2.897512035820815589e-03,-4.400088582962427379e-03,1.827047765254974365e-02
-2.681579834125825124e-01,-2.773722008714433196e-01,-2.578838568094571349e-01,4.056347955010695602e-03,-1.780584426450330764e-03,-2.737693529941103831e-03,1.914381794631481171e-02
-2.704275960914930277e-01,-2.784443663661617108e-01,-2.549465900582237876e-01,5.147388720797785311e-03,-3.622506344806587959e-03,-3.145430873740202426e-03,2.401194535195827484e-02
-2.759804762728736427e-01,-2.699115866823322274e-01,-2.575790713438608770e-01,4.836601055282067387e-03,-2.261963590247994659e-03,-3.497237487287743838e-03,1.964654214680194855e-02
-2.660287406340958172e-01,-2.639656407545848960e-01,-2.749768232923352484e-01,2.106242360989432334e-04,1.718219517777359829e-03,7.297319930299442543e-04,1.064766664057970047e-02
-2.314363751623245147e-01,-2.896034698237351379e-01,-2.939321211128397282e-01,-3.536510352980121868e-02,3.118429594562121404e-02,-2.547511592377274883e-02,1.107715219259262085e-01
-2.802387791619807000e-01,-2.619089959524764644e-01,-2.613202336018288219e-01,5.717574727594970825e-03,5.196956376877948092e-03,1.046330136015138045e-02,2.923454344272613525e-02
-2.593705256577368834e-01,-2.695084785713441899e-01,-2.770634897066646118e-01,5.737129363537078579e-03,4.163496828877249860e-03,4.940333098801477293e-03,2.145733870565891266e-02
-2.706128883917544581e-01,-2.655758494741516929e-01,-2.685473805073661513e-01,1.023966446263579544e-03,1.995762542017019258e-03,2.185488879694087727e-04,5.871290806680917740e-03
-2.645713645810597314e-01,-2.661771375206136714e-01,-2.732291548677073245e-01,1.297103746111971439e-03,9.367562223906913260e-04,2.486804706542521549e-03,9.479765780270099640e-03
-2.640950005712229820e-01,-2.644110390750627482e-01,-2.756987767249524102e-01,-6.450163656325024299e-05,6.682502145944885620e-04,6.971391171448523523e-04,1.157110277563333511e-02
-2.591579907716127229e-01,-2.850404894165263769e-01,-2.568763159246376104e-01,2.907490093740871390e-03,1.104507275377236003e-02,3.292430056287427246e-03,3.402979299426078796e-02
-2.807475467996816687e-01,-2.627045616289841456e-01,-2.677154307974942138e-01,2.384417822583117033e-02,3.090787008816349435e-02,3.912040858787445979e-02,9.707208722829818726e-02
-2.601654348540346495e-01,-2.806092862736512261e-01,-2.636795081176057098e-01,1.107103596962233025e-03,1.530272536652556217e-03,2.383147972099549684e-03,1.965194568037986755e-02
-2.567481284075333048e-01,-2.836948536817551769e-01,-2.661404690250028793e-01,-2.912236618275231264e-03,-9.607550164064044759e-03,3.083271107843710366e-03,2.986850030720233917e-02
-2.217264142859689535e-01,-3.023284485261789611e-01,-2.716394735062437338e-01,7.383845843777020468e-03,-3.529773132942029545e-02,-3.500363261296281312e-03,9.435580670833587646e-02
-2.653201785949246272e-01,-3.080075082436342648e-01,-2.426301067283000990e-01,1.259082166003613543e-02,-5.701148485192625293e-02,-2.428350456461090406e-02,1.236980482935905457e-01
-2.319687209776931380e-01,-3.560670601374685829e-01,-2.268523862131885671e-01,-2.433391471194711747e-02,-1.373063184026672989e-01,-2.224516952311254847e-02,2.754660546779632568e-01
-2.682384569320017675e-01,-2.712768684338333069e-01,-2.649976825509894329e-01,2.598107562773508458e-03,1.159488094033569528e-03,1.302361433547126295e-03,7.678120397031307220e-03
-2.645238500568979911e-01,-2.728559917867952600e-01,-2.660760140006644403e-01,8.131832707264413564e-04,1.480672319167238796e-03,2.363469648445817427e-03,9.177139028906822205e-03
-2.636629337844775267e-01,-2.779468248693947596e-01,-2.629791794693890905e-01,1.384065309293734582e-03,4.295933853221567010e-04,4.125913159729235739e-04,1.486859098076820374e-02
-2.633750754622441459e-01,-2.754991800027200566e-01,-2.653106347057598846e-01,1.231819384557367170e-03,9.779325636595954940e-04,2.221943362408181251e-03,1.222725119441747665e-02
-2.651317605693866430e-01,-2.756537572123709534e-01,-2.627358999917891458e-01,2.421705016607587826e-03,1.930197631118360079e-03,1.325717120591368182e-03,1.325538847595453262e-02
-2.733560383566411289e-01,-2.645885627723481570e-01,-2.641113896018834062e-01,4.301515881179946398e-03,5.013148276511203080e-03,5.296684052461023660e-03,1.721477881073951721e-02
-2.799954104549126632e-01,-2.939922881575643410e-01,-2.279252684116382932e-01,-2.615065432916637185e-03,1.450833302169221226e-02,-2.914225991625492979e-03,6.567724794149398804e-02
-2.889499614827124585e-01,-2.900442807353635910e-01,-2.234069098863524505e-01,-5.615500455038639413e-03,1.618436177543287890e-02,-1.592349206676974341e-02,7.752347737550735474e-02
-3.026956683945777327e-01,-2.953907286700556134e-01,-2.011014030224018145e-01,-1.647286729085130135e-03,7.504266439350201073e-03,-1.802279406437029205e-02,1.038468256592750549e-01
-2.875080804936584467e-01,-2.941709503487573429e-01,-2.235252937993210676e-01,-4.753125045163670952e-03,1.813304323020423561e-02,-8.371714988460997667e-03,7.634759694337844849e-02
-2.160170294448624517e-01,-2.961508760057405265e-01,-2.894485877825849207e-01,-1.203690733961983519e-02,1.743058990226950891e-02,-2.981913093947899038e-03,8.545225113630294800e-02
-2.850306648029944379e-01,-2.300515352741108743e-01,-2.893322218136326063e-01,1.047589248433190151e-02,5.625346058708638464e-03,2.077858966031674928e-02,7.069031149148941040e-02
-2.772376715349142429e-01,-2.351596304072061938e-01,-2.908741065268912185e-01,1.187058134311652288e-02,-2.471583278604362090e-03,-4.251990129366226695e-03,5.500549823045730591e-02
-2.844951989278670101e-01,-2.262857754226855755e-01,-2.952881493642557920e-01,4.171303076136245215e-03,2.445812783543830087e-04,-1.133053034081127482e-04,6.469538807868957520e-02
-2.866672112228166314e-01,-2.234048133048348594e-01,-2.892369578420728726e-01,6.848453435700444479e-03,8.144453203995614954e-03,1.246382233324606903e-02,7.054816931486129761e-02
-3.152013777207975376e-01,-1.638721960298209213e-01,-3.085150835152999926e-01,4.508505411313055294e-02,2.023237036528521479e-02,6.075544267614731153e-02,2.008310258388519287e-01
-2.839416094622612685e-01,-2.375549656223442108e-01,-2.840776233058245337e-01,2.741053342607572326e-03,5.512466885155092172e-03,4.348086489147179497e-03,4.825420305132865906e-02
-2.773078977697494563e-01,-2.365976448346036320e-01,-2.901362121049592679e-01,1.018987164723465094e-02,2.455969226182736290e-03,3.003401782977053579e-03,5.196913704276084900e-02
-2.589456718384719469e-01,-2.637255344244636701e-01,-2.828898886493467213e-01,-6.880138737026589985e-03,3.072178110186171880e-03,-2.975033040113130890e-03,2.604992873966693878e-02
-2.771365502401677006e-01,-2.371458767018188307e-01,-2.891057933327493834e-01,-7.666186197584223469e-03,4.468583680677994802e-03,-4.968034476269853061e-03,5.031336843967437744e-02
-2.620854218517854606e-01,-2.578880488186808262e-01,-2.822719516723933286e-01,-5.298597048658218456e-03,4.636739665135780619e-03,-3.455726310958887222e-03,2.635135501623153687e-02
-1.822795389057920434e-01,-2.864554967649626804e-01,-3.653658232363617420e-01,-1.364389812958338721e-01,4.032477823110390547e-02,-2.967153724113912733e-02,2.977688312530517578e-01
-2.735990918603086186e-01,-2.423315346353915045e-01,-2.895934066678131358e-01,-1.898762023217730188e-02,-6.714334535563506057e-04,1.013818310006983289e-03,5.309996753931045532e-02
-2.484114616179233792e-01,-2.628616341133396261e-01,-2.912127315262543203e-01,-1.994450874192254738e-02,-6.242098201812326360e-04,-1.388611844858586889e-04,5.115513131022453308e-02
-2.602674788826450092e-01,-2.585817315768849101e-01,-2.846767803073735892e-01,-6.595804272608562710e-03,-3.683083454918618591e-03,3.894980721739688991e-03,2.926645614206790924e-02
-2.659869472653506040e-01,-2.483362446138960289e-01,-2.881747544890365109e-01,-7.079812857773174102e-03,-1.980830288230456693e-03,8.461101034687706218e-04,3.687501326203346252e-02
-2.935743245950424574e-01,-2.770922701558647949e-01,-2.336723017826511095e-01,-1.018669317146725199e-02,1.936668082972358568e-02,-4.301461860990263980e-02,9.929695725440979004e-02
-2.957941552710135480e-01,-2.806930495914009560e-01,-2.324073145669367513e-01,7.057630633561265583e-03,-5.566179028749090006e-03,-2.034116116271103558e-02,6.908248364925384521e-02
-2.220923116003211129e-01,-2.954887798556045109e-01,-2.895815415244884505e-01,-3.645355401553008155e-03,6.675317920504498202e-03,-2.421117213084376615e-04,7.184766978025436401e-02
-2.406608797466311123e-01,-2.953261302787980602e-01,-2.352967610043572577e-01,-6.319358041919403979e-02,9.760946504622407260e-02,-5.983966467755201524e-02,2.337001413106918335e-01
-2.709475688165729479e-01,-2.983727450327080533e-01,-2.515315934796265585e-01,-2.047170143693977790e-02,5.069125848932923284e-02,-2.887382937953365120e-02,1.145809069275856018e-01
-2.681962422385792411e-01,-2.776249333830503319e-01,-2.626320701349584286e-01,-1.531766011504608060e-02,1.939104359156216401e-02,-1.138781258993885187e-02,4.892136156558990479e-02
-3.430377338357024630e-01,-2.192754842323500208e-01,-2.469718380176119388e-01,-9.397868530888543390e-03,6.534845571942494991e-02,-1.114990831789685888e-01,2.510553300380706787e-01
-3.311963116938259621e-01,-3.022865464977857464e-01,-1.726808320332192948e-01,-6.506488201387170336e-03,3.479827493407136596e-02,-8.573193126994022029e-02,2.172324657440185547e-01
-2.968022697970827406e-01,-3.498461157564851653e-01,-1.578127133858058806e-01,-5.192245559226655455e-02,7.325704917797005999e-02,-9.427396892252133676e-02,2.834689319133758545e-01
-2.387153766352700102e-01,-2.977070227397790037e-01,-2.645654306269726863e-01,-1.126421914442425967e-02,-4.225555797004591774e-02,6.243481502645663317e-03,9.207328408956527710e-02
-2.872254261945386133e-01,-2.419749497248233072e-01,-2.519349315725150640e-01,-5.355385480825581440e-02,5.244769283028426210e-02,-8.112747103091041967e-02,1.956973224878311157e-01
-2.880685860618447669e-01,-2.478445468464060553e-01,-2.637978591961131491e-01,-7.598441956804541028e-03,6.213427474083045056e-03,-2.049509682372860700e-02,5.272524058818817139e-02
-3.704535978337716307e-01,-2.741975430325209184e-01,-1.606610223795145176e-01,-5.154738653843222995e-02,4.742465275906584260e-02,-1.045534034446882615e-01,2.838965952396392822e-01
-2.783364943747686504e-01,-2.693992119984144340e-01,-2.570630373991424911e-01,-5.767039841937939351e-03,6.091719606110495774e-03,-9.062456353554491223e-03,2.828066237270832062e-02
-3.073289407244924609e-01,-2.344505927835074666e-01,-2.735358230761230081e-01,-1.412940029464350433e-02,1.316829081094202970e-02,-4.962858614697084753e-02,1.117969751358032227e-01
-2.623066920081861819e-01,-3.394417219686732823e-01,-1.939461720585610727e-01,-1.665712022072811035e-02,-9.774504337598341475e-02,4.141906090461980328e-02,2.248048931360244751e-01
-1.825613100866806393e-01,-3.123381893742002147e-01,-2.960906231203417893e-01,6.614879545932686455e-02,-6.973539287464879111e-02,-2.230351651361416748e-02,2.102519124746322632e-01
-2.544980335771633295e-01,-2.774844414854159558e-01,-2.731406543064979209e-01,8.978238944911410765e-03,-9.692627346453278059e-03,-4.988343500776104729e-03,3.233749419450759888e-02
-2.597276674842406430e-01,-2.810086074540844026e-01,-2.650937020216312945e-01,9.529630290909845564e-03,-1.368063317688385065e-02,-1.001127389205469509e-02,3.875662386417388916e-02
-2.761389835923097058e-01,-2.844927405413542054e-01,-2.463533597567898192e-01,2.916689172075789815e-02,-4.674591944218479261e-02,-2.254928209733517847e-02,1.088065579533576965e-01
-2.597567073047145625e-01,-2.849887757951979350e-01,-2.592925276905128085e-01,-5.494386240933168139e-04,2.180304292841223589e-03,7.606185322484940452e-05,2.576371841132640839e-02
-1.802765424488058654e-01,-3.398474511325112468e-01,-2.899872242842752024e-01,8.581207944240912266e-02,-5.735561509242477485e-02,-4.732472913701197409e-02,2.422224283218383789e-01
-2.443408552898400921e-01,-3.196184511896111302e-01,-2.304005681956094176e-01,2.168024545682575160e-02,-9.983584624928056039e-02,-4.034942368603638280e-02,2.076206952333450317e-01
-2.177894167030431649e-01,-3.815489609701624985e-01,-2.149229623154699231e-01,1.428009458147607574e-02,-1.080121988213817580e-01,-4.037739320566507972e-02,2.603794932365417480e-01
-2.375342059016546103e-01,-2.885896137580352128e-01,-2.812307169005662799e-01,5.282484890928208429e-03,-2.000469287531255955e-02,4.994861812030860050e-04,5.975050106644630432e-02
-2.848772634525313929e-01,-2.605150986580337946e-01,-2.595879555078543510e-01,-1.787524160081751861e-04,-2.092976243720329969e-05,-6.121660838364145155e-04,2.486329153180122375e-02
-2.861626574061612582e-01,-2.616155537551774768e-01,-2.570615416311953783e-01,-1.159010606147008052e-03,-1.560421623739505020e-04,-2.508065015815273430e-03,2.753291279077529907e-02
-2.880839920461806258e-01,-2.671147568423907770e-01,-2.473838449834886155e-01,1.174700703205704480e-03,-3.069293067897091985e-04,-6.040296282488580824e-03,3.683256357908248901e-02
-2.717109777727411135e-01,-2.658938160252715122e-01,-2.659006660605919836e-01,3.420137525680139786e-03,-3.137682943968407492e-03,-4.510090768488989044e-03,1.262733153998851776e-02
-2.846479080616823309e-01,-2.648418564828076693e-01,-2.562874671752955469e-01,1.986015768344798205e-03,-9.647795193547840324e-04,-1.523050422823915388e-03,2.562167309224605560e-02
-2.861733457997153174e-01,-2.546100761169997617e-01,-2.645272943046682035e-01,6.326105223689857976e-05,-3.563094784125478789e-04,-1.531566686564103143e-03,2.808916755020618439e-02
-2.831207054563874004e-01,-2.618645145534401197e-01,-2.602176715898144033e-01,-1.287030623663888099e-03,1.392190742906869016e-03,-4.372464758478294446e-03,2.361530438065528870e-02
-3.075761362109765695e-01,-2.450490479833998536e-01,-2.423810576971881792e-01,-5.415710169144976466e-03,9.108465139065250252e-03,-4.734549639936416754e-02,1.055710539221763611e-01
-2.826566118034796182e-01,-2.605784672996108164e-01,-2.617140477745822924e-01,3.681344430628682909e-04,-6.669663283903739864e-04,-6.066073050653041825e-04,2.159878425300121307e-02
-2.836946865863026468e-01,-2.593100294866343414e-01,-2.617986111793190185e-01,1.313408803690038794e-04,-1.669772843080689060e-04,-1.090705007358225330e-03,2.332006953656673431e-02
-1.963484641685454835e-01,-3.166981555095169099e-01,-2.710662297784075525e-01,-4.385492166531430175e-02,-7.632723990144107962e-02,2.955358145727880054e-02,1.922032237052917480e-01
-2.384838925658879782e-01,-2.864262187072605936e-01,-2.766107416051438728e-01,-2.414295307485082864e-03,-1.099615581893242759e-02,5.033242104922632486e-03,4.879002645611763000e-02
-2.615711437024633712e-01,-2.689882049626907690e-01,-2.761331825921098937e-01,-5.981301878696150195e-03,-5.265900768961817406e-03,5.732703826046067937e-03,2.116995491087436676e-02
-2.235961231271284544e-01,-2.902040173345220020e-01,-2.903139478434332843e-01,-6.400731233309805285e-03,-7.880396623618130675e-03,2.699909882611554925e-03,6.910154968500137329e-02
-2.240849779088388283e-01,-2.984992348010441221e-01,-2.791066029780269742e-01,-4.038248865210700318e-03,-2.224557402259214403e-02,2.965018208959092905e-03,7.765539735555648804e-02
-2.305014705301023925e-01,-2.903997286952004764e-01,-2.849303960847632267e-01,-5.008947027825276944e-05,-7.984628563441436427e-03,-3.576652949493140839e-03,5.932755768299102783e-02
-2.179177515923995945e-01,-2.898047819404744319e-01,-2.951470905603704176e-01,9.836960567971468963e-03,-3.906731221537279933e-03,-3.854428313005332611e-03,7.720740139484405518e-02
-2.353986399239153815e-01,-2.779492223605190548e-01,-2.904600473018856266e-01,1.016301293535736179e-02,-1.245423268041181758e-03,-2.607784422898943005e-03,5.323843657970428467e-02
-2.344915300710333217e-01,-2.777204251504556409e-01,-2.909155493885376420e-01,7.611501967058838941e-03,1.419078509819340222e-03,2.738430338731254882e-03,5.306225270032882690e-02
-2.115142036488979749e-01,-2.935517266876092046e-01,-2.960574113720799705e-01,2.202213233084678382e-02,-2.075144072977993994e-03,-3.796776447034190018e-03,9.194064140319824219e-02
-1.629307027313941503e-01,-2.807830408190694071e-01,-3.374103061792464997e-01,9.713269591425602312e-02,-2.800102176617962763e-02,-9.344402094491988803e-03,2.338544130325317383e-01
-2.836188347619578165e-01,-2.616095280390584588e-01,-2.590691273933137251e-01,2.167499017936472868e-03,-5.487564835192240784e-04,-1.621600681912188993e-03,2.386759221553802490e-02
-2.850237474155157269e-01,-2.611394158601357818e-01,-2.578500927581071078e-01,4.827914953690917678e-04,-2.770006776790229349e-04,-3.112286208439777723e-03,2.626466564834117889e-02
-2.881668519664403183e-01,-2.482377733771787831e-01,-2.654084321895875398e-01,3.163018025108460854e-04,-6.089602845086697401e-04,-6.308436837380778164e-03,3.639170154929161072e-02
-2.838307828707199443e-01,-2.579673820520849703e-01,-2.619077194881626602e-01,4.430375618361575337e-04,-1.488414005388550253e-03,-3.053590843146571782e-03,2.485436573624610901e-02
-2.847887036387888871e-01,-2.603012788637178443e-01,-2.602815601745507301e-01,1.691584130129959371e-04,7.175034455653909841e-04,-4.391342325987424890e-03,2.568266354501247406e-02
-2.856934722104353397e-01,-2.598422663567819813e-01,-2.606128016250865431e-01,1.495435124441840387e-04,-5.808019150637060537e-04,-4.460879528668355680e-03,2.664088457822799683e-02
-2.853576464520994338e-01,-2.610893622386306068e-01,-2.576111587883222476e-01,2.779494875829088265e-05,-3.922313273339028683e-04,-2.871318008790458252e-03,2.665811032056808472e-02
-2.926247071093703855e-01,-2.645399686640028114e-01,-2.437302072281837262e-01,4.995992015943507246e-03,5.927159091680032910e-03,2.138884010422580778e-02,5.795650184154510498e-02
-2.826837315866724820e-01,-2.640937565621829242e-01,-2.601402588703078389e-01,3.666391729682839939e-03,2.269868758442913914e-03,5.052373774604266773e-03,2.381336502730846405e-02
-2.910561016254055722e-01,-2.579464816077008393e-01,-2.628372409273179167e-01,1.082934938275116610e-02,1.068016275157177182e-02,2.402945788687549031e-02,5.817647278308868408e-02
-2.843115173034889698e-01,-2.595638846447534398e-01,-2.613394512661700864e-01,2.140728893324218526e-04,1.040311653641553353e-03,7.774924709604643823e-04,2.401779778301715851e-02
-2.838593734559661796e-01,-2.599543962818221532e-01,-2.607318953953615126e-01,2.328476703408093929e-04,1.234220180106324939e-04,7.547847694134809417e-04,2.356658130884170532e-02
-2.857227837569077389e-01,-2.648152605706892704e-01,-2.550319657414443220e-01,9.830344625987296478e-05,-3.945842631162807860e-04,1.693940698599146746e-03,2.732190117239952087e-02
-2.877437537928929645e-01,-2.673947390125601675e-01,-2.480245513695593096e-01,1.867292495531550686e-03,8.618240088014313387e-04,5.497412925045235856e-03,3.587204962968826294e-02
-2.761031708906974691e-01,-2.538185841753060057e-01,-2.867958537131428676e-01,-4.223949505250015196e-02,-3.265613301928066425e-02,3.658460219450907630e-02,1.158288046717643738e-01
-3.243282782032159695e-01,-2.066626774563725677e-01,-2.808273706937148839e-01,-3.303735971150054129e-02,-5.059529789157187624e-03,1.255354679535397311e-01,2.474825680255889893e-01
-2.652140790614745391e-01,-2.731654639696319831e-01,-2.632075544911802178e-01,4.738963792091257718e-03,5.573037927712658733e-03,4.801568983826901005e-03,1.768954843282699585e-02
-2.715487181484899093e-01,-2.713387943154268456e-01,-2.626075688681454579e-01,6.108612018010109272e-03,5.107108368333999546e-03,5.690395720476712146e-03,1.911664567887783051e-02
-2.780625985797630095e-01,-2.683562178075574733e-01,-2.610767863249971454e-01,4.648273906614116754e-03,4.264140170377930979e-03,6.786704825186141814e-03,2.180382981896400452e-02
-2.693845526670626267e-01,-2.584406690228243653e-01,-2.756678938054509254e-01,2.524423690228794290e-03,4.709307862990456256e-03,1.706118239224089063e-03,1.795540377497673035e-02
-2.670071518644573372e-01,-2.684947506240185633e-01,-2.692189117213807381e-01,1.586237733195194986e-03,1.223526014765412805e-03,1.364231124109922463e-03,4.630064591765403748e-03
-2.686629273401177631e-01,-2.688866860923282420e-01,-2.669291004827698544e-01,9.424283577957178956e-04,5.349248886383884500e-04,4.981902243324850144e-04,2.776996698230504990e-03
-2.651863350049793455e-01,-2.632110917947872997e-01,-2.755606585431142341e-01,2.013424770890040374e-03,2.433188515195992829e-03,1.054592747388915109e-03,1.285610161721706390e-02
-2.690636833216091817e-01,-2.727299433578465049e-01,-2.630096644671078843e-01,3.511916206195847632e-03,1.148769695466557396e-03,1.175191186615926614e-03,1.083471812307834625e-02
-2.926865061382256661e-01,-2.441656406154699976e-01,-2.635001967503416420e-01,-3.378225847728387812e-03,5.552683407417021225e-03,-2.094790717493382262e-02,5.686078220605850220e-02
-2.866297401881579554e-01,-2.367032515577207619e-01,-2.784913879872074616e-01,-6.487980102009193589e-03,5.407249037243552249e-03,-1.236932882802206299e-02,5.315604805946350098e-02
-2.868485184083509609e-01,-2.685704807234104430e-01,-2.644849918671097755e-01,-3.972864331248016773e-02,3.996158661264258977e-02,-5.496573560863030755e-02,1.378949880599975586e-01
-2.931795403274011780e-01,-2.126252942559958559e-01,-2.998860275170536771e-01,1.550112384127261657e-03,-9.955657106941306206e-04,-1.508515646806501357e-03,8.420931547880172729e-02
-2.754433268639277510e-01,-2.590833373949287255e-01,-2.692442923555928846e-01,-1.712278493370995337e-03,4.603887949464699654e-03,-2.301159454897886824e-03,1.711520366370677948e-02
-2.506429063765997500e-01,-2.671343239572884221e-01,-2.892998441884165328e-01,-1.207297548101454905e-02,1.152467263699221431e-03,-1.860283943413699060e-03,3.975493460893630981e-02
-2.266522260362567875e-01,-2.940702166424869479e-01,-2.845443576901194871e-01,-7.846393252102436395e-07,3.379427671645265398e-03,4.538210346435488031e-04,6.347119808197021484e-02
-2.943073188859723910e-01,-2.191077813460658441e-01,-2.924559201742720771e-01,6.341076832038180719e-03,-1.408564032527407370e-03,-2.042930479767050399e-03,7.522150129079818726e-02
-2.925584040218310866e-01,-2.194261625271081151e-01,-2.928039629664812571e-01,-1.928139115800087122e-03,2.592282127327878716e-03,-5.144226799483606061e-03,7.400706410408020020e-02
-2.947417056221595666e-01,-2.195099798185388418e-01,-2.917905540407916831e-01,-7.843752083384463239e-03,-4.156881675136127850e-04,1.241261249807807049e-03,7.507473230361938477e-02
-2.887779224574837378e-01,-2.148580242380837557e-01,-3.005715486181030349e-01,-1.581813115563216257e-02,2.276338989429039714e-03,-1.065825226494007856e-02,8.707470446825027466e-02
-2.892886069510061664e-01,-2.168858361876289387e-01,-2.967413765518052693e-01,-1.034628002008417154e-02,1.375007105803189699e-03,-2.704485985709503566e-03,7.865149527788162231e-02
-3.522642220557917758e-01,-1.558688870116013148e-01,-3.044792606257392675e-01,-8.272265040494158894e-02,-2.621041969488401620e-03,-8.611997197096407652e-02,2.725242376327514648e-01
-3.225842416606501395e-01,-1.313930829890028740e-01,-3.318249153567476850e-01,-4.240656481810554934e-02,-5.561751251855006663e-03,2.777579072019260506e-02,2.149614393711090088e-01
-3.028685569555320534e-01,-2.243836093698231005e-01,-2.843891251459198521e-01,-8.423719267050525095e-02,-3.212194696629964291e-02,1.112726288169175876e-01,2.580290436744689941e-01
-2.804905492936622946e-01,-2.673030837242222901e-01,-2.577328471656850084e-01,-7.792754628294427596e-03,-5.540361801269347471e-03,1.111588781175639959e-02,3.219724446535110474e-02
-2.863344456022576257e-01,-1.594788997584072332e-01,-3.359591219327880407e-01,-9.352106918705355154e-02,1.509863289188782126e-02,-2.425094506321792340e-02,2.313804328441619873e-01
-2.781824205717826071e-01,-2.529329048169497995e-01,-2.765493275214924163e-01,-9.926285648299575451e-03,-5.389588393732429317e-03,1.026054993282205646e-02,3.602143004536628723e-02
-2.927726156921421352e-01,-2.457695773222332847e-01,-2.363965806255943769e-01,-6.273643376510636138e-02,-6.484534673046327136e-02,9.584354755016817606e-02,2.339187711477279663e-01
-2.977836325422504316e-01,-2.767223417960991139e-01,-2.283241131095179455e-01,5.784411901518579126e-03,1.425915266131171436e-02,2.651709934983219330e-02,8.139479905366897583e-02
-3.001707137500241318e-01,-2.782944030232650801e-01,-2.230809223839294586e-01,-3.161250973376610734e-02,-4.232783417243888430e-02,6.753250479930963945e-02,1.636761277914047241e-01
-2.858197231233184366e-01,-2.304374744367844174e-01,-2.869528279762528777e-01,-3.933802336766397886e-03,-5.153867537351719888e-03,7.215316018960691788e-03,5.842538177967071533e-02
-2.923560756768222024e-01,-2.800395594367691698e-01,-2.301790496783688300e-01,-4.231313744786894702e-04,1.236011698871198510e-03,-1.782291695001351692e-02,6.488423794507980347e-02
-2.855787597771431985e-01,-2.759245455069856412e-01,-2.445338367558944348e-01,2.939255362912572816e-03,-6.318620244503958365e-03,-6.771046031818503744e-03,4.080278053879737854e-02
-2.969539041326119677e-01,-3.116512543087445186e-01,-1.953502876295539203e-01,8.039936531489955476e-03,-1.203569821208043573e-02,-2.985736488843383774e-02,1.238365620374679565e-01
-2.242352973526339499e-01,-2.871066337913099620e-01,-2.903055234726213962e-01,-8.067432048458993143e-03,6.002328219391676184e-03,-5.631828969584359162e-03,6.754733622074127197e-02
-2.668755252899973618e-01,-3.331729485372120769e-01,-2.148703131739832239e-01,-4.732566951791378901e-02,1.371660391431094306e-01,-1.152782162068193179e-02,2.722298502922058105e-01
-3.023835714159823773e-01,-2.949343968431871743e-01,-2.014857067948754854e-01,-3.179151142262956801e-04,7.524594230802199302e-03,-1.732630789450266898e-02,1.027376651763916016e-01
-2.953653786479413790e-01,-2.583439541641623372e-01,-2.568415406981727211e-01,2.813236641979711267e-02,-2.453254493674031367e-02,-5.095788194771235652e-02,1.157514974474906921e-01
-3.364831478218450189e-01,-2.725893890350955528e-01,-1.718592508545426223e-01,4.743384123424595859e-04,-3.145893089249888162e-03,-9.718290220797608236e-02,2.214247435331344604e-01
-3.225934052725317192e-01,-3.370580274160731582e-01,-1.494928028540557507e-01,-1.677006150909054766e-03,-6.485554050830315276e-02,-8.528381573802953919e-02,2.590830624103546143e-01
-3.526849572692164481e-01,-2.820176277191968617e-01,-1.689198074293392637e-01,5.804421157459607739e-02,-3.738904347460152849e-02,-9.812161631261584471e-02,2.626063227653503418e-01
-2.966760859545377604e-01,-2.574707937424139392e-01,-2.488935770158398064e-01,-1.250172548314488000e-02,2.010850976692300437e-02,-4.469116420688565294e-02,9.808532893657684326e-02
-2.938218153296752733e-01,-2.576040161920813976e-01,-2.445503734832048526e-01,-2.941388317029684091e-02,2.731548752577053069e-02,-4.993269358350255205e-02,1.194514930248260498e-01
-1.432766901349214750e-01,-2.961259920988482675e-01,-3.745301570265737734e-01,-9.136838863374049935e-02,1.923634290880566616e-02,-5.991484700612233205e-02,2.800324559211730957e-01
-2.724131614863371520e-01,-2.698166769254736197e-01,-2.634526997133633253e-01,-4.439716292041635468e-03,3.788523835156269899e-03,-4.463422626424805133e-03,1.502412464469671249e-02
-2.397598711952172723e-01,-2.632891208332535093e-01,-2.911171425073931784e-01,-4.146161735438400747e-02,2.974064680025179097e-02,-2.202441907181071704e-02,1.060600653290748596e-01
-2.669482077135749143e-01,-2.525912499749968787e-01,-2.833115876509707531e-01,5.056782295544619277e-03,3.865324287144250061e-03,2.030718092756262673e-03,2.902959845960140228e-02
-2.282632066031708984e-01,-2.032370738026658408e-01,-3.819413956449439485e-01,-1.071020828033532879e-01,2.489379801053520289e-02,-2.642968675839107648e-02,2.577916085720062256e-01
-2.533592227008771292e-01,-2.696533554785926490e-01,-2.813228845873890216e-01,-1.316133866343100096e-02,1.064497048027501606e-02,-1.236568661737549174e-02,4.370538517832756042e-02
-2.646729715715134823e-01,-2.617119207482643817e-01,-2.782901294227857480e-01,1.689330387503353145e-03,2.491696612009458578e-03,1.022560759474961051e-03,1.627390459179878235e-02
-2.323461347657819476e-01,-2.774249829450119442e-01,-2.937451872152123111e-01,9.030500656239219548e-03,1.072865196758784282e-03,4.229564385483593723e-03,5.775740742683410645e-02
-2.147453642667181695e-01,-2.574086516490463050e-01,-3.187198750030754701e-01,-9.140152299276360637e-02,3.816038003491959568e-02,-2.625218611729457710e-02,1.992331594228744507e-01
-2.946543874730968016e-01,-3.064359367922815935e-01,-2.124512819229053551e-01,-1.521381541313160043e-02,4.701471135065077300e-02,-1.949498813733772234e-02,1.277901679277420044e-01
-2.852696184658829459e-01,-2.794142845890151827e-01,-2.430555182418230598e-01,-5.932803617989937384e-03,1.133047201467756587e-02,-1.410914543127131208e-02,5.154681950807571411e-02
-3.176795078912325598e-01,-2.824609452373507690e-01,-2.149397441320252677e-01,-2.836065285954435244e-02,1.019350395129240971e-01,-1.088722031761935743e-01,2.780686318874359131e-01
-2.994683873391657536e-01,-1.769158007861955095e-01,-3.008540129351083836e-01,-7.497782980564952904e-02,3.723248465407932167e-02,-8.227178891245243153e-02,2.377406358718872070e-01
-3.047403059531400560e-01,-2.200398670975612370e-01,-2.837295097753325113e-01,-1.231583362246222169e-01,4.322252644505727992e-02,-6.621732432105832677e-02,2.647615671157836914e-01
-2.597051743677660229e-01,-2.843862979197532281e-01,-2.609839315148468897e-01,-2.385380072969638674e-04,7.688913948361436601e-04,3.798002479337334015e-04,2.411657012999057770e-02
-2.617959233582633494e-01,-2.822571036161317659e-01,-2.619304496224840739e-01,2.514221286885029265e-03,4.276886765768530760e-03,2.748177257283785507e-03,2.263674139976501465e-02
-2.498715897899935201e-01,-2.848549937725912140e-01,-2.666363310814556242e-01,1.748848814371052477e-03,6.422261053731019922e-03,3.116307190166746517e-03,3.287024796009063721e-02
-2.482233359685948326e-01,-2.881572843723335664e-01,-2.662969027810991873e-01,1.135437676768672344e-03,6.655089554387684514e-03,1.489381326230365763e-03,3.664721176028251648e-02
-2.589271922913490842e-01,-2.838526520328272240e-01,-2.607037551507042639e-01,1.386300680536570271e-03,2.799477834747621154e-03,1.488737113809051552e-03,2.482093498110771179e-02
-2.460025550841830055e-01,-2.916169851834687354e-01,-2.659052741694145072e-01,4.445647940794476448e-04,6.822216663144350067e-03,2.123606481623657293e-03,4.150534048676490784e-02
-2.666911351526278229e-01,-2.499085943635508678e-01,-2.859874465861205750e-01,5.801455053252554776e-03,1.365804588567592643e-03,6.536025114951607689e-04,3.294982388615608215e-02
-2.204786650237929024e-01,-2.897709055702119008e-01,-2.946682993186421351e-01,-5.794568073426456696e-03,9.953697746251327725e-04,-1.141559292426738096e-03,7.261104136705398560e-02
-2.085904813153683646e-01,-2.816908964125623971e-01,-3.052503914857997436e-01,-4.160026841995689839e-02,-6.139145844837492864e-03,1.168721035151864445e-03,1.137094572186470032e-01
-1.995187710643461787e-01,-3.125949335926671013e-01,-2.910505519911957273e-01,-2.375501562533994387e-02,2.573767379802641142e-02,9.313922051913490086e-04,1.204035356640815735e-01
-2.399013446958151441e-01,-2.914950886341068359e-01,-2.769724552476494073e-01,-4.493829151354571637e-03,1.687864765348316351e-02,-1.402116710340945262e-03,5.517872422933578491e-02
-2.171806845936253005e-01,-2.894766894949459268e-01,-2.970852373978981609e-01,-9.428816849920682031e-03,3.560045945249801572e-03,-6.502924136518509592e-04,7.836241275072097778e-02
-2.235962035493464506e-01,-2.908844288168792036e-01,-2.887341126682170245e-01,-5.184274069958051505e-03,3.118999229491449619e-03,-3.706349825345786782e-03,6.736960262060165405e-02
-2.604364172678320100e-01,-2.750359964189443285e-01,-2.588984746576739049e-01,-3.867690875300542480e-02,4.387915695913772313e-02,-3.905620935157532586e-02,1.227924227714538574e-01
-2.528872736828987611e-01,-2.770901725209001798e-01,-2.759611347203698162e-01,-9.088622865802984188e-03,9.038891986324815511e-03,-6.336655473351831755e-03,3.425058349967002869e-02
-2.637509705473169985e-01,-2.628247681650178191e-01,-2.782203959960394268e-01,5.806730703093917470e-04,1.609507947272157671e-03,6.218725659298210027e-04,1.528289914131164551e-02
-2.182363143445465448e-01,-2.956041950359766801e-01,-2.905403036224457058e-01,3.437728013305024429e-04,-7.724119100011484981e-03,-2.172704313437338549e-04,7.615202665328979492e-02
-2.127040605850192279e-01,-2.936359415110779691e-01,-2.992578188549353535e-01,-2.787850061532422524e-03,-2.937550172310071737e-03,2.177898053109938320e-04,8.417785167694091797e-02
-2.093982326743005773e-01,-2.981481568709372088e-01,-2.986998797513513715e-01,-3.149242071493208936e-03,-2.198605038926099500e-03,1.971994975119394219e-04,8.927591890096664429e-02
-1.891472086057199575e-01,-3.042326407980019964e-01,-3.040750358612755999e-01,-2.745789706380539780e-03,-5.202729835670590573e-03,1.112163019560317989e-03,1.154732778668403625e-01
-2.142117142001026542e-01,-2.953613129776954116e-01,-2.995838439736520642e-01,6.486231755903903995e-03,-1.129598103473810353e-03,-8.434391211482596910e-04,8.413036912679672241e-02
-1.367858890634918168e-01,-3.202471719141233852e-01,-3.402336790489027263e-01,-5.297811511305270532e-02,-3.950057334117652863e-02,1.250614723786673370e-02,2.264826595783233643e-01
-2.173352472519204936e-01,-2.988748698728051489e-01,-2.894994587854187729e-01,-1.270972739634999502e-03,-6.114146540433095835e-03,1.570883802098873997e-03,7.808033376932144165e-02
-1.882294888824603829e-01,-3.091658568237524163e-01,-3.054733877743771586e-01,9.916815128265386858e-03,-3.504802845008622107e-03,4.495844919779347880e-03,1.207692176103591919e-01
-2.705648195918868293e-01,-2.643976917073058708e-01,-2.699807943574188407e-01,-5.506949143211523935e-03,5.216896564059924149e-03,-6.749074853016968564e-03,1.854859292507171631e-02
-2.688914025857550572e-01,-2.681076119108983802e-01,-2.674748339776887862e-01,-1.050604210238790907e-03,7.666165433578681597e-04,-2.768234510524568751e-04,2.610556548461318016e-03
-2.659043325953722725e-01,-2.659360557693238314e-01,-2.716965482602685111e-01,-3.543727323441217374e-03,3.737741867101261606e-03,-3.573202789665572230e-03,1.229863893240690231e-02
-2.677663434581531998e-01,-2.667525862354138688e-01,-2.702429095741319953e-01,2.352619158289520726e-04,1.174276435941328965e-03,-3.634367079402300057e-04,3.790883580222725868e-03
-2.676284567624749866e-01,-2.705619623836261201e-01,-2.659160616602465610e-01,-1.912273365333398006e-03,7.582889590223454521e-04,-1.161157766398419671e-03,5.770728923380374908e-03
-2.648857489059030512e-01,-2.756977460404581026e-01,-2.633135955931351635e-01,-2.437670690724062002e-03,2.093137831483123795e-03,-1.046634503406576686e-03,1.306238025426864624e-02
-2.767073113434692644e-01,-2.526015412133162941e-01,-2.766897978667999802e-01,9.690241777889201449e-03,-7.154123171022891241e-03,-1.041445531131764135e-02,3.662370517849922180e-02
-2.928219475940017635e-01,-2.317790468061590170e-01,-2.807534810129827529e-01,1.200944167851992518e-02,-1.020160463363001951e-02,-2.482777080380843202e-02,7.569242268800735474e-02
-2.609515719896752795e-01,-2.742561512771425902e-01,-2.689536254537795434e-01,6.610844915557988200e-03,-7.601352804501014873e-03,-7.705097033330528603e-03,2.484225854277610779e-02
-3.239663374458968681e-01,-2.744790216353848455e-01,-2.210980205657318842e-01,6.028328271409587845e-04,-1.140565064490209508e-02,-4.648883694764487789e-02,1.217177063226699829e-01
-3.409279608531400330e-01,-1.610020538061883166e-01,-2.866463024622604161e-01,-1.019237629645526957e-02,3.666410447811821634e-03,-8.777617564885664692e-02,2.214025855064392090e-01
-2.938196410348299925e-01,-2.446335168500453072e-01,-2.613393291630001780e-01,2.118339320545954262e-03,-2.778242948997421656e-03,-2.294148186694151825e-02,5.909498780965805054e-02
-2.935459406744018174e-01,-2.615689277198146589e-01,-2.553225472367988691e-01,6.979776889222849036e-03,-9.819977598971612459e-03,-2.404817829575494476e-02,5.858054012060165405e-02
-3.008759047956705013e-01,-2.785262659517425687e-01,-2.266047143605935399e-01,4.711697531182706261e-03,1.097412300175333458e-03,-1.955043988286964476e-02,7.465021312236785889e-02
-2.912016483592809180e-01,-2.364011121942271587e-01,-2.769739937741249602e-01,1.592294845908610911e-03,-3.818377812229206171e-03,-8.109317650907671080e-03,5.171528831124305725e-02
-2.912351132403979137e-01,-2.473841768902831639e-01,-2.652495626404661744e-01,-3.351888364964284296e-04,-1.066685446172055407e-03,-6.313101399153408892e-03,3.977410122752189636e-02
-3.702107111421151231e-01,-1.781287476662638536e-01,-2.595357238960808721e-01,4.921890814504672335e-02,-1.273867743697967674e-02,-8.458857445408510256e-02,2.389681339263916016e-01
-2.910400802219945682e-01,-2.382761419118477331e-01,-2.754929993284290779e-01,2.751206608897206925e-03,-4.015932982240565628e-03,-1.883820230891300462e-02,5.780262872576713562e-02
-2.800125818755839768e-01,-2.911824738860886441e-01,-2.304539476019525357e-01,3.048173503622830446e-03,1.246593390200049882e-02,-2.346310506577398950e-04,6.023808568716049194e-02
-2.905878678077617461e-01,-2.896273984680055036e-01,-2.222572656423537629e-01,3.745424026014495048e-03,1.323445356740904702e-02,1.441422750839986555e-02,7.612628489732742310e-02
-2.928558551708391189e-01,-2.923743293293032952e-01,-2.200001095013305596e-01,4.317797241753123957e-05,1.253358942143849688e-03,-3.000236946531119851e-03,7.283427566289901733e-02
-3.381129501790645087e-01,-3.501039288931602766e-01,-1.269070025173668903e-01,2.809397250412925401e-02,-1.858291232537161814e-03,9.743128622935298688e-02,2.795372009277343750e-01
-2.925663367052062647e-01,-2.769899187646192029e-01,-2.373338213875326175e-01,6.406845514645777588e-04,3.709119857960713196e-03,1.792872081479072316e-02,5.864939838647842407e-02
-2.797389052965246203e-01,-2.777885487675294529e-01,-2.464881182561171058e-01,4.927985219944828153e-03,6.381329707599720825e-03,5.465171228990321935e-03,3.645807504653930664e-02
-3.335113823906128427e-01,-3.081822682883741948e-01,-1.633681839686887960e-01,4.350861650207993488e-03,3.741369313054239247e-03,6.935951865333835065e-02,1.995287090539932251e-01
-2.772235887029600443e-01,-2.992000926808013883e-01,-2.344846379875210607e-01,2.399746279720126052e-02,3.080621274391926595e-02,3.886244501462963324e-02,1.111503913998603821e-01
-3.254499548419522714e-01,-3.205526741282029857e-01,-1.441687724140563176e-01,-1.897661045648139228e-02,4.234372407758578427e-02,-3.433097189144173472e-02,2.049249112606048584e-01
-2.435890082972517190e-01,-2.581998417723923023e-01,-3.028920654922174216e-01,2.788201309005735803e-02,2.229598083276872547e-03,-9.657343681977936453e-03,7.409985363483428955e-02
-2.255242159762744780e-01,-2.938224524021791351e-01,-2.862139313971795440e-01,6.941680690964957545e-03,-2.319188916603084211e-02,-2.190774745299457500e-03,7.730097323656082153e-02
-2.326550414349388141e-01,-3.009340284431610280e-01,-2.586386837760822899e-01,7.163511944181222280e-02,-8.448611480943724050e-02,-5.604683005234810389e-02,2.231485098600387573e-01
-2.548399557039292551e-01,-2.929720605219218732e-01,-2.555563177016341725e-01,3.985073244900986210e-03,-1.385806997598828388e-02,-7.496544826789906454e-03,4.711294546723365784e-02
-2.377197969630782115e-01,-2.779601324235423943e-01,-2.884846659114435607e-01,9.247971062090333538e-03,-5.536822158951767818e-03,-5.189245160862452147e-03,5.082214251160621643e-02
-2.336168558305927179e-01,-2.927869931834875539e-01,-2.752325781017019857e-01,2.501662517523081989e-04,-9.681374710751370488e-03,-1.179021806562395580e-03,5.528210103511810303e-02
-2.616551081797541256e-01,-2.603028820520853492e-01,-2.829854775508313103e-01,6.905714645666980031e-04,1.082916640620201158e-03,4.752307167811088478e-04,2.216490358114242554e-02
-2.912330972025425346e-01,-2.536866156498349123e-01,-2.588804394857704416e-01,8.612708186897148968e-03,-7.997487662177610659e-03,-2.593973343478798640e-02,6.061954423785209656e-02
-2.277030260234842729e-01,-2.920708500219763581e-01,-2.984963837339032477e-01,4.527468434957443444e-02,-3.609636371482918132e-02,-1.754238804389379389e-02,1.248180344700813293e-01
-2.515310468655440057e-01,-2.824119757712971190e-01,-2.700828757060571572e-01,8.715973877528062057e-04,-7.927829926575409233e-03,-4.201361438072389806e-03,3.112377226352691650e-02
-2.494020761813617870e-01,-2.897117238037797970e-01,-2.664171252544801916e-01,2.378773680917388271e-03,-6.064272262582754043e-03,-2.599703064775088154e-03,3.709563612937927246e-02
-2.459136259974885608e-01,-2.799276156563263451e-01,-2.780748043342317066e-01,5.333219896045442859e-03,-4.527191251587499819e-03,-7.362980953450006319e-03,3.750759363174438477e-02
-2.694433783907906887e-01,-3.007844957258676843e-01,-2.389400077303535097e-01,1.958959370271362750e-03,-2.268629551520592175e-02,5.054144734116292059e-03,6.708860397338867188e-02
-2.722985050664814555e-01,-2.654815442363581135e-01,-2.675962772672462742e-01,2.660739183812380320e-03,-2.784337857070091557e-03,-9.316663306331678107e-04,9.144791401922702789e-03
-2.688517852848766321e-01,-2.667103360372674592e-01,-2.690590569968154822e-01,5.546876050092032148e-04,-1.039891008978212524e-03,-4.760988802841733484e-04,3.149570431560277939e-03
-2.707855027847330676e-01,-2.675308724915075320e-01,-2.666034692709109422e-01,3.981558146982501316e-04,-6.651447681670523198e-04,-5.118845095188381388e-04,4.130370914936065674e-03
-2.713952785131386602e-01,-2.696673370910861456e-01,-2.633721593942255912e-01,2.906856134646194998e-03,-1.087524207406162209e-03,-1.002649962063389228e-03,9.241549298167228699e-03
-2.708162737311213264e-01,-2.667958457318686527e-01,-2.678235645587185854e-01,2.242474076628154286e-03,-2.037009693165876042e-03,-2.123042974966017973e-03,7.358288392424583435e-03
-2.676423486402733642e-01,-2.701285835179240147e-01,-2.669002924124042053e-01,2.124159418114608504e-03,-1.350368583303426621e-03,-9.587744651927947864e-04,5.508296191692352295e-03
-2.665967950436136102e-01,-2.708372959042122385e-01,-2.677323514193907239e-01,5.830241546677890135e-04,-3.154818599773724056e-04,-3.062056067090565699e-04,4.006947856396436691e-03
-2.671429122455923344e-01,-2.687856974341455985e-01,-2.688767983207848711e-01,1.386294947309389724e-03,-1.258572593389130486e-03,-1.353603110523848851e-03,4.344062879681587219e-03
-2.743313211182650257e-01,-2.460993299054038685e-01,-2.846092776757772613e-01,-3.201376808727415899e-03,-3.757863066858311597e-03,2.148737747045283229e-03,3.577444702386856079e-02
-2.902617129849052735e-01,-2.683330756504271886e-01,-2.447011088351462305e-01,-5.360091332827367216e-03,-5.740666975304443281e-03,1.579474893279076211e-02,4.991023615002632141e-02
-2.603781915651986467e-01,-2.394944946641993644e-01,-3.021371277059410887e-01,-4.233058946371742043e-02,-5.254084845476168254e-03,1.228172439114905276e-03,9.227673709392547607e-02
-2.814768655555117682e-01,-2.395704274691119462e-01,-2.784407059585349287e-01,-1.236523887784864509e-02,-7.751015122791408973e-03,1.280942755092278999e-02,5.262422934174537659e-02
-2.877867914008643835e-01,-1.789667946368040108e-01,-3.346843302429063360e-01,-1.454114338907287196e-01,8.909023077211818825e-03,2.574650778224892890e-03,2.878124713897705078e-01
-1.863862311790327464e-01,-2.761846594054919168e-01,-3.117654741332034352e-01,-9.086955234614517429e-02,-5.744352669797400668e-02,4.034391274129041360e-02,2.282079160213470459e-01
-2.805504043004976023e-01,-2.637117452475892243e-01,-2.608688132028042506e-01,-1.711878753331246570e-03,6.644176288550131390e-04,-4.509230451972775534e-04,1.871415972709655762e-02
-2.806682735485198643e-01,-2.621978902490599839e-01,-2.613827332522596913e-01,-5.033311936576300620e-04,7.091393403890609197e-04,-2.163198252902406339e-04,1.895480975508689880e-02
-2.832445411574416871e-01,-2.604151017119242240e-01,-2.612029544308434037e-01,-6.216461378099580022e-04,1.024931573356062690e-03,-5.503921866290628151e-04,2.256185561418533325e-02
-2.772930398781216499e-01,-2.572150965536404987e-01,-2.692901627929745190e-01,-2.197346891820653979e-03,4.953495764441684032e-03,-2.128121620339004302e-03,2.020325697958469391e-02
-2.827735096718230756e-01,-2.534760958100595318e-01,-2.673168319670021220e-01,-1.850480243201653094e-03,4.322412552687900089e-03,-4.717150036215898151e-03,2.788339555263519287e-02
-2.620315329632698642e-01,-2.616927076097751992e-01,-2.805736096338922736e-01,2.975395423628269978e-04,5.095732783721525130e-04,6.899260067106135043e-04,1.877973601222038269e-02
-2.835171316969749000e-01,-2.582604920771131018e-01,-2.626145581455974765e-01,-1.210947009673493321e-03,2.420093908854596947e-03,-2.988382026799650103e-03,2.440589480102062225e-02
-2.858411274363598098e-01,-2.542955713751073876e-01,-2.652688226524161919e-01,-1.070643834503432314e-04,2.564081855475857006e-05,-1.859302950924277865e-03,2.792461961507797241e-02
-2.694592737116689452e-01,-2.575891478196218887e-01,-2.760834429081939767e-01,-3.018303357166679437e-03,4.540971975470557177e-03,-1.998618979906623908e-03,1.909409277141094208e-02
-2.685170343888579336e-01,-2.510308153899573069e-01,-2.873682153294930819e-01,-2.091792140106862527e-02,3.512279817678286287e-03,-1.255751777411866568e-02,5.304272845387458801e-02
-2.651246145979542779e-01,-2.627704253223202557e-01,-2.758830351543894444e-01,-2.374072530239372883e-03,2.559858703494558539e-03,-1.123113179076421896e-03,1.367350015789270401e-02
-2.639334201941116453e-01,-2.680198028517231101e-01,-2.716553942467533345e-01,-9.071329526224320566e-04,1.367894721424598586e-03,-2.192032625667942377e-03,8.201802149415016174e-03
-2.667629458083258243e-01,-2.655115999974895225e-01,-2.730020139744880892e-01,-1.718066895939159965e-03,1.980716133854937104e-03,-2.369743586976195623e-03,9.261268191039562225e-03
-2.720157141434176307e-01,-2.952463188348459222e-01,-2.383928017379668418e-01,-1.470524356074469699e-02,5.411465490496965985e-02,-5.308033531545765064e-03,1.094060689210891724e-01
-2.676482662989923544e-01,-2.681617768926637946e-01,-2.683206861914745889e-01,-1.659766100183042003e-03,1.834282260279378792e-03,-1.540654296492652287e-03,5.084253847599029541e-03
-2.813912696530159185e-01,-2.629742108194142447e-01,-2.596001387469769606e-01,-2.496253073028166774e-03,1.175013257842488388e-03,-2.422259640445432755e-03,2.128733694553375244e-02
-2.662448275356614213e-01,-2.694403079042179128e-01,-2.682794986614662758e-01,-4.228504336308649991e-04,8.192598758843421848e-04,-1.106639867298060600e-03,3.751420183107256889e-03
-2.669076974544631886e-01,-2.672845284812844224e-01,-2.708353620092111003e-01,-1.505197724441807760e-03,2.193002177630773257e-03,-2.028464100346339099e-03,6.903413683176040649e-03
-3.019252751482455199e-01,-2.312233980468734740e-01,-2.770325301824770881e-01,-2.206885030192219503e-05,9.840441577550302840e-03,4.886823056912473207e-02,1.063637956976890564e-01
-2.876760410191286366e-01,-2.375484575718316838e-01,-2.764058920759794313e-01,5.920598588379065962e-03,5.397341138343345404e-03,1.027180537622648764e-02,5.083236843347549438e-02
-2.973778476811618221e-01,-2.458523920543780328e-01,-2.618617669580018403e-01,-8.819266749317405951e-03,-3.003359812887235972e-03,2.490039399876205900e-02,6.485962122678756714e-02
-2.905540169314445031e-01,-2.470692285532811727e-01,-2.667142753488417894e-01,-6.229841680615471385e-04,-5.166361116845608016e-04,6.203879197985405665e-03,3.924313187599182129e-02
-2.883428869681141093e-01,-2.445155573506162805e-01,-2.733675739109835967e-01,2.643717796429260504e-03,2.020680714277496050e-03,3.858993986964005113e-03,3.958104923367500305e-02
-2.929277586114422127e-01,-2.200071009368154140e-01,-2.910943407398885463e-01,-1.881349953676306804e-03,-2.070341130330408640e-03,6.947018004632860184e-03,7.318025827407836914e-02
-2.862585725447053253e-01,-2.897455679688248908e-01,-2.308268316844649393e-01,-1.982431094843647035e-03,-1.794766833661574565e-02,1.240355971075116429e-02,6.868638098239898682e-02
-2.570164394546997633e-01,-2.755322167479175577e-01,-2.717960949536344928e-01,-6.441076566006943144e-03,-1.028044763674109026e-02,4.349756334747001581e-03,2.803394012153148651e-02
-2.527733280459245613e-01,-2.887136194711972803e-01,-2.652964308093719858e-01,1.096237095788093075e-03,-1.028795814163192129e-02,-1.485816832042033192e-03,3.641707077622413635e-02
-2.749735746401205660e-01,-2.907380897585273294e-01,-2.371541875582943715e-01,-3.654171672085941049e-03,-3.132193257093477280e-03,-7.257589908669018338e-04,4.843657091259956360e-02
-2.717585842356002312e-01,-2.861499519512767375e-01,-2.498371720571961052e-01,-5.043240751361232829e-03,-9.289086702372441676e-03,2.430141082028245986e-03,3.682417422533035278e-02
-2.352643419066253183e-01,-2.913189835288805263e-01,-2.791567408823866225e-01,-3.892417053312230077e-03,-9.030919984309564510e-03,1.650451546709866876e-06,5.383696034550666809e-02
-2.850770786030240589e-01,-3.209653631775439830e-01,-2.070374457136600899e-01,1.048470110928711313e-02,-5.778194833976570133e-02,-1.338036706457060819e-02,1.451275646686553955e-01
-2.518555047837693905e-01,-2.775233588398441364e-01,-2.747951916827424124e-01,-4.050061256318882551e-03,2.707421944609753051e-03,-5.441212191377728727e-03,2.750045806169509888e-02
-2.348827302703503372e-01,-2.901866882390913283e-01,-2.803467589905103696e-01,5.831152499507029742e-04,1.031378606624919550e-02,-3.769358236444127729e-03,5.453376844525337219e-02
-2.412503018545425204e-01,-2.900163060500600132e-01,-2.736080323462358188e-01,-7.388185505346594453e-04,5.127370876767532726e-03,-1.922972177288626711e-03,4.403168708086013794e-02
-2.589604547550246050e-01,-2.795260181899040242e-01,-2.667838604996899399e-01,-1.020253778425530894e-03,1.463612874554911548e-03,-3.717431974558765492e-03,1.934586465358734131e-02
-2.360846319980098307e-01,-2.707822575478850413e-01,-3.007213015921752497e-01,-5.383975740112767472e-02,1.529578789510835802e-03,-1.418125941260093420e-02,1.115597933530807495e-01
-2.761622175148878977e-01,-2.790725292227101972e-01,-2.502556158821002130e-01,-6.703189021594484036e-03,1.025682857097505105e-02,-1.121957361387971447e-02,3.978769481182098389e-02
-2.115567013692793430e-01,-2.310683095863184655e-01,-3.742742276155804348e-01,1.534523465502547757e-01,3.012035356706644490e-02,-3.307514595402694102e-02,3.167479932308197021e-01
-2.448230652552168263e-01,-2.508219704164919017e-01,-3.198205930290026200e-01,7.984535274274720540e-02,1.118653455325859100e-03,1.108089480641042367e-02,1.571899056434631348e-01
-2.994641456319808159e-01,-2.167019908208733803e-01,-3.137471427216320108e-01,1.205857443280298480e-01,-6.898461780925244091e-02,-8.566202209299422776e-02,2.968989908695220947e-01
-2.563118374510913178e-01,-1.673801847788399244e-01,-3.906979553929397220e-01,1.258610929102060294e-01,-3.171048962429851709e-02,6.527544022618013073e-03,2.976360023021697998e-01
-2.337573535981784523e-01,-2.135436185180600854e-01,-3.433521426446113911e-01,1.224702846143135571e-01,1.238867995885865880e-02,1.188570636810927159e-02,2.460001856088638306e-01
-1.552711632946212061e-01,-2.745387939030365931e-01,-3.519256256132778371e-01,1.089175973497994027e-01,-1.669216286251600651e-02,-1.171404983406030588e-02,2.574488520622253418e-01
-2.592545000176492143e-01,-2.182232855025254270e-01,-3.293894249993155054e-01,5.797001892470565743e-02,-2.528521057285329846e-03,-1.830911505558716415e-02,1.434803456068038940e-01
-2.375100965899303307e-01,-2.892677769916756070e-01,-2.780614191773179700e-01,-4.240153679386313677e-03,-1.834051877007090645e-02,5.843597114555137799e-03,5.822309106588363647e-02
-2.266466386761967211e-01,-2.876885892591694027e-01,-2.842630404571617753e-01,-1.986614303342587248e-02,-2.642779524498774235e-02,9.180481479401793321e-03,8.402899652719497681e-02
-2.707401909470653623e-01,-2.823680675668118756e-01,-2.512229283270361324e-01,4.306576614894349307e-03,5.233168658672343945e-03,1.557249779788636790e-03,2.980181947350502014e-02
-2.652481706461033983e-01,-2.858228264483191339e-01,-2.543044739200954751e-01,8.270413534137208535e-04,2.244764342006628968e-03,9.565624960986082324e-05,2.802570350468158722e-02
-2.666474088999828962e-01,-2.816490266807945009e-01,-2.572087596527531383e-01,3.569078308011050527e-03,2.576738819419615786e-03,2.539783580783598615e-03,2.309148944914340973e-02
-2.818964558258272857e-01,-2.079238660445926201e-01,-3.163712797888119099e-01,5.657396944222460589e-02,-7.190250840861457313e-03,-8.471780045807978873e-03,1.385023593902587891e-01
-3.070667654082485654e-01,-1.854808738610045360e-01,-3.044997958049702191e-01,7.627301950022501165e-03,-3.607512099968990769e-03,-6.036849127160666059e-03,1.216573491692543030e-01
-3.019433678142643962e-01,-1.838926596901299670e-01,-3.246325125986615490e-01,2.786716928843465529e-03,6.796025804326416044e-03,7.588426931998858843e-03,1.321508437395095825e-01
-2.950004029604741951e-01,-1.696455036888244172e-01,-3.247835326821350010e-01,7.909028107202457913e-02,-2.054480301959545063e-02,-2.221855721327821789e-02,2.045664340257644653e-01
-2.944348805257915314e-01,-2.211152390206514162e-01,-2.892325925492313932e-01,1.142153953416392108e-02,-1.225628242247414710e-03,-1.627839303326880996e-02,7.881765812635421753e-02
-2.984064898687897038e-01,-2.113341133782508652e-01,-3.028851972422714200e-01,1.307257252334837784e-02,-4.828505934476171220e-03,-2.224788983424224806e-02,1.002953350543975830e-01
-2.672508578897331288e-01,-2.907059817131360524e-01,-2.426374430747210431e-01,-5.786643873851623175e-03,-2.142165368229223543e-02,6.185447940690902077e-03,5.766429007053375244e-02
-3.807250438538064552e-01,-1.014024786456040328e-01,-3.255142105134496977e-01,4.721250997207626643e-02,7.957747788272989675e-03,2.261310017789434738e-03,2.693326473236083984e-01
-3.039430848020774900e-01,-1.715201898366132682e-01,-3.095368025771045306e-01,4.783016124994395046e-02,-3.263284558131818863e-02,-5.802035247716513799e-02,1.961244791746139526e-01
-2.652432609353958526e-01,-2.827297480555148179e-01,-2.280434947539772272e-01,-6.932762099674340261e-02,-8.777422770290227438e-02,7.993523249629240490e-02,2.429833710193634033e-01
-1.742646011095865810e-01,-3.352540965038975918e-01,-2.956106341491347989e-01,-5.279604089580230974e-02,-1.271621634793541622e-01,7.282661145945442532e-03,2.795336544513702393e-01
-2.586395941363921480e-01,-2.736902466821607427e-01,-2.730049445721941526e-01,-2.016582206266754815e-02,-9.824333408408901513e-03,1.397013302492105397e-02,4.808019474148750305e-02
-2.498061739442813400e-01,-2.648942269672084904e-01,-2.863098457842188083e-01,-1.716769283324771217e-02,-6.962727769404744062e-03,7.387387527821575109e-03,4.693342372775077820e-02
-2.385225074352636532e-01,-2.756288015394170454e-01,-3.025009415505441335e-01,-4.957431478405011777e-02,-2.463052058403967723e-02,2.266015200499348764e-02,1.175984144210815430e-01
-2.585283118659125745e-01,-2.735485084370129494e-01,-2.762386196841155050e-01,-6.418268079532875488e-03,-5.620354139461422593e-03,5.099130642781692785e-03,2.386629581451416016e-02
-1.998858433784056199e-01,-3.135226473540423942e-01,-3.078686074004808870e-01,-2.619861469259276640e-02,-2.583444664037050018e-02,-4.955781802745678338e-04,1.279252916574478149e-01
-2.693612610705586330e-01,-2.682203314414818296e-01,-2.675503628789764332e-01,1.433270774347457626e-03,-1.527607946591906475e-03,-1.581482082880217386e-03,4.814745858311653137e-03
-2.758414138382243586e-01,-2.640763009149865170e-01,-2.646319773714690959e-01,1.574073534088614749e-03,-6.073337846917442476e-04,-9.412717234598558594e-04,1.197441946715116501e-02
-2.753223956348759272e-01,-2.639666477539856504e-01,-2.658070480702092175e-01,6.952072854256686552e-04,-5.627291211737851838e-04,-9.049737765367737909e-04,1.078414730727672577e-02
-2.735719805851692388e-01,-2.655488572602193176e-01,-2.658690837303194221e-01,5.497169651877168665e-04,-1.250480998146030883e-03,-2.170618141213619329e-04,8.224528282880783081e-03
-2.758859829279866616e-01,-2.656313465726197753e-01,-2.629546918666923472e-01,2.287875099725779262e-03,-1.303315554874425256e-03,-1.088703482249363599e-03,1.281112805008888245e-02
-2.712441533613836886e-01,-2.698583210209606897e-01,-2.632114420888667095e-01,3.170230221919639359e-03,-1.007541904080733056e-03,-9.582233179524456395e-04,9.553222917020320892e-03
-2.827497984261861386e-01,-2.614153864764303115e-01,-2.606093122849852395e-01,1.024499409571706524e-03,-8.891368544518174458e-06,-3.657167280603556355e-04,2.183012291789054871e-02
-2.792751689337070742e-01,-2.629310105153697119e-01,-2.625180587551158573e-01,2.901467284992440259e-03,-2.518265836319962935e-03,-3.705866527810764213e-03,1.896133646368980408e-02
-2.783677448986285885e-01,-2.545844793670956618e-01,-2.697238384426017266e-01,3.783619978272053860e-03,-5.264262575335496713e-03,-4.023825830525090512e-03,2.468681335449218750e-02
-2.757772608118783109e-01,-2.580865441123220694e-01,-2.696411107876122148e-01,1.829283608215047461e-03,-4.652309314859549329e-03,-2.770466557609157273e-03,1.844066567718982697e-02
-2.729416595869217921e-01,-2.654836924702368983e-01,-2.661469332726520420e-01,6.693233883976108280e-04,-1.368999062189270744e-03,-3.296918933578943996e-04,7.642465643584728241e-03
-2.784715587955550742e-01,-2.638846403609678704e-01,-2.612792194850766525e-01,2.619103031946344237e-03,-8.185970504657142993e-04,-2.088535946091824545e-03,1.712445169687271118e-02
-2.725667676346775203e-01,-2.699375667610851015e-01,-2.616912670662834284e-01,3.449548203578900029e-03,-5.607734335551296453e-03,-3.704099295670049835e-03,1.636443100869655609e-02
-2.440586418827009607e-01,-2.906364637072387791e-01,-2.610523875444326625e-01,2.539067743948312736e-02,-3.977549404152522228e-02,-1.812174866065661971e-02,9.660368412733078003e-02
-2.722448366889536620e-01,-2.602560102700568478e-01,-2.703144737564313616e-01,2.487929776548031442e-03,-5.297604779701248039e-03,-3.724441992318804594e-03,1.639186032116413116e-02
-2.753380504781784976e-01,-2.657108668960886377e-01,-2.639502287031307848e-01,6.205485424708405548e-04,-6.201375760628480196e-04,-8.379061720571567406e-04,1.082347985357046127e-02
-2.985776053169499344e-01,-2.974943404059948171e-01,-2.123866407434396031e-01,-1.089650692460689433e-03,-5.577843315613971453e-03,-1.492997037539719411e-03,8.625702559947967529e-02
-2.883180142147525049e-01,-2.887874146593116254e-01,-2.280403739096672489e-01,-8.602538087388037630e-03,-2.509922463175488436e-02,1.102878926881760771e-02,7.835008203983306885e-02
-2.912534769628742914e-01,-2.915084280427051033e-01,-2.180696780395028900e-01,-6.732934145246189522e-03,-1.363250927845901031e-02,1.618710186033641210e-02,8.279004693031311035e-02
-3.000044371369789409e-01,-2.926381921429106470e-01,-2.133543421408976293e-01,-1.391037271001036848e-03,-5.759643924910658533e-03,6.159561438165679984e-04,8.384913951158523560e-02
-2.923200465227012712e-01,-2.955148570531503927e-01,-2.149888558361022772e-01,-3.709871874075123047e-03,-1.462567760587355978e-02,4.992339766670461426e-04,8.319342881441116333e-02
-2.986576414727522000e-01,-2.920505531920339348e-01,-2.094728664892211434e-01,-8.153923149000596570e-04,-3.832475041326601113e-03,2.294121513559029338e-02,9.504357725381851196e-02
-2.136565573500640858e-01,-2.898617916632127423e-01,-3.033367554076870087e-01,-1.685962215049300814e-02,-1.361682559628170017e-02,6.988023112108348971e-03,9.258059412240982056e-02
-2.584993848013880102e-01,-2.858210307247226467e-01,-2.603711162750504404e-01,-9.653675082983313380e-04,3.330261259633023139e-03,1.571773150743683428e-03,2.724547870457172394e-02
-2.701612216820513668e-01,-2.678508957242553001e-01,-2.668762421632029369e-01,-1.076505620751185216e-03,6.113404591377483675e-04,1.531585292337163463e-05,3.624614560976624489e-03
-2.710185522094508137e-01,-2.672377032855996482e-01,-2.661694749050597664e-01,-3.945834313549813560e-04,5.464739820047877185e-04,4.532430230905649254e-04,4.631848074495792389e-03
-2.726036533896173397e-01,-2.656966079496409505e-01,-2.661532899559901910e-01,-4.703327707348896021e-04,1.455826736621308997e-03,-3.921043229827518703e-04,7.228048518300056458e-03
-2.662450148102029623e-01,-2.682476477323096908e-01,-2.694716609123337658e-01,-7.781489682509030569e-04,4.639452297801386054e-04,-1.106198275495024006e-03,3.754104720428586006e-03
-2.622882067305675746e-01,-2.839707303873417743e-01,-2.593283330546896637e-01,-3.222533043561450969e-03,5.869189584734209320e-03,-1.828935190211292312e-03,2.622215822339057922e-02
-2.688538284939526180e-01,-2.674735251673026060e-01,-2.681371397065662743e-01,-6.688621994045307502e-04,1.105414608933533464e-03,-2.932319893845524469e-04,2.587574534118175507e-03
-3.314171390021420360e-01,-2.757642287411226079e-01,-1.988351916668741060e-01,-1.073908329110118999e-02,2.127908159555413209e-02,-4.837454516580744213e-02,1.483958214521408081e-01
-3.096139672027180545e-01,-2.899608084708752420e-01,-2.040925152099047901e-01,2.168890660816171628e-02,-1.331861703635889814e-02,-3.174286167626747673e-02,1.200558394193649292e-01
-2.964155946845044576e-01,-2.773186761531600819e-01,-2.317597344610160537e-01,1.221457018302977851e-03,1.359680848478377448e-03,-9.850365240782811907e-03,6.009539216756820679e-02
-2.916091582542513772e-01,-2.747382639353115885e-01,-2.443779379088353854e-01,1.160659702542939445e-02,-1.008138371988251229e-02,-2.115666725114813060e-02,6.140389293432235718e-02
-2.907904801173964993e-01,-2.853546902202057090e-01,-2.310010688256076139e-01,6.483220908167820935e-03,-1.699778408219945053e-02,-1.177503903989385314e-02,6.847002357244491577e-02
-3.522813101204378960e-01,-2.240368313807094558e-01,-2.289419511258377338e-01,-2.399172000518605061e-02,-3.870906211894799970e-02,-1.260391800648897609e-01,2.640478312969207764e-01
-3.313080150326481177e-01,-3.049599276518520363e-01,-1.528960395315984711e-01,1.208904217290497109e-02,-3.148805699174785783e-02,-7.515556052641277074e-02,2.195045351982116699e-01
-2.575266865005502170e-01,-2.826687367236371262e-01,-2.660376364409597905e-01,-4.638432823850953228e-03,-1.047564370805999928e-02,3.428521400530159299e-03,3.032495640218257904e-02
-2.650267176652146284e-01,-2.837965733290481185e-01,-2.556348725170171088e-01,-6.250838521971189892e-04,-2.013717773286076169e-03,6.449114585452573939e-04,2.512733452022075653e-02
-2.578283043589130186e-01,-2.852378932906713960e-01,-2.584664091328577884e-01,3.137731803310981910e-03,-1.032846317417207560e-02,-3.317676189342472128e-03,3.341842442750930786e-02
-2.374713736851686019e-01,-2.905026479364490322e-01,-2.776247261687493362e-01,-4.295792407261580029e-03,-6.150077667422794436e-03,3.906323931085510515e-03,5.009824782609939575e-02
-2.500977485709504067e-01,-2.641072908041234291e-01,-2.888388337934937322e-01,-5.556814441493559791e-03,-3.651075544077940732e-04,1.422380583576826401e-03,3.540477529168128967e-02
-2.430026066387575567e-01,-2.724253822837520156e-01,-2.901098967581927091e-01,-7.053577162249986994e-03,-3.205339663256647278e-03,7.356136266224535571e-04,4.336443543434143066e-02
-2.612113455620536095e-01,-2.618301612684184598e-01,-2.825824685805339853e-01,-4.219182817093047877e-03,-2.215459456831316183e-03,2.060013602050331759e-03,2.290727570652961731e-02
-2.593906374370972268e-01,-2.608639705932955799e-01,-2.844724186909262653e-01,-8.034807163519978737e-04,-1.528851286068107587e-04,3.125719887658906558e-04,2.442565560340881348e-02
-2.657302357341235766e-01,-2.534430433936203930e-01,-2.885818356437694354e-01,-1.169745746945237072e-02,3.043173497286605486e-04,-8.181062197816345999e-04,3.696931153535842896e-02
-2.671320761363599749e-01,-2.479268053146055084e-01,-2.879705910596869201e-01,-5.967449312873236537e-03,1.755404898177409523e-03,-1.055595204365307113e-03,3.636913374066352844e-02
-2.879217556142351642e-01,-2.480255216848537281e-01,-2.667002647219645084e-01,2.721967805773428824e-04,1.534476944699778153e-03,6.528570590542297387e-03,3.647679463028907776e-02
-2.883901256035314442e-01,-2.401325148822850974e-01,-2.772980489589200181e-01,3.589802509434770854e-03,5.070346629101719384e-03,2.052437255056450277e-02,5.741157382726669312e-02
-2.924139433918776509e-01,-2.337072884083739588e-01,-2.754325141282303879e-01,-4.884658027684074056e-04,-1.846602470034409103e-03,9.858634401013848664e-03,5.514019355177879333e-02
-2.907452905980466573e-01,-2.362707064632986187e-01,-2.747836819739219449e-01,4.036887600723674217e-03,3.552494399083927154e-03,1.161878176098703544e-02,5.333375558257102966e-02
-1.953623692497421793e-01,-2.947144570272292041e-01,-3.055929747069201508e-01,3.306629563222387297e-02,-8.049390070784964712e-03,-5.645872949218426647e-03,1.209964007139205933e-01
-2.321656569832510064e-01,-2.777428214553966379e-01,-2.944041194592136312e-01,1.114144968161195209e-02,-1.348772228961719628e-03,-3.962725171393170764e-03,5.949129536747932434e-02
-2.519853533962466141e-01,-2.619367596237878182e-01,-2.980254029059341003e-01,4.252011139062956968e-02,-1.991906423743136992e-02,-3.503495420083824197e-02,1.098047569394111633e-01
-2.026422501275527144e-01,-2.334393727958709031e-01,-3.471982959362704402e-01,1.286297434442193466e-01,-6.858496036728517313e-03,-3.798185458714490800e-03,2.592570781707763672e-01
-2.666372797612501233e-01,-2.103220093367543786e-01,-3.445684077237305409e-01,1.358276020599689105e-01,-1.132313433249840934e-02,-6.486091663100704285e-02,2.863323986530303955e-01
-3.296682349879236362e-01,-1.569729237388882981e-01,-3.298304135262059567e-01,1.150969330933911960e-01,3.672863959352170465e-04,-2.753042561405116481e-02,2.680816948413848877e-01
-2.631911219437785276e-01,-2.624512530517195130e-01,-2.797665750314547450e-01,2.225969252627064618e-02,-7.913087434226214953e-03,-1.052510008186930898e-02,4.789804294705390930e-02
-2.193361103375617294e-01,-2.254310789546435101e-01,-3.497901578836223324e-01,1.131893387797069106e-01,-3.595382924288157561e-02,-5.488718010377645340e-02,2.600223422050476074e-01
-2.561568992722503268e-01,-2.603332039850905777e-01,-2.915434638750247220e-01,-2.836971861773055978e-02,-1.286173541203201355e-02,7.466815186732882539e-03,6.480679661035537720e-02
-1.950633979937887452e-01,-2.817329380578115772e-01,-3.126634166190719322e-01,-9.760153979190144824e-02,-5.897550219942489236e-02,4.855359790300867867e-02,2.392360717058181763e-01
-1.925162237649254982e-01,-3.145326713667523921e-01,-3.024161255527780812e-01,-2.163298564596466932e-03,-1.543373220743992844e-02,-1.011887746332409011e-03,1.195329129695892334e-01
-2.133814340355080774e-01,-2.987738555736015877e-01,-2.934668140158993577e-01,-2.161779470834995949e-03,-2.243593518409424652e-03,8.988979488689584048e-05,8.304212242364883423e-02
-2.176299605804298543e-01,-2.990880834148742506e-01,-2.830193505685471567e-01,6.568195755321346464e-04,-2.094093465869229301e-02,1.073029937934445038e-03,8.309643715620040894e-02
-2.141316274805775133e-01,-2.836100464922180486e-01,-2.999356588746689423e-01,-2.719802548351581833e-02,2.189401189371232778e-02,-9.128581128944501105e-03,1.006741672754287720e-01
-2.219085146709718903e-01,-2.888356730340640999e-01,-2.936229533277156523e-01,-8.508063601076424481e-03,-5.349991868922681325e-03,2.793711997609689673e-03,7.175656408071517944e-02
-2.305778110011336146e-01,-2.838957601780128792e-01,-2.923001824472742927e-01,-3.531017282030763337e-03,-4.291862354508545370e-03,2.914173237920390791e-03,5.898886546492576599e-02
-2.358127613975347092e-01,-2.888793462436464732e-01,-2.857892738462074478e-01,1.329386650252786795e-02,-1.254723322842097970e-02,-4.618670363101248788e-03,6.105823069810867310e-02
-2.257268062914050688e-01,-2.853929981473344868e-01,-2.967299357044982377e-01,2.109715487642480070e-02,-3.845971215678204574e-02,-1.766752160865443094e-02,1.052338108420372009e-01
-2.434165092579144429e-01,-2.791622927029527856e-01,-2.829293786852803416e-01,5.590149862607820229e-03,-2.357473490082349389e-03,-5.715169824895346452e-03,4.043539613485336304e-02
-2.206573294961756693e-01,-2.966990702517284251e-01,-2.899709146241954416e-01,5.281949510305848118e-03,-7.473267149277765947e-03,-1.687117058674134909e-03,7.467114180326461792e-02
-2.246741606844768757e-01,-2.890953757050201411e-01,-2.904789301038212535e-01,8.248448973450414265e-03,-9.276477383228697027e-03,-5.297333148928183577e-03,6.919243186712265015e-02
-2.195999305721668404e-01,-3.044349035860701158e-01,-2.838860786421846250e-01,6.151184280107172562e-04,-2.671146284562602932e-02,-3.317850065151718014e-03,8.972532302141189575e-02
-2.271158767539815104e-01,-2.838019240893564499e-01,-2.902990545542147860e-01,3.377476963850882530e-02,-1.841758629208424883e-02,-1.606134432892834460e-02,9.400822222232818604e-02
-2.924164289049345222e-01,-2.393816191130804238e-01,-2.869131262662470983e-01,4.103657959920940096e-02,2.643769491156693421e-02,3.964007957355961120e-02,1.200582236051559448e-01
-3.369550338671413736e-01,-1.803752636075770521e-01,-2.878065907630123488e-01,-2.052727492709836149e-02,-4.419723781809259400e-02,1.140501602737566123e-01,2.557024657726287842e-01
-3.278091693158928788e-01,-1.486726342351369357e-01,-3.123495911360736899e-01,-1.526028682352088047e-03,5.414865236199685504e-04,5.668941366501277501e-02,1.980112493038177490e-01
-2.940417068049423488e-01,-2.310083722390649519e-01,-2.774215958859186371e-01,4.910196022379355665e-03,1.433915168871455681e-03,1.244753447465225468e-02,6.119746714830398560e-02
-3.039754066882180417e-01,-2.163305060729463214e-01,-2.739418071116433984e-01,-4.892677289198528630e-03,-2.971714628695887751e-03,4.139084279035595143e-02,1.057793349027633667e-01
-3.688074049195925186e-01,-1.427414524490350778e-01,-3.046724146124908938e-01,-2.696529374076208491e-02,2.381808448034883688e-02,6.803393203884816609e-02,2.418460398912429810e-01
-3.015190168379763280e-01,-2.310425667149949291e-01,-2.750560039652641953e-01,4.096408095213389423e-03,3.530378539387305468e-03,2.302190806420513491e-02,7.402674853801727295e-02
-2.737590693614375126e-01,-3.692750608557190395e-01,-1.596406842622763445e-01,-1.957295343168750229e-02,-1.033451372734630891e-01,-1.114720331365457416e-02,2.580875456333160400e-01
-2.544653608662746369e-01,-2.929315693846958335e-01,-2.561625780512701289e-01,-4.641401907693815587e-04,-1.232085391063532723e-02,1.400679414563586744e-03,4.334958642721176147e-02
-2.640723469587286654e-01,-3.031333618819235243e-01,-2.284959344933977787e-01,2.111217509633453102e-02,-5.244874464925880497e-02,-3.718722093155794883e-02,1.338639110326766968e-01
-2.886611303570000842e-01,-3.204966828402183165e-01,-1.910079552412824178e-01,3.615189534769183699e-02,-9.469280722480266643e-02,-3.988990204560968755e-02,2.219305336475372314e-01
-3.022944886967660616e-01,-3.149347965271704353e-01,-2.067491341193853360e-01,1.214147123810026957e-02,-1.272375717718193244e-01,-5.960951959109743459e-02,2.648900747299194336e-01
-2.607701487490418080e-01,-2.595868133003732536e-01,-2.845217267511126469e-01,9.188356331582821050e-04,-2.791609451798755868e-04,-2.457857882880867080e-04,2.442522533237934113e-02
-2.610014216231450468e-01,-2.613307419080676541e-01,-2.827591005901577970e-01,4.192790667207906170e-03,-1.692329193821149030e-03,-1.789556483610262169e-03,2.317925356328487396e-02
-2.667823417521931750e-01,-2.565408919027544754e-01,-2.835928932617843290e-01,8.589718407538114026e-03,-4.559979470623885811e-03,-4.056293283565665618e-03,2.987870387732982635e-02
-2.566616305216947169e-01,-2.674879331002208427e-01,-2.835856022401283538e-01,1.007829525030834103e-02,-5.581878551517852408e-03,-4.674214521818595598e-03,3.184894099831581116e-02
-2.481919107665650770e-01,-2.662433915233470838e-01,-2.881095775050393493e-01,5.978994080641500050e-03,-1.024158270945054209e-03,-1.597085664399456933e-03,3.628700971603393555e-02
-2.474199180000245246e-01,-2.672175587945003206e-01,-2.880425007956141648e-01,6.700932021619632889e-03,7.361692866355075979e-04,1.362852626763144323e-03,3.714586049318313599e-02
-2.615168102453641064e-01,-2.596177654875807539e-01,-2.836914302871880733e-01,1.001744018828033041e-03,-3.513200292925922411e-04,-1.462023247550087537e-04,2.325673215091228485e-02
-2.653923008061097599e-01,-2.639491666320291641e-01,-2.753932627008152667e-01,7.807155231846989825e-04,-2.517967093878654711e-03,-1.073714773791453357e-03,1.186769641935825348e-02
-2.574782214767040167e-01,-2.617771397717078563e-01,-2.849064307918142691e-01,3.426740879080609255e-03,-2.134145211435064550e-04,-7.003906113126273170e-04,2.626236155629158020e-02
-2.846669271291973335e-01,-2.318523858166045282e-01,-2.883659467684207556e-01,-3.555811184579883363e-03,3.334885530784327621e-03,-4.907386964280837163e-03,5.605322122573852539e-02
-2.714016611901238218e-01,-2.611687792944354380e-01,-2.700019022888955345e-01,-2.223722267585899644e-03,4.152899509018819109e-03,-2.645200569442143941e-03,1.341318152844905853e-02
-2.765470043668365463e-01,-2.353678412288850441e-01,-2.940609500067116189e-01,-1.365146732542473797e-02,8.742056914946233145e-03,-8.380492009386055971e-03,6.101416051387786865e-02
-2.739596435111270045e-01,-2.455988833814066741e-01,-2.852760137839704391e-01,-3.208998429041223788e-03,3.863463527103403600e-03,-2.922550705340324663e-03,3.680529445409774780e-02
-3.129065321955998846e-01,-2.098695527124019300e-01,-2.838177180306418190e-01,-3.750898012163940767e-03,1.151992286577900072e-02,-3.309347979838759418e-02,1.104147806763648987e-01
-2.745455509714994635e-01,-2.326526525058443540e-01,-3.150110007051989958e-01,-5.327249507105506071e-02,1.525849217437077326e-02,-2.631515026761332629e-02,1.279745548963546753e-01
-2.745013340516403444e-01,-2.529425400353927933e-01,-2.770399279509973001e-01,-2.182554312149164767e-03,5.534123704926722197e-03,-3.444698135830363828e-03,2.584033831954002380e-02
-3.160122601486419214e-01,-1.194247206003793138e-01,-3.757583185250549795e-01,-7.570667426715006754e-02,-2.939974134696906813e-02,-1.691679330393172989e-02,2.731440067291259766e-01
-3.239458083497054330e-01,-2.079682012592778961e-01,-2.842142503210802751e-01,-2.018368334124133120e-02,1.657237505608511949e-02,-4.807838426897829975e-02,1.392914205789566040e-01
-2.684790692249148791e-01,-2.678788236454234251e-01,-2.683170218201264001e-01,4.255702041027084820e-04,2.233157701637128593e-08,3.470872726333527891e-04,1.092714373953640461e-03
-2.684748325723415041e-01,-2.685952016378488905e-01,-2.676121865069829298e-01,2.362386129723501722e-08,4.295800064044344815e-04,3.637612614785785243e-04,1.346501638181507587e-03
-2.679509366987487540e-01,-2.682202961706851574e-01,-2.679142696022557280e-01,2.090467077714123643e-04,8.068478721909959350e-04,1.617729521651169026e-04,1.498799188993871212e-03
-2.680114654335517543e-01,-2.691351650497020853e-01,-2.671338670123760695e-01,1.311241638114774878e-03,5.019091078370315493e-04,6.581165051061085630e-04,3.198779653757810593e-03
-2.671544503390680392e-01,-2.689763450152585222e-01,-2.680706383884078337e-01,8.371774227722914973e-04,4.007588088235827361e-04,9.110908549959015855e-04,2.750305924564599991e-03
-2.675560332406781150e-01,-2.688550970788785022e-01,-2.685963787366966726e-01,1.524720068610628488e-03,1.472222422680565272e-03,1.020438438152463344e-03,4.244870506227016449e-03
-2.660129413771858964e-01,-2.755442080402293326e-01,-2.626403512421415787e-01,-1.286345452223976952e-03,-3.893362104844690476e-04,3.810847535451674121e-04,1.184140797704458237e-02
-2.216007673761831165e-01,-3.027998147691847164e-01,-2.695457274053791874e-01,-6.789199450942210758e-03,-3.813509174241120486e-02,3.542804804178869855e-03,9.766119718551635742e-02
-2.639152394924476619e-01,-2.783191590353664702e-01,-2.614690573359209069e-01,-3.040459190400538782e-03,-2.770613411961892879e-03,2.887033775764702697e-03,1.801272481679916382e-02
-2.701301318266741136e-01,-2.788533451193644930e-01,-2.544582584801999281e-01,-5.016891293373459959e-03,-3.184175077801976259e-03,4.088417575023995006e-03,2.478872984647750854e-02
-2.700829296873201724e-01,-2.755639561865306231e-01,-2.581562450090187921e-01,-4.500360530775650986e-03,-2.389885440263655406e-03,1.863706532393839647e-03,1.805470883846282959e-02
-2.730674405440697283e-01,-2.703480643334224554e-01,-2.599147209115736934e-01,-4.616914039227166394e-03,-1.959306988625455007e-03,3.237845112557983813e-03,1.585992053151130676e-02
-2.835863019560695975e-01,-2.644932351309203789e-01,-2.518671950043757657e-01,-1.101974152584458098e-02,-1.176988736397114980e-02,1.927922691049123102e-02,5.157511681318283081e-02
-2.637599812414628819e-01,-2.772195877590986068e-01,-2.635012930480390980e-01,-3.062360661959733638e-03,-4.156683066036457978e-03,2.953968505100241972e-03,1.705449447035789490e-02
-2.403321125133603131e-01,-2.735402179182486182e-01,-2.904759048750192307e-01,-4.741235498583033260e-03,2.100851426282782878e-03,-1.892995252401139233e-03,4.520427808165550232e-02
-2.049339799519789285e-01,-2.913337164245824451e-01,-3.113459343212035546e-01,-4.857326001141572952e-02,1.846668531537845256e-02,-4.393612481640694206e-03,1.332422792911529541e-01
-2.286314646320241062e-01,-2.766517637931472096e-01,-3.012796837787876658e-01,-1.883449701265919873e-02,9.219263677904829604e-04,-1.040658011444332105e-03,7.186888903379440308e-02
-2.776000532963304179e-01,-2.391731222498620912e-01,-2.889489868988232013e-01,-1.991957414284743419e-02,-2.149951442962479836e-03,2.996772811487192090e-03,5.720759555697441101e-02
-2.353656157185085585e-01,-2.879008199723307460e-01,-2.764231677654269692e-01,-1.718204130609448863e-02,2.748622161614088996e-02,-1.237763466526176949e-02,7.681448757648468018e-02
-2.480163830989638996e-01,-2.771972630863953069e-01,-2.779573381436002411e-01,-1.127236949545419413e-02,1.037438910939878292e-02,-5.977648800675869692e-03,4.105558246374130249e-02
-2.610337878997966432e-01,-2.835644663542956634e-01,-2.582547146375936964e-01,-6.620492303500718004e-03,8.123949337836723975e-03,-5.976752816114185018e-03,3.185313567519187927e-02
-3.514777508296437758e-01,-2.279152462101843579e-01,-2.268889470449453882e-01,-8.327925457719188851e-02,6.689620852704337983e-02,-1.024014160345304708e-01,2.847548425197601318e-01
-3.391182508719165489e-01,-1.719758346467516463e-01,-2.741660928325692081e-01,4.546015930406595990e-03,-6.463714933046586786e-03,-9.814678135618729038e-02,2.244656234979629517e-01
-2.373809899628821773e-01,-3.143999101724060385e-01,-2.554573648063144242e-01,6.158367185314448343e-03,5.891774711970720890e-02,-7.090750394317117851e-03,1.246794387698173523e-01
-2.078742215314590136e-01,-3.378433209361073608e-01,-2.396293978752004061e-01,-1.398760758087289752e-02,1.174745712412392784e-01,-6.004198932252988001e-03,2.363664507865905762e-01
-3.060835566602167490e-01,-3.033402417612522939e-01,-2.037306681607687908e-01,-1.262184625361260741e-02,2.138308050200627558e-02,-2.550848354402662777e-02,1.183407902717590332e-01
-2.185424263616867757e-01,-3.190915867413692819e-01,-2.473489414642663919e-01,-4.758504949839114512e-02,9.594521345914047705e-02,-3.836154522853542359e-02,2.164896428585052490e-01
-2.107767640599929881e-01,-3.094257661727567443e-01,-2.962550505970151238e-01,1.750615169663734261e-02,3.382512712505838376e-02,5.501588272942849710e-03,1.142297312617301941e-01
-2.142256366701612569e-01,-2.904557150225836049e-01,-3.098970711648259546e-01,-4.799952770283443665e-02,-7.885481734422616212e-03,4.989350190095619836e-03,1.218363419175148010e-01
-2.193702010508828959e-01,-2.951094515073724445e-01,-2.915418611612194955e-01,-4.615684990091503898e-04,-4.547024414283397722e-03,2.067963221197588377e-03,7.452818006277084351e-02
-2.089639733238685959e-01,-3.003695402713889018e-01,-2.869360064834994839e-01,-1.513556796579310429e-02,-3.161694155278719359e-02,8.588051749731930376e-03,1.059006676077842712e-01
-2.285194804704928362e-01,-2.747462303712172593e-01,-2.987725733427023522e-01,-3.143575473803315867e-02,-2.264980247516693024e-02,1.647762989057620017e-02,9.561921656131744385e-02
-1.796877852470508130e-01,-2.826977323370689632e-01,-3.154315693010341648e-01,-8.778412068908195143e-02,-5.500271637918804218e-02,3.358322490358512519e-02,2.250155955553054810e-01
-1.084102759075321054e-01,-3.335176656997311251e-01,-3.645843187739122859e-01,-2.466859413919760338e-02,-5.411997662907591655e-02,-2.436848075888425544e-02,2.665066719055175781e-01
-1.568987138144169735e-01,-3.573784041711039472e-01,-2.966050206378060272e-01,-8.820316178615840441e-02,-5.468634835598558397e-02,3.330052723062845027e-02,2.594988346099853516e-01
-3.032022483135147772e-01,-2.906967915608614783e-01,-2.062412339047013377e-01,2.776878560832048756e-03,-1.346658562429314419e-03,2.904211465732765146e-02,1.044231280684471130e-01
-3.145352343565400721e-01,-3.031320099397505352e-01,-2.017828039136633222e-01,-9.114415173931297159e-03,-2.895607744373640546e-02,4.448538778139089767e-02,1.423335224390029907e-01
-2.947625698549136697e-01,-2.844438603055678971e-01,-2.269922178201004559e-01,1.853802685391623978e-03,1.601917979592711212e-03,4.695890938993456214e-03,6.390739977359771729e-02
-2.897205037309376618e-01,-2.801505683604467722e-01,-2.357531982054302810e-01,-2.180834450558967724e-03,-1.094701315773901175e-03,8.082401435946582127e-03,5.197527259588241577e-02
-2.906927238106110090e-01,-2.772891183998658637e-01,-2.354882071208306005e-01,3.781959086146628561e-03,1.602822578829273632e-03,9.114982267529886037e-03,5.279319360852241516e-02
-2.641353244246674725e-01,-2.775922659175639740e-01,-2.629351467617199734e-01,1.665493733236519339e-03,5.958080201454970040e-04,5.625220025537718428e-04,1.445739530026912689e-02
-2.658617823385777124e-01,-2.754256306360587381e-01,-2.635535055068231602e-01,7.646884745498152636e-04,7.467619011245668669e-04,5.847306995572973919e-04,1.110514625906944275e-02
-2.641265944783754427e-01,-2.751764942691674043e-01,-2.658305807144923927e-01,7.420634823368150741e-04,1.933790811120678066e-04,1.657161856009244701e-03,1.077857613563537598e-02
-2.501892410250218246e-01,-2.847889994789776225e-01,-2.685050498149910148e-01,1.696287558296375592e-03,5.668859895152447009e-03,2.019664277095270782e-03,3.187737241387367249e-02
-2.654145236377401518e-01,-2.732394049411708825e-01,-2.648023858090736704e-01,2.850450116927457332e-03,1.737072169978825164e-03,1.219888911869629203e-03,1.021201442927122116e-02
-2.614053586493476633e-01,-2.783841111481830666e-01,-2.637597727052891083e-01,1.203507545203934661e-03,2.637551085434283044e-03,1.781868259122018367e-03,1.698784157633781433e-02
-2.582354648359446170e-01,-2.752528116568761507e-01,-2.711054573754728136e-01,1.730496550963177196e-03,4.620737026027738753e-03,4.846133825225485900e-03,1.948605105280876160e-02
-2.583419711803596197e-01,-2.617570879458484545e-01,-2.833992983769154095e-01,-2.607022729363953854e-03,-6.460207466374899782e-04,1.374364704153184210e-03,2.410948649048805237e-02
-2.561260283394144466e-01,-2.655389403040956942e-01,-2.830841316666658503e-01,-1.463186816197504115e-03,-1.119531577089523519e-03,2.202640822253573889e-03,2.421416342258453369e-02
-2.869607434542263413e-01,-1.857841073682981181e-01,-3.208540736272598171e-01,-8.051034157832580307e-02,3.122121057907582820e-02,-3.702960776701597762e-02,2.032198160886764526e-01
-2.614828322071276467e-01,-2.646385496576532104e-01,-2.778926696185348710e-01,-1.896430826226441161e-03,-1.740191778829209331e-03,3.159375804975677986e-03,1.665159501135349274e-02
-2.700792099720817352e-01,-2.648804475160134175e-01,-2.701793022931380239e-01,-4.822911919747681700e-03,-4.209441559070755366e-03,5.588632440380379360e-03,1.562675833702087402e-02
-2.602274009727121307e-01,-2.614510458299733053e-01,-2.827807513238945192e-01,-5.117386885864217945e-04,-5.468328935695813096e-04,9.545209513657064177e-04,2.206738851964473724e-02
-2.643504806644935146e-01,-2.579845672126178102e-01,-2.837113066641802628e-01,-8.921564438511685180e-03,-1.781715081491379521e-03,4.567191411250131131e-03,2.914618328213691711e-02
-2.360473865157694529e-01,-2.771806358546102245e-01,-2.927482993871135530e-01,-9.762484652203201260e-03,-4.440821094728915862e-03,2.277365486445847957e-03,5.417827144265174866e-02
-2.654517361646735463e-01,-2.484177784757531093e-01,-2.893831262485960787e-01,-1.591547496359813074e-02,-1.077008440762862798e-02,1.463997389890336551e-02,5.496718361973762512e-02
-2.671665825408162109e-01,-2.487223817965017736e-01,-2.875446170514336930e-01,-5.384915458696465027e-03,-1.558136611641492992e-03,1.048863463627200789e-03,3.505545854568481445e-02
-2.674614473280734761e-01,-2.504931582295962245e-01,-2.843925026766966346e-01,-5.368470834958562546e-03,-2.808010096728144264e-03,2.011116317053059446e-03,3.137075901031494141e-02
-2.448992471215921951e-01,-2.677185740088338650e-01,-2.909901056587020363e-01,-6.420318487028494302e-03,1.157121377125081051e-03,-3.202185613818001389e-03,4.185411334037780762e-02
-2.673875542341903611e-01,-2.491259982047757948e-01,-2.866504574678047645e-01,-5.441795762836625604e-03,4.069380964748208450e-03,-2.180173669865184249e-03,3.477201238274574280e-02
-2.364886303794730138e-01,-2.747668059346328739e-01,-2.958517343195096738e-01,-1.633448765867096322e-02,1.449143998558950763e-02,-5.652242284533888668e-03,6.513970345258712769e-02
-2.791510918167103839e-01,-2.387153425560681608e-01,-2.860482946040978081e-01,-6.555467472763500808e-03,4.712151882625897209e-03,-3.465544876514441413e-03,4.683033749461174011e-02
-3.122760190261354429e-01,-1.877242537343357665e-01,-3.163215344428748632e-01,-2.211818436509974811e-02,1.791919332696938032e-03,-2.204305519725745558e-04,1.323284059762954712e-01
-2.643481968173900798e-01,-2.785772571866029224e-01,-2.614364859320926215e-01,2.467277748810278466e-03,1.426437303490355260e-03,8.325888171732816158e-04,1.669794321060180664e-02
-3.242692065323158901e-01,-1.224616603215800681e-01,-3.666394105595184305e-01,-2.481344998221423834e-02,7.220886753750918596e-03,5.222407649419891218e-02,2.475030422210693359e-01
-2.694304594338629566e-01,-2.766936830040163664e-01,-2.602980149765153906e-01,4.990825114357448807e-03,6.418699994644627878e-03,5.668217265689425022e-03,2.229791693389415741e-02
-2.638871961372661334e-01,-2.781550205917448504e-01,-2.633255052409022579e-01,2.328410679483684104e-03,2.762162945237733001e-03,2.470229523799181981e-03,1.641217991709709167e-02
-2.168915028921291621e-01,-1.998972989753453611e-01,-3.521099188318487783e-01,-1.288821293017324565e-01,5.828105588795486416e-03,3.078207842604891147e-03,2.661444842815399170e-01
-2.747526161917501764e-01,-2.519764320605130670e-01,-2.775917552860707183e-01,-2.539412988197406722e-03,-5.665751682502694238e-03,3.519846960377471645e-03,2.728179097175598145e-02
-2.843053853055549363e-01,-2.599959906749800820e-01,-2.605522849250260231e-01,-1.426315801700435415e-04,-2.295914135023695703e-04,5.741653354093918457e-04,2.406119555234909058e-02
-2.846594082579241292e-01,-2.247999881652291976e-01,-2.958221655539258199e-01,-3.965716173165668643e-03,1.081155189114320000e-03,-2.724266871081156352e-03,6.670011579990386963e-02
-2.933957340168882322e-01,-2.188107611993397317e-01,-2.926502717894491901e-01,-6.038999317043544819e-03,-2.918530097882165390e-03,1.983439865501022015e-03,7.519732415676116943e-02
-2.933332036115886554e-01,-2.495514574671878205e-01,-2.705431200633763300e-01,-4.148535548079288621e-02,-2.891435457982841767e-02,4.953988657278156349e-02,1.283443272113800049e-01
-2.738971509713479247e-01,-2.435436994231387209e-01,-2.889868602799141040e-01,-4.212746480185770338e-03,-5.944958803173891948e-04,5.910543630472756558e-04,4.077261313796043396e-02
-2.304167087527522750e-01,-2.788415713757285697e-01,-2.935056054148938998e-01,-1.821473343161584060e-02,-3.188838024280042649e-03,-1.808198980895942823e-03,6.561820954084396362e-02
-2.098128780674874405e-01,-2.835614611122472817e-01,-3.241195266616750947e-01,-4.895943800120089451e-02,1.490769787819685652e-03,-6.010111014980721363e-04,1.314295977354049683e-01
-2.168441371144063101e-01,-2.885103103954341219e-01,-3.138045453859789613e-01,-4.610602566459466589e-02,-1.749353800959867547e-02,8.666741346471861993e-03,1.229198351502418518e-01
-2.065203792514379022e-01,-2.876243720608476218e-01,-3.153084579066203208e-01,-3.142710458383280586e-02,-2.554059298475174627e-02,8.562114897606913719e-04,1.204645559191703796e-01
-1.441110615002479944e-01,-3.262639477935732057e-01,-3.664060081809022984e-01,-1.177623525661381232e-01,4.529456490030832339e-02,-2.540364504487765962e-02,3.029814958572387695e-01
-1.476324699906657323e-01,-2.806210603152723970e-01,-3.771590665757036387e-01,-8.409992481400954678e-02,-4.398201049107936661e-02,1.687776043750130028e-03,2.586004436016082764e-01
-2.748435737701964143e-01,-2.141789408890222846e-01,-3.138818074998755425e-01,-4.309879374360356397e-02,8.271666130736961622e-03,8.478746609389993874e-03,1.164726093411445618e-01
-1.728160578874463615e-01,-2.918215979532795545e-01,-3.460562113191945066e-01,-1.204925094299550137e-01,3.893084402581528658e-02,1.664620278957793659e-02,2.692422568798065186e-01
-2.692331371497750370e-01,-2.680000978816503010e-01,-2.672858724992135393e-01,8.781488558850797507e-04,-1.735136614099700911e-04,-2.905391498784358657e-04,2.359696663916110992e-03
-2.673939645405022936e-01,-2.660832883321701536e-01,-2.708246599091350681e-01,5.170950306787568118e-04,-1.659318582574480314e-03,-7.388335831292947888e-04,5.355732981115579605e-03
-2.891329925560727765e-01,-2.619050294298884696e-01,-2.520043882795756640e-01,6.855864689432274867e-03,-4.269899697481065702e-03,-1.578979470297421292e-02,4.530581086874008179e-02
-2.649453909375317773e-01,-2.659853538381738436e-01,-2.734964054376233245e-01,9.612327151779927973e-04,-1.097744855304739683e-03,-2.535994257190921520e-03,9.538840502500534058e-03
-2.874264762215998359e-01,-2.362699318840266738e-01,-2.790860535667724629e-01,5.694707506870850221e-03,-5.870651891802556449e-03,-8.382444707264957717e-03,5.168526247143745422e-02
-2.696317062370400808e-01,-2.665362557821644440e-01,-2.680313904281971804e-01,5.377581238056881917e-04,-1.679641293254690443e-03,-9.328280928881142135e-04,4.373873118311166763e-03
-2.675444019397505424e-01,-2.676021444803605709e-01,-2.693000844615288658e-01,8.132769598130721580e-04,-1.184163385585844299e-03,-1.584195784283917371e-03,4.087100736796855927e-03
-2.837779802213445390e-01,-2.449275330197085432e-01,-2.776575578458775895e-01,-5.385651037661064351e-03,4.568407982142769046e-03,-7.588137949100832655e-03,4.039061814546585083e-02
-2.871343127460890265e-01,-2.487177580296118795e-01,-2.678083014296208098e-01,-1.083983911065101351e-03,1.936806129958610831e-03,-5.486122310629658674e-03,3.481319919228553772e-02
-2.731802642804094794e-01,-2.448781578217465171e-01,-2.889309567281710955e-01,4.176410601487863181e-03,-1.427737450301189885e-03,-2.808803330352490930e-03,3.971123322844505310e-02
-2.797202419612302982e-01,-2.636620556958287342e-01,-2.621354555018800547e-01,9.210315215029464889e-03,-9.829828448557917028e-03,-2.197080789059576225e-02,4.772028699517250061e-02
-2.966448851066700310e-01,-2.178920757543505171e-01,-2.897794003901352777e-01,1.947119828065893826e-03,-2.682696636082917280e-03,-8.187391893359924691e-03,7.708779722452163696e-02
-2.892281324810936360e-01,-2.432401291714585134e-01,-2.730278748329970639e-01,-4.375973088303041218e-04,1.130559619703988376e-03,-4.552017735385735162e-03,4.121769964694976807e-02
-2.846724685224628626e-01,-2.478103111170003869e-01,-2.736383038477684382e-01,-3.778732299813343347e-03,2.730663919251513378e-03,-6.102616038286831981e-03,3.536608815193176270e-02
-2.817281446265640921e-01,-2.499755233348717187e-01,-2.736849653650002545e-01,-1.731901210533412418e-03,4.601492813627230255e-03,-3.558441021110087497e-03,3.046369738876819611e-02
-2.982484943915092446e-01,-2.587194131317707146e-01,-2.478563713130264301e-01,-1.906476538461847857e-03,7.627279920161241303e-03,-2.042464345981673604e-02,5.955575779080390930e-02
-2.905152250750422938e-01,-2.338236101838997993e-01,-2.794387044636701956e-01,-3.228366020010176225e-04,2.694648573194239911e-03,-1.018651592651052817e-02,5.515500158071517944e-02
-2.680563024162513908e-01,-2.639128446154777041e-01,-2.885555603641846156e-01,-5.477416932430278357e-02,3.590223630884353812e-02,-3.947425058991153174e-02,1.344043016433715820e-01
-2.938955143436591255e-01,-2.241271335639663242e-01,-3.004257565373059102e-01,-3.690478064906588251e-02,1.812922540507162436e-02,-4.291078673146876687e-02,1.263399273157119751e-01
-2.906195470891786981e-01,-2.369615537241641645e-01,-2.761604453127846637e-01,-1.347815796632529685e-02,6.905978295188650549e-03,-1.402484276682950878e-02,5.992118269205093384e-02
-2.714809358557653263e-01,-2.614375743457191259e-01,-2.720408036016964681e-01,-6.274701826019872877e-03,7.653012397555543009e-03,-6.092386252284518779e-03,2.262694202363491058e-02
-2.849012922208952747e-01,-2.338704655860215365e-01,-2.894152040786080460e-01,-1.797765048963689480e-02,7.259663668090653513e-03,-1.181399618374021250e-02,6.634211540222167969e-02
-2.698391318856452337e-01,-2.760140874490104035e-01,-2.604780057995749187e-01,-5.123626782824515329e-03,6.193121954667720960e-03,-6.079842586696570031e-03,2.209700644016265869e-02
-2.448201748352361595e-01,-2.642342860851042419e-01,-2.950848336431977081e-01,1.871997258005585543e-02,6.834628217693654480e-03,6.676495782980339591e-03,5.703310668468475342e-02
-2.545992229248664196e-01,-2.219172135352628361e-01,-3.064244672858026375e-01,-9.250256018301013239e-02,6.074510936445086384e-02,-5.602431667619789390e-02,2.271650731563568115e-01
-3.343431699068186158e-01,-2.178872323363343910e-01,-2.280239940733599091e-01,-4.739002488906209065e-02,4.303752940725120990e-02,-1.206487718848804902e-01,2.616233229637145996e-01
-2.249387660945441902e-01,-2.921656026336996170e-01,-2.884433668507606630e-01,5.224473112867868141e-03,-5.849375208127995281e-03,-2.986383303929612820e-03,6.703995168209075928e-02
-2.331278981285110907e-01,-2.788463765306579134e-01,-2.916396709893619987e-01,1.034269246347631691e-02,-1.403648457479178416e-03,-3.050416354192230471e-03,5.651085823774337769e-02
-2.358096512672720746e-01,-2.761968270451949925e-01,-2.915268414465952973e-01,9.082959506739804456e-03,2.102622844965694373e-03,3.213368211755530945e-03,5.269734188914299011e-02
-2.305239022905753998e-01,-2.841277533985018255e-01,-2.941863034209743488e-01,1.034173702320748990e-02,1.122175342228039522e-03,1.402892969773251487e-03,6.200210377573966980e-02
-2.062540225746351263e-01,-2.931593981402109694e-01,-3.014509100686172949e-01,1.990384086188733137e-02,3.547233075460609446e-03,-2.526480299114854632e-03,9.791453927755355835e-02
-2.373917927914159232e-01,-2.783918390636827001e-01,-2.892174454005199125e-01,8.223158346981519415e-03,-4.272003445712188423e-03,-3.149067841503342020e-03,5.029322952032089233e-02
-2.344616222630112601e-01,-2.814204678276003291e-01,-2.900209531329270840e-01,2.592364184347127620e-02,-1.433554426071684956e-02,-1.683968821307380362e-02,7.852595299482345581e-02
-2.194272504808480462e-01,-2.898010715503904211e-01,-2.899654587615221324e-01,1.451261313346546497e-02,-1.631022797407053956e-02,-5.362346648250275981e-03,8.050002157688140869e-02
-1.353251830081009244e-01,-3.102634673553517630e-01,-3.354847178068607327e-01,7.821671351503110825e-02,-6.431639585645186272e-03,-3.270215180077916482e-04,2.326578199863433838e-01
-1.705115832983823687e-01,-3.252625186340110663e-01,-3.165236953387317032e-01,1.132989702190473347e-01,-2.583893944243021226e-02,-5.466417911561263776e-02,2.686062455177307129e-01
-2.005135744804652509e-01,-3.121253985533760100e-01,-2.968805426623289390e-01,1.537616167946977142e-02,-3.895329445852453720e-02,-4.915668425897717041e-03,1.277573704719543457e-01
-1.616247652784216782e-01,-3.513137949636552793e-01,-3.027855492714645047e-01,7.666405020585481678e-02,5.136690727030961828e-02,8.052520864667156095e-03,2.342519611120223999e-01
-2.294712683013219179e-01,-2.836926448029373216e-01,-2.896648845046106424e-01,-2.540524151603722192e-02,1.233528071445364090e-02,-1.006922057387517333e-02,7.743624597787857056e-02
-2.106483600372018872e-01,-2.912301638596042630e-01,-2.981390757082519327e-01,-2.062292825392824519e-02,3.354815987695656740e-03,1.138218220489738315e-03,9.171400964260101318e-02
-2.325493229256934413e-01,-2.777952472857362909e-01,-2.942452368234612647e-01,-9.851124066133969126e-03,1.421657453884035607e-03,-1.733231396426291324e-03,5.803706124424934387e-02
-2.380274939482732999e-01,-2.774688830879508683e-01,-2.888130623611813719e-01,-7.739114749640924051e-03,4.492083332556129349e-03,-3.700986040057183991e-03,4.912284389138221741e-02
-2.476266046887639904e-01,-2.768177562031908789e-01,-2.791141178020671298e-01,-1.180087253497438815e-02,9.875364949603294626e-03,-6.484587274300349785e-03,4.196343570947647095e-02
-2.452209042851079823e-01,-2.739108492818491114e-01,-2.853059973181756859e-01,-2.922879522877770784e-03,2.566055226985740345e-03,-3.840254780176619032e-03,3.700695559382438660e-02
-2.419184410301885024e-01,-2.754264926332480878e-01,-2.882133194615305594e-01,-1.650787668727347543e-02,8.284819605201013126e-03,-3.844050121734465288e-03,5.274968221783638000e-02
-2.455424156711815131e-01,-2.909897267825413691e-01,-2.669347886202032005e-01,1.197331006803617611e-03,7.706622439240857006e-03,4.310526960816967075e-03,4.229757189750671387e-02
-2.456204816133955582e-01,-2.852257917044823676e-01,-2.740668748298963897e-01,-2.454110654176049500e-03,3.055935233588359234e-03,-4.540374471284714178e-03,3.686568513512611389e-02
-2.621663733497291982e-01,-2.830222665409418137e-01,-2.588450300623986178e-01,2.320047407354298725e-03,2.422175217329809900e-03,1.421045425201240657e-03,2.356004901230335236e-02
-2.655743368410510841e-01,-2.507911737966301291e-01,-2.857789406489655848e-01,6.296164370786967029e-03,-3.293117865806349277e-03,-2.138175690335376508e-03,3.302469104528427124e-02
-2.661455639845812238e-01,-2.881094076724347031e-01,-2.482331824130886988e-01,-1.389785521797152947e-03,6.506317530480902438e-03,-9.085329175767102323e-04,3.649597242474555969e-02
-2.411605268429320437e-01,-2.899495200056774746e-01,-2.780488108992412721e-01,-4.895882302839970820e-03,1.778947738826484187e-02,-9.026511818821267383e-04,5.445290729403495789e-02
-2.577275768247414556e-01,-2.849388495810264432e-01,-2.615395974464632123e-01,-5.971860872506976449e-04,3.122916242474464872e-03,-9.969298794044916326e-04,2.616417966783046722e-02
-2.581181848401839507e-01,-2.832912827516016474e-01,-2.631544192410589234e-01,-1.175100023468946724e-03,2.517279939228823926e-03,-2.443288518194327349e-03,2.394436299800872803e-02
-2.660118429390078143e-01,-2.865474123389666894e-01,-2.491808478571710395e-01,-2.461130787618533069e-03,6.667631414890648131e-03,-1.067933896072195471e-03,3.472162038087844849e-02
-2.784676373031408358e-01,-2.356895181426064967e-01,-2.896925527270587386e-01,-9.214240298241976532e-03,1.049054880046433949e-03,-2.302992367703789525e-03,5.205829814076423645e-02
-2.730607786453111974e-01,-2.445059073704303476e-01,-2.884304122656244918e-01,-4.400979646964918446e-03,1.461779410561613425e-03,-1.944394693239191643e-03,3.957704454660415649e-02
-2.492827837400310165e-01,-2.382294394480858613e-01,-3.234314245619440142e-01,-7.038478934655595376e-02,2.497460112647096903e-03,3.859734617277238954e-03,1.461685597896575928e-01
-2.775048477895968313e-01,-2.372915877984566602e-01,-2.940926963785753245e-01,-4.915139114653873514e-02,6.850825478720654754e-03,-2.447474345382905786e-02,1.083731204271316528e-01
-2.283028044023292513e-01,-2.554977302309685006e-01,-3.080322317455437831e-01,-5.265217043801385943e-02,-7.115141651946620127e-03,5.121339406546315635e-03,1.160836890339851379e-01
-2.677573084997398323e-01,-2.477721273508697308e-01,-2.875444885849025578e-01,-5.071038198288192224e-03,1.225197194100679675e-03,-2.333460700497215013e-04,3.561184182763099670e-02
-2.666637520373605352e-01,-2.473450777569431991e-01,-2.903314198697335979e-01,-4.823777882597217979e-03,-9.144123702212727731e-04,-4.019633158529773180e-05,3.824810311198234558e-02
-2.464323384721965327e-01,-2.665032888461188465e-01,-2.903845591380937452e-01,-5.864358988631507459e-03,-1.372869032503263188e-03,6.522229830704037723e-04,3.952948749065399170e-02
-2.818873497862132704e-01,-2.496643220301382193e-01,-2.771077916806662933e-01,-1.448943397424708873e-02,-1.358721995865853557e-02,1.850928191636058706e-02,5.584447458386421204e-02
-2.766127782169001681e-01,-2.380323033756555073e-01,-2.938282792778848518e-01,-1.930038181306532180e-02,-4.246380861997936691e-03,4.842151400596168484e-03,6.075325235724449158e-02
-3.082589898602167144e-01,-2.123447668043462744e-01,-2.846727858851980653e-01,3.063495045704246050e-02,1.218108225954902396e-02,3.090110759082589226e-02,1.166999042034149170e-01
-2.740343469826643230e-01,-2.398037422955444919e-01,-2.898058426511259666e-01,1.894918423976418853e-02,4.479529996189618966e-03,4.155953504450141806e-03,5.612104386091232300e-02
-2.567461090177532990e-01,-2.542023544104081711e-01,-3.001020499383735829e-01,5.678770024041600306e-02,3.332929385015124396e-02,3.511663127370515808e-02,1.367592215538024902e-01
-2.781162901665403808e-01,-2.376865940927666010e-01,-2.864000273110086092e-01,1.732826842684703078e-02,4.614100073162477264e-03,7.790616148321639900e-03,5.643444880843162537e-02
-2.805236045638372921e-01,-2.126540721844604187e-01,-3.061652631997046625e-01,5.540439697970220290e-02,1.601313921577745799e-03,-1.073975731581013407e-02,1.287117600440979004e-01
-2.789999453923353578e-01,-2.380725329442921478e-01,-2.873230086157633201e-01,8.387860059487663514e-03,4.626096801606113633e-03,5.479723918932292819e-03,4.950071498751640320e-02
-1.952714391203304589e-01,-2.384253086758751916e-01,-3.707153007870137573e-01,1.022288503454894526e-01,2.129720403379686475e-02,5.177690937997915521e-02,2.565681040287017822e-01
-2.848255431824134321e-01,-2.395352183700604209e-01,-2.796566447409389866e-01,4.746118870125519938e-03,6.535861843296847731e-03,9.323796928814643767e-03,4.796205833554267883e-02
-2.933220498958852285e-01,-2.763050046865277998e-01,-2.385423353729207718e-01,4.468112165437028438e-03,8.048276941924982497e-03,1.788227609040065474e-02,5.976413562893867493e-02
-2.719225443148285404e-01,-2.994875435282628451e-01,-2.352071936699210164e-01,6.294824245846053663e-03,5.742617273662384281e-02,1.150118093500855469e-02,1.163138300180435181e-01
-2.718030223505441545e-01,-2.972634679217000531e-01,-2.411223796851902357e-01,-9.944193976281989755e-03,3.292588476193141628e-02,-1.168959952444681427e-02,7.955892384052276611e-02
-3.042786607615643457e-01,-3.396312092338639177e-01,-1.471607747553018153e-01,2.971498192543644157e-03,7.736511286037431323e-02,-5.454099181657070909e-03,2.226256132125854492e-01
-3.013837155823716474e-01,-2.871764408707427885e-01,-2.228818692774484911e-01,2.037453554898135608e-02,3.518372700185291857e-02,4.039035318528700486e-02,1.228913366794586182e-01
-2.915285485366235219e-01,-3.023252881673829662e-01,-2.032348653400071758e-01,3.416924528265993018e-03,2.241822982199958431e-02,4.644385797574978290e-03,1.023381426930427551e-01
-2.775710987762896598e-01,-2.344168095207177227e-01,-2.908812047132259826e-01,8.512407655572727661e-03,2.670103458992812567e-03,1.253555157263339017e-03,5.345395579934120178e-02
-2.970988734037129930e-01,-2.880258401633581933e-01,-2.171025569665078203e-01,1.310748734135213592e-03,1.739877579773020308e-03,1.045357440522434039e-02,7.808961719274520874e-02
-3.176684914344413690e-01,-1.917266554066316409e-01,-3.038972286638728648e-01,4.313541055024901205e-02,-1.362757791514200567e-02,-4.780205432156370282e-02,1.652599424123764038e-01
-2.956332313871517514e-01,-2.216528061961741958e-01,-2.887494320374638379e-01,5.459657650587519326e-03,-6.990058649078358284e-04,-8.038879300313406598e-03,7.277350872755050659e-02
-2.705909800263160969e-01,-1.829015550096972920e-01,-3.344723060981067975e-01,1.016118210238442232e-01,-1.783989169516491877e-02,-3.227816032633436250e-02,2.289700508117675781e-01
-3.001229132460268567e-01,-2.088842003358835631e-01,-2.988831131300735411e-01,6.105164252736607631e-04,-2.961977693294822237e-04,-2.391111952999012188e-03,9.072737395763397217e-02
-3.053571093044452067e-01,-1.865501488714478850e-01,-3.057903894322075988e-01,-2.314849402371290266e-03,3.030496398010085646e-04,5.263529079056497757e-03,1.194413006305694580e-01
-2.933060557673814461e-01,-1.838089628687338828e-01,-3.194808352337932256e-01,6.400666786142489295e-02,-3.987385191789117114e-03,8.093905746530552850e-03,1.675577163696289062e-01
-2.940329116418975985e-01,-2.141449859063916383e-01,-2.979203795038849467e-01,4.059497516596289202e-04,-4.860751208047390040e-03,-5.243949768183959505e-03,8.283493667840957642e-02
-3.004862622176628362e-01,-2.134663179879627282e-01,-2.932668089483719265e-01,-1.470753543491558389e-03,-3.363870920378045620e-03,-3.383485793140836740e-03,8.409003913402557373e-02
-2.759874191970881907e-01,-2.361347841994238528e-01,-2.969552794944982921e-01,-1.993281912374997994e-02,9.766759912034719035e-05,5.405232327554747264e-04,6.368959695100784302e-02
-3.233907032962417549e-01,-1.695518658966531644e-01,-3.172158719416043327e-01,-2.433823163739790713e-03,5.660493125106708795e-03,3.878216454174383300e-03,1.513724029064178467e-01
-2.748786119007583517e-01,-2.379293166204808352e-01,-2.986642410479311005e-01,1.961299973409237618e-02,5.937320139789517039e-04,-2.057810157440046004e-03,6.306853145360946655e-02
-3.211020607886577172e-01,-2.969780913707035230e-01,-1.872707858608765319e-01,2.255918143626766716e-03,1.224296152940028415e-03,1.387265855667482554e-02,1.259418576955795288e-01
-2.651375045057961510e-01,-2.564210509939643390e-01,-2.839033099455406939e-01,1.019528556858833451e-02,-2.785798052828094683e-03,-4.115275947622656395e-03,3.126696869730949402e-02
-2.839301073459903901e-01,-2.918020181329816776e-01,-2.305135991084227287e-01,-1.023734248025071937e-03,2.756678688648366016e-03,-1.649729935493806070e-03,5.805072933435440063e-02
-2.987194735433958415e-01,-2.944706965039252666e-01,-2.115637972854702287e-01,-1.022206805309104670e-03,2.042013122468545796e-03,1.231986772355950482e-03,8.522943407297134399e-02
-2.981440631047159173e-01,-2.132207378744974124e-01,-2.938445258947062211e-01,-7.566088689021315374e-04,-5.122611343106566384e-04,2.246550439218946305e-03,8.296367526054382324e-02
-2.931650937224167253e-01,-2.147474657968856393e-01,-2.978579358646714081e-01,-7.546092760976680011e-03,-9.541117560711157627e-04,2.927523647662505241e-03,8.208910375833511353e-02
-2.889580448257236256e-01,-2.137717986633345113e-01,-2.979149941556484826e-01,-1.539591762423012447e-02,4.056681101155834059e-03,-8.541409248797248235e-03,8.594170957803726196e-02
-2.723873106993984217e-01,-2.458279805603645896e-01,-2.885843683222182321e-01,4.005710051572098154e-03,2.323652927869365378e-03,2.504951495513638420e-03,3.848487138748168945e-02
-2.992033697905628897e-01,-2.089938734754935301e-01,-3.006263107294931958e-01,9.262215807927748432e-04,8.242149179604847317e-04,7.899173293139001573e-04,9.096496552228927612e-02
-3.044208383301145737e-01,-1.904894108604507919e-01,-3.054771358939335490e-01,-4.542442340913022472e-03,6.034715895003573381e-04,-1.699555222954664659e-03,1.147758290171623230e-01
-2.786625685855735335e-01,-2.189990442855024311e-01,-2.983402881920723670e-01,-3.521498015199515941e-02,1.123612311252818186e-02,-1.528845119990518767e-02,9.960540384054183960e-02
-2.769604976617887071e-01,-2.315103752326684583e-01,-2.963607022085072984e-01,-7.931058343118727386e-03,6.529207132266114273e-04,-9.140158964234307206e-04,5.929851159453392029e-02
-3.172108326008854506e-01,-1.871738577193167441e-01,-3.127742006568908772e-01,-2.178578283882288275e-02,2.031862230794574155e-03,1.429221641403261391e-04,1.333742141723632812e-01
-3.529304322737025768e-01,-1.000810783888844147e-01,-3.403404212856218636e-01,1.470641886700547671e-02,-1.132807062780937131e-02,1.350335341088359196e-02,2.499775290489196777e-01
-2.664481652773371678e-01,-2.721949568503604366e-01,-2.657822337055294470e-01,9.724543116876294656e-04,2.881405666040677983e-04,4.637256646573478325e-04,6.405251566320657730e-03
-2.643028404157187206e-01,-2.746999891789486115e-01,-2.654950574686558151e-01,1.762653082738570211e-03,2.089508883085954959e-03,3.012095478748884076e-03,1.211460120975971222e-02
-2.675765024356668298e-01,-2.689392435367105039e-01,-2.679315427163063146e-01,1.655523751918859044e-04,1.749346223400474862e-04,6.852573234220153946e-04,1.755577046424150467e-03
-2.677705773739512685e-01,-2.705338141578449429e-01,-2.668360296354621020e-01,2.891993220777178695e-04,5.317657845794871146e-04,5.688245706470839488e-04,3.627830184996128082e-03
-3.152446481045770854e-01,-2.295072461645144557e-01,-2.708664381459737758e-01,-2.133218712282481527e-02,-9.757703296817202276e-03,5.262536156493085454e-02,1.243968084454536438e-01
-3.392380138223112795e-01,-2.020832844890144142e-01,-2.323828231061521310e-01,-1.113741529538261367e-02,-1.386036676740213906e-02,1.160594215311147315e-01,2.386033982038497925e-01
-3.165697346834434600e-01,-2.349040768508817156e-01,-2.672396710890414528e-01,9.116126429034004507e-04,-2.086026454794537039e-03,5.753038682374392310e-02,1.225518137216567993e-01
-3.341438165382032421e-01,-2.738158018375124736e-01,-1.745985171548774528e-01,8.579549348073273879e-03,1.479283235607416550e-02,1.028993931559534086e-01,2.282789647579193115e-01
-2.979383136423911504e-01,-2.848636150934572009e-01,-2.224672407094757942e-01,4.737826643423479096e-03,-9.873559972231762613e-03,4.224649992253162040e-02,1.029279902577400208e-01
-1.161386079679124217e-01,-3.779468614132168724e-01,-3.184140525093223650e-01,-5.441834766101731613e-02,1.512912375593340438e-03,2.605704639071137682e-02,2.596716880798339844e-01
-2.851032773605224335e-01,-3.194059001635526363e-01,-2.126841389722994302e-01,3.274774808964064400e-03,-6.684886834814682266e-02,-1.735381686625636979e-02,1.524707078933715820e-01
-1.810631972736377326e-01,-3.160520853988418866e-01,-3.173175847746896316e-01,-4.081114625043120829e-03,-1.126375157856337496e-02,-3.052934779487621571e-04,1.372052878141403198e-01
-2.228721943950168205e-01,-3.033915765029562839e-01,-2.731094750558749062e-01,9.439422047621980408e-03,3.644044087165423940e-02,6.674244308314130486e-03,9.667855501174926758e-02
-3.089746316128927361e-01,-3.088936112468863016e-01,-2.081263526353034909e-01,1.326058922995199466e-02,-5.743364943841985926e-02,-2.526340346130075132e-02,1.500011086463928223e-01
-2.015942688237910008e-01,-3.121599296654609668e-01,-2.946915479145417183e-01,-1.665437561686671647e-02,-3.302898790142790725e-02,-7.955339585212224673e-03,1.220377609133720398e-01
-1.668528727583016291e-01,-3.597642361670737032e-01,-2.768727598753539243e-01,-1.087584472188524512e-02,7.217545966450084061e-02,3.116859759047003239e-03,2.100165933370590210e-01
-2.157152250813909322e-01,-2.959652839579299255e-01,-2.968694524369962506e-01,4.359331863533637968e-03,1.771611834658929838e-03,3.065724728423503079e-03,8.129005134105682373e-02
-3.074300316296327829e-01,-1.263961822652068523e-01,-3.814658916886807805e-01,5.133715710238634378e-02,2.253656547851142292e-02,3.718347319527134237e-02,2.554126083850860596e-01
-3.250365948601514066e-01,-1.303758533222577620e-01,-3.359234329797861629e-01,5.388339250557660359e-02,1.787009516761774164e-02,1.084057504160828092e-02,2.239450812339782715e-01
-2.752610990351032072e-01,-2.392153024846148668e-01,-2.880034898527104592e-01,1.852546917018528527e-02,6.324671304490395163e-03,1.106538059055932333e-02,5.863351374864578247e-02
-2.781238639752167674e-01,-1.884076475910576864e-01,-3.191226805536517830e-01,8.137460170199255216e-02,2.858013603897657101e-02,4.398353220149782417e-02,2.037836164236068726e-01
-2.777198158512508286e-01,-2.884838285523460000e-01,-2.377269847967159733e-01,3.766596738205503329e-03,-7.402341738623693240e-03,-4.244700874476853465e-03,4.905886203050613403e-02
-2.774366729343752391e-01,-2.369779741620647862e-01,-2.894593104827418717e-01,7.775507685527136004e-03,5.615302539820980418e-03,4.217405126126230579e-03,5.096273496747016907e-02
-2.952967811468507620e-01,-2.270285351792139805e-01,-2.843995553149866184e-01,-1.561201019688291704e-03,1.721158531020513995e-03,3.929783280910376618e-03,6.401482224464416504e-02
-2.834261091235945051e-01,-2.337139730127703041e-01,-2.885148889880765899e-01,3.368708368188659888e-03,4.263337840753872628e-03,4.337728924278436669e-03,5.380693823099136353e-02
-2.895351622723571494e-01,-2.222699038296860052e-01,-2.930901548790715294e-01,6.538144837037683163e-03,3.029095769748958462e-03,3.013387734006117355e-03,7.042293995618820190e-02
-2.527721051935199470e-01,-2.628087175798280994e-01,-2.792535491761370392e-01,-3.630157660956835619e-02,-3.015429046600829471e-02,2.775882226613894666e-02,9.761726111173629761e-02
-2.600874331308080101e-01,-2.669615114845733661e-01,-2.780844429204972212e-01,-4.808171604898704016e-03,-5.826407208975929904e-03,3.934641482448399813e-03,2.156555838882923126e-02
-2.794280730238455357e-01,-2.617591629842146994e-01,-2.505881446146949743e-01,-2.833779117883948595e-02,-3.178940241450160104e-02,3.802199665268203577e-02,1.020400300621986389e-01
-2.668547570294406701e-01,-2.719584895165675364e-01,-2.692269208624051280e-01,-8.264597251696260971e-02,-4.837610631237078407e-02,1.089133664750083219e-01,2.512324452400207520e-01
-2.169435288237586967e-01,-2.586628254219519585e-01,-3.092037202536911389e-01,-8.771562842582179831e-02,-4.706939767162222898e-02,4.011145269482168513e-02,2.023829966783523560e-01
-1.965022798958221684e-01,-3.378712680186762296e-01,-2.775384908710241683e-01,-7.449692686936286445e-02,-7.934464403260318988e-02,8.149860118743468274e-02,2.656279504299163818e-01
-2.736478735997733835e-01,-3.303071342633662755e-01,-1.945873482283913547e-01,-1.992691341022870613e-02,-8.908037483992567451e-02,3.928400476426870819e-02,2.087276577949523926e-01
-2.795698504444850685e-01,-2.954235539911205244e-01,-2.303224314146540275e-01,5.179815491898904362e-03,-1.392421717287922224e-02,-1.678588837175342893e-02,7.046164572238922119e-02
-3.082252426239704968e-01,-2.969815155509770710e-01,-1.698388975147647195e-01,4.284393260343884180e-02,-6.832033845004167882e-02,-9.001533538772109322e-02,2.480711936950683594e-01
-2.887168947162482846e-01,-2.881415898932601638e-01,-2.272172806056479422e-01,4.171094984101573859e-03,-1.860966304454625755e-02,-1.254780458304224043e-02,7.287418842315673828e-02
-2.762620973733459495e-01,-2.959570514684668474e-01,-2.308054758796848349e-01,1.243155489015323502e-02,-4.938046251150306903e-02,-3.868801593643195202e-02,1.249746754765510559e-01
-2.364888198353472526e-01,-2.764675059266778478e-01,-2.920144086509270376e-01,-9.227872319882103255e-03,-3.980680672284381272e-03,3.697014003579455511e-03,5.296742543578147888e-02
-2.239120155112394317e-01,-2.881107663354367521e-01,-2.933662019793694120e-01,-2.212751287195803898e-02,-4.794176824437519809e-03,1.799188137323126570e-03,7.767905294895172119e-02
-2.127271375302225709e-01,-2.934537656025637542e-01,-2.984674448945000003e-01,-1.675038278029779976e-02,6.755073895198584859e-03,2.431135803603747848e-03,8.912358433008193970e-02
-3.096870412695653663e-01,-2.976479244996620421e-01,-1.992881429204351740e-01,-1.473116889628736659e-02,2.921786972847945085e-02,-1.833153598049319308e-02,1.233854144811630249e-01
-3.054972166883765938e-01,-3.172010594072134371e-01,-1.917597162464952376e-01,-5.103317129251614195e-03,3.086969516230891192e-02,-1.280834517300780649e-02,1.335420161485671997e-01
-2.672044343546094991e-01,-2.879866618893268670e-01,-2.477189060205949589e-01,8.799890935009533656e-04,5.762906085702994112e-03,4.516686975479484523e-04,3.631952404975891113e-02
-2.537977945912691657e-01,-3.106232871260924400e-01,-2.523960031208800636e-01,-1.497506763179734871e-02,5.614430050208333439e-02,-2.676247810069463592e-02,1.248549371957778931e-01
-2.797602352880312337e-01,-2.779393884618865385e-01,-2.465699529750835228e-01,-6.833566275649400126e-03,5.432205821551884528e-03,-5.020486493937032987e-03,3.672480210661888123e-02
-2.534085227262944939e-01,-3.476389870958436767e-01,-2.103631809052150525e-01,2.438591019912514021e-02,1.148531312729718923e-01,-2.058835937615268244e-02,2.396202236413955688e-01
-2.804084211842830521e-01,-3.729674161456686399e-01,-1.551113481937101413e-01,-3.448609011183611378e-02,8.790394378354646210e-02,1.055837443109686104e-03,2.502327263355255127e-01
-2.201648348741875316e-01,-3.379665282350610700e-01,-2.314507244503961614e-01,-2.318779531068872884e-02,1.001275551048663587e-01,-2.695538327946412835e-02,2.157417386770248413e-01
-3.037215312869934736e-01,-3.195993941541055983e-01,-1.639472232207296876e-01,-3.206653139947567704e-02,7.724535655333086837e-02,-4.472921857819803920e-02,2.213497459888458252e-01
-2.716131804210230039e-01,-2.701604660605400610e-01,-2.615988874165571798e-01,6.470749030957403773e-03,6.287813605915818123e-03,6.304842577277550153e-03,2.124436944723129272e-02
-2.670977543768204843e-01,-2.631914217214527674e-01,-2.734528396729769550e-01,4.383555501025670521e-03,4.368780127215239270e-03,4.672167271532784612e-03,1.615129970014095306e-02
-2.676100414105246905e-01,-2.660848589293375310e-01,-2.706696693364665229e-01,2.967235632610363215e-04,1.720508377566962437e-03,6.917737421868056305e-04,5.189819727092981339e-03
-2.611673931088576150e-01,-2.698029535364034892e-01,-2.749181685792790319e-01,5.248331835897837236e-03,4.458819795630478318e-03,5.362675271404071867e-03,1.932521909475326538e-02
-2.672886002056567567e-01,-2.681828564297606410e-01,-2.690239963853937044e-01,3.827130063960212112e-04,3.691962864090659723e-04,8.373257501511554776e-04,2.282777568325400352e-03
-2.679840730076993305e-01,-2.670163892820495155e-01,-2.691452931029782447e-01,7.672193709933437670e-04,1.428641638482312836e-03,8.206694081223910248e-04,3.649377962574362755e-03
-2.641573759506435914e-01,-2.679073392004568954e-01,-2.725741771340414732e-01,1.273750130443941598e-03,1.398113203791740734e-03,2.685300623249411555e-03,9.257757104933261871e-03
-2.508030848529824164e-01,-2.758686968431630082e-01,-2.762214188823756689e-01,3.143270671454020948e-03,4.693622633962528899e-03,6.101164494246072087e-03,2.906292863190174103e-02
-2.329482599241793073e-01,-2.870460964355419642e-01,-2.868235715531713970e-01,8.093354247894391298e-03,6.765273269393565214e-03,1.726256043710968887e-03,5.707312002778053284e-02
-2.665378500997807598e-01,-2.577869073003018485e-01,-2.826265008397830236e-01,9.019378927973668164e-03,5.209363764227790267e-03,4.715395337061883442e-03,2.946827746927738190e-02
-2.246747366315869632e-01,-2.022083407408083733e-01,-3.459624728310708996e-01,1.252558205717035911e-01,-7.829792566381239133e-03,-4.622544844379488337e-03,2.554514408111572266e-01
-1.834316739615006187e-01,-2.780113039161151156e-01,-3.438961404064855842e-01,1.354429330923190566e-01,3.160436815687837128e-03,-3.515428041020674660e-02,2.798022329807281494e-01
-2.768572635079751265e-01,-2.600255664241158393e-01,-2.679632440182095898e-01,-6.398750734376925514e-03,5.625977469111721578e-03,-8.961998287554827705e-03,2.591229975223541260e-02
-2.761979141077950395e-01,-2.642614412576986260e-01,-2.653014099718111196e-01,-3.199033405739637632e-03,3.045015058738260658e-03,-2.965980282984729405e-03,1.469885278493165970e-02
-2.770171311446825713e-01,-2.608913864997329246e-01,-2.662426022557086158e-01,-1.682112533135420723e-03,3.065028322575989814e-03,-2.229765187294634535e-03,1.593643799424171448e-02
-2.728070717404918466e-01,-2.653398844016588987e-01,-2.653722878241880356e-01,-2.533835132714469529e-03,1.318641286572669411e-03,-2.392416432459103324e-03,9.857299737632274628e-03
-2.752921834065624740e-01,-2.706760624310727836e-01,-2.580264237065283961e-01,-4.441008375881320622e-03,1.526161023567557248e-03,-2.179567876345175122e-03,1.789192296564579010e-02
-2.732963401300838036e-01,-2.708276213481750072e-01,-2.597953059836536904e-01,-4.520506323979514747e-03,2.169024356980762958e-03,-2.666857268141826793e-03,1.586813107132911682e-02
-2.792920198470997817e-01,-2.631269641505637469e-01,-2.626168977099145874e-01,-2.450733587895362678e-03,2.510650942754596299e-03,-4.052528098796900902e-03,1.886827498674392700e-02
-2.854436061676250413e-01,-2.679042413504842957e-01,-2.491850019757858858e-01,-7.194941775996628770e-03,3.724045662797575117e-03,-6.311040926601591862e-03,3.609373420476913452e-02
-2.707856753107265035e-01,-2.594973420107138384e-01,-2.745279718049973838e-01,-2.359119270751729430e-03,-4.677239661108861801e-03,1.697531452171589187e-03,1.657246053218841553e-02
-2.643119225605283784e-01,-2.757942190645438774e-01,-2.641263366904074150e-01,-5.914358208794904311e-04,9.742460551969872086e-05,6.310746202384728007e-04,1.167395245283842087e-02
-2.683670242658634519e-01,-2.497243484526388002e-01,-2.854223469464663432e-01,-5.182629070878341619e-03,-4.466733852080950577e-03,2.143364019988474884e-03,3.332576155662536621e-02
-2.926802229665453337e-01,-2.319458138972489980e-01,-2.789487544111040607e-01,-5.524935986348699681e-03,-3.289286733405613356e-03,1.718120271166970886e-02,6.366210430860519409e-02
-2.242611496685833206e-01,-2.816055617796033861e-01,-2.995145401872124080e-01,-2.699819799682906876e-02,1.402463441613800710e-02,-1.153733445068311735e-02,8.838666230440139771e-02
-2.657478600002093905e-01,-2.620041401183048069e-01,-2.764087129225030193e-01,-3.172703825331223745e-03,-2.798195432872735335e-03,2.111087273648292600e-03,1.531791035085916519e-02
-2.602147999380305388e-01,-2.665688563521304011e-01,-2.783528352224831637e-01,-4.571250522100232631e-03,-3.910568778932230899e-03,4.109212289884411722e-03,2.033066004514694214e-02
-2.585500212015681698e-01,-2.625484997845630719e-01,-2.832016385907683009e-01,-2.549880312134635875e-03,-7.637039231136107413e-04,2.150044598340873202e-03,2.366948686540126801e-02
-2.681504497469676673e-01,-2.531153501247281334e-01,-2.825784521110317193e-01,-5.003108774152780977e-03,-4.122085517610370523e-03,1.509596912352546795e-03,2.800093963742256165e-02
-2.997449125928997593e-01,-2.891740229873495660e-01,-2.156793365390380079e-01,-4.355127330179765451e-04,6.712208683172850646e-03,2.029979224241354463e-02,8.753337711095809937e-02
-2.996400277641822485e-01,-3.070245825583138854e-01,-1.970453829219407649e-01,-2.463107238367949481e-03,-6.685460729563155388e-03,3.160595527432679547e-02,1.203615590929985046e-01
-2.956671780340675570e-01,-2.907759467306907375e-01,-2.167314413669093054e-01,-2.772069268856330263e-03,-1.135190114593243862e-03,1.195733236342726505e-02,7.952693849802017212e-02
-2.941324358931549088e-01,-2.838722301987461338e-01,-2.277735189288966344e-01,-1.495110004402959349e-03,-5.091879588027628002e-04,5.046536125373170083e-03,6.254445016384124756e-02
-2.977328490899434632e-01,-2.881280242423183702e-01,-2.206340117126383837e-01,-4.370604808692044041e-03,-6.584654962544753652e-03,8.107407484600946679e-03,7.536930590867996216e-02
-2.882853873011321788e-01,-2.951174060208374694e-01,-2.222546572924030128e-01,7.176055575969330150e-03,-9.439242275248683686e-03,-1.759787284201190863e-03,7.272505015134811401e-02
-2.722319526949952273e-01,-2.869094876399875815e-01,-2.456253279529572175e-01,5.489529732825680283e-03,-2.683458877318409957e-02,-9.712281088966608078e-03,6.202852353453636169e-02
-3.087779713006779114e-01,-3.107813366947770883e-01,-1.987182038999282807e-01,7.638408543780424512e-03,-2.575925483666465649e-02,-2.652273991521913662e-02,1.288940459489822388e-01
-2.779848922014838686e-01,-2.904880055574357578e-01,-2.351146934886347295e-01,2.886477435503016602e-03,-7.617083855783015819e-03,-1.267984697821752851e-03,5.228834599256515503e-02
