sxx,syy,szz,sxy,sxz,syz,smises
-6.373872529402996312e-03,-6.373872529402996312e-03,7.275574505880692822e-02,7.253864952722890313e-52,3.663172895232129147e-52,3.663172895232927368e-52,7.912961393594741821e-02
