sxx,syy,szz,sxy,sxz,syz,smises
-1.922128924268724087e-02,-1.922128924268724087e-02,-8.182742151462557567e-02,1.109132192127251234e-52,5.492775537822206161e-53,5.492775537822382348e-53,6.260613352060317993e-02
