sxx,syy,szz,sxy,sxz,syz,smises
-8.799463358688851267e-02,-1.718833415498206008e-01,-2.809850579949623728e-01,-6.428924793874932729e-03,4.367359055053175038e-02,3.877661385043776180e-04,1.842267513275146484e-01
-9.109151849437220616e-02,-1.749248361250106409e-01,-3.443315822124346504e-01,-1.447382828737747576e-03,1.184268208508405980e-02,2.667428020551751390e-04,2.244010865688323975e-01
-1.391013084650611076e-01,-1.801199746414383907e-01,-3.254070652033465016e-01,1.392544582368683125e-03,2.171220299128964054e-02,-1.263348665080857650e-03,1.737101525068283081e-01
-1.207227801976565318e-01,-2.375765124650272841e-01,-3.747167575635295678e-01,-1.354016702275716647e-02,3.506130649698832591e-02,3.258571610972055277e-02,2.364550083875656128e-01
-1.021418016898813508e-01,-1.535101654057104137e-01,-2.630630100023503837e-01,-3.659091788475079664e-03,7.692940396732821096e-02,-1.658088667795641624e-02,1.971989572048187256e-01
-1.294399486296776702e-01,-2.296861062614367066e-01,-3.136395334461407614e-01,7.203002551972610863e-03,7.830998720138439284e-02,-3.701705698429061386e-02,2.194932252168655396e-01
-1.635285731773644113e-01,-1.391736693220347598e-01,-2.969595015906902891e-01,1.006672709586551966e-02,5.774770667823842484e-03,8.005610830080608226e-03,1.491408795118331909e-01
-1.570450254671429680e-01,-1.275786962777528122e-01,-2.837375914286464074e-01,7.889338211018505700e-03,1.677097434001650162e-03,1.241671818496738362e-02,1.459798663854598999e-01
-1.665661652661398762e-01,-1.347594098480403291e-01,-2.958974614394402902e-01,2.475827856503129594e-03,-5.581800427468129513e-04,5.264863265853796277e-03,1.481699794530868530e-01
-1.642487765277218792e-01,-1.269118875276992187e-01,-2.757180858403392443e-01,5.128881029042297278e-03,6.278816231059333340e-04,1.331789611102060338e-02,1.363582313060760498e-01
-1.587081801503131551e-01,-1.248616210166972051e-01,-2.748214773814049439e-01,6.509762315742969631e-03,5.893717558694913389e-04,1.403109133508262212e-02,1.388406008481979370e-01
-1.579250666452894913e-01,-1.331967264860579869e-01,-2.781376456877175940e-01,6.083641212438109513e-03,9.840151239449211433e-04,5.333372219382191519e-03,1.350351274013519287e-01
-1.523434647876588666e-01,-1.231210487219757954e-01,-2.744709487664508396e-01,2.381766805554089150e-03,2.308291287869593689e-03,5.269866730819511465e-03,1.394784897565841675e-01
-1.420726599587056882e-01,-1.337910484011212708e-01,-2.825794190492890712e-01,-7.816893097961871359e-03,-3.390362532250598259e-03,4.699158318650886214e-03,1.458026021718978882e-01
-1.373300818591891570e-01,-1.697844723079563745e-01,-2.815238213605113504e-01,-4.086393020483657101e-03,9.093678277296093210e-03,-1.935020739483246091e-03,1.321923434734344482e-01
-1.368979633841375110e-01,-1.332586080822461827e-01,-2.694708092146880229e-01,-1.401016000754446919e-02,-1.204743857479068612e-02,1.196736233208405345e-02,1.397326439619064331e-01
-1.428147460552381676e-01,-1.296619628702338489e-01,-2.810039957392746479e-01,-1.156264747781897591e-02,-7.900336714534385643e-03,1.369542520471946252e-02,1.491236537694931030e-01
-1.436003860626541284e-01,-1.405465044209578407e-01,-2.806252021716214573e-01,-1.464986774806802117e-02,-1.445073688851173516e-02,8.073327166062994886e-03,1.437687277793884277e-01
-1.414718108787997863e-01,-1.338848552077812615e-01,-2.820822144286584954e-01,-7.912197501085410298e-03,-3.681290128381315384e-03,4.914955095868913867e-03,1.455904841423034668e-01
-1.568451540097098307e-01,-1.389102822241017055e-01,-2.974268946622934395e-01,-1.463240118777383442e-02,-7.830629533324615782e-03,1.430116842815300909e-02,1.550678908824920654e-01
-1.440083079829561630e-01,-1.455428738137705125e-01,-2.887128560926186527e-01,-5.104496622659935147e-04,-2.945220312649720262e-04,-4.804079685051754417e-04,1.439494192600250244e-01
-1.491535361877371069e-01,-1.470168453072842052e-01,-2.909502761792753800e-01,-1.260243727679255694e-02,-9.088030359660385221e-03,8.370330732921166944e-03,1.461105197668075562e-01
-1.228147750486386913e-01,-1.328104880784241881e-01,-2.698170486872748519e-01,-1.279164959672951345e-02,-1.959150001184975856e-02,1.082427864186136235e-02,1.491108536720275879e-01
-1.474518304198976504e-01,-1.397905075742965908e-01,-2.872121296821622538e-01,-6.514074623375536860e-03,-2.921319570743087252e-03,2.976793546327819069e-03,1.443671435117721558e-01
-1.490866836421590458e-01,-1.339088409016565007e-01,-2.758613187928388166e-01,-1.408852037246265641e-02,-7.890888510815759899e-03,1.788130642028611106e-02,1.413075476884841919e-01
-1.546815654846245558e-01,-1.442049236730109929e-01,-2.922649537839874800e-01,-6.501851392976753900e-03,-1.572595680063044055e-03,2.838959440940353948e-03,1.436620354652404785e-01
-1.419621927777736659e-01,-1.341959987430054735e-01,-2.764575188266084060e-01,-6.420170829374249183e-03,-3.551803049860267902e-03,2.748958760414703991e-03,1.392048746347427368e-01
-1.443324803851503968e-01,-1.264929864858720110e-01,-2.683815356671549468e-01,-9.466133401726044630e-03,-7.963758212361947073e-03,8.967786200603096794e-03,1.364541649818420410e-01
-1.549539093143590673e-01,-1.357704898592485554e-01,-2.903221876111574118e-01,-1.056700860536528321e-02,-8.698296711738157452e-03,7.075344623253592737e-03,1.483291834592819214e-01
-1.270033203332385507e-01,-1.570371442320307453e-01,-2.601571789132477441e-01,2.649365105081261714e-03,-2.337689863851419650e-02,-6.716272783940889762e-04,1.276507377624511719e-01
-1.050552764263817385e-01,-1.427467459616381940e-01,-2.186833197153287833e-01,2.689493719653764797e-03,-4.206152411979607181e-02,-5.558957404711473323e-03,1.243828460574150085e-01
-1.226021969529090400e-01,-1.629748268332856520e-01,-2.854028026675741181e-01,1.922074964558406198e-03,-2.725202320815979518e-02,-2.064033410449274235e-03,1.543152034282684326e-01
-1.479406668425932991e-01,-1.550423576718730490e-01,-2.914966545151516097e-01,-7.310542136501342299e-04,4.626644552355844726e-04,-7.926355248764579194e-05,1.401482373476028442e-01
-1.320352219351801915e-01,-1.625858527473069970e-01,-2.922302035444628299e-01,5.317181193160397217e-04,-1.586337427612133583e-03,5.290897418722813285e-04,1.473463773727416992e-01
-1.249580394039614267e-01,-1.651038123823177772e-01,-2.923442030419889370e-01,2.784172495504113123e-03,-2.831343293439841230e-02,-4.126867109122507246e-03,1.593400835990905762e-01
-1.115039166570160889e-01,-1.452498980657921934e-01,-2.166488119851193161e-01,-8.007856098822643473e-03,-4.501074673093210382e-02,6.664127578367437001e-03,1.226765438914299011e-01
-1.262840365716687285e-01,-1.685945203421047867e-01,-2.864500366811764120e-01,8.474333854717116003e-04,-1.487983364814385139e-02,2.398797404294975791e-03,1.461173146963119507e-01
-1.320874050462880478e-01,-1.695446762073002933e-01,-2.628977355517684300e-01,-8.222096781384628794e-03,-4.989241002273389625e-02,7.048341836893328577e-03,1.464042216539382935e-01
-1.548322349264671660e-01,-1.212964355321101972e-01,-2.657596080476860578e-01,-1.551641449622344002e-03,5.573916595992533260e-04,-6.275830895641916138e-03,1.314377486705780029e-01
-1.570603996697207960e-01,-1.262563179979870887e-01,-2.753758461218115960e-01,-1.946834132262546552e-03,4.273949203966663198e-04,-2.375640130111697067e-03,1.364583671092987061e-01
-1.452289630967240897e-01,-1.192120161617763463e-01,-2.505577383885291831e-01,-4.299361743228279076e-03,6.759794136856275837e-04,-8.192945914691281140e-03,1.215300932526588440e-01
-1.473691992444819410e-01,-1.660287398847722085e-01,-3.190370392810253919e-01,1.189940526401966035e-02,5.155313920724330021e-03,-5.122909844953716513e-03,1.649182736873626709e-01
-1.342309517387738904e-01,-1.406182386666059159e-01,-1.332657618943257904e-01,4.015215699321293512e-03,-1.865421674845672839e-02,-1.165690669377842173e-02,3.934272006154060364e-02
-1.813929968751309407e-01,-1.937663227689356837e-01,-3.704392705239410999e-01,1.902557131170359156e-02,1.955872634558732809e-03,6.630425521718317540e-03,1.864986419677734375e-01
-1.287270394100699100e-01,-1.458313400862082665e-01,-2.809012777125536320e-01,-1.589684012726801229e-03,-7.740625501287517465e-04,3.281924168023482146e-04,1.444175392389297485e-01
-1.506909950435905143e-01,-2.000458476351660853e-01,-4.285086108984397235e-01,3.869724568783708407e-02,3.244012766510424167e-02,2.745626994885219489e-03,2.712545096874237061e-01
-1.143773882185239316e-01,-1.368795496317216365e-01,-3.042082778630715856e-01,3.373933684795801802e-02,2.445354638943538286e-02,2.246502705367525374e-02,1.974677145481109619e-01
-1.763875507356949535e-01,-1.311123846120525738e-01,-3.023702475601147133e-01,4.942466687133912663e-03,-2.832196543067758230e-03,2.078530310460903474e-02,1.581733375787734985e-01
-1.537040666018275048e-01,-1.204577294292107359e-01,-2.724511636230746436e-01,-1.314943491744020778e-03,1.748876934662415943e-03,1.187512908101682335e-02,1.399697065353393555e-01
-1.648092552154548918e-01,-1.296123026976388759e-01,-2.858244648953428557e-01,-6.766496897312464232e-03,-5.115058399674743406e-03,2.552710052060133683e-02,1.493774354457855225e-01
-1.683227841978209571e-01,-1.368327612374340974e-01,-2.966361826688916903e-01,-1.134986396425317207e-02,-3.155014670836021537e-03,1.098902160651719397e-02,1.492485851049423218e-01
-1.766523409916267995e-01,-1.452409592379809988e-01,-3.085972144893177616e-01,-7.141215826412634742e-03,-6.886496127137026364e-04,6.775800632708611423e-03,1.511054039001464844e-01
-1.649391158464319218e-01,-1.303344179306639150e-01,-2.889332506643528253e-01,-6.686589473381869889e-03,-4.038149933221288216e-04,1.160495963939011874e-02,1.462923586368560791e-01
-1.649393524278223999e-01,-1.241952199772524135e-01,-2.786183113506375819e-01,-2.450701408980129732e-05,8.872693301054084675e-05,1.300143616713505743e-02,1.404346078634262085e-01
-1.273212383089206978e-01,-1.219592701030837723e-01,-2.332398427984199996e-01,-1.021679010168146523e-02,-1.368803446111482684e-02,9.762139991971785502e-03,1.139147356152534485e-01
-1.582585399617895960e-01,-1.316668308388319331e-01,-2.536706049969268961e-01,-7.538246049448233017e-03,-1.276052146820346594e-02,1.488460886333791908e-02,1.169246509671211243e-01
-1.780707946680362974e-01,-1.577423966283764134e-01,-2.858313473313067732e-01,-1.081174528139849413e-02,-1.302501829584237769e-02,3.079675616608645167e-02,1.338698416948318481e-01
-1.126859842397769373e-01,-9.102948466904715874e-02,-1.603464612239851594e-01,-1.139608151652834675e-02,-1.626849403227775132e-02,5.149268680668686593e-02,1.136256083846092224e-01
-1.579403691779774910e-01,-1.350213919296441856e-01,-2.951664881978423582e-01,-5.378670233190995485e-03,1.057912474122130083e-04,-5.708960832364860967e-03,1.506186276674270630e-01
-1.475257925721238372e-01,-1.516854546523448699e-01,-2.645866453072511781e-01,-1.313380360126075418e-02,-1.393455361622293956e-02,2.332414996246160235e-02,1.263553202152252197e-01
-1.133661120756243451e-01,-1.218061005442892392e-01,-1.887938149157747936e-01,-1.351881872679668549e-02,-2.882114001961701491e-02,2.915017569596220492e-02,1.035056039690971375e-01
-1.410271602477619624e-01,-1.610739083410514527e-01,-2.931219902872321814e-01,1.165719073100545539e-02,-1.493076560553034324e-02,-3.846896391335671156e-03,1.469916701316833496e-01
-1.564402557748710287e-01,-1.261773979823504199e-01,-2.896368040511664299e-01,-4.774960038066437991e-03,3.340999526504966673e-03,-1.037682621351598139e-02,1.520295739173889160e-01
-1.427432877723557314e-01,-1.560480574761614059e-01,-2.789745008837669626e-01,1.157134587366853880e-02,-1.058436124663695091e-02,-3.325588856326472387e-03,1.330202519893646240e-01
-1.202188207040312540e-01,-1.446697455024497092e-01,-2.373062270435244148e-01,1.834616713087205281e-02,-2.715694610010415538e-02,-1.567386701405655211e-02,1.241115182638168335e-01
-1.514072294114840733e-01,-1.414867908268194197e-01,-2.854647740685234969e-01,-9.018058469942896033e-03,5.293493411188821517e-03,-2.644718644400381909e-03,1.405303329229354858e-01
-1.475827791283551293e-01,-1.551304714193150747e-01,-2.931156401785794396e-01,1.506842522366947518e-02,-1.058354436386336854e-02,-1.208795829916873080e-02,1.469486504793167114e-01
-1.377839464529870828e-01,-1.431290441394748869e-01,-2.754467724572426945e-01,1.180211532737717763e-02,-1.031261805360760876e-02,-7.006743253223086769e-03,1.383040398359298706e-01
-1.266145429285138735e-01,-1.366037910291337809e-01,-2.542560709453730583e-01,1.935114069775677181e-02,-2.174517522241842596e-02,-2.608171043324357397e-02,1.403560638427734375e-01
-1.556024222034518845e-01,-1.665221774674640887e-01,-3.447091738616279155e-01,-1.773248469249322917e-02,7.667376148840728857e-04,-4.308822571091466130e-03,1.865915060043334961e-01
-1.487937208802785349e-01,-1.530507434874446016e-01,-3.085903902027031798e-01,-2.037704265127704417e-02,1.340764748967387780e-02,-1.084385382585537679e-03,1.632829904556274414e-01
-1.486917598153357223e-01,-1.349969887979423078e-01,-2.832712181348646108e-01,1.239932383340227630e-03,1.984753421816076334e-04,2.923749327278720735e-04,1.419408321380615234e-01
-1.574201602541016320e-01,-1.570792350319951680e-01,-3.021739372008754865e-01,-6.823025372521013092e-03,-4.920063279976819850e-04,-8.385909117704270143e-04,1.454153358936309814e-01
-1.527775640644297439e-01,-1.537062910493497692e-01,-2.924869018085455852e-01,-5.791634861364041223e-03,7.203056290043695006e-04,2.871803951800515494e-04,1.396146267652511597e-01
-1.463774228196114136e-01,-1.496557920728446844e-01,-2.877181118137808191e-01,-4.649422725224868283e-03,9.972980950635125410e-06,8.722796277103018700e-05,1.399623006582260132e-01
-1.467920268919034599e-01,-1.501065600132195088e-01,-2.890312008769057583e-01,-4.198213897383134066e-03,5.221568692198192427e-04,-9.196624476236034309e-05,1.408021003007888794e-01
-1.494222995705165591e-01,-1.569862491628601364e-01,-2.928936771459067501e-01,-6.294249040596252079e-03,5.088217949825129920e-04,-1.086921023463086966e-03,1.402826160192489624e-01
-1.524768007633376665e-01,-1.564030655770229372e-01,-3.051511162340393435e-01,-5.641430833207041785e-03,-3.362080151692104012e-04,-1.012444846059156936e-04,1.510671079158782959e-01
-1.485579061716995886e-01,-1.323736688158791697e-01,-2.370648614956568090e-01,9.822110043424654713e-03,-1.245144896176589647e-02,-2.455557163407073515e-02,1.099604219198226929e-01
-1.384965365600916154e-01,-1.165002693001503942e-01,-2.477922743231339986e-01,7.690066187379602895e-03,-7.187525604664231176e-03,-1.152758392052851029e-02,1.247579306364059448e-01
-1.439720769624065755e-01,-1.230795569187712601e-01,-2.540500104122399017e-01,9.065087128483185347e-03,-5.173787092475982605e-03,-1.438914544475409195e-02,1.257037371397018433e-01
-1.526082023570184132e-01,-1.165913082819100832e-01,-2.519583144720148327e-01,1.001058280909924644e-02,-1.576249120439006043e-02,-3.493534788747745118e-02,1.394753903150558472e-01
-1.567212508590093700e-01,-1.331981540470570935e-01,-2.637960086857495945e-01,1.266057693406094295e-02,-9.088138879503188106e-03,-1.272227568559901149e-02,1.255041509866714478e-01
-1.664347581222288541e-01,-1.386271654534313169e-01,-2.921679925869064554e-01,6.904231183091758157e-03,-9.734965170431928924e-04,-1.208150503249535296e-02,1.437434703111648560e-01
-1.317655515469543237e-01,-1.537382572433795280e-01,-2.830992252972156509e-01,-1.858408972308376152e-03,-1.160994540125612467e-03,6.370120920890067276e-04,1.416866034269332886e-01
-1.603242710488006206e-01,-1.303318597437559678e-01,-2.799434594011729338e-01,7.757241494565022405e-03,-2.476018482408686317e-03,-1.474131100770440135e-02,1.401670426130294800e-01
-1.461710351167420097e-01,-1.819457277205472900e-01,-2.112395461723561296e-01,-9.104094973026764055e-04,3.348478407543643842e-02,3.474956091333831441e-05,8.094514161348342896e-02
-1.346981552429336315e-01,-1.496329817107903692e-01,-1.718588184661465068e-01,-5.915106352346950931e-03,3.462995367464464375e-02,-2.910599685137031309e-02,8.539976179599761963e-02
-1.508285119175972744e-01,-1.584223973600842328e-01,-2.311296902100522521e-01,-1.555994470075758827e-02,3.228208709922648217e-02,-1.993358643118453913e-02,1.045988872647285461e-01
-1.462721743560624899e-01,-1.414091886535185361e-01,-2.895527797750145349e-01,1.187927649665445652e-03,-6.918703106229393994e-04,3.655320531722332819e-04,1.457937657833099365e-01
-1.144806930175262527e-01,-1.367203937101065248e-01,-2.081552764555727464e-01,-1.068919155753249653e-02,2.729281610851212736e-02,-2.045994966485759417e-02,1.049739792943000793e-01
-1.154483556724630045e-01,-1.332556256768238356e-01,-2.091779965484640291e-01,-1.079623344309411231e-02,2.585775929188798353e-02,-1.762843382024263314e-02,1.035427823662757874e-01
-1.218200827820345167e-01,-1.325540848803775928e-01,-1.524593546846008119e-01,-6.286076246457133164e-03,3.405213649605009357e-02,-2.198638032726087793e-02,7.597692310810089111e-02
-1.029318218940667717e-01,-1.309424748983401554e-01,-1.773773103984161437e-01,-1.080460769999672457e-02,-4.449536294498310923e-02,1.557840235307097337e-02,1.061096191406250000e-01
-9.042443391603222080e-02,-1.343873196416967286e-01,-2.076767618949079686e-01,-5.580717144923136655e-03,-4.019516520875113241e-02,7.306377249569737456e-03,1.250065118074417114e-01
-1.373619728487443792e-01,-1.665128754705816339e-01,-2.932686982366643491e-01,-1.573079972176924871e-02,-1.803803969906088087e-02,1.060316559809885983e-02,1.505577266216278076e-01
-1.498158899429356539e-01,-1.763545776248933994e-01,-2.640734948559414486e-01,-1.231119556836241143e-02,-2.887081777621910636e-02,1.212070253903173994e-02,1.188396364450454712e-01
-1.350789613711947945e-01,-1.752688000500772503e-01,-2.867687832729231001e-01,-6.837257750703749394e-03,-2.317478915932538394e-02,1.490456745669446574e-03,1.424315869808197021e-01
-1.508091423842896628e-01,-1.490119342729236962e-01,-2.853791490941036679e-01,1.195410244821706013e-02,-1.656318769674493350e-03,-4.996329722495597078e-03,1.373535245656967163e-01
-1.369759545673509271e-01,-1.433330910658993651e-01,-2.828519788807497548e-01,8.368609073045762958e-03,-1.888040981119534041e-03,-6.514089329643171951e-03,1.440172493457794189e-01
-1.333395444546187081e-01,-1.398979267747365307e-01,-2.769652479995213801e-01,8.121351833340433729e-03,-4.028855036668793459e-03,-4.832890248237738801e-03,1.415840238332748413e-01
-1.329269837298027446e-01,-1.507005195203015846e-01,-2.769143571182423047e-01,7.923239148135245713e-03,-7.399650542327176027e-03,-1.135744053201352341e-03,1.372791528701782227e-01
-1.521983473834372380e-01,-1.201423458058265975e-01,-2.835396565841589722e-01,-1.194017604151430961e-02,7.400747458282544780e-03,-2.239674840171891265e-02,1.567968875169754028e-01
-1.282665940033651530e-01,-1.489950821477740717e-01,-2.611775562474343837e-01,1.034367540373862596e-02,-2.330628113621296613e-02,-1.206112153958883298e-02,1.331423521041870117e-01
-1.476825881452651368e-01,-1.372883976341526813e-01,-2.319299815145828281e-01,-1.508056678606861829e-02,-1.845517455961815170e-02,1.690473329822258022e-02,1.031634956598281860e-01
-1.426623841148132454e-01,-1.306351859882776689e-01,-2.545546630261272814e-01,-1.252248982707689952e-02,-8.580567334273748320e-03,8.930411586736120705e-03,1.222328096628189087e-01
-1.574507739953057706e-01,-1.275895992978855475e-01,-2.592687752408731061e-01,-9.198541074564366149e-03,-1.123447682837077147e-02,1.587811063860574898e-02,1.252510398626327515e-01
-1.642647913994863818e-01,-1.520043975533155178e-01,-2.664346356068212351e-01,-6.871582002492562791e-03,-8.432975908975010385e-03,1.420256300856925780e-02,1.131449341773986816e-01
-1.494408648725536470e-01,-1.528982610607608206e-01,-2.549125805702677772e-01,1.735677972125529780e-02,3.820652753178883920e-02,1.629655414071179420e-02,1.298125684261322021e-01
-1.519409876507775148e-01,-1.513458684218370598e-01,-2.738777039426253390e-01,-1.006393216749796975e-02,-1.012205270796381201e-02,7.615085708802459170e-03,1.254060119390487671e-01
-1.463116524411719188e-01,-1.476626040220935798e-01,-2.566151454954556099e-01,-7.942965214561838530e-03,-1.111724693763297030e-02,1.182326952890813340e-02,1.140135601162910461e-01
-1.498891198308008876e-01,-1.491392012743424922e-01,-2.646913419259581679e-01,-1.379834291928924185e-02,-1.168692819347541892e-02,1.837881106990359517e-02,1.235333234071731567e-01
-1.486029859936371378e-01,-1.479924571494192209e-01,-2.873490390787936111e-01,3.362496905890341448e-04,1.760020849888840265e-05,5.768650697136227601e-04,1.390571296215057373e-01
-1.484564162162445855e-01,-1.498097953365234714e-01,-2.992277817221318248e-01,-9.761785489367534596e-03,3.242528569698583827e-04,1.079979370361607276e-03,1.510611772537231445e-01
-1.518462330501442747e-01,-1.503559485605727164e-01,-2.901912857625323916e-01,-3.014071262826927434e-03,3.183591549002586548e-05,3.382724542279177873e-04,1.391953527927398682e-01
-1.518411363641747336e-01,-1.518029131805615495e-01,-2.903121856629732322e-01,-1.792850504575964907e-03,-8.088629432429655410e-04,-4.339197054388710048e-04,1.385340988636016846e-01
-1.500516852716957117e-01,-1.466326492431073714e-01,-2.905944862002068918e-01,-4.788356385177644677e-03,1.843993737469241424e-03,-8.271966171554651732e-04,1.425676345825195312e-01
-1.514820290943355019e-01,-1.502954588767422828e-01,-2.896086465433274637e-01,-3.090040909233295486e-03,-1.387446719901702403e-04,4.094748236106024106e-04,1.388289332389831543e-01
-1.498790451121663481e-01,-1.512197827117497950e-01,-2.899628191309413516e-01,-2.426215465426874787e-03,-7.690170228178246558e-04,1.156599588845137706e-03,1.395023018121719360e-01
-1.640068649541263357e-01,-1.662105548484039963e-01,-2.383818198026875501e-01,7.945679902078478518e-03,1.002747345852167231e-02,1.582628256654141849e-02,8.133299648761749268e-02
-1.568821937603130379e-01,-1.400803456731425922e-01,-2.908708915460432864e-01,1.707794377889363139e-03,1.505181448671969444e-04,-1.135522458537268405e-03,1.431754827499389648e-01
-1.364251575629436275e-01,-1.129699790428147221e-01,-2.020115393659477343e-01,-6.232148212444556593e-03,1.290721841034333552e-02,-3.231871510316932511e-02,1.006968989968299866e-01
-1.370846023905873401e-01,-1.161888128163296452e-01,-2.435447351208986644e-01,-7.948433089459420314e-03,4.653940940718519215e-03,-1.557845194035537700e-02,1.223827451467514038e-01
-1.720373771203091984e-01,-1.515723868892907000e-01,-2.969545590391987622e-01,-1.282934186121843269e-02,5.225563509074266158e-03,-1.517308088542229302e-02,1.408755183219909668e-01
-1.527699799121619018e-01,-1.202559411535343292e-01,-2.427566699049484300e-01,-1.280217374661501420e-03,2.071477663858871041e-03,-1.744843554899480620e-02,1.140689775347709656e-01
-1.490514651120899425e-01,-1.296112538928100855e-01,-2.534460262372195127e-01,-1.236127870461237524e-02,5.633054050464658680e-03,-1.408723188251034299e-02,1.202270612120628357e-01
-1.454620541738041450e-01,-1.242872843289034163e-01,-2.550551513658856906e-01,-1.270668956989626751e-02,1.279058421572392898e-02,-1.625017442881178387e-02,1.286351680755615234e-01
-1.096213236740613134e-01,-1.264321791387410243e-01,-1.388299838229121452e-01,1.683720669458483796e-02,6.190731025266232174e-02,3.033390889672874999e-02,1.255116909742355347e-01
-1.503916911776564946e-01,-1.210360295514539553e-01,-2.536500817318466106e-01,-8.746629222315432245e-03,3.032176566968031693e-03,-1.992060404534111429e-02,1.265023797750473022e-01
-1.362616279036212297e-01,-1.635348442931798540e-01,-2.928404891612793048e-01,6.525951136184576090e-03,5.956385610430185371e-03,1.168819030291725703e-03,1.457005739212036133e-01
-1.363915981351038476e-01,-1.537093747804681720e-01,-2.904751126141240647e-01,7.450404322850484075e-03,5.076649960057470941e-03,3.765053443738758821e-03,1.471720784902572632e-01
-2.262650821921507460e-01,-1.815050605949880269e-01,-4.552157128853730472e-01,4.205291710728107507e-02,-5.096535319033296957e-02,-3.172484204683122255e-02,2.842302322387695312e-01
-1.461876217648737097e-01,-1.449145850168060967e-01,-2.897698956891948674e-01,-3.939083446031976452e-03,4.249742450280050886e-05,1.047637611893704026e-03,1.443957090377807617e-01
-1.405074566989813201e-01,-1.425401856695419078e-01,-2.871553130495455575e-01,-2.346105662596583742e-03,-1.084282373929463779e-03,5.562129025781673231e-05,1.457109451293945312e-01
-1.396044116713798799e-01,-1.398250106113427260e-01,-2.829041644316873105e-01,-4.822885398218678364e-03,-9.945414504425197002e-04,2.853569795538363294e-03,1.435285061597824097e-01
-1.422263085967047924e-01,-7.269298730430485966e-02,-1.632128292861163843e-01,-9.021925871957315463e-03,-1.413420035972426554e-02,8.274788917876989280e-02,1.676893830299377441e-01
-1.417099235867646523e-01,-1.384921275165710841e-01,-2.775022927762320069e-01,-9.058738367543438599e-03,-2.302790516815738514e-03,3.526904214274975777e-03,1.385145485401153564e-01
-1.387825872850024511e-01,-1.332133553095581902e-01,-2.735134189766247892e-01,-5.779674354904454185e-03,-3.040844454572302989e-03,2.201331317460858764e-03,1.381168067455291748e-01
-1.275221902907839600e-01,-1.518757774074999123e-01,-2.804796932686137168e-01,-4.899132817523312337e-04,1.030292468592050505e-03,9.868567530130504997e-04,1.423757672309875488e-01
-1.503102172941856718e-01,-1.482053369814234356e-01,-2.924654850084517088e-01,-8.411585949890066846e-03,-1.550168811945609694e-03,2.813311507944506098e-03,1.440659165382385254e-01
-1.450552189848334783e-01,-1.384210021170325100e-01,-2.845551037447034970e-01,-6.449036864334752213e-03,-2.202118082131420893e-03,1.580914384528418542e-03,1.434451788663864136e-01
-1.519326416411015679e-01,-1.501176521553033716e-01,-2.921984772762944438e-01,-8.429795539828824347e-03,-1.826515024326025912e-03,2.854649650033431064e-03,1.420563906431198120e-01
-1.398484863902722808e-01,-1.427712489107024474e-01,-2.807471785502044237e-01,-5.922170586836045074e-03,-1.952996496288595318e-03,1.863565502927357282e-03,1.399151533842086792e-01
-1.445018144341487787e-01,-1.478489075644586759e-01,-2.876079695556663096e-01,-5.246465060961385748e-03,-6.888667723922413128e-04,3.686788629454125520e-04,1.417603343725204468e-01
-1.449953536051000469e-01,-1.389935070243909221e-01,-2.865230829712067662e-01,-1.384146039761047480e-03,-8.902542797246190557e-04,6.207721431530351195e-04,1.446541696786880493e-01
-1.399446831925282575e-01,-1.391817228550340790e-01,-2.844680381610705799e-01,-2.878182786865473783e-03,-7.901944096388267423e-05,6.375297639084841726e-05,1.449921727180480957e-01
-1.445438157412081426e-01,-1.444188388383582100e-01,-2.877729625901444543e-01,-3.343632950975431242e-03,-1.534253740134795862e-04,2.267293282503349034e-04,1.434094458818435669e-01
-1.922548611596996970e-01,-1.504996538745598800e-01,-2.987608186592890513e-01,4.232060360575159302e-03,-3.520468082285167842e-04,2.219814914006995599e-02,1.380817592144012451e-01
-1.530143868715903299e-01,-1.403749573520789440e-01,-3.020021460856815443e-01,-1.678185674725922102e-02,1.474981320655752506e-02,-9.797761433941272122e-03,1.613250672817230225e-01
-1.488279128774726567e-01,-1.428567890687212349e-01,-2.916250306488724076e-01,-9.203402534323116418e-03,5.614638289462442651e-03,-2.137949519331029669e-03,1.471112668514251709e-01
-1.477428173801600686e-01,-1.505415221968720574e-01,-2.897903470368859979e-01,-9.944566014011248928e-03,4.712053033162629662e-03,-1.902516153673018684e-03,1.419927328824996948e-01
-1.597121293075134674e-01,-1.648481557133897879e-01,-3.135719866725562577e-01,-8.409559236573172988e-03,1.838548657186360414e-03,1.851975863205020546e-03,1.521236300468444824e-01
-1.385328988530518945e-01,-1.295634871257125287e-01,-2.838063633666489949e-01,-1.517342364909626470e-02,1.023812566222291782e-02,-1.169774348966612712e-02,1.546076089143753052e-01
-1.512186880993143800e-01,-1.547736652159563686e-01,-2.940449734918775260e-01,8.944296474608454117e-03,-4.396475369909372613e-03,-3.456165289290050006e-03,1.422605514526367188e-01
-1.469561397406520253e-01,-1.443773451514213380e-01,-2.903491580615073508e-01,9.754164059026895414e-03,-3.869390609606455922e-03,-3.111007602019823150e-03,1.459361910820007324e-01
-1.535618830920467692e-01,-1.490843588704462708e-01,-2.962265452486377848e-01,1.100276842268905174e-02,-2.289671262005610417e-03,-3.827748337346911865e-03,1.464066356420516968e-01
-1.345869094432416979e-01,-1.520802275157007721e-01,-2.944106134669667307e-01,1.366367196798104824e-02,-6.667356877768810912e-03,-2.911714302241873598e-03,1.541838794946670532e-01
-1.567690201637073621e-01,-1.517500534584512173e-01,-3.026374450990589882e-01,1.103877872990460460e-02,-2.541073589570232074e-03,-3.931681228666532996e-03,1.498873084783554077e-01
-1.465482213808154688e-01,-1.577489675845682171e-01,-2.975513293216802690e-01,1.753228330203528487e-02,-4.610358359168920464e-03,-2.146047408414860844e-03,1.491166502237319946e-01
-1.481623004686776768e-01,-1.594191915748893462e-01,-2.983217002846991206e-01,9.953490601850177935e-03,-4.470635214847903938e-03,-7.598567754586850551e-04,1.460929214954376221e-01
-1.509357508774086809e-01,-1.195963592937044073e-01,-2.682083258435553619e-01,-2.979992770641247055e-02,-2.462519404559227951e-02,4.015233440685379157e-02,1.665238738059997559e-01
-1.399170685995608232e-01,-1.409358402277359201e-01,-2.940720466908937070e-01,1.501553735764560478e-02,-3.708998895869345530e-03,-3.868946085130888293e-03,1.561099737882614136e-01
-1.843336724216773082e-01,-1.541336529345362361e-01,-2.550643519323912423e-01,6.520813635996686175e-03,2.840671616371072145e-03,3.076287761660284961e-02,1.050798445940017700e-01
-1.845869468648363154e-01,-1.526292713890327057e-01,-2.514695351044443083e-01,7.507089392677255939e-03,2.424766791953230933e-03,2.960951097011458102e-02,1.022196784615516663e-01
-1.672244778187175762e-01,-1.441658537832182230e-01,-2.525759883922345517e-01,-9.141499310685607157e-05,-7.993713826495341297e-04,2.013098723598418308e-02,1.048922315239906311e-01
-1.439534915172223928e-01,-1.183526681991626528e-01,-2.095918626868666923e-01,6.313614134761001348e-04,-1.309023764532558009e-03,2.839748969380475815e-02,9.523540735244750977e-02
-1.633309405755371535e-01,-1.358331169830891971e-01,-2.223153902502191803e-01,6.784657384812178144e-03,-2.425315283531477746e-03,2.926803629622110395e-02,9.264358878135681152e-02
-1.571140234797512303e-01,-1.306222070487320641e-01,-2.332348787615586838e-01,-1.145708575153920369e-04,1.200318046289932956e-03,3.006988121624192337e-02,1.059704497456550598e-01
-1.669834983287944719e-01,-1.359651705950767342e-01,-2.245743207994935764e-01,-6.830747460810767009e-03,-2.506071288752269397e-03,2.871642679299100595e-02,9.326268732547760010e-02
-1.762738106860828602e-01,-1.481847168289446848e-01,-2.397045109639534544e-01,-6.828275695361991048e-03,-3.282768752922552141e-03,3.323779271162365101e-02,1.004022881388664246e-01
-1.594386718034844774e-01,-1.449154723333654915e-01,-2.904100287680939640e-01,9.111027636601175261e-03,-7.002942397675780174e-03,-8.781246174090671930e-03,1.410461962223052979e-01
-1.515363649428960735e-01,-1.345941812743212118e-01,-2.896739425917889132e-01,1.401317586420119422e-02,-1.057734308357845612e-02,-1.453479791292988307e-02,1.525382250547409058e-01
-1.495489492230860362e-01,-1.450862297348843033e-01,-2.835238083677146248e-01,1.015057740548946062e-02,-3.372439028859048043e-03,-4.057557566437073292e-03,1.376941651105880737e-01
-1.496708942833273048e-01,-1.455150887924274994e-01,-2.913188485085151935e-01,-5.290450391554893904e-03,9.204944680827800013e-04,-1.199926275332240328e-03,1.440864354372024536e-01
-1.490637746861296353e-01,-1.414073968011417270e-01,-2.851732080318336582e-01,9.077395752866628670e-03,-4.530633801819303717e-03,-3.145320676327056052e-03,1.412974148988723755e-01
-1.421380934085604286e-01,-1.465129928004153814e-01,-2.841726281970929913e-01,1.452139590687458008e-02,-7.134438661120450810e-03,-1.284294957783198299e-02,1.444011777639389038e-01
-1.290553765465817793e-01,-1.521176556868204244e-01,-2.808801953406721008e-01,-1.496076311013676448e-03,-2.247459307397620641e-03,8.909948247530762936e-06,1.417853534221649170e-01
-1.322776077197952704e-01,-1.515020734090712917e-01,-2.839198899268811083e-01,-1.686474420547751443e-03,3.662146406408870337e-04,-7.511251678700994966e-04,1.430396735668182373e-01
-1.608669736051865640e-01,-1.518182144234245801e-01,-2.955298694000615400e-01,1.763637751472088566e-02,-1.181124166065879513e-02,-9.623521477635515672e-03,1.451343744993209839e-01
-1.585332875511510642e-01,-1.684850534191433546e-01,-3.056053500180412330e-01,-1.849413019656758958e-02,1.346159498873575160e-02,-1.225221618993401797e-02,1.492839455604553223e-01
-1.254555289563893394e-01,-1.426269802469472270e-01,-2.551781625632905115e-01,-1.253060821329250209e-02,1.651905673085860352e-02,-1.127294161948543330e-02,1.287098228931427002e-01
-1.370596760355560773e-01,-1.472296998628610243e-01,-2.643831334744066730e-01,-1.754914330903940833e-02,2.263497868657097373e-02,-1.146281646331002470e-02,1.336971968412399292e-01
-1.419147835012438408e-01,-1.539390717188763580e-01,-2.691979246054116426e-01,-9.443172633422088763e-03,1.201658354695334628e-02,-8.243586268977488515e-03,1.253781467676162720e-01
-1.453752292848339289e-01,-1.516244720732203011e-01,-2.806408728202146041e-01,-1.092974786458954933e-02,8.637925628531006178e-03,-2.615844358791686447e-03,1.345112919807434082e-01
-1.388638364436748929e-01,-1.761026436247317695e-01,-3.038930557744931038e-01,5.561195629259618918e-03,1.356291297305774017e-02,2.417485046782661112e-03,1.521119773387908936e-01
-1.339244701284734995e-01,-1.694777391622891705e-01,-2.978699700861284771e-01,4.288629524015233514e-03,1.197714371589827728e-02,4.889040474213137387e-03,1.512303054332733154e-01
-1.265983819000549571e-01,-1.600890412416708930e-01,-2.340282395641838376e-01,1.335973088492759323e-02,3.764908454188908848e-02,3.135566535583229203e-02,1.296234726905822754e-01
-1.210543007103990348e-01,-1.662138665425293427e-01,-2.671019443373918723e-01,1.406204153095124039e-02,3.665346927795656851e-02,-9.862488756509470503e-04,1.462888419628143311e-01
-1.271025279812384445e-01,-1.667845218101023652e-01,-2.880413342803441745e-01,5.607883100063441179e-03,1.881917238170631099e-02,3.145740290721819616e-03,1.492518037557601929e-01
-1.596055447378411096e-01,-1.965860133968547196e-01,-3.028330544479531650e-01,9.105099490023981640e-03,2.341581605832794913e-02,3.169843256449620859e-04,1.359373629093170166e-01
-1.288889257670631783e-01,-1.592864058707771924e-01,-2.420594499692158563e-01,1.011809551517828774e-02,4.979362274561587726e-02,2.086154232482006522e-03,1.343498229980468750e-01
-1.363783149180663734e-01,-1.697892932746610239e-01,-2.784287790784014671e-01,1.897845315334812733e-03,1.856730004373169027e-02,5.515315649170561725e-03,1.329845041036605835e-01
-1.382683714924301255e-01,-1.315774999764303954e-01,-1.472896098238698492e-01,-6.872455253724644997e-03,-1.462044346508892256e-02,3.207643598530662138e-02,6.368804723024368286e-02
-1.536504371024060012e-01,-1.384259944666785813e-01,-2.891348904809641907e-01,1.451588531449580534e-02,3.691263193973511915e-03,1.245642274198483467e-02,1.476109474897384644e-01
-1.482557833686446447e-01,-1.350366456786814551e-01,-2.717207047623698135e-01,1.001932325368489266e-02,7.363990425413825640e-03,1.044649379373763579e-02,1.335726976394653320e-01
-1.410363111061504748e-01,-1.403990275045591540e-01,-2.618078204837542278e-01,1.330784580090189732e-02,8.859900495724723837e-03,1.053994679274826950e-02,1.255515515804290771e-01
-1.516733744140623397e-01,-1.527856067161090237e-01,-2.781241916481294041e-01,1.544862535360127381e-02,1.066521152060067625e-02,1.561648984712597950e-02,1.328128278255462646e-01
-1.355477048961287734e-01,-1.313030223682015718e-01,-2.551025880478122732e-01,1.091525839691808407e-02,9.429424512280753026e-03,8.586987003058387663e-03,1.251568645238876343e-01
-1.611617666260337089e-01,-1.210815640009826333e-01,-2.972037136858648454e-01,-1.818632198339616493e-02,-1.416105371738766126e-02,4.089045186448000274e-02,1.793776601552963257e-01
-1.671177666657774341e-01,-1.275275447878702062e-01,-2.784241549538820082e-01,-2.135471781769720037e-03,-8.515645838015013574e-04,2.451818404164247955e-02,1.420648545026779175e-01
-1.564171917626627772e-01,-1.455450343208044561e-01,-2.933492974451678559e-01,4.132446226669014844e-03,-5.113944451363424421e-06,-7.575438815323450124e-04,1.428646445274353027e-01
-1.685821271679157629e-01,-1.351297176148851531e-01,-2.891871268420297403e-01,-8.676699685317389166e-04,-1.231679550883045624e-03,9.452351768615653224e-03,1.413294374942779541e-01
-1.571738858438012088e-01,-1.273097706288093822e-01,-2.819504361064177345e-01,4.816224012633280732e-03,2.356821132410309109e-03,1.145818779386795043e-02,1.437620073556900024e-01
-1.532170457486424497e-01,-1.251566464888642094e-01,-2.798462215286904309e-01,6.790705385209174633e-03,2.786087961449303443e-03,1.116462470090022648e-02,1.446069628000259399e-01
-1.400226054501842454e-01,-1.118398922411173724e-01,-2.546461394984375626e-01,8.987804772120598640e-03,4.987359568464571659e-03,1.612055022284351186e-02,1.351288408041000366e-01
-1.434403705344379776e-01,-1.013397736036651675e-01,-2.303212740565739880e-01,5.422334753275333610e-03,5.841557292063286576e-03,4.155073907400691491e-02,1.354564726352691650e-01
-1.702330591824633699e-01,-1.266885145463777507e-01,-2.817470091957285927e-01,3.670270814885141786e-03,4.272027309904564106e-03,2.158565245390017470e-02,1.438064575195312500e-01
-1.467003434334017697e-01,-1.194047551969361215e-01,-2.702312470877002992e-01,1.065540109104611173e-02,6.163690712561852719e-03,1.370087232922932892e-02,1.428093463182449341e-01
-1.610769572598994559e-01,-1.511960021420296341e-01,-2.982557280118677268e-01,3.519595404415447239e-03,-2.117239278655023028e-03,1.041431669068738561e-03,1.425656676292419434e-01
-1.610009036616777689e-01,-1.182808311778504040e-01,-2.830420398581946495e-01,1.585636629784576996e-03,5.821845713224762207e-03,1.123449538988957955e-02,1.497348248958587646e-01
-1.760979105645616993e-01,-1.306279351301390945e-01,-2.836869945334949961e-01,-2.047102379381378443e-04,1.895767028592797642e-03,2.201108459761819125e-02,1.414191424846649170e-01
-1.741406244718874119e-01,-1.329184588431984726e-01,-2.849563885243222017e-01,1.522437650360964050e-03,3.912132920934488847e-03,1.914237078693284758e-02,1.403553485870361328e-01
-1.764879928542474885e-01,-1.365747837589689762e-01,-3.014391905550190542e-01,-6.387662432487566273e-03,-3.354382049250276970e-03,4.139015301859208518e-02,1.657970696687698364e-01
-1.345266973086926832e-01,-9.367979392070990841e-02,-2.150727912486798954e-01,-4.873306454900851355e-03,-5.721566944432576610e-04,3.995958751739124570e-02,1.277056634426116943e-01
-1.944897223189500368e-01,-1.462155019004239553e-01,-3.186756999932738865e-01,8.116249498310830826e-03,9.714258278913987313e-03,4.245335343831700692e-02,1.721485406160354614e-01
-1.758264087976724455e-01,-1.304844501402350199e-01,-2.877131503980490113e-01,7.553215875329020480e-03,1.381328527578621138e-02,4.076477855213660184e-02,1.593002676963806152e-01
-1.400002374922517945e-01,-1.381993823401567179e-01,-2.697309824011789869e-01,1.575402575572718705e-02,-1.472699837248768288e-02,-9.881293683506547562e-03,1.369491815567016602e-01
-1.383676683833157950e-01,-1.562151023572839748e-01,-2.785515927387806623e-01,1.126967252458861007e-02,-2.044693471595670359e-02,-1.462938902032259215e-02,1.405184864997863770e-01
-1.491532613522736916e-01,-1.493175378358896632e-01,-2.869430264575951184e-01,1.933120902094378124e-03,-7.513521805965890667e-06,1.475426580014214072e-04,1.377486437559127808e-01
-1.576041422530355118e-01,-1.458462489881838242e-01,-2.934047810605905915e-01,1.003955780452800081e-02,-1.931482301364617063e-03,-3.999176480983706108e-03,1.433120369911193848e-01
-1.460855789759664958e-01,-1.484694391252700529e-01,-2.894086712241082937e-01,4.676135104312886988e-03,-1.473760941423337247e-03,5.814432396733492650e-04,1.424031555652618408e-01
-1.421184304361578776e-01,-1.446540658514164079e-01,-2.868878754468955350e-01,6.616198462357552636e-03,-2.840283546936383098e-04,-1.034002226553730214e-03,1.439871937036514282e-01
-1.613971132308601175e-01,-1.396315286029984615e-01,-2.988440022076035985e-01,1.254474757047688467e-02,-5.054220494381500258e-04,3.142996349130700810e-03,1.511936336755752563e-01
-1.394215728901420370e-01,-1.416318437193361535e-01,-2.760025230238575267e-01,9.868855248258584859e-03,-4.130937066189251453e-03,-3.819648021239369345e-03,1.369105726480484009e-01
-1.286710666449044083e-01,-1.557535707649427281e-01,-2.806339629864347263e-01,-1.749752514388732598e-03,-6.355383695535384318e-04,-3.346859471579548620e-04,1.404328346252441406e-01
-1.525344115645383969e-01,-1.474420648826426927e-01,-2.565665665427288022e-01,1.935426367647231916e-02,-4.322929572220034905e-02,-2.885804031489678026e-02,1.435507833957672119e-01
-1.337596146793264829e-01,-1.134010232632763071e-01,-2.413842761810174042e-01,1.123546610278285986e-02,-6.439875189077215976e-03,-1.782715374924057419e-02,1.250806599855422974e-01
-1.270921622364945269e-01,-1.301406664345289288e-01,-2.272627987465285215e-01,1.536373322227976151e-02,-2.034764096692643839e-02,-2.161705231690516649e-02,1.144123375415802002e-01
-1.585223909405929776e-01,-1.238934309697826974e-01,-2.484800143488777313e-01,7.368890906110246199e-03,-3.678302022737823390e-03,-1.619995887649420402e-02,1.157475039362907410e-01
-1.339362754970438163e-01,-1.286254947934836190e-01,-2.121046131822449388e-01,1.030404233435962269e-02,-1.104733196431073074e-02,-2.085599391829858970e-02,9.242941439151763916e-02
-1.493176692168181885e-01,-1.311156145453585276e-01,-2.186849838881423369e-01,9.471310235326909147e-03,-1.707261742453372588e-02,-2.106926804875972406e-02,9.423931688070297241e-02
-1.414736930481031718e-01,-1.758667461362287687e-01,-3.279695702679011338e-01,-4.662001685610896217e-04,1.256407705682306697e-02,-3.728528315428585645e-03,1.733936518430709839e-01
-1.314711699833437664e-01,-1.565522213152463205e-01,-2.878944269775028930e-01,6.018363193279803068e-04,6.576953798540772535e-03,9.225245452097245681e-04,1.459706872701644897e-01
-1.391108324476575675e-01,-1.652786287215301519e-01,-3.046078809689367062e-01,-1.816811608069615050e-03,4.189270908538280346e-03,-1.601863672751600333e-03,1.543164998292922974e-01
-1.256846962894922481e-01,-1.674925829821453105e-01,-3.001008947895429935e-01,1.513350772127812754e-03,1.919606535634349118e-02,-9.227411912454085412e-04,1.612198203802108765e-01
-5.065954490358189066e-02,-1.203614211416629276e-01,-2.160891749362373604e-01,8.616126307779838067e-03,4.425145974662412357e-02,1.154375493354496338e-02,1.648988276720046997e-01
-1.412986344103848713e-01,-1.670016103332878643e-01,-3.073697655702672393e-01,1.756097965836224233e-03,3.519480882021874986e-03,2.497497707425894772e-03,1.550382673740386963e-01
-1.374749895386861709e-01,-1.386441302454981261e-01,-2.811201219886403369e-01,7.346076960889850321e-03,-4.719946543432473537e-03,-4.005769410037452946e-03,1.440285295248031616e-01
-1.555084840606745233e-01,-1.619426566632175268e-01,-3.063511454046102256e-01,1.594911682579040757e-02,-9.415315440658588234e-03,-8.515659731436380289e-03,1.518913358449935913e-01
-1.436657600480123476e-01,-1.588921266215876926e-01,-2.943454718776309376e-01,1.232583221167696599e-02,-1.184580767855496729e-02,-4.177260127401231406e-03,1.468707174062728882e-01
-1.773016890761711928e-01,-1.409050146174522788e-01,-2.573261302071913614e-01,-1.653055782613126537e-02,-2.468417734381946060e-02,4.593910486521154274e-02,1.400719881057739258e-01
-1.848376376920673192e-01,-1.610972562606778624e-01,-2.834441741235676493e-01,-2.347472741850893663e-02,-1.612281863305711077e-02,3.827482240382146933e-02,1.394837647676467896e-01
-1.773236641360036725e-01,-1.647249714715961488e-01,-2.339581891080928233e-01,-6.826390442924696808e-03,-2.358669204012995083e-02,3.442835069155145145e-02,9.718254208564758301e-02
-1.275503075110109019e-01,-1.542380897798222295e-01,-2.808978978627033052e-01,2.215731213198359872e-03,-7.187590483986529451e-04,-8.410431181365354435e-05,1.419560313224792480e-01
-1.383995433680200171e-01,-1.099296741036497466e-01,-1.091234606497467896e-01,-9.100106710953534059e-03,-3.493026714534849808e-02,7.387591196313676722e-02,1.453130841255187988e-01
-1.678676092496108607e-01,-1.485169207375140743e-01,-3.051578807897477041e-01,1.288057956176700972e-03,8.328781242763638347e-04,2.145507440437683776e-03,1.479884982109069824e-01
-1.167567376546633784e-01,-1.508300690926950294e-01,-2.659150765290030360e-01,-1.381256656485023264e-02,-2.313120685069844362e-02,5.589803903910527116e-03,1.435205191373825073e-01
-1.302623316031138734e-01,-1.530989983002145061e-01,-2.768594846739933502e-01,-5.067331016451071847e-03,-3.901280531383733048e-03,7.951565833832213845e-04,1.370731145143508911e-01
-1.306029482146200127e-01,-1.533416513052661412e-01,-2.782978206630259410e-01,-8.109455601236905536e-03,-7.980264913690920600e-03,5.098811314619188309e-03,1.394229978322982788e-01
-1.359202258028833210e-01,-1.556217994428106821e-01,-2.880391950488377373e-01,-6.525897161646199152e-03,-5.993001822995855897e-03,7.758202448115755073e-04,1.441133767366409302e-01
-1.322752866976859287e-01,-1.466575711353783340e-01,-2.645903738563548102e-01,-1.196516260558077097e-02,-1.820411110014981057e-02,1.368332544536687498e-02,1.334035396575927734e-01
-1.476905626010073802e-01,-1.413079192600560363e-01,-2.881739825985167869e-01,3.655631196559983032e-03,-2.670448033435022617e-04,9.090272195048966497e-04,1.439297348260879517e-01
-1.376633360269093886e-01,-1.540336275820702872e-01,-2.843984425445608144e-01,-8.205383219306552206e-03,-5.030314385587835238e-03,3.446464475344183931e-03,1.403944939374923706e-01
-1.414041907010544497e-01,-1.540055768383274959e-01,-2.805111010449030662e-01,-1.166934151524294701e-02,-9.299614263619443433e-03,2.348979520136999614e-03,1.357980519533157349e-01
-1.484872838742275769e-01,-1.448397960953730912e-01,-2.941556301488086334e-01,6.412173531005130669e-03,-6.006645043938741010e-04,-1.695428026819570128e-03,1.479761749505996704e-01
-1.502213665766374551e-01,-1.501749245641673114e-01,-2.864937312020012783e-01,5.367518756456556055e-05,3.187820108524701218e-06,1.336206450583038755e-04,1.362958252429962158e-01
-1.344087395597893253e-01,-1.324618284903734122e-01,-2.614548918447969217e-01,9.763430668860012540e-03,-5.054492004509323309e-03,-8.919265899317980334e-03,1.303577423095703125e-01
-1.458589855797687296e-01,-1.438981517645677166e-01,-2.834743840738781495e-01,1.003642930062054010e-02,-6.365817828334564311e-03,-9.290746010268096169e-03,1.410475075244903564e-01
-1.404014114278147318e-01,-1.370260530603545079e-01,-2.812779800532885233e-01,7.794161149067359989e-03,-2.942993740060819135e-03,-3.666993081098655037e-03,1.434631645679473877e-01
-1.500738037175062822e-01,-1.495001405578897935e-01,-2.867198899427774172e-01,-8.567074099982262964e-04,1.594965716804690691e-04,1.376895734932173274e-04,1.369423419237136841e-01
-1.551318373187317301e-01,-1.538648120253041651e-01,-2.942654369206914033e-01,-2.303762086015322900e-03,1.612327657263580355e-03,-1.122170421797339486e-03,1.398697495460510254e-01
-1.516463789194635592e-01,-1.484867012851376067e-01,-2.870066272733838852e-01,-1.291468721720681525e-03,-9.123203906634493640e-05,2.826793300306086176e-04,1.369866579771041870e-01
-1.518050974269840037e-01,-1.477609375617852661e-01,-2.884870061849688083e-01,-1.262974548267534712e-03,1.392333206096595078e-04,-3.385213870020159304e-04,1.387668848037719727e-01
-1.523359387598652859e-01,-1.519132327396515991e-01,-2.918037742399715584e-01,-1.164750603656375741e-02,4.573145303356056235e-03,-2.600900479842435924e-03,1.414228975772857666e-01
-1.526839860304250451e-01,-1.594587214116146567e-01,-3.036040123991097239e-01,-2.281622781020896731e-02,7.092144231360634522e-03,-1.392767224176561652e-02,1.552252769470214844e-01
-1.427268488130473689e-01,-1.386656734351475184e-01,-2.851137570144520184e-01,-8.113525397806862008e-03,3.417546968876540234e-03,-4.021077983151864245e-03,1.454297602176666260e-01
-1.430424733071966603e-01,-1.422865777893847772e-01,-2.813594916790679301e-01,-1.053664385179577459e-02,1.046839035840236957e-02,-8.315811323971728994e-03,1.417956501245498657e-01
-1.316932428520264098e-01,-1.262419718230810561e-01,-2.525596908199178592e-01,-1.386916335738542713e-02,1.101895793343092393e-02,-1.592335700048501043e-02,1.303812265396118164e-01
-1.424793285590015279e-01,-1.377339260938506560e-01,-2.803616007371062535e-01,-7.867519085363906817e-03,3.318826371180514691e-03,-3.554339863166919560e-03,1.412267088890075684e-01
-1.488992235874710135e-01,-1.386532811335923487e-01,-2.812594279586941859e-01,-1.087158676427807391e-02,6.079161403271839993e-03,-4.749602926773179370e-03,1.396906524896621704e-01
-1.427731768583694050e-01,-1.346569128151788586e-01,-2.839940347856877989e-01,5.641244224217991515e-03,1.394871743490071160e-03,2.566572274182375192e-03,1.458645313978195190e-01
-1.446157866628705324e-01,-1.500120638853661426e-01,-2.892896298059862703e-01,4.747768436865147657e-03,6.938178486901315197e-04,8.294223940573804913e-04,1.423027515411376953e-01
-1.462584019065245322e-01,-1.453559916030824073e-01,-2.791049665567789662e-01,9.474274075219699803e-03,2.728238064726021869e-03,3.983632949820470510e-03,1.345664560794830322e-01
-1.488299645967048057e-01,-1.489299847198171656e-01,-2.859937158519031963e-01,2.129994103222655755e-03,4.086676395705712904e-04,1.882987219866178352e-04,1.371656060218811035e-01
-1.390755642193110542e-01,-1.386838817748344832e-01,-2.840555459112015235e-01,3.734684242829496362e-03,1.090869160667497706e-03,1.060460165407996159e-03,1.453441530466079712e-01
-1.496567276660961121e-01,-1.450808046510336513e-01,-2.903822114933711784e-01,3.654547345655894709e-03,9.025191789046345251e-05,5.847580948178290449e-04,1.432119607925415039e-01
-1.444968348110119705e-01,-1.501171833828577884e-01,-2.897781328006314161e-01,4.870604129437890693e-03,1.323595360562254642e-03,9.354434902384398988e-04,1.428312361240386963e-01
-1.680793389368442359e-01,-1.529749076581523315e-01,-3.108407023995130025e-01,7.081886515227190683e-03,-2.398036693255750640e-03,4.316960380438678285e-04,1.514382660388946533e-01
-1.704071619727630105e-01,-1.532703905284684143e-01,-3.174609304041848823e-01,7.954095091479639404e-03,-2.629124734141888818e-03,8.496990970001895484e-04,1.570070385932922363e-01
-1.673953115895747135e-01,-1.410579281561601117e-01,-3.079098001417080455e-01,1.044709900500214242e-02,-1.945782520034157730e-03,-2.144175024262384970e-03,1.564970910549163818e-01
-1.704109755177431740e-01,-1.490504366650676205e-01,-3.115394992814026209e-01,6.315151055163159381e-03,-3.568972113036418016e-03,-2.777433074621316229e-03,1.535223573446273804e-01
-1.515589231220917654e-01,-1.589027277382740466e-01,-1.838880907811797083e-01,7.052300242816078937e-03,-3.645186760170283230e-02,-7.864759769661087280e-03,7.199077308177947998e-02
-1.357286148073194310e-01,-1.589613334241507248e-01,-2.336711938790274334e-01,6.841066683588591796e-03,-3.710138727302232653e-02,-6.633917770337956210e-03,1.107203736901283264e-01
-1.406459579768246093e-01,-1.771133568593317997e-01,-2.176287790709503789e-01,1.482127643219878846e-02,-4.269795604838828862e-02,1.391217138860831141e-02,1.056308001279830933e-01
-1.567633217681005109e-01,-1.740738094670875868e-01,-2.297265767875397435e-01,-3.952485406044406804e-03,-2.440969443385112431e-02,1.600373903959419729e-04,7.870643585920333862e-02
-1.366219538378969645e-01,-1.613810599409118418e-01,-2.290707553928237328e-01,7.056432557816101972e-03,-3.651572609095187633e-02,3.399358943101366860e-03,1.051431670784950256e-01
-8.369487920670340420e-02,-1.042727592042791696e-01,-1.262355028657066724e-01,1.144331943886255781e-02,-3.476590499973238740e-02,-2.375992254124672728e-02,8.408455550670623779e-02
-1.488058460525403248e-01,-1.637276217834079395e-01,-2.960259194246527281e-01,-1.853061549048651627e-02,3.914668444354117705e-02,-2.523669922662083454e-02,1.650388985872268677e-01
-1.299800954955487309e-01,-1.551583863515341166e-01,-2.656721941152219157e-01,-7.150636708250092399e-03,1.184811266092052236e-02,-2.662682163500221591e-03,1.273797303438186646e-01
-1.239365237688504762e-01,-1.506210344756969688e-01,-2.513123251518090129e-01,-1.149158111320468939e-02,1.397766498900748604e-02,-8.386259758992582400e-03,1.213712468743324280e-01
-1.191509099850333597e-01,-1.377545264419033355e-01,-2.441260154573762220e-01,-1.009254730909594187e-02,1.391992417901150199e-02,-7.016154179445260874e-03,1.211380735039710999e-01
-1.122717595307681920e-01,-1.178914938102157139e-01,-2.060839878547965354e-01,-1.677511230671380194e-02,2.744220813756291857e-02,-1.868908703312999534e-02,1.116082370281219482e-01
-1.358224115983928393e-01,-1.586807937944436087e-01,-2.863371874622158142e-01,-2.993186361169225280e-03,-4.272031213138585042e-04,2.359910350658365303e-04,1.405854523181915283e-01
-1.196820059854405288e-01,-1.350107287408599810e-01,-1.958301578679612631e-01,-1.661548870308228801e-02,3.324138754893816994e-02,-2.055698870642762993e-02,1.013766229152679443e-01
-1.235209900989610587e-01,-1.589906125074283527e-01,-2.693753006663018312e-01,8.679490324858642799e-04,6.955028358795950667e-03,4.434902298768584857e-04,1.323107928037643433e-01
-1.351491943822324404e-01,-1.711491266083705887e-01,-2.914694034234965869e-01,6.610925696750735584e-04,8.441884303752034135e-03,1.660421431633336093e-03,1.425758153200149536e-01
-1.244405859739040054e-01,-1.521255582459807021e-01,-2.435186312632197925e-01,4.829509722044460739e-03,1.615364262352340929e-02,1.899152105724356441e-03,1.118614301085472107e-01
-2.699293201568138123e-01,-1.868563617527201626e-01,-3.893687916782820890e-01,1.486560085262060918e-02,-1.113755325500407831e-02,-9.631006176455417234e-02,2.448490858078002930e-01
-1.099007864666161904e-01,-1.314950881382002668e-01,-2.212902878490808911e-01,9.242518225892214570e-03,1.862306508507163144e-02,5.653062952744009051e-03,1.089089363813400269e-01
-1.311769176155471450e-01,-1.561448257630568548e-01,-2.783548868301649604e-01,7.935379275225225640e-03,6.479947191347873968e-03,3.806224144199802685e-03,1.377256959676742554e-01
-1.257671220592978534e-01,-1.550360819058381745e-01,-2.824530727717772249e-01,3.859580353501852398e-03,7.079287020996986347e-03,4.725792693821841920e-04,1.449718326330184937e-01
-1.523410139417406828e-01,-1.405413920603853506e-01,-2.319594091230061383e-01,-1.631212231143098004e-02,-1.135757056635256987e-02,1.887032174355768310e-02,9.834273159503936768e-02
-1.516849944529814476e-01,-1.406447733227815244e-01,-2.113685774134367035e-01,-9.463042333470049819e-03,-1.319514942075039610e-02,1.512416365604005164e-02,7.628984749317169189e-02
-1.664805016295392015e-01,-1.544630512632418629e-01,-3.051977314057903734e-01,-1.555439396186867121e-02,-1.000497045490222545e-02,1.206941844302486695e-02,1.500568091869354248e-01
-1.552457781939185488e-01,-1.570589250140500270e-01,-2.797975417732365133e-01,-1.073472294812037944e-02,-9.124110265972618442e-03,6.392776199082670675e-03,1.265252977609634399e-01
-1.555880715599577135e-01,-1.532263858267267076e-01,-2.784774238761854037e-01,-1.137624280074357556e-02,-7.719874205561325607e-03,8.957840648938952821e-03,1.273003220558166504e-01
-1.573556985276642339e-01,-1.466497731501030799e-01,-2.952030805964525051e-01,3.853289041315094768e-03,2.967902059325124801e-04,-6.198558667372586727e-04,1.436602324247360229e-01
-1.639602661584335652e-01,-1.682635572866489349e-01,-2.883770104886165808e-01,-1.577366796763335008e-02,-1.824626488195706456e-02,1.936461394416024925e-02,1.335395574569702148e-01
-1.636561544349124098e-01,-1.467091571272653994e-01,-3.045289538847967825e-01,-8.115919786188904861e-03,1.262984717019556341e-03,-3.963761676791117614e-03,1.508948057889938354e-01
-1.578510952166462533e-01,-1.487415968260475674e-01,-3.039746987698545011e-01,-9.011222995073505521e-03,-2.505430302152341238e-03,1.235949379425843684e-03,1.517670005559921265e-01
-1.516097669114357116e-01,-1.461605882352970120e-01,-2.957904733018116294e-01,-4.699795324758814126e-03,1.177483482863290586e-03,-2.901861344638552876e-03,1.473062187433242798e-01
-1.584350111643641201e-01,-1.536285180930288263e-01,-3.044693142448601231e-01,-1.661592429709869007e-02,1.283856243393061505e-04,-4.619525383173455181e-04,1.512613296508789062e-01
-1.605413612023715297e-01,-1.554354154673863175e-01,-3.054386247421548850e-01,-5.643332648889753597e-03,1.642210002678887561e-03,-8.795623241931152438e-04,1.478752046823501587e-01
-1.585250048278806778e-01,-1.572592148104891008e-01,-3.058179573516920380e-01,-6.672806602718327380e-03,5.557710373765944838e-04,6.291346944655801460e-04,1.483878344297409058e-01
-1.564186475002451449e-01,-1.535423336624265889e-01,-3.041403059733572278e-01,-4.937328952969912560e-03,5.263036400566855960e-04,-1.181831552345235896e-03,1.494423300027847290e-01
-1.681474731091474606e-01,-1.482790244085719633e-01,-2.962415427948610347e-01,-1.066851630323047660e-02,6.120468527396875739e-03,-1.532912064431346359e-02,1.432014405727386475e-01
-1.446902473581630211e-01,-1.192709736893903250e-01,-2.426739322817751954e-01,-1.520963837132123866e-02,1.330434123261338072e-02,-1.787824544339135582e-02,1.221536993980407715e-01
-1.516513270044080042e-01,-1.311688790297107776e-01,-2.859057168973925256e-01,-2.467608820506133824e-02,2.656086153401465352e-02,-1.896691232494359530e-02,1.619136482477188110e-01
-1.655461680325646112e-01,-1.399419438001557325e-01,-2.824032170070051584e-01,-1.596694378944744572e-02,1.091789933651110371e-02,-1.954871034488702558e-02,1.399002075195312500e-01
-1.571737411966898645e-01,-1.458909387881239250e-01,-2.907497062460949189e-01,-6.456264150301094240e-03,1.769461684859356242e-03,-4.128042015516839719e-03,1.402231007814407349e-01
-1.580402284383736200e-01,-1.398917070047291655e-01,-2.980998334956984630e-01,-7.739867760585775885e-03,1.308898065885217166e-03,-3.509849136875825559e-03,1.506975442171096802e-01
-1.578933125661579062e-01,-1.251688624383675286e-01,-2.875032834667440862e-01,-1.010226045153175822e-02,5.896555670635950791e-03,-2.124421553223579742e-02,1.545169055461883545e-01
-1.591041754531952179e-01,-1.343837866438047368e-01,-2.831649693682831148e-01,-8.881636611645912782e-03,3.947289391316397347e-03,-7.641359117282689982e-03,1.397410929203033447e-01
-1.656133962222468559e-01,-1.414665713846398054e-01,-2.963328298495433444e-01,-9.721597375325515683e-03,4.510941276866593103e-03,-5.476425790623538903e-03,1.458137333393096924e-01
-1.547692120890890866e-01,-1.534305271717197050e-01,-2.924054142400115408e-01,-1.986465071779354354e-03,5.012475451073822134e-04,-1.001786462394809433e-04,1.383560299873352051e-01
-1.578878844660601688e-01,-1.513498826753047477e-01,-2.979228937449635572e-01,-6.776282050020131058e-03,-1.155567145909410778e-03,-1.670706802820099129e-03,1.439382880926132202e-01
-1.534304058303358198e-01,-1.542535237492782541e-01,-2.920862578025875678e-01,-2.277066117412638972e-03,-6.368925654485958375e-04,1.262273089220570393e-04,1.383069455623626709e-01
-1.584943232766187204e-01,-1.576942076915676949e-01,-3.065004559396409256e-01,-7.828776893172378903e-03,-7.304099891281452817e-04,-1.083813461684846697e-03,1.490431874990463257e-01
-1.544197266072544761e-01,-1.720697626539013647e-01,-3.306506859343075755e-01,-1.861309338049269013e-02,-1.614911205376758432e-02,4.694719636563134645e-03,1.736267209053039551e-01
-1.440965169063825324e-01,-1.643730330399608974e-01,-3.110279565366824706e-01,-7.809418893066824748e-03,-5.266484378027636200e-03,2.043197510118007366e-03,1.586541682481765747e-01
-1.552132361613524081e-01,-1.599276148833495836e-01,-3.028602452456383709e-01,-1.480320138949213493e-02,-5.437703415742191869e-03,2.573920465032673334e-03,1.479587256908416748e-01
-1.328746090340206520e-01,-1.640537036509309710e-01,-2.645930720349875531e-01,1.485646396304276477e-03,-9.382859836191746392e-03,-1.763049660206499969e-03,1.203955486416816711e-01
-1.537267959987774490e-01,-1.606832673517332444e-01,-3.320075172101664696e-01,-2.525629405125618537e-02,-1.044709844224035386e-02,3.833326460639822908e-03,1.813211292028427124e-01
-1.499682109062861479e-01,-1.540760250062206127e-01,-2.997053195419684402e-01,-5.758482968010871644e-03,-1.293288347714943937e-04,7.568593095130574620e-04,1.480683386325836182e-01
-1.593881178507071950e-01,-1.309896793603194665e-01,-2.745448495100238362e-01,-6.618908532304738218e-03,3.132979869690593992e-03,-1.691147497901856339e-02,1.354868412017822266e-01
-1.352143260445650697e-01,-1.051628834872939400e-01,-2.186586652572650169e-01,-1.296179386370822050e-02,8.400985956838791929e-03,-2.951867180508506092e-02,1.170618608593940735e-01
-1.647283316703613554e-01,-1.359261936817678651e-01,-2.074854877505505346e-01,-6.003008933924837420e-03,3.411527132703942589e-02,-5.075681331571788024e-02,1.233598813414573669e-01
-1.241473618731836759e-01,-1.727227186953786964e-01,-2.136965690091250647e-01,6.720876428900072336e-03,-3.251305810787525480e-02,-1.833685412494976807e-03,9.667282551527023315e-02
-1.706464735938264254e-01,-1.407155546984779071e-01,-2.502934326286394562e-01,-8.412786708207069166e-04,4.430036270187126188e-03,-5.901457835163619048e-02,1.418892741203308105e-01
-1.853310119191827476e-01,-1.418111496668694183e-01,-2.832404541223669803e-01,-4.775274206839467787e-03,8.785553457404799566e-03,-1.883126434186466538e-02,1.307863146066665649e-01
-1.535565456331400291e-01,-1.569630481685730938e-01,-2.931855593963402784e-01,-2.244606719790459559e-03,4.785391925597513949e-04,-9.766084986540558843e-04,1.380249261856079102e-01
-1.510433400111790558e-01,-1.502656756195820953e-01,-2.880441547297736826e-01,7.215077244031684479e-04,2.972976921855197542e-04,2.738855680137688032e-04,1.373987644910812378e-01
-1.489552631456847187e-01,-1.435149227896422852e-01,-2.858389762183500826e-01,-5.099933433220579272e-03,-1.312586299205943576e-03,1.301537037447043910e-03,1.399990022182464600e-01
-1.553674119219940197e-01,-1.532637902846063771e-01,-2.932425932721792194e-01,-2.584387308014830711e-03,-2.837880204318637010e-05,-1.757514006766354301e-04,1.390113681554794312e-01
-1.358306091294063100e-01,-1.691404764774002145e-01,-2.793235285683716151e-01,-4.454080829101825408e-03,-2.079014098172682345e-03,2.029062385490305789e-03,1.304027289152145386e-01
-1.482796311716063908e-01,-1.450780440026778473e-01,-2.873214884489385668e-01,-5.163938612236200834e-03,5.816210214812892344e-04,-7.381876585241196323e-04,1.409634351730346680e-01
-1.510323627705217886e-01,-1.531527982541633359e-01,-2.975260833533285298e-01,-5.877261650767923000e-03,-1.569428721209914154e-03,-1.188908632959796144e-03,1.458407789468765259e-01
-1.446431149654158754e-01,-1.372408313956332004e-01,-2.468112826306698149e-01,1.411142655426954676e-02,2.015538814577192903e-02,1.395317101337091754e-02,1.168314814567565918e-01
-1.272765112147007383e-01,-1.577424740746849463e-01,-2.526690893835674689e-01,1.323558889604070383e-03,-8.588305713172074418e-03,-7.544986990952154589e-04,1.142782047390937805e-01
-1.293285478880275008e-01,-1.351115614659259834e-01,-2.233302493010269063e-01,1.610342976516158583e-02,3.133186593371811712e-02,1.652810229888638030e-02,1.134403049945831299e-01
-1.608691004934166280e-01,-1.428554645062764528e-01,-2.490273555324877819e-01,1.086158977327053403e-02,2.266625190241663545e-03,2.137139109814989793e-02,1.068829447031021118e-01
-1.506108179837966632e-01,-1.487652437352010026e-01,-2.058757253007954535e-01,7.357333615219549539e-03,1.788713342226489963e-02,1.202347996882361866e-02,6.866981834173202515e-02
-1.288270605455586748e-01,-1.575495746564104793e-01,-2.561782371418055426e-01,2.855423104218260920e-03,-1.010400244894498270e-02,-3.005657034234031637e-04,1.171173006296157837e-01
-1.556418083925784068e-01,-1.268666284538946254e-01,-2.863273681950435079e-01,6.809877699832576859e-04,6.134851317794118037e-04,-3.209265746462345269e-03,1.473113894462585449e-01
-1.578266513397433290e-01,-1.388014675345062288e-01,-1.838979890434408460e-01,9.534390388069967012e-03,2.733053796958339124e-02,2.668341507717622921e-02,7.865931093692779541e-02
-1.631060202336616083e-01,-1.447323210797091808e-01,-2.466629293016441571e-01,8.982230417107248815e-03,-3.719662584589924527e-03,1.687361840317739073e-02,9.996151924133300781e-02
-1.320624806470662160e-01,-1.667525249947045263e-01,-2.773463665632120434e-01,3.275323702165828643e-03,2.447642438082071881e-02,3.042632290606431256e-03,1.383045315742492676e-01
-1.398313264098373088e-01,-1.415907754365597904e-01,-2.856969190985380047e-01,-1.892891928064277616e-03,-7.992155523019684122e-04,-3.901204807032474290e-04,1.450391113758087158e-01
-1.294341479697453945e-01,-1.606314537647453300e-01,-2.892921354790521926e-01,6.493522761600295089e-05,3.034340354978159234e-03,-9.949539601326517959e-04,1.468717604875564575e-01
-1.332150836287337992e-01,-1.702605750260742790e-01,-2.821651578517649916e-01,2.695811912295041808e-03,2.345389075187400557e-02,5.525037026834977820e-03,1.407274007797241211e-01
-9.106656802322610211e-02,-1.343614463367734102e-01,-2.169307822321599466e-01,3.894971034506561347e-03,4.090354147030065418e-02,3.533843506008924485e-03,1.317924410104751587e-01
-1.594026488530987662e-01,-1.820402554050533361e-01,-3.310362115188604792e-01,8.307371998948319056e-03,2.298890303859308423e-03,1.875169610352918912e-03,1.622301042079925537e-01
-1.313642602173017426e-01,-1.528738413922371420e-01,-2.852287538175099502e-01,9.571029020487158839e-03,7.513337000779014146e-03,8.051434400264975352e-03,1.465128809213638306e-01
-1.777823331549173158e-01,-1.749903510380433347e-01,-1.672159534215521826e-01,2.654453735071567611e-03,-1.610325859044027530e-02,-6.088056652678772857e-02,1.095826402306556702e-01
-1.484282839293361023e-01,-1.658371459711891205e-01,-2.962493945427428499e-01,1.386826003887122773e-02,1.086374743847720072e-02,8.270336391037372281e-03,1.439339965581893921e-01
-1.352684372860909479e-01,-1.582888468691401318e-01,-2.871940376735103717e-01,1.217327587531014978e-02,8.248615951506631239e-03,8.595271254312765105e-03,1.448594480752944946e-01
-1.397869816853042346e-01,-1.867989172174384649e-01,-3.180359659107750980e-01,6.013565889283888945e-03,4.350070982046858742e-02,8.088725784354646939e-03,1.777208447456359863e-01
-1.058179571473633340e-01,-1.279554601590025265e-01,-2.248715339063886987e-01,1.501209790215847668e-02,2.946461986433557972e-02,1.633492744834021473e-02,1.269225925207138062e-01
-1.540678500696652797e-01,-1.572340563554181780e-01,-2.940616112807967197e-01,2.141291521584659172e-03,-4.312368175360132682e-04,-9.776497705819375914e-04,1.384998559951782227e-01
-1.516854514297229783e-01,-1.516721464635158445e-01,-2.910677085560894328e-01,1.990669187473429174e-03,-7.901723983814973968e-04,2.986232125737341604e-06,1.394382715225219727e-01
-1.509812178057935439e-01,-1.525506632692634479e-01,-2.906850848349514238e-01,6.480412127058359124e-03,1.193683741452910641e-03,1.117172812979070175e-03,1.394072473049163818e-01
-1.145130730753530224e-01,-1.518155538320787590e-01,-2.508433330860397881e-01,-7.560280486255056137e-03,2.711686098523078195e-02,-5.467733186100967764e-03,1.317539066076278687e-01
-1.454715434744755509e-01,-1.482938346196256973e-01,-2.597422131845740223e-01,-1.581502898996135081e-02,1.975309869975927848e-02,-1.577668178330484533e-02,1.241404712200164795e-01
-1.364792860327324053e-01,-1.478508667780319419e-01,-2.578877032309986883e-01,-1.414476666788637253e-02,9.376503900226528312e-03,-1.105701432963127236e-02,1.213237941265106201e-01
-1.397152849543496500e-01,-1.587416947853538540e-01,-2.585007577719823368e-01,-9.574754959619518821e-03,2.401436243936373033e-02,-1.250631484337999533e-02,1.211868450045585632e-01
-1.229486685152036129e-01,-1.555921634528021347e-01,-2.744425664824848288e-01,-4.279453859430875327e-03,1.042528921286352446e-02,-1.849490232843667382e-03,1.395061761140823364e-01
-1.269655460180997841e-01,-1.554753761241367271e-01,-2.708491533564771903e-01,-4.951449280587063261e-03,1.039894743020283729e-02,-1.717153730591627035e-03,1.334916353225708008e-01
-1.204948367607962256e-01,-1.506135803750755509e-01,-2.640857743912413680e-01,-3.277991054988365054e-03,7.545733759657829477e-03,-2.411281036325331559e-03,1.319894343614578247e-01
-1.308006784903387454e-01,-1.622672194810048374e-01,-2.867765483974569207e-01,-3.791775113126215693e-03,7.942421789207376390e-03,-1.438710983989509393e-03,1.436982303857803345e-01
-1.787890706810554564e-01,-1.494363661954789257e-01,-2.718583440556093800e-01,-5.768364425739211897e-03,5.424892187848585380e-03,-2.659787750270709364e-02,1.206886768341064453e-01
-1.579073782287263861e-01,-1.256526364783362992e-01,-2.548854441887501432e-01,-2.585864036345754749e-03,1.490057390691869625e-03,-7.695388575016195304e-03,1.173775717616081238e-01
-1.458833951441305121e-01,-1.269579527882161163e-01,-2.196155596270600585e-01,-5.397683942845039363e-03,5.822416200284674659e-03,-1.614550954264201352e-02,9.033912420272827148e-02
-1.270378025389339860e-01,-1.563374081735205978e-01,-2.830591277485665080e-01,2.444681099548769599e-03,-6.956645859014309137e-04,-7.916662688318796149e-04,1.437046229839324951e-01
-1.557542358592259868e-01,-1.297627145784335245e-01,-2.842771545684874557e-01,-1.078604693201318330e-03,3.161444675422740215e-04,1.495565044099582191e-03,1.433342397212982178e-01
-1.499115830682752337e-01,-1.309728961635739097e-01,-2.266819375398934355e-01,-5.082912358515784962e-03,5.067049893510705214e-03,-1.533475489047519784e-02,9.255424141883850098e-02
-1.387728668945676092e-01,-1.241762189234580926e-01,-2.201515361326532583e-01,-7.992175465666537248e-03,3.550519773123223671e-03,-1.511519548926720108e-02,9.454235434532165527e-02
-1.537432562239673395e-01,-1.349545981044047438e-01,-2.305088857968604354e-01,8.867824009877312355e-03,1.000528009522999237e-02,1.620706501102853539e-02,9.493438154458999634e-02
-1.490865680949323702e-01,-1.308265669124424602e-01,-2.263158337861933544e-01,5.108206553957382254e-03,4.123911930417481844e-03,1.459337635416428115e-02,9.206625074148178101e-02
-1.467487021641925571e-01,-1.054592770638054094e-01,-2.966325333027269862e-01,3.175614724061313898e-02,2.238749042144440315e-02,3.504919159659351802e-02,1.963998228311538696e-01
-1.616606728986931807e-01,-1.248423722368822153e-01,-2.600729645351685382e-01,5.759913205522148964e-03,1.088148324033364443e-02,1.981573673306318700e-02,1.276584565639495850e-01
-1.505551618385323198e-01,-1.251929532280190438e-01,-2.547972232812554805e-01,6.263127890972448007e-03,-4.081647388126820710e-04,7.332064914815770995e-03,1.201370730996131897e-01
-1.595444662729521845e-01,-1.343774842169374595e-01,-2.700240565105579416e-01,5.443430005511799320e-03,1.075960062154583501e-03,1.003324818129006611e-02,1.265461146831512451e-01
-1.588301627580882280e-01,-1.319775557360051421e-01,-2.784867253745765270e-01,5.291645982123690736e-03,-3.223667540453205240e-04,-2.267177526112224960e-03,1.354680210351943970e-01
-1.593036497591603096e-01,-1.253189276185884826e-01,-2.786646826147022304e-01,-6.283910998873681875e-03,-6.692698734175324231e-03,2.470538743323483222e-02,1.467732191085815430e-01
-1.650860296988301001e-01,-1.349151512821758492e-01,-2.805307840727214730e-01,-2.830058100608132815e-03,-4.294699861774967271e-03,1.797676604129282499e-02,1.370025426149368286e-01
-1.566694728301246953e-01,-1.209570950988369531e-01,-2.693064815076035012e-01,-3.588611386701864338e-03,-8.529578232625865735e-04,7.358418529894065509e-03,1.348638683557510376e-01
-1.561465743383872173e-01,-1.394306374712377949e-01,-2.851531164675974450e-01,-6.788370243263967298e-03,-4.968204975532524922e-03,5.249233675764784258e-03,1.391888409852981567e-01
-1.520476777112879097e-01,-1.363877541441839703e-01,-2.727526943448984609e-01,-7.078946980538690197e-03,-5.687645194520586124e-03,7.978231261172355135e-03,1.309332102537155151e-01
-1.503015677734329814e-01,-1.426154054882449174e-01,-2.542143592400433194e-01,-1.119990778659925301e-02,-7.797144020049760239e-03,1.350227175371386708e-02,1.129657924175262451e-01
-1.536091463024742976e-01,-1.540419503803281687e-01,-2.938145050492846355e-01,6.124117966569709789e-03,-8.696610042336903098e-04,-1.673281180631584059e-04,1.403991281986236572e-01
-1.459645732509836646e-01,-1.604943131130752432e-01,-3.035938196199414740e-01,8.470840246460510300e-03,3.097395265229542938e-03,-9.152630165642597652e-04,1.517047882080078125e-01
-1.571282562976350494e-01,-1.835419534106765838e-01,-3.543327709182019225e-01,2.342619310208581690e-02,4.591798011266453282e-03,1.617065120427398518e-03,1.899891048669815063e-01
-1.232489279280924721e-01,-1.539548806978544016e-01,-2.792804737428677964e-01,2.473263335886838592e-03,-8.833858138784711142e-04,-3.166415381274923207e-04,1.432431340217590332e-01
-1.442635394334360055e-01,-1.476730884543377420e-01,-2.851864267223352400e-01,4.771934657498104818e-03,-1.430986508734221610e-03,-1.438933780882158293e-03,1.395387798547744751e-01
-1.456483544309120637e-01,-1.557721505915397320e-01,-2.923062294463986133e-01,6.028375900483747343e-03,-1.695993307406132473e-03,6.677640548169290436e-04,1.422859132289886475e-01
-1.521249147142050007e-01,-1.667842303084238198e-01,-3.201542908354357841e-01,9.167441166570065164e-03,-3.617929653045866712e-03,-3.126557446183782490e-03,1.621921360492706299e-01
-1.538944198259410978e-01,-1.303871944537448591e-01,-2.853549494078485571e-01,6.158194294276966158e-03,1.162190218184145675e-03,5.329398356329412105e-03,1.453539282083511353e-01
-2.816926984228218522e-01,-2.371806228578080822e-01,-5.233462230196169740e-01,6.782937461713069160e-02,-4.141666124898285561e-02,-6.516022723749953505e-02,3.206560611724853516e-01
-1.541783900848523459e-01,-1.340847310423944894e-01,-2.844411078583346519e-01,3.202962398668704556e-03,1.998274013130411659e-03,1.986784192160584005e-03,1.415774822235107422e-01
-1.615229007657873195e-01,-1.465541923164221383e-01,-3.007672629244591000e-01,1.048388988077636301e-02,4.414357879398918098e-03,3.406514883627254943e-03,1.487291902303695679e-01
-1.492149668502559812e-01,-1.306982701525059298e-01,-2.794304477339314419e-01,6.030157078337071604e-03,2.053630426439073155e-03,3.351880139635843477e-03,1.409451812505722046e-01
-1.250479340686622143e-01,-1.616333484586200964e-01,-2.849382941345027787e-01,-6.957256752344170023e-04,-1.398918478848276432e-03,-5.520927478103588963e-04,1.451275348663330078e-01
-1.584766440285537425e-01,-1.229135123977231070e-01,-2.732263011160414590e-01,5.747666693430061001e-03,6.563809230376394487e-03,1.263727340841837299e-02,1.386381536722183228e-01
-1.458513077299419813e-01,-1.227522135026960920e-01,-2.702446760913880253e-01,7.597941970738482202e-03,2.683601166999888179e-03,8.279977455800726152e-03,1.388564705848693848e-01
-1.494438304825142227e-01,-1.233288892996606267e-01,-2.756248593702208538e-01,1.163682345465908742e-02,-5.334109044253147226e-03,-1.851574804217592796e-02,1.463521718978881836e-01
-1.400848822011641626e-01,-1.373187442246701362e-01,-2.698995614227778228e-01,1.179052324131402152e-02,-8.730557031936673693e-03,-1.102942632770284419e-02,1.350157409906387329e-01
-1.541082453405929753e-01,-1.224805250161909997e-01,-2.722728939384522207e-01,6.729504338843311784e-03,-7.093145894160986058e-03,-1.288888009013031306e-02,1.395909786224365234e-01
-1.494530742215001706e-01,-1.267260115549706523e-01,-2.721688125065667707e-01,8.379116216133474654e-03,-4.757081501783466150e-03,-8.421416671711395852e-03,1.373168528079986572e-01
-1.533408671836967163e-01,-1.505626316120989017e-01,-2.879376706408188213e-01,-2.639328024785143911e-04,-4.320621474975765825e-04,1.387950935492975827e-04,1.360102444887161255e-01
-1.784072789797427894e-01,-1.380458603629064196e-01,-2.926965272181820676e-01,1.519819447022896855e-02,-1.555927799341370182e-02,-3.630785480546686039e-02,1.570922136306762695e-01
-1.643502313565712858e-01,-1.213722519645536041e-01,-2.657005954288480520e-01,1.429823451293861167e-02,-1.955381113501904189e-02,-3.008355998715918703e-02,1.447420865297317505e-01
-1.476878757539592246e-01,-1.334708456016862610e-01,-2.721388059547179550e-01,1.502596890108578997e-02,-9.119688324164803434e-03,-1.593489768308971669e-02,1.383766233921051025e-01
-1.420648457846301338e-01,-1.368836360968060939e-01,-2.042544824484329724e-01,-1.546561007579315070e-02,-2.667009367638321568e-02,3.000348863223111992e-02,9.883662313222885132e-02
-1.441645783007163562e-01,-1.375305423859873033e-01,-1.896987086502915365e-01,-2.168280158420626477e-02,-2.853905201334008129e-02,3.447486411547188295e-02,9.919100254774093628e-02
-1.278730458948627302e-01,-1.464821141277612981e-01,-1.832215607158561022e-01,-3.283610734866395341e-03,-3.271023017523234933e-02,1.310881798796866178e-02,7.834231853485107422e-02
-1.442520697375457850e-01,-1.617309852984416541e-01,-2.801199052307741799e-01,1.009729314546261442e-02,-6.564482557449834513e-03,-2.712230203272891511e-03,1.297997385263442993e-01
-1.218589912098762273e-01,-1.376469141755708170e-01,-2.068229492832999727e-01,-1.066668298476773982e-02,-1.229245226997708988e-02,6.106173789077247449e-03,8.386436849832534790e-02
-1.062007357248336559e-01,-1.278159777272291631e-01,-1.751379107628021903e-01,-1.118276547004393683e-02,-3.389293983524302445e-02,1.372308353812852662e-02,9.008765220642089844e-02
-1.300030815206332513e-01,-1.338737376567888104e-01,-2.317928189061647659e-01,-1.161704698171549949e-02,-1.275152495162423967e-02,1.834068016741995447e-02,1.090135425329208374e-01
-1.587734113118820511e-01,-1.750733203197649412e-01,-2.314826384394703673e-01,-4.926478391437554873e-03,-2.196135707825134370e-02,1.185793906036267803e-02,7.942739874124526978e-02
-1.541252442678563706e-01,-1.580713099951046585e-01,-2.075590061188450908e-01,-8.407021021795973645e-03,-1.859224464634182117e-02,2.324316546089784732e-02,7.436174154281616211e-02
-1.359544434666108692e-01,-1.311949939747892591e-01,-2.296860271713593304e-01,-1.053962147652552986e-02,-1.310342866893969387e-02,1.553193398597951802e-02,1.040502116084098816e-01
-1.382024061629674172e-01,-1.446450407604005506e-01,-2.499283883390802929e-01,-1.533236030640463231e-02,3.795007422427479349e-02,-2.311396599671479077e-02,1.357682794332504272e-01
-1.576124078125377137e-01,-1.399316090838650106e-01,-2.899195906877690132e-01,1.506177423101870633e-03,1.141191100412310605e-04,-1.334331450459696252e-03,1.420186012983322144e-01
-1.585979164281254017e-01,-1.396241024379687445e-01,-2.902035324850626985e-01,-1.673284526680062553e-03,-4.876699467058747545e-04,-2.136049146348115591e-03,1.421263664960861206e-01
-1.434479259345777802e-01,-1.536035806914368140e-01,-2.741637013676553880e-01,-1.655885803491932359e-02,1.089171775836914914e-02,-1.416508942707408319e-02,1.328257173299789429e-01
-1.423242322886261457e-01,-1.582111696109272936e-01,-2.959458640583207401e-01,-1.475884299966027415e-02,1.276979248006318048e-02,-1.211931693646064664e-02,1.516401320695877075e-01
-1.527154474370186754e-01,-1.441508848018080435e-01,-2.689737161611928662e-01,-2.393841378143989063e-02,4.033086462243322401e-02,-2.843695085874848802e-02,1.536551266908645630e-01
-1.562832726206962453e-01,-1.515760300306763508e-01,-2.985333668129363516e-01,-1.053265722008275146e-02,2.082948315262272282e-03,-5.915990058376442880e-03,1.462110728025436401e-01
-1.316316186608005034e-01,-1.290455732315451409e-01,-2.602069658213662651e-01,-1.269411659867567162e-02,1.060420651294664493e-02,-9.378955797224168209e-03,1.339980363845825195e-01
-1.692090716248521309e-01,-1.404159835593503380e-01,-2.983734034929451107e-01,-2.289577287167898420e-02,2.213654975823742960e-02,-5.180189105464573507e-02,1.797902733087539673e-01
-1.494009146142045441e-01,-1.407526760549542566e-01,-2.807111872585504875e-01,-2.761796577313702442e-02,1.762854449771854640e-02,-3.313626461563159986e-02,1.580106616020202637e-01
-1.496323032856641810e-01,-1.509514773942435273e-01,-2.870823421306109013e-01,1.690434759371821491e-03,-1.140219958945236214e-05,-2.093915065017221166e-04,1.368270367383956909e-01
-1.494892427895143094e-01,-1.452274590624671458e-01,-2.877735676784387020e-01,4.980433566919652971e-03,-3.357962750074356285e-04,-4.672596978679198444e-04,1.407318860292434692e-01
-1.604937140168216647e-01,-1.616343927629406707e-01,-3.085873893962348125e-01,6.969032704675935663e-03,3.435756107168055126e-04,4.320320680117342650e-04,1.480227261781692505e-01
-1.550137673349710477e-01,-1.583485202823133875e-01,-2.956383174853619566e-01,1.948712033815796748e-03,1.074138279626859083e-03,1.573085995763882699e-03,1.390673071146011353e-01
-1.599382317700205891e-01,-1.321447753319842100e-01,-2.840923434863896202e-01,4.741978665948307775e-03,-7.958578161704596334e-04,4.534753737350854727e-03,1.406002938747406006e-01
-1.472469035058409093e-01,-1.342624417011443194e-01,-2.707472879714203917e-01,8.824675810246504146e-03,5.250178859886941475e-03,1.960303135551832825e-03,1.317284107208251953e-01
-1.551256940427223063e-01,-1.370314977430971137e-01,-2.492167684073141876e-01,7.657136935184068356e-03,7.096193049266012048e-03,3.590956863631377966e-03,1.060597971081733704e-01
-1.554876068787746646e-01,-1.448110380618601867e-01,-2.747139925750858303e-01,1.162959702946576510e-02,1.562843407286251471e-02,2.059140902967538517e-02,1.342101097106933594e-01
-1.496623542936030005e-01,-1.328803520314159048e-01,-2.293995102242591677e-01,1.079421930601665545e-02,4.220770719678989570e-03,1.036873730128928632e-02,9.329159557819366455e-02
-1.297251879156806065e-01,-1.287556976480083992e-01,-2.347225570651498838e-01,1.099187036929796975e-02,7.785951902758982308e-03,9.229661245517507481e-03,1.092111170291900635e-01
-1.534056395715538978e-01,-1.302782999925997109e-01,-2.863001205209340094e-01,-1.472868290017272140e-03,8.391975461717048361e-04,-1.575688448840987599e-03,1.458951085805892944e-01
-1.359847269495711442e-01,-1.659520424673502637e-01,-2.780985914242003476e-01,1.362504110206146134e-03,9.282706499677344583e-03,3.093397496169920154e-04,1.307668983936309814e-01
-1.486348337219807469e-01,-1.477964404123976172e-01,-2.371266887765026699e-01,1.062752190897213629e-02,2.669328819623713323e-02,1.864330508671382947e-02,1.068870797753334045e-01
-1.391434492562949321e-01,-1.407670039788171124e-01,-2.504250782764937400e-01,1.370366675724483604e-02,9.979450560718876664e-03,1.462043953808701315e-02,1.170853376388549805e-01
-1.267621297244542200e-01,-1.579290180317168557e-01,-2.602796369694234113e-01,-1.042807608657492875e-03,-1.041380617365181283e-02,-1.339356107435765459e-03,1.223558783531188965e-01
-1.257193906543142559e-01,-1.373948250484357814e-01,-2.538964651637902747e-01,1.039404395197337551e-02,1.486584981913699650e-02,5.480025187270851084e-03,1.270682364702224731e-01
-1.427140196439586062e-01,-1.620898819337811547e-01,-2.851528359673850543e-01,1.009521196663322289e-02,7.016146355090605372e-03,3.719942571382610016e-03,1.356440186500549316e-01
-1.353781365996262198e-01,-1.366807338501657143e-01,-2.474606038805017838e-01,1.525270897716100860e-02,9.668230385718595832e-03,1.391474735217396348e-02,1.182260438799858093e-01
-1.385455445916407569e-01,-1.492393056069419299e-01,-2.782705840412932896e-01,1.141489053603735905e-02,1.274076213082216309e-02,7.048856796194618961e-03,1.384564787149429321e-01
-1.444071043766579077e-01,-1.879505946550028561e-01,-3.114531776962292664e-01,-6.793113250863407233e-03,-3.538051002786232052e-02,2.129192622753983688e-02,1.666747629642486572e-01
-1.222948139362246278e-01,-1.458652144000897044e-01,-2.699405201918083086e-01,-6.125691823898705285e-03,-1.003720430132670760e-02,3.215406950387222126e-03,1.389984786510467529e-01
-1.306507574397178795e-01,-1.563166649279944531e-01,-2.862354145389307547e-01,-6.051523424940806993e-03,-1.005420719768710010e-02,-2.501369690385375961e-04,1.458952128887176514e-01
-1.367660827116241873e-01,-1.610012029468221861e-01,-2.937171986749033126e-01,-9.164016202421656349e-03,-6.350266219059682096e-03,5.104488928562327631e-03,1.478794962167739868e-01
-1.422849732710397830e-01,-1.642456642363112063e-01,-2.983698966098444205e-01,-8.098267049106823781e-03,-4.951411347527878183e-03,4.345253649116821368e-03,1.474584043025970459e-01
-1.457827184531872156e-01,-1.906224134003312032e-01,-3.115098669330703118e-01,-1.660259577897944469e-02,-2.605924967959653143e-02,9.885466294530749487e-03,1.587522923946380615e-01
-1.076178588724678031e-01,-1.455978293121742984e-01,-2.516311049062429084e-01,-7.193369852081637691e-03,-1.964667338241710831e-02,3.970878603408696875e-03,1.344365477561950684e-01
-1.398508095707750309e-01,-1.583164723202233337e-01,-2.990784143629036662e-01,1.169278752278472312e-02,7.324004023512101398e-03,3.375870881274255393e-03,1.528379619121551514e-01
-1.599758793637932330e-01,-1.617366312869666922e-01,-3.080762672189767404e-01,6.494834194009145231e-03,7.829241438628702391e-04,4.167867158990739532e-04,1.476650387048721313e-01
-1.532854202046782521e-01,-1.654949203280086933e-01,-3.265209221218898228e-01,1.487043434208449623e-02,3.707316680092234695e-03,-4.850397492228123927e-03,1.697636395692825317e-01
-1.271801533666928052e-01,-1.521762722176353833e-01,-2.918376357226305506e-01,1.485917868811128216e-02,8.115194539612858790e-03,4.196345062102162585e-03,1.566329449415206909e-01
-1.015059026465828934e-01,-1.216332542131418892e-01,-9.737684465884879903e-02,-8.302282003895662676e-03,7.527854145563399324e-02,-3.374102526247452910e-02,1.453547328710556030e-01
-1.188234889783816861e-01,-1.119507597159493106e-01,-4.185862444052398934e-02,-1.418181525179465854e-04,2.576132980182087653e-02,-3.237665856099199591e-03,8.639625459909439087e-02
-1.441683794844099420e-01,-1.638687996819866433e-01,-1.648577418498433922e-01,-1.891487681123370018e-03,2.194484250048450366e-02,-1.723264472671358881e-04,4.317542910575866699e-02
-1.606199849785821809e-01,-1.711333251876211992e-01,-2.253154855276534030e-01,-7.180313038632717484e-03,1.833410023397308644e-02,-8.660574204009013552e-03,7.073879987001419067e-02
-1.481124891650415776e-01,-1.651488385295807326e-01,-2.018166703052510502e-01,-7.890764960559555272e-03,3.564007108409453922e-02,-2.440334128302353370e-02,8.968533575534820557e-02
-1.585846990396798939e-01,-1.761700929477279520e-01,-2.173646122977919981e-01,-1.369978549333514262e-02,4.691707972965069445e-02,-2.435533931079579897e-02,1.080596745014190674e-01
-1.655886184503716496e-01,-1.299625217283399692e-01,-2.979480865779439158e-01,-7.637375800954269989e-04,-8.408452488495352746e-04,1.162463319241569329e-02,1.546381711959838867e-01
-1.471528440991882181e-01,-1.164107867078851000e-01,-2.755455153274462554e-01,-1.898882718043780338e-02,-1.476526391575413294e-02,3.979545866346671790e-02,1.669239550828933716e-01
-1.626030872829979101e-01,-1.238270339258972647e-01,-2.888412125325903190e-01,-1.507701271754192788e-04,6.238516123325220635e-04,1.405007404659978573e-02,1.514203101396560669e-01
-1.463216392751366113e-01,-1.469452428953517131e-01,-2.862022763209713938e-01,2.568778229306834231e-03,6.111799111321342289e-05,1.497966661386238355e-04,1.396410614252090454e-01
-1.517666962697618860e-01,-1.149324677326753336e-01,-2.759283734504149876e-01,-6.829855568800588354e-03,-2.925191523023527428e-03,1.701016415522262765e-02,1.495992243289947510e-01
-1.636059497957992881e-01,-1.376731095305184782e-01,-2.874337814116148526e-01,-1.214808490551178184e-02,-3.915368332981257818e-03,1.734563271688543615e-02,1.435562074184417725e-01
-1.543685383174418779e-01,-1.074021499956661074e-01,-2.289474970887780403e-01,-1.072545108100048279e-02,-3.046258914640632975e-02,3.501850068703477037e-02,1.344561874866485596e-01
-1.531635292663857117e-01,-1.986055225460831297e-01,-3.497009596166859025e-01,8.732063309606807183e-03,-3.136528905032644286e-03,-2.192490130502772227e-04,1.789393424987792969e-01
-1.449370382968298565e-01,-1.655787261532456478e-01,-3.046915756065151637e-01,2.697079823525659354e-04,6.540482488309387740e-04,-1.120328602612694199e-03,1.505166292190551758e-01
-1.319771698840238039e-01,-1.575326737833708246e-01,-2.904755749270878651e-01,2.118330263106315680e-03,1.958571000763843079e-03,1.067905166800374363e-03,1.474880129098892212e-01
-1.492940150877029026e-01,-1.768396913172989582e-01,-3.362586939961706989e-01,5.107099506378260864e-03,-4.505255144772185236e-03,4.690856520481052547e-03,1.754127740859985352e-01
-1.126633705359903481e-01,-1.110788068842564758e-01,-2.057035481121322062e-01,-1.928304953503720554e-02,-3.273386500565124424e-02,3.162399618620301278e-02,1.270301938056945801e-01
-1.476511869864435000e-01,-1.641487291899139389e-01,-2.813394365463768310e-01,-1.895322558491400675e-02,-2.139848157451896757e-02,8.159320622515840379e-03,1.363461464643478394e-01
-1.380305307522712022e-01,-1.364752678942031117e-01,-2.442442589337680547e-01,-1.226544927416146902e-02,-8.082315039346926397e-03,2.174423901247363525e-02,1.162527278065681458e-01
-1.406944412910861031e-01,-1.529445060052383176e-01,-1.820312250291646061e-01,-1.550211375640575019e-02,-3.726305901002542609e-02,2.170960119574424918e-02,8.748079091310501099e-02
-1.219668402634119520e-01,-1.497470824814931267e-01,-2.114299885153577141e-01,-1.183799390762798991e-02,-5.034680778671855872e-02,1.678454337338365588e-03,1.196802332997322083e-01
-1.212326819047087473e-01,-1.580143328051001050e-01,-2.781195387119717588e-01,-1.326891173731276248e-02,-2.441011543984227677e-02,5.457760240712314533e-03,1.503360718488693237e-01
-1.223584159599603038e-01,-1.528382164310740920e-01,-2.467184196003049945e-01,-6.103418671722351564e-03,-1.843398221207183732e-02,1.364418970994393234e-03,1.172208860516548157e-01
-1.920187393123654884e-01,-1.391136421641182008e-01,-3.081584716204342489e-01,1.535944791271402765e-02,-3.489379399703145673e-02,-9.383184720221880715e-02,2.306631505489349365e-01
-1.234388455119215383e-01,-6.813118496417432113e-02,-1.611262378141890272e-01,4.974348809980334504e-03,-5.787623398657699286e-03,-7.012626528641754953e-02,1.465997248888015747e-01
-1.877080538219244032e-01,-1.314897131664171104e-01,-3.030297687913510174e-01,-1.070052524230696335e-02,5.031128509295401154e-03,-3.847943270388429898e-02,1.667460203170776367e-01
-1.285407139155513856e-01,-5.539417815246344690e-02,-1.848978395502095806e-01,-1.501965293769617210e-02,6.678424631624700972e-03,-6.350291012320878614e-02,1.598665118217468262e-01
-1.664972773902144432e-01,-1.187412762044545017e-01,-2.844668559926443185e-01,2.306529373038790267e-03,2.314556685585159122e-03,-3.547856816462031243e-02,1.601231694221496582e-01
-1.933606757214261507e-01,-1.481286840866221088e-01,-3.061751812740930445e-01,-8.089411008181165291e-03,2.719183493653186488e-03,-3.618186573570503217e-02,1.549895107746124268e-01
-2.052065031957107377e-01,-1.528037807792139713e-01,-3.103133374311991544e-01,3.962982281912708765e-03,-2.251189089790484304e-03,-3.808897442716564080e-02,1.540000140666961670e-01
-1.417651550195563048e-01,-1.386225203377437487e-01,-2.826690073429140027e-01,7.604337034079839720e-03,4.901652892136857710e-03,4.174833320421519368e-03,1.435424089431762695e-01
-1.474893498016412452e-01,-1.431875561922232032e-01,-2.867247241056161133e-01,1.045214328768969726e-02,3.413701237507743395e-03,8.849643046832481388e-03,1.435326039791107178e-01
-1.517747783718043364e-01,-1.485826519953687974e-01,-2.929316528947859544e-01,5.046168873032130277e-03,-8.981653217020024976e-05,-8.348740021038368424e-04,1.430543661117553711e-01
-1.510640729277088201e-01,-1.526386964109489597e-01,-2.917072073248558328e-01,1.088543495351741545e-02,4.875804878367257476e-03,4.196445824378956628e-03,1.415667384862899780e-01
-1.427568218141327949e-01,-1.434066619361130390e-01,-2.875330952375039217e-01,3.596811985864541150e-03,8.063922218771124811e-05,-8.731191941279258656e-04,1.445946991443634033e-01
-1.380493609144264056e-01,-1.594179846331228445e-01,-2.864663833872138077e-01,-1.088947135583971139e-02,1.601052528750282478e-02,-6.391310230896612467e-03,1.433878093957901001e-01
-1.515933500234796227e-01,-1.473674061116255485e-01,-2.894286012282073495e-01,-1.143256362142864441e-02,8.051857673116157368e-03,-9.197591215074983617e-03,1.429660618305206299e-01
-1.442721834745089582e-01,-1.635887423323021950e-01,-2.942614695793401292e-01,-1.248059870393869626e-02,1.375466969937308784e-02,-7.440209263733328290e-03,1.455114334821701050e-01
-1.546305862086308769e-01,-1.458304078653151203e-01,-2.854836928037872701e-01,-1.004100025560116134e-02,5.132557344663038826e-03,-1.064323176737967322e-02,1.381044536828994751e-01
-1.498834945483180359e-01,-1.361881560475108333e-01,-2.785208098766403517e-01,-1.534072821975255435e-02,1.606422663982435758e-02,-1.451664040547727581e-02,1.435592025518417358e-01
-1.429578794077544512e-01,-1.481902483319190167e-01,-2.485097991554504615e-01,-2.318033235521442179e-02,2.002357624657425880e-02,-2.744978015947781291e-02,1.252660602331161499e-01
-1.548184666439968993e-01,-1.381336134025825113e-01,-2.659950722818436586e-01,-2.109287238051243962e-02,1.189079254635964054e-02,-1.479779830644567702e-02,1.300361901521682739e-01
-1.353223112465636591e-01,-1.498932723004651191e-01,-2.912730441828539352e-01,1.385419099471597339e-02,-1.174529698320853424e-02,-5.595295631178436035e-03,1.527880430221557617e-01
-1.611405335605545219e-01,-1.748923614077287358e-01,-3.309851814767047484e-01,6.529476778135134656e-03,4.164738345796524521e-03,-1.117439690008758483e-03,1.639644056558609009e-01
-1.446974338440110697e-01,-1.679817250757739411e-01,-3.121322031473778291e-01,3.707101295091274739e-03,-1.880995358064136824e-03,-4.604701316333011433e-04,1.572591513395309448e-01
-1.592817959471715394e-01,-1.772473127117732417e-01,-3.428426029945073061e-01,1.445957137465171856e-02,-8.708665296863033270e-03,-9.918891614378014601e-03,1.785202473402023315e-01
-1.316560591401916003e-01,-1.525501395164843010e-01,-2.949839115635390918e-01,1.320660306660199901e-02,-3.296265637787668210e-03,-1.251422707575990069e-03,1.557578295469284058e-01
-1.532745354165044316e-01,-1.522338798345659605e-01,-2.903541242084863860e-01,2.577114154955562845e-03,6.199125019040319497e-05,-8.312806579252231959e-04,1.376828253269195557e-01
-1.510889001371081841e-01,-1.616646721705742584e-01,-3.045766318420567997e-01,5.688239917256376205e-03,7.605732307306689024e-04,-2.006377250072820251e-03,1.488554924726486206e-01
-1.467371401650439944e-01,-1.516367231042144159e-01,-2.880231090137460037e-01,-3.933392802899684203e-03,1.474047445522066319e-03,-2.091881552694279094e-03,1.391385942697525024e-01
-1.853606660655470473e-01,-2.634098392898475138e-01,-3.891628035689728149e-01,1.366369984382216282e-02,9.261054723194712957e-02,1.892108565275845908e-02,2.430733442306518555e-01
-1.400969220141695948e-01,-1.513677478834604684e-01,-2.883678677348526231e-01,-1.303292205525007985e-03,9.229280900254561082e-04,-2.642253458548195948e-04,1.429966092109680176e-01
-1.561226469158815688e-01,-1.597731991040099719e-01,-2.951889969215982235e-01,-1.209880793193515843e-03,4.675566729948797077e-04,-1.269808293561548208e-03,1.373134851455688477e-01
-1.513833019544649217e-01,-1.520439417472365939e-01,-2.927027691290866596e-01,-7.340246246305429101e-03,-8.543376503306021304e-04,5.864702207625519708e-04,1.415737420320510864e-01
-1.514464344718017830e-01,-1.519705549721254434e-01,-2.883807246666200141e-01,-8.841000487955162071e-04,2.242648638055672560e-04,-1.993172729394706015e-04,1.366825550794601440e-01
-1.498262187015476088e-01,-1.499529268488905831e-01,-2.867778796376662109e-01,-1.401747597103530961e-03,-3.819785435293574210e-04,5.303136560168979522e-04,1.369145661592483521e-01
-1.532377738062613570e-01,-1.517510956906606978e-01,-2.890084829093547136e-01,-4.821475187964294174e-04,3.680520002764291134e-04,-2.334427107636865325e-04,1.365247666835784912e-01
-1.536715249813968565e-01,-1.522470024063116711e-01,-2.930759410427539180e-01,-1.529119266001589253e-03,1.724664800944536490e-03,-1.079865125407477320e-03,1.401914507150650024e-01
-1.559080288545597603e-01,-1.567783414163234634e-01,-2.955028707556974776e-01,-1.884644916864659488e-03,1.523223680689248221e-03,-1.852898944182900659e-03,1.392619907855987549e-01
-1.279799815244148375e-01,-1.468175013707761212e-01,-2.792531379581564832e-01,-2.926920626429416975e-03,-1.535389550440966096e-03,7.828004635179930306e-04,1.429105252027511597e-01
-1.463667879643308634e-01,-1.833841301376864796e-01,-2.148906856877987048e-01,5.797549226856944836e-04,4.556485214767476422e-02,4.340533985106209865e-03,9.907185286283493042e-02
-1.452525377296347286e-01,-1.120471956517108403e-01,-1.870280818042862336e-01,7.231767242405550767e-04,4.502632544556234100e-04,-3.239838257635089397e-02,8.594244718551635742e-02
-1.615214087240619267e-01,-1.387842054507973377e-01,-2.315820110158630651e-01,-1.500930782821315382e-02,1.087074115852137285e-02,-3.362814359174463169e-02,1.069643124938011169e-01
-1.692151867049042080e-01,-1.468917227642393963e-01,-2.585212896338506816e-01,-3.182452940900073676e-03,-8.728738277324635470e-04,-2.622505805375746624e-02,1.120868846774101257e-01
-1.538715521709311806e-01,-1.523103399829398019e-01,-2.104189416535912072e-01,-7.606083995424967742e-03,1.013029962074209374e-02,-2.032447083014797540e-02,7.077433168888092041e-02
-1.598359754918983466e-01,-1.440403199563020098e-01,-1.817657358808660584e-01,-2.076642687923023305e-03,2.277953174715364668e-02,-3.472579393932802988e-02,7.914614677429199219e-02
-1.373708208639607409e-01,-1.940746507101980267e-01,-3.340971661699553286e-01,3.435686624514052746e-03,-2.216144696406016981e-02,1.546655120635425859e-02,1.816256791353225708e-01
-1.381977402748188477e-01,-1.644763419698169193e-01,-2.965826448908949753e-01,-2.249751617935711635e-03,-4.205036694417318456e-03,3.328000634906973579e-03,1.473623663187026978e-01
-1.370422948781622741e-01,-1.793766504686189756e-01,-3.187349956028871500e-01,3.166954051979023119e-03,-1.502219558197562775e-02,-8.599206346928307126e-03,1.674560159444808960e-01
-1.316043019023461491e-01,-1.619306293267881447e-01,-2.820609426396571418e-01,1.803889031166451508e-03,-1.327590271788211965e-03,-1.270908862035372401e-03,1.378912031650543213e-01
-1.365278942812249985e-01,-1.630795132992566843e-01,-2.943131299132809575e-01,-8.771046254613855614e-04,-6.800503407613762465e-03,-1.512415458788653484e-05,1.468085944652557373e-01
-1.301809737273130763e-01,-1.473735634470824118e-01,-2.797145355817557966e-01,-1.345444652882800450e-03,-5.498279377277538651e-04,2.253500056954597380e-05,1.417439281940460205e-01
-1.405819779993850438e-01,-1.858865669148007660e-01,-3.314566229720344870e-01,-3.375272800328661324e-03,-1.570076265301045826e-02,6.501728364155739438e-03,1.753244847059249878e-01
-1.422423485943379029e-01,-1.426776974560636513e-01,-2.881992436289973480e-01,1.690645515542187668e-04,-2.491504855548166346e-04,5.669515418990137126e-05,1.457406729459762573e-01
-1.839334005428110430e-01,-1.519423408285132115e-01,-3.482655199881445340e-01,-1.597724073418237828e-02,-2.661427682491936185e-04,5.122896975003509400e-03,1.847441345453262329e-01
-1.639441757887853124e-01,-1.573929292301044502e-01,-3.090673649875659290e-01,-7.752339250961707597e-03,4.742966321450006522e-04,-3.004779203243683125e-04,1.491161882877349854e-01
-1.585755952645776512e-01,-1.374171255291157800e-01,-2.992373316556605212e-01,-8.441221784422320989e-03,-1.375640911041716482e-03,1.039133133710025067e-03,1.530760377645492554e-01
-1.611775101303206670e-01,-1.498712804664508735e-01,-3.023642586378812447e-01,-5.203589574772210513e-03,7.400288101816224163e-04,2.978742293970078250e-03,1.475374996662139893e-01
-1.475672975635827500e-01,-1.513614187133356381e-01,-2.914283602294058806e-01,3.067331250216313344e-03,-8.676416487124274674e-04,6.333176110056600158e-04,1.421135514974594116e-01
-1.454930595239556368e-01,-1.515333706832155403e-01,-2.901972965436827590e-01,9.268048460062926208e-03,-3.781322345006501821e-03,-2.985665004266325768e-03,1.429302990436553955e-01
-1.402276797405650199e-01,-1.430949686832873324e-01,-2.836304686260484043e-01,6.960210688424277314e-03,-4.915081523889784816e-03,8.756354482269203569e-05,1.427558511495590210e-01
-1.366810460123050186e-01,-1.463203790965381113e-01,-2.847151166622276519e-01,5.810001682923692824e-03,-3.650523320678800056e-03,-3.056337528645804331e-03,1.440462619066238403e-01
-1.419503086047446683e-01,-1.495035215999921951e-01,-2.901111014166839475e-01,5.954563467617387910e-03,-2.413541153328094529e-03,-2.655472434975491691e-03,1.450330317020416260e-01
-1.377600296405705194e-01,-1.466808829765381961e-01,-2.849884778326527979e-01,5.944309404015884167e-03,-3.861606982583395790e-03,-2.891170425817078844e-03,1.435904353857040405e-01
-1.355457480925418290e-01,-1.522333884444271868e-01,-2.742156430727402672e-01,9.023681823015806958e-03,-6.427668670552146024e-03,-3.302762224864099014e-03,1.326449960470199585e-01
-1.368732339117998409e-01,-1.489313029274581535e-01,-2.843757091213690025e-01,6.299040875266084111e-03,-3.702135823390071464e-03,-5.083249005265699956e-03,1.426935642957687378e-01
-1.451983548885483477e-01,-1.470272379236960414e-01,-2.768585226398043164e-01,1.532534168291068560e-02,-1.003984634252968675e-02,-9.208233445735344164e-03,1.354928910732269287e-01
-1.247842236252552778e-01,-1.371476677612009365e-01,-1.012956034357117424e-01,-1.919588146145813183e-03,6.463908263444456681e-02,-2.510204104728140477e-03,1.164455264806747437e-01
-1.325553146415292538e-01,-1.451362885873698771e-01,-2.614814469516255624e-01,1.071557529471735444e-02,-8.830414081893269915e-03,-4.373859431071435398e-03,1.256741881370544434e-01
-1.321197993793039038e-01,-1.597251547649742309e-01,-2.652069126438338920e-01,9.675342543768086084e-03,-1.962285234747099608e-02,-8.895898852764854564e-03,1.283500492572784424e-01
-1.339325959842131153e-01,-1.581876454158788747e-01,-2.836501472384314049e-01,1.318994200928551123e-02,-1.783399016741755647e-02,-5.305755811041085526e-03,1.446816325187683105e-01
-1.609802535616647323e-01,-1.522118433364997858e-01,-2.989419843123947707e-01,-5.631488619980798936e-03,-4.980338607124968741e-04,5.604775584720038655e-04,1.428875625133514404e-01
-1.666069506180497817e-01,-1.648955802191284237e-01,-1.916137170486123253e-01,-8.022577656987607032e-05,7.028709374613814100e-03,2.399073475561212636e-03,2.892329916357994080e-02
-1.443267556393853790e-01,-1.417286406655625663e-01,-3.148967249208222130e-01,-1.925530314678100541e-02,7.649657825560785343e-03,-7.420185127663282004e-03,1.760597974061965942e-01
-1.350715159851247904e-01,-1.646048779205816492e-01,-2.585747592963280050e-01,-6.296851112713830467e-03,-1.952804463094514470e-02,1.121198289081801192e-02,1.188188344240188599e-01
-1.458535045545479303e-01,-1.589708595634208854e-01,-2.126791340306863620e-01,-4.022730178145230741e-03,-2.413830779230637102e-02,5.111487344775696336e-03,7.507367432117462158e-02
-1.283378774011990908e-01,-1.578741250545760977e-01,-2.609164826902694578e-01,-2.047635387509030847e-03,-2.326034244977615018e-02,5.413692119276541231e-03,1.275038570165634155e-01
-1.395037084611771283e-01,-1.783029667832402299e-01,-2.781544494543810586e-01,-4.383804959710768147e-03,-2.519154864106731492e-02,2.462954455794872060e-04,1.315733343362808228e-01
-1.173481479917082848e-01,-1.391826058594949900e-01,-1.957705127960881197e-01,5.879952044876473119e-03,-3.412755690386268942e-02,-7.358967275921891350e-03,9.313837438821792603e-02
-1.453991391373339048e-01,-1.547741254250059872e-01,-1.711208860060568493e-01,5.457206283328136162e-03,-3.116202454917941719e-02,-5.320197185509582122e-03,5.996523797512054443e-02
-1.256123152561166023e-01,-1.740968881832241910e-01,-2.319603722815498648e-01,-5.908505022839500784e-03,-4.235385140584283642e-02,-3.846112994839904521e-03,1.184697374701499939e-01
-1.544479528376556665e-01,-1.652765677035378522e-01,-3.077287811580182719e-01,4.898209079670074080e-03,2.663061612105458700e-05,-3.032720600807815858e-03,1.484992355108261108e-01
-1.561221586783654858e-01,-1.535675402683246427e-01,-3.006745721664449977e-01,8.976665073832743730e-03,6.951883260263657478e-04,3.139525274149370954e-03,1.467786282300949097e-01
-1.582639879222713652e-01,-1.527683764849472325e-01,-3.011133110260553747e-01,1.994225556105076388e-02,-3.068024257884683151e-03,5.006428967078332612e-03,1.500589400529861450e-01
-1.554378003028282496e-01,-1.566351334780466398e-01,-3.034651346558900342e-01,6.883954199042147636e-03,1.117369887381286292e-03,4.787093946256946032e-04,1.479286551475524902e-01
-1.429468444842774411e-01,-1.452500651844312041e-01,-2.871220293133439627e-01,1.015445216977527328e-02,6.039290719800737353e-03,4.799692421774602591e-03,1.447328180074691772e-01
-1.409547232391259730e-01,-1.426133912119410263e-01,-2.834362967336028771e-01,1.034204393978127579e-02,5.830601649085625018e-03,3.944950769953502884e-03,1.433072537183761597e-01
-1.553232442204106889e-01,-1.503947699087554990e-01,-2.991287227163987872e-01,-5.872581903928667142e-03,-9.196056441569350291e-04,-4.644026675541138103e-04,1.466959267854690552e-01
-1.526541477118102952e-01,-1.554020984114065917e-01,-2.923563852172415545e-01,-2.679289196378272647e-03,-3.297442971473724962e-04,3.886375444940489690e-04,1.384293586015701294e-01
-1.511949673878603129e-01,-1.517613568873238672e-01,-2.914164230493948571e-01,-2.194625632449772202e-03,-5.083418687582135246e-04,9.335618162678245341e-05,1.399935930967330933e-01
-1.425815622431283181e-01,-1.439780742206528963e-01,-2.896237113412756803e-01,5.444378763584355185e-04,6.772099709686376666e-06,-2.475335823319974862e-05,1.463519334793090820e-01
-1.489625080190291329e-01,-1.497357644637525298e-01,-2.870627232978841259e-01,-2.301598327383011511e-03,-2.513178524346270423e-04,-1.927359531527422841e-04,1.377739906311035156e-01
-1.545431042881521277e-01,-1.433719542281736148e-01,-2.632891875971244411e-01,8.028647765332776187e-03,7.118564483710434956e-04,1.864638544809672479e-03,1.156315356492996216e-01
-1.558924993516693225e-01,-1.485341009420286518e-01,-3.162140380838808773e-01,1.885303106160841555e-02,1.873784298773143592e-02,1.812289250884513425e-02,1.733257025480270386e-01
-1.407993329061272003e-01,-1.615422723781947678e-01,-2.973831365229469004e-01,1.211775293324258637e-02,8.665603380242603918e-03,4.646827201820077219e-03,1.497709155082702637e-01
-1.372792557373845035e-01,-1.428498881078571481e-01,-2.846724280622184855e-01,1.461687424248787372e-02,7.615579648146135645e-03,5.613984157542273312e-03,1.477978527545928955e-01
-1.504941202903277708e-01,-1.460007551791136504e-01,-3.090463798648055427e-01,2.173022902749234195e-02,1.329586935907457919e-02,3.375211360630077807e-03,1.668908894062042236e-01
-1.349284236643932822e-01,-1.713329576751559946e-01,-2.712282665270742132e-01,1.836431427894428571e-04,1.092272285503233242e-02,-7.490038879457950553e-04,1.236960291862487793e-01
-1.419023153739467913e-01,-1.496917988826423074e-01,-2.898686580033610904e-01,1.628619044923903039e-02,7.490230937622623271e-03,1.300205572670702983e-02,1.492425054311752319e-01
-1.399872742924734570e-01,-1.450418814435749937e-01,-2.874073058142271320e-01,8.266657433421080448e-03,3.885116234680198542e-03,2.365958181918548838e-03,1.458771824836730957e-01
-1.492438853908427676e-01,-1.558774491676270801e-01,-3.012601842535894692e-01,1.792390322935036306e-02,1.024414460549208025e-02,1.182322661084940843e-02,1.544103026390075684e-01
-1.313795767771386014e-01,-1.497638617771581415e-01,-2.850579250459918668e-01,-2.226698225187516249e-03,-1.376034865002458705e-03,-8.078800870166693389e-04,1.454381793737411499e-01
-1.518549757159613212e-01,-1.509563838670618663e-01,-2.900354152797214868e-01,9.692795338368751998e-03,1.013583972698680691e-03,3.715485149339626311e-03,1.398039907217025757e-01
-1.491132737029860489e-01,-1.356914588887893347e-01,-2.829565308643453569e-01,7.735903390302040390e-03,5.342633671183941169e-03,6.823902704193187882e-03,1.424620747566223145e-01
-1.332530904291782115e-01,-1.417138556055772824e-01,-2.807905955239758389e-01,7.367753200603595690e-03,4.355230918129813361e-03,1.933037292800249838e-03,1.442968696355819702e-01
-1.450615425976998218e-01,-1.286459133664691057e-01,-2.772328290036941700e-01,6.688513065426384893e-03,5.760324007573141593e-03,6.463643956421787941e-03,1.423639208078384399e-01
-1.474273158368213654e-01,-1.372952610003584373e-01,-2.771478600275215642e-01,6.597340254750805669e-03,6.111981376848379596e-03,2.339925184628308813e-03,1.360275149345397949e-01
-1.726961021213783976e-01,-2.387306488699148799e-01,-3.860487146000801117e-01,-4.602953809512320277e-02,-9.136568359152129337e-02,5.025434624031802078e-02,2.734355032444000244e-01
-1.408361027188755055e-01,-1.528150965074038248e-01,-2.852910556110210827e-01,1.371292078426633587e-02,1.536954014061456437e-02,5.754138253046643323e-03,1.437095552682876587e-01
-1.248631801975362554e-01,-1.619944149674070188e-01,-2.367552594670265242e-01,7.952590179980340360e-03,1.858763769967908264e-02,3.921870884369176892e-03,1.049583256244659424e-01
-1.454909138441546068e-01,-1.620439917709896316e-01,-2.431973964744124361e-01,7.819795606116558898e-03,1.343064543041377380e-02,9.689095449514366701e-03,9.596586972475051880e-02
-1.547457669076883757e-01,-1.616566348375423068e-01,-2.482952994047046558e-01,1.248758495688902757e-02,2.217983492149354710e-02,2.492986105723739992e-02,1.093659698963165283e-01
-1.724081219057427283e-01,-1.376175784726924589e-01,-2.882419813960795385e-01,5.361705735714069124e-03,-1.056932299252285289e-02,-2.178285328768121351e-02,1.431874334812164307e-01
-1.662328097099517454e-01,-1.291046958505334130e-01,-2.811100825589935015e-01,2.989780975107852903e-04,1.525731717352475821e-03,-1.019824513442673525e-02,1.384186595678329468e-01
-1.318647402232686339e-01,-9.849427917895559048e-02,-2.157003592063158059e-01,1.137539219362359135e-03,-1.185139580157064517e-03,-2.423967283755378357e-02,1.127404645085334778e-01
-1.704358029163370869e-01,-1.687008297880848440e-01,-2.103497329202991817e-01,2.068491753980621420e-03,9.834683419818027877e-03,2.010810099331175257e-03,4.450292885303497314e-02
-1.478825453107937837e-01,-1.418762173816132954e-01,-2.882505652420041531e-01,3.496010709356402960e-03,2.250299890631656950e-04,1.474242811186882380e-03,1.436164677143096924e-01
-1.551077573778953944e-01,-1.349003391015684006e-01,-2.850299990590142718e-01,1.167169656228788516e-02,9.515655743666784003e-03,8.299245253829896571e-03,1.442237198352813721e-01
-1.339009209881324991e-01,-1.046293751098017200e-01,-2.473766916809380656e-01,1.264894938746854124e-02,1.106033787486063180e-02,3.007074813887510023e-02,1.435789465904235840e-01
-1.523445414288313593e-01,-1.673422549372219903e-01,-2.228742033409316092e-01,2.061863947724342731e-03,5.489632403929871687e-03,2.590168292405694173e-03,6.530597060918807983e-02
-1.547376515429400579e-01,-1.221440944964404668e-01,-2.668693232613288391e-01,1.549475687694308644e-03,5.402479696490427793e-03,3.888315852213512260e-03,1.320255398750305176e-01
-1.696963144272309876e-01,-1.483377228634071843e-01,-3.095538819290479804e-01,6.855621031534738473e-03,-4.564571559264708235e-03,-2.854599466174557489e-03,1.524186283349990845e-01
-1.618843786331641832e-01,-1.395618774066772760e-01,-2.946320057152343463e-01,5.384007758265891598e-03,-2.300289612951251454e-03,-5.187282682705241822e-03,1.458322554826736450e-01
-1.570577315431137266e-01,-1.233633972450136201e-01,-3.017465214941297269e-01,1.358429768594079760e-02,-4.224586254951731394e-03,-1.179777826038276752e-02,1.672424823045730591e-01
-1.834240416819026831e-01,-1.493589064610275075e-01,-3.514332313590545209e-01,1.492447106302599753e-02,-3.577234473190167054e-03,-1.876204091402199764e-02,1.920245587825775146e-01
-1.584789275439930090e-01,-1.409886630187244527e-01,-2.912033906529377658e-01,6.454942075206410515e-03,-3.799587150811414241e-03,-3.150444838205035403e-03,1.429726034402847290e-01
-1.280192210726106006e-01,-1.612406304767270704e-01,-2.860168950771467822e-01,-1.156179017490321275e-03,-8.020363839396308508e-03,8.165775948940951108e-04,1.449724435806274414e-01
-1.372155770721814327e-01,-1.606320765964355246e-01,-2.746439735620256339e-01,-5.111546173531602948e-03,-1.283594426326826327e-02,3.169922327081323328e-03,1.296904683113098145e-01
-1.458322780398408347e-01,-1.803322626493423786e-01,-2.921798959928431638e-01,-5.341295076173304887e-03,-2.641239457023191600e-02,3.455994657479748156e-03,1.406170278787612915e-01
-1.439170592177880237e-01,-1.532797238863886913e-01,-1.966880385070090831e-01,-5.460992126942216737e-03,1.287406462374342947e-02,-5.432563788339683959e-03,5.525928735733032227e-02
-1.560971147340779464e-01,-1.520217517902907878e-01,-1.978788181383171751e-01,-7.900628739552949947e-03,-1.439428589528023682e-02,1.896123948912004087e-02,6.180636584758758545e-02
-1.501718628832176550e-01,-1.553085265897093947e-01,-1.524125639267032706e-01,-1.117747198934574034e-02,-2.776573490307229775e-02,1.836556166784234292e-02,6.098683178424835205e-02
-1.617523635357273060e-01,-1.678752087047640229e-01,-1.944299790167074993e-01,-5.417002164755186679e-03,-1.969502121104790837e-02,3.806908492101569036e-02,8.065181225538253784e-02
-1.505091678988317305e-01,-1.429925131903959923e-01,-2.898714626841029096e-01,-7.652234016006433971e-03,-3.795976931385688143e-03,2.400103842027092368e-03,1.440904885530471802e-01
-1.446069457502813793e-01,-1.492978168333158884e-01,-2.918549374132159979e-01,-5.141554960553186039e-03,-1.888923413814907939e-03,2.725882012516778630e-03,1.453463286161422729e-01
-1.504324713928278656e-01,-1.452505256635309161e-01,-2.902640062024388623e-01,-3.958744788228366410e-03,3.282727497255877682e-04,1.251828026774204567e-03,1.426756829023361206e-01
-1.461478728397250237e-01,-1.336773043286761664e-01,-2.825532656923721575e-01,-6.759602385758814620e-03,-3.366444868455025462e-03,3.238217803606213956e-03,1.437551081180572510e-01
-1.464749517135915946e-01,-1.350151027409189630e-01,-2.860949770748735244e-01,-7.115661487294457944e-03,-2.031670192581219270e-05,2.971606738189748811e-03,1.462993323802947998e-01
-1.482694782831384395e-01,-1.313141253212315451e-01,-2.819236300012749608e-01,2.991313886073793549e-03,1.286770042079473817e-03,1.335057089869310298e-03,1.430182754993438721e-01
-1.416955716255999254e-01,-1.431813387651610647e-01,-2.879292605217086964e-01,-1.419871604208256411e-03,1.712530829832495393e-04,-1.823329930852493987e-04,1.455179154872894287e-01
-1.482974727084848399e-01,-1.441530809574918248e-01,-2.848196461926429945e-01,-1.365611041675391692e-02,-1.394207418625678999e-02,9.276902300496613768e-03,1.436038911342620850e-01
-1.550686322761569425e-01,-1.513508717723820729e-01,-3.003001082753355422e-01,-7.053132623060579844e-03,-1.269859105836524359e-03,4.803043507252045818e-03,1.478824615478515625e-01
-1.683386672617109836e-01,-1.253059619219550336e-01,-3.067786364710540781e-01,-1.551061078592094744e-02,-1.158481979573678863e-02,3.701430803255616186e-02,1.794698387384414673e-01
-1.557350285228364661e-01,-1.323934989014630415e-01,-2.906487778485561391e-01,-8.957904061354599393e-03,-6.081564010673082450e-03,7.766246899509453988e-03,1.497607231140136719e-01
-1.312417717177072063e-01,-1.416857742089251138e-01,-2.633675162599460329e-01,1.106566957306819206e-02,9.507833037425774542e-03,6.902624562332835244e-03,1.302607059478759766e-01
-1.401531520897871808e-01,-1.457545743315693532e-01,-2.576033688946918754e-01,1.862637909133733893e-02,-2.374095611799607528e-02,-2.326598244451752104e-02,1.323770582675933838e-01
-1.409603929038159009e-01,-1.409877779588687985e-01,-2.595529548030571232e-01,1.092811096386408359e-02,-1.208193433745423893e-02,-4.683703511771574769e-03,1.221595257520675659e-01
-1.274259877208604175e-01,-1.385509416396623894e-01,-2.049530160257388434e-01,7.800432995068821984e-03,-1.672424109991526783e-02,-9.052828162667498138e-03,8.086545765399932861e-02
-1.330259499828838066e-01,-1.585921476414720865e-01,-2.767985780099649351e-01,9.243198345928427609e-03,-7.993675459487127599e-03,-3.204846432009353114e-03,1.346376538276672363e-01
-1.378549973304862286e-01,-1.688506474379433131e-01,-2.644773545674677928e-01,6.816581915499846447e-03,-9.973895845774200658e-03,3.896064395563188839e-03,1.164155527949333191e-01
-1.306310009942888706e-01,-1.386630444429871323e-01,-2.357124193987520377e-01,1.183717442937838246e-02,-1.635355832078012536e-02,-1.899582144232291395e-02,1.121061816811561584e-01
-1.542131007275137633e-01,-1.622243945548892674e-01,-2.765624340035953699e-01,1.338438095655973027e-02,-2.115107271734217170e-02,-1.539701991697942952e-02,1.290120035409927368e-01
-1.193786510959670144e-01,-1.367300301140601804e-01,-2.358582825270981176e-01,1.084938263760443049e-02,-1.697763242687076041e-02,-1.296801378222992539e-02,1.164896935224533081e-01
-1.425760198524097522e-01,-1.525987920151866406e-01,-2.168820303975693975e-01,1.214988239118896737e-02,-1.187446975218303669e-02,-1.427932544164543273e-02,7.971607148647308350e-02
-1.635900293652117199e-01,-1.260580719281986783e-01,-2.749804359989752034e-01,4.567732338625784985e-04,-2.914595501465974832e-04,-1.057657735559195365e-02,1.354017853736877441e-01
-1.425706974285251838e-01,-1.042507758689338176e-01,-2.216921266711784355e-01,2.376691892940353389e-03,-1.148194971701940216e-03,-2.448035842760032041e-02,1.121575161814689636e-01
-1.612893571226286793e-01,-1.330300657187462321e-01,-2.824956519613588957e-01,-4.513541833087214919e-03,1.312630281255401958e-03,-2.006160272552990047e-03,1.378155201673507690e-01
-1.556186089288155994e-01,-1.232580602741497472e-01,-2.511892418026700491e-01,-2.008171268430672656e-03,-1.779387975993215125e-04,-7.900865078487835994e-03,1.160738244652748108e-01
-1.405342537223849830e-01,-1.413424928680359627e-01,-2.878020160074419298e-01,-4.055354849812206012e-04,5.603761764934548636e-05,1.134837875701695460e-04,1.468671560287475586e-01
-1.596201175461006427e-01,-1.317060659704888392e-01,-2.604708204522340198e-01,-1.089720680861739309e-02,2.261939620407066569e-03,-1.712090323697320129e-02,1.225405335426330566e-01
-1.497420413709850961e-01,-1.180308039817549171e-01,-2.657925704076792850e-01,-2.376544483644511124e-03,1.607678184783772673e-03,-1.167103331062919157e-02,1.363333016633987427e-01
-1.614525446610030612e-01,-1.287955779780109444e-01,-2.840913269924344453e-01,-4.176738358900716481e-04,-2.065776414361612096e-04,-7.548697711305054833e-03,1.424196511507034302e-01
-1.716841835239868164e-01,-1.392279512395814545e-01,-2.809394441760084682e-01,-1.914056061962362242e-03,1.346532472714003685e-03,-1.039255032105570499e-02,1.299098879098892212e-01
-1.590646818640751026e-01,-1.328998007085193667e-01,-2.762894287394475623e-01,-4.290219594568929311e-03,1.464891649046375305e-03,-9.721242103906494250e-03,1.335611343383789062e-01
-1.660826975478353063e-01,-1.455017653430038804e-01,-1.517130528763641073e-01,-3.536394584918774869e-03,8.101585534527971921e-03,-1.686738731491757570e-02,3.771302476525306702e-02
-1.430077836148677950e-01,-1.429443388174200524e-01,-1.478699114516413560e-01,6.847199871962441047e-04,1.112043602267810335e-02,-2.943066633163075180e-03,2.055082842707633972e-02
-1.330467065309852148e-01,-1.439951506438204853e-01,-1.386265156022615797e-01,5.069417731833420279e-05,-2.053704235405270917e-02,-1.462021357140085367e-02,4.468201473355293274e-02
-1.748756715085575952e-01,-1.745727200924659384e-01,-2.097579677074813409e-01,4.965442606124793049e-05,-8.627105395122715943e-04,-1.414411938937807679e-02,4.277665913105010986e-02
-1.459998682777905454e-01,-1.469005831050654021e-01,-2.827764720155474532e-01,-8.316478924857345634e-03,3.535450464841366231e-03,-3.666017351745981014e-03,1.373708993196487427e-01
-1.511351388737258994e-01,-1.499284197903309190e-01,-2.892431486175062183e-01,7.163871566963378413e-04,-1.686946711941744395e-05,-1.047872882576186869e-04,1.387209743261337280e-01
-1.423704772200357349e-01,-1.398447969388990630e-01,-2.858061859425057305e-01,-8.116668474296401259e-03,3.333344505622220545e-03,-4.089714795947348332e-03,1.456832438707351685e-01
-1.472633979577430696e-01,-1.277791605173298484e-01,-2.791777845717676176e-01,-7.236592131537724314e-03,4.427561344630280039e-03,-6.024315184539052147e-03,1.437918096780776978e-01
-1.439595710352302993e-01,-1.250005313538750662e-01,-2.724646374424128381e-01,-7.379402666004226778e-03,4.173761302378956733e-03,-8.152896774148795170e-03,1.404434591531753540e-01
-1.462380060133784965e-01,-1.332224005141517953e-01,-2.691561242079433258e-01,-1.425804486957055368e-02,1.593674335213416532e-02,-1.591569097338780409e-02,1.378762722015380859e-01
-1.452474060926976507e-01,-1.367947072388520369e-01,-2.676040577250531349e-01,-9.991829403980143423e-03,5.179903043994416208e-03,-9.163786297758646018e-03,1.292624175548553467e-01
-1.432964420362799751e-01,-1.378785965261706825e-01,-2.827823378702240542e-01,-5.151431063927573023e-03,1.643540528157127600e-03,-9.455744312947302055e-04,1.425895541906356812e-01
-1.427912482536401184e-01,-1.402515065703957564e-01,-2.837378815973351509e-01,-7.307669860919422701e-03,1.948055864291687233e-03,-2.572722112502421384e-03,1.429049372673034668e-01
-1.406788774805941000e-01,-1.305602973049528881e-01,-2.529476006987136372e-01,1.480403673051173402e-02,-1.264140065223003963e-02,-1.139859292336361726e-02,1.239731013774871826e-01
-1.275235369397157426e-01,-1.583367792480401270e-01,-2.802331086585493347e-01,-3.931379667657988394e-03,4.195975627184487730e-03,-1.646198022226129550e-03,1.402551531791687012e-01
-1.752942601321371141e-01,-1.355899316475501493e-01,-2.978042074065373468e-01,-7.487625692950044057e-04,1.453892601946803849e-03,-1.252784028693074841e-02,1.480816006660461426e-01
-1.560409701913798852e-01,-1.382621652112840660e-01,-2.800391974522968286e-01,8.948141158502564974e-03,-4.106988231299150624e-03,-6.893677336980351573e-03,1.353867202997207642e-01
-1.486230004141349259e-01,-1.241182272123482755e-01,-2.719605302170285954e-01,7.340003397453003127e-03,-4.508617919227420230e-03,-5.809876575945337705e-03,1.384155452251434326e-01
-1.546006327693732474e-01,-1.299573854605098333e-01,-2.824990093296134153e-01,7.591806695647871327e-03,-3.616913503977851017e-03,-6.737415494152610394e-03,1.430574953556060791e-01
-1.611880778607442666e-01,-1.327857596773885929e-01,-2.873760279194446654e-01,3.629023386069403327e-03,-7.950687331112405354e-05,-6.963161891156971831e-03,1.431750953197479248e-01
-1.453240124695271973e-01,-1.451390837821889268e-01,-2.875919733721150062e-01,4.456946325329157535e-04,5.950227103716295918e-06,4.838726505176029922e-04,1.423650681972503662e-01
-1.597211263705309026e-01,-1.250005178484222546e-01,-2.722781113699012101e-01,2.070053796510391581e-03,-2.176313897435724724e-03,-7.700970984884885143e-03,1.341179460287094116e-01
-1.456163806117753423e-01,-1.232454032801136162e-01,-2.552219738469229116e-01,1.309358815559222289e-02,-1.002392632976217834e-02,-2.360463003608481020e-02,1.321102976799011230e-01
-1.416637134089899219e-01,-1.126048585099385657e-01,-2.356969253790323904e-01,2.395650746309963951e-03,-5.419198840115470968e-04,-1.882909933972357758e-02,1.161932125687599182e-01
-1.637649038194946838e-01,-1.585577893575856878e-01,-3.275198289335957691e-01,-1.264802624197007390e-02,8.389387110117232926e-03,-1.509467926464099028e-03,1.685033440589904785e-01
-1.504705103300378599e-01,-1.547161013719092204e-01,-2.986045066478008048e-01,-6.411263702879166707e-03,1.775546087119319596e-03,2.410802077275446542e-03,1.465707868337631226e-01
-1.606009192378343720e-01,-1.770013110084140973e-01,-3.476470193919315999e-01,-1.196089332697098349e-02,5.649790369353543430e-03,3.074422429888282789e-03,1.809444427490234375e-01
-1.478424719790545905e-01,-1.582521123863137313e-01,-2.957925639906519577e-01,-3.255115998237873703e-03,4.090048249395308866e-04,-7.636038859129685953e-04,1.431486010551452637e-01
-1.551244581739228412e-01,-1.650330029384372010e-01,-3.073006911407816233e-01,-2.781391834954626517e-03,2.275173869659688139e-03,-1.881585905719560838e-03,1.476390808820724487e-01
-1.305143161142202080e-01,-1.477605672313904439e-01,-2.882421174450552903e-01,-1.056162376017935438e-02,3.680969517104213697e-03,-1.250579509097798350e-03,1.511134058237075806e-01
-1.534794892526282761e-01,-1.615522141556965385e-01,-3.033761243968647325e-01,-4.284723277952278211e-03,8.162880609932659680e-04,7.976452163038017310e-04,1.462295502424240112e-01
-1.517240700741816495e-01,-1.547636377231011995e-01,-2.927123939683099474e-01,-2.916088437624995543e-03,-8.947499849723280054e-04,2.602139559555018480e-04,1.395941227674484253e-01
-1.535766901893963754e-01,-1.515166366253741792e-01,-2.944775391699220313e-01,-6.043538245465209131e-03,1.342348800431901685e-03,-1.733150733683113103e-03,1.423781812191009521e-01
-1.435585435897149542e-01,-1.470550008175823264e-01,-2.888339507032047782e-01,-6.229037540817547632e-03,1.723564498514580223e-03,-1.817977438419219466e-03,1.440293341875076294e-01
-1.291159393582937409e-01,-1.478314487973680369e-01,-2.682984826125361932e-01,1.882466783728154250e-02,-1.884581274227313530e-02,-1.388582191386337518e-02,1.407985240221023560e-01
-1.603891860172147188e-01,-1.358055660009355459e-01,-2.921082117338119066e-01,1.275746736430373408e-03,-1.095558400694838288e-04,-1.962814366096233415e-03,1.456326246261596680e-01
-1.320744903050702912e-01,-1.629131243078099922e-01,-2.975697693767483387e-01,1.664020693978536525e-02,-2.837740206146256716e-02,-6.069261279189917986e-03,1.630738675594329834e-01
-1.268839882281244391e-01,-1.406164925965257828e-01,-2.631306620680489150e-01,2.069259763517570724e-02,-1.757488814623665851e-02,-1.952081298875769227e-02,1.422501206398010254e-01
-1.725326914310604254e-01,-2.040687418736062964e-01,-3.637270441465666471e-01,-4.141901095357092971e-02,5.164976277891401846e-02,-5.908317007368036472e-02,2.348242998123168945e-01
-1.412778931030152785e-01,-1.386549782924771379e-01,-2.807534363147543566e-01,5.418511966256167080e-03,-5.121086806681589320e-04,6.764381340969138207e-04,1.411254107952117920e-01
-1.151631160912534868e-01,-1.678928519438323830e-01,-2.858682195505495294e-01,-2.383659217338724573e-02,7.072785594584836411e-02,-2.092122757296759755e-02,2.023471146821975708e-01
-5.626217129941578354e-02,-1.425048404372382671e-01,-2.698647076830775760e-01,-1.919497606538901266e-02,5.097494816644523863e-02,-3.699139632461863857e-03,2.087676078081130981e-01
-1.499654301117166466e-01,-1.369552080100492619e-01,-2.874676396920364807e-01,1.246696629599802026e-03,-1.153892418512614189e-04,5.407237899463610432e-04,1.444667428731918335e-01
-1.333641322286272801e-01,-2.152676308295540242e-01,-3.035084030593957483e-01,-2.679055969427041745e-02,7.851722291156468247e-02,-6.406607543300511277e-03,2.061384022235870361e-01
-1.895104723605524621e-01,-2.190470941342770872e-01,-3.658079729942383951e-01,-1.661371148827618313e-02,1.063387633903385698e-01,-2.577079389825158440e-02,2.519726753234863281e-01
-1.328179585729476475e-01,-1.567584055089153994e-01,-3.129193658746176609e-01,-3.892587302714142772e-02,4.042738882330992184e-02,-2.553725620552762740e-02,2.002578377723693848e-01
-1.545575975744970521e-01,-1.439053139563030714e-01,-2.787625068067668410e-01,1.493548068244637296e-02,-1.141886869085670386e-02,-1.105353110640038862e-02,1.352416872978210449e-01
-1.430340699314342490e-01,-1.456008535312491303e-01,-2.561665465934334085e-01,1.580207440959074255e-02,-1.838634395620799764e-02,-2.283698603198860283e-02,1.258691102266311646e-01
-1.479994119917973916e-01,-1.611844398263666545e-01,-2.572531984847443165e-01,1.133756643861962010e-02,-1.850791993860264467e-02,-1.060012074539284574e-02,1.114453151822090149e-01
-1.464062849010629441e-01,-1.421080684461296095e-01,-2.590442602036376329e-01,1.373778946348365101e-02,-1.253063905387298040e-02,-1.181996273719465064e-02,1.210218816995620728e-01
-1.192021180171801698e-01,-1.466621657040796389e-01,-2.408807909535446434e-01,9.392062902052002171e-03,-1.811401847089266076e-02,-1.039554289525789453e-02,1.174378097057342529e-01
-1.443965597596878481e-01,-1.705446418722654789e-01,-2.928465237389940024e-01,8.283755382909298304e-03,-1.966090571708480755e-02,-6.509366834535010478e-03,1.425905376672744751e-01
-1.522833835967982719e-01,-1.522774676245871872e-01,-2.697213407404225882e-01,2.431084966809605313e-02,-2.253727607154884169e-02,-2.613738320264771473e-02,1.383426785469055176e-01
-1.524489759188977500e-01,-1.216259724476734805e-01,-2.829237125727368518e-01,-1.230960809910181322e-02,7.588907933309092975e-03,-2.250029800539001326e-02,1.553752869367599487e-01
-1.639864595398891067e-01,-1.286888075180437352e-01,-2.939354525775623728e-01,-1.190398190830027278e-02,3.519044160352814178e-03,-2.273647278576793745e-02,1.572662293910980225e-01
-1.472781447071034033e-01,-1.182687963805998943e-01,-2.721434152871786694e-01,-4.833853220402648324e-03,2.502616218278661681e-03,-9.799069608813514021e-03,1.429408639669418335e-01
-1.803989763017682102e-01,-1.245373060836945517e-01,-2.977057442739928228e-01,-1.773857570877335416e-03,-6.390716811122735229e-04,-3.858714832662199501e-02,1.670686304569244385e-01
-1.542134979638558889e-01,-1.100698249552829605e-01,-2.400161107585525588e-01,4.659521702122578629e-03,2.240379920879914232e-03,-3.562785301135208693e-02,1.303327232599258423e-01
-1.630486955268031501e-01,-1.260499929865223079e-01,-2.858158160665197900e-01,-5.423130817594826875e-03,-6.418971032765785839e-04,-2.247818349597016999e-02,1.502936035394668579e-01
-1.446009347900808761e-01,-1.480803844760456844e-01,-2.500757753835228803e-01,-2.158478269799284782e-02,-2.716273832222989085e-02,2.400973714667406500e-02,1.269275695085525513e-01
-1.569328733188171676e-01,-1.320969183793788138e-01,-2.448327383615868380e-01,-9.619519221046136243e-03,-1.150320695513754390e-02,1.699605657063999256e-02,1.098520010709762573e-01
-1.325185829462855458e-01,-1.729566422302653839e-01,-2.611724260259733477e-01,-8.043851686387900810e-03,-4.148688812296830869e-02,1.996152879834053526e-02,1.397766768932342529e-01
-1.074800848511370949e-01,-1.404484586654098643e-01,-2.096870246744196309e-01,-7.842845666459425172e-03,-4.371526059432761374e-02,9.657497340025963245e-03,1.198373064398765564e-01
-1.503586050434858323e-01,-1.502572467663028932e-01,-2.614293000828451508e-01,-1.407531809161744613e-02,-1.922591510818004099e-02,1.336557730076325286e-02,1.207772120833396912e-01
-1.266272353548787422e-01,-1.268416495762725860e-01,-2.248068899714323332e-01,-1.093179336409162879e-02,-1.487689213258075807e-02,1.515849807188174476e-02,1.064427420496940613e-01
-1.482623326075690473e-01,-1.385647271507363665e-01,-2.874190563596383252e-01,1.228826022356372533e-03,3.532988822317255991e-04,6.787891301012005196e-05,1.442672610282897949e-01
-1.682168063518379997e-01,-1.443270732051188665e-01,-3.016344822132941417e-01,1.721926457651321712e-03,2.625119623838695522e-03,-8.310963882209840324e-05,1.469282060861587524e-01
-1.600873583246091858e-01,-1.300541866190343399e-01,-2.884137710941661048e-01,3.010895992641253894e-03,1.898430837819547025e-03,6.565687645899606108e-03,1.462567746639251709e-01
-1.588271911643012180e-01,-1.321605296979937449e-01,-2.905341988209412807e-01,9.736087226294137657e-05,1.688644559375330773e-03,6.780347640432633294e-04,1.469013094902038574e-01
-1.493295180185799931e-01,-1.303756750359253702e-01,-2.824530679667236477e-01,6.683355650912960666e-04,6.789292043828949307e-04,5.517201763987410017e-04,1.435547471046447754e-01
-1.440259270081364062e-01,-1.441608784463527804e-01,-2.872105393578708865e-01,5.719300363601555193e-03,4.199752432252244587e-03,-4.005414417358829247e-04,1.436455845832824707e-01
-1.404113692331577790e-01,-1.316981915626881383e-01,-2.765355200978192318e-01,5.135298739575197037e-03,2.812113409628593831e-03,3.923440789073858598e-03,1.412118822336196899e-01
-1.456608331330573047e-01,-1.362605927864772859e-01,-2.842098132429863311e-01,4.689274532447484760e-03,9.453431902691191097e-04,1.289358444607121516e-03,1.437366157770156860e-01
-1.448400231163882723e-01,-1.401285881317572979e-01,-2.808263333579815724e-01,7.531038026643573080e-03,2.193757140973562423e-03,3.770786266534438980e-03,1.392207145690917969e-01
-1.379502676811819317e-01,-1.084094699329093830e-01,-1.883309275438003749e-01,-1.244556347533478519e-03,4.594319642062807789e-03,6.449724062300034311e-02,1.320863664150238037e-01
-1.484126218575817502e-01,-1.336431040878289511e-01,-2.482335757072259563e-01,8.020599564620280869e-03,4.095404287964596150e-03,2.611168006034495902e-03,1.091807261109352112e-01
-1.583647313593464778e-01,-1.252568002658335788e-01,-2.741318307335297022e-01,-4.628510883498470306e-03,-1.944855325442727562e-03,1.073236397576778252e-02,1.369384229183197021e-01
-1.459337130774534252e-01,-1.379113709031875024e-01,-2.860542014557865831e-01,1.764524700900188319e-03,-1.541765463689309017e-04,2.512404874861170253e-04,1.443322747945785522e-01
-1.401539558802002428e-01,-1.028632668876279244e-01,-2.392065160450997097e-01,-9.468729502394289746e-03,-8.300997293432636759e-03,3.316324725088563158e-02,1.366412639617919922e-01
-1.825590461747469972e-01,-1.516724055178802766e-01,-2.721489756416720085e-01,-2.722425187474415871e-03,-6.162085969059320940e-03,4.016130558837223419e-02,1.293151676654815674e-01
-1.834677839853329218e-01,-1.476916713408969739e-01,-2.643305310461508406e-01,-1.719473678082173752e-03,3.783357345224066452e-04,4.322780218471554414e-02,1.277767419815063477e-01
-1.644576518301342216e-01,-1.192658573583939008e-01,-2.534319848409534170e-01,-5.336158133082699075e-03,-3.263636378510557847e-03,2.636101397723022988e-02,1.272074133157730103e-01
-1.337373605522789444e-01,-1.499154820546794442e-01,-2.441876525968282030e-01,-6.404210204941184273e-03,-2.837928568491338184e-03,3.579341744501837990e-03,1.042101681232452393e-01
-1.342682481914483639e-01,-1.462372762379179347e-01,-2.872414777005994346e-01,-4.793299868997159818e-03,-2.908133556443479213e-03,1.815405227725306030e-03,1.477068364620208740e-01
-1.342171595881798407e-01,-1.518231188583362701e-01,-2.748343330238312010e-01,-1.244639694264735447e-02,-2.416362780470636754e-02,1.545357220961308953e-02,1.433188021183013916e-01
-1.426023627047032505e-01,-1.551794324025133343e-01,-2.748133669163989601e-01,-1.007808074681272592e-02,-6.797513765870706950e-03,4.702189144906574435e-03,1.283929795026779175e-01
-1.288363027323378984e-01,-1.513656153624092504e-01,-2.773748647461387606e-01,-7.621344213552815570e-03,-8.540997356430249723e-03,4.292934907086162245e-03,1.402611583471298218e-01
-1.307987218540702101e-01,-1.536971698639934825e-01,-2.823095898347406374e-01,-6.824115641210005620e-03,-7.176654983883430650e-03,3.799869757392427844e-03,1.426466107368469238e-01
-1.257713280759854002e-01,-1.487614053025514138e-01,-2.734754593265511513e-01,-6.612974471493792555e-03,-6.094692791116562529e-03,4.279634710783989000e-03,1.387331932783126831e-01
-1.455632407598845823e-01,-1.881098014996783196e-01,-2.946043684959552822e-01,-1.200194403343170756e-02,-4.087920174831113224e-02,1.425860088786252283e-02,1.540703475475311279e-01
-1.519872007697066207e-01,-1.672771391635179961e-01,-3.265569522054589946e-01,-8.895298864955370616e-03,2.824725576885916793e-03,-2.042214387058671234e-03,1.682648211717605591e-01
-1.246758310508029599e-01,-1.358613813250472979e-01,-2.852156178263032249e-01,-1.664591515999856719e-02,4.183040081103088503e-03,-3.562490178683698668e-03,1.581905186176300049e-01
-1.400980157967764983e-01,-1.582475490528430506e-01,-3.005568580494966668e-01,-1.416650186231479223e-02,-6.793170023779254892e-03,-5.024255993758388987e-03,1.548561751842498779e-01
-1.370995636050546529e-01,-1.510740860472241376e-01,-2.813290415645017806e-01,-7.319077498563710503e-03,5.849297904595348978e-03,-2.377654846898614917e-03,1.387883275747299194e-01
-1.412940334253095787e-01,-1.422683227782033100e-01,-2.789660627598926079e-01,-7.727259246896063700e-03,3.402896261832128767e-03,-2.104542253518960210e-03,1.380129009485244751e-01
-1.304762426309932777e-01,-1.534228100754360391e-01,-2.134239377143131167e-01,-2.758907591924799219e-03,-9.863965350776465746e-03,6.263084347802027121e-03,7.704483717679977417e-02
-1.550725778692127466e-01,-1.700361542024015904e-01,-2.482494059362671535e-01,-2.956141503117624622e-03,-1.476180717681454917e-02,2.559568204215150670e-04,9.050810337066650391e-02
-1.681091948657229274e-01,-1.650491380404674746e-01,-1.984093263226738568e-01,-4.196769110593335204e-03,-1.591510236639982756e-02,4.536543712373871350e-04,4.281949996948242188e-02
-1.715571288134971895e-01,-1.721013174949982405e-01,-2.078990700827457183e-01,-1.705373614180317977e-04,-1.763987199119395818e-02,4.617997834213643897e-03,4.794597253203392029e-02
-1.357883661622930616e-01,-1.407200757088042375e-01,-1.847982318597347906e-01,-9.458756838041461334e-03,-1.532882067436803705e-02,4.847962107626876960e-03,5.681915953755378723e-02
-1.328349495209988351e-01,-1.402298388666926854e-01,-1.945110949377030218e-01,-5.575044005020976176e-03,-1.535661732771587303e-02,7.506897907787309955e-03,6.612355262041091919e-02
-1.443791965818721490e-01,-1.539274430100838753e-01,-2.152472215107850695e-01,-7.455593983112417805e-03,-3.163924407036727057e-03,5.419337025859770687e-03,6.871446222066879272e-02
-1.288488239273762048e-01,-1.442448279592210003e-01,-1.875602839449512227e-01,-4.890640959525692326e-03,-1.870242267612066273e-02,3.945826154820979322e-03,6.283276528120040894e-02
-1.578251092878625028e-01,-1.450281285328855752e-01,-3.015948583772806724e-01,8.025210487697925082e-03,-3.603639625570866437e-03,-1.113643982033163003e-03,1.513579040765762329e-01
-1.445905439345872567e-01,-1.403582370593170203e-01,-2.936855377961568037e-01,1.471356357173345987e-02,-8.061256196338450856e-04,3.325633808269662286e-03,1.535019278526306152e-01
-1.682750667001822187e-01,-1.693483644943591382e-01,-3.538447120249856304e-01,1.445452676907698665e-02,3.458532468196594614e-03,3.081562414793619521e-03,1.868936717510223389e-01
-1.592090621145080820e-01,-1.444070296309717949e-01,-3.048211602299903955e-01,1.443842828421256809e-02,-5.093178492910703861e-03,2.858598582883038232e-03,1.559008657932281494e-01
-1.942900015398398572e-01,-1.815178493919654135e-01,-3.708000364528036275e-01,1.832476377132941439e-02,-4.853470957887246764e-04,3.772572032861191711e-03,1.860755980014801025e-01
-1.298365978738590942e-01,-1.595389591637196292e-01,-2.863432025547366644e-01,-2.847696991040926662e-03,-1.994780167957126756e-03,-3.611803968123982692e-04,1.440992355346679688e-01
-1.240980558868207961e-01,-1.693611195859112406e-01,-2.581963367064837866e-01,-1.684509871169482045e-02,-3.838098351062473740e-02,9.380490169260562172e-03,1.396278887987136841e-01
-1.297898826899620550e-01,-1.615639945157991419e-01,-2.768055077797977326e-01,-6.564770295468406840e-03,-2.841806098185619897e-02,7.022703423827566724e-03,1.437076926231384277e-01
-1.275882852733160600e-01,-1.552290178467940762e-01,-2.911128874777600961e-01,-5.696755538896679412e-03,-9.371817474393745809e-03,2.517800699979649490e-03,1.528536379337310791e-01
-1.173752966490382715e-01,-1.644834815369752568e-01,-2.917140267560311973e-01,-6.985625293627550740e-03,-4.001553968701179742e-02,6.459990194482092413e-03,1.716849207878112793e-01
-1.200921604886973637e-01,-1.620400344360936329e-01,-2.769261219990832856e-01,-1.404381562888308566e-02,-1.821207987032366291e-02,2.262688523455733732e-03,1.462181508541107178e-01
-1.475013795305147313e-01,-1.850036947072284388e-01,-3.332561667641839032e-01,-1.288444475118770069e-02,-2.993882266748156343e-03,-1.228416724679686281e-02,1.729816496372222900e-01
-1.294630760474880793e-01,-1.465557057326589141e-01,-2.897656928048842895e-01,-1.248741235607398782e-02,1.017512365550596884e-03,-8.021783364918452005e-04,1.540192663669586182e-01
-1.403733121686637775e-01,-1.280735994312710568e-01,-2.593924045475114459e-01,9.680939364344815987e-03,5.174245394892233556e-03,1.105425151271031969e-02,1.284865587949752808e-01
-1.350250925549096315e-01,-1.363627905701089715e-01,-2.758704080972290140e-01,1.166128855891357050e-02,9.472946146491214442e-03,7.994571055226534079e-03,1.432469487190246582e-01
-1.456900701471373072e-01,-1.564770008878029472e-01,-2.892005962649107365e-01,1.234643444376803262e-02,9.614167511642068842e-03,1.179169720550176867e-02,1.425318270921707153e-01
-1.371588946166428791e-01,-1.105204291398087652e-01,-2.072034275675691817e-01,1.603319028396585702e-02,2.003753537156941975e-02,3.583759246273909155e-02,1.153707951307296753e-01
-1.355410408475334061e-01,-1.258090136088300393e-01,-2.273889653324368543e-01,1.392730176119659144e-02,1.961581632109852744e-02,2.218149178095564847e-02,1.124140843749046326e-01
-1.399104885516670449e-01,-1.328368319390176022e-01,-2.341126195781612629e-01,1.516865396458551458e-02,2.136993643903958850e-02,2.000966762746184818e-02,1.133661270141601562e-01
-1.364864786688592124e-01,-1.489202948431214701e-01,-2.351345103725663577e-01,-9.384139335452498787e-03,-8.889462652536884654e-03,3.012851148596056017e-03,9.585378319025039673e-02
-1.326873772985077693e-01,-1.473071270949631861e-01,-2.792369024274847789e-01,5.114433622468536611e-03,-5.491345836521414545e-03,-2.673709930414099305e-03,1.404932886362075806e-01
-1.378870203974652819e-01,-1.480714263457055813e-01,-2.872663167884774715e-01,1.685471601309422628e-03,-5.932555676198492329e-04,-8.764165647316276512e-04,1.445975154638290405e-01
-1.390606868630915316e-01,-1.531513314357559608e-01,-2.891216343341078687e-01,2.565389067677107358e-03,-3.063477190009398403e-04,-4.195572086612132890e-04,1.436068713665008545e-01
-1.378021003982106418e-01,-1.528641281784843264e-01,-2.876022463515492955e-01,4.407596561085956079e-03,-4.474634696727536678e-03,-7.665641360373157045e-04,1.432856023311614990e-01
-1.431510385278249586e-01,-1.485989692293717412e-01,-2.890671851186901176e-01,1.847485478715946497e-03,1.580673408806311118e-04,-4.695705728188290912e-04,1.433081924915313721e-01
-1.274444534027580067e-01,-1.500223343218540228e-01,-2.469952418079680023e-01,-1.476183992341840133e-02,4.401683115375259331e-02,-1.861217265525356990e-02,1.400298774242401123e-01
-1.348864729457355249e-01,-1.483680314792978350e-01,-2.287864182477296615e-01,-8.293252222706362989e-03,-1.081348909985162428e-02,6.676136419513448335e-03,9.178167581558227539e-02
-1.226860068231766798e-01,-1.639392962126414444e-01,-2.863546966426109286e-01,-6.161091814764267822e-03,2.544447577178488018e-02,-1.077353558003526276e-03,1.542628407478332520e-01
-1.471082978768177285e-01,-1.806283252564591379e-01,-3.077745533275605405e-01,-1.218915744964367033e-02,1.623423815774563753e-02,-1.073493405675458173e-02,1.520979851484298706e-01
-1.004723959472037104e-01,-1.526442995283223414e-01,-2.548877526971422558e-01,-6.809946558228600379e-03,3.154836578261663999e-02,-2.094972860428797722e-03,1.471327841281890869e-01
-1.456381834470557579e-01,-1.422446880177276607e-01,-2.897118695646863085e-01,-3.127127806658397359e-04,-5.445430198704735193e-05,2.520232202197356382e-05,1.458010971546173096e-01
-1.214917914776300067e-01,-1.680674553767370905e-01,-2.792580132703854634e-01,-7.165925252353107233e-03,2.496250920153707253e-02,-2.363936533479896619e-03,1.474842429161071777e-01
-1.343251203230702573e-01,-1.344385812201264740e-01,-2.409026228929038727e-01,-1.011964158012633452e-02,-8.088337161751928822e-03,6.899677960906944185e-03,1.095124930143356323e-01
-1.381705716965056507e-01,-1.315709938315221816e-01,-2.738804975906625194e-01,-6.776935444931092394e-03,3.558831162030456040e-03,-2.915286866688784114e-03,1.398486346006393433e-01
-1.411352516161413495e-01,-1.456179423892211278e-01,-2.849858203185479666e-01,-3.572428647830035598e-03,1.470761887996238724e-03,-5.623128118414995498e-04,1.418237239122390747e-01
-1.377802515503920022e-01,-1.400112355180397339e-01,-2.849264893566174073e-01,-2.581409934787465537e-03,8.466828922573083711e-04,-4.838581632058152780e-04,1.461217105388641357e-01
-1.382854364794127988e-01,-1.377458094071264127e-01,-2.807299103823935882e-01,-3.502477165866765135e-03,1.316117490183656797e-03,-1.144257160418542035e-03,1.428758651018142700e-01
-1.431890659922090137e-01,-1.393602210134765040e-01,-2.796548555881454012e-01,-9.413840675821249365e-03,2.655569604784211411e-03,-4.243201843452898067e-03,1.396463811397552490e-01
-1.395820563492692346e-01,-1.388998512917644923e-01,-2.852770943297917583e-01,-2.692000463697036446e-03,4.382828822395555156e-04,-2.422118402083684992e-04,1.461143195629119873e-01
-1.300863995038829546e-01,-1.089304395727941910e-01,-2.573744084480358851e-01,-1.855483018169593393e-02,1.862106508882407224e-02,-2.414601641738631579e-02,1.522001326084136963e-01
-1.539227351377722430e-01,-1.461232305917166130e-01,-2.802851284476847726e-01,-1.339036910416683407e-02,1.614795748927199542e-02,-1.111299914427372332e-02,1.367644816637039185e-01
-1.494865662442091125e-01,-1.440928412765161704e-01,-3.021348490772173268e-01,-1.463635756760430992e-02,3.792243975509929175e-03,-7.769682962233580986e-03,1.581798046827316284e-01
-1.444313188098992340e-01,-1.354881785653481718e-01,-2.810521253173148271e-01,-5.806426300849521459e-03,4.667499867093725247e-03,-2.305556258739507088e-03,1.419489085674285889e-01
-1.463793673306904852e-01,-1.312395086067403849e-01,-2.853733480174122095e-01,-1.192139373144040712e-02,2.837021213965420369e-03,-1.433405996180652821e-02,1.507308632135391235e-01
-1.520418521079324736e-01,-1.503987258345922118e-01,-2.919768582972463999e-01,-7.069717224321352828e-03,4.878233722736866063e-03,-3.979728585808102524e-04,1.415494531393051147e-01
-1.528426048885649369e-01,-1.586984634892723844e-01,-2.942306157383610676e-01,-1.884993466425628978e-03,3.759686019952024013e-04,-2.593228270029209869e-04,1.385936439037322998e-01
-1.318844825179698033e-01,-1.480642180364668548e-01,-2.844004943143650932e-01,-1.373362380213060839e-03,3.358350905971019631e-04,-5.523656573623404118e-05,1.451249569654464722e-01
-1.474120204710894222e-01,-1.437537230306386304e-01,-2.863565882506103888e-01,-4.331639771234747915e-03,1.221323962713256623e-03,-1.644051250690169250e-03,1.410537064075469971e-01
-1.354142888052354277e-01,-1.387224032722694511e-01,-2.753723592257611985e-01,-2.523750206183649272e-02,-2.998226479099685288e-02,1.857748710604925635e-02,1.574140340089797974e-01
-1.566861463126491827e-01,-1.361105926754314355e-01,-2.878674326317366416e-01,-1.029972404799736792e-02,-8.988864563714608902e-03,1.353364906762406089e-02,1.464279443025588989e-01
-1.370013081570960467e-01,-1.166032405867328536e-01,-2.039996013795183638e-01,-1.044659525465874497e-02,-6.321341166276068721e-03,2.852484337613561335e-02,9.570663422346115112e-02
-1.585761684455105625e-01,-1.524730473624962834e-01,-2.826714798172749177e-01,-1.745116595580266036e-02,-1.542450960207309048e-02,1.461410587180080739e-02,1.358762532472610474e-01
-1.682947787974668763e-01,-1.652833977958277356e-01,-2.929643692471172733e-01,-1.472069111228959878e-02,-1.691004366931093267e-02,1.710695522746408237e-02,1.353251338005065918e-01
-1.584753574303751356e-01,-1.415761503320633607e-01,-2.887652429158268363e-01,-8.049546939896356362e-03,-2.133533251130505671e-03,7.444847728131582035e-03,1.408444195985794067e-01
-1.523717000544394795e-01,-1.428103201766156571e-01,-2.678633420038389890e-01,-2.372359033595513450e-02,-1.697329708145452198e-02,2.691745729660258851e-02,1.387816667556762695e-01
-1.597207375487774139e-01,-1.398265712482074929e-01,-2.640051414636278015e-01,-1.614934317884240272e-02,-1.268911235123890494e-02,4.003300774754028207e-02,1.393522024154663086e-01
-1.405852850328084824e-01,-1.068635344863226727e-01,-2.421960777127449282e-01,-1.324947386009840342e-02,-1.371890317258811672e-02,3.092518400748186722e-02,1.372908353805541992e-01
-1.204852380213268792e-01,-1.241949747398596454e-01,-2.172559337345384423e-01,-1.306925565231185742e-02,-1.936097384773516686e-02,1.588300756306982794e-02,1.068321317434310913e-01
-1.309226758326429985e-01,-1.627692663305148613e-01,-2.860907167743473867e-01,-2.633535996956954707e-04,-3.440620975337858357e-03,1.998994200883827399e-03,1.421177834272384644e-01
-1.335905175914122445e-01,-1.665007841489645202e-01,-2.927149542426227824e-01,-4.181357483161458888e-03,-9.391584007613376639e-03,7.976545621959534905e-04,1.465803831815719604e-01
-1.334752729487804213e-01,-1.575714122887811874e-01,-2.919970619972704351e-01,-3.950174111455884325e-03,-2.158857122223483208e-03,7.731371639373291194e-04,1.481641232967376709e-01
-1.384147907257337051e-01,-1.628737591044735478e-01,-2.993778509511225705e-01,-1.258199805969865710e-03,-6.313102407170363521e-03,8.015490213513484568e-04,1.506539136171340942e-01
-1.506967172407854827e-01,-1.655615688247090711e-01,-3.032732662374976740e-01,6.116880759303464175e-04,1.259929655064400853e-03,-1.618634144059770278e-03,1.457610577344894409e-01
-1.379773138745269967e-01,-1.675685119247840305e-01,-3.029389065402992021e-01,9.572154417736879195e-04,-2.455026495291892912e-03,1.841667023946057550e-03,1.524387151002883911e-01
-1.435723362420408544e-01,-1.696867658746688268e-01,-2.182268254640891969e-01,7.411463981508346031e-03,-6.712297188328894548e-02,-8.282710989613877375e-03,1.348806023597717285e-01
-9.993160278140085506e-02,-1.286194809260415017e-01,-1.132929030447567403e-01,1.982662586506895187e-03,-6.581528701630270928e-02,4.625889742721980488e-03,1.170006692409515381e-01
-9.543988600026923064e-02,-1.334959271926807745e-01,-2.017726774644487686e-01,-4.457790000637913003e-03,-4.170181337301131358e-02,9.127575627611871079e-03,1.193105056881904602e-01
-1.508677745653072555e-01,-2.788275869646053007e-01,-4.344940228033118412e-01,-1.672006087242720179e-02,8.587945187948642367e-02,-9.755801596581195612e-03,2.894388437271118164e-01
-1.638752050256294668e-01,-1.498835888330172228e-01,-2.985381071617411730e-01,1.246604049212336057e-02,-6.408661466839560457e-03,-1.366852234336084215e-02,1.461640149354934692e-01
-1.607652643290325423e-01,-1.410153947678343400e-01,-2.973386563618676259e-01,1.631287859399626131e-02,-1.067672052447131426e-02,-1.612788909482256589e-02,1.538190096616744995e-01
-1.352864700732767100e-01,-1.182379060223228834e-01,-2.527656603237257715e-01,1.926846311523311428e-02,-1.956932956131439069e-02,-3.338226942447022200e-02,1.473115384578704834e-01
-1.257457542973787201e-01,-1.162603409886004413e-01,-2.381582489286697690e-01,2.262673500805129079e-02,-3.028144218606534585e-02,-2.922752340039529509e-02,1.436745226383209229e-01
-1.593974877782090849e-01,-1.571876018305395362e-01,-3.169923305155706861e-01,2.544269470981118386e-02,-1.811363938001915239e-02,-2.622978007361284961e-02,1.737227439880371094e-01
-1.450883855912407927e-01,-1.405887606992937411e-01,-2.920889066656708888e-01,1.227116584342241058e-02,-9.294862186654482758e-03,-1.086693991390884524e-02,1.528268456459045410e-01
-1.393595184183250568e-01,-1.171762183425862219e-01,-2.663442184308802974e-01,1.948766566791407251e-02,-1.571322499579149573e-02,-2.367909020381445129e-02,1.516452282667160034e-01
-1.513155609353355469e-01,-1.644589862442939476e-01,-3.051668348797847430e-01,2.683357840549224337e-03,7.167668613912518130e-04,2.113171360470936038e-04,1.477975249290466309e-01
-1.545479005592295674e-01,-1.358490374672473300e-01,-2.912212929736012201e-01,1.439681587324789964e-02,-1.239981037908522224e-02,-1.346402706866239342e-02,1.523542255163192749e-01
-1.413626309930852976e-01,-1.388253384935483892e-01,-2.731501669631893336e-01,1.549842673293927962e-02,-1.452388532442737239e-02,-1.003546563406452000e-02,1.391558200120925903e-01
-1.459755649946774259e-01,-1.539784624914759537e-01,-2.884979771551608452e-01,4.114223051626815855e-03,-2.323712257386833114e-03,1.035524760543748979e-03,1.389470696449279785e-01
-1.520740892351055695e-01,-1.302066862700924921e-01,-2.819148773914033623e-01,8.902197551457250238e-03,-6.883700955689760377e-03,-7.983749869680865571e-03,1.440389454364776611e-01
-1.407544583413067596e-01,-1.299302480581309149e-01,-2.768291494566681998e-01,5.735763594435429324e-03,-3.149478905500728478e-03,-3.503818512867038892e-03,1.423786133527755737e-01
-1.613581612444806301e-01,-1.828541336497243597e-01,-3.504508219260233370e-01,1.107917850856590669e-02,3.760853348949782463e-03,3.434376887301612228e-03,1.805531531572341919e-01
-1.574078889276095683e-01,-1.373850886887406642e-01,-2.839618959673115284e-01,7.092283581795589577e-03,4.630761791391367751e-04,-4.609788810063214504e-03,1.384416520595550537e-01
-1.547990824998484727e-01,-1.618689786007689035e-01,-3.073814697585402489e-01,-7.718397809266118632e-03,3.275558793058663365e-04,-4.791415196229777693e-04,1.497743576765060425e-01
-1.618755410057840238e-01,-1.672440582239471119e-01,-3.113206355811393711e-01,-6.469355136842836959e-03,8.549395196288050265e-04,-1.600499053650399029e-03,1.472949236631393433e-01
-1.430400383652133955e-01,-1.414951205306215765e-01,-2.884592646764249646e-01,-5.048605614287207752e-04,2.215828972424831923e-05,-1.245403069297412496e-04,1.462005823850631714e-01
-1.499875017172044855e-01,-1.498168339009534056e-01,-2.887725844419589682e-01,-2.833384535944228656e-03,3.060943946469751203e-04,-1.799033910005137609e-04,1.389585435390472412e-01
-1.499528527082139018e-01,-1.496184081660134890e-01,-2.866379173294020810e-01,-2.101062629908874088e-03,-4.202180546767499245e-04,6.070614949033884737e-05,1.369029432535171509e-01
-1.533749663036459432e-01,-1.562023615604361815e-01,-2.934164131649311114e-01,-1.997478803731645488e-03,6.355262916600928598e-04,-9.607131290219057644e-04,1.387068778276443481e-01
-1.507601089331978561e-01,-1.449366338439198876e-01,-2.875502746107909680e-01,-5.327108654211755619e-03,-7.622999403053540616e-05,-8.335057211828150823e-05,1.400972157716751099e-01
-1.529947195910504321e-01,-1.556171054925526154e-01,-2.901499032182172644e-01,-1.835526625997289680e-03,-4.338635113078115097e-04,3.323658373640463138e-04,1.359034627676010132e-01
-1.484232549272778701e-01,-1.493345775971258449e-01,-2.883800255337803375e-01,-4.596817276085810901e-03,-8.023713052673691823e-04,7.874380488520639195e-05,1.397373378276824951e-01
-1.417653736649490681e-01,-1.368981644091625816e-01,-2.462214473804486825e-01,-1.179030189861940761e-02,8.907106819146779625e-03,-7.848003988379105220e-03,1.108286380767822266e-01
-1.448000552277072528e-01,-1.232762743657769555e-01,-2.667205557978423736e-01,-5.285523508770956225e-03,7.022233627096971043e-04,-6.176368306221512346e-03,1.347286254167556763e-01
-1.460432248422062207e-01,-1.652699546002000253e-01,-3.009306950203696762e-01,-1.464391583186864035e-03,8.777316536969627467e-04,-2.829791121768505339e-04,1.462559401988983154e-01
-1.310672230132970129e-01,-1.620572452335447833e-01,-2.952435452831734808e-01,-6.224002870636246437e-03,-9.470376668208999385e-03,1.688677336900748591e-03,1.523819267749786377e-01
-1.242140748515644377e-01,-1.574890081433470701e-01,-2.842425488727198246e-01,-2.399199028834982008e-03,-1.032286408393090840e-02,1.423198187217518699e-03,1.474260091781616211e-01
-1.450557884550371934e-01,-1.650354590277858802e-01,-2.978477100805095312e-01,-2.621692003632468577e-03,4.909090880445812001e-05,4.052500999207001974e-04,1.439199298620223999e-01
-1.555123195831120964e-01,-1.328464190704296555e-01,-2.818100339674652899e-01,-8.494165175134299126e-03,4.790387896873525217e-03,-7.265889563025423360e-03,1.406100392341613770e-01
-1.520779786854875582e-01,-1.290995432461611025e-01,-2.747092516376098414e-01,-5.410040510552403814e-03,1.514392246025805886e-03,-4.968682070499177116e-03,1.362096220254898071e-01
-1.460380530254055398e-01,-1.358775454262514115e-01,-2.866338931699505266e-01,-6.484428188991617041e-03,3.010835577089674125e-03,-3.105670443885934998e-03,1.465647518634796143e-01
-1.464355308150971091e-01,-1.403360855687209585e-01,-2.843315702664189204e-01,-5.689631982075313982e-03,4.267823793892948359e-03,-3.793066432380410441e-03,1.417340189218521118e-01
-1.532754870378883194e-01,-1.356950195166987949e-01,-2.897203433108581083e-01,-5.091517745775978564e-03,1.215088470341171194e-03,-3.782092996197602627e-03,1.464586853981018066e-01
-1.309041702235377858e-01,-1.504130463375817350e-01,-2.898281799221641419e-01,-1.545718008397316788e-02,-2.311347079232643764e-02,3.411752275748120185e-03,1.577700823545455933e-01
-1.377629599293829776e-01,-1.445402236833938092e-01,-2.779115275502163085e-01,-1.816127841302383680e-02,-1.407985529107874320e-02,1.294749339357424006e-02,1.443082243204116821e-01
-1.394337009853864884e-01,-1.556558921307061305e-01,-2.960849558719271246e-01,-9.018625327081032997e-03,-5.842575916191011104e-03,5.288360448625063943e-03,1.506381779909133911e-01
-1.513472521261606529e-01,-1.657086669403233792e-01,-3.058430556397496725e-01,-4.534736998273396387e-03,1.518266093496470001e-03,-1.682251586906928931e-03,1.480997055768966675e-01
-1.549001958740756912e-01,-1.697899070311074399e-01,-3.161382658793231437e-01,5.292814271617017792e-03,-2.962361801686667732e-03,-9.107967487845286970e-04,1.546980589628219604e-01
-1.500714385786262040e-01,-1.532130191495403859e-01,-2.945829812433932160e-01,-9.242151970275306813e-03,-5.269849986176210199e-03,7.927949315713198530e-04,1.441558599472045898e-01
-1.565087859525568781e-01,-1.400653838824564013e-01,-2.939327448960182276e-01,-5.846565371722933432e-03,1.591346269356996770e-03,6.335731115644012423e-03,1.471258550882339478e-01
-1.479129066792850833e-01,-1.512000903582147449e-01,-2.952075120493770632e-01,-5.775407046385251306e-03,-7.389869379481406667e-04,-4.420750216711624215e-04,1.460294872522354126e-01
-1.422280450062218260e-01,-1.462539969511588711e-01,-2.903085938637695596e-01,1.242515414082450429e-03,1.655008136209008612e-04,-4.204481865809087332e-04,1.461271196603775024e-01
-1.433630878786597562e-01,-1.481269849107321734e-01,-2.895221631137511187e-01,-4.843271716085943701e-03,-1.538072488627505782e-03,1.365905639403908666e-03,1.441247761249542236e-01
-1.543125394280581153e-01,-1.314042417833274079e-01,-2.788136271665364041e-01,-1.038381188814749105e-02,-6.246549244680245361e-03,1.579903208765395112e-02,1.416572481393814087e-01
-1.460748557906614842e-01,-1.271946149780217306e-01,-2.605439913011884934e-01,-8.682523606263608043e-03,-2.713984987333036957e-03,5.076072232986094876e-03,1.262790858745574951e-01
-9.602071583727789239e-02,-1.541060549325549700e-01,-3.134693357766744626e-01,2.739991003520242385e-02,-3.785781849250359488e-02,-2.262245884034921883e-02,2.147427946329116821e-01
-1.465939564612526724e-01,-1.592508518504157922e-01,-2.903577375716382414e-01,-1.182110968887931796e-02,-9.019264673648575217e-03,3.199855961808342752e-03,1.403659284114837646e-01
-1.356905593585986669e-01,-1.520172927974882127e-01,-2.739556801988218826e-01,-1.174619682079798035e-02,-2.088012254815291985e-02,1.552711752147479564e-02,1.398982554674148560e-01
-1.715551502866072830e-01,-1.788439441547855502e-01,-2.651838171066865923e-01,-2.012022224467199458e-02,-5.462263662294805644e-02,4.218708984078690244e-02,1.537583619356155396e-01
-1.498863023780501180e-01,-1.372093079045706987e-01,-2.834839216766955605e-01,-7.197380418578811986e-03,-3.874363502733321144e-03,4.307961076161248223e-03,1.412754803895950317e-01
-1.426167556437783479e-01,-1.468387710982510530e-01,-2.856241995097953401e-01,-1.091646752935386024e-02,-7.871036451812347609e-03,2.928286278605458145e-03,1.429484784603118896e-01
-1.232702466413975462e-01,-1.453829392133382803e-01,-2.184302315912710624e-01,-2.045134595924891566e-02,5.434838097017272163e-02,-1.382762123592105527e-02,1.346468478441238403e-01
-1.315392072926971911e-01,-1.644551042852590017e-01,-2.833743643476958063e-01,-1.160253268954848996e-02,3.117198156787199734e-02,-2.838157004101261871e-02,1.577182710170745850e-01
-1.309616466733696527e-01,-1.468586279623284030e-01,-2.810410914144713113e-01,-1.835745484493214383e-02,1.688825843963256967e-02,-1.504567567905756680e-02,1.514479815959930420e-01
-1.544550449472458231e-01,-2.309850264047922375e-01,-3.710261819308227071e-01,1.033098459390445305e-02,-9.076493635621914191e-02,5.979664414268185714e-03,2.476448863744735718e-01
-1.462413751143507024e-01,-1.841693770945512787e-01,-3.347685250335108997e-01,-1.768739365050530157e-02,-3.192577118903097699e-02,1.831127236237763481e-02,1.866353750228881836e-01
-1.785116498210241875e-01,-2.631825129190937251e-01,-4.909846192682094657e-01,-6.739271758082464314e-02,-4.758498358157100400e-02,3.021320765305366904e-02,3.186031877994537354e-01
-1.110863374633218881e-01,-1.763194302451323581e-01,-3.028992364758609224e-01,-5.173682140892006676e-02,-5.187442994265739626e-02,2.750436538425505770e-02,2.165812402963638306e-01
-7.867372922743853803e-02,-1.453333311233335201e-01,-1.825191120360640240e-01,-1.208209395870057240e-02,-6.606188720545620729e-02,2.835714763799489571e-02,1.557174026966094971e-01
-1.077437163813698001e-01,-1.460832472474654087e-01,-2.632106088386809706e-01,-1.730638508887645186e-02,-3.811095104660516125e-02,2.020654320601094484e-02,1.617409288883209229e-01
-9.978023053229972961e-02,-1.575211798685861586e-01,-2.609758616111041429e-01,-2.566811348552452965e-02,-5.305767694929942879e-02,1.102815930680637463e-02,1.754913926124572754e-01
-1.311347850028076467e-01,-1.721754392735811157e-01,-3.112051318412931145e-01,-4.005340380020524366e-02,-8.429340748558090957e-02,6.876898362503836015e-02,2.589130103588104248e-01
-1.370430574932192946e-01,-1.325366222964947660e-01,-2.757115557135677575e-01,1.178450641328868814e-02,-8.358393698740144290e-03,-1.046103889118885598e-02,1.443214267492294312e-01
-1.485552621109327009e-01,-1.316803176318506741e-01,-2.756461230789564176e-01,6.054472094134507459e-03,-1.887199950185931016e-03,-3.883033817596735250e-03,1.369211077690124512e-01
-1.426320777623985847e-01,-1.178790571336376658e-01,-2.473457461648863043e-01,1.750705101605818173e-02,-1.833591848820372017e-02,-3.528180409410813095e-02,1.408267319202423096e-01
-1.545151985954767437e-01,-1.390165493669212882e-01,-2.605620787641823588e-01,1.384348882209552635e-02,-6.568747391633942938e-03,-1.173172681802488876e-02,1.193608194589614868e-01
-1.537677194840666728e-01,-1.207142464764695972e-01,-2.660341332302887940e-01,2.488571704106268701e-03,-1.731343364802465784e-03,-7.612589250729817451e-03,1.326970309019088745e-01
-1.608839382768054160e-01,-1.331361122882629977e-01,-2.750782894578402971e-01,4.505870376216553064e-03,-1.286289954947958955e-03,-1.052560074040173425e-02,1.318225115537643433e-01
-1.398729919548821754e-01,-1.391213217218756903e-01,-2.865780853939368100e-01,-1.434684050956780985e-03,-1.910651573630770786e-04,-9.202384815028181477e-05,1.471038162708282471e-01
-1.539816243237699944e-01,-1.289697806238235822e-01,-2.772350856090318727e-01,8.227971773819798759e-03,-4.769931427713505930e-03,-8.403952799870577015e-03,1.392229795455932617e-01
-1.539433630752377324e-01,-1.345376819726352424e-01,-2.857405063039986648e-01,4.158801631838271104e-03,-1.509395347543047040e-03,-6.595055067401794490e-04,1.427049636840820312e-01
-1.544060576878960311e-01,-1.241492005587337133e-01,-2.753763508663477078e-01,4.741505155175650132e-03,-1.883888350589690971e-03,-1.006447556960370950e-02,1.399694383144378662e-01
-1.501314232367989832e-01,-1.267792393430972608e-01,-2.788110643279622658e-01,4.038611957253107621e-03,-1.127952502999049738e-03,-1.508921157645328522e-03,1.420151591300964355e-01
-1.487854237844350724e-01,-2.025444975503017386e-01,-3.269682102657723299e-01,5.279424290979613243e-03,4.485436507342933227e-02,-2.671269350183715779e-03,1.766379624605178833e-01
-1.455983341067608183e-01,-1.476396862566916324e-01,-2.926197655522931873e-01,-6.274911989558924590e-03,3.429807547754833781e-04,3.753013293808421443e-05,1.464166194200515747e-01
-1.564728240846617047e-01,-1.641464826464800186e-01,-3.071599091335043274e-01,-4.762784946336212459e-03,-1.573237785962085895e-03,-1.033563354822227627e-04,1.472571641206741333e-01
-1.524532403264244884e-01,-1.520965981535130629e-01,-2.983969877670890058e-01,-9.184323346553160614e-03,-4.393004747753732897e-03,2.599828625259529256e-03,1.472514271736145020e-01
-1.385205247108444726e-01,-1.535125268495838302e-01,-2.897642604302924085e-01,-3.143855569377192617e-03,-8.396813413823420993e-04,-7.973474587444344831e-04,1.444494873285293579e-01
-1.405363984569348301e-01,-1.483765032102677406e-01,-2.932168550154794495e-01,-1.234470552758668536e-02,8.711774602589627756e-03,-5.891702295608161610e-03,1.515412628650665283e-01
-1.495939699638775267e-01,-1.529846389312934374e-01,-2.902285541948552705e-01,-3.443759237304366057e-03,-1.441958772887582242e-04,-6.468330233642741438e-04,1.391029655933380127e-01
-1.580300628172799926e-01,-1.555496911400175986e-01,-3.028933120070389506e-01,-6.581485453253865629e-03,2.274625200901277990e-03,-8.810820382525913529e-04,1.466241031885147095e-01
-1.405218957878160146e-01,-1.378137460587064433e-01,-2.714941823015479261e-01,-9.653982897143274788e-03,5.872250194480210447e-03,-4.822430779023801142e-03,1.340469419956207275e-01
-1.435734610045300286e-01,-1.648853232746942954e-01,-3.294822898323376270e-01,-1.571657524377908025e-02,1.046271161513814482e-02,-4.849888896668441002e-04,1.792327165603637695e-01
-1.416073970052973696e-01,-1.466576309936035716e-01,-2.894790242815358794e-01,-9.543298399021957158e-04,-2.565132381555079439e-04,-5.270682514198378596e-04,1.454252302646636963e-01
-1.425083274495093644e-01,-1.599579775419081584e-01,-2.853614438932627340e-01,-1.203017769015169922e-02,-1.207469394400497581e-02,4.010304639445145397e-03,1.383422762155532837e-01
-1.478687663613105774e-01,-1.727078828361670593e-01,-3.273632295496490818e-01,-2.005871385791482137e-02,-3.411128660051776507e-02,2.734694252805618467e-02,1.879311650991439819e-01
-1.300969526578421576e-01,-1.641345627359577231e-01,-2.828694058098863429e-01,-5.395584026584336439e-03,-9.336271921194377876e-03,3.330412317999921577e-03,1.402857154607772827e-01
-1.001989277016828161e-01,-1.262272173310169388e-01,-2.295261846508953041e-01,-1.619761445928833560e-02,-3.420799793735652267e-02,2.049828063494976704e-02,1.399822533130645752e-01
-1.104484131346228637e-01,-1.506765702546249419e-01,-2.393141708558969294e-01,-1.329799551703719079e-02,-3.551032922819423454e-02,1.446746675883112815e-02,1.340971291065216064e-01
-1.226938325391825901e-01,-1.471486744040257644e-01,-2.366791717004945172e-01,-5.178959308096751576e-03,-2.047538485445989792e-02,5.690465847778789464e-03,1.106279194355010986e-01
-1.748576359435538297e-01,-1.996649573555363544e-01,-2.877503077655063635e-01,-1.637233286327518036e-02,-4.503688731641386500e-02,1.937882256005834386e-02,1.362913548946380615e-01
-1.015594148101509886e-01,-1.472256058605297957e-01,-2.267487659753831819e-01,-6.235854017434447859e-03,-3.375411611390888994e-02,4.649030892696582630e-03,1.250614821910858154e-01
-1.244799171320654096e-01,-7.685701062748205581e-02,-2.343345219641143617e-01,-2.345839018510138471e-02,1.868395201008448553e-02,-3.726081141096295596e-02,1.625756174325942993e-01
-1.860077803173074695e-01,-1.561752587218762645e-01,-3.499498358805822051e-01,-8.620700480783857192e-04,1.927047861702991117e-04,-4.328338753201896837e-03,1.808765530586242676e-01
-1.880947866024776927e-01,-1.610507949768240077e-01,-3.538256016408238280e-01,-5.659387639337916040e-03,8.586486833539817842e-03,-2.172732043827072749e-03,1.816907674074172974e-01
-1.673014894885735959e-01,-1.461251900646193536e-01,-3.049084992097015889e-01,-6.291041186847375934e-03,-5.414559337854538395e-04,-3.339579450334259538e-03,1.498372554779052734e-01
-1.998527651202533506e-01,-1.623616027666913153e-01,-3.487919771989838047e-01,-9.709818608780101251e-03,-8.799670268876251880e-03,-6.929053727329948995e-03,1.727181524038314819e-01
-1.562545448733910214e-01,-1.357674262167818113e-01,-2.943366254645098934e-01,-2.208674803322061096e-03,-1.232278040707910629e-03,-2.222510663994398551e-03,1.494968086481094360e-01
-1.861420741442874338e-01,-1.438808680460020306e-01,-3.209959190726635603e-01,-1.257680083464066123e-02,5.338405004285309147e-03,-1.460449215366972642e-02,1.639223992824554443e-01
-1.599297312557129702e-01,-1.354248560816359581e-01,-2.978312889916022721e-01,-3.266549492939115843e-03,-2.775857960978868376e-04,-2.430332077944650192e-03,1.518108993768692017e-01
-1.469938690078936294e-01,-1.129719965919514096e-01,-2.605870629556688578e-01,-1.206644330007737749e-02,2.448936854823078723e-03,-1.460063137662963653e-02,1.379125714302062988e-01
-1.678469131835791939e-01,-1.344649004802442316e-01,-2.819638084296675062e-01,9.725130208518145691e-03,3.671898888717856514e-03,2.336226051544108145e-02,1.410958766937255859e-01
-1.496965591184992450e-01,-1.518473948769163417e-01,-2.913307868664586353e-01,-1.544835467818325573e-03,-1.450843462490390224e-03,7.356428655668458471e-04,1.406248360872268677e-01
-1.487203800903121320e-01,-1.523117784442231115e-01,-2.911024639884798315e-01,-3.660383287084180339e-03,-8.102258769843151669e-04,7.860085857369448819e-04,1.407772153615951538e-01
-1.472755389392956527e-01,-1.582358679274649960e-01,-2.989218002447137090e-01,-6.045722099806581304e-03,4.806707789656942389e-04,1.416518844351273381e-04,1.468503624200820923e-01
-1.439588233642015158e-01,-1.548999463308566304e-01,-2.903642340410118039e-01,-2.529909432954773919e-03,-8.245536355465873132e-05,-2.604813686876874374e-04,1.413217484951019287e-01
-1.367818504816651071e-01,-1.518796994727410477e-01,-2.880697535786193031e-01,-3.190806334446391612e-03,4.919666855270907538e-04,-6.859714450898862347e-04,1.444456130266189575e-01
-1.522813008828990122e-01,-1.372224709649091934e-01,-2.962206389916531846e-01,-1.122518606719249100e-02,-5.073624490849622769e-03,1.372407907580459711e-02,1.553484797477722168e-01
-1.630755187580928134e-01,-1.506342629725323790e-01,-3.039171234034931945e-01,1.441241320956811699e-02,-6.176984327334279420e-03,-1.183859501394670700e-02,1.513323038816452026e-01
-1.488785089893454594e-01,-1.450111194019948480e-01,-2.884730465696437873e-01,5.262889177269125356e-03,-8.621132494979972041e-04,-2.284779472750413272e-04,1.418694406747817993e-01
-1.601792556714868032e-01,-1.567698372353092118e-01,-2.999884272677166841e-01,9.331680905011248417e-03,6.466239910533597450e-04,3.942218793751966870e-03,1.426324546337127686e-01
-1.524409428037439840e-01,-1.518117921381973712e-01,-2.998834456702935691e-01,9.081802406814777975e-03,-2.148329793727161291e-03,-4.319881098081326289e-03,1.488278210163116455e-01
-1.487703902173077020e-01,-1.458625270537149965e-01,-2.952199226962285428e-01,6.058678272843368191e-03,-2.456891847276978288e-03,1.170117874694147846e-04,1.483578383922576904e-01
-1.506654462630129532e-01,-1.328071397143100740e-01,-3.021722358438225786e-01,1.731635203892831903e-02,-9.014362459408826675e-03,-9.256523126476963459e-03,1.654668450355529785e-01
-1.149820248483514051e-01,-1.352179111074514883e-01,-1.960098012413806767e-01,1.579211753895927439e-02,-2.847945257696019722e-02,-1.759974351506625109e-02,9.719046205282211304e-02
-1.315893745108581148e-01,-1.331438469932240409e-01,-1.736213018472683167e-01,1.298274802435627623e-02,-2.741794916480573552e-02,-1.775453332001952073e-02,7.355487346649169922e-02
-1.641997720461283450e-01,-1.627215951443613251e-01,-2.266330506090010188e-01,1.335757114842934905e-02,-3.602141836905616706e-02,-1.935448224022916219e-02,9.769378602504730225e-02
-1.556082590300385537e-01,-1.733291531246221318e-01,-2.653626609537255154e-01,1.579026849859013412e-02,-2.003890224927780406e-02,-1.667880894346862597e-02,1.149014011025428772e-01
-1.661347554048004660e-01,-1.743186544637190527e-01,-2.324876620274127226e-01,9.519764496944464749e-03,-1.745008533191492323e-02,-5.876979489967021873e-03,7.221959531307220459e-02
-1.471741210041467296e-01,-1.439832478089936585e-01,-2.866556392761829830e-01,-1.026385236117604086e-02,-2.307338811678489535e-03,7.282463382766429967e-03,1.428336650133132935e-01
-1.277941566279912067e-01,-1.575453697014619625e-01,-2.722703067397118093e-01,1.699421825888366294e-02,-2.069578667384363094e-02,-1.201202370464740134e-02,1.415781527757644653e-01
-1.122428993369554151e-01,-1.499797582943586949e-01,-1.974898146713987557e-01,6.326569868961340153e-03,-3.230826856055851043e-02,-3.304426768257759123e-03,9.358666092157363892e-02
-1.215586614388088488e-01,-1.613140479903983349e-01,-2.157798515766219949e-01,6.084262484060743749e-03,-3.372882969529458763e-02,5.379418872457554946e-04,1.011787950992584229e-01
-1.177436379823130902e-01,-1.069136908547905079e-01,-1.334283558884380994e-01,1.306550780993221555e-02,2.196719372895889269e-02,3.104151745159405493e-02,7.337360084056854248e-02
-1.713884122516494690e-01,-1.592162080538100377e-01,-2.295401140581630473e-01,1.310726657530905670e-02,1.630500263755996215e-02,2.861219661379741860e-02,8.947933465242385864e-02
-1.105681735862687476e-01,-1.291144253664196773e-01,-2.181656627053904507e-01,1.514870143163840263e-02,3.466028793850305101e-02,1.813093836188600996e-02,1.233057230710983276e-01
-1.174907333338602866e-01,-1.546572124750611732e-01,-2.581442107892397697e-01,-8.394856369000756185e-03,3.056664196449057971e-02,-7.242852328483163557e-03,1.382349729537963867e-01
-1.361045383096803618e-01,-1.454019980771669163e-01,-2.857504991889948109e-01,-6.023013829668161234e-03,2.819870749328293787e-03,-1.561166748996948780e-03,1.457018405199050903e-01
-1.345707185490509494e-01,-1.430368339739305772e-01,-2.822724733570269873e-01,-5.708548691412219933e-03,2.894179784476761958e-03,-2.617073975659754519e-03,1.441542953252792358e-01
-1.426895077165011294e-01,-1.537910536378072346e-01,-2.894172046753253902e-01,-8.659621732706752201e-03,3.718369562372908672e-03,-9.856780582370968172e-04,1.424525082111358643e-01
-1.428813911128338499e-01,-1.553951145082161089e-01,-2.940768534355638342e-01,-4.356586063444427628e-03,2.275662118844805435e-03,1.088754723626158226e-04,1.455924212932586670e-01
-1.554315045101358761e-01,-1.857553856860577057e-01,-3.476555290743314486e-01,-1.677610129110917656e-02,1.077337499089695526e-02,-6.771438913415953401e-03,1.826764941215515137e-01
-1.571727902861598802e-01,-2.111841976629877382e-01,-3.560596136320585137e-01,1.047819387832485925e-02,2.018195738354022079e-02,-1.975385165517854705e-03,1.824666112661361694e-01
-1.509475097838846314e-01,-2.000422373386479824e-01,-3.511307758512284272e-01,-3.829371709811183605e-03,1.931003290716409859e-02,3.910659106656367255e-03,1.840222626924514771e-01
-1.481819607153046503e-01,-1.860745281770330439e-01,-2.895060396139265135e-01,9.126744790733833448e-03,2.053907751279093752e-02,9.014905507134525486e-03,1.334633678197860718e-01
-1.451651559045553930e-01,-1.899606770139491141e-01,-2.939074999407670363e-01,1.302073144347663759e-03,2.378824051819451724e-02,-1.816447165209676131e-03,1.384938955307006836e-01
-1.290858206955659004e-01,-1.711012168112016896e-01,-2.885844733785998262e-01,-1.891896250656294881e-03,1.606438777783581601e-02,-2.870121668944846348e-03,1.459909528493881226e-01
-1.285212437317957979e-01,-1.696414906501734765e-01,-2.696085273221454637e-01,-1.523572478481217442e-02,3.240008710786011076e-02,2.244337715130146997e-04,1.401455700397491455e-01
-1.295766799896192756e-01,-1.663716698528178162e-01,-3.173594961770800915e-01,1.538600647040481127e-02,2.531734704555788779e-02,1.545689836172906353e-02,1.818148195743560791e-01
-1.217045772749954513e-01,-1.500197028876464056e-01,-2.619671942032088530e-01,1.462666466929928369e-02,-2.684959236329110058e-02,-1.261843832617097656e-02,1.406626850366592407e-01
-1.275183340218183914e-01,-1.708930609826403990e-01,-2.595648755049929646e-01,1.545679335995505874e-02,-2.650522248106663287e-02,-3.134373733759711345e-02,1.391466110944747925e-01
-1.596404710899298196e-01,-1.812752051591859648e-01,-2.680717124527256523e-01,1.135499325368115667e-02,-2.934672136572297543e-02,-2.070724780085982097e-02,1.188965216279029846e-01
-1.597806661379354842e-01,-1.444349470397928714e-01,-2.915184679124155354e-01,1.415606524018914875e-02,-6.093186965884472665e-03,-1.410561451656548379e-02,1.446423828601837158e-01
-9.013818361372677446e-02,-1.271055953499798941e-01,-2.092457231449355581e-01,8.067913592643633294e-03,-4.117517911958398086e-02,-5.066135224391162158e-03,1.284856200218200684e-01
-1.452030115560196122e-01,-1.795301171135176843e-01,-2.370444750965810532e-01,-2.232708615150653421e-03,-4.318829731771643005e-02,-6.740249521206224254e-03,1.104874983429908752e-01
-1.455774787163663653e-01,-1.510893954677856588e-01,-2.913516198629946263e-01,-4.193739072827076982e-03,8.057630284372121424e-04,-1.012926843612072490e-04,1.432889699935913086e-01
-1.434878151479447306e-01,-1.434378780636983985e-01,-2.862035367331917657e-01,-4.051515682932589277e-03,3.748143957704850216e-04,-8.040726578221382009e-04,1.429213434457778931e-01
-1.430839138623494211e-01,-1.369849321432487499e-01,-2.781436880137034828e-01,-1.026181998661202487e-02,3.132583365351769220e-03,-6.860528087716714386e-03,1.399593651294708252e-01
-1.506320630880527423e-01,-1.479728179551851874e-01,-2.920451129871525775e-01,-5.193416826828694231e-03,7.994476253881988058e-04,-5.558139332299647135e-04,1.430543065071105957e-01
-1.376611734091878758e-01,-1.454861257955146203e-01,-2.855244655116044861e-01,-6.536108246675349960e-03,3.338469418248000628e-03,-2.223327493911578939e-03,1.447210609912872314e-01
-1.711627026108565319e-01,-1.513865096982026370e-01,-2.726179874759435129e-01,-8.206393632976852551e-03,2.822537315552629128e-03,-1.947523534834874614e-02,1.185515150427818298e-01
-1.695882153427645533e-01,-1.621541949931301907e-01,-2.617314229400096171e-01,-1.696383181511828403e-02,2.324934886317239421e-02,-2.711371139899005148e-02,1.179872900247573853e-01
-1.277961793563463511e-01,-1.313499012441849967e-01,-2.145847026539552116e-01,-1.241794423505063194e-02,2.618524529812215132e-02,-2.290958472448683184e-02,1.064453795552253723e-01
-1.358172050321960200e-01,-1.286475635104397663e-01,-2.019799110079983917e-01,-1.345767173226663713e-02,1.744568612237251681e-02,-2.660843005909242082e-02,9.210688620805740356e-02
-1.466764351976420078e-01,-1.576336273002940103e-01,-1.984725737105860754e-01,3.601911016235906458e-03,4.852313045678751519e-02,-6.244306788299833211e-03,9.723547846078872681e-02
-1.422925747932397567e-01,-1.709659042647975191e-01,-2.625371530338243553e-01,-1.125165351908008309e-02,3.122869393030968527e-02,-4.488352779417214070e-03,1.232843697071075439e-01
-1.210342548114431427e-01,-1.365986697227883073e-01,-2.506619403713059024e-01,-1.015951987147114925e-02,1.594069996143576348e-02,-1.240741877532925037e-02,1.286926865577697754e-01
-1.378188142135123861e-01,-1.659486309858516917e-01,-2.538617260740816395e-01,-1.092894817256065410e-02,3.392431392995946815e-02,-9.007488341277987767e-03,1.226673796772956848e-01
-1.357213893816968941e-01,-1.328457900593143781e-01,-2.285107052153767249e-01,-2.659516679291855021e-02,3.425805934917895701e-02,-3.113938916921606126e-02,1.320480555295944214e-01
-1.548759517542178110e-01,-1.478929449153610354e-01,-2.508335192786569912e-01,-1.495302917622708637e-02,3.172743358409166325e-02,-2.274947509415331179e-02,1.231664493680000305e-01
-1.448159253930750290e-01,-1.658200727579610123e-01,-2.777759776486354859e-01,-1.514677739776502940e-02,4.017593531493265230e-02,-1.794614227065448667e-02,1.477282047271728516e-01
-1.477354499663713627e-01,-1.428356723316151766e-01,-2.895303632749852696e-01,-7.807837883651751795e-04,-7.824595918157784013e-05,-1.118846865432327609e-04,1.443137377500534058e-01
-1.604222606902093728e-01,-1.819958321732194351e-01,-2.903589780810953425e-01,-2.075950709534870459e-02,4.056948273394902355e-02,-2.557077615358440206e-02,1.507908701896667480e-01
-1.356756083227974030e-01,-1.304249589551275679e-01,-2.406177582078120047e-01,-2.119504391219356743e-02,3.494901870682944750e-02,-3.645381027954393283e-02,1.434924006462097168e-01
-1.525080883233211893e-01,-1.405814286862406837e-01,-2.940821629314476771e-01,-8.364790406369709136e-03,-3.750818950891365595e-03,4.136919030493645989e-03,1.489208787679672241e-01
-1.579637915763347500e-01,-1.487568469234857305e-01,-3.003328144173409431e-01,-2.968598642730835811e-03,1.336525028549343419e-04,9.299357387389185683e-04,1.472873985767364502e-01
-1.858384205849414605e-01,-1.665334728342383053e-01,-3.501885974625927878e-01,-1.033334290562343098e-02,-5.150496798367447740e-03,7.773787725576766956e-03,1.764586269855499268e-01
-1.618684551819415951e-01,-1.485315312789913245e-01,-3.002231802835437779e-01,-1.451033384738792485e-03,1.071416875058262778e-03,1.986705467974369393e-03,1.455566287040710449e-01
-1.642484845623822798e-01,-1.457494437351099792e-01,-3.000558269734969752e-01,-2.772265791809895748e-03,1.266475765395436897e-03,1.713077016968215377e-03,1.460644602775573730e-01
-1.560074656798271231e-01,-1.360674854482249452e-01,-2.911543308950679254e-01,-6.166432366364403561e-03,-2.106685275775978022e-04,4.597693249465489851e-03,1.467471569776535034e-01
-1.853021825133333300e-01,-1.577683592596424433e-01,-3.413677973282529532e-01,-5.082029929627140084e-03,-6.078192495600679042e-03,2.753249565723436126e-03,1.721125394105911255e-01
-1.535662867396598852e-01,-1.248665689362654097e-01,-2.502225715773808146e-01,-5.699024586214024822e-03,-6.748620110631362023e-03,1.331115051408894752e-02,1.170715466141700745e-01
-1.486866343529282819e-01,-1.199002945255986247e-01,-2.430392893591983017e-01,5.369181344443498026e-04,7.692110234507189108e-03,1.284478821774229403e-02,1.145446673035621643e-01
-1.508418407157324503e-01,-1.424165352481661373e-01,-2.743772539178759295e-01,-8.472000829452864396e-03,-6.999970673471246109e-03,7.090554090373408190e-03,1.299459785223007202e-01
-1.473473911372231715e-01,-1.491374891550482917e-01,-2.899834458075492005e-01,-4.856467890733504045e-03,-6.157261794057193724e-04,6.291655431858633653e-04,1.420070379972457886e-01
-1.431047650350001088e-01,-1.237984891226713013e-01,-2.591212129535752640e-01,1.332253344017117307e-02,1.415693741148077271e-02,1.578860413690581083e-02,1.339923888444900513e-01
-1.583598352240958018e-01,-1.267890003244887820e-01,-2.817819013462705691e-01,3.897132931731067066e-03,5.573877767498942306e-04,2.946588782619107526e-03,1.421224921941757202e-01
-1.455739237976611533e-01,-1.454591342527366826e-01,-2.911410525617149636e-01,-3.487488237240704038e-03,8.108402936258386859e-05,4.854076633977743053e-04,1.457522809505462646e-01
-1.486500964617673004e-01,-1.143239957814549956e-01,-2.670499250275505942e-01,2.263091834457742115e-03,3.798398461400710746e-03,1.405872365135579262e-02,1.411119997501373291e-01
-1.422054635625660257e-01,-1.000148040990789522e-01,-2.281053263497312411e-01,9.458297563115550775e-04,7.802365714010396289e-03,3.034735335731200342e-02,1.254241168498992920e-01
-1.524482435407104597e-01,-1.252258050481108997e-01,-2.702564438947799852e-01,-4.594651127882464978e-03,-1.067012105679769835e-03,6.917878993147811087e-03,1.343025714159011841e-01
-1.459374568926627425e-01,-1.459932187314583740e-01,-2.874542762606790980e-01,1.762661878758764109e-03,9.994417247549679283e-05,-8.314145752759111282e-05,1.415220648050308228e-01
-1.313888919918887455e-01,-1.495599860072680809e-01,-2.843764920208621816e-01,-2.579808291845103047e-03,-1.300798170114082471e-03,1.506545772836819907e-03,1.448699235916137695e-01
-1.374990516422792963e-01,-1.441986202524599414e-01,-2.836431493471913701e-01,7.662267959170154276e-03,4.543622777499659905e-03,3.942736783196868974e-03,1.439047604799270630e-01
-1.464742272350831875e-01,-1.431685710991571214e-01,-2.862876749707132795e-01,5.645389797799305574e-03,1.173242688367649245e-03,1.473391186957899576e-03,1.418702155351638794e-01
-1.530398526300788542e-01,-1.510205677146613801e-01,-2.912251031154085568e-01,3.502871839996796795e-03,-2.530031826964050930e-05,1.292378421113658652e-04,1.393382102251052856e-01
-1.551061331917615860e-01,-1.518689986330413189e-01,-3.078102685937200156e-01,1.459999622500940918e-02,1.717475653672979072e-04,-4.846622832457199177e-04,1.564085334539413452e-01
-1.727983927574756606e-01,-1.617336167038206929e-01,-3.584837826121464177e-01,2.865299176535485506e-02,-1.796383471930014736e-03,1.393968473757432143e-03,1.978245526552200317e-01
-1.528756639475188361e-01,-1.627100318937870493e-01,-3.063711834106579990e-01,4.855475079165526286e-03,-1.321028501966897651e-03,-6.954164805442478376e-05,1.490772813558578491e-01
-1.502669734963135162e-01,-1.490934464087505518e-01,-2.888553511212662572e-01,2.341066165355986002e-03,-8.112367801631128333e-04,7.352480027884633570e-06,1.392450034618377686e-01
-1.395985888416727272e-01,-1.321101360171691996e-01,-2.777043897048764309e-01,-7.618661917813136786e-03,-3.022090209661435628e-03,4.142887488157830610e-03,1.428863555192947388e-01
-1.447813385947495091e-01,-1.494766383041139512e-01,-2.886139274962789547e-01,5.182564183859748354e-03,-7.651683583241152692e-04,-2.028800270532142786e-04,1.418343335390090942e-01
-1.568242515292974371e-01,-1.584018364779722632e-01,-3.068640074591840738e-01,7.984635699270326015e-03,-2.362696708118001189e-06,-1.640911687073440131e-03,1.499235033988952637e-01
-1.338817092203284376e-01,-1.561748167554535272e-01,-2.869662323228128198e-01,-1.803944659291588370e-03,-8.258491010080762796e-04,-2.564199404082719513e-04,1.432868838310241699e-01
-1.574451471038982864e-01,-1.691918181973255109e-01,-2.336214761781501836e-01,-2.236824603570182219e-03,1.679934496426373908e-02,-3.444613447644517823e-03,7.709253579378128052e-02
-1.331097823957949067e-01,-1.503118787799030409e-01,-2.812387153703777010e-01,-6.808332526679512775e-03,-6.007089437121571757e-03,2.450196808419141930e-03,1.412632018327713013e-01
-1.650473013681055257e-01,-1.770574824957772964e-01,-2.819684288706216235e-01,-1.412942482273689578e-02,9.765821553297963920e-03,-1.683259846141263796e-02,1.189352571964263916e-01
-1.287841554841753777e-01,-1.608658832456059118e-01,-2.469520628206492707e-01,-7.006698672587882530e-03,5.328784724967771530e-02,-6.357737587567260928e-03,1.413831263780593872e-01
-1.216796980614083257e-01,-1.386435103101789357e-01,-1.728495629760035124e-01,-8.458172310927996804e-03,2.715507860490727621e-02,-1.377568346780716838e-02,7.095220685005187988e-02
-1.243035226704139046e-01,-1.663083850756404969e-01,-2.662207950066273754e-01,-8.710774541730411519e-03,2.641818674497401973e-02,-9.712447499442394480e-03,1.361913830041885376e-01
-1.421439383843603743e-01,-1.668670939296707234e-01,-2.870955023771318837e-01,-7.947957916459559569e-03,1.469667407364583060e-02,-1.267249878450051222e-03,1.374075561761856079e-01
-1.257535765065302957e-01,-1.510506525381630771e-01,-2.524868189201432411e-01,-5.783873838943770496e-03,2.269397063118707217e-02,-1.167152830016090527e-02,1.246970668435096741e-01
-2.323537386466630328e-01,-1.888557648358712426e-01,-2.615977612969456745e-01,-5.112462013133438473e-04,9.977137671302734392e-03,9.803086735121141482e-02,1.820684224367141724e-01
-1.889798917791593036e-01,-1.882198677574958567e-01,-2.527070841890624031e-01,-3.122374841573568455e-03,-3.675681158523243924e-02,4.242202149673181266e-02,1.165825352072715759e-01
-1.856729072540321268e-01,-1.513831680198354235e-01,-2.609415950000049667e-01,-6.403826738808109792e-03,-1.539484476055381044e-02,3.616099841267921000e-02,1.190755590796470642e-01
-1.486720750515397593e-01,-1.221192768701397646e-01,-2.361876923806440209e-01,-1.595908010379014016e-02,-1.584791459905684347e-02,2.513164982387550844e-02,1.187441125512123108e-01
-1.838477685626850877e-01,-1.592251085497660423e-01,-2.906290460132664455e-01,-1.344984062701191051e-02,-2.475479811504449623e-02,5.082332242165042008e-02,1.573781520128250122e-01
-1.454096417202291325e-01,-1.125333033443858821e-01,-1.878840236781313400e-01,-6.334703133083569027e-03,-1.158186471936437437e-02,3.285219811970103293e-02,8.967682719230651855e-02
-9.914726090399729463e-02,-6.509168519120799024e-02,-2.706537712498604531e-01,-4.948461450906446041e-02,-4.832727281789984941e-05,-2.845862289958989329e-03,2.092498540878295898e-01
-1.966701241447233461e-01,-2.172987578942014442e-01,-4.994344954319822061e-01,-5.391676894913485785e-02,-2.626921023459993440e-02,2.278748685595849421e-02,3.133612275123596191e-01
-1.743714181184998768e-01,-1.565407019279569378e-01,-3.436739133424489001e-01,-2.216502836536286478e-02,1.693100973928786043e-02,-2.194933709634516381e-02,1.891539543867111206e-01
-1.795240531214028490e-01,-1.752495985961201597e-01,-3.436932307476859294e-01,-1.653976022533872742e-02,-1.856900529561807036e-03,4.588605027041643171e-03,1.690139770507812500e-01
-1.470852273723336212e-01,-1.562269587448742170e-01,-2.960673352630037725e-01,-6.111284866733387132e-03,-1.766758919956122999e-03,-2.739210847289946489e-04,1.450479924678802490e-01
-1.405676608893580148e-01,-1.545305444272100093e-01,-2.992726631303208040e-01,-9.067029166198305873e-03,-2.537072503928204745e-03,7.118106964638958901e-04,1.530807763338088989e-01
-1.566504523231317947e-01,-1.613420158287108275e-01,-3.292468096196198291e-01,-1.047426994983277453e-02,-2.561569530332703185e-03,3.668341282568364416e-03,1.714379042387008667e-01
-1.447405969958338867e-01,-1.530657405182972164e-01,-2.570257932105646237e-01,1.274742291484376976e-02,9.709970993491539096e-03,1.656215932958617423e-02,1.154804751276969910e-01
-1.479596004095613260e-01,-1.517999221111803743e-01,-1.849964849973836367e-01,5.606878646605360436e-03,2.056555039857405065e-02,2.624880826517617116e-02,6.836945563554763794e-02
-1.312840242783617495e-01,-1.355686774634013991e-01,-1.489449544767502132e-01,3.484670336613628072e-03,1.346116917277564648e-02,1.369867341078324224e-02,3.738441690802574158e-02
-1.591446522366360694e-01,-1.378011756462699244e-01,-2.703110266431679176e-01,1.140474175118317071e-02,4.921459265402192834e-03,1.132590319818574907e-02,1.266249567270278931e-01
-1.477579901442086230e-01,-1.594558492965312824e-01,-2.945270830005703999e-01,1.511513647560432279e-02,1.236537143002905750e-02,1.064249355021159790e-02,1.464411765336990356e-01
-1.371692559807364820e-01,-1.275445802944204787e-01,-2.347366593514545186e-01,1.676031007695969258e-02,2.373974092479153031e-02,2.834988094817777332e-02,1.244816631078720093e-01
-1.422413798147529607e-01,-1.626836948996030485e-01,-2.002378743509374559e-01,3.315150050942133973e-03,4.080580359045907213e-02,1.619519498013036532e-02,9.171184897422790527e-02
-1.165885303412376034e-01,-2.175406276727994970e-01,-3.633015466607273924e-01,3.812433977503013743e-02,-2.693962103126681593e-02,-3.652466283564388683e-02,2.381012886762619019e-01
-1.765331983398094051e-01,-1.435968034287309625e-01,-3.266081231497672821e-01,-1.287014495986107607e-02,1.368891586850791604e-02,-1.718464585620443560e-02,1.746288388967514038e-01
-1.142581637039141590e-01,-1.515167349911693273e-01,-3.370546786976253983e-01,6.874098083717330998e-02,1.129360602626323234e-03,-1.413767605950194857e-02,2.398016303777694702e-01
-1.401101419547300941e-01,-1.749150141872941044e-01,-3.326519540455609159e-01,2.068272235287548291e-02,-2.717933821582328713e-03,1.545341482913568498e-03,1.813697516918182373e-01
-1.016202689874549647e-01,-1.416845704426215047e-01,-3.212128933112626816e-01,3.929852990941316848e-02,2.535062427114654141e-02,1.426406454508128384e-02,2.195443511009216309e-01
-1.544335467346060198e-01,-1.793784364545409904e-01,-3.500461172217038119e-01,2.323722109794551169e-02,4.671848431775349995e-03,3.241243526798127787e-04,1.889250874519348145e-01
-1.450742580815476968e-01,-1.671338593382258875e-01,-3.123354233195958507e-01,1.687424301500525109e-02,3.980812767829652529e-03,5.418213406495904494e-03,1.605086922645568848e-01
-1.642336812229841236e-01,-1.368068680731291953e-01,-2.999961887556197859e-01,-5.997125181220658990e-03,-2.062454866762476052e-03,-4.262877214677547426e-03,1.519289165735244751e-01
-1.523978717534975047e-01,-1.131614818041113552e-01,-2.553475537829083541e-01,1.009638224250215648e-02,5.559925015740793501e-03,3.028812528359686729e-02,1.390257775783538818e-01
-1.608325220280160117e-01,-1.362562207308983253e-01,-1.973698155714207203e-01,3.855171723881733320e-03,1.714010996070198384e-02,6.403195428067688655e-02,1.267404109239578247e-01
-1.498360144747931111e-01,-1.378747902581305140e-01,-2.553345376689688528e-01,1.296981629938775277e-02,1.394997882760198697e-02,2.589776131340144893e-02,1.250417381525039673e-01
-1.233220072077839957e-01,-1.602505749921454836e-01,-2.969565646686117000e-01,-1.780453391897757935e-03,-9.495617662260976560e-03,7.106900964066592812e-04,1.593177020549774170e-01
-1.510757504498103088e-01,-1.681252405986430887e-01,-3.076706250731973125e-01,2.968734910383982826e-03,-5.238350030759825367e-03,-1.099575770294970592e-03,1.491816490888595581e-01
-1.451565366532230894e-01,-1.683911225826853764e-01,-3.056026912471361268e-01,-9.235948711199334785e-04,-5.718775877674723424e-03,-1.468501111547766995e-03,1.505392193794250488e-01
-1.513354281592571016e-01,-2.130655540406232173e-01,-3.692867175807112989e-01,2.264805652442568231e-03,3.183636505105035593e-03,-6.932319537732343183e-03,1.950619816780090332e-01
-1.199546844291888570e-01,-1.591571219489784084e-01,-2.858236138945464688e-01,3.815770127178670927e-04,-8.400494350879099750e-03,-2.892450167595043281e-03,1.509440541267395020e-01
-1.282051933579957392e-01,-1.653014662886841679e-01,-3.023520818723630099e-01,-1.530411039982278632e-04,-6.729162535494597787e-03,-6.552369552959253851e-04,1.593118757009506226e-01
-1.521648940483705803e-01,-2.046966352050715865e-01,-3.689383158027308984e-01,-6.747662650027991477e-04,-1.628543665339091638e-03,-3.985376216674993595e-03,1.960096657276153564e-01
-1.687041270972802209e-01,-2.165333002929193673e-01,-3.535695064630958728e-01,-2.040025984049705088e-02,-3.607181596055591966e-02,1.159509233298271040e-02,1.821435093879699707e-01
-1.514747757853532328e-01,-1.998976061139579596e-01,-3.674347727392850427e-01,1.222282732715929588e-04,-2.309473941144959963e-03,-2.929029871494197215e-03,1.963870674371719360e-01
-2.726699687403315586e-01,-2.052218154923289017e-01,-4.995347995562400278e-01,1.674314891663566951e-02,-1.218921495045690792e-02,1.221104603992017451e-02,2.702824175357818604e-01
-1.832395235039903925e-01,-1.447786969770257226e-01,-3.524344693962704334e-01,1.148857772119757890e-02,4.437351549745096636e-03,1.253515820773381043e-02,1.937523335218429565e-01
-1.659586516118688737e-01,-1.375623817706121965e-01,-3.090826287842844966e-01,6.834053674593181318e-03,-4.137709695947085382e-03,8.334259269457189095e-04,1.598391830921173096e-01
-1.611220907656070733e-01,-1.042004999866444626e-01,-3.063769482981275605e-01,1.070588540115162933e-02,2.473513497737511789e-04,1.328721906705761235e-02,1.829777657985687256e-01
-1.833850402094091558e-01,-1.158515943705181739e-01,-3.653406342153735498e-01,1.977969964172298159e-02,9.825704345369164899e-03,4.247189895967445200e-02,2.383938431739807129e-01
-1.799487504322865583e-01,-1.320708825976206757e-01,-3.083440841125565379e-01,4.384926111615197915e-03,-4.538977554943920164e-04,8.140467527443366949e-03,1.586885303258895874e-01
-2.684700344260809168e-01,-1.089922392294020714e-01,-5.166183531448438337e-01,1.743083130127225100e-02,-1.959633203098532037e-03,2.830155200020762971e-02,3.604314923286437988e-01
-2.361588338096299033e-01,-1.069329413747759361e-01,-3.853314807290529331e-01,2.291879029145487551e-02,1.014799556821232088e-02,-4.000762367169900108e-03,2.452785223722457886e-01
-1.383253823296128338e-01,-1.051535589783006153e-01,-1.845539486673849483e-01,-1.875964866189085015e-03,6.543072641859152237e-03,4.013460026301616385e-02,9.870302677154541016e-02
-1.701665920026888823e-01,-1.487117838542353632e-01,-2.230936062873429271e-01,6.175731742207273348e-03,1.148332712253273200e-02,4.161629101827608868e-02,1.005131006240844727e-01
-1.468196890765746110e-01,-1.182119914757676638e-01,-1.924980698640259558e-01,9.644620951839140508e-04,6.239523147289457831e-03,4.092093093227822803e-02,9.672032296657562256e-02
-1.688688398629621668e-01,-1.586206577200111045e-01,-2.160855038577512433e-01,-2.128601785165561405e-03,-9.346643871853039381e-03,2.221683581799529031e-02,6.763696670532226562e-02
-1.486302243321685757e-01,-1.339950983802568052e-01,-1.761711644781510100e-01,2.867856721242296038e-04,-5.931359315713730963e-03,3.035902928365307937e-02,6.516561657190322876e-02
-1.405369227573011193e-01,-1.064002069178363458e-01,-1.768799488958004706e-01,-9.554682826888158745e-03,-1.859148059020927779e-02,5.265046717181182112e-02,1.155585721135139465e-01
-1.423690999869847151e-01,-1.429840216567862532e-01,-2.877009943781798640e-01,6.489029546565117492e-04,-4.049404540974537673e-05,-3.062664842108215289e-04,1.450307518243789673e-01
-1.572196707384240777e-01,-1.491051250719999666e-01,-2.997122696502277917e-01,5.673675623532230608e-03,-4.727371480108408719e-04,1.742294462696059064e-04,1.470495909452438354e-01
-1.519929534083644951e-01,-1.535603612172426746e-01,-2.883876344525931334e-01,-6.966375072603920888e-05,2.650004900798202625e-05,4.744274780741579282e-04,1.356203258037567139e-01
-1.506858908713160916e-01,-1.506166274366373403e-01,-2.893313435273260348e-01,1.818521938693606378e-03,-8.105144386304567435e-04,-4.052127835213905184e-04,1.387247443199157715e-01
-1.512076173319167882e-01,-1.389111237672553956e-01,-2.883135556797820631e-01,-1.728222481407772982e-03,-3.390085006800609593e-04,6.729287956995488309e-04,1.436865627765655518e-01
-1.494073523257357372e-01,-1.469270805666887669e-01,-2.893044651418030799e-01,5.242794912574353164e-03,-3.317688157954400163e-04,-4.625675057264248266e-05,1.414465755224227905e-01
-1.617729982659401322e-01,-1.638580757691600609e-01,-3.115159649249945595e-01,5.520790594049636985e-03,1.604263325823806390e-03,1.578031361154441994e-03,1.490694731473922729e-01
-1.484178263507401341e-01,-1.443728574849722501e-01,-2.884407120754793330e-01,5.209211666802670421e-03,-1.387391183093754810e-04,-4.284836762039920624e-04,1.423768699169158936e-01
-1.482698947051507010e-01,-1.441989321850732642e-01,-2.879745991302923858e-01,5.253610133374746714e-03,-1.914096971245555069e-04,-4.028425925291257976e-04,1.420778185129165649e-01
-1.539485818238796044e-01,-1.783379466259368828e-01,-3.081533252065823958e-01,1.852865772013897322e-02,3.242061321792746170e-02,2.522351115227696935e-02,1.634162962436676025e-01
-1.414471517415073210e-01,-1.493531871537215339e-01,-2.882297456403922764e-01,8.378075554282831891e-03,3.618075085919765770e-03,3.199937646202175891e-03,1.439712941646575928e-01
-1.265541048458227735e-01,-1.193840726846794736e-01,-2.603592912084968791e-01,1.833753537536687156e-02,1.815885391382417169e-02,1.751724219422413908e-02,1.477606594562530518e-01
-1.128319197266260121e-01,-1.513091050725662856e-01,-2.556625254215714182e-01,1.979491523312446651e-03,1.830235697725208360e-02,1.892334050959958332e-03,1.319575011730194092e-01
-1.588865091430753385e-01,-1.561216352500093274e-01,-3.112773992004441159e-01,1.273346611341569581e-02,5.645392983757407078e-03,6.326721452780422091e-03,1.560579538345336914e-01
-1.520841145668274108e-01,-1.474845641659605633e-01,-2.897407261863985117e-01,4.445811810577539151e-03,-7.264626010249669759e-04,-3.836836264427098317e-04,1.402318775653839111e-01
-1.649439969603758716e-01,-1.430009142450571480e-01,-3.053924055619172684e-01,1.264959326599649977e-02,-9.039975167896716285e-04,3.491359529161014354e-03,1.542990058660507202e-01
-1.573143350180418731e-01,-1.556143513566742853e-01,-3.059274275514739516e-01,4.629167516601184577e-03,5.715644912446679821e-04,-3.748196640422465139e-03,1.498292237520217896e-01
-1.619805597491686400e-01,-1.519894050064684032e-01,-3.031054893760520841e-01,4.484540052133800282e-03,-3.153604155763582110e-03,-4.173033672542959837e-05,1.466841697692871094e-01
-1.465148370342868600e-01,-1.429362167790020621e-01,-2.871299797784688801e-01,6.046471071351810188e-03,1.711737993364835552e-03,1.665516707698918696e-03,1.428825557231903076e-01
-1.624451163771135354e-01,-1.453602158565996949e-01,-3.019375807236234777e-01,7.505576135987020170e-03,-6.847717148759601118e-04,8.310519786984140551e-04,1.493510454893112183e-01
-1.436220626559144842e-01,-1.169243157075744444e-01,-2.806453097636775196e-01,1.579383496766380984e-02,-8.165955262457129729e-03,-1.997002475580384948e-02,1.590318828821182251e-01
-1.684302097643244900e-01,-1.334181438654259422e-01,-3.071394104657903523e-01,1.714725153018096387e-02,-2.434694417020464869e-03,4.805311508215623709e-03,1.621472239494323730e-01
-1.709955264965734578e-01,-1.445637268754629279e-01,-3.176265600428375691e-01,5.605325384179214894e-03,1.034562876068255855e-03,-2.059051180781164021e-03,1.618184447288513184e-01
-1.876142164945162616e-01,-1.239834304625681283e-01,-3.324791432936994307e-01,7.326753224328796076e-03,-5.274783961501804293e-04,-2.607204979610696499e-02,1.909285932779312134e-01
-1.659346648183287198e-01,-1.256645758450043726e-01,-3.100887216007822689e-01,1.465619053586141550e-02,8.405910175094167842e-04,-9.785413308116993475e-03,1.707072407007217407e-01
-1.931360803710343299e-01,-1.463986766491390812e-01,-3.207254646882882199e-01,1.404486766025560447e-02,-9.317526304399669987e-03,-2.511733061306182721e-02,1.648377925157546997e-01
-1.657110897744051292e-01,-1.217771490149318209e-01,-2.787788104273538625e-01,1.086476549142229540e-02,-1.411856831240046808e-03,-2.919827051523090841e-02,1.503320932388305664e-01
-1.339481144708547233e-01,-1.422801354647556527e-01,-2.796258195438142136e-01,-3.780468450992686708e-03,-1.937857029029220511e-03,5.597082763098754944e-04,1.418897807598114014e-01
-1.832223480688455475e-01,-1.228229768632067009e-01,-3.243708459361999696e-01,7.796973741608577944e-03,-2.527174889528611013e-03,-2.939956961892320128e-02,1.867908090353012085e-01
-1.498401030188637462e-01,-1.448785655365190661e-01,-2.911670764360317909e-01,3.674179695887504378e-03,-2.771774984243371892e-05,3.372979209605890603e-04,1.440137922763824463e-01
-1.399844253910927927e-01,-1.536441447899575263e-01,-2.978979999320981453e-01,1.202174187115815848e-02,6.515986557875374022e-03,3.587737523714886259e-03,1.535115242004394531e-01
-1.443857458208237798e-01,-1.264651472948291611e-01,-2.722920589823778492e-01,1.353707393477655320e-02,9.404628594321737603e-03,2.849500253476519931e-02,1.490782499313354492e-01
-1.343920480289436392e-01,-1.415225508798597098e-01,-2.754736862493523675e-01,6.851884125255512485e-03,4.264963581270321893e-03,4.026833648402944679e-03,1.385386288166046143e-01
-1.343598216909191456e-01,-1.499295524823853198e-01,-2.863993909585136888e-01,-2.693892721873908987e-03,-2.571689956530912469e-03,1.614983160424719255e-03,1.450540125370025635e-01
-1.422886738856995181e-01,-1.619107949450493966e-01,-2.958705607182125497e-01,-3.927428109807440219e-03,-3.121717346925016907e-04,1.287629375740301056e-03,1.449495106935501099e-01
-1.387465106909514245e-01,-1.590023915811336896e-01,-2.901454982361331147e-01,-3.467955422380861186e-03,-1.765157638499326382e-03,1.136380270536762683e-03,1.425290703773498535e-01
-1.481330483696568778e-01,-1.579403145022515442e-01,-2.955494356820168034e-01,-5.598688385963192932e-03,-9.755895370854298547e-04,-3.004172399750365671e-04,1.431055068969726562e-01
-1.322460770088549342e-01,-1.583160308488710255e-01,-2.913679579951853338e-01,-5.588916377942391121e-03,-9.906532095294540499e-03,-4.777383643356886925e-05,1.491282880306243896e-01
-1.450711492547170633e-01,-1.473966249783811855e-01,-1.499392979917695823e-01,3.351590859030776953e-04,1.135941059788156231e-02,-3.838848827335501063e-03,2.120004408061504364e-02
-1.680278971711055558e-01,-1.605774399073995329e-01,-1.560577947242466068e-01,-3.798621114937335329e-04,5.378620253304719837e-03,-2.247377913859821899e-02,4.137685149908065796e-02
-1.742125367816375892e-01,-1.683192685894603358e-01,-2.037634799860575940e-01,-3.465919548987288819e-03,-1.502315236075739847e-03,-1.049036120989541021e-02,3.814566880464553833e-02
-1.587024555161963557e-01,-1.546322284879590170e-01,-1.760599614916008304e-01,1.622910356332601424e-03,2.307055964642878293e-03,-9.697572272221829937e-03,2.635330148041248322e-02
-1.632700167708622530e-01,-1.531348748928038628e-01,-1.284521931661723737e-01,-2.988787510060523026e-03,1.219458747531917096e-02,3.549332315793847221e-04,3.788692131638526917e-02
-1.814381190965586865e-01,-1.850844051602934526e-01,-1.500501930798097405e-01,-8.126364353690873968e-04,2.096798661094734489e-03,2.210245846457269125e-02,5.092811957001686096e-02
-1.757112854816277880e-01,-1.640241551331261816e-01,-1.382326267532175690e-01,-2.259327467449223582e-04,1.587818990587218718e-02,-2.424792734311015472e-03,4.332855343818664551e-02
-1.621927751962700115e-01,-1.672923118044311042e-01,-1.731795705272199948e-01,-2.135480834370426847e-03,1.484130663202232192e-02,1.722436312302177974e-03,2.782196551561355591e-02
-1.638200169142692286e-01,-1.699928561683843042e-01,-1.759451555680059121e-01,-5.845050080737994704e-04,8.760222602163201047e-03,3.641968599912544322e-03,1.952735707163810730e-02
-1.665591840057234763e-01,-1.660008914359673016e-01,-1.808648640779380035e-01,1.419445146101784181e-03,4.516636003736413177e-03,-2.286763834770280494e-03,1.720125786960124969e-02
-1.386997878236879422e-01,-1.414155808668552949e-01,-6.586544691750949310e-02,8.049832675011516989e-03,-5.814778685897143556e-02,1.186304458764426951e-04,1.258886754512786865e-01
-1.368992897979585677e-01,-1.582606635255234262e-01,-1.984617452930471093e-01,-2.799772403004635157e-03,-3.397776774052119891e-02,2.448991003853900460e-03,8.022568374872207642e-02
-1.394441891373277564e-01,-1.553678206197558753e-01,-1.984421561709048820e-01,-7.657859779215359271e-03,-1.657807883627168341e-02,6.870837983107790786e-03,6.274481862783432007e-02
-1.585289879249856260e-01,-1.756766534112748912e-01,-1.873737351606535595e-01,-1.727037106147605739e-04,-3.391616566415382727e-02,-1.052091788301412999e-02,6.644184887409210205e-02
-1.431361218819460768e-01,-1.536216434424482469e-01,-1.860029990255791243e-01,1.346429706204399761e-03,-1.507691768836532352e-02,-1.582785648288846398e-03,4.682871326804161072e-02
-1.382846519424742737e-01,-1.481780884645338137e-01,-1.815768410940463706e-01,-2.731856415966877867e-04,-1.603900585126715600e-02,4.555049194553079193e-04,4.812879115343093872e-02
-1.573715757123224090e-01,-1.478596228075950147e-01,-2.899625212111546224e-01,9.217725283677603507e-03,-3.481829963190634977e-03,-3.921962438819318747e-03,1.388144344091415405e-01
-1.406098016538061268e-01,-1.300533866333111743e-01,-2.743874151020311847e-01,5.236915456035886977e-03,-1.773845668428817744e-03,-3.397984887673866430e-03,1.398086398839950562e-01
-1.557045203303152603e-01,-1.388217210206149355e-01,-2.885881244743561114e-01,5.439541541294726917e-03,-5.627447621636007908e-04,-3.425290318442573631e-03,1.425182223320007324e-01
-1.833255661862781549e-01,-1.178388756104265384e-01,-3.496289057488635721e-01,-3.935721577136072624e-02,-4.955261609561609389e-03,2.941323161307849918e-02,2.239464521408081055e-01
-2.008322035933746696e-01,-1.638159958195382626e-01,-3.619627252789222593e-01,-1.261292590575829181e-02,-2.754212089999915529e-04,-7.251130115316260609e-03,1.842088699340820312e-01
-1.576190536775537998e-01,-1.451137846274378751e-01,-2.694017472514146361e-01,-9.309801278154934343e-03,-4.896829104302815629e-03,1.058795658511985571e-03,1.199372410774230957e-01
-1.611832819392712002e-01,-1.361239236338894765e-01,-3.061672088567337635e-01,-8.173886123863455949e-03,2.848791509100180672e-03,-3.089721341579584196e-03,1.597965508699417114e-01
-1.464156555025247219e-01,-1.238476258579332689e-01,-2.908768538704387119e-01,-1.429079636376556425e-02,-3.066978678305883402e-03,7.270448556941710300e-03,1.594930589199066162e-01
-1.628804637137291345e-01,-1.432917943110423031e-01,-3.056770664441538221e-01,-9.243910278122513882e-03,-8.960077153692833302e-04,3.304980447517953147e-03,1.544775366783142090e-01
-1.539760412381750709e-01,-1.385828258449952610e-01,-3.043009807973708902e-01,-1.314719903717841316e-02,3.897906145228145942e-03,-5.247767519072243057e-03,1.606090515851974487e-01
-1.486478116531204097e-01,-9.906877161633877160e-02,-3.168807737986028550e-01,-3.060017115760124348e-02,-1.398281951799514207e-02,2.193783273987115826e-02,2.096204012632369995e-01
-1.763497551960011567e-01,-1.556718912868227389e-01,-3.434802480482688214e-01,-2.096891283537474782e-02,3.090153203465813639e-03,1.677986774602861688e-03,1.821325272321701050e-01
-1.349677833892151679e-01,-1.472343626192492982e-01,-2.756012655880328843e-01,-6.133276472525174376e-03,-1.166610142511044631e-03,6.076200490802371752e-04,1.353558152914047241e-01
-1.506796244227724957e-01,-1.633365392372674862e-01,-3.014677388752911025e-01,-3.764640677439201177e-03,-9.202343682027432775e-04,-2.260054493983618823e-04,1.450308710336685181e-01
-1.432132322963693416e-01,-1.632406309194901484e-01,-3.122161809135876043e-01,-1.845448291997885473e-02,-7.546479632688544818e-03,1.486697591139036351e-02,1.656322330236434937e-01
-1.379619606353527095e-01,-1.419511669157588196e-01,-2.752208437589662715e-01,-7.524410497803081348e-03,-2.406605729262704940e-03,1.416349876907985585e-03,1.360206007957458496e-01
-1.432097198133609472e-01,-1.510326626125908511e-01,-2.901533023796702415e-01,9.508541259735566950e-03,-4.028440482752209187e-03,-3.206643486003835173e-03,1.444121003150939941e-01
-1.464884538328452834e-01,-1.429054577335030496e-01,-2.797206857617344777e-01,7.798835465025536796e-03,-3.349413719610223709e-03,-1.631489837187327131e-03,1.358865052461624146e-01
-1.433931184441193940e-01,-1.545319449919026200e-01,-2.825290631232488803e-01,7.454176518031350313e-03,-4.049257310023879515e-03,-1.444570982462119310e-03,1.347412914037704468e-01
-1.421330405122954443e-01,-1.420458181817855214e-01,-2.848552810662556833e-01,3.925625934875159352e-03,-2.935493142573024090e-04,-8.164285193704290530e-04,1.429355889558792114e-01
-1.425207317977970900e-01,-1.484600086499904825e-01,-2.834203506593414024e-01,8.825010570092666970e-03,-4.139059899633286757e-03,-4.312929739112307884e-03,1.392550766468048096e-01
-1.409339269660293270e-01,-1.483751393374506122e-01,-2.885512459232475457e-01,4.075849581173690214e-03,-1.172708987408514715e-03,-6.291765372575193786e-05,1.442281752824783325e-01
-1.402895140533921281e-01,-1.489880545486751973e-01,-2.860759929661113032e-01,4.420514850230454137e-03,-1.192137849340166788e-03,-2.254847372875458194e-04,1.418600380420684814e-01
-1.101127376347017378e-01,-1.409887813002566326e-01,-1.939730476023330541e-01,-9.343682569700882028e-04,3.844781922488849785e-02,5.492777844316401202e-04,9.917073696851730347e-02
-1.336890284720584909e-01,-1.566300592048023022e-01,-2.887310131012676417e-01,1.604712359012897211e-03,1.293712424003213863e-03,9.223713209775397765e-05,1.449836492538452148e-01
-1.474296176024983696e-01,-1.744698523076631258e-01,-2.546166021332541551e-01,7.377724606479322926e-03,2.602472525312695545e-02,6.114514157717960800e-03,1.078386604785919189e-01
-1.304252730235505309e-01,-1.478802267997754716e-01,-1.937709750090415572e-01,9.318241190955686704e-03,3.433342073880056577e-02,1.316076367180270962e-02,8.676470816135406494e-02
-1.370206254411496793e-01,-1.399102590273796909e-01,-2.773744145835822517e-01,-6.524927108952621041e-03,-1.415078653788846581e-03,1.868842812927282030e-03,1.394495368003845215e-01
-1.270504828984292400e-01,-1.727460429423338106e-01,-2.100341732275946005e-01,3.708557028689157733e-03,3.936610961991884872e-02,3.323762181009308741e-03,9.952820837497711182e-02
-1.576351856703584187e-01,-1.733666555396628228e-01,-2.334533498449345434e-01,-3.546162612168897010e-03,1.789431403085412625e-02,-5.643031319587518517e-03,7.679204642772674561e-02
-1.398929717639864623e-01,-1.755324629676462689e-01,-2.750889184783869568e-01,-4.398685667507923336e-03,2.098943366240776584e-02,2.245933622012852553e-03,1.269828677177429199e-01
-1.499120747482970972e-01,-1.400644320336696114e-01,-2.873953549105797700e-01,-2.643249314845069579e-03,-9.961690833661835406e-05,3.665569565044894153e-04,1.427371948957443237e-01
-1.625017119561925349e-01,-1.526432876069223066e-01,-3.075594024579570429e-01,-9.574097540558873867e-03,1.468524893234905010e-03,-2.479648499013461290e-03,1.512245684862136841e-01
-1.332803315856412318e-01,-1.530209970509162354e-01,-2.875208900439185089e-01,-1.143484894360304212e-02,5.029099054110612241e-03,-5.417521758578359645e-03,1.472794115543365479e-01
-1.464170036032218514e-01,-1.559156423355620436e-01,-2.950721295028455593e-01,-3.688027257609961980e-03,1.187657831650988042e-03,8.423090341204415681e-04,1.443042457103729248e-01
-1.790487872568162220e-01,-1.854459433021894144e-01,-3.680188088434951377e-01,-2.548749351247291475e-02,9.467129116058880731e-03,-9.505631964314742487e-04,1.917345821857452393e-01
-1.521473985981211252e-01,-1.245727454322855532e-01,-2.803995257063426894e-01,2.801457904256671530e-03,-1.351722797127949231e-03,-1.875880214385254249e-03,1.441702544689178467e-01
-1.463441031107475254e-01,-1.551643489431883127e-01,-2.913483989845747080e-01,-5.573001870715511147e-03,1.456591539167066815e-03,-4.517275809632570688e-04,1.411567330360412598e-01
-1.338082284745075179e-01,-1.553451425094270200e-01,-2.950840046550963769e-01,-1.884894235379867833e-02,1.482445644176484320e-02,-4.472365461652407122e-03,1.574340462684631348e-01
-1.283623041604037285e-01,-1.409941880985073615e-01,-2.829236647646731218e-01,-1.673506799434355818e-02,1.292960970200674777e-02,-8.709704789357394089e-03,1.538364887237548828e-01
-1.519323370324387468e-01,-1.514458044182218077e-01,-2.876057032541098346e-01,-4.730289401646291031e-04,4.325261709206893574e-04,-4.368737930759294757e-05,1.359218358993530273e-01
-1.484932828061835963e-01,-1.491752396344508957e-01,-1.592246002891932466e-01,1.638653227610853999e-04,-2.845745177368295617e-03,1.350363261679969834e-03,1.175388228148221970e-02
-1.491966299699584719e-01,-1.900753193372505812e-01,-3.451656254863749163e-01,3.994528502383502756e-04,-2.279949395260041142e-03,1.190842949988961527e-03,1.791208684444427490e-01
-1.293464782753417364e-01,-2.416750987649201876e-01,-4.282699651560378795e-01,-2.782969297783360624e-03,3.248459373584703519e-02,-3.859501379425182843e-02,2.757771015167236328e-01
-1.521848675936627038e-01,-2.402208927742104927e-01,-4.764773323756132939e-01,-2.279643203484303313e-02,2.916193807085770695e-02,-7.969088472182124169e-03,2.977705895900726318e-01
-5.121408614727301911e-02,-1.420832528036306275e-01,-2.904141297679818101e-01,-1.869349489192704758e-03,-2.416516381519425490e-03,7.281924291179586251e-04,2.092069536447525024e-01
-3.759439893019847490e-02,-1.271052778673571748e-01,-2.748230195976154588e-01,-2.281403290322968694e-02,-1.126828694937350361e-03,-1.200828623909570630e-03,2.112454771995544434e-01
-1.521500464028935629e-01,-1.324411926569189768e-01,-2.840042545850227085e-01,2.293159782006366255e-03,-1.040601022457888136e-03,-1.650419021761490804e-03,1.428280919790267944e-01
-1.401437496354467349e-01,-1.855183558796840715e-01,-3.235020964857311943e-01,6.612430280962077259e-03,-6.506022069113775660e-03,-2.767325989656343587e-03,1.662541925907135010e-01
-6.043759075695451233e-02,-1.425704773260933755e-01,-2.604501918418810624e-01,1.221179921964752474e-02,-4.528466725646852764e-02,-7.707992697803981797e-04,1.921575069427490234e-01
-7.171554082351977444e-02,-1.478488023791684758e-01,-2.654249499709542270e-01,6.367186303789269287e-03,-5.690734438958981040e-02,-1.074439835618066705e-02,1.968633234500885010e-01
-1.282128953583125397e-01,-1.836730198434379790e-01,-3.129390234216985478e-01,-3.354038960727152071e-03,-4.144563697019567478e-02,-7.043792038834459195e-03,1.796954423189163208e-01
-6.352978766493524998e-02,-1.582465517030313407e-01,-3.031743984781168910e-01,-2.864717038217866069e-03,-4.280856044113369452e-02,-7.767875644714975457e-03,2.222741544246673584e-01
-1.136239466620798388e-01,-2.160457730685690358e-01,-3.895310948705242304e-01,1.856018549401451667e-02,-4.245129952877714496e-02,1.903802360008249525e-02,2.566772103309631348e-01
-1.216048377611697873e-01,-1.485014935638852007e-01,-2.662544274634877639e-01,-3.818006189811844284e-03,7.588573464286587841e-03,-1.179554880882177290e-03,1.340783685445785522e-01
-1.203181988421955645e-01,-1.591166090865721028e-01,-2.696998980578633187e-01,-8.888249352988052826e-04,1.696896507082957389e-02,-4.048121582717792433e-03,1.376219689846038818e-01
-1.244490699994381111e-01,-1.560688094372414958e-01,-2.697354362773170533e-01,-2.627567292727219124e-03,6.973087768353351638e-03,-9.297893014433842359e-04,1.329781860113143921e-01
-1.233998005350512295e-01,-1.278808440876892938e-01,-2.423285912329792013e-01,1.689444098396798016e-02,2.957098432267384405e-02,2.474229429383033307e-02,1.376493722200393677e-01
-1.424559971677545334e-01,-1.362089271321348105e-01,-2.803475133264286545e-01,6.719540138760864319e-03,1.568992982839399666e-03,2.499196194224772953e-03,1.416901350021362305e-01
-1.316959019553901600e-01,-1.399908201078904624e-01,-2.772115598598589026e-01,7.223072024085183153e-03,5.003194720168604309e-03,2.620916824319107809e-03,1.424387395381927490e-01
-1.501352745079524431e-01,-1.438885317933959185e-01,-2.922973181287559785e-01,7.364770679182059201e-03,9.058531758120635588e-04,3.452183328202918997e-03,1.460755020380020142e-01
-1.446314980399104611e-01,-1.311932824638951112e-01,-2.810699027149936580e-01,9.795353523017984523e-03,5.404788412062733541e-03,7.366524244378010178e-03,1.454915553331375122e-01
-1.488929115101962908e-01,-1.388692552597682317e-01,-2.875206220651647659e-01,1.468203937819658952e-02,5.254271719099336095e-03,1.371730701528489638e-02,1.483296155929565430e-01
-1.427780434303056456e-01,-1.326814734357302239e-01,-2.761319668072340638e-01,9.184291833581407702e-03,4.239839105727862684e-03,7.228582779810924924e-03,1.403401792049407959e-01
-1.396754959775349803e-01,-1.487052110752973832e-01,-2.867583195096280457e-01,7.410147507085297972e-03,2.148185619576438270e-03,3.758180868648239564e-03,1.435538977384567261e-01
-1.274311168527672566e-01,-1.582565319213700139e-01,-2.821048849458427377e-01,-2.072131875204016524e-03,-2.295212603025433441e-03,-2.905513232031838380e-04,1.418986767530441284e-01
-1.240437672528940105e-01,-1.581248890379303718e-01,-2.803837576476447269e-01,-1.918481624879212269e-04,-1.150122599515679888e-03,1.678463631946011084e-04,1.424065828323364258e-01
-1.293952026338397454e-01,-1.647184330987682688e-01,-2.822324379608207590e-01,2.193212102548924153e-03,-5.943508201677758819e-03,1.926677361967258045e-04,1.390279233455657959e-01
-1.333884397537623279e-01,-1.645322827163929469e-01,-2.734775980062172374e-01,-1.872285867898694110e-03,-1.013006594868172232e-02,2.644247682701204773e-03,1.287297308444976807e-01
-1.262946487812016683e-01,-1.615749239303862772e-01,-2.837643059185225858e-01,-3.348999375467057366e-04,-4.949505530203460657e-04,-1.114080909789911958e-03,1.431454271078109741e-01
-1.104772527633327561e-01,-1.443906548597376771e-01,-2.511908767370752971e-01,1.825523986838828439e-03,-1.310113475499223926e-02,4.247533181295352379e-04,1.292432695627212524e-01
-1.497870970905596510e-01,-1.702811806199986122e-01,-1.916243888534308881e-01,-7.151217247276878304e-03,-4.103774758401532163e-02,-5.856193770573238453e-04,8.074458688497543335e-02
-1.234727747251338631e-01,-1.413253041872044868e-01,-1.393196586185472263e-01,-8.674212645252678267e-03,-3.433797767432186787e-02,1.652203769450273294e-02,6.977735459804534912e-02
-1.368912562622583984e-01,-1.430132658834425419e-01,-2.746487255054732568e-01,-7.546086502404871638e-03,1.792882607173507635e-03,-4.131383129251704907e-04,1.354704052209854126e-01
-1.573050305708647012e-01,-1.392620810470971415e-01,-2.929577415805363905e-01,-3.162701284769431527e-03,-1.081915285334984506e-03,-2.906411474055855247e-04,1.456315666437149048e-01
-1.718734919311033504e-01,-1.823294181437297157e-01,-2.018405542323485069e-01,-5.977922072071590980e-03,-4.171094249491016231e-02,2.448765839334384256e-02,8.842832595109939575e-02
-1.297507484595031568e-01,-1.430296647549342826e-01,-7.367719403758204999e-02,-2.394245943305535387e-03,-2.036291641953217463e-02,7.612274345449727454e-03,7.416300475597381592e-02
-1.201763332906510828e-01,-1.377972252920694474e-01,-1.367723410728351463e-01,-6.347942475391330983e-03,-3.399790741287231355e-02,1.708575952821026617e-02,6.897621601819992065e-02
-1.562628016316404689e-01,-1.594850559878333296e-01,-1.922178446420671483e-01,-3.319388869739284438e-03,-3.143962717088823883e-02,1.471327470233669416e-02,6.953515857458114624e-02
-1.863262666740186924e-01,-1.973066248495288222e-01,-1.796864133069560054e-01,3.464377900111894183e-05,-2.698953356895244723e-02,1.699053907222590129e-02,5.734899640083312988e-02
-1.410349513567497326e-01,-1.535684023105698959e-01,-1.204427209873918103e-01,1.847183447423286643e-03,-1.113229963485528294e-02,-7.984416075642600946e-03,3.758313879370689392e-02
-1.508566040862090729e-01,-1.676437418551057768e-01,-1.337641088092952901e-01,1.612910995597276013e-03,-1.360282313871088132e-02,1.853829954658262752e-02,4.954610019922256470e-02
-1.194861273083764192e-01,-1.524451227145844079e-01,-2.692677242248632807e-01,1.117483067975893682e-02,-1.867012970551428647e-02,-3.587567726104282442e-03,1.415737718343734741e-01
-1.433975947815003815e-01,-1.726785687081394127e-01,-2.852676793560023349e-01,1.158162173306014411e-02,-2.339755342048058934e-02,-2.862652637883211781e-03,1.374762654304504395e-01
-1.368678079362325162e-01,-1.581821959417686052e-01,-2.465756338747142618e-01,1.322733117344687855e-02,-4.356140191354408026e-02,9.865320252998551268e-04,1.279544830322265625e-01
-1.397817984554268755e-01,-1.555960980653052772e-01,-2.925204204535307717e-01,6.820888821076840844e-03,-5.004532540916995995e-03,-4.171205369074979983e-04,1.462154388427734375e-01
-1.620256128782082417e-01,-1.442796231350254033e-01,-2.909826705848241879e-01,1.336808930960311191e-02,-6.315893104534470864e-03,-1.336363855484277302e-02,1.429155766963958740e-01
-1.307056605272562955e-01,-1.515243664062143336e-01,-2.862681012136885639e-01,8.710429340030667253e-03,-7.274444170180027758e-03,-4.321963390493488086e-03,1.477731019258499146e-01
-1.644912288900282071e-01,-1.430343165596748567e-01,-2.895706270119032255e-01,-1.055642729745178213e-02,4.177743655102901868e-03,-1.738872854638264659e-02,1.417139768600463867e-01
-1.416555602218159682e-01,-1.457360738834811154e-01,-2.629424131500763262e-01,-1.861434208338292803e-02,1.371526145320487410e-02,-1.385740482333724585e-02,1.281098276376724243e-01
-1.450302573350661928e-01,-1.479591503386382956e-01,-2.537574280569762086e-01,-1.035763293737494706e-02,1.265636852757852197e-02,-1.239300401691068726e-02,1.130260080099105835e-01
-1.646728764781003884e-01,-1.464262203851398048e-01,-2.153792401220154806e-01,-9.673877696686483674e-03,3.663937617156156484e-02,-4.673277051858302361e-02,1.211991608142852783e-01
-1.651266785060557796e-01,-1.726714991514151643e-01,-2.227838543240427405e-01,-6.402892122199833023e-03,1.037666341218985468e-02,-1.006616573516459431e-02,6.079688295722007751e-02
-1.523014864537714230e-01,-1.498745350260568820e-01,-2.077100484568960292e-01,-5.363926579077640637e-03,9.465790140304710526e-03,-1.522877372675930652e-02,6.527892500162124634e-02
-1.445175471296835101e-01,-1.642130401680541585e-01,-2.421192782331487992e-01,-1.697648385884640773e-02,3.324118030768390131e-02,-2.877850115229660041e-02,1.210612803697586060e-01
-1.563381112494212632e-01,-1.344550644101619730e-01,-2.891961615634119354e-01,9.314382663090543801e-03,-6.208571767178347293e-03,-9.387560970729189394e-03,1.472336947917938232e-01
-1.307704429283829128e-01,-1.731643438626347953e-01,-2.943511169093345758e-01,1.528544655058453614e-04,-1.227920020220652983e-02,1.344397719345781506e-03,1.485896557569503784e-01
-1.288216709423353479e-01,-1.651716199433254373e-01,-2.840107577940307326e-01,5.753980357564092603e-03,-1.070794495184246298e-02,-4.740382777057522944e-03,1.423888206481933594e-01
-1.248638148538883247e-01,-1.578015809058909702e-01,-2.837206997086351712e-01,2.413277068723126279e-03,-1.090296677182590185e-02,-1.133635541340889457e-03,1.465126872062683105e-01
-1.552691554737651025e-01,-1.701617094446057354e-01,-2.599050319020722033e-01,-1.334143962596257872e-02,-2.140039032560225526e-02,-1.212006158789696517e-03,1.073521226644515991e-01
-1.387381057753419022e-01,-1.485544963056984469e-01,-2.695065247589104596e-01,-9.947877269108769058e-03,-6.679085286735868092e-03,6.300528968752560494e-03,1.283077150583267212e-01
-1.357341580943573489e-01,-1.498326892726188908e-01,-2.827219665080231703e-01,-1.091484253090692531e-02,-1.273069384279043766e-02,2.532012030520274827e-03,1.435085982084274292e-01
-1.419201230152248583e-01,-1.465757186867109041e-01,-2.867357962999317333e-01,-5.108691713469041065e-03,-1.003567965818840833e-03,3.166293545397034104e-03,1.429351121187210083e-01
-1.515062357493673351e-01,-1.425561298337587601e-01,-2.724315142429255543e-01,-9.362988550344814032e-03,-7.596328916722214913e-03,7.269700481076394466e-03,1.279842853546142578e-01
-1.940285152698355831e-01,-2.891649882855854559e-01,-5.660495242751177880e-01,-6.360776558346449561e-02,3.438214711336864959e-02,-1.872758790981355476e-02,3.588791191577911377e-01
-1.584135697530634213e-01,-1.368980831770151563e-01,-2.966488174572791126e-01,6.354176331487810733e-03,-1.470521080004116854e-03,-7.830722963885277180e-03,1.511875391006469727e-01
-1.440222733791592380e-01,-1.390335444962437772e-01,-2.848320171722040772e-01,-6.916964674973350921e-03,-2.441860286540139396e-03,2.748080528662117088e-03,1.440097540616989136e-01
-1.450765233157730316e-01,-1.470494369075446006e-01,-2.887525990547202825e-01,-5.182515823732777686e-03,-1.912262325350627375e-03,1.498772406132599334e-03,1.430438160896301270e-01
-1.429154218712673230e-01,-1.411077534016333401e-01,-2.851735710746415853e-01,-6.000271542044391740e-03,-2.596337593171092750e-03,2.604886532141394151e-03,1.436885297298431396e-01
-1.424144131353146381e-01,-1.416470903474842669e-01,-2.846874066842408624e-01,-7.488784202777981104e-03,-1.801007387428364432e-03,2.424746641311235646e-03,1.433421671390533447e-01
-1.366597961084924651e-01,-1.589192316273601024e-01,-2.785977912815363888e-01,-1.193394314908901958e-02,-2.307733264726634717e-02,1.345281204405599125e-02,1.415990740060806274e-01
-1.379900938899438767e-01,-1.467158942236164443e-01,-2.842558064878526469e-01,-3.250463557367621551e-03,-1.565017582413820657e-03,2.070264267174225931e-03,1.422863900661468506e-01
-1.505367384590350355e-01,-1.555498238143863121e-01,-2.948513810489776787e-01,-6.863706245324629335e-03,-3.106735362573914260e-03,1.096184095951006275e-04,1.424735337495803833e-01
-1.359755913228505309e-01,-1.412845012019238455e-01,-2.829386824758592933e-01,-3.207937074639931937e-03,-1.640593138215700039e-03,1.635073163657722265e-03,1.445444226264953613e-01
-1.563528585470689847e-01,-1.611668400816190505e-01,-3.097479993882417126e-01,-1.034224678922957517e-02,-5.102736615294834258e-04,3.059829636948870404e-03,1.521990746259689331e-01
-1.601253221684306727e-01,-1.241468526936253952e-01,-2.862542782547783937e-01,-1.144228649520490949e-03,1.657117441390542657e-03,1.210510815021546838e-02,1.489720046520233154e-01
-1.389281012135739346e-01,-1.197700078589079009e-01,-2.708477843774232396e-01,-1.473752906194011544e-02,-1.240950970594141382e-02,1.174228359453000255e-02,1.477307677268981934e-01
-1.193419498184159350e-01,-8.350793620420474128e-02,-1.979981995378949922e-01,1.121900280180046332e-02,1.571539563537186976e-02,4.091516325497183970e-02,1.281800419092178345e-01
-1.295814652272075373e-01,-9.531298626983905620e-02,-2.054984317997242405e-01,1.606543825313959048e-02,2.120520883624233202e-02,3.828740243266060689e-02,1.267293393611907959e-01
-1.525730444590015777e-01,-1.371803389113574745e-01,-2.869544071195849755e-01,4.118775775745681100e-03,-1.489692381550003757e-03,-1.724043294178730394e-03,1.429344117641448975e-01
-1.613477053788827109e-01,-1.221197107887889433e-01,-2.757626509776912038e-01,1.539660745089338630e-04,1.458453652855157484e-03,1.319485594922649614e-02,1.401665061712265015e-01
-1.442901067945561167e-01,-1.122097739370310487e-01,-2.311497945150403632e-01,6.689919418154585511e-03,2.429682737839917051e-03,2.028801568328334956e-02,1.129027307033538818e-01
-1.583595970452439661e-01,-1.778589142024855907e-01,-2.354343782488800829e-01,-1.857065083550903106e-02,-4.602456366875625621e-02,2.270404856133780708e-02,1.172759532928466797e-01
-1.339992341157369982e-01,-1.563709790068607830e-01,-2.742902819785464907e-01,9.851713717943655704e-03,1.987227166053642108e-02,5.565367163773412250e-03,1.364270001649856567e-01
-1.620988849755133354e-01,-1.653133602620923126e-01,-2.717999536311952458e-01,1.954648219085790284e-02,3.527396225106809585e-02,1.959173146401927204e-02,1.331258267164230347e-01
-1.562979175247663499e-01,-1.810076606007490763e-01,-2.677947817771144656e-01,7.106464619762821629e-03,1.827584458467076609e-02,9.329121226585102358e-03,1.081743314862251282e-01
-1.434558657525723535e-01,-1.464170816824545140e-01,-2.878714339637217789e-01,8.614795144165884920e-04,4.783868393744093440e-05,-1.067170641042897763e-04,1.429658979177474976e-01
-1.328493760386961209e-01,-1.604430861165580258e-01,-2.103454466667134537e-01,1.692655901696428142e-02,3.420592198001703305e-02,1.881069085879393671e-02,1.002987325191497803e-01
-1.324393522878061502e-01,-1.458300156800177994e-01,-2.156473647895763568e-01,1.155311441307759097e-02,2.976679429992069859e-02,1.294455410249291741e-02,9.772393107414245605e-02
-1.323828899071466947e-01,-1.438521874764809028e-01,-2.852682257998738757e-01,1.483095217751465543e-02,-7.881394880676321699e-03,-6.968045837244018006e-03,1.508106887340545654e-01
-1.563347890262855866e-01,-1.724788276064322945e-01,-3.432786598725339755e-01,1.711627081361064701e-02,-2.410410927350659094e-02,-9.311417336937955619e-03,1.872769147157669067e-01
-1.573141330950925121e-01,-1.735275235495466473e-01,-3.116386596330870118e-01,2.601947432180793524e-02,-3.593170611325648134e-02,-2.040530683390096023e-02,1.694999784231185913e-01
-1.460373311671695484e-01,-1.559460863785021578e-01,-2.904180937294020270e-01,9.250659800771164273e-03,-3.237961708557202199e-03,-4.171973945593051604e-03,1.409033238887786865e-01
-1.521252746587101190e-01,-1.524571688264654834e-01,-3.142162936682111329e-01,2.317385185131076719e-02,-3.337238158584283215e-02,-2.934922066388744380e-02,1.837285310029983521e-01
-1.377462534533359373e-01,-1.553843815743703449e-01,-2.917172247269961827e-01,8.548903989055512895e-03,-5.416237205998981723e-03,-4.449108718050859453e-03,1.472041010856628418e-01
-1.480685189102107502e-01,-1.587472173042660251e-01,-2.973288185999610755e-01,8.496663672556985583e-03,-1.501857475541225860e-03,-4.157760607737904200e-03,1.451687812805175781e-01
-1.423767040740047118e-01,-1.467694279907438282e-01,-2.887905333084729853e-01,3.054941327688362376e-03,-6.530180232256397287e-04,-1.131454543505115885e-04,1.443691998720169067e-01
-1.373182945386155207e-01,-1.491876100619166645e-01,-2.857368608956111777e-01,1.245369899200208076e-03,6.154953885515199261e-04,-2.874921349360739768e-05,1.428744792938232422e-01
-1.549011803452661207e-01,-1.235450670501522519e-01,-2.728065110556234241e-01,2.100693494098652015e-03,1.234170803487415202e-03,3.200915390242226044e-03,1.364934891462326050e-01
-1.334121693808311138e-01,-1.444638725505460464e-01,-2.838878332331930543e-01,4.771524217706853491e-03,-1.506738591954963650e-03,-3.728468994063334008e-04,1.455252021551132202e-01
-1.361781053531025132e-01,-1.425665674535832317e-01,-2.827647612457265813e-01,2.190130958418063430e-03,3.631661070141267798e-04,2.371667983585695467e-04,1.435512155294418335e-01
-1.638563758316229912e-01,-1.468750276559689094e-01,-3.051927841573833788e-01,7.872338128726520320e-03,2.071427406941666488e-04,-1.482570276146174615e-04,1.511639654636383057e-01
-1.856405037154275350e-01,-1.580218391283065293e-01,-3.528393470730905590e-01,2.163091416580931875e-02,-3.315294592240828307e-03,-9.679240990322466806e-03,1.872265487909317017e-01
-1.683738994036768077e-01,-1.391034501384005306e-01,-2.933342254777788205e-01,7.516941028482299926e-03,-3.928819165797342063e-03,-1.008483311439696724e-02,1.437025368213653564e-01
-1.527405722980142155e-01,-1.280157697829339691e-01,-2.973314339804475348e-01,1.597502249343481229e-02,-6.872255160165975825e-03,-1.196539847927935094e-02,1.625718772411346436e-01
-1.624433051807874784e-01,-1.444405623930299920e-01,-2.999033963470821851e-01,5.426830077451551791e-03,1.356489213878389231e-04,-1.870791114454097579e-03,1.476243287324905396e-01
-1.405402946520235563e-01,-1.404814500986096559e-01,-2.857934390419286097e-01,-4.073670115927532920e-03,8.664471565383607314e-04,-1.202463223377638404e-03,1.454764604568481445e-01
-1.567730473930026291e-01,-1.718552915464050257e-01,-1.888380059676638134e-01,-3.745564430740318251e-03,-4.623305928137151632e-02,2.282232173370156436e-02,9.375059604644775391e-02
-1.385534684648819792e-01,-1.414813717659656744e-01,-2.851482735852888251e-01,-7.050033299273111322e-03,3.894065112649734966e-03,-3.100386172732288656e-03,1.459206342697143555e-01
-1.318861190599744382e-01,-1.451162249532814419e-01,-2.735809004565793456e-01,-1.471852580102975955e-02,1.680821832351546072e-02,-1.188267114463694915e-02,1.424740552902221680e-01
-1.443135413429342262e-01,-1.425432776737118878e-01,-2.896821137738198049e-01,-1.639901117146227993e-02,1.170139054168061778e-02,-1.548588071673524975e-02,1.527399271726608276e-01
-1.419763381452930073e-01,-1.472386872335654240e-01,-2.886319083880923286e-01,-3.711402939551166399e-03,1.471551891635242615e-03,-3.666820748416049292e-04,1.442637145519256592e-01
-1.614516586045112445e-01,-1.293638996729472579e-01,-2.860991984275225164e-01,6.800876915225198549e-03,-7.167310123028091708e-03,-1.356239329215866429e-02,1.463249027729034424e-01
-1.678548309321202525e-01,-1.311493895613110860e-01,-2.153874799651483984e-01,4.683408758146608876e-03,7.338930044522901444e-03,-4.336483695702182672e-02,1.059257239103317261e-01
-1.923531948015415050e-01,-1.659632164379992447e-01,-2.332435339201598123e-01,-3.988318294117106783e-03,2.831270774496248699e-03,-5.071570659966313094e-02,1.059979349374771118e-01
-1.527666990450071427e-01,-1.180457610635905485e-01,-2.392673730978292501e-01,3.335989437971352794e-04,-4.010479393565839160e-04,-1.860623156804755082e-02,1.128303408622741699e-01
-1.779862126051963700e-01,-1.426837433965233715e-01,-2.888412140590619903e-01,1.373117052736430328e-03,1.137586121200743127e-03,-2.100980382691898518e-02,1.370486170053482056e-01
-1.578177599319026680e-01,-9.761334760341756900e-02,-2.371078960270404379e-01,-7.407947753218147371e-03,-1.394287429143998896e-03,-5.423605261143997491e-02,1.538838148117065430e-01
-1.528618217281424996e-01,-1.190244868436795556e-01,-2.319597698959387777e-01,5.926262050102010931e-03,-6.610394389720292835e-03,-3.640358526795905297e-02,1.195409148931503296e-01
-1.663885882718895981e-01,-1.415272240438572582e-01,-2.384348341502691426e-01,-1.030991306161955362e-03,-1.358646828786646589e-02,-4.315602851465742684e-02,1.172357052564620972e-01
-1.441199185985224673e-01,-1.431075007751376749e-01,-2.922502233943195526e-01,1.406623001607876060e-02,-1.190486907707861801e-02,-9.724380884799588981e-03,1.529576033353805542e-01
-1.648370845788996175e-01,-1.530598663917868418e-01,-3.051329892348637607e-01,1.661692155439987301e-02,-1.449045005607163192e-02,-1.099028664498676033e-02,1.526256352663040161e-01
-1.519642428898913822e-01,-1.603943746485647082e-01,-2.986454210612912163e-01,2.028376233315668659e-02,-2.742467325772764489e-02,-2.474271473572065005e-02,1.602408587932586670e-01
-1.304936364990406661e-01,-1.527462240140604610e-01,-2.757664243620687183e-01,8.993819559561151006e-03,-6.889450364134110973e-03,-7.023593252037565147e-03,1.374762505292892456e-01
-1.602496755635969550e-01,-1.471451053375972540e-01,-3.034882553999967980e-01,1.754282402397619456e-02,-1.855490901716009763e-02,-2.590018887947742252e-02,1.628946512937545776e-01
-1.437425350744825914e-01,-1.490788142932541471e-01,-2.883495251188679664e-01,3.734509335570363169e-03,-1.816680122993069276e-04,-2.043769990009964383e-04,1.421620845794677734e-01
-1.725563603694336701e-01,-1.585828905980954107e-01,-2.824001263875890455e-01,-1.757475635819292364e-02,-2.502776598732997168e-02,2.195163224433021448e-02,1.343399286270141602e-01
-1.387668760626345477e-01,-1.353429511639131777e-01,-2.427955163593261412e-01,-1.646354530187890339e-02,1.346610903020099316e-02,-1.519088360446732046e-02,1.150621995329856873e-01
-1.418061247975247463e-01,-1.537227391155310263e-01,-2.939050010174779071e-01,5.978483370421090216e-03,-3.721873254803223768e-03,-5.215275131709839335e-04,1.470141857862472534e-01
-1.558623152032867498e-01,-1.509639495202539650e-01,-2.962470110277884427e-01,-3.407981817974492424e-03,8.094865165096020105e-04,-4.098098683159665662e-04,1.430273503065109253e-01
-1.420614153415163949e-01,-1.517349133240271652e-01,-2.872202401525035254e-01,4.574709467953652978e-03,-2.308550223768452477e-03,-1.054154987129705522e-03,1.408636718988418579e-01
-1.527592029254379868e-01,-1.562725670944813683e-01,-3.065790129021512267e-01,1.080461257645295298e-02,-1.923202423678280985e-03,-1.473664108883482055e-03,1.532980203628540039e-01
-1.434298636647090008e-01,-1.497014308365686996e-01,-2.871093990172872701e-01,4.652044427073480891e-03,-5.266237543452641397e-04,1.786915105171301237e-05,1.408822238445281982e-01
-1.541497340576725161e-01,-1.524043046446507121e-01,-2.913785568849767138e-01,2.066231248217353759e-03,-2.764512046126868061e-04,-5.142186407412153906e-04,1.381598711013793945e-01
-1.541711195341130547e-01,-1.568425518752359638e-01,-2.950781616083297809e-01,6.713965358215355506e-03,-8.092505683950496336e-04,7.876906632632598142e-04,1.400877088308334351e-01
-1.495799012340331968e-01,-1.553872049536591526e-01,-2.923539301544889057e-01,2.312295488926839789e-03,-1.764598527701054112e-04,1.473292841863005700e-03,1.400416344404220581e-01
-1.496743665058624939e-01,-1.542112305528997585e-01,-2.935228251224081819e-01,2.151729916231560902e-03,-1.043281992935102238e-04,1.715515218785668107e-03,1.417148262262344360e-01
-1.193714328966067328e-01,-1.448988339799320568e-01,-2.706235643566685667e-01,-1.433613964169085271e-02,2.165970541301727101e-02,-9.148705627666561119e-03,1.481312960386276245e-01
-1.299341088752357931e-01,-1.660490895894660146e-01,-2.874320022939704788e-01,-3.297624674828452968e-03,1.253138610083843855e-02,-2.972711930433749854e-03,1.447483599185943604e-01
-1.205742893230266066e-01,-1.202296487260687552e-01,-6.258346849927040600e-02,-3.721304120789239653e-03,-3.798185910250644060e-02,3.632382471674446001e-02,1.080311909317970276e-01
-1.271411100362805358e-01,-1.598322117160283218e-01,-2.802295004054673466e-01,-3.190305749229695263e-03,1.166908345732442683e-02,-5.341502516192717619e-03,1.415088921785354614e-01
-1.478476507096692094e-01,-1.590899485846165307e-01,-3.093966448345978337e-01,1.011320802086389421e-02,2.916745986534659513e-04,1.099128503075209526e-03,1.572227627038955688e-01
-1.511413875634766424e-01,-1.611311298257507296e-01,-3.027884419161271379e-01,5.415250861492504862e-03,7.151996397927044054e-04,-2.010427357500472762e-03,1.472526490688323975e-01
-1.531757999885608457e-01,-1.541770052077350850e-01,-2.937647630752796557e-01,3.176787367345039730e-03,2.922722920329397646e-04,7.036362368216717532e-04,1.402052640914916992e-01
-1.352605504204146825e-01,-1.361628129795004472e-01,-2.799616195950041520e-01,1.463316600494059608e-02,-9.653514743934683145e-03,-8.278515887224878814e-03,1.481087952852249146e-01
-1.641190718400102055e-01,-1.643910118673530263e-01,-3.101317168330957053e-01,6.429752036088193581e-03,2.269438342431481966e-03,1.676088566615167169e-03,1.463829427957534790e-01
-1.565820179545479029e-01,-1.641658529771014563e-01,-3.070988411553590147e-01,3.713178862169365987e-03,2.525234017491121297e-03,4.872898763492489898e-04,1.470800489187240601e-01
-1.292152414354921230e-01,-1.594343484382246545e-01,-2.878116516272683501e-01,-2.925359580331530866e-03,1.410390092572149246e-03,-1.850068705082291666e-03,1.459975391626358032e-01
-1.236471549281497329e-01,-1.552882375863923192e-01,-2.758367986961521301e-01,-6.341412219068325376e-03,1.036780637692829091e-02,-3.954157333046634352e-03,1.408453881740570068e-01
-1.242099584868485845e-01,-1.599121289200996221e-01,-2.840948162659961418e-01,-6.419069975972213323e-04,1.291859687499866821e-02,-3.243063651763079293e-03,1.471836715936660767e-01
-1.255576660841522252e-01,-1.598285867670314886e-01,-2.819973154032404672e-01,-5.193617785349127292e-04,3.763510932184980975e-03,7.697802249858806938e-04,1.425889432430267334e-01
-1.280940590300339854e-01,-1.603127167424044375e-01,-2.820319205614320035e-01,-5.038266738174037966e-03,9.250195367865152521e-03,-6.004792715571138266e-04,1.418067961931228638e-01
-1.273379258103071732e-01,-1.590555811455902913e-01,-2.823357680464572139e-01,7.941921729277427516e-05,5.303954277345603562e-04,8.568854870386712264e-06,1.418274790048599243e-01
-1.394413545201503568e-01,-1.568682890507010486e-01,-2.899057958218071440e-01,-5.190682717940993396e-03,-3.796418280844924328e-03,9.003763950886734067e-04,1.429951488971710205e-01
-1.452993092013480647e-01,-1.651119894200520910e-01,-2.386070643643936062e-01,-1.018316370083871200e-02,-1.656780938673887635e-02,1.255889045735209160e-02,9.411666542291641235e-02
-1.278061788869287174e-01,-1.571755977342201016e-01,-2.586919143805810339e-01,-4.800650741453145465e-03,-6.609104805362515586e-03,4.398214173329789874e-03,1.200325489044189453e-01
-1.246159737433014808e-01,-1.604471527147504628e-01,-2.719661578238387056e-01,-2.839878049856001379e-03,-6.409381621520393764e-03,8.809005595636551760e-04,1.336636990308761597e-01
-1.243581671002067235e-01,-1.523397839470663762e-01,-2.679458525387867773e-01,-5.264679097544212698e-03,-7.326519649240502592e-03,1.609028878378653427e-03,1.327950656414031982e-01
-1.337396444113877481e-01,-1.682339473852616507e-01,-2.895010005187533819e-01,-3.554057607641245269e-03,-8.315082510141924912e-03,-6.141655282939330806e-04,1.425658613443374634e-01
-9.153210812701055576e-02,-1.324958556788301545e-01,-1.753038818551222455e-01,-7.505586497165844806e-03,5.300846498016557190e-02,-1.321471345829763368e-02,1.199446246027946472e-01
-1.112286430746140808e-01,-1.479766425001161068e-01,-2.297008532849316720e-01,1.983808410446493732e-03,2.426993971651737747e-02,1.963373293935691353e-03,1.132383495569229126e-01
-1.378417866684000515e-01,-1.563508778595664728e-01,-1.983967566832596785e-01,-1.303200326426969891e-03,3.745652348322948272e-02,-8.741660713367011351e-03,8.562704920768737793e-02
-1.378463684736767059e-01,-1.599163148799335465e-01,-2.029562973952457605e-01,-6.312136011383936637e-03,4.240981219517522827e-02,6.253893119381066616e-03,9.445661306381225586e-02
-1.220443752300069962e-01,-1.562938585804408143e-01,-2.446912765399821277e-01,-3.840679410575346779e-03,2.092287982120471374e-02,-6.171223350084054614e-03,1.161313951015472412e-01
-1.461390608359445509e-01,-1.264728957438188139e-01,-2.738817614954333068e-01,1.380288692316993492e-02,-8.195306401017512024e-03,-1.758904536228892215e-02,1.446317285299301147e-01
-1.579218704442937049e-01,-1.279032524428602435e-01,-2.827078593889449376e-01,1.238396950230481915e-02,-8.540339276795552714e-03,-1.890740851893476029e-02,1.482225805521011353e-01
-1.830626993364561361e-01,-1.474367478850934221e-01,-3.450725199417767897e-01,5.447811144419565169e-03,-2.760408150401949361e-03,-1.401492876007676656e-02,1.843618601560592651e-01
-1.628167731386920003e-01,-1.337134158209298262e-01,-2.917624578483519748e-01,1.658768297738062421e-03,2.825829367024082321e-03,-6.366419885052535498e-03,1.462209075689315796e-01
-1.881677476355856082e-01,-1.422907106567047886e-01,-3.433947475888164402e-01,1.016780238521155892e-02,-5.038565608278544779e-03,-1.723685193504289129e-02,1.860083937644958496e-01
-1.683877643352106324e-01,-1.294570040827320856e-01,-2.929873133157738785e-01,4.781887395065216942e-03,-2.210102555994375353e-03,-8.965978864979393115e-03,1.490497440099716187e-01
-1.623851276652487075e-01,-1.302724643416058870e-01,-2.876383435997110216e-01,-1.519925793722934479e-03,1.431005347153530699e-03,9.113106668717259676e-03,1.449276506900787354e-01
-1.528612922996212542e-01,-1.349754388652535386e-01,-2.461695225608387938e-01,-1.161744131347605506e-02,-5.337643338878306914e-03,2.630814317379533487e-02,1.151605322957038879e-01
-1.720504378950105107e-01,-1.217895581095501945e-01,-2.931853939722017244e-01,-2.973612119885734196e-03,3.971753504503286111e-03,3.506373067859882425e-02,1.644701510667800903e-01
-1.592444192441576367e-01,-1.401168545286775591e-01,-2.918916325508909004e-01,-1.223670572281641139e-02,-4.098388859542045730e-03,1.645245159551361747e-02,1.476821452379226685e-01
-1.769524301606383021e-01,-1.475987069664979612e-01,-2.921362923881095641e-01,-1.344180151458766563e-02,-1.244909903870438338e-02,1.911216352895802120e-02,1.400458812713623047e-01
-1.631491257979817422e-01,-1.346865558244007555e-01,-2.397761825107657396e-01,-1.591019913172513414e-02,-2.901123599247698928e-02,5.429124171073691774e-02,1.448785811662673950e-01
-1.623819333615767468e-01,-1.399095403564704632e-01,-2.790375507810534117e-01,-5.533909767342247953e-03,-5.186325973081304646e-04,7.900008439810167482e-03,1.304414868354797363e-01
-1.304720887746434743e-01,-1.623274878272098487e-01,-2.823809443824812915e-01,-1.984320280304930663e-03,-5.018001100379183930e-04,2.230632378601014564e-05,1.387966871261596680e-01
-1.578361726978533552e-01,-1.240983426740919771e-01,-2.709723292385555204e-01,-1.105627530676689526e-03,-2.606733377246574224e-03,7.979094434339736863e-03,1.340524107217788696e-01
-1.947195072975508867e-01,-1.667387920921655775e-01,-3.561927284525702730e-01,-1.808893045701350302e-02,-1.168935183366123266e-02,1.974685076298389463e-02,1.842173188924789429e-01
-1.803794667867725521e-01,-1.609034034842971028e-01,-3.360072845228552207e-01,-2.176763723077458981e-02,-3.868892822580504223e-03,1.483415797942931082e-02,1.725018918514251709e-01
-1.532220922524689666e-01,-1.541678514726957383e-01,-2.970676583516278502e-01,-1.157331897140057887e-02,-4.605162973089595331e-03,3.669712255687853589e-03,1.451283842325210571e-01
-1.609596501148220227e-01,-1.479158960879860818e-01,-3.022954394007631995e-01,-7.819710110372484271e-03,-1.925005028020972293e-03,2.097720428592399818e-03,1.489874422550201416e-01
-1.625733517388490978e-01,-1.491036924515950490e-01,-3.068313872385240448e-01,-7.288419830574125943e-03,-2.157068070651047779e-03,2.248925038230345248e-03,1.520638465881347656e-01
-1.560384533932007434e-01,-1.453313855000338273e-01,-2.922439700792863748e-01,-5.186423482989491185e-03,6.092864883282233515e-04,2.840273970789035027e-03,1.422355771064758301e-01
-1.601732473915010724e-01,-1.435322706287898153e-01,-3.043740274903400378e-01,-8.264470853369660849e-03,-1.971360509844036473e-03,3.583469236464594150e-03,1.540308892726898193e-01
-1.633390879631740900e-01,-1.400315998792679983e-01,-3.010032899781017734e-01,-7.275344432122400791e-03,-3.946816286516762048e-04,5.558914168379344191e-03,1.515098810195922852e-01
-1.622246357188388000e-01,-1.416206625042306655e-01,-2.948684992362458623e-01,-5.551290150234088581e-03,-1.859032778445822388e-03,6.313440226381013785e-03,1.448250859975814819e-01
-1.425060583479469400e-01,-1.459304425766937974e-01,-2.837292119467611506e-01,-5.214345232525239952e-03,-1.093434836631344397e-03,1.452533740511939087e-03,1.398698985576629639e-01
-1.439069902737912243e-01,-1.443925706825892052e-01,-2.871161830467799381e-01,-3.125551265154152391e-03,-9.003854418961189463e-04,5.532987321541592675e-04,1.430811882019042969e-01
-1.476591298126918306e-01,-1.460934787634431964e-01,-2.838248633799653753e-01,-8.312718276847791410e-03,-1.915787640864197389e-03,2.951628692898143353e-03,1.378448307514190674e-01
-1.465462745453988691e-01,-1.390185977203150236e-01,-2.867061283526594062e-01,-2.725418485995079968e-03,-6.169020424363937105e-04,7.049718591883785213e-04,1.441577076911926270e-01
-1.487638760591308007e-01,-1.455899949242516755e-01,-2.809397921712899482e-01,-9.048206665504951104e-03,-8.608877884219790291e-04,2.402800967126134894e-03,1.347783803939819336e-01
-1.601077201142858675e-01,-1.392211298187489565e-01,-2.830309297542532021e-01,-1.110688445033421005e-02,-7.956283431534991527e-03,1.645623323825564852e-02,1.395930945873260498e-01
-1.375506834356499675e-01,-1.481328002451681725e-01,-2.864549097760217267e-01,-4.829767513579368704e-03,3.051111827616498351e-03,1.187463162405632546e-04,1.442452073097229004e-01
-1.324900601969461467e-01,-1.539096622106587986e-01,-2.848153637870828869e-01,-2.203103559784908624e-03,7.281875293996041641e-04,-1.266964942511455148e-03,1.428986191749572754e-01
-1.297286966453465307e-01,-1.482822479901667323e-01,-2.822642225550639483e-01,-3.580902745403796369e-03,1.103178119755596947e-03,-1.048991987464649748e-03,1.443144679069519043e-01
-1.357632327374072856e-01,-1.460544676453638113e-01,-2.830343024936063934e-01,-1.714067263250490091e-03,4.600397363998149107e-05,-1.218336375682491394e-03,1.424512118101119995e-01
-1.375267797563099748e-01,-1.470814248217716114e-01,-2.851488668148436934e-01,-2.482648605976829105e-03,6.524378620296261352e-04,-3.731891188581055487e-04,1.431547403335571289e-01
-1.609702922957667592e-01,-1.741908601972750048e-01,-2.755510341840722854e-01,9.969105530484450445e-03,-2.714260216251923596e-02,-1.803001457053107770e-02,1.235809996724128723e-01
-1.399269208803455289e-01,-1.509894104496271872e-01,-2.044502605225609615e-01,8.060533905904235241e-03,-2.032939113636935899e-02,-4.931134021210851863e-03,7.127109169960021973e-02
-1.533349302857826557e-01,-1.424580330271723594e-01,-1.779880603110049753e-01,1.674272505335336336e-02,-2.032568308998118634e-02,-3.178576628592549858e-02,7.813830673694610596e-02
-1.749867696695795727e-01,-1.755021261550607226e-01,-1.957991296490144695e-01,1.011147632559126694e-02,-2.317709546148721822e-02,-3.565997109278398747e-02,7.845924794673919678e-02
-1.413259678770066585e-01,-1.322676181194322731e-01,-1.793803622067956238e-01,9.880012031607888698e-03,-1.770944164547318816e-02,-3.007470062981157030e-02,7.630255818367004395e-02
-1.472747103212423414e-01,-1.565502694891598434e-01,-2.937567899068775357e-01,-5.106883332941973899e-03,-2.001194635692394100e-03,-8.191739555205331111e-04,1.423959285020828247e-01
-1.556094828827030430e-01,-1.570878238828956608e-01,-2.939275099682324699e-01,3.811221382023320583e-03,2.117325607040555606e-03,5.765722789835505844e-04,1.377955079078674316e-01
-1.129260626668245060e-01,-4.979511512646674076e-02,-2.896989281752907486e-01,4.562712511655767078e-02,2.489180159490437475e-03,5.851026523664300781e-03,2.296971827745437622e-01
-4.198034301552502900e-02,-5.334698037081196664e-02,-2.605090633066696748e-01,6.620809673887556590e-02,4.408278823621591134e-04,3.801985333085059014e-03,2.420631051063537598e-01
-1.365975656117225656e-01,-1.848747572844506581e-01,-3.604131113331795477e-01,5.003087287690748813e-02,-4.278104586569875245e-02,2.409280575356488596e-02,2.374030500650405884e-01
-1.554327058532499473e-01,-9.002467029070117255e-02,-3.296669273800568734e-01,7.037978933762409350e-02,1.155403864775815352e-02,1.683758095498827097e-04,2.475734502077102661e-01
-1.633542853331960698e-01,-1.529121148620909143e-01,-3.082706250333371867e-01,1.633124334419341905e-02,-2.058562976731246122e-03,-5.488602127110516100e-03,1.533826589584350586e-01
-1.755942205080378571e-01,-1.547838827756285451e-01,-3.419018533316278141e-01,1.814566637101385979e-02,9.331001804987021061e-04,5.406323625842710326e-03,1.806386113166809082e-01
-1.378849324287878819e-01,-1.663481368732694088e-01,-3.017924749205956880e-01,-7.105649307839429635e-03,-7.346735428775737209e-03,2.777641432527499891e-03,1.527973860502243042e-01
-1.278577889356591890e-01,-1.583024464540520038e-01,-2.834905485215882259e-01,-1.677367402913074786e-03,-7.783738344094189889e-03,1.136044754150974858e-03,1.435420513153076172e-01
-1.424991841854800489e-01,-1.620505942957910506e-01,-2.962952423546182379e-01,-3.447324140317543049e-03,-6.565012051651061310e-04,8.323913660273357532e-04,1.451467573642730713e-01
-1.269724752975410764e-01,-1.593214821548235016e-01,-2.868395580728202443e-01,-2.074323747558197081e-03,-1.119188727873487652e-02,1.581706610225822995e-03,1.477450132369995117e-01
-1.281922779854957617e-01,-1.578928659275451174e-01,-2.824830492888163458e-01,-2.191461490030877438e-03,-1.626991709829418925e-03,7.779465043062995825e-04,1.418781280517578125e-01
-1.400353262689343903e-01,-1.421903028757756093e-01,-2.877349874436005983e-01,-1.767312311373673639e-03,6.695685033343067667e-05,5.933323482074230907e-04,1.466696411371231079e-01
-1.341730141701659718e-01,-1.554066945416668899e-01,-2.849720098563818249e-01,-3.453228059905325519e-03,-1.038357097087056011e-03,1.357908086164954196e-03,1.415405571460723877e-01
-1.384647385597003177e-01,-1.594227332256944463e-01,-2.920588162591279957e-01,-3.744162516167026319e-03,-2.167808571734581354e-03,8.566702932817768165e-04,1.444635242223739624e-01
-1.566623127219859968e-01,-1.281619648392998689e-01,-2.837030052824681681e-01,-3.278184911547949928e-03,-9.979944190298822848e-04,9.109400896520306046e-03,1.444177329540252686e-01
-1.500755759857632099e-01,-1.182843888600685484e-01,-2.756068676494363712e-01,-6.087814465925538154e-03,-2.738810735651010537e-03,1.533549289495431470e-02,1.469652801752090454e-01
-1.480234876354627471e-01,-1.376667542559981694e-01,-2.693067999318099481e-01,-1.181700319801388260e-02,-7.591864589112001620e-03,7.778842721546143368e-03,1.297935545444488525e-01
-1.567242884454917717e-01,-1.327421484584169753e-01,-2.842407202583504544e-01,-5.724807186254811213e-03,-5.495200562418724004e-03,5.952815211741488248e-03,1.420877277851104736e-01
-1.480057948817884717e-01,-1.174683579785217036e-01,-2.716899308924906054e-01,-6.545963457771787619e-03,-5.718610692295725793e-03,1.293892470064372628e-02,1.440006941556930542e-01
-1.579058841919059319e-01,-1.218929647803586591e-01,-2.695917293565617268e-01,-1.438939419277708662e-03,-1.729304544124129735e-03,1.358389162283647408e-02,1.355047672986984253e-01
-1.344486235993898049e-01,-1.469684781341674684e-01,-2.797258955442775696e-01,-5.283236565618258142e-03,-5.300469098385806157e-04,-1.588037647377771495e-04,1.397427618503570557e-01
-1.617555368506627955e-01,-1.422457734338750113e-01,-2.785902228791329316e-01,1.478115359700655530e-02,8.592778491460143983e-03,1.139382868434387318e-02,1.325775384902954102e-01
-1.572727662389120651e-01,-1.266802287704296148e-01,-2.758624354628433362e-01,2.650404870013632619e-03,2.283458481832176083e-03,5.239194850346901369e-03,1.369176208972930908e-01
-1.532390721687219015e-01,-1.372894734400352812e-01,-2.767342849320185705e-01,7.496079772937956805e-03,2.002507838373682268e-03,5.861615444069811880e-03,1.332622766494750977e-01
-1.214969872770149534e-01,-1.045019607580683629e-01,-2.036514150288627478e-01,1.633996958629478635e-02,2.415214649205560393e-02,3.562556814015972739e-02,1.216260790824890137e-01
-1.699721562194198565e-01,-1.490382066518348703e-01,-2.989559181311128855e-01,1.785844502685871374e-02,6.630308350362055896e-03,1.431676937064113066e-02,1.465562880039215088e-01
-1.492373383654670704e-01,-1.585517957988807347e-01,-2.449747554260819637e-01,1.337192442601529627e-02,2.687580529673470539e-02,2.610052512911327505e-02,1.144890114665031433e-01
-1.553551840879497103e-01,-1.737466661399587053e-01,-3.037340373742617450e-01,1.205795455081778468e-02,1.280058542753714779e-02,1.050373324420257083e-02,1.445142030715942383e-01
-1.314389655664193191e-01,-1.554944213242583362e-01,-3.001875687998898368e-01,9.521878962949682779e-03,8.186109487053269684e-03,3.279589171653488153e-03,1.596894860267639160e-01
-1.367202372165314816e-01,-1.595235392715085299e-01,-2.883028592869328888e-01,7.623940118948844755e-03,1.108496834698815062e-02,2.533871445228783569e-03,1.435373127460479736e-01
-1.183493574881139265e-01,-1.241927766325110205e-01,-2.578649891201648114e-01,1.758670366533933438e-02,1.917293859521911059e-02,1.248791177594106051e-02,1.455404907464981079e-01
-1.297268644264104043e-01,-1.483740650879226963e-01,-2.758273347513260365e-01,5.234185091698577257e-03,8.502675932280137974e-03,-1.763906963243546322e-03,1.388420313596725464e-01
-1.387677125160297065e-01,-1.581079468328752402e-01,-2.862252529841554094e-01,1.997984634923251346e-02,1.916704183230866221e-02,2.306320849460892150e-02,1.521885395050048828e-01
-8.431961882889157933e-02,-1.092372530025683686e-01,-1.614830988117415267e-01,-2.565884046968995927e-02,5.603332704928042779e-02,-4.045765495201037593e-02,1.447658687829971313e-01
-1.397967546809485151e-01,-1.829803529661935546e-01,-2.656136540923866862e-01,-1.138944441835507311e-02,5.294780092162416907e-02,-2.972831270791964284e-02,1.539882272481918335e-01
-1.339133205873626886e-01,-1.686801288524995557e-01,-2.628497462837203202e-01,-2.665712860361035656e-03,2.545622918497980613e-02,-1.036363900365626714e-02,1.250528544187545776e-01
-1.370148637413226567e-01,-1.601312309628572239e-01,-2.920759364077318843e-01,-1.173479549105158927e-02,1.608456622167390299e-02,-5.967034093110976795e-03,1.492981165647506714e-01
-7.956986979534586002e-02,-1.682286379875809756e-01,-1.814422171408082152e-01,-3.310827590892514993e-02,-9.556376116562277645e-02,4.056306371841534447e-02,2.117270231246948242e-01
-1.426331454692743028e-01,-1.816738533153661184e-01,-2.455358171799549016e-01,-1.894262791677404217e-02,6.347480030069597989e-02,-3.010417255243604331e-02,1.548487842082977295e-01
-1.493887081157211638e-01,-1.445753972430126877e-01,-2.886489779247252141e-01,-4.324205908291620971e-03,3.577912797379680229e-04,-2.728560089011153366e-04,1.419281363487243652e-01
-1.412465960738256976e-01,-1.463632438673644898e-01,-2.906145165416975096e-01,-1.068636116340016158e-02,6.592758833627187891e-03,-4.060072020725427958e-03,1.486443132162094116e-01
-1.459573525972266972e-01,-1.499411273353910001e-01,-2.911206128586177888e-01,-4.346355135401999172e-03,3.963937124811654127e-04,-3.138715700486134196e-04,1.434133350849151611e-01
-1.461820361472008223e-01,-1.513242191704432527e-01,-2.909393122802833576e-01,-4.227489988160030437e-03,6.138626915533242209e-04,-3.170954977006717850e-04,1.424492597579956055e-01
-1.396006718117173140e-01,-1.476279171797595935e-01,-2.887479073442184019e-01,-6.385713764686554855e-03,2.336491212847603260e-03,-3.701875145584835290e-03,1.459174901247024536e-01
-1.435919492712487977e-01,-1.364800516145069087e-01,-2.855511927913358949e-01,-1.045873228145362743e-03,1.603824398744508391e-04,-5.995926434228252477e-04,1.456607133150100708e-01
-1.469340314911693757e-01,-1.642436535182087709e-01,-3.022547852497456389e-01,-4.304545134959977121e-03,1.769957983188580851e-03,1.781890308856060468e-03,1.476825177669525146e-01
-1.441753895933536589e-01,-1.587522493497740272e-01,-2.989198046954860688e-01,-1.462763497155717199e-02,8.043172868811209950e-03,-6.897102579121541961e-03,1.512657403945922852e-01
-1.218440035862081300e-01,-1.671739187277618555e-01,-2.953864950385101107e-01,-8.116323267162980915e-03,2.064992645617070785e-02,-1.208982292150624638e-02,1.619274616241455078e-01
-1.273039947290371954e-01,-1.511068868037387380e-01,-2.873909528862828022e-01,-1.048510853233225286e-02,1.088540089247713033e-02,-4.196295768604357303e-03,1.520591825246810913e-01
-1.348590198380476557e-01,-1.310947593937960287e-01,-2.425037448860791756e-01,-1.371575402433939175e-02,1.022837057918372060e-02,-1.624728072436894266e-02,1.169483065605163574e-01
-1.500960744121869195e-01,-1.511717847782169111e-01,-2.937060352758188442e-01,-1.338012575614567351e-02,1.287804513456101627e-02,-2.445821243110102728e-03,1.467073857784271240e-01
-1.040120026851011070e-01,-1.192913975014398970e-01,-1.593716143921748984e-01,-2.795514296093351211e-02,4.045639039935652187e-02,-4.764282628273713849e-02,1.285162717103958130e-01
-1.622837102577978086e-01,-1.592208360815048074e-01,-2.875892974553564407e-01,-1.729419247595646858e-02,1.611488581124585762e-02,-1.347255910547998439e-02,1.353348940610885620e-01
-1.346278037666645555e-01,-1.619353571962139915e-01,-2.960714485031326060e-01,-4.569149809460059525e-03,9.940258655964276380e-03,6.612646191654490040e-04,1.508691161870956421e-01
-1.464988928376879107e-01,-1.428036938307259418e-01,-2.854588644367445083e-01,-7.497446039979220080e-03,-5.973630585593078541e-04,1.948686544716941730e-03,1.414853781461715698e-01
-1.385008872927551704e-01,-1.461737498578535299e-01,-2.882321737295200914e-01,-4.846933840543051278e-03,-2.314235885754381290e-03,7.877099583188634357e-04,1.463484615087509155e-01
-1.531285515044811807e-01,-1.392345337129249905e-01,-2.888070545677591250e-01,-5.628770890760362994e-03,-8.375545612940195209e-04,3.556466810833450610e-03,1.436033397912979126e-01
-1.466819152114470226e-01,-1.427778226978854148e-01,-2.885202622058619104e-01,-6.594449790787035304e-03,-1.938863332475153399e-03,1.839813323720960667e-03,1.443572044372558594e-01
-1.392787473119932451e-01,-1.524523186202146885e-01,-2.885113027561926335e-01,-4.979028531085623321e-03,3.461619637846489149e-03,-5.627660528620287992e-04,1.434895247220993042e-01
-1.448353239094209433e-01,-1.543352840945031723e-01,-2.896409741652285486e-01,-1.408362209033231722e-03,-7.537376120981750804e-04,-1.099802409203078958e-03,1.403373181819915771e-01
-1.412634683112279077e-01,-1.613586261459497018e-01,-2.987274197249146779e-01,-3.159923059650023014e-03,2.539202630683176209e-03,1.894667496768510928e-03,1.486422419548034668e-01
-1.492978522431760158e-01,-1.646297546388934552e-01,-3.064958263519047543e-01,-3.058502412174916862e-03,-2.016433632614909443e-03,-3.903199621195906229e-04,1.502559334039688110e-01
-1.306453226424512115e-01,-1.543595295593372663e-01,-2.876648840335612745e-01,-2.626029659049402502e-03,2.252681923329153887e-03,-4.510688135115262622e-04,1.467325240373611450e-01
-1.309875903401304664e-01,-1.527085860179199783e-01,-2.886584412864579008e-01,-3.415114371843380216e-03,3.316153205983435239e-03,-8.323498741960851186e-04,1.482470482587814331e-01
-1.414204463164196734e-01,-1.614969797789601313e-01,-3.000082874432074553e-01,3.441702964315401878e-03,-2.839868416469708279e-03,-2.459036095151053867e-04,1.497637778520584106e-01
-1.361211279558972032e-01,-1.605962211023289343e-01,-2.960127288488810793e-01,3.031389116112312258e-03,-2.680740102456227562e-03,-2.041177493181401889e-03,1.493740826845169067e-01
-1.301428052599041263e-01,-1.544190999634399708e-01,-2.869532065522697462e-01,2.893609997387936242e-03,-6.973017448361563779e-03,-6.455386097163988684e-04,1.467797756195068359e-01
-1.348008747050147282e-01,-1.573376496365018473e-01,-2.907317399690447224e-01,2.034968498012335644e-03,-1.328030786604928121e-03,-9.055614164571951848e-05,1.460338979959487915e-01
-1.389140630913049956e-01,-1.635174593521997455e-01,-2.972454405421636747e-01,2.174107757129672969e-03,-4.175465809409036923e-03,6.419239293582402941e-04,1.478052139282226562e-01
-1.366670326091894982e-01,-1.618391307207993901e-01,-2.912081130354255420e-01,1.075135098259784300e-04,-2.045920378467489236e-03,-2.879408699134432389e-04,1.436638385057449341e-01
-1.422138079588443904e-01,-1.624886142195567096e-01,-2.953909247674769700e-01,4.978368826035196567e-04,3.074638824016016100e-04,5.534002269183861579e-06,1.441169232130050659e-01
-1.340620512516944030e-01,-1.500370049751348911e-01,-2.763619860709933818e-01,-7.095738781464726135e-03,-1.372204313217773464e-03,2.321683954347711701e-03,1.356617212295532227e-01
-1.321040376446266373e-01,-1.498843213767006577e-01,-2.838400192992948101e-01,-5.091082055503189964e-03,-2.882083924367152827e-03,2.006232495753058984e-03,1.440721601247787476e-01
-1.199616154851537719e-01,-1.524111985498534660e-01,-2.631643986054490458e-01,-4.647796428611282796e-03,-9.298206336506419784e-03,2.797417086854547385e-03,1.313803493976593018e-01
-1.333389451884329502e-01,-1.629233432712284269e-01,-2.833089483550341736e-01,-4.299802832603395221e-03,-4.741632309129991535e-03,8.543406386957202092e-04,1.380382925271987915e-01
-1.450339894104702432e-01,-1.598586627753676437e-01,-2.895497761192837860e-01,-9.594318037617935793e-03,-6.337467193945305402e-03,2.367188384013852018e-04,1.391366124153137207e-01
-1.327250750766794385e-01,-1.487938537167169673e-01,-2.643675981821435594e-01,-9.958412094080520971e-03,-7.142695798125782598e-03,-1.418833899467615610e-03,1.262110471725463867e-01
-1.468016537725078119e-01,-1.483290634971548005e-01,-2.873061443694868711e-01,-1.408708621779129755e-03,2.077821727744129105e-04,2.364594658534575965e-04,1.397694051265716553e-01
-1.531148618834919650e-01,-1.397957256542431415e-01,-2.892528313011440422e-01,6.788130458691604523e-03,-2.059645388526176214e-03,-3.318962346026212845e-03,1.439034193754196167e-01
-1.293399279559248605e-01,-1.408897212633178353e-01,-2.645853549269132077e-01,1.083591641524877733e-02,7.341084867346370398e-03,4.753622594099873346e-03,1.320771872997283936e-01
-1.377594728572601457e-01,-1.214819961389950603e-01,-2.235741692031327776e-01,1.185105476822791853e-02,-1.650279488088930019e-02,-2.853085676790092368e-02,1.127225086092948914e-01
-1.333081178300280778e-01,-1.411970250620632195e-01,-2.361157212558100960e-01,1.388050600779716821e-02,-1.588718793083500683e-02,-1.824792111621438562e-02,1.102486848831176758e-01
-1.516703397712660384e-01,-1.518335272470239250e-01,-2.972649107367127952e-01,9.041526298330382350e-03,-2.292673252907091383e-03,-2.338616465895539120e-03,1.464632004499435425e-01
-1.687977867938380838e-01,-1.404664428262234199e-01,-3.127677148187788525e-01,7.148900804112485498e-03,-3.923251701432395127e-04,-3.540719227142014296e-03,1.606245934963226318e-01
-1.487550008232034759e-01,-1.433833279449803766e-01,-2.890727201152850645e-01,5.321965800782662084e-03,-5.570495621358602118e-04,-5.954665514521024139e-04,1.433827877044677734e-01
-1.521613260401870615e-01,-1.364279680138811013e-01,-2.887931809256841786e-01,5.805070572243675037e-03,-1.034870431227465862e-03,-3.978607415349482562e-03,1.456615179777145386e-01
-1.442944882515320160e-01,-1.063828610055660984e-01,-2.303565948119919160e-01,7.678041623150129620e-03,-7.536359133155989994e-03,-3.551174136297718942e-02,1.274253875017166138e-01
-1.566856347436288988e-01,-1.337120213385812051e-01,-2.360905422203151138e-01,1.309155234826833367e-02,-1.084247894605353153e-02,-2.847699898273687094e-02,1.093471869826316833e-01
-1.568923386188627589e-01,-1.369032995468634772e-01,-2.773011832443085800e-01,8.026529821215084778e-03,-4.059429821264865824e-03,-8.978607340983331409e-03,1.333764046430587769e-01
-1.522477644154679455e-01,-1.650835624570783922e-01,-2.852006749197995572e-01,1.491847970290727417e-02,-1.738400598522695656e-02,-1.660034118894105487e-02,1.361458301544189453e-01
-1.660023283472672195e-01,-1.544089970975541792e-01,-3.138505627448039403e-01,2.166791451910126884e-02,-2.159731619860460680e-02,-5.527001223825649991e-03,1.631166189908981323e-01
-1.405544223984157570e-01,-1.039806371110294503e-01,-2.445340633858096857e-01,1.289311254588203053e-02,-9.203905304352064456e-03,-3.162106278795039083e-02,1.403739452362060547e-01
-1.655927048405647639e-01,-1.505467985964361877e-01,-2.925548900740632674e-01,2.726816720883319667e-02,-1.941849244952924963e-02,-3.654857972288756696e-02,1.600791215896606445e-01
-1.498432652085586458e-01,-1.542145670504762867e-01,-2.893446223106657667e-01,2.568272454051580972e-03,-4.514750577829387086e-04,8.558035303484310026e-04,1.374500989913940430e-01
-1.299158906744069530e-01,-1.544035093760435240e-01,-2.850256372661276183e-01,-1.242994330954415002e-03,-2.326471119286809691e-03,8.178644351208104370e-04,1.445105075836181641e-01
-1.673600380348878869e-01,-1.511433851926335392e-01,-3.066229863761119612e-01,7.103541904592992201e-03,-4.699704128108049203e-03,-1.351968497926997481e-04,1.487723886966705322e-01
-1.548078841643408532e-01,-1.326340756114081643e-01,-2.819711447386300529e-01,1.298725289107666115e-03,3.498103353827821337e-04,-1.323540343577800328e-03,1.396157145500183105e-01
-1.526285963299960913e-01,-1.496764258049973761e-01,-2.890641907906520980e-01,2.450289452049395772e-03,2.894012458628882653e-04,-4.117671008676064255e-04,1.380034089088439941e-01
-1.525370989567491897e-01,-1.490124075279438409e-01,-2.930760387193097616e-01,-3.835528592994934347e-03,4.479702854715446867e-04,3.855049596543737626e-04,1.424926519393920898e-01
-1.500225112741836730e-01,-1.533516089804998206e-01,-2.908365783891344591e-01,-2.819653707247515850e-03,7.352094567888479721e-04,-3.615148798770365275e-04,1.392722725868225098e-01
-1.639726304201257756e-01,-1.854501068684075160e-01,-2.920836295151941764e-01,-2.403688509114471419e-02,-3.138820368214141621e-02,3.996680295390173110e-02,1.536333858966827393e-01
-1.488002350272814578e-01,-1.436111214969167937e-01,-2.856950331132689369e-01,-5.436611057594715503e-03,-1.411436279426474434e-03,1.496142137044947223e-03,1.399243921041488647e-01
-1.464906334347240158e-01,-1.515511493397175835e-01,-2.891866867772104888e-01,-4.145792642199492076e-03,-8.834027351077214764e-04,6.024436635327883168e-04,1.404302269220352173e-01
-1.506179398087186538e-01,-1.532053816178444994e-01,-2.893980549605169594e-01,-2.403692441364459979e-03,2.158096724735132895e-05,-1.518127807136017610e-04,1.375679224729537964e-01
-1.538779567727069642e-01,-1.369539740842689313e-01,-2.839260839532584679e-01,-4.372214168481412117e-03,7.965706410495799810e-04,-2.003720934327357303e-03,1.395391225814819336e-01
-1.530738213027989514e-01,-1.384368281269578449e-01,-2.878661815440242133e-01,-4.480509446426571632e-03,1.031567753429947498e-03,-1.319450229481719441e-03,1.429154127836227417e-01
-1.492650966794127065e-01,-1.307195033988692023e-01,-2.848286709821179485e-01,-2.065795787085496216e-03,1.031312110292969576e-03,-1.462559764370854583e-03,1.458010226488113403e-01
-1.543424330925985410e-01,-1.401147332988967598e-01,-2.767646528836928965e-01,-8.053569397343056033e-03,1.166993229086286683e-03,-1.210733166474503965e-03,1.308987289667129517e-01
-1.599825262287976613e-01,-1.325142533002295064e-01,-2.745750922265634553e-01,-4.412895860837584387e-03,1.366195170840240778e-03,-9.926664546816621471e-03,1.318835020065307617e-01
-1.647461741607474106e-01,-1.180729629765592537e-01,-2.345760031743781282e-01,-1.125293335989452533e-02,5.268441701683321265e-03,-3.080445260727466064e-02,1.167204976081848145e-01
-1.700332305864346027e-01,-1.457126956738950541e-01,-2.835359421301051341e-01,-8.899656371826008064e-03,3.681544560548091587e-03,-8.117621261658686249e-03,1.292701065540313721e-01
-1.513930713159439556e-01,-1.296368508409813380e-01,-2.798610540064545571e-01,-5.015675149672148628e-03,1.643481052095106462e-03,-3.506786079000784231e-03,1.410418450832366943e-01
-1.558145053582745965e-01,-1.267741812752068986e-01,-2.802292242355839402e-01,-1.988775779475478005e-03,1.158238406701524257e-03,-1.575903566083671718e-03,1.412754356861114502e-01
-1.347997902372650159e-01,-1.263322669778705332e-01,-2.457158173042414684e-01,-2.032873120741280487e-02,-2.222580755890218168e-02,2.262629533257819528e-02,1.325549930334091187e-01
-1.298666534684578266e-01,-1.491974274067691675e-01,-2.845908052036882907e-01,-2.442886994242940164e-03,-1.696172570733656213e-03,1.426936999134267902e-03,1.461333185434341431e-01
-1.419540360310272420e-01,-1.395290597498922147e-01,-2.859463756029159143e-01,-1.567988331126372609e-03,-3.946572494875704947e-04,2.744299915676847563e-04,1.452477872371673584e-01
-1.724523745561789556e-01,-1.380995707779796022e-01,-2.686508644359192344e-01,-2.398120245358831889e-03,4.377997754477610387e-03,-2.159893002360111294e-02,1.233419924974441528e-01
-1.663263775307823877e-01,-1.216565764940103211e-01,-2.588134999021637905e-01,6.036850022725396073e-03,7.150675984414925010e-03,-3.860839960651683139e-02,1.393384188413619995e-01
-1.715193902097650602e-01,-1.362300371033855206e-01,-2.753916797900757274e-01,2.758863472073343377e-03,-1.546298129460309647e-03,-8.771330327634434265e-03,1.263376176357269287e-01
-1.596523474534560783e-01,-1.369913254247304424e-01,-2.732638069554612081e-01,-9.694684867036467216e-03,2.741318156433801209e-03,-9.872808259136391443e-03,1.288121044635772705e-01
-1.666783370875954684e-01,-1.429485086569041719e-01,-2.593033603853855951e-01,-5.541794624939937533e-03,1.335891884304837331e-03,-2.713192866456234920e-02,1.168177574872970581e-01
-1.581386215349146196e-01,-1.271486137299557839e-01,-2.766654151112727944e-01,-2.629181307124105627e-03,2.849930608423451462e-03,-7.829754457966913925e-03,1.375178098678588867e-01
-1.600011336993425182e-01,-1.319154347582593978e-01,-2.707070431354374751e-01,-9.692397250666595664e-05,-7.947606890718382586e-04,-7.638315370294213383e-03,1.277920603752136230e-01
-1.497047579753779112e-01,-1.167571502814389317e-01,-2.632034651544584158e-01,-4.898450621580449161e-04,8.966329216873782375e-05,-8.816897760093114073e-03,1.339439004659652710e-01
-1.510633998921009913e-01,-1.450078560995428090e-01,-2.914372222646828270e-01,-4.958963056837682390e-03,-5.826637649236091282e-04,1.249948987654510985e-03,1.437741219997406006e-01
-1.468563372493754127e-01,-1.442073257095612404e-01,-2.875436046604785689e-01,-2.603326609905744389e-03,1.663534039336771945e-04,6.645428446689468282e-04,1.421068161725997925e-01
-1.485196819591033113e-01,-1.530998776675943363e-01,-2.895540963403824275e-01,-2.447047475663713216e-03,-5.662311241932863450e-04,-1.083820616460074056e-03,1.388818472623825073e-01
-1.482755325597468476e-01,-1.412264575401023237e-01,-2.865538663902043592e-01,-5.239977159832727611e-03,-1.628231234694682474e-03,2.528790650863356644e-03,1.423194706439971924e-01
-1.450263471441973762e-01,-1.483284221448591955e-01,-2.905517093843248411e-01,-4.505656379082807923e-03,-7.760133810760818079e-04,5.912025144214914972e-04,1.441241055727005005e-01
-1.533811416027818786e-01,-1.472258918197181798e-01,-2.962751380221124164e-01,-5.120995566172900811e-03,1.822366438641003633e-04,4.399997835365438066e-05,1.463383436203002930e-01
-1.483623845442153255e-01,-1.453782864765617577e-01,-2.884350962665195861e-01,-7.108430175748452033e-03,-1.001222283727274060e-03,2.734105193517551071e-03,1.422121077775955200e-01
-1.449643064100797629e-01,-1.396621523980673685e-01,-2.840552196210876512e-01,-4.919480902319890193e-03,-1.339908228022496615e-03,6.443596562982626449e-04,1.420954316854476929e-01
-1.463702234964541216e-01,-1.317481117261047330e-01,-2.885119164465790864e-01,-1.619917204966482213e-02,-5.087971252598604520e-03,1.300148842380214644e-02,1.544943302869796753e-01
-1.414895821298397804e-01,-1.557936875484956241e-01,-2.909488712337377492e-01,-5.606901348290440831e-03,-3.308929975838713171e-03,1.181453443388731823e-03,1.433044075965881348e-01
-1.442815575638437542e-01,-1.417897757919615309e-01,-2.797551411182906955e-01,-8.149827454776260166e-03,-2.359822404108519785e-03,3.639322431051934554e-03,1.376683413982391357e-01
-1.328682265870985979e-01,-1.407856851858419744e-01,-2.793554054754000537e-01,-7.544655442577266440e-03,-4.036829773614416042e-03,3.335914192480882081e-03,1.435772031545639038e-01
-1.351947354906539445e-01,-1.425226365065744016e-01,-2.637869491615271178e-01,-1.243728039042607363e-02,-7.495797425909537896e-03,7.386595643479441746e-03,1.282327920198440552e-01
-1.408138856259807670e-01,-1.507941222991210917e-01,-2.785389488506891942e-01,-1.049176878405795599e-02,-5.323335461602371130e-03,4.559281748721388805e-03,1.347993910312652588e-01
-1.333644867263552858e-01,-1.519098818969438491e-01,-2.545567581338559204e-01,-1.571523889718339645e-02,3.686936164993365184e-02,-2.683840107951026080e-02,1.405837684869766235e-01
-1.382911736508185552e-01,-1.425055293219481545e-01,-2.443949452828064195e-01,-1.629052527178713461e-02,2.864622196181695890e-02,-2.410860458439154780e-02,1.258183121681213379e-01
-1.479003782466577488e-01,-1.409973318651847329e-01,-2.695800658831316587e-01,-1.107412651819831249e-02,4.283181600283724258e-03,-7.645434201605885195e-03,1.276395767927169800e-01
-1.340065380424771413e-01,-1.488297454113003959e-01,-2.787568780322849382e-01,-1.219816178701465387e-02,1.136326449767454706e-02,-5.541136470252021676e-03,1.412536501884460449e-01
-1.484119250272672441e-01,-1.442333792915782009e-01,-2.284698005075606053e-01,-1.892001340074396520e-02,3.053425504785821018e-02,-3.154191159835641189e-02,1.166912540793418884e-01
-9.966855739197789943e-02,-1.401502574077956864e-01,-1.882853228286111846e-01,-9.586246208690123866e-03,5.129336008219779336e-02,-1.995828318762816675e-02,1.235639750957489014e-01
-1.401264264175672569e-01,-1.398387146106417622e-01,-2.484027775474900723e-01,-1.460980131113266516e-02,1.284707166260688066e-02,-1.279982729766401123e-02,1.156805530190467834e-01
-1.153992770640996784e-01,-1.381215125538656496e-01,-2.098665055767921228e-01,-1.083486560075968587e-02,2.698632103826896500e-02,-1.769714159526833072e-02,1.037804633378982544e-01
-1.381960475365298646e-01,-1.585937460253466214e-01,-2.464753146522669913e-01,-9.243431220941821999e-03,2.038697473949158817e-02,-1.126998506435929540e-02,1.087017208337783813e-01
-1.489568581563427419e-01,-1.540285153924939310e-01,-2.898201519090120026e-01,8.690267454096216792e-04,8.823215681137217404e-05,-1.218500670823527551e-03,1.384215354919433594e-01
-1.516091698613180605e-01,-1.547971498982758376e-01,-2.937575811093319778e-01,2.585419346607706337e-03,4.739310405408542291e-04,1.160367841594142939e-03,1.406695991754531860e-01
-1.469165480579036343e-01,-1.476540174525711457e-01,-2.898909524012796557e-01,2.944460406985764840e-03,-3.240434910193455589e-04,-8.584524846058913311e-04,1.427071094512939453e-01
-1.513632712245822909e-01,-1.473546945606461767e-01,-2.994910043998721960e-01,1.034305303274686907e-02,4.321588732722923473e-03,1.898175014978043971e-03,1.514577418565750122e-01
-1.582131636320138757e-01,-1.548750293159000813e-01,-3.229261885513741159e-01,1.418738730929573408e-02,-3.828738561576670082e-03,3.775617939092636328e-03,1.684694290161132812e-01
-1.460044013606660585e-01,-1.414670825245580577e-01,-2.852201373929014738e-01,6.062595690570080770e-03,2.541766402382345750e-03,2.360064109117702546e-03,1.420550346374511719e-01
-1.718159564129856653e-01,-1.431165442722691916e-01,-3.203935589100520565e-01,4.050423927995371563e-03,2.939360805000170926e-03,2.263302767534405412e-03,1.650865077972412109e-01
-2.098038759311256773e-01,-1.605153242856305895e-01,-3.647471862597175818e-01,4.416380088374687908e-03,-1.556103151082741890e-03,1.045729338972145768e-02,1.856544166803359985e-01
-1.283255555868269560e-01,1.235372642875548488e-02,-2.677584935826369250e-01,1.306888663304774621e-02,8.325661499109425490e-03,8.322046570084343925e-03,2.444905638694763184e-01
-1.555506065999637810e-01,-7.791161669961869929e-02,-2.839385571054766633e-01,1.324528267540015479e-02,-1.668003588139910232e-02,4.796901748129296650e-02,2.018495798110961914e-01
-1.629058024978566610e-01,-1.451977607963541028e-01,-3.005040790383968763e-01,-9.178425273996008646e-03,1.661874282093605236e-03,-5.077954830150084066e-03,1.483975350856781006e-01
-1.615150133332613203e-01,-1.293751462664567975e-01,-2.929902621052362099e-01,-9.314160374441353071e-03,6.753913727275804094e-03,-8.991724956466053478e-03,1.522628366947174072e-01
-1.534261843461379726e-01,-1.174192708786417211e-01,-2.798563727143072444e-01,-5.078734788660809081e-03,1.143659230224665065e-03,-1.279544196748043546e-02,1.496860831975936890e-01
-1.770067178361665050e-01,-1.295425436699578770e-01,-3.227080872087009222e-01,-1.483660628945654598e-02,4.181502356567503090e-03,-1.078027390759543451e-02,1.773663014173507690e-01
-1.626355398943142572e-01,-1.322822804685303277e-01,-2.938880251706572633e-01,-9.311042151187881935e-03,6.945081588941205350e-03,-9.744707363164538394e-03,1.510699987411499023e-01
-1.621280248680815050e-01,-1.331738022991286186e-01,-2.967454323579811204e-01,-9.245062758702796840e-03,4.807618637595780474e-03,-9.796638342230741883e-03,1.532044708728790283e-01
-1.629838496679158477e-01,-1.415796681479835339e-01,-2.464439451662450431e-01,-7.219784788952410270e-03,1.288226981644765949e-02,-1.546895635423451570e-02,1.028699278831481934e-01
-1.839628733064543331e-01,-1.481002660971796059e-01,-2.626167189132189161e-01,-6.606484981975013814e-04,-1.109150986541572329e-03,-2.886348835828489098e-02,1.131264269351959229e-01
-1.756464639215538359e-01,-1.135564658087845208e-01,-2.674045117056799148e-01,-7.450916030587706115e-03,1.960209948863221151e-03,-5.596184539772929706e-02,1.659675389528274536e-01
-1.578476600270038444e-01,-1.126630381446015461e-01,-2.273590496317415000e-01,-1.673215717250435552e-02,2.048734605006154869e-02,-4.460007174902371613e-02,1.344653069972991943e-01
-1.266095712974416865e-01,-1.615695976001191303e-01,-2.803955546203749094e-01,2.117545674164000857e-03,-9.909259905261732018e-03,-1.983924691444230988e-05,1.407267004251480103e-01
-1.463055980840919645e-01,-1.469458705229370055e-01,-2.888811628894242256e-01,-1.016580678075284074e-03,-6.371893853686926056e-04,8.357542174429482716e-05,1.422717571258544922e-01
-1.171217669767008890e-01,-1.485618979011024410e-01,-2.663988186000980640e-01,-2.060836078113988720e-03,-1.124844013199025917e-02,1.764897008635175771e-03,1.377697288990020752e-01
-1.245649835922334192e-01,-1.597278211247000201e-01,-2.698037635014920443e-01,2.338725793820772836e-03,-7.369671692204004566e-03,1.905853451180854283e-04,1.319210976362228394e-01
-1.184292434643113429e-01,-1.606041914083920219e-01,-2.752100897618812714e-01,1.307286537336572758e-03,-2.695038772262689161e-02,-1.911034196669940139e-03,1.481276154518127441e-01
-1.341208189913709325e-01,-1.792921980605402255e-01,-2.858162636552900038e-01,-5.979372265894455050e-03,-2.687426433546633020e-02,8.136979774281892204e-04,1.430929452180862427e-01
-1.220319150539228292e-01,-1.567566472286278656e-01,-2.681712045187712445e-01,-5.221964105716034614e-04,-7.523777001425477513e-03,-3.450754619874470217e-04,1.328866034746170044e-01
-1.639975212971851448e-01,-1.432760623249731136e-01,-3.000349166609229123e-01,-6.493054332541209686e-03,-1.435754061886830753e-03,-2.924444944818155138e-03,1.480296105146408081e-01
-1.518596504349543075e-01,-1.373568986772706890e-01,-2.879426817086753743e-01,-5.960693461830033832e-03,8.559732525790856835e-04,-4.107427090455429905e-03,1.444364935159683228e-01
-1.496786480598455704e-01,-1.354890977518586892e-01,-2.847651083086829016e-01,-6.086910273832345751e-03,2.342948873313851436e-04,-3.859081499238072640e-03,1.432567834854125977e-01
-1.591413089028468342e-01,-1.305008316142644564e-01,-2.830001164767014243e-01,2.943301686273384638e-03,-4.055064106911250186e-04,-2.414572261881868867e-03,1.405440419912338257e-01
-1.709945812021727296e-01,-1.663575683622884605e-01,-1.452513719944306114e-01,8.104649960903975540e-04,-2.236705306227974692e-03,2.394798681512847263e-02,4.798271134495735168e-02
-1.856467033887173324e-01,-1.863885685465309361e-01,-1.706200004652330682e-01,7.722711693404724098e-05,-1.624079055123001797e-02,1.454248888274136970e-03,3.217378258705139160e-02
-1.242076887067499330e-01,-1.188989131202729393e-01,-5.558345638895057644e-02,-4.627593703158307129e-04,3.933592635867135499e-03,2.240552347131875149e-02,7.698208838701248169e-02
-1.480328555916646249e-01,-1.501615521798311537e-01,-8.208030772197491554e-02,2.701199904247512853e-03,2.422899575362057537e-02,1.700331960712231708e-02,8.452824503183364868e-02
-1.378626753101537539e-01,-1.317656301573736366e-01,-7.739843906399782036e-02,-5.514004376912869272e-04,2.270724595758404421e-02,1.967705317501014170e-02,7.767736911773681641e-02
-1.136691558206524288e-01,-1.195467143620884964e-01,-3.951400436747698475e-02,-3.343282038646622000e-05,-6.201911361235223213e-03,-2.821422356686998159e-04,7.800651341676712036e-02
-1.433962717155355393e-01,-1.444935594080372920e-01,-2.890668945005990254e-01,-3.433810624147412387e-03,-7.453282271613621661e-04,-5.668777392568930332e-04,1.452559679746627808e-01
-1.867239085932094755e-01,-1.928340231634617374e-01,-1.308603265579424690e-01,6.271443055080904491e-04,-1.018560400304076644e-02,1.803772057867032361e-02,6.919468194246292114e-02
-1.585705984203486241e-01,-1.484362386053525995e-01,-3.069858326964770567e-01,-1.362852586959764634e-02,4.496144483347183120e-03,-8.253618574735428412e-03,1.563844680786132812e-01
-1.607786174818633396e-01,-1.526271868323235970e-01,-3.029185962247104014e-01,-8.158503479856442017e-03,3.719650175565315884e-03,-2.116504439280073209e-03,1.472531557083129883e-01
-1.444834739721516381e-01,-1.453285956803399559e-01,-2.863445798445194423e-01,-5.112590460096788983e-03,3.125907411733581075e-04,-1.318697531218566065e-03,1.417368054389953613e-01
-1.561174246224538431e-01,-1.604437900472801271e-01,-3.049852890530742600e-01,-5.632169620348630341e-03,-1.063724034459670193e-03,1.089972506323518085e-03,1.471000462770462036e-01
-1.567933689568264122e-01,-1.538005660929803731e-01,-3.055801172831121848e-01,-2.407443159684345690e-02,4.844135994170125845e-03,-1.319052862738289214e-02,1.578697115182876587e-01
-1.438560497628176005e-01,-1.485187017258832176e-01,-2.864319143363983633e-01,-4.656371321534462544e-03,1.178332810396712877e-03,-1.157462320402012591e-03,1.405633836984634399e-01
-1.453890798573339027e-01,-1.508552887737191484e-01,-2.906448375491307301e-01,-5.120967942391516092e-03,1.745330428736618705e-03,-4.201057945529909372e-04,1.429106593132019043e-01
-1.568579160024853314e-01,-1.537247603568321908e-01,-3.056480625615512481e-01,5.230209568843613259e-03,1.599264007892250202e-03,1.696851542526753862e-03,1.507079452276229858e-01
-1.505859244907349903e-01,-1.459498443930973000e-01,-2.932518931209306956e-01,5.549942083093165578e-03,1.710161142314331082e-03,-2.130512795025129756e-04,1.453884392976760864e-01
-1.380022691143095170e-01,-1.495486306690323453e-01,-2.918639895092424719e-01,1.195566005369520096e-02,-2.802780953625955921e-03,-8.647707914004725341e-03,1.506882011890411377e-01
-1.316443153370897845e-01,-1.411942611237695100e-01,-2.867312289396005687e-01,1.248142979394982130e-02,6.615081127217848321e-03,4.997321630676176962e-03,1.527600586414337158e-01
-1.528317342164473847e-01,-1.554961994124272606e-01,-2.920533462754280052e-01,2.017396084857610815e-03,-8.038161538079741184e-04,-3.878990006082667810e-04,1.379616111516952515e-01
-1.700771004846414747e-01,-2.088244242683103824e-01,-3.769910498947659505e-01,-1.164740047719542079e-02,-5.342614337030034827e-03,1.380762572907863841e-04,1.918073296546936035e-01
-1.418766907176318148e-01,-1.473817277982524543e-01,-2.880904312087168573e-01,9.139195141465124902e-04,1.858755218724385521e-04,3.688045315532699074e-04,1.435509324073791504e-01
-1.437998755344051804e-01,-1.436463733662285414e-01,-2.883052187836445679e-01,-1.497922107210248113e-03,-1.204350864528991724e-05,-1.106992594114822228e-03,1.446181386709213257e-01
-4.639298070256860085e-02,-1.327769373235861416e-01,-2.565004411680900098e-01,-2.056724543510863451e-02,4.764581844570845576e-02,-8.839767892246118463e-04,2.038116008043289185e-01
-1.352875663517383309e-01,-1.500378335481341030e-01,-2.858027271422045046e-01,-1.510984102921877339e-03,5.168107186014449846e-04,-2.516242697673241359e-04,1.437361687421798706e-01
-1.439239127648622718e-01,-1.612005125190332233e-01,-2.921606692873570665e-01,-1.406201454191660346e-03,-1.484162976961837842e-03,1.719639996849527586e-04,1.404429376125335693e-01
-1.363980729175275908e-01,-1.424962152053742825e-01,-2.772098549406675216e-01,-5.677617339750687907e-03,-3.583747833238994703e-03,2.125837054935640017e-03,1.384024918079376221e-01
-1.961625860077051420e-02,-1.461756129873017507e-01,-2.966838256699106946e-01,-1.774782731497459923e-02,2.430458511907494182e-03,-3.181599102454025531e-03,2.423040717840194702e-01
-2.201993155816115433e-01,-1.498725671746813926e-01,-3.647711368320718517e-01,3.783228720765647451e-02,-2.881065140280980250e-02,4.706538045385145336e-02,2.223591357469558716e-01
-1.317126810968194395e-01,-1.481020099919549138e-01,-2.826230210330229475e-01,-1.342047037693461058e-03,4.933251325784178323e-04,-2.390459609920039764e-04,1.434417217969894409e-01
-1.354250521429032628e-01,-1.490456382129634882e-01,-2.855900507847986547e-01,1.361837816302985133e-03,-8.262360832921877580e-04,-5.152659830607556231e-04,1.438684165477752686e-01
-1.852815599275724201e-02,-1.093025875594958035e-01,-2.697799421781557072e-01,-4.383890736122347115e-02,-2.453827446205015736e-02,8.719754890703005842e-03,2.374031394720077515e-01
-1.515295199905713763e-01,-1.552317823177942202e-01,-1.672189924890546686e-01,-1.344661677716456772e-03,-9.929072799908724052e-04,1.029388759679453029e-03,1.460618432611227036e-02
-1.393151009902519055e-01,-1.476617693368283413e-01,-2.874488828607733026e-01,-4.594998523939450297e-03,-7.730816380970417919e-04,6.697532001180972602e-04,1.443722248077392578e-01
-1.567364851101195888e-01,-2.695249408175575123e-01,-4.322707082561482728e-01,1.041673675078673249e-02,-8.021606375322100357e-02,-2.769895896154623682e-03,2.778770625591278076e-01
-1.648154302950111116e-01,-1.320844590573919120e-01,-2.915620642565101561e-01,-1.633064566912164174e-03,1.582198766557923412e-03,-8.404676018723401115e-03,1.466696709394454956e-01
-1.578403760533556577e-01,-1.317666444993543517e-01,-2.811469934703450524e-01,-7.516128785810835197e-03,4.343289247041595691e-03,-9.422648433522287995e-03,1.399708986282348633e-01
-1.718215866732665520e-01,-1.378257790661045756e-01,-2.525359430061104860e-01,-4.356489163995987644e-03,8.105052989137462652e-03,-2.963816595920941779e-02,1.153418719768524170e-01
-1.596188076747550033e-01,-1.269720166322338972e-01,-2.585846552886462146e-01,-3.463658912766426345e-03,2.758507370240323962e-03,-1.521352265494260204e-02,1.218365356326103210e-01
-1.466739751462554642e-01,-1.186430769843840882e-01,-2.509592627063740311e-01,-6.401533962107838760e-03,3.442406572909686123e-03,-1.520268721416269744e-02,1.242425739765167236e-01
-1.392810153788071048e-01,-1.308219109033574301e-01,-2.727564983187775738e-01,-6.906048023142795540e-03,3.830409526119992088e-03,-3.796073632860126352e-03,1.387323737144470215e-01
-1.505825063050754697e-01,-1.367412377410015534e-01,-2.821987693927134333e-01,-4.832264801918836200e-03,8.695627915759603175e-04,-2.663582956928854141e-03,1.393906772136688232e-01
-1.959263740393610842e-01,-1.541579272903450260e-01,-2.691202390487785756e-01,-4.778294751601817013e-03,1.634175289148265958e-02,-5.158036828349139152e-02,1.378781944513320923e-01
-1.385982723878692591e-01,-1.404352698482372042e-01,-2.839345154318448916e-01,-6.501568127567815139e-04,6.610426876332617776e-04,8.276995675180056711e-05,1.444355100393295288e-01
-1.247939367551785250e-01,-1.004773740289149342e-01,-1.503865495707052413e-01,-7.284790057396898187e-03,3.586461988419009823e-03,-4.605614004020167768e-02,9.181447327136993408e-02
-1.527064756093154396e-01,-1.548612443136410111e-01,-2.913798670038041383e-01,2.233982687121850112e-03,2.592247973176565697e-04,2.328492577959742442e-04,1.376643776893615723e-01
-1.484964601274003648e-01,-1.408501538861477442e-01,-1.997067904280405981e-01,5.732985733996658929e-03,1.009764686337144470e-03,-4.664061147423769101e-03,5.691620707511901855e-02
-1.659352990785707416e-01,-2.877108345831618230e-01,-4.744097740284399789e-01,9.071151089496135717e-03,-6.626747479098972493e-02,-6.040751340380943503e-03,2.931750416755676270e-01
-1.460853173151648865e-01,-1.414703268438626815e-01,-2.939175163503652266e-01,1.225371771628942959e-02,-8.997731954160634316e-03,-1.101562332768070938e-02,1.536726057529449463e-01
-1.380088009129744608e-01,-1.544909969175340680e-01,-2.889807855023227567e-01,6.195003294599088321e-03,-5.838983497745810561e-03,-7.255183707166097960e-06,1.441987156867980957e-01
-1.528715913890670575e-01,-1.501259972314787916e-01,-2.933559488190625175e-01,3.131754974767963010e-03,4.136995121302856730e-04,2.011833946450560157e-04,1.419829726219177246e-01
-1.532071500903064987e-01,-1.618368577291213195e-01,-2.161374616812729299e-01,2.344145311169019107e-03,-4.872345670181363678e-03,-4.875202051821551420e-04,5.983346328139305115e-02
-1.357821825392969695e-01,-1.499720495246442409e-01,-2.871758472080097047e-01,-1.511913000208021029e-03,5.173437831253105542e-04,-4.451758209193577387e-04,1.448495537042617798e-01
-1.347426647731720384e-01,-1.520653615730643560e-01,-2.816806039573067633e-01,-5.365519554032546420e-03,2.091850645639221906e-03,-1.027227922227689745e-03,1.394565552473068237e-01
-1.549152978330391450e-01,-1.332069176889445483e-01,-2.892172680928581374e-01,1.410571160500244175e-03,-5.014126676337283747e-04,-1.969677449566069240e-03,1.464312523603439331e-01
-1.485961411289175027e-01,-1.592036408578069717e-01,-3.048809524859974474e-01,1.182445004182289781e-02,-9.288433612668761663e-03,-6.166092512181644940e-03,1.538571119308471680e-01
-1.543142065299629717e-01,-1.486730056411003642e-01,-2.885120368870228713e-01,-1.999080759121107964e-04,-2.054366154876618707e-04,2.482326284910165858e-04,1.371070742607116699e-01
-1.392216393623415260e-01,-1.531025770409508435e-01,-2.927458928066347110e-01,5.936309175130965142e-03,-5.192416364694866365e-03,4.998594520335352363e-04,1.477114409208297729e-01
-1.542035848570557643e-01,-2.028088457039489145e-01,-3.607855733448179780e-01,3.047450756135662228e-02,-8.024748999593121768e-02,-3.021052861770988016e-02,2.446236163377761841e-01
-1.444599067084050836e-01,-1.578181533899778999e-01,-2.890123090386199634e-01,7.270940718469260473e-04,3.881876918411834246e-05,5.200344216935395185e-04,1.383664458990097046e-01
-8.247953026276941269e-02,-1.307924220620808875e-01,-2.291205920324710654e-01,2.518783886364996116e-02,-6.239615548476883100e-02,-3.532422273517145384e-02,1.846066266298294067e-01
-1.584328310569149967e-01,-1.271980253529079730e-01,-2.816232370428343179e-01,-5.758823459100728291e-04,3.863431051033123218e-04,-6.733117241672976388e-04,1.414288580417633057e-01
-1.232462940400049223e-01,-1.590693285020911840e-01,-2.934054800500363047e-01,2.512602168523929771e-02,-3.868359667272723568e-02,-1.878767465568295311e-02,1.777187734842300415e-01
-1.347735337158425251e-01,-1.500661123013232456e-01,-2.785006348061769832e-01,-6.590632022240750822e-03,9.866827372430561106e-04,5.603057152073124376e-05,1.372101455926895142e-01
-1.371930045242185647e-01,-1.470520469195770730e-01,-2.862371668250571766e-01,-1.575952687520097532e-03,7.760818939470451577e-05,-9.914842356649414962e-04,1.444034278392791748e-01
-1.368853233872764363e-01,-1.631434620452488216e-01,-2.906112863952140524e-01,6.484360488345027387e-03,6.380916461057761779e-03,4.017913165813987234e-03,1.434619277715682983e-01
-1.350326779370494001e-01,-1.568061030591638427e-01,-2.747528524426648411e-01,8.633578253396402211e-03,8.398192107747642909e-03,3.978752437409661773e-03,1.320466548204421997e-01
-1.000602847616390567e-01,-1.317060278869372214e-01,-1.812279715747242281e-01,7.795816574876095195e-03,4.138434498664082806e-02,9.462859151492272400e-03,1.030047982931137085e-01
-1.039296101003466949e-01,-1.463431417044405436e-01,-2.188973643435439542e-01,1.022907111035057867e-02,3.605251916933573803e-02,9.669293612010666783e-03,1.209712475538253784e-01
-1.338278340188143456e-01,-1.385927285378652785e-01,-2.743995324064530950e-01,-5.163975346831290586e-03,2.519346348073788107e-03,-2.362988780504149920e-03,1.386689990758895874e-01
-1.544670520581248874e-01,-1.965627895107421863e-01,-3.047216712766011582e-01,1.695500468049322695e-02,3.419453014492671028e-02,1.869595820240836648e-02,1.531086266040802002e-01
-1.254977332007173874e-01,-1.682478991313808847e-01,-2.462357058558545531e-01,1.524196800920795888e-02,3.062384771912627854e-02,1.881638907010724227e-02,1.257626712322235107e-01
-1.166501547801159083e-01,-1.451989900992168847e-01,-2.592700577654219463e-01,8.133420096853532719e-03,1.266169984386621671e-02,6.130762878301180586e-03,1.337012052536010742e-01
-1.172338039993618408e-01,-1.397420784305629105e-01,-2.433619304488019719e-01,9.798397146761788842e-03,1.736273052100539838e-02,4.850897227391796213e-03,1.218154877424240112e-01
-1.255356166219580571e-01,-1.567241227273081794e-01,-2.899110660556388774e-01,7.165341600580876248e-03,1.270647615120629528e-02,7.779612674585706725e-04,1.533153355121612549e-01
-1.417723687756065609e-01,-1.480986741397556095e-01,-2.816768994898934952e-01,-6.169478899856948445e-03,-3.209476368006726065e-04,7.671513489443732210e-05,1.372688412666320801e-01
-1.345144328119027843e-01,-1.462988514413023078e-01,-2.832314707813538557e-01,-3.926949511073059632e-03,1.563605081832926749e-03,-8.065201493277766214e-04,1.433828324079513550e-01
-1.561733337946355771e-01,-1.467651067916966867e-01,-2.976846419861775561e-01,6.284479241940087689e-03,1.175571499400281583e-03,2.538361768905494226e-03,1.469261497259140015e-01
-1.348368676857823745e-01,-1.513246796962634533e-01,-2.823596156843615201e-01,4.208943469739184762e-03,6.831859173946604538e-04,2.312257621590626915e-04,1.402040868997573853e-01
-1.558145619598769738e-01,-1.566064646017445439e-01,-3.022299798142134564e-01,1.147896490353495988e-02,4.842716714846257223e-03,4.459319757711089835e-03,1.478088945150375366e-01
-1.221981253176179227e-01,-1.444114458735355211e-01,-2.702518243132674969e-01,-5.679293653971911535e-03,4.666430350721508316e-03,-2.516854860838807582e-03,1.389448046684265137e-01
-1.484243250885005638e-01,-1.521814531940872128e-01,-2.890518133968630887e-01,2.609194274874379778e-03,2.780569046381125165e-04,-4.409501654342779962e-04,1.388635635375976562e-01
-1.462501757801836222e-01,-1.403240371360436056e-01,-2.868885668483358020e-01,-1.107285237141421687e-03,-6.926127624771840404e-04,1.961975333068287711e-04,1.437113434076309204e-01
-1.426997387703278497e-01,-1.490136857318162811e-01,-2.922779261004772589e-01,-7.643847795952558692e-03,4.990136106348215007e-03,-5.791038789675557238e-04,1.473772972822189331e-01
-1.593281519504319288e-01,-1.516587483189541508e-01,-3.106568823426232862e-01,2.247703503333334241e-02,-1.043516456364058237e-02,-1.087022103812106122e-02,1.622239798307418823e-01
-1.482923473111351642e-01,-1.511679060125023788e-01,-2.897079233638036877e-01,4.171615767812870620e-03,2.300380129472995457e-04,-3.592480786835667152e-04,1.401882171630859375e-01
-1.523992327487521392e-01,-1.429931735671766679e-01,-2.884294892796880339e-01,-1.173838484947124523e-03,2.095181951893991849e-04,5.582012587266617625e-04,1.409872770309448242e-01
-1.531353790576851781e-01,-1.511653034006383567e-01,-2.908720536123962086e-01,3.331364075471864722e-03,-2.383434489420315449e-04,-1.680481106384448180e-04,1.388530582189559937e-01
-1.527389457948936657e-01,-1.545305383692274492e-01,-2.920363689561436549e-01,2.439894147925278107e-03,-5.806754628051864330e-04,-8.659044826729089340e-04,1.384865939617156982e-01
-1.559162941824132065e-01,-1.539086954849096522e-01,-2.943145128104983077e-01,2.066178671755968237e-03,9.214536554824876531e-04,9.454900243248800032e-04,1.394775360822677612e-01
-1.445838374607386623e-01,-1.750391363190025307e-01,-2.891801930440764945e-01,-5.677388640677133967e-03,2.195555847988470491e-02,-4.844250513231660761e-03,1.380041390657424927e-01
-1.572686260263576330e-01,-1.441271791111931599e-01,-2.886237756383965847e-01,7.944834597384791818e-04,-3.815299669164113304e-04,5.247646613952784353e-04,1.384060233831405640e-01
-1.355382653147747252e-01,-1.758195838697251545e-01,-3.008953428333341895e-01,-1.237700916074654716e-04,1.431733522420544115e-02,-2.231046379452210088e-03,1.514420211315155029e-01
-1.078955477723704814e-01,-1.363074162885990481e-01,-2.512514187370831209e-01,-1.444913665195486641e-02,2.517430108447294909e-02,-1.013203202939567428e-02,1.418473720550537109e-01
-1.146193256393145121e-01,-1.426792968597106748e-01,-2.379430290398577563e-01,1.393359124399718568e-02,-2.906261075544470246e-02,-9.769160498881943391e-03,1.262469291687011719e-01
-1.468760754597936147e-01,-1.225682779296262265e-01,-2.428803149322273924e-01,-1.149925476138267781e-02,7.383167217646672761e-03,-1.635000620531184071e-02,1.162047088146209717e-01
-1.295877371938118916e-01,-1.536292472163302003e-01,-2.778131652759939230e-01,-3.990359936520021002e-03,-3.971470982052131837e-03,6.746151737681856499e-04,1.381363868713378906e-01
-1.246692310183302316e-01,-1.540893293798070718e-01,-2.853981856397072026e-01,-9.984498144413581425e-03,1.087287518119715510e-02,-7.467730572262186103e-03,1.509692221879959106e-01
-1.261119686702375509e-01,-1.588244429909786148e-01,-2.795680047141749780e-01,2.137180003068739407e-04,-1.024778550793311953e-04,3.580005953438876606e-04,1.399981677532196045e-01
-1.297136386982546408e-01,-1.600667557014770204e-01,-2.920290228903493768e-01,-2.611247166227608201e-03,9.772676112311834418e-03,3.155542617037415416e-03,1.505910456180572510e-01
-1.482442571431504263e-01,-1.463491221065217340e-01,-2.879091121011507215e-01,-9.418708138153949897e-04,6.937957776165802929e-05,-2.964524665746732656e-04,1.406324505805969238e-01
-1.629733720121196994e-01,-1.396967212613983711e-01,-2.815275544375948069e-01,-7.946737722190760911e-03,-1.299842849314023028e-03,3.396934949682005561e-04,1.324813514947891235e-01
-1.400185051976183814e-01,-1.695910414333098859e-01,-3.102443880473850224e-01,-1.413115714575461680e-03,-5.213612919831898430e-03,9.588589311509332282e-05,1.578129827976226807e-01
-1.243487044339509351e-01,-1.555177407583350491e-01,-2.780057424649095554e-01,-3.996814475811609306e-03,9.987861931720619715e-03,-3.457402449816514810e-04,1.419162005186080933e-01
-1.485425934403154791e-01,-1.475385807371762670e-01,-2.885490491089049980e-01,1.564493099381088779e-03,1.310019731690202508e-04,-2.698793554979543119e-04,1.405382454395294189e-01
-1.533651551072550689e-01,-1.637588626094024780e-01,-3.149618116041792981e-01,-8.103969471778377578e-03,-2.536549791579122051e-03,-1.156778239314283467e-03,1.573602855205535889e-01
-1.500788918117101356e-01,-1.558700267664143713e-01,-2.919967011579259197e-01,-3.348913197495081507e-04,-1.021883062186021565e-05,1.177114038955256927e-03,1.391288191080093384e-01
-1.585117264567614814e-01,-1.616502953456677716e-01,-3.058027757110586276e-01,-7.271270351450822254e-03,-5.712862822183116052e-04,4.113237914994234625e-04,1.462953239679336548e-01
-1.705176718912065903e-01,-1.591863023710605729e-01,-3.091453983966553909e-01,-1.389604909695368526e-02,-1.060442801640714902e-02,3.990109354001012028e-03,1.479233354330062866e-01
-1.291345861100700598e-01,-1.600938993370596142e-01,-2.873919794404922179e-01,-3.861277052204210121e-04,-2.351563144341466387e-03,1.056554046242754548e-04,1.453320682048797607e-01
-1.575339498871039245e-01,-1.244985773644342875e-01,-2.691653763972924884e-01,-1.074322112882922578e-03,-9.143432176948508583e-05,7.536202442974877791e-03,1.319642663002014160e-01
-1.592166100246261429e-01,-1.340489808889991086e-01,-2.846717214075084046e-01,-3.754400411210519380e-03,1.159255629120519880e-03,-3.288926658783388260e-03,1.400306075811386108e-01
-1.267741238142964522e-01,-1.577997004910557943e-01,-2.820951051108586127e-01,2.438291391700669766e-04,-7.942358754436413138e-04,2.624623551720466487e-04,1.423746794462203979e-01
-1.527840690372161969e-01,-1.221453519843191393e-01,-2.494781110224879583e-01,-2.851998742584968896e-03,1.010048445227046952e-05,-7.415307710371979444e-03,1.159327924251556396e-01
-1.697637827237984953e-01,-1.671565759464548051e-01,-1.030013522643191959e-01,-4.011843049803166111e-03,-1.105034985469022062e-02,8.531848045616971868e-03,7.016372680664062500e-02
-1.469721340605521231e-01,-1.483663443190472719e-01,-2.895531928092646146e-01,6.481539236993784326e-04,1.223574282733166596e-05,-2.469635215177227788e-04,1.418941766023635864e-01
-1.423060256017072145e-01,-1.576809411839157904e-01,-2.930746248897467821e-01,-1.981520287304953942e-02,-1.359805403285482481e-02,9.001174733713070142e-03,1.504168063402175903e-01
-1.283795496203711806e-01,-1.391348639895554351e-01,-2.849037863843216778e-01,-1.566119508384307413e-02,-6.798355139102526222e-03,4.656741102729672691e-03,1.545042842626571655e-01
-1.539650082575716172e-01,-1.619114687697060795e-01,-3.023844726418228324e-01,-6.475092775717780809e-03,-3.518658466884050980e-03,-1.762408740115873132e-03,1.452043950557708740e-01
-1.593377652448360327e-01,-1.396436704358099967e-01,-2.452981681134355496e-01,6.012910500784064173e-03,2.732140192895226357e-03,1.840330506964331023e-02,1.030381694436073303e-01
-1.492620213883168456e-01,-1.349030997416795774e-01,-2.851040058709996550e-01,-9.530609545605852381e-04,4.920127204664694748e-04,-6.131798164237206670e-04,1.435769796371459961e-01
-1.326689394989392923e-01,-1.329873961659630288e-01,-1.443654356846527376e-01,7.677771065647225404e-03,2.081553739210695655e-02,3.164384773604214662e-02,6.792560964822769165e-02
-1.571360958249199691e-01,-1.523525780640147265e-01,-1.796705463432188843e-01,5.182644206966154424e-03,8.377357221688778652e-03,2.746442243088564536e-02,5.650204047560691833e-02
-1.838825639751177632e-01,-1.465564625070649440e-01,-3.189110235140625860e-01,1.183763050359691940e-02,-1.320666142474410769e-02,-3.604736109525543547e-02,1.717785894870758057e-01
-1.516454662842313394e-01,-1.219136527925219343e-01,-2.852183133723880659e-01,7.457728386408275442e-03,-3.239005712677060257e-03,-1.020039720960170919e-02,1.523401439189910889e-01
-1.848951504149998204e-01,-1.479306395830127796e-01,-3.292927675168277890e-01,1.521805914672536182e-02,-7.693655825166736788e-03,-2.229592641535181607e-02,1.729690879583358765e-01
-1.509249510734977373e-01,-1.508455971797812156e-01,-2.869242275781807572e-01,-2.086679554460805762e-05,7.672755280341121372e-05,2.548278933829289461e-04,1.360397636890411377e-01
-1.447206471374906100e-01,-1.218567079561653915e-01,-2.749722462452077743e-01,8.432415978481301588e-03,-1.192437338262010080e-02,-1.312678869608310123e-02,1.470480561256408691e-01
-1.412048275029961497e-01,-1.418343952943076636e-01,-2.869483054360238983e-01,1.293013809274706901e-03,1.806326821383067924e-04,-1.881794993842270878e-05,1.454472988843917847e-01
-1.714118797346577128e-01,-9.160564529674833367e-02,-2.596455944687169337e-01,1.597308184157888999e-02,-3.495651498159161458e-02,-3.983724923960522274e-02,1.743219345808029175e-01
-1.026101162536458972e-01,-3.691970953168574598e-02,-1.844286305422848382e-01,3.157327016822722605e-03,7.775676783539270387e-03,-5.343853637110496102e-02,1.586269587278366089e-01
-1.557409693089045200e-01,-9.833602470990557287e-02,-3.121256087991549077e-01,2.186939401921803028e-02,-7.242071977636062481e-03,-2.564782575808645729e-02,2.007344514131546021e-01
-1.620031829533759293e-01,-1.334697045287798201e-01,-2.937583501599390634e-01,7.991999488119235634e-04,-1.751267971686610279e-04,-4.872628464988055380e-03,1.483450382947921753e-01
-1.635960698850995598e-01,-1.246925518360339075e-01,-2.942584533988043538e-01,1.296099498349424220e-03,-7.161407803230075177e-03,-1.067348917871628611e-02,1.554671525955200195e-01
-1.662427098954373239e-01,-1.352902200561416080e-01,-3.082990215889935826e-01,-4.899770060315301488e-04,-3.607333655468041717e-03,-2.789748110682874205e-03,1.599942296743392944e-01
-1.426833954988141473e-01,-1.441814913913443408e-01,-2.874131559447179463e-01,-3.553195220206475761e-03,-2.899930310353944149e-04,6.864170520371940367e-04,1.441238075494766235e-01
-1.436921811854224851e-01,-1.454722394659942741e-01,-2.896775507592487253e-01,5.850684130794786119e-04,1.412276282986056966e-04,-2.221779498094582134e-04,1.451077908277511597e-01
-1.582668315249272095e-01,-1.358352966306596576e-01,-2.465517637390214345e-01,-1.143014574562480068e-02,-1.570045224487213315e-02,3.508441612270897514e-02,1.228900924324989319e-01
-1.634844301793730859e-01,-1.523057649477625453e-01,-3.016161653390166952e-01,-1.579786175079423219e-02,-8.398582375413826684e-03,1.199408778734671437e-02,1.487997621297836304e-01
-1.419531781071984300e-01,-1.518469350649928329e-01,-2.827504052060031414e-01,-7.218035222606099602e-03,-1.647401940094173241e-03,1.098794103042492667e-03,1.367362290620803833e-01
-1.423056072047416687e-01,-1.431749156330706096e-01,-2.877103092752770208e-01,5.841551332350235388e-04,1.410072167425544735e-04,3.812366460944957959e-04,1.449772417545318604e-01
-1.398788095093017603e-01,-1.563319516077295024e-01,-2.801470147686630496e-01,-9.140248561611627118e-03,-6.031921520647230174e-03,4.045700601734257204e-03,1.343387961387634277e-01
-1.312523399245763833e-01,-1.557476918381703879e-01,-2.867319241139886232e-01,1.394418015534992696e-03,-2.082271704956170817e-03,-6.127446836394096494e-04,1.448632627725601196e-01
-1.199926564153677849e-01,-1.520566319913095876e-01,-2.469452208023377171e-01,-2.022231403985837173e-03,-9.094562770148766420e-03,-1.039325979946945680e-04,1.154767572879791260e-01
-1.554762374013894943e-01,-1.295400328422207648e-01,-2.858315335358040943e-01,1.426973485298315639e-03,-3.625062338595294131e-04,-2.103129901177509808e-03,1.451409161090850830e-01
-1.574087394695466713e-01,-1.399560838969374776e-01,-2.769994299566562734e-01,-8.792846067182521694e-03,-1.166432116419551966e-03,8.132657958010753793e-03,1.308745443820953369e-01
-1.470531748623982726e-01,-1.203194049142611299e-01,-2.680261401077474459e-01,-5.962645176558128285e-03,-3.069103611882676146e-03,1.144774265022442845e-02,1.382435709238052368e-01
-1.340216734084432038e-01,-1.330177446059611079e-01,-2.401199623542443484e-01,-1.043600204378160486e-02,-2.808100384913000350e-03,1.454756502075487540e-02,1.111289858818054199e-01
-1.434668944872294072e-01,-1.227736519318446407e-01,-2.636221761657802642e-01,-6.538603970788999138e-03,-6.126816761022531657e-03,5.610464398327726608e-03,1.329932659864425659e-01
-1.418958668577798288e-01,-1.453358415122399938e-01,-2.881384519881214357e-01,9.737813920484022666e-04,-2.056761735560635779e-04,4.570009284194803011e-05,1.445636004209518433e-01
-1.351893623653762089e-01,-1.501005442147317348e-01,-2.871761734013787426e-01,1.099412266061143735e-03,-2.245339826645174924e-05,-4.709622816400860440e-04,1.451217532157897949e-01
-1.642976723867925204e-01,-1.370680356270935762e-01,-2.184794127387563734e-01,3.223385228312955833e-03,1.113155241488665223e-02,3.402473684428273387e-02,9.501797705888748169e-02
-1.424328801576637271e-01,-1.461639895815501911e-01,-2.898114069170397711e-01,6.886276431984704287e-04,-1.456016176240020759e-04,-2.067922510316673175e-04,1.455543935298919678e-01
-1.381913964687324359e-01,-1.101885691169551817e-01,-1.711467963614030086e-01,4.077595198810207711e-03,1.375110645352562409e-02,3.856846869722393295e-02,8.872880041599273682e-02
-1.539883748251251183e-01,-1.406000000382067183e-01,-2.358060678937619059e-01,1.714828989386789002e-02,1.964997120690406898e-02,4.962800850390115814e-02,1.319020986557006836e-01
-1.638695274327104101e-01,-1.282303285138018945e-01,-2.283016309792885168e-01,1.406441149590833238e-02,2.966180608007445638e-02,3.824351998215236997e-02,1.238488927483558655e-01
-1.819250833183761462e-01,-1.539481974372960416e-01,-3.083742044736907384e-01,1.322743777480814287e-02,1.335087799632159525e-03,2.261439132667595470e-02,1.495801210403442383e-01
-1.572346048822090836e-01,-1.007832886459005262e-01,-2.124389283992808020e-01,7.668110454100029831e-03,-1.192810671714851500e-02,3.848435572817104910e-02,1.199875026941299438e-01
-1.603805778222134326e-01,-1.453002572680115456e-01,-3.005690463131249768e-01,1.281834049976364812e-02,7.515473453986501982e-03,2.318963469635803784e-02,1.557881981134414673e-01
-1.593428779242109516e-01,-1.486078200706782426e-01,-2.928926661642741180e-01,1.036216917108629190e-02,2.462997097745326779e-03,9.191559792616054575e-03,1.413443684577941895e-01
-1.381968310579836934e-01,-1.513074897151771570e-01,-2.874293245224313065e-01,1.068015558326242944e-03,-9.331765866972467453e-04,1.902018992379700337e-04,1.431496888399124146e-01
-6.566581480047706254e-02,-1.413824815411778846e-01,-2.943044851254234540e-01,1.940655949114562101e-02,-8.858313533570374987e-03,-1.993920801061440859e-03,2.051196694374084473e-01
-1.782370854876733079e-01,-1.720015693959314751e-01,-2.168373136294426962e-01,-1.795761208820747905e-03,-1.152142849753676548e-02,-4.766722825569927671e-03,4.738797992467880249e-02
-1.283363582673557324e-01,-1.571491312318960276e-01,-2.874562108092358903e-01,2.271991780380501545e-04,-2.677363433906079348e-03,4.946757087719689345e-04,1.469251960515975952e-01
-1.524352516971339833e-01,-1.310429230540031131e-01,-2.834559121898745926e-01,6.722947347007920613e-03,2.031869823432551694e-03,5.864701736944259898e-03,1.437986344099044800e-01
-1.537228649641298739e-01,-1.420054417031975935e-01,-2.842094983251644558e-01,-8.576639589211822179e-03,-3.875182687641739142e-03,3.531203367781906178e-03,1.378265619277954102e-01
-1.210343383927442312e-01,-1.112440620322332485e-01,-2.292655099014763997e-01,-1.764286997943393179e-02,-2.047152745611669281e-02,2.556418237894355489e-02,1.304649114608764648e-01
-1.537556928428579217e-01,-1.256249753229338184e-01,-2.816702009562541686e-01,-6.298102043110319001e-03,-2.996479520506305401e-03,1.064315965362913098e-02,1.457310914993286133e-01
-1.894755800033313398e-01,-1.616189469914912635e-01,-3.386854113239316511e-01,-1.334552079530742195e-02,-1.758153980104512236e-03,4.051152254803820976e-03,1.666999310255050659e-01
-1.259038937335379971e-01,-1.590592692169016942e-01,-2.817529407350694015e-01,3.252959287359867790e-05,-4.444207873168407410e-04,-2.571519752313348745e-04,1.422032564878463745e-01
-1.456999736162795656e-01,-1.541588241303550322e-01,-1.972463839825887577e-01,5.160579174248893300e-03,-7.264364204183902142e-03,-3.622061368348748842e-03,5.069641768932342529e-02
-1.526909381145754585e-01,-1.235891530694759460e-01,-2.883315306590817917e-01,-6.758181906584324362e-03,-2.239249278172935221e-03,8.055093112339902287e-03,1.534254997968673706e-01
-1.605289829083742514e-01,-1.341182862995670688e-01,-2.929231062489356940e-01,-1.035097829272508749e-02,-2.651034233586388109e-03,7.618153304231202634e-03,1.491273641586303711e-01
-1.320835578562221668e-01,-1.575334256430642454e-01,-2.173042057641987046e-01,-4.424284597741375176e-03,-1.358432021701862225e-02,2.126310662212858946e-03,7.979528605937957764e-02
-1.642234632751051193e-01,-1.532514200153130834e-01,-3.086421680401773004e-01,-1.895603594029954611e-02,-1.000381474801426834e-02,2.862739992913939518e-02,1.624762266874313354e-01
-1.644073450496759403e-01,-1.394201166051226293e-01,-2.945945943171689452e-01,-8.238659122445394709e-03,-5.881382076143579392e-03,1.043519853413644831e-02,1.464929282665252686e-01
-1.346722107078388020e-01,-1.498924813688857216e-01,-2.867152587592470270e-01,-1.170012041608794106e-03,-8.211706499307616343e-04,4.105604232659118211e-04,1.450560092926025391e-01
-1.504441417143912163e-01,-1.283557784144035985e-01,-2.685422453871401105e-01,-3.823143812501093083e-03,-4.216839342940669789e-04,1.887823649587049360e-03,1.307621002197265625e-01
-1.051330312854458771e-01,-1.371509863723680001e-01,-2.226692708968543988e-01,3.190145815324688106e-03,2.381371293835504721e-02,1.028190932553683587e-04,1.131745949387550354e-01
-1.360897503326645719e-01,-1.540261667895876097e-01,-2.159979638760322063e-01,8.916604515720223320e-03,-1.496622772052047176e-02,-2.942406657028508263e-03,7.880498468875885010e-02
-1.225976899992571867e-01,-1.525046915373474699e-01,-2.496925628888427007e-01,-5.046511808189968994e-03,1.217126792687646224e-02,-4.757088943293829794e-03,1.176232099533081055e-01
-1.259966628100114838e-01,-1.582403780199856114e-01,-2.809159865351079644e-01,6.941522191409346372e-04,-1.526816672021701646e-04,4.503760699612213312e-04,1.415860354900360107e-01
-1.576888978120455642e-01,-2.051233973981391734e-01,-3.074951687356902719e-01,-1.033154357293070494e-02,5.534591686381831743e-02,-2.508433207251953290e-02,1.702450364828109741e-01
-1.387769741808228541e-01,-1.587851097043912196e-01,-2.517706116029456709e-01,5.300847094353858951e-03,-4.979016491960722331e-03,7.501105802575024333e-04,1.052019596099853516e-01
-1.474723805136206600e-01,-1.794832276604938215e-01,-2.479537321717674159e-01,-2.739089113066211015e-03,1.944444907176509640e-02,3.958317645369860242e-03,9.543833136558532715e-02
-1.195918247518091559e-01,-1.582764911958636778e-01,-2.652904237753094807e-01,4.725305539519652001e-03,1.500976120905327463e-02,2.954311322058598803e-03,1.336313337087631226e-01
-1.480451206675197362e-01,-1.526761867001196760e-01,-2.888571425631853984e-01,-1.809233098579282476e-03,-6.530595190267277344e-04,8.250916598917274348e-04,1.386019587516784668e-01
-1.449477201599773946e-01,-1.439646966146346241e-01,-2.876094923308868401e-01,-4.135017187650979337e-03,-2.938618232685666245e-04,-2.144494687330688720e-04,1.433362513780593872e-01
-1.405829215819064115e-01,-1.398020517545120467e-01,-2.833910825794689892e-01,-3.241298327988266850e-03,8.792206626365862282e-04,-9.760290657601994801e-05,1.433183848857879639e-01
-1.514057939159069444e-01,-1.469796380261758073e-01,-2.912721482198791789e-01,-3.779479064151403025e-03,-4.892273294033437506e-04,-2.615278302454240107e-04,1.422850489616394043e-01
-1.434220212146434803e-01,-1.378918002212926597e-01,-2.804754617454842114e-01,-5.405514169953411739e-03,3.377865565898051804e-03,-4.142220097399991127e-03,1.405187845230102539e-01
-1.492290831446768107e-01,-1.217160847906361698e-01,-2.536395487105334023e-01,-1.464678165097526436e-02,7.595521472076958297e-03,-2.455547681752109565e-02,1.309836953878402710e-01
-1.097087904481509613e-01,-1.890631050737544006e-01,-3.615473230410581329e-01,-6.476311545766499922e-03,6.211581397122800663e-03,1.922537313570276546e-02,2.260214686393737793e-01
-1.409735727095547120e-01,-1.422395020640730423e-01,-2.878899794490262787e-01,-6.445572343765435929e-04,-1.622576246944588222e-06,1.744819251861678763e-05,1.462918072938919067e-01
-8.405277112937487027e-02,-1.791550720391033302e-01,-3.682429491510262887e-01,1.852110700496672688e-02,4.368001881094153022e-02,7.705711602466019418e-03,2.640311121940612793e-01
-1.220620944852499334e-01,-1.557896007021061235e-01,-2.814695375406209843e-01,-1.352163122981672998e-03,-1.875215816328178187e-03,6.044774574490152652e-04,1.455643922090530396e-01
-1.386153188368885458e-01,-1.517062326640998826e-01,-2.885691684849548411e-01,-1.707844943541717876e-03,-1.148669035706294207e-03,-3.036421640349204303e-04,1.439009457826614380e-01
-2.476361765154612149e-01,-3.161738316358500001e-01,-6.156756002941884409e-01,2.336377779038641134e-02,6.756114476085481324e-02,1.382968127847695496e-02,3.617053627967834473e-01
-1.262804172267453506e-01,-2.465317863630082096e-01,-4.392045229693393171e-01,2.217513915457760415e-02,4.157277811726509814e-02,-1.381122781994333429e-02,2.863296866416931152e-01
-1.460901333769128452e-01,-1.684008012612968064e-01,-1.872034405490309861e-01,1.142353271554587095e-02,-3.270171655546753875e-02,-2.664855009947424830e-02,8.367160707712173462e-02
-9.838924397250388421e-02,-6.989426744624493981e-02,-1.857483992421591346e-01,2.369126955824823327e-02,4.229201433160054147e-02,6.172114460887381110e-02,1.714965105056762695e-01
-1.847572022407139025e-01,-1.570377341837179141e-01,-3.457246053249043438e-01,2.730958296379913317e-02,3.044679245031670436e-02,8.223270694746485920e-02,2.375835031270980835e-01
-1.515779535671542000e-01,-1.093438103872738931e-01,-2.646710903931387415e-01,9.102592417229306287e-03,8.666224480023689350e-03,1.915633529427109363e-02,1.446545869112014771e-01
-1.444888260667729352e-01,-1.348294819233588071e-01,-2.848948277704482779e-01,-2.279919041239486695e-03,-1.004859867524198294e-04,3.751937219686601595e-04,1.455315202474594116e-01
-1.792182805863322681e-01,-1.428412062434133434e-01,-3.057019805270162482e-01,1.218340600917795606e-02,9.452843105626662634e-03,3.055138061733825988e-02,1.594868600368499756e-01
-1.399148143403627920e-01,-1.760730535593823531e-01,-3.084122922251322785e-01,9.359635273262488855e-03,-1.886449920323065785e-02,8.585933053572407381e-03,1.586121618747711182e-01
-1.867192788484867971e-01,-9.164891347595477411e-02,-2.748944363944469949e-01,1.118499429281347157e-02,-1.996005627092947710e-02,9.758212014036836413e-02,2.352305501699447632e-01
-1.552229773178072647e-01,-1.557863986760452957e-01,-2.939028716616189363e-01,-2.050000974735667787e-03,1.886964489820382315e-04,-5.721363253202933806e-04,1.384485214948654175e-01
-1.478089839495762559e-01,-1.538436900518304895e-01,-2.195135058367505276e-01,-8.159962391218029965e-03,-3.922437394122620796e-03,9.212533651625441286e-03,7.242764532566070557e-02
-1.462681359298768635e-01,-1.740131708762908125e-01,-3.306557491716287100e-01,1.146187263843109760e-02,-4.181147141730809022e-03,6.637473703759666499e-03,1.738720089197158813e-01
-1.441712670798073748e-01,-1.412546499732394156e-01,-2.876328348791492573e-01,-1.935354885516451422e-03,1.441921802141879645e-04,-5.600232676240548494e-04,1.449841111898422241e-01
-1.436230369815982844e-01,-1.470733618397698783e-01,-3.053014760646421411e-01,1.472574357937556089e-02,-3.457613483013606114e-03,-9.055320301771994929e-03,1.628692150115966797e-01
-1.312741982473348279e-01,-1.457085853939775744e-01,-2.787645922610456628e-01,-4.048509632681180498e-03,-6.671909476031897233e-04,3.929099721579398579e-04,1.410099416971206665e-01
-1.389316064521209926e-01,-1.502203638318268253e-01,-2.580770905488564693e-01,-6.316328800659542532e-03,-2.672492401936579776e-03,1.799333404278379619e-03,1.145814359188079834e-01
-1.392484391703074642e-01,-1.719207713775496860e-01,-3.125985758433575956e-01,1.186687346099890919e-02,4.744211597107792812e-03,2.469851821060618270e-03,1.611281782388687134e-01
-1.482959549324757154e-01,-1.559057499673687230e-01,-2.931792344497919367e-01,4.608166639090895134e-03,-1.903031628230573589e-03,-2.283425096976514389e-05,1.414959877729415894e-01
-1.506031170291061150e-01,-1.384949411796950747e-01,-2.879392034343362661e-01,-1.453662454390447240e-03,-6.157644172335808100e-05,3.596153475441206306e-04,1.437965184450149536e-01
-1.715828317801610658e-01,-1.768891382063781381e-01,-3.582111041576069854e-01,1.513297078426292970e-02,-4.926796827388627877e-03,5.431891487655016518e-03,1.863231509923934937e-01
-1.536690837442373225e-01,-1.676717719834501241e-01,-3.199042969510907941e-01,1.607449593196041623e-02,-4.253070853182402619e-03,-6.536585582826243135e-03,1.626655906438827515e-01
-1.390868379645096575e-01,-1.603189450534860117e-01,-2.502797109254411012e-01,-5.954095567682667761e-03,-2.832915077965117087e-03,1.157275351009988011e-04,1.028798744082450867e-01
-1.810640175888119929e-01,-1.404570554302537466e-01,-3.076324309171188931e-01,-4.734472062069497098e-03,-1.554296834462889562e-03,1.105732137449687638e-02,1.524773240089416504e-01
-1.262329994041468673e-01,-9.142334936862644978e-02,-1.079100425082177711e-01,3.616406538163659430e-03,1.103446757381915458e-02,6.809539168566368372e-02,1.233899816870689392e-01
-1.487747196938692396e-01,-7.884418846168085582e-02,-2.479660803369188593e-01,8.171434629291506047e-03,9.735258030696209569e-03,6.159907737168449776e-02,1.831220686435699463e-01
-1.689487476705522628e-01,-1.389688063717092747e-01,-1.791052307855829917e-01,-2.732671086387397988e-03,2.917933208382334984e-02,8.800812951813630214e-02,1.646797955036163330e-01
-1.463545636882953305e-01,-1.347857977221765813e-01,-2.800793710516937818e-01,-5.763521572482253191e-03,1.115370337853103237e-04,1.131182119236393436e-03,1.402380913496017456e-01
-1.825803801808511262e-01,-1.247415390942072100e-01,-2.706627105761505447e-01,2.237396729762780936e-02,2.459512300596524304e-03,1.002065165719063927e-01,2.187290042638778687e-01
-1.745803173697103028e-01,-1.489859437383026231e-01,-2.191416731224104519e-01,-6.822279259984631149e-04,4.808969144579783653e-03,4.621307043042856971e-02,1.012868434190750122e-01
-1.406622319975854574e-01,-1.460416786771900066e-01,-2.871718776989157784e-01,-1.152991744587572717e-03,-9.783851694264047549e-05,-4.190037689790803360e-05,1.439093351364135742e-01
-1.448060453053467145e-01,-1.367235507745519218e-01,-2.664359731473255333e-01,1.115757205305003413e-02,6.369737757228832904e-03,7.938762414239110277e-03,1.285554617643356323e-01
-1.719601085645993122e-01,-1.410716638274431556e-01,-2.794516982232288504e-01,2.170654087395396201e-03,7.364735634236346459e-04,1.043207808266881018e-02,1.271653771400451660e-01
-1.589302311038436055e-01,-1.229863852431760107e-01,-2.593319223607024049e-01,1.620013822203951459e-02,2.832893259999448576e-02,3.623485698607680633e-02,1.487114578485488892e-01
-1.485095740001490527e-01,-1.518959919600463282e-01,-2.504306978211805479e-01,1.818246799273978351e-02,1.824477105180721814e-02,3.441002006494740806e-02,1.248871684074401855e-01
-1.945853103844418230e-01,-1.500002307624869469e-01,-2.581901998551573429e-01,8.128860322970942213e-04,3.447533408142578349e-03,6.379642561617016039e-02,1.453163176774978638e-01
-1.257345450759453920e-01,-1.281172126237897779e-01,-2.575028609981975247e-01,1.090463484938565368e-02,1.012398220827659921e-02,7.139146837136041771e-03,1.336851716041564941e-01
-1.502177924144821319e-01,-1.504755433870790804e-01,-2.871697523413316855e-01,-1.995990310757537762e-03,-1.996744126859124609e-04,-2.423044949391885811e-04,1.368680149316787720e-01
-1.277242541764543327e-01,-1.344449826080102439e-01,-2.761310050898659885e-01,-1.581122132852596715e-02,-1.187837933720293539e-02,1.263814754960326109e-02,1.507473737001419067e-01
-1.367026722907190295e-01,-1.178467886912765022e-01,-2.680675934322410137e-01,-1.505160583465919681e-02,-1.174114161202262363e-02,1.133098933609516176e-02,1.468593776226043701e-01
-1.679141003323560699e-01,-1.697940722557678694e-01,-3.282289336439010996e-01,-1.068981722129227693e-02,-6.428560617925081593e-03,-2.025732323139589446e-03,1.608791500329971313e-01
-1.587597550544004865e-01,-1.553322506317035834e-01,-3.442324668549354150e-01,-2.036060678591439244e-02,2.767148913649684645e-03,-4.200697575655178671e-03,1.907017379999160767e-01
-1.461661641076524853e-01,-1.398838655631167438e-01,-2.858462054415696341e-01,-6.820170036076698451e-03,-1.928020820746656309e-03,2.515822017731215391e-03,1.435171663761138916e-01
-1.464197349247063351e-01,-1.519653411325113668e-01,-2.988743297157555046e-01,-1.943238050479405635e-02,-6.025215866950786765e-03,1.800391438211452685e-02,1.569773554801940918e-01
-1.374903158432302375e-01,-1.335216467035728605e-01,-2.772971651759060241e-01,-1.291469029777927817e-02,-1.072052962482011353e-02,1.109349258475080501e-02,1.460510343313217163e-01
-1.439147813526724939e-01,-1.483706314639254564e-01,-2.874682479817328162e-01,-5.040878048563738473e-03,-2.531768586954299179e-03,2.089744872954712573e-03,1.417616307735443115e-01
-1.529132128280992209e-01,-1.480449593543251285e-01,-2.983523598424968060e-01,-6.472206020216629899e-03,-7.745737610320913751e-04,7.654556416232005699e-05,1.483636200428009033e-01
-1.472482154259007192e-01,-1.773732497293515897e-01,-3.144234743311655755e-01,2.913430414221590027e-04,3.115515408734285691e-03,8.225505258198002618e-04,1.544355154037475586e-01
-1.566420286236785142e-01,-1.988626018741765922e-01,-3.524121136430333756e-01,-2.171696043009278734e-03,1.688591891873498368e-02,2.078567073203205131e-03,1.809018850326538086e-01
-1.389592271292577341e-01,-1.806759430213006890e-01,-3.240073436921514505e-01,1.778206791818525735e-03,2.202217307870306048e-02,-1.924873203424104723e-03,1.724500507116317749e-01
-1.038326208489886576e-01,-1.752485220601096294e-01,-2.279610740124742851e-01,1.060541308777913569e-02,6.793439389487750113e-02,1.220712601478280215e-02,1.620897054672241211e-01
-1.414750663338028569e-01,-1.405971323425066477e-01,-2.878783361054424450e-01,-4.380803033403151943e-04,1.943236603739078628e-04,-1.453137993297472142e-05,1.468465477228164673e-01
-1.778952752379071023e-01,-2.362855097830868223e-01,-3.785968422364840436e-01,1.454532396999715614e-02,9.481962323124644432e-02,2.454202180935348421e-02,2.477608621120452881e-01
-8.373701849244893913e-02,-1.365418774705705329e-01,-2.005611666015483519e-01,1.293946343979471281e-02,6.754347690432045692e-02,1.951401469800877544e-02,1.599949896335601807e-01
-1.261354335345320488e-01,-1.728744497664259083e-01,-3.263598445863324371e-01,1.023443452607446236e-02,-2.998653007812163672e-03,2.965808656409237194e-03,1.824380755424499512e-01
-1.301883462786663226e-01,-1.771991150330729237e-01,-2.825905779688910879e-01,1.326245311530430300e-02,4.597008880494363181e-02,5.572529232776833076e-03,1.588473767042160034e-01
-1.452760269959745831e-01,-1.611805787527549327e-01,-2.967022501917242483e-01,4.475006884245975175e-03,1.281487530744545742e-03,-2.227211125109328053e-04,1.443594247102737427e-01
-1.431669739563846133e-01,-1.747058460573385485e-01,-3.214924686411197996e-01,1.281312456524080594e-02,2.942617793299457610e-03,1.932026887798412142e-03,1.664337813854217529e-01
-1.435170209261659169e-01,-1.686470419981438151e-01,-3.117327694434487984e-01,8.924871483968655969e-03,1.095737163782381377e-03,4.429719855552168538e-03,1.581209003925323486e-01
-1.364198067641080592e-01,-1.469749608365816806e-01,-2.809424609561530506e-01,6.699001091591529934e-03,-1.864330233125158047e-03,-6.958312451561958533e-04,1.400687694549560547e-01
-1.581924556256517622e-01,-1.704206951806354342e-01,-3.172369732192746872e-01,6.665233428028197529e-03,-3.798038410950598746e-03,5.567038746575552312e-04,1.538744121789932251e-01
-1.357476789818126417e-01,-1.599454780326767800e-01,-2.940853359250553689e-01,8.270130610002037266e-03,7.256580833715679281e-03,3.210134178197831829e-03,1.490603834390640259e-01
-1.286714177014485205e-01,-1.513385726262161113e-01,-2.837253750319209122e-01,9.425662553147988801e-03,8.963359478530942906e-03,5.919885654473888877e-03,1.471515744924545288e-01
-1.331077545451008204e-01,-1.548039062449109160e-01,-2.915559359953138752e-01,9.760392022927605674e-03,7.795198307066989601e-03,6.492288228539843005e-03,1.507759094238281250e-01
-1.537391890435055863e-01,-1.564149950333015293e-01,-2.180162298727689185e-01,1.238137277244750166e-02,-2.160483640809482062e-02,-1.644552228275905983e-02,8.147559314966201782e-02
-1.332326697436289620e-01,-1.594665384710793332e-01,-2.955137031281203086e-01,1.705039709444921420e-02,2.979418906354694765e-02,1.959282218476300977e-02,1.656893342733383179e-01
-1.352955395440439690e-01,-1.580745769250760102e-01,-2.915926637722362491e-01,1.182542535701824882e-02,6.516928584321951892e-03,5.401572733363782346e-03,1.483975797891616821e-01
-1.409551783061105956e-01,-1.518714059094287971e-01,-2.900883857689725009e-01,1.352787435267838309e-03,-8.738166045710351855e-04,2.396667892167264548e-04,1.440134048461914062e-01
-1.490202794970732492e-01,-1.722259374928396813e-01,-3.123570704004834386e-01,1.354508045898851661e-02,1.098089353272812402e-02,1.503334822538763497e-03,1.560320407152175903e-01
-1.454896284012594243e-01,-1.469960925533025098e-01,-2.891829105054014581e-01,3.188300715025969671e-03,-3.428197177865930875e-04,3.779810130862126675e-04,1.430553644895553589e-01
-1.361886717640771738e-01,-1.500772821970580151e-01,-2.863869357843951691e-01,1.339982247578969891e-03,-4.225971938935506219e-05,-3.242203350335141790e-04,1.437778621912002563e-01
-1.378408473428970049e-01,-1.858070677341087662e-01,-2.992267764769619420e-01,1.320850186051475937e-02,3.935039879876744973e-02,3.650654734973074727e-03,1.606668680906295776e-01
-1.332057259104187652e-01,-1.782981537332743727e-01,-3.001141114810864097e-01,1.159111368812479163e-02,-2.926023865349288919e-02,-1.072150820764080845e-02,1.602555215358734131e-01
-1.483131260388233508e-01,-1.392926488052231848e-01,-2.327469401139518612e-01,1.529564076150511688e-02,-1.771600627863658198e-02,-2.606523661581266332e-02,1.079523116350173950e-01
-6.705242088539993539e-02,-1.150730257339398627e-01,-2.221154898052871973e-01,1.973646608562023078e-02,-5.189099887214750767e-02,-2.703356322873349746e-02,1.741934716701507568e-01
-1.146498947413841368e-01,-1.981799452930559924e-01,-3.295725418145733498e-01,-8.482949399433102958e-03,-3.911846026855349268e-02,7.618587159652774089e-03,2.004926055669784546e-01
-1.383998809294556542e-01,-1.843066882166578824e-01,-3.373641686688227947e-01,3.472116971114327759e-03,-2.981872863684979780e-02,-2.936141559809252958e-03,1.878560781478881836e-01
-1.346633774025655095e-01,-1.804024150123584025e-01,-3.130977126780980502e-01,8.698740645160992283e-03,-2.855851969857479272e-02,-1.002763134270848525e-02,1.695431768894195557e-01
-1.467437805413301932e-01,-1.383998260224104104e-01,-2.850554656837498424e-01,3.284452084309170527e-03,-1.801777498478487286e-03,-7.579441463259427693e-04,1.428202986717224121e-01
-1.824643534899469399e-01,-1.553094293958520722e-01,-3.532475625205530045e-01,1.697848776697359965e-02,-1.106056702612408411e-02,-1.301096469657904778e-02,1.904772222042083740e-01
-1.067550432662865562e-01,-1.600762607808474403e-01,-2.704953444314373012e-01,2.713587341803555888e-03,-3.019921704956406161e-02,3.371566919252692082e-03,1.539979726076126099e-01
-1.239550515189586366e-01,-1.572861604377867040e-01,-2.800702868287249236e-01,2.260748061971360856e-04,-1.365017071023628221e-03,-4.905888216678498887e-04,1.424285769462585449e-01
-1.388592584108512273e-01,-1.634723783434680611e-01,-2.996653133198412533e-01,4.331777059178267518e-03,-3.430525445234335318e-03,-8.074769132236913347e-04,1.503329873085021973e-01
-1.509874719080848138e-01,-1.068813105257634954e-01,-2.545070062783513221e-01,-1.912127465754950156e-02,6.299502860137243775e-03,-6.481455247980083545e-02,1.761993020772933960e-01
-2.207474236050080418e-01,-1.330522626243364481e-01,-3.360457387611032742e-01,-2.082087462944423248e-02,2.962165100778633986e-02,-6.297082239974370610e-02,2.166196554899215698e-01
-2.319146989001483750e-01,-1.910128578232206387e-01,-3.202565686301813708e-01,-2.761756893593297207e-02,1.030521328901994049e-02,-9.907532328174979697e-02,2.124738395214080811e-01
-2.260227545018859974e-01,-1.503068495962874562e-01,-2.841529078718127432e-01,-2.205563737065175181e-03,2.494056567215008346e-02,-8.161397620882430981e-02,1.880866885185241699e-01
-1.719265295204110422e-01,-1.256853839447524823e-01,-2.803889166647593467e-01,-1.554840163042431160e-02,1.145760186003745573e-02,-7.203575567725946371e-02,1.886910051107406616e-01
-1.282218573852061672e-01,-1.512448794332879598e-01,-2.578492172340167699e-01,-4.101690238165547897e-03,-9.960698516423990845e-03,4.596040406836981659e-03,1.214923337101936340e-01
-1.272351990200542016e-01,-1.592938192410722764e-01,-2.620935707368796663e-01,2.319209237301530883e-03,-3.553079025067046315e-03,-1.383771933585110263e-04,1.222506836056709290e-01
-1.364891180048355690e-01,-9.680798892468223116e-02,-2.047208586330570568e-01,-1.923844916988153367e-02,1.638754867067906268e-02,-6.012898693163546554e-02,1.473097801208496094e-01
-1.376394776278726806e-01,-1.579406544793469369e-01,-2.254191918659902150e-01,-2.805768485299625723e-03,-1.068076693755695174e-02,6.451195340930276044e-04,8.186871558427810669e-02
-1.575887343234292359e-01,-1.497679163559632598e-01,-2.792277530978253819e-01,2.039265503160262588e-02,1.604098996752360493e-02,1.942336113681285975e-02,1.376947909593582153e-01
-1.499485210206300545e-01,-1.169241684212335985e-01,-2.487695459469113357e-01,9.408788843694377776e-03,5.678501680630317593e-03,2.116103075086147450e-02,1.257989853620529175e-01
-1.278363104720115218e-01,-1.306054778002394279e-01,-2.614606409966589995e-01,1.074909023510935667e-02,1.034769888110639510e-02,7.873485060683018885e-03,1.354508399963378906e-01
-1.504476455467825546e-01,-1.429457643740183470e-01,-2.912978520636796964e-01,3.492476369133630347e-03,7.018892653406162609e-04,7.075401736215181960e-04,1.448836475610733032e-01
-1.444427056033922852e-01,-1.490550394784120880e-01,-2.897807976880709124e-01,-6.019300482817356839e-04,1.061616192993053214e-04,-4.018781566364182899e-04,1.430933028459548950e-01
-1.507556716704786526e-01,-1.351640029529296849e-01,-2.814967463938381487e-01,5.249580668709833385e-03,1.432558634019728003e-03,2.754760272184656952e-03,1.395936906337738037e-01
-1.699014112202217597e-01,-1.335361264918818736e-01,-2.843537895158785855e-01,1.272115045272428045e-03,1.125567130945051304e-03,-2.428874557750691776e-02,1.426967382431030273e-01
-1.743990628305729373e-01,-1.246370294358067898e-01,-2.544333253918368842e-01,4.440739675437209606e-03,1.178133205375881277e-03,-3.466201374205568619e-02,1.285772174596786499e-01
-1.598646924031321970e-01,-1.303323028118535121e-01,-2.729205246087260117e-01,1.110569169093224458e-02,-4.140452360152381203e-03,-1.681731411284054581e-02,1.351388096809387207e-01
-1.576374063492984035e-01,-1.253021745612361570e-01,-2.859187188042046635e-01,-3.889124586657040535e-03,3.172495572535905407e-03,-1.329913210457788451e-02,1.491839140653610229e-01
-1.124063865502016590e-01,-1.605649514431746194e-01,-2.517357454957644958e-01,-1.524593023851639889e-02,-5.059598417476238175e-02,1.830308201840849872e-02,1.562184393405914307e-01
-1.476901722342918444e-01,-1.474293649898260061e-01,-2.867007274955388763e-01,-3.782389407997565462e-04,5.317735208487622649e-04,-1.157540784879710900e-04,1.391458809375762939e-01
-1.643509968794770737e-01,-1.290884126442461421e-01,-2.909124920882553700e-01,5.762027327665618023e-03,-3.287859010482418066e-03,-9.502254820354397169e-03,1.487516611814498901e-01
-1.606569378051888319e-01,-1.319634405543609335e-01,-2.798311048310011540e-01,7.490023707184666028e-03,-2.540509687344022233e-03,-9.849919747868548722e-03,1.375647038221359253e-01
-1.428703836431341467e-01,-1.435312776840423077e-01,-2.880837482657853665e-01,-1.335010049692355021e-03,4.655782728491663497e-04,1.466032427806614657e-04,1.449049711227416992e-01
-2.167600334524984462e-01,-2.773756093723120930e-01,-4.577310692350378130e-01,-4.188846839576427367e-02,-7.624122693515861249e-02,3.400522419872293450e-02,2.707505524158477783e-01
-1.703236381767617713e-01,-1.417249212728907137e-01,-2.954507131921317864e-01,1.111359984960653274e-02,-3.742698484308323945e-03,-1.818781393788805253e-02,1.464858204126358032e-01
-1.525738017129155688e-01,-1.056115463623907014e-01,-2.713714832207135830e-01,4.346667816308013611e-03,-3.128371340618426710e-03,-2.888162224743907186e-02,1.564795076847076416e-01
-1.937268728330353573e-01,-1.336905774950480907e-01,-3.256735374645203240e-01,1.575351036354654538e-02,-7.391641947409598699e-03,-2.960143589759615598e-02,1.802027523517608643e-01
-1.540224731148911730e-01,-1.514609836960089662e-01,-3.024304152232625276e-01,-5.895212446820102987e-03,-6.997851748522593762e-04,-7.113844239110296694e-04,1.500628888607025146e-01
-1.701457686082888665e-01,-1.446347560571549784e-01,-3.372909196157274359e-01,-1.308090906683898220e-02,-6.001490620237100344e-03,1.350026179149914785e-03,1.829732358455657959e-01
-1.555236213861076189e-01,-1.313139244251870785e-01,-2.871240985997473016e-01,-1.043738570277160565e-03,-1.110939966989323490e-03,6.679047519294598664e-04,1.452553272247314453e-01
-1.423097648841308849e-01,-1.469128562466817389e-01,-2.873536736673867331e-01,-4.868474397046662280e-03,-1.749189468925735000e-03,9.351812427919041926e-04,1.430880278348922729e-01
-1.663214528342798204e-01,-1.758258421985010589e-01,-3.386896927318210349e-01,-1.692594188812182598e-02,-2.644254936123625194e-03,2.008104495119097770e-03,1.704565137624740601e-01
-1.319449436060518566e-01,-1.047196630527621602e-01,-3.084143621078531128e-01,-3.347198477623353208e-02,-1.225298994612843834e-02,1.827871804361490965e-02,2.037178575992584229e-01
-1.461121329105774247e-01,-1.428707629787427380e-01,-2.872070519803661126e-01,-5.867638127013759426e-03,-7.266780966592176552e-04,9.964350194120758387e-04,1.431204825639724731e-01
-2.012622268073823162e-01,-1.583076517046344001e-01,-3.213606496612564367e-01,-2.014106922856511578e-02,1.650015496541423071e-02,-5.149471429287752477e-02,1.772466450929641724e-01
-1.521592201624346885e-01,-1.532662520151754082e-01,-2.890519395621458099e-01,4.550066282006337651e-05,-1.061927378966776009e-04,4.164773827580904716e-04,1.363446265459060669e-01
-1.512040790354692299e-01,-1.316918948585172333e-01,-2.097622096131793734e-01,-1.624042136530031225e-02,1.255410727519823064e-02,-4.177502126232628121e-02,1.070135757327079773e-01
-1.493906615363833068e-01,-1.297855134108870656e-01,-2.368744878545648858e-01,5.463481441889221461e-03,-1.082333220491905109e-03,2.247103071278243151e-03,9.930320829153060913e-02
-1.383425671931348411e-01,-1.498081485499669907e-01,-2.764759562954247074e-01,-9.640771383506392678e-03,6.677478671663345314e-03,-4.163821678428525005e-03,1.345106810331344604e-01
-1.454826323724561776e-01,-1.593215201114884794e-01,-2.536494042240927671e-01,-8.490315167217134251e-03,1.243729063480675766e-02,-2.788818897447360983e-03,1.053484901785850525e-01
-1.310320305768051252e-01,-1.635140228936247386e-01,-2.862723112349485621e-01,-5.891893250844374395e-03,-8.478358960265748936e-03,3.794723362475944071e-03,1.430912315845489502e-01
-1.493397157072973991e-01,-1.334600174349904189e-01,-2.868594704358960468e-01,-9.681084276214342588e-03,4.086063389718706980e-03,-5.465415635493060462e-03,1.475414931774139404e-01
-1.764594359668140433e-01,-1.319875013637014372e-01,-2.978773840616109614e-01,-1.702059558527052249e-02,1.702772517142776918e-03,-2.812245266523684395e-02,1.592801958322525024e-01
-1.317225045018722285e-01,-1.600583094280727536e-01,-2.951620581783488961e-01,2.297568908500453519e-03,1.425776430243279064e-03,-2.996978848312990135e-03,1.514367759227752686e-01
-1.309676439977650597e-01,-1.559374212903039125e-01,-2.874224929021675923e-01,9.854542398801242019e-04,-2.788514522876379964e-03,-2.883076536336094935e-04,1.456758677959442139e-01
-1.459053402986894565e-01,-1.499025914671177351e-01,-2.896708484527594218e-01,6.593537276780062854e-04,-1.507963697935365828e-04,5.260665721054507695e-05,1.418140083551406860e-01
-1.655861247216656174e-01,-1.399769430864213626e-01,-3.014146863606459448e-01,-7.578817207931116615e-03,4.763970817496633071e-03,-7.146023541203925036e-03,1.515825986862182617e-01
-1.609414546973536864e-01,-1.444041438701064717e-01,-2.569613663950254812e-01,-8.388324362904753945e-03,8.488641122731835006e-03,-1.482383400472630890e-02,1.103073805570602417e-01
-1.356393533698781184e-01,-1.585111815791755974e-01,-2.898616824333381525e-01,3.390069080792711608e-04,-2.258123365559700033e-03,2.668395347060709220e-04,1.442087292671203613e-01
-1.712945276017299179e-01,-1.378934300936046631e-01,-3.117046503907297539e-01,-1.046735210959363026e-02,8.209996822827287863e-03,-1.972555281733256657e-02,1.649808734655380249e-01
-1.577695780098831158e-01,-1.426445868259212935e-01,-2.852404225731040022e-01,-7.208190124266140517e-03,5.985847886242777385e-04,-6.367732189623534836e-03,1.366900503635406494e-01
-1.496066122902944273e-01,-1.378818998793357731e-01,-2.890121852824453774e-01,-1.466031960029553875e-02,5.183495572102503161e-03,-1.306766800802278833e-02,1.498116999864578247e-01
-1.504030980758823133e-01,-1.384720016301635437e-01,-2.878136718155779317e-01,1.395530726182962799e-03,-1.790563669191997233e-04,-1.425882927051134704e-03,1.437898278236389160e-01
-1.403054391231365050e-01,-1.515742726466884349e-01,-2.885748238834810464e-01,1.357280482942391144e-03,-8.860257893662315878e-04,5.040732231514870451e-04,1.429986655712127686e-01
-1.464468171737048907e-01,-1.312951824218227537e-01,-2.636564259870901594e-01,9.799012021475188988e-03,8.744543080094160925e-03,8.302580246108730994e-03,1.283271014690399170e-01
-1.434959137438119592e-01,-1.704578824636990009e-01,-2.540247926152467972e-01,-4.266023310570412133e-03,-4.314025788333991814e-03,1.778803666581163121e-03,1.004162654280662537e-01
-1.586526217303868003e-01,-1.267086548952698621e-01,-2.751256068105746855e-01,1.490251858899348724e-03,-1.716143759573585505e-03,4.762780361859919077e-03,1.356116980314254761e-01
-1.473827729504048056e-01,-1.225190048347245125e-01,-1.979770016537607258e-01,5.997612189809022054e-03,3.175071021312411701e-03,2.883340454798493518e-02,8.407258242368698120e-02
-1.422756573396980195e-01,-1.523851121116611140e-01,-2.879299687793307472e-01,1.367475374454885659e-03,-1.116813685134728385e-03,1.007967384401727050e-03,1.409159153699874878e-01
-1.296334737031722417e-01,-1.528768515436431108e-01,-2.861308802476725255e-01,3.876680919244486056e-04,-2.671170705555865957e-03,3.130159538284114202e-04,1.463431417942047119e-01
-1.565790726904045249e-01,-1.276306419981754203e-01,-2.691963213327950299e-01,1.516461781248080532e-03,-2.118543151055036176e-03,1.210774110394695303e-03,1.296360641717910767e-01
-1.530644453357764556e-01,-1.260524090428080668e-01,-2.738604530459222697e-01,3.227514208689979697e-03,1.856175440669210379e-03,5.039407938311035728e-03,1.367554217576980591e-01
-1.626001223897266534e-01,-1.395188428906322664e-01,-2.940373330496662274e-01,7.497238400323409657e-03,3.495914119130575336e-03,7.260476414478394397e-03,1.456216275691986084e-01
-1.285203275620742658e-01,-1.579973150601310661e-01,-2.873114013626703045e-01,-2.954796703060845854e-04,-2.856344495007005681e-03,6.957356077205978904e-05,1.463815867900848389e-01
-1.739516209617884002e-01,-1.360767640672831125e-01,-2.941902261466721180e-01,8.655134758686146984e-03,3.406931730489747012e-03,1.246030788776905478e-02,1.455031931400299072e-01
-1.539038774132282239e-01,-1.229534903515379085e-01,-2.688990138512591943e-01,1.214486119224172283e-03,-1.001844828120343321e-04,4.927917107107651282e-03,1.334850490093231201e-01
-1.460416370378383455e-01,-1.235252596970535383e-01,-2.473481325036488987e-01,1.255598063512183490e-04,4.645227785484804840e-03,8.599831797673563108e-03,1.154889687895774841e-01
-1.441998759076956182e-01,-1.409484524065082456e-01,-2.882234653081586773e-01,-1.513634481664069770e-03,-5.152661735531783487e-04,2.489716049166896140e-04,1.457034796476364136e-01
-1.305484706659063021e-01,-1.553850403384210987e-01,-2.870983336022628896e-01,-1.636059147371814225e-03,-3.183872827240660439e-03,6.552959106211818331e-04,1.458639204502105713e-01
-1.669440174802851173e-01,-1.336533157871283573e-01,-2.886881336459733438e-01,2.090875394560383349e-03,-3.739495560971122217e-03,6.255180372002362883e-03,1.419693529605865479e-01
-1.582636405580792327e-01,-1.592909844692440846e-01,-3.070162183150028645e-01,-8.451010602615011830e-03,-2.735999296230265387e-03,-7.393336066484882839e-04,1.490433514118194580e-01
-1.410087274501316268e-01,-1.398815954225931246e-01,-2.848581160193349726e-01,-4.362238191569109587e-03,-9.616095502370162031e-04,2.103696545636462179e-03,1.446692496538162231e-01
-1.380943541503698857e-01,-1.682742908922135461e-01,-2.974487521664713752e-01,5.495772521510712766e-04,1.638488862604360347e-03,-1.402158342617827963e-04,1.466436684131622314e-01
-1.488656902932728732e-01,-1.647436141006676791e-01,-2.993214600038234807e-01,1.128483030936377161e-03,-5.898116534799047184e-04,3.580300222526569781e-04,1.431969702243804932e-01
-1.386062043063585325e-01,-1.745305041612357499e-01,-3.180741466461621814e-01,-3.941816506820618356e-03,-3.714997798285377736e-03,6.214161438487071469e-03,1.650936156511306763e-01
-1.540701035739825142e-01,-1.681442044309539030e-01,-3.021206587986512426e-01,2.139967736718042472e-03,-1.257892554439094283e-03,7.882789927779087135e-04,1.416111439466476440e-01
-1.442473570405655436e-01,-1.645057749629308397e-01,-2.997886762915509817e-01,-4.483934588890734429e-04,9.190294382247715199e-05,-1.440566596834677061e-03,1.464900672435760498e-01
-1.527372260538387150e-01,-1.497911235326762625e-01,-2.900265015104920296e-01,-1.486409775735786322e-03,4.882005808874833458e-04,4.419062292934238141e-05,1.388122588396072388e-01
-1.378850569265921699e-01,-1.500846647504077702e-01,-2.878299748637433431e-01,-1.910947012732967755e-03,-1.116956773410887963e-03,2.691702012793140909e-05,1.442835330963134766e-01
-1.256001031047965510e-01,-1.607141823599877173e-01,-2.902939811246982860e-01,-2.438118541090067740e-04,-1.032361993737168464e-02,-1.281578766586006276e-03,1.513236165046691895e-01
-1.445275164556459324e-01,-1.672402407149808368e-01,-3.010125070329539576e-01,-1.262206141517858288e-03,5.184938000300105257e-04,-3.241830134542773205e-04,1.464756727218627930e-01
-1.459337947213027453e-01,-1.650399581971172813e-01,-3.003737898286943375e-01,3.420670512110797728e-05,-8.587289765631915409e-04,-3.966319884718552484e-04,1.458378881216049194e-01
-1.392170801912387401e-01,-1.517764669541331601e-01,-2.895073592160301024e-01,-1.624863307551641751e-03,1.256650128814987104e-03,4.198514379522347013e-04,1.444664001464843750e-01
-1.459375420305128457e-01,-1.622961006197718992e-01,-2.934587373264335164e-01,7.237881148022565171e-04,2.287599955276154590e-04,3.661898318183343733e-04,1.400678455829620361e-01
-1.572309530772808550e-01,-1.885293923007910766e-01,-3.491741166315651124e-01,2.100482513582808530e-03,3.088813221972241518e-03,-1.084227280010548059e-03,1.784926652908325195e-01
-1.192982007948875239e-01,-1.534294143183254078e-01,-2.648555047334917312e-01,2.284532830016548690e-03,8.377401618488235918e-03,1.938067681562355296e-03,1.327452063560485840e-01
-1.280993288318428847e-01,-1.569980644470733711e-01,-2.837766761293827322e-01,-3.261474298407460518e-03,8.307386109497907206e-03,9.202589106185463653e-06,1.442589461803436279e-01
-1.320891912443114546e-01,-1.615154812302912468e-01,-2.950334738394405076e-01,-2.752851565406957968e-03,8.860528897455463571e-03,3.246197241337025162e-03,1.513663530349731445e-01
-1.444011351907509288e-01,-1.495395575962783496e-01,-2.872298926589136880e-01,4.086486203803947094e-03,1.861313221471428943e-03,1.461782084959069306e-03,1.405682861804962158e-01
-1.481340201161535641e-01,-1.436613479276148964e-01,-2.898667442926302629e-01,9.761679400358249043e-04,5.457296292138632963e-05,2.649327591542885896e-04,1.440318375825881958e-01
-1.273350821431676605e-01,-1.594206822138354573e-01,-2.913203612074424242e-01,9.729260020893774332e-04,1.403096497234436468e-02,-2.840553406459752576e-03,1.525671631097793579e-01
-1.363399880584059143e-01,-1.613544948417149349e-01,-2.899316967335484052e-01,-7.195198045037110197e-03,5.831172499200898418e-03,-5.084798349787460897e-03,1.439062356948852539e-01
-1.187417956791423090e-01,-1.736667823116518350e-01,-2.403607439491037279e-01,-2.889913960061175988e-03,3.074416656390556446e-02,-1.365019063575237043e-02,1.206136494874954224e-01
-1.535838899058747375e-01,-1.547085758856750204e-01,-2.965269108975746581e-01,-6.233406532779935116e-03,4.016960053856586050e-04,2.704678215364933209e-03,1.428712755441665649e-01
-1.326995784412029478e-01,-1.341011819788838766e-01,-2.642041367316230738e-01,-9.665174412995577308e-03,-8.111389938883663622e-03,6.720776018563089788e-03,1.331323832273483276e-01
-1.500992440597175015e-01,-1.454594623410538357e-01,-2.906368348848836214e-01,-6.641223866118595165e-03,-3.996025339917371431e-03,2.462920939895942279e-03,1.436064988374710083e-01
-1.459635394880205161e-01,-1.685994478991127421e-01,-2.532426885614130763e-01,-1.240255530499353824e-02,-6.893333865801288922e-03,1.284334309673416594e-02,1.034007668495178223e-01
-1.481005038557562936e-01,-1.476737002140519894e-01,-2.869794284672861906e-01,-2.683969142927919850e-04,-1.355502480527912945e-04,2.460550581539381687e-04,1.390944421291351318e-01
-1.447355594449972194e-01,-1.358554285694578145e-01,-2.703428840434602964e-01,-1.600364703128823174e-02,-1.568739891453125451e-02,1.294789827294893884e-02,1.377717107534408569e-01
-2.141156347197505083e-01,-1.768640819519319840e-01,-2.303154043955087105e-01,1.781972641031523766e-02,2.105719794822083837e-02,1.002076383015600147e-01,1.861750036478042603e-01
-1.629132681639374192e-01,-1.571637042108276483e-01,-3.067795466917287994e-01,-1.885935361084160530e-02,-2.652526023122430202e-02,1.154173957597280642e-02,1.585407257080078125e-01
-1.491536077403699811e-01,-1.509484625579237960e-01,-2.900253362701305515e-01,9.096308231698327839e-04,-4.869999715438325300e-04,8.083882708021212322e-04,1.400013417005538940e-01
-1.602633279807195443e-01,-1.701436335043391701e-01,-1.971438679305873021e-01,2.321085076613984329e-03,3.051183286670336187e-03,-4.726316915555963880e-03,3.470604121685028076e-02
-1.285595529878987009e-01,-1.578801832707763808e-01,-2.874224672846670270e-01,2.330657046065086509e-03,3.112643274477860152e-03,2.456197519726120021e-03,1.466377377510070801e-01
-1.372611424310732908e-01,-1.620935636599400431e-01,-2.915337127858153576e-01,-4.700213117465084820e-05,-2.207950404974274358e-03,-4.603981103189364326e-04,1.435304135084152222e-01
-1.558037612624785795e-01,-1.517817300463935315e-01,-1.656885949026101479e-01,-4.758709983140063139e-04,5.597912528283653828e-03,1.198032978475900741e-02,2.605605311691761017e-02
-1.581457970542267388e-01,-1.627606718407439979e-01,-1.997199787805820081e-01,2.033375161603296743e-03,1.011269611406313482e-02,6.066891008663577922e-04,4.333772137761116028e-02
-1.548291343753049332e-01,-1.487149542343664255e-01,-2.885271571423011494e-01,5.380486579905726817e-04,-8.329704200801475765e-04,2.084635913798604052e-04,1.368688344955444336e-01
-1.675724577685269445e-01,-1.717557809459277496e-01,-2.097784470306848503e-01,2.485679197920463625e-03,1.091890237784305141e-03,1.240797968072582941e-02,4.589412733912467957e-02
-1.676218990762405048e-01,-1.680282999599551630e-01,-1.962523859471978771e-01,-1.050478474817482296e-04,2.412957776347464476e-03,7.292860909817806998e-03,3.138936311006546021e-02
-1.286727221505954699e-01,-1.358112238252908444e-01,-2.583142486896666812e-01,9.252459112636692712e-03,-9.438981976427153475e-03,-4.577178293900829344e-03,1.285278052091598511e-01
-1.361659758501911899e-01,-1.535081800142857611e-01,-2.870858225128944952e-01,5.305148085721769291e-04,-2.157112252262057255e-03,8.039136492779092816e-04,1.430979073047637939e-01
-2.947197449518625390e-01,-1.756859588139811912e-01,-4.610655751636357769e-01,2.124097703088613856e-02,-5.190319108322923210e-03,-8.645931184098440414e-02,2.924050986766815186e-01
-1.420454909642615560e-01,-1.644833338806226397e-01,-2.759687564016725103e-01,1.930221602005736600e-02,-3.341294193777630955e-02,-1.033740549383300837e-02,1.422024369239807129e-01
-1.421296810555088830e-01,-1.620461402660784422e-01,-2.942182353706439546e-01,5.320958307206070242e-03,-5.833144405579208415e-03,-1.549434864054850597e-03,1.438497304916381836e-01
-1.672269255225431184e-01,-1.307066553628262184e-01,-2.845498807594171176e-01,1.489523513137220624e-03,5.794031311421826529e-04,3.275333581633553884e-03,1.393661350011825562e-01
-1.491755981284683674e-01,-1.540191102624254293e-01,-2.890749649920311137e-01,-6.083655450758021282e-04,-3.886785340658519211e-04,-1.385867248559309248e-04,1.375474780797958374e-01
-1.311330122298002832e-01,-1.649595987291163912e-01,-2.935909324150384192e-01,2.869884176179735794e-03,-1.082913703655243205e-02,-8.775558650714992666e-04,1.497339159250259399e-01
-1.482178018240648543e-01,-1.718372870034423905e-01,-3.203554173987258613e-01,6.227266410151643082e-03,-5.372951994889781611e-03,1.269729067200052813e-05,1.622540652751922607e-01
-1.338957104196878412e-01,-1.571362802573422479e-01,-2.882853030977138853e-01,-1.009328573024701348e-03,-2.763949456132396964e-03,5.384210880838875965e-04,1.442740857601165771e-01
-1.446508666299482215e-01,-1.737930842888280314e-01,-2.943415983051215212e-01,5.884329407382605723e-03,-1.957653709638517911e-02,-5.844341985801731337e-03,1.423036605119705200e-01
-1.440135494704293806e-01,-1.602667463299966011e-01,-2.922446160901295831e-01,-5.816411033431565522e-04,-1.421455540859172407e-03,-1.886417177567620033e-05,1.408348828554153442e-01
-1.483766414003946932e-01,-1.300727586952133141e-01,-2.781415850682628088e-01,-2.178498005171437130e-02,-8.465308393543542753e-03,1.760394346624604214e-02,1.487199068069458008e-01
-1.195362705846167162e-01,-1.499578347546536849e-01,-2.730636607946949623e-01,4.299957380429669622e-03,-1.021079451371872601e-02,-1.150214395047630123e-03,1.421189904212951660e-01
-1.337742951910876332e-01,-1.694906734298886053e-01,-2.953962448047307010e-01,7.982438329187201490e-03,-1.054962417767319263e-02,-1.089651725592893569e-02,1.500200182199478149e-01
-1.253091279253839563e-01,-1.244298413430326988e-01,-2.431995225620432466e-01,1.838009427144661825e-02,2.635604422004857866e-02,2.298543205046902141e-02,1.366930007934570312e-01
-1.321839790596376907e-01,-1.752177959635483895e-01,-3.154962767364274390e-01,1.317708417710986186e-02,8.017112819316919714e-03,-9.592822208257814837e-04,1.681760102510452271e-01
-1.491763360074538358e-01,-1.349740201005606988e-01,-2.867931930384308714e-01,-1.610140577280819640e-03,-3.657897576948042416e-04,2.392777235403021144e-04,1.452684849500656128e-01
-1.483298384078871879e-01,-1.426105891139822779e-01,-2.882434968240856765e-01,-1.089917646499852493e-03,9.850399118887449607e-05,5.055337219267098860e-04,1.428744345903396606e-01
-1.500254452298717955e-01,-1.512860075540120031e-01,-2.869362664480539227e-01,-6.130378058221611201e-05,5.811442683083769585e-05,5.443118130408013168e-06,1.362849920988082886e-01
-1.347843860516468872e-01,-1.538473955360448453e-01,-2.685057320327705055e-01,1.693192027124691343e-02,3.860526248373698927e-02,1.671027282994083304e-02,1.478666067123413086e-01
-1.085629458596610031e-01,-1.351762040164427026e-01,-2.427143673298214899e-01,1.458215815114289292e-02,2.689503522081022197e-02,1.869403793937720118e-02,1.378078758716583252e-01
-1.458158952278826581e-01,-1.482932292623616310e-01,-2.867490270702010013e-01,-6.278330971932417947e-04,-2.158865300739445220e-04,-1.750022043220026248e-04,1.397159993648529053e-01
-1.248073349494873696e-01,-1.427009079039894823e-01,-2.701350043110708476e-01,5.628710597736273982e-03,6.739003643567128762e-03,2.267474176529707310e-03,1.381542384624481201e-01
-1.312505624854731767e-01,-1.502301070345087863e-01,-2.848252069975395484e-01,5.905909342198354707e-03,7.213916286443319489e-03,3.161670349863515868e-03,1.460183858871459961e-01
-1.495239385444842861e-01,-1.363215754998450269e-01,-2.867142231668921015e-01,-1.453336882883835652e-03,-6.321351061518643759e-05,-6.005436122651712201e-04,1.442710757255554199e-01
-1.494323352942533434e-01,-1.441211318925244844e-01,-2.906189698441599134e-01,9.699346680908247503e-03,1.450498326663692125e-03,5.897340124056037192e-03,1.452743113040924072e-01
-1.418021103875373168e-01,-1.422917333311300991e-01,-2.878212834518681928e-01,-4.892674203967183923e-03,-5.696669899830224563e-04,2.689299614477974609e-03,1.460987031459808350e-01
-1.324847582905579191e-01,-1.421351745223227714e-01,-2.815640856773763412e-01,4.860920963242209430e-03,1.705733675568188706e-03,1.895948566472437427e-04,1.447716206312179565e-01
-1.361485691458942937e-01,-1.577943065458914662e-01,-2.710570964827898055e-01,1.368087731317021820e-02,1.840277415995900112e-02,5.243435579699291457e-03,1.319417357444763184e-01
-1.383150078827329599e-01,-1.518926366126436556e-01,-2.846274764584807437e-01,5.416455888114529542e-03,4.750587524143231113e-03,1.422914855539949598e-03,1.405948251485824585e-01
-1.495671770837233017e-01,-1.719607847059224648e-01,-2.953978720282072756e-01,1.507058272934924149e-02,1.601769607913205648e-02,8.381979238512939773e-03,1.420008093118667603e-01
-1.388553839581375682e-01,-1.387204990861536091e-01,-2.833522859134890992e-01,3.838917548800872218e-03,1.078032547107629852e-03,1.329739054597123835e-03,1.447475999593734741e-01
-1.366183877991029305e-01,-1.447885596415228737e-01,-2.849775095522670831e-01,2.380893314657202015e-03,2.920169297065674597e-04,5.776764376283112512e-04,1.445106416940689087e-01
-1.349604719056467506e-01,-1.500534390272990626e-01,-2.770647002645313939e-01,8.143808677746389169e-03,5.635474946079912888e-03,3.033782547682365230e-03,1.363762766122817993e-01
-1.605524729165227482e-01,-1.780378950711290487e-01,-1.992989642466570233e-01,1.435674473890832803e-02,4.486008067586716441e-02,1.993876754778801941e-02,9.475138038396835327e-02
-1.505990786899491229e-01,-1.551509063619709028e-01,-1.773744796948232560e-01,8.558250780275831679e-03,3.701168781805130870e-02,9.942624200223909234e-03,7.239929586648941040e-02
-1.010111919629725352e-01,-1.294489423982441711e-01,-1.137847404389230183e-01,3.697016603592060031e-03,6.253590669499102528e-02,8.077140655676355238e-03,1.121497303247451782e-01
-1.172051040757259438e-01,-1.121049883713186590e-01,-2.375250924890378451e-02,-2.877087123822778380e-03,1.778927835396897431e-02,-1.086310543967151238e-02,9.803575277328491211e-02
-1.304199610378939667e-01,-1.578972331965236842e-01,-1.642345027286425951e-01,1.348716447739562894e-04,3.458046216450162691e-02,-1.832991080662567732e-02,7.459711283445358276e-02
-1.738410762569331802e-01,-1.845198632247398440e-01,-1.845730090695762715e-01,-3.840093394735902537e-03,1.963798553424090862e-02,-9.288568212687793244e-03,3.968160599470138550e-02
-1.534034979599518400e-01,-1.480277394848956152e-01,-2.969506148074205765e-01,7.148017070299451589e-03,-3.521003778214201827e-03,3.315055106890246430e-05,1.469585895538330078e-01
-1.518203975125276550e-01,-1.404352763109583402e-01,-2.954019074958197377e-01,1.874126341250413955e-02,-4.114135942265862225e-03,-1.085581580303697329e-02,1.543955802917480469e-01
-1.361382270980503462e-01,-1.195643533916480872e-01,-2.785239231742135946e-01,1.389085833902309504e-02,-6.188945953257084763e-03,-7.102524081704193575e-03,1.541213095188140869e-01
-1.404393476548644604e-01,-1.673136045398511129e-01,-3.081329129545601897e-01,-7.073086154645673567e-04,-5.494489284661919874e-03,-5.103538948712497579e-04,1.562996059656143188e-01
-1.169376231900270680e-01,-2.280479350260639637e-01,-4.261126111895222612e-01,1.624036894368114867e-03,-5.162945779116995954e-02,1.278177565140136904e-02,2.864907979965209961e-01
-1.467112570576814545e-01,-1.536223929605968763e-01,-2.875670578034894009e-01,8.959309566424759246e-04,-3.309118060176647111e-05,-1.405038245421957714e-04,1.375395059585571289e-01
-8.241576505051759205e-02,-2.093320250566953755e-01,-3.201506263729778645e-01,-3.182489983352016719e-03,-6.204105720434593269e-02,-1.009007166490425225e-02,2.331014275550842285e-01
-3.747399051162321471e-02,-1.348288246043674588e-01,-2.484587204661719007e-01,2.028537090471364129e-02,-4.854382341108869764e-02,-1.053524769277874862e-02,2.051562964916229248e-01
-9.911377272154589524e-02,-1.619083604707408641e-01,-2.644806880880725686e-01,5.153089923133316770e-03,-7.919864554537557610e-02,-1.193358698476258001e-02,2.005726844072341919e-01
-1.484677824605959429e-01,-1.546435643905703095e-01,-2.881626802172695401e-01,5.584307068000342496e-04,-6.240944456501319824e-04,7.823938968553468664e-04,1.367260813713073730e-01
-1.497142087662964582e-01,-1.514437803319427789e-01,-2.871484120873546986e-01,2.978470318365770584e-04,6.555244142466655282e-05,-9.822385875702620815e-05,1.365787535905838013e-01
-1.251134633593187218e-01,-1.742228251273769402e-01,-2.917211372877960285e-01,4.990478509717368588e-03,-3.683199699082184697e-02,4.902275720640439025e-03,1.618778854608535767e-01
-1.536317222810999750e-01,-1.564185958091031947e-01,-2.996039855213875613e-01,5.477961796048742490e-03,-1.176623925533439724e-03,1.489141956300558305e-03,1.449472010135650635e-01
-1.550536964119960948e-01,-2.149043345405871330e-01,-3.540196453099646590e-01,1.277954185358494421e-02,-8.471668561940150222e-02,-1.674496140054885021e-02,2.326439172029495239e-01
-1.070721230780589811e-01,-1.660889637858138368e-01,-2.745344857812610506e-01,1.891866359133208969e-02,-6.398266867393176405e-02,-8.719183385189316349e-03,1.876877695322036743e-01
-1.477041827588114475e-01,-1.515604977208918624e-01,-2.889695803590220935e-01,1.166065472310595674e-04,2.952029018970982340e-04,-9.343249618393548476e-04,1.393877416849136353e-01
-1.462688321153633175e-01,-1.569135650675585192e-01,-2.899640803444613057e-01,7.795383619801489559e-04,-7.075459625402735764e-04,7.744090140978015851e-04,1.386981010437011719e-01
-2.105760961055895553e-01,-1.605350679720821683e-01,-2.858042448919051459e-01,2.891440832415402215e-02,-2.270235618125274885e-02,-8.486111221491331180e-02,1.938721686601638794e-01
-1.552740744420008090e-01,-1.009608116012608164e-01,-2.379323352619528986e-01,1.122208643622959155e-02,-2.778975876601101624e-02,-7.233013185688047519e-02,1.807244271039962769e-01
-1.506554827387269202e-01,-1.385975723075404398e-01,-2.879603289750040096e-01,1.387540293767817404e-03,-1.229774547081950318e-04,-1.426131172426089002e-03,1.437551677227020264e-01
-2.768482485875209953e-01,-1.677939860607966516e-01,-5.242011220902769164e-01,5.434254912098675228e-02,-7.944545680542820787e-03,1.138140275519521939e-02,3.308903872966766357e-01
-1.596861984176740634e-01,-1.450828773965083252e-01,-2.946717459272407691e-01,6.999082020755362926e-03,-2.499620412794019159e-03,-1.264625763035211311e-03,1.434437036514282227e-01
-1.413880861285606305e-01,-1.549453825596577849e-01,-2.897794402085242527e-01,6.295346259307482879e-03,4.567966145446270172e-03,1.184933672538075787e-03,1.427505314350128174e-01
-1.640564715576338095e-01,-1.366326805867663086e-01,-3.111574932614617484e-01,2.021617474959026828e-02,-2.294870606518014701e-03,-1.417012030295139273e-02,1.681341677904129028e-01
-1.746117563473130185e-01,-1.346211654530911073e-01,-2.879470833626223136e-01,1.839907704698470411e-02,-1.941393705921834814e-02,-2.461952507133200949e-02,1.514633148908615112e-01
-1.691316090947933004e-01,-1.328620293532308261e-01,-2.976082518114792630e-01,2.261115251033326244e-03,-4.038252279905644657e-03,-1.001552026404508959e-02,1.511512994766235352e-01
-2.237762116897624165e-01,-1.119952610255809805e-01,-3.306321930414851673e-01,1.942383266919467041e-02,-6.635535687872568499e-03,-7.538066475715719805e-02,2.327408939599990845e-01
-1.027229561247069156e-01,-1.484081601295179076e-01,-2.525111713702815064e-01,-1.152633357360404419e-03,-2.169951497295433129e-02,2.118599424669076903e-04,1.381928771734237671e-01
-1.187673212310561416e-01,-1.507818757853291725e-01,-2.397249576250882752e-01,-5.351562699088097987e-03,-2.472753483226116517e-02,-1.142436832821381231e-03,1.170788705348968506e-01
-1.428080367210592116e-01,-1.589568024996069195e-01,-2.918129619945488695e-01,-5.100477079514589753e-04,-1.378530371458125100e-03,-4.891015940501259630e-04,1.416481733322143555e-01
-1.229430586895432220e-01,-1.644100923802421788e-01,-2.797861915704998870e-01,-9.852525258336356320e-05,-1.288669353273024822e-02,3.914675042516628511e-03,1.426873058080673218e-01
-1.338304845256721998e-01,-1.578223604877728170e-01,-2.776263399323924408e-01,8.448456157681484210e-03,-6.764420191116218492e-03,-3.583280327259833267e-03,1.348808556795120239e-01
-1.121157780138600790e-01,-1.745938211477575941e-01,-4.304785634303401887e-01,-7.493691919911706079e-02,5.559146634564786187e-03,4.001931778191701594e-02,3.272791802883148193e-01
-1.326634598268512100e-01,-1.479581553020299090e-01,-2.242179353879490689e-01,-7.729361569345147114e-03,1.409402760177294427e-02,-8.520423807376548489e-03,9.060242027044296265e-02
-1.449555472698126068e-01,-1.537254464089548578e-01,-2.927397284396071608e-01,1.042929205406904584e-02,-4.373147036686319752e-03,-3.077258817716695388e-03,1.450279802083969116e-01
-1.453942523609567106e-01,-1.616133880369951814e-01,-2.959937403961617752e-01,-3.557281993442393373e-04,8.060382763703721407e-04,-5.920231214358880447e-04,1.431923657655715942e-01
-1.265888776236786528e-01,-1.794432763636542028e-01,-2.710451449630672527e-01,-6.473349218553046090e-03,-4.336570183257428684e-02,-6.359884713695622242e-03,1.480366885662078857e-01
-1.158949809677555370e-01,-1.484266746950359817e-01,-2.645218330849181676e-01,-1.870745157883692712e-03,-1.007747404535212256e-02,9.815545260976521382e-04,1.364962458610534668e-01
-1.381443804125299102e-01,-1.549994009363537539e-01,-2.877800237331253896e-01,-3.553716687807405273e-04,2.228133841108807800e-03,1.886545299849115261e-03,1.420519500970840454e-01
-1.140841637109033802e-01,-1.526357425325036155e-01,-2.587905991650750748e-01,1.576754242967169694e-03,-1.430967923092612074e-02,-2.488077458647361406e-03,1.322416216135025024e-01
-1.328926826470160361e-01,-1.554985677796808519e-01,-2.814558724676854973e-01,1.410249127765804932e-02,-1.721083761617274790e-02,-9.692777632139193064e-03,1.448819339275360107e-01
-1.411809341978385313e-01,-1.740984120458265727e-01,-2.497257841835912873e-01,4.097376376019664854e-03,-2.239781712070766997e-02,-4.499009284159001011e-03,1.044442281126976013e-01
-1.491820740443713100e-01,-1.550613325050932967e-01,-2.889802156625509433e-01,-8.855762959380233338e-04,2.483419862476265484e-04,8.175844552134064634e-04,1.369697749614715576e-01
-1.518479525706377675e-01,-1.523977530962924154e-01,-2.892005396542761675e-01,-8.283065677915810122e-04,2.564598275791012279e-04,-3.536675643809948470e-04,1.370881050825119019e-01
-2.227248207555923287e-01,-2.155314821295260530e-01,-3.644821847806183346e-01,-3.966083439429993196e-02,-7.700612599332369579e-02,7.296548647236884844e-02,2.442279011011123657e-01
-1.494162652395655544e-01,-1.513731709462070030e-01,-2.887705275225853074e-01,-6.220794692494742298e-04,2.679411689534096953e-05,-1.177866248506515097e-05,1.383903920650482178e-01
-1.312889644187651139e-01,-1.330163247214872779e-01,-2.620633608128292713e-01,-1.324741277315453700e-02,-9.025384180975409149e-03,1.239292948972475945e-02,1.345757842063903809e-01
-1.780081170338579100e-01,-1.493560236978708489e-01,-2.686572374607356650e-01,-4.699185103400459890e-03,4.497779646470955470e-04,2.347870045260411469e-03,1.082537919282913208e-01
-1.368140371560237767e-01,-1.721613244636149842e-01,-2.727412040170410501e-01,-3.540899056985233719e-04,-2.538546510380312871e-02,-4.019139565226610873e-03,1.300118118524551392e-01
-1.520484770775026306e-01,-1.510178209511327529e-01,-2.900050353225588351e-01,-3.621667408800915175e-04,-7.910269072522828609e-04,1.474993268724261177e-04,1.384831964969635010e-01
-1.517508215734456045e-01,-1.520881164970639965e-01,-2.871874183287663196e-01,-9.997132619148011280e-05,9.379325206933721991e-05,1.007685378193806322e-04,1.352685838937759399e-01
-1.606121412968423146e-01,-1.360529233112462433e-01,-2.727161287372238396e-01,-6.753510946264295114e-03,1.151788716379784430e-03,6.533535068263983045e-03,1.272498220205307007e-01
-1.552192669537931502e-01,-1.232046034074346791e-01,-2.725873991639935490e-01,-1.529739957174673518e-03,4.839826265999559382e-04,3.266689753526584149e-03,1.363724917173385620e-01
-1.289763213483582638e-01,-1.600557365522939646e-01,-2.736968585227526063e-01,-5.918419472702997688e-03,-2.809307283299602304e-02,5.670298023553494923e-03,1.413553506135940552e-01
-1.344659399928534449e-01,-1.548674982072317796e-01,-2.737307397292830791e-01,-7.036189760456212743e-03,-1.387721275697318020e-03,1.277593090463283176e-04,1.308588534593582153e-01
-1.456085640228159117e-01,-1.548532156906292645e-01,-2.933838327790436740e-01,2.189349645367917249e-03,-5.999566563302685760e-04,-8.548282071743921930e-04,1.434381902217864990e-01
-1.324386019287196736e-01,-1.178847766963038446e-01,-2.362093862887172935e-01,-8.850323895826487861e-03,-8.067780280441919777e-03,1.371971091443592236e-02,1.161266341805458069e-01
-1.383204896166698172e-01,-1.600288887852415742e-01,-2.858466443926488409e-01,-1.059964257699177320e-02,-6.499463357716043013e-03,5.742772411875134847e-03,1.399835348129272461e-01
-1.462086060291953316e-01,-1.510450691599025674e-01,-2.881328171564527252e-01,-1.109893188080572418e-03,2.671077920580258182e-04,3.263830244027656380e-04,1.395839899778366089e-01
-1.345989853132087410e-01,-1.553769149124782645e-01,-2.918011615838278505e-01,-8.591601457503324213e-03,6.768783563607039949e-03,-4.446677336746947609e-03,1.493188738822937012e-01
-1.481981960023364686e-01,-1.431572799831574150e-01,-2.864715687377040187e-01,-3.996926863556067404e-03,-7.880035240205974329e-04,1.290463046757024841e-03,1.410558223724365234e-01
-1.749127873901370478e-01,-1.327819609404017887e-01,-2.902619084105717007e-01,-9.841822284148836475e-03,-9.876958562470297687e-03,2.665206753784991542e-02,1.505138725042343140e-01
-1.387523692015902865e-01,-1.427943290395646825e-01,-2.840439886994540752e-01,-4.064713504413147716e-03,-2.651328470460812339e-05,-4.071156913037759909e-04,1.434879601001739502e-01
-1.618464079183981608e-01,-1.723189464974017038e-01,-3.294008218869529103e-01,-2.052988844760008508e-02,-9.646930917342573172e-03,1.121987558692431539e-02,1.683766990900039673e-01
-1.372187506892763309e-01,-1.510479498158819878e-01,-2.882429102252489495e-01,-6.756651872285889156e-03,-3.359165874563341345e-03,2.278929149722649927e-03,1.452494114637374878e-01
-1.520084689641854059e-01,-1.528483133343936928e-01,-2.885794186112029536e-01,-1.538706072933659880e-05,-5.986793266822136209e-05,-4.845289620562373751e-04,1.361556053161621094e-01
-1.515608111002728353e-01,-1.483538945296507261e-01,-2.910447907828408454e-01,-4.339233218225844145e-03,8.880659126684577924e-04,-4.248948936356019879e-05,1.413231641054153442e-01
-1.513898041538811468e-01,-1.560692029295873140e-01,-3.084440975239799987e-01,-1.306076257138412931e-02,-6.625027365425291068e-03,7.117864940600834855e-03,1.573163866996765137e-01
-1.305873196644284084e-01,-1.425817917300100934e-01,-2.762255830944440049e-01,-7.952805762910592630e-03,-7.040084463583566772e-03,5.263504546306888195e-03,1.415240615606307983e-01
-2.063459469046908801e-01,-1.648625242438603866e-01,-3.552818420612596229e-01,1.246664668974400807e-02,1.594607597163959917e-02,4.035257265703619950e-02,1.902504116296768188e-01
-1.905371619272643868e-01,-1.587212623239569187e-01,-2.855935369985305172e-01,1.767963270161199835e-02,3.365101293961192397e-02,5.112995187838095812e-02,1.589023768901824951e-01
-1.372966521126180450e-01,-1.231314694365135964e-01,-2.366562203131178099e-01,1.603917270766056988e-02,1.651440390248942042e-02,3.287202922651410314e-02,1.277187317609786987e-01
-1.484469008218146924e-01,-1.265055173737932304e-01,-2.602935274829527579e-01,6.607892760054005603e-03,9.668683037140009566e-04,2.508699154522451343e-03,1.248913109302520752e-01
-1.508522314933931907e-01,-1.390291581458426295e-01,-2.744595670936077481e-01,9.678552122593041609e-03,3.532859753788788939e-03,7.529996296877057398e-03,1.317897737026214600e-01
-1.359390528915880858e-01,-1.430611930068177717e-01,-2.827552231304708563e-01,7.189971100070429236e-03,4.307319529280433275e-03,4.163662100498827408e-03,1.443011462688446045e-01
-1.479317774818930398e-01,-1.451399962723730341e-01,-2.402258720205658893e-01,1.871469476071278143e-02,1.543194189658874359e-02,3.090426705676692365e-02,1.158189699053764343e-01
-1.473513912534821779e-01,-1.394281825824693621e-01,-2.000380615878570023e-01,2.330344976710098427e-05,-4.987608405752168121e-03,2.089206889029673365e-03,5.782590061426162720e-02
-1.376594991241750221e-01,-1.503409920172156522e-01,-2.877711517766893268e-01,1.789637059260350922e-03,1.335642770338636579e-03,-5.894454466165836192e-05,1.442416757345199585e-01
-1.430993367405822836e-01,-1.431509974926724327e-01,-2.888163229991273506e-01,1.124991306707083386e-04,-1.425414416278787059e-05,1.169703498089231337e-04,1.456914395093917847e-01
-1.613225731049930944e-01,-1.266227896657966812e-01,-2.821065962439231467e-01,-6.158530140918114584e-04,1.206362367878248583e-03,2.210783143202425197e-03,1.414362043142318726e-01
-1.350100230371565901e-01,-1.481065078866229401e-01,-2.843726456869388741e-01,1.282654067004348076e-03,4.174122404967904316e-04,6.757366311547004668e-04,1.432878673076629639e-01
-1.504400829535701423e-01,-1.568520728676538190e-01,-2.974706080676158271e-01,3.026156878386194408e-03,-9.248419773013643241e-04,9.618804217641197495e-04,1.440456360578536987e-01
-1.878636463382674093e-01,-1.477000726555963706e-01,-3.265888933091255497e-01,1.036901007217217764e-02,6.865630588516691279e-03,4.529115850289661821e-02,1.817892640829086304e-01
-1.561775000292799365e-01,-1.377483875379754141e-01,-2.931350322814683662e-01,1.050889320722557703e-02,4.682856803994585315e-03,8.362162627551360944e-03,1.490901708602905273e-01
-1.349126534563666324e-01,-1.376419180867931580e-01,-2.739295434194805035e-01,1.828463469532709204e-02,-1.399561318054561715e-02,-1.717515251264534193e-02,1.463875174522399902e-01
-1.605039386719131767e-01,-1.374979560124724998e-01,-2.961923005659480856e-01,-2.390839764847438927e-03,1.156642829231953979e-03,-1.471534703168641189e-03,1.486267447471618652e-01
-1.246020685420109464e-01,-1.598300320498937388e-01,-2.129023929561350559e-01,1.533098763662774436e-02,-4.885507601188548293e-02,-2.401910583527309961e-02,1.245939061045646667e-01
-1.580360530698015076e-01,-1.536927801201915800e-01,-2.332926296538077038e-01,1.030778015970335026e-02,-2.632487543715921960e-02,-3.993580466028151532e-02,1.148548200726509094e-01
-1.623977008617296380e-01,-1.536434630514461608e-01,-2.537157982655532384e-01,1.317532013896228690e-02,-1.414148212852423675e-02,-1.990770053933617334e-02,1.073532178997993469e-01
-1.170156757332626307e-01,-1.299983878970718820e-01,-2.634005022694576592e-01,1.636895086771117738e-02,-1.926364889463384397e-02,-1.399842757801320059e-02,1.490018665790557861e-01
-1.592341941414630868e-01,-1.343952992801394075e-01,-2.959733884414570415e-01,-8.652136499580093815e-03,1.437107272003849100e-03,-8.006071668666089533e-03,1.520989686250686646e-01
-1.526278705977414385e-01,-1.286404136577174173e-01,-2.858297341250811696e-01,-3.977225318981283259e-03,2.191926258436429232e-03,-2.900862849233278896e-03,1.469708234071731567e-01
-1.594590135329337355e-01,-1.344232045461332681e-01,-2.981593542157033871e-01,-2.733223182561467148e-03,-3.006558094761606218e-04,-2.009155568955918285e-03,1.528785228729248047e-01
-1.566356360133867032e-01,-1.325816349637970459e-01,-2.929508307728829197e-01,-3.474768902584956468e-03,-1.157739352655009438e-03,-2.018550707243417942e-03,1.499727368354797363e-01
-1.568410348093085549e-01,-1.457715603202965893e-01,-2.942158636923922210e-01,-2.505009522824175328e-03,-6.143480843210850743e-04,3.482829664364092497e-04,1.433016657829284668e-01
-1.575390796111655889e-01,-1.424300275591245390e-01,-2.970532819763414545e-01,-5.774290183078004644e-03,-1.947313705299913954e-03,-2.971093520106517488e-03,1.481158584356307983e-01
-1.571457438116259653e-01,-1.365475665775561787e-01,-2.496693387162899347e-01,-1.711957091364744174e-03,4.975450680991169022e-04,-4.129319836462182723e-03,1.046489700675010681e-01
-1.598166043064371822e-01,-1.496578133990333348e-01,-2.965484710761044918e-01,8.300431278036995162e-04,5.199773563998268859e-04,8.770699288507534342e-04,1.421021521091461182e-01
-1.436005088406039909e-01,-1.571870049949767589e-01,-2.905602151295160751e-01,-1.492998239230743009e-03,2.123173508696123157e-04,-1.213568458535693647e-04,1.406838595867156982e-01
-1.396450263651204393e-01,-1.575873618324673542e-01,-2.905095602512444142e-01,1.836567127349408033e-03,-1.435287492676582191e-03,2.081104737576871448e-04,1.427991688251495361e-01
-1.653239206165012798e-01,-1.423473992160591284e-01,-2.589579435330091606e-01,-5.831059326179451052e-03,1.463153997811212151e-03,-3.750831205522883044e-03,1.076906099915504456e-01
-1.378586632528886469e-01,-1.610610742431960452e-01,-2.937479935728792846e-01,1.866748205185933724e-04,1.990454130461077713e-03,-3.756391718651194526e-04,1.457231640815734863e-01
-1.529359935078057620e-01,-1.190401644372948986e-01,-2.519314700716925315e-01,5.263989241614383183e-03,-1.075114140527226418e-02,-2.175497629681028694e-02,1.270995438098907471e-01
-1.507556262535946212e-01,-1.219261335447815453e-01,-2.722625071742673653e-01,3.443602641618743413e-03,-2.906228583600081739e-03,-7.458959210905747976e-03,1.390175074338912964e-01
-1.360923104366361658e-01,-1.570829524211396766e-01,-2.897048941351980100e-01,1.707992704623883086e-03,-1.413874806616369478e-03,-8.932665216078150508e-07,1.443182379007339478e-01
-1.991533650176863512e-01,-2.190735291435867427e-01,-2.434288803439669246e-01,-1.730660355139863188e-02,-8.821867786312494186e-02,5.965862851119865112e-02,1.907846331596374512e-01
-1.604550298165738353e-01,-1.293008855487605135e-01,-2.858400537387831841e-01,-7.061629152734748283e-04,3.009768208637587472e-04,-7.142391197503725718e-03,1.440592110157012939e-01
-1.605487213955917314e-01,-1.189407379802323445e-01,-2.368092567574660023e-01,-4.976743489959572532e-03,1.027599262998991035e-02,-1.760296969123081867e-02,1.097297891974449158e-01
-1.431528845833575647e-01,-1.597514912212048555e-01,-2.946879743970039489e-01,1.085669256326178859e-03,-8.257619174861356194e-04,-7.984013551664253649e-04,1.439813226461410522e-01
-1.707746387655646736e-01,-1.351897124470724243e-01,-2.873454958845182983e-01,1.184582938827290211e-03,1.973989114790562684e-03,-2.359746067860711213e-02,1.438389271497726440e-01
-1.479447908832740299e-01,-1.109737630136482939e-01,-2.426625972229446981e-01,-2.306804828694762523e-03,4.082644429440825638e-03,-3.302682753718584607e-02,1.310664564371109009e-01
-1.609503140786353870e-01,-1.349526404817293912e-01,-2.915084595926514255e-01,-5.005457484779182340e-04,5.936228034200783933e-05,-2.754842218774501954e-03,1.453927308320999146e-01
-1.732943081547026476e-01,-1.525138596584310058e-01,-2.737205219026481173e-01,-5.833423240724220846e-03,2.611669935060480490e-03,-1.985154063066278327e-02,1.179362237453460693e-01
-1.518307745075448967e-01,-1.485206419976800030e-01,-2.887304523455401783e-01,-5.516014847555440618e-04,3.049469078969003501e-04,1.887100663890782905e-04,1.385890841484069824e-01
-1.258543549692467955e-01,-1.587521777170143311e-01,-2.883408658353984744e-01,4.470738790793536699e-03,9.303519767736068841e-03,-8.489269567042886629e-04,1.498681753873825073e-01
-1.550472027358894000e-01,-1.278688341543642304e-01,-3.010734328927687220e-01,-1.660260972671963320e-02,-5.254681552677286510e-04,-1.138995287760288279e-02,1.650698035955429077e-01
-1.480596265094260011e-01,-1.443446150932253813e-01,-2.858715842529292450e-01,-9.896655950876202725e-04,-5.118138135535876029e-05,-2.778403265917608065e-04,1.397178918123245239e-01
-1.418264817033979552e-01,-1.157846935670491101e-01,-2.740068076270092967e-01,-1.262647931851956958e-02,7.244512317919818770e-03,-1.820273972270477006e-02,1.523869335651397705e-01
-1.320310589470407581e-01,-1.324223254469283628e-01,-2.625281503401319938e-01,-1.044202096916035591e-02,7.878187167159662885e-03,-7.791792992792399147e-03,1.329436898231506348e-01
-1.485947123001148118e-01,-1.220121431402875628e-01,-2.659096196587983352e-01,-1.336276011799086491e-02,7.037438149590622034e-03,-2.345260016901610026e-02,1.411463469266891479e-01
-9.866916518819145165e-02,-1.774539531034803608e-01,-2.141980557789521233e-01,-1.088290846225093041e-02,6.913884657902000241e-02,-2.917564593055175376e-02,1.664378494024276733e-01
-1.740859727712457117e-01,-1.586925859816853968e-01,-3.358014316908310981e-01,-1.769492375994728348e-02,8.040015056961138246e-03,-1.066543135591702628e-02,1.742202788591384888e-01
-1.421668218329040223e-01,-1.325024860666191018e-01,-2.811417480987111195e-01,-8.492389450699902240e-03,4.312812975794003828e-03,-5.780440228638324823e-03,1.453373134136199951e-01
-1.606836458383451294e-01,-1.309168709787068008e-01,-2.955512931090062412e-01,-4.351455274789515527e-03,2.159603183126786695e-03,-1.186198324331016497e-02,1.535670310258865356e-01
-1.526747533768315068e-01,-1.333390482279111500e-01,-2.884953144149456916e-01,-5.730330296049285406e-03,1.337194929122537904e-03,-6.294130374924920314e-03,1.472073495388031006e-01
-1.543432960591818170e-01,-1.231045060776505551e-01,-2.668380410281666060e-01,-3.481570419950552001e-03,1.330629535710895189e-03,-5.551783290515796554e-03,1.314506381750106812e-01
-1.433943795534558252e-01,-1.739765160773243391e-01,-2.934040499670794722e-01,-7.634492720280984697e-03,1.954189401110706728e-02,1.446817063347541170e-03,1.420469880104064941e-01
-1.740474852691683838e-01,-2.847629702371206051e-01,-5.073962687270128225e-01,-5.185754435591802269e-02,-3.387192189591735347e-02,1.895694553999568294e-02,3.147381246089935303e-01
-1.501658140450918277e-01,-1.464435748613537869e-01,-2.898709997132573601e-01,-9.755783482123548409e-04,-3.878465026624636409e-04,-2.403138981804418069e-04,1.416152864694595337e-01
-1.358715355864091034e-01,-1.613684780177862266e-01,-2.823474275107248355e-01,-5.685251781578288741e-03,7.583252668172038059e-03,-2.416199965223071559e-03,1.365927904844284058e-01
-1.204055255620579690e-01,-1.474804649940832102e-01,-2.693650375574023759e-01,-6.314018632324430898e-03,1.014991858789558721e-02,-1.736405302642543298e-03,1.390202343463897705e-01
-1.160379034080525062e-01,-1.381255403871000376e-01,-2.400083097991148051e-01,-5.427765577669965875e-03,1.360696783173597282e-02,-9.084291405198972880e-03,1.183626428246498108e-01
-1.528842635336268851e-01,-1.535004317137069196e-01,-2.885792762252561428e-01,6.259266030222687942e-04,1.920536591953797589e-04,-1.816594173666600078e-04,1.353930979967117310e-01
-1.330140548695563918e-01,-1.588495771695051517e-01,-2.934072677086115855e-01,-1.343357795708009957e-02,1.187717547277475534e-02,-3.011421827018319081e-03,1.524513214826583862e-01
-1.291774956061591539e-01,-1.471820790617639763e-01,-2.615066124738418263e-01,-8.410399726986754476e-03,1.293101680396763035e-02,-8.020181300776705116e-03,1.279040127992630005e-01
-1.355049848076415875e-01,-1.492709417119773008e-01,-2.778984679643383693e-01,-8.251156305840843044e-03,6.798421599959830752e-03,-3.066194618736853370e-03,1.373911499977111816e-01
-2.758620700706175821e-01,-1.673626801703098910e-01,-5.383274427830220255e-01,6.043720723311477722e-02,-1.779777777250647272e-02,-3.625323420108889257e-03,3.479729890823364258e-01
-1.389199694922901296e-01,-1.526983978933286745e-01,-2.859371383027312641e-01,-6.604337237329057503e-03,4.027851083237451481e-03,-1.345971566912717568e-03,1.412911415100097656e-01
-1.334401264218109118e-01,-1.486033109912081041e-01,-2.834153439268137786e-01,-1.281165473758535782e-03,-5.108814073565757342e-05,-5.592293616529178538e-04,1.430183798074722290e-01
-1.383593320548457684e-01,-1.458062954698980396e-01,-2.857360819568233179e-01,-6.924628462556558540e-03,2.273452009536402509e-03,-2.584779259861315348e-03,1.444204151630401611e-01
-1.498632690324377958e-01,-1.514033270581398583e-01,-2.869385756128194909e-01,-9.878203991005363226e-05,8.413467803548916853e-05,2.975504269674177429e-05,1.363119930028915405e-01
-1.361336802982592298e-01,-1.370279374537148320e-01,-2.665852351265127762e-01,-1.043494744493892769e-02,6.266751521007449081e-03,-8.539353082007284171e-03,1.325329840183258057e-01
-1.529658966330469938e-01,-1.509980793770838159e-01,-2.886838673532157173e-01,2.476272359636090504e-04,-2.791603961945944698e-04,2.136502653709630131e-04,1.367145329713821411e-01
-1.472757631849803683e-01,-1.467801739231303082e-01,-2.918641882263904863e-01,-3.439401216690950256e-03,-8.433849669167781723e-04,8.812658516352555888e-04,1.449747085571289062e-01
-1.406852282965175560e-01,-1.433138066996719195e-01,-2.875258501483362039e-01,-5.426654313568990591e-03,9.246043993851524312e-04,-3.262870141578966179e-03,1.459655612707138062e-01
-1.410577503710386538e-01,-1.569064566036476593e-01,-2.928917231826779211e-01,1.585304622493980027e-03,1.668043368579422104e-03,-2.312516088671907682e-04,1.446181535720825195e-01
-1.529716070222571500e-01,-1.507454792108884889e-01,-2.880076178526079222e-01,1.828138243452875466e-04,-3.784383359337955221e-04,1.056115597584791676e-04,1.361647993326187134e-01
-1.423259229461358022e-01,-1.469989293887418169e-01,-2.915985265629493228e-01,-5.938409079062601480e-03,5.537204047967278801e-04,-1.428175927760573071e-03,1.473751217126846313e-01
-1.574526652675770910e-01,-1.261110219187767667e-01,-2.851921599299062082e-01,-5.895845256710775069e-04,-5.203440914281683849e-05,3.236050608373790445e-03,1.460674852132797241e-01
-1.355046123150361326e-01,-1.269073512898667710e-01,-1.423347884667864882e-01,2.212770103444330980e-03,8.265864111951895174e-03,1.580156580531085278e-02,3.388238698244094849e-02
-1.394141425732055017e-01,-1.339631393608819443e-01,-2.803875464141215579e-01,6.478169487699321667e-03,4.918059598263264248e-03,5.342380680507197339e-03,1.447609961032867432e-01
-1.405575978705261020e-01,-1.579891046085776518e-01,-2.907301329929497524e-01,1.035040036321746484e-03,2.276627093754286270e-03,-6.908988658095768494e-05,1.423259973526000977e-01
-1.503270195216104554e-01,-1.461033274561551187e-01,-2.905429356605256919e-01,-4.463234245754820091e-03,1.757351954462373978e-04,-7.922104652402718779e-04,1.425914019346237183e-01
-1.421286537760836355e-01,-1.478272677584447359e-01,-2.870213978009655831e-01,1.549886153628625982e-03,-1.462924541248881267e-04,-9.885161134195230071e-05,1.421548277139663696e-01
-1.408598829418827858e-01,-1.453010231211497860e-01,-2.885056733299560250e-01,5.960005497215453696e-04,1.180736054116294175e-04,1.213231851429451410e-04,1.454800367355346680e-01
-1.623884558046619631e-01,-1.464334946420769445e-01,-3.042396874523823347e-01,1.563767625968444028e-02,-1.434569946706455885e-02,-1.083620778022927229e-02,1.560219228267669678e-01
-1.432407269606942035e-01,-1.396338241826045878e-01,-2.877123303529524057e-01,7.181523562741085054e-03,-3.333948722599279230e-03,-2.663326477101054992e-03,1.470220983028411865e-01
-1.573620722386239179e-01,-1.367294504909004615e-01,-2.920247639818299157e-01,1.039480590823612521e-02,-5.399864111065575019e-03,-8.499453017996564871e-03,1.482111513614654541e-01
-1.503354275515672578e-01,-1.409804308205851453e-01,-2.842512409861434053e-01,8.784057751343877368e-03,-2.140093938603236830e-03,-3.345258457541768187e-03,1.398303806781768799e-01
-1.702500043665108598e-01,-1.400102847822819463e-01,-2.643385510407714190e-01,5.151189766113968733e-03,-4.921312060890082642e-03,-3.050448144320570126e-02,1.247242540121078491e-01
-1.386182530013794212e-01,-1.504437336019520399e-01,-2.881094463812014506e-01,-2.231441380528480494e-03,-1.900468887338645211e-06,8.163297239909350438e-05,1.439951807260513306e-01
-1.461378671427316644e-01,-1.432268133301003998e-01,-2.876559228705052318e-01,-2.935583461070717052e-03,-2.246623201207737321e-04,-1.085090162856540896e-03,1.430990546941757202e-01
-1.357841743446683846e-01,-1.417802041842494698e-01,-2.826210259447387574e-01,-6.069356564145518204e-03,2.771253832232569315e-03,-1.868573537181274832e-03,1.444319933652877808e-01
-1.271339541724740285e-01,-1.518132058838896348e-01,-2.800119075600014940e-01,1.266175027826037941e-03,5.649416727917340106e-04,1.075916120872499188e-03,1.421867161989212036e-01
-1.539148222312417547e-01,-1.354920180880718195e-01,-2.462296069201290183e-01,-2.447786218383661929e-04,-4.311585398677615817e-03,1.955040099877063987e-03,1.030996218323707581e-01
-1.508821164227018286e-01,-1.350411984738311422e-01,-2.850451557593452478e-01,-3.385026770439916906e-03,1.911574605492603624e-03,-1.476968836630821857e-03,1.429258733987808228e-01
-1.570163603029628707e-01,-1.277226994328229115e-01,-2.827390920318192391e-01,-4.714747849070838738e-04,-2.365505533115010584e-05,1.063118866496315070e-03,1.426578462123870850e-01
-1.484747467075541449e-01,-1.304190070432986182e-01,-2.802240525273177463e-01,-3.401509421424637417e-03,2.889267113366599578e-03,-1.300356407446720368e-03,1.418715864419937134e-01
-1.318319209459054286e-01,-1.510372965466004191e-01,-2.834312020493517381e-01,-1.297585784342959563e-02,1.618553219786721814e-02,-9.348951015017850988e-03,1.483000665903091431e-01
-1.502311600776618794e-01,-1.568082375307396359e-01,-2.962269418847218172e-01,7.040044312213075131e-04,-1.283451506340449510e-03,-1.294467211315460239e-03,1.428609639406204224e-01
-1.213841746946772854e-01,-1.560046062286133406e-01,-2.778859955466806420e-01,-7.194604512274550313e-04,2.856272544234738850e-03,-4.662690384626233594e-06,1.424754709005355835e-01
-1.459952317210997108e-01,-1.297257414833662970e-01,-2.751382981210804268e-01,-5.005827731508510903e-03,1.362068931384771524e-03,-4.913715705487972651e-03,1.385528594255447388e-01
-1.358883694452500124e-01,-1.410540264011011236e-01,-2.809362688756413817e-01,-1.091092224034551951e-02,8.663818518780959377e-03,-4.734441033975264265e-03,1.447960138320922852e-01
-1.465279462554792966e-01,-1.474337876365399147e-01,-2.862791296590244117e-01,-1.055092960107787900e-02,6.683178746523705388e-03,-8.829695268705627445e-03,1.417972892522811890e-01
-1.439233253778735011e-01,-1.450427212393788634e-01,-2.895961357495124844e-01,1.826351777578166336e-04,-2.783576410208593230e-05,-2.568739772941365323e-04,1.451173871755599976e-01
-1.283625696690826601e-01,-1.610914260341911319e-01,-2.886390941407920296e-01,5.314849788924381731e-04,4.004070810659929140e-03,-6.282680421415497672e-04,1.468475610017776489e-01
-1.473685271972196842e-01,-1.461413010177017302e-01,-2.864220970251434850e-01,2.799870904738875708e-03,-3.518008870163090765e-04,-6.061104443112159479e-04,1.397606581449508667e-01
-1.457735636654146072e-01,-1.461019709000955513e-01,-2.961411373568596517e-01,9.698539416664410384e-03,-1.178700234366543941e-03,-4.484027399890536288e-03,1.513532549142837524e-01
-1.389903480913681211e-01,-1.427667654364370153e-01,-2.817463074830018899e-01,-5.896931624855455793e-03,6.111210929812976346e-04,-2.147954246395393171e-04,1.412798613309860229e-01
-1.449934724407460074e-01,-1.308807129749557374e-01,-2.410982374092824621e-01,-6.963989695235105887e-03,-1.697159259338334612e-03,2.091730995192808782e-03,1.046845614910125732e-01
-1.559658486080998940e-01,-1.541954116284970366e-01,-2.955013621840867910e-01,2.266892890059525600e-03,1.049626551416178678e-03,7.697957052811868440e-04,1.405020654201507568e-01
-1.511338252479393907e-01,-1.446479586676854001e-01,-2.952031590616682744e-01,7.676721967994626361e-03,-8.594319376191266726e-04,-3.285594268728850124e-03,1.481345742940902710e-01
-1.518268334634768346e-01,-1.528682463706853567e-01,-2.945252913462345079e-01,4.255520515820421582e-03,2.216582967524581755e-04,5.754827589700181709e-05,1.423720866441726685e-01
-1.311926381612160686e-01,-1.560067346702311286e-01,-2.851782078375396101e-01,-1.344095605491304893e-03,3.405725780203801810e-04,-7.640562714401676970e-04,1.432264000177383423e-01
-1.256071643668383586e-01,-1.526562162798493216e-01,-2.826907487027115473e-01,-2.409724930302562223e-03,-2.467578443724555148e-03,9.708411618983818102e-04,1.455900222063064575e-01
-1.530712395297126327e-01,-1.518693749605016241e-01,-3.123243270247342829e-01,1.616898084729640264e-02,-9.166380276601828261e-03,-2.635291637551389395e-03,1.631306260824203491e-01
-1.479820300915111742e-01,-1.410052269316389717e-01,-2.887907995635935476e-01,6.153178992497702546e-03,-2.438326482394277076e-03,-2.008868996640323246e-03,1.449196636676788330e-01
-1.537132604651325063e-01,-1.194313512016209888e-01,-2.947466101300680319e-01,-4.322039787753812444e-03,1.358781878543419966e-03,-3.612537139010370355e-03,1.612491160631179810e-01
-1.421799398283483673e-01,-1.527804688236787389e-01,-2.899613815270121187e-01,-1.420269545406376791e-03,4.616684289972017882e-04,6.553804891647382327e-04,1.428045630455017090e-01
-1.713765013497043910e-01,-1.533507034512452682e-01,-3.129376659576358355e-01,-8.150787139187965890e-04,-1.623211563086976840e-03,-1.975809485003274333e-03,1.514524817466735840e-01
-1.512740751478567069e-01,-1.257201617662539739e-01,-2.728342894111873695e-01,-2.848312321081564527e-03,-8.010022042549471430e-04,1.904725089160982758e-03,1.362841725349426270e-01
-1.712442419206574862e-01,-1.550448001915247509e-01,-3.144244038359689797e-01,1.638304350362318734e-03,4.249330026746316264e-04,-2.716335740725348523e-03,1.520300954580307007e-01
-1.643995125738263730e-01,-1.405637962495494275e-01,-2.996882258655998443e-01,-4.010359710282998666e-04,-1.124637320624397203e-03,1.767362203298993928e-03,1.486927270889282227e-01
-1.686197178217707648e-01,-1.537281708365467459e-01,-3.049770327766244682e-01,-2.015004781694354572e-03,5.225092555160532970e-04,-2.749598784531366753e-03,1.445037275552749634e-01
-1.463287333270886226e-01,-1.499747215179606519e-01,-2.895891019801904998e-01,-9.123506860168174946e-04,4.536410833023664179e-05,4.004742659824270029e-04,1.414831578731536865e-01
-1.592279274211786944e-01,-1.372728610685279849e-01,-2.929488288317816380e-01,-1.718375010162850880e-03,-2.877617338479350733e-03,3.076595530056302347e-03,1.461548954248428345e-01
-1.637090528674317591e-01,-1.724466154951482810e-01,-2.103271641098431455e-01,7.273644036031463303e-04,1.061197345462982188e-02,-2.818663464527179207e-03,4.696305468678474426e-02
-1.562546785411316475e-01,-1.702558117187362441e-01,-2.340088271763212657e-01,-3.980486870887380534e-03,2.907287622498789213e-03,-9.512453944783024959e-03,7.414474338293075562e-02
-1.423707890059839887e-01,-1.621366755284315009e-01,-2.917946336237565719e-01,-1.377210335986593821e-02,-1.243630289103863154e-02,6.141672762019300888e-03,1.446058005094528198e-01
-1.181055199521783144e-01,-1.483245816686772356e-01,-2.456636226960903779e-01,2.145143370930399640e-03,-1.946399307235660917e-02,-3.376961775700910127e-03,1.204746142029762268e-01
-1.515147059559966980e-01,-2.016725026830366030e-01,-2.852431587125364709e-01,-3.483121651110188382e-03,-4.831836009915627117e-02,-1.067408401247290598e-04,1.439861208200454712e-01
-1.379083545658305043e-01,-1.507079630681411597e-01,-2.881619196000512195e-01,1.773216070135841781e-03,1.319635309518499798e-03,-1.661335650959484453e-04,1.443312764167785645e-01
-1.233791709635869427e-01,-1.585790626230282052e-01,-2.460054087799796174e-01,-1.358994224278155813e-03,-2.076848686467855712e-02,-3.689017720413130790e-03,1.153262928128242493e-01
-1.452075102413887264e-01,-1.447949360279446318e-01,-2.879899759957138539e-01,-6.323190331678251775e-05,-9.424482068738803038e-05,2.204071708727504573e-04,1.429898440837860107e-01
-1.089472151444452336e-01,-1.333239506902877125e-01,-1.670186910290052951e-01,-1.522300391817902124e-02,-3.302174648504312832e-02,1.542841618991606586e-02,8.503860235214233398e-02
-1.436203015362910451e-01,-1.445711366375038720e-01,-2.864366142471924115e-01,-6.890868382862706896e-04,-1.338132072191831792e-04,-6.899118181937388640e-04,1.423534899950027466e-01
-1.242066980744722243e-01,-1.588835475027602639e-01,-2.731559971671725373e-01,-5.020495416962406261e-03,-1.145998042824916165e-02,1.207112060119622807e-03,1.367379426956176758e-01
-1.453896940356153578e-01,-1.696826357480025194e-01,-3.046590874797378001e-01,-1.109667672600318268e-02,-7.376668282608445613e-03,4.117877089941539281e-03,1.505698859691619873e-01
-1.547980439481660142e-01,-1.390462329762439109e-01,-2.835890624049140496e-01,7.546983041712025490e-03,2.668068957319145399e-03,4.728997117181786385e-03,1.382868587970733643e-01
-1.369527923810097692e-01,-1.446284649081176765e-01,-2.863515896266612959e-01,5.912160964874899234e-03,2.218873925160510813e-03,3.058666763887065397e-03,1.462185978889465332e-01
-1.557745783467246736e-01,-1.565693219956035831e-01,-1.698615864462098557e-01,-1.066389470228837040e-03,6.727291088063535240e-04,-4.059779441860767064e-03,1.555938739329576492e-02
-1.435817349927183684e-01,-1.492115503827575740e-01,-2.884124214910402939e-01,4.130874691824136698e-03,1.262390821965242568e-03,8.695813362428704823e-04,1.423042267560958862e-01
-1.520970145575534227e-01,-1.647335500908386208e-01,-3.072865417246327113e-01,6.024153680764833367e-03,-2.012487888538040757e-03,-1.923399103046235722e-03,1.497148424386978149e-01
-1.374166164761676523e-01,-1.211259843246525747e-01,-2.062375799156014600e-01,1.043292974804879703e-02,6.872135810837776831e-03,1.204524211428024266e-02,8.382318913936614990e-02
-1.475157601733756985e-01,-1.466312473011562867e-01,-2.903849703919748060e-01,1.290456064355330898e-03,-6.338035478933588861e-04,8.684239388984678462e-05,1.433352231979370117e-01
-1.468376844709506912e-01,-1.496979026913151378e-01,-2.726126577208481949e-01,1.072773160976037143e-02,1.065242099278616156e-02,6.991873315459994943e-03,1.276718974113464355e-01
-1.436477551473527015e-01,-1.593605629119775879e-01,-2.684012049929384580e-01,-8.389392000646483591e-03,-1.959094748862737646e-03,1.230145764907771217e-03,1.186477467417716980e-01
-1.496577085882876967e-01,-1.299279457414375116e-01,-2.797266573410302493e-01,5.932935464948785494e-03,1.587604267353875205e-03,3.115956268347463195e-03,1.414768993854522705e-01
-1.326417334670592085e-01,-1.508247326378168440e-01,-2.594040597220712563e-01,1.219040026467927383e-02,9.521813130086528854e-03,1.112148542683637741e-02,1.232203915715217590e-01
-1.408542477095727774e-01,-1.541292055839993957e-01,-2.895837271685247072e-01,4.630337120839236181e-03,3.117411752994036968e-03,1.238078041606128306e-05,1.428837925195693970e-01
-1.424734529199800370e-01,-1.385761542945286307e-01,-2.848618666602159566e-01,2.737553867078467828e-03,2.470152869436923371e-04,9.900146986139858867e-04,1.444651633501052856e-01
-1.616029602631706141e-01,-1.451911857015913132e-01,-3.227686789608199547e-01,1.275966830333168968e-02,-2.053017695202935880e-03,-1.836369074261972028e-03,1.714641004800796509e-01
-1.321336545853907252e-01,-1.546070407249588163e-01,-2.883248261533328805e-01,-1.520734142484486380e-03,2.304386680424524731e-03,3.914596423078154763e-04,1.463349610567092896e-01
-1.509632972396747208e-01,-1.501935237530014622e-01,-2.872756518139022996e-01,1.313266475409305672e-03,6.164127480125991467e-05,7.473786454283120456e-05,1.367179006338119507e-01
-1.706472201158714397e-01,-1.615639495202336462e-01,-3.257443209668064998e-01,1.718027953935737789e-02,-2.926823782521628496e-03,-4.132067144145800883e-03,1.628152728080749512e-01
-1.488868681742744338e-01,-1.334348153182672303e-01,-2.811292706762267279e-01,4.625733792885836776e-03,-2.615194905696826937e-03,-2.633277750245268094e-03,1.409813761711120605e-01
-1.396687731064881199e-01,-1.544743255109268798e-01,-2.904718608678647507e-01,6.054468361748585430e-03,4.546739066071879901e-03,-1.801323880159472288e-03,1.446021199226379395e-01
-1.581235539695338421e-01,-1.436965602169755218e-01,-2.926401566716412828e-01,7.287440943436254530e-03,-5.487261748675986229e-04,-5.540450726580790908e-03,1.431636810302734375e-01
-1.377404001722508653e-01,-1.325378939739590423e-01,-2.840460050402922043e-01,1.646702681695132869e-02,-7.323654375746297546e-03,-9.027102892360043887e-03,1.530111581087112427e-01
-1.635349534456985721e-01,-1.608510020134297502e-01,-3.035382173071360379e-01,2.375378197356544166e-02,-1.776000367603878041e-02,-2.431271888581490112e-02,1.561927795410156250e-01
-1.414890787895276558e-01,-1.419662779121826923e-01,-2.856771972066994847e-01,-3.515052206451153329e-03,-1.370133070921839306e-03,1.784823050263467051e-03,1.441314965486526489e-01
-1.308856516298403105e-01,-1.577877281362227435e-01,-2.897713565931591129e-01,1.003205459172558552e-03,4.354903004470485860e-03,1.972501738045960649e-04,1.474925875663757324e-01
-1.594597111052460658e-01,-1.305540526278697600e-01,-2.728094923615287937e-01,-5.317351998442823753e-03,1.080234884981906996e-03,-8.952863491881641461e-03,1.314874291419982910e-01
-1.312314454898713678e-01,-1.420387205455067581e-01,-2.780991448848917913e-01,-5.174003760358865216e-03,-3.575153933527766992e-03,1.854918620503236571e-03,1.422274857759475708e-01
-1.464308747413179401e-01,-1.495290579813247644e-01,-2.883394565790369235e-01,-6.302200326369833058e-04,1.891138568503104888e-04,-1.150182712127070596e-05,1.403897553682327271e-01
-1.374860985603992003e-01,-1.516144406529797428e-01,-2.916245605254074169e-01,-7.766715680617606969e-03,-8.122903736231104621e-03,-7.913304611307095187e-05,1.488606184720993042e-01
-1.424847848887251800e-01,-1.488105134044947764e-01,-2.867581288496867664e-01,-2.228594176631419101e-03,-2.795612881371844702e-04,-3.120481396565638653e-04,1.412713825702667236e-01
-1.054356776521613720e-01,-1.425114266973764865e-01,-2.433174092485789197e-01,-9.184725176215918080e-03,-3.682807942366623372e-02,8.972587865774844795e-03,1.408454328775405884e-01
-1.588652967119366655e-01,-1.524461360544030752e-01,-1.882084402469349771e-01,4.336618631556844565e-03,5.145641461774656984e-03,8.539770003643937929e-03,3.801603242754936218e-02
-1.449821506097502544e-01,-1.471907829577225602e-01,-2.880921315824598317e-01,-1.343305051466065717e-03,2.088206381352981260e-05,-1.994743618186697735e-04,1.420380324125289917e-01
-1.861817871567011951e-01,-2.227750237019912594e-01,-2.865499167661308966e-01,2.017950744760106663e-02,-1.064532049937079589e-01,-3.828879103821365704e-02,2.176157534122467041e-01
-1.429896145192160462e-01,-1.729993920778842842e-01,-3.063214201180514684e-01,5.147155839015515530e-03,6.080381287668199962e-04,2.764964773896121195e-03,1.509299129247665405e-01
-1.610461799265159033e-01,-1.564008891412169144e-01,-2.071467688804058682e-01,7.821061991151316865e-04,1.983473042425893908e-05,9.363862226233308703e-03,5.124329775571823120e-02
-1.619194990078514640e-01,-1.631341815823448560e-01,-2.085426100900921453e-01,1.967521287324400670e-03,6.680913939672922935e-03,1.964761235029325193e-03,4.770383238792419434e-02
-1.558781323366361660e-01,-1.625518468545981143e-01,-1.883092412533438342e-01,-1.969113026925546194e-03,3.229379818738790518e-04,1.493549577327199767e-03,2.997526526451110840e-02
-1.653738437960241281e-01,-1.663693205197664116e-01,-1.879590268096736627e-01,3.150787900626748905e-04,3.346214612776018428e-03,8.384890868803498640e-03,2.708148583769798279e-02
-1.568768998606549503e-01,-1.554452781218739754e-01,-1.686946418919996471e-01,-7.764471694523099191e-04,4.072496188298703988e-03,1.571340579611540684e-03,1.475122757256031036e-02
-1.447774832399089662e-01,-1.389101493776276064e-01,-2.857255256129901388e-01,-5.001521383722060295e-03,1.506281135652109493e-03,-1.020542982725500519e-03,1.442662179470062256e-01
-1.451767419263231829e-01,-1.573555115851766606e-01,-2.650468371074200524e-01,-8.084097746244653035e-03,2.485151135780085639e-03,-6.923465222095852951e-04,1.152098774909973145e-01
-1.499652429934755782e-01,-1.474630357778524137e-01,-2.896725954214841026e-01,8.209492771118660770e-04,-3.772545279420583329e-04,-4.876273608637841385e-04,1.409863233566284180e-01
-7.573818910588259179e-02,-2.068766667780888580e-01,-3.634655920667947404e-01,2.596404502920117083e-02,-4.908692270536314795e-03,-1.204094756341053153e-02,2.545228004455566406e-01
-1.635164898664586697e-01,-1.582675698884435933e-01,-2.086039643633236518e-01,3.466124523778116046e-03,-5.131613644841097333e-03,-1.907097853782028021e-02,5.918818339705467224e-02
-1.948374122183056389e-01,-1.643296279822285544e-01,-3.629072363471400053e-01,9.966568411000279251e-03,7.145047130249515023e-03,3.259146822592372782e-03,1.865171492099761963e-01
-1.580734441080500763e-01,-1.396084009456318165e-01,-2.929713770367563530e-01,-9.871864362982658847e-04,-4.978294001429469685e-04,7.087614659804061974e-04,1.450326889753341675e-01
-1.502477486786151228e-01,-1.494215331552524451e-01,-2.731170373445257482e-01,1.013177735483267172e-02,-6.425896966355948772e-03,-9.232256786611194033e-03,1.260420531034469604e-01
-1.584726218017364074e-01,-1.506363230373310713e-01,-2.603861866040207418e-01,7.485777022598851492e-03,-8.097926172871828046e-03,-1.176261830008070233e-02,1.096646040678024292e-01
-1.377926275826688030e-01,-1.060444240713215858e-01,-1.976211866541721374e-01,-4.260871275002625982e-03,3.683872412704217083e-03,-3.914889295494239363e-02,1.057352349162101746e-01
-1.602949925717115920e-01,-1.333428411295245475e-01,-2.918737026619195318e-01,5.460539175172519216e-03,-2.234569054084119613e-03,-1.046633239374838986e-02,1.483872234821319580e-01
-1.399974696713940370e-01,-9.577310556646269346e-02,-2.324751290677851412e-01,-3.639226527345015057e-03,1.526270898812765895e-03,-3.198240345241666616e-02,1.330902725458145142e-01
-1.353302970617233925e-01,-1.407302773308881094e-01,-2.849116890529381774e-01,2.792479884223489188e-03,5.985124076658833014e-04,2.212647970230749407e-04,1.470395624637603760e-01
-1.675184959757192449e-01,-1.330353631153757266e-01,-2.778052952305875567e-01,1.910309227789585597e-03,-5.350150886650621761e-04,3.152204658351805827e-03,1.311370134353637695e-01
-1.524622646588852937e-01,-1.354082525033593609e-01,-2.857385539523048523e-01,4.213079074976372983e-03,4.861354316115861049e-04,2.095104246634934241e-03,1.428055763244628906e-01
-1.224151220179318239e-01,-1.108390610296135503e-01,-2.355169166609563935e-01,1.630529778616539305e-02,-2.332146713804861965e-02,-2.227901230672228033e-02,1.347353607416152954e-01
-1.304588199497321854e-01,-1.452353364676115255e-01,-2.203672866242653294e-01,-6.275222485316961536e-03,-1.906442360181147266e-02,7.610675617756707673e-03,9.140899032354354858e-02
-1.719856458094761731e-01,-1.709166094660333757e-01,-2.332742557669915395e-01,8.646715259893111502e-03,-1.603694292314612746e-02,-1.855604422761178429e-02,7.649695873260498047e-02
-1.582472167087825010e-01,-1.289260864245375671e-01,-2.832251443591164430e-01,7.301976674755307137e-04,6.793814827902420897e-04,7.215097863070859098e-04,1.419445425271987915e-01
-1.011497938327753088e-01,-1.351398215473908204e-01,-1.900483192239732499e-01,9.898931112865399021e-03,4.208760789281452280e-02,9.681500034771417518e-03,1.092056185007095337e-01
-1.414744410286477294e-01,-1.506410050161489933e-01,-2.754100798902671676e-01,8.216977469640987866e-03,1.456226858997441672e-03,5.165641942000954133e-04,1.304023414850234985e-01
-1.441708098063140264e-01,-1.663027500112717327e-01,-2.870430602797225950e-01,1.413365951380275015e-02,2.419582172268524775e-02,1.251662368950261055e-02,1.434080004692077637e-01
-1.440541453321709797e-01,-1.710490608354401365e-01,-3.222448357456974555e-01,1.564879773537266802e-02,3.422050150520904860e-02,1.626274669940028922e-02,1.808635294437408447e-01
-1.430118473486443054e-01,-1.434282924309447649e-01,-2.305302159482258417e-01,1.174541197703868854e-02,3.106744660320664639e-02,1.946043761618045792e-02,1.098578199744224548e-01
-1.583083251532218239e-01,-1.305562858037631058e-01,-2.755411355994724643e-01,-3.659979495302272557e-03,-4.683242602720129777e-05,1.228069809467958410e-03,1.334611326456069946e-01
-1.304453879600414590e-01,-1.481473692233243322e-01,-2.799941905568869571e-01,5.260976964001159821e-03,5.489869342648648690e-03,1.445752065879737881e-03,1.421640366315841675e-01
-1.409312077114774353e-01,-1.453314647490347722e-01,-2.892140225871417947e-01,8.834347689923412661e-04,1.428912463019744463e-04,1.760475017155015316e-05,1.461406052112579346e-01
-1.390247535622798347e-01,-1.549589315325308192e-01,-2.856729463034944905e-01,7.804421780399814837e-03,5.251443200470517526e-03,1.771323572528354581e-03,1.403486579656600952e-01
-1.498443606932540195e-01,-1.503193453292116788e-01,-2.867693778777437030e-01,1.416635568616348524e-03,-5.419568823097218246e-04,-4.613566524875119430e-04,1.367157250642776489e-01
-1.244094948053634242e-01,-1.589188017697217292e-01,-2.841011166229671092e-01,4.971001495239222093e-04,2.743914534437785768e-03,-4.436913921805582832e-04,1.456206589937210083e-01
-1.641179941281228905e-01,-1.738238176280698932e-01,-3.304362018099807896e-01,1.739661807947024200e-02,-1.058256153477094138e-03,1.581370970337222159e-03,1.645007133483886719e-01
-1.269231107328356034e-01,-1.535124815950897614e-01,-2.839725481960301279e-01,-8.057286943882688030e-04,1.888038661164596465e-03,-3.618068302552419424e-04,1.456321030855178833e-01
-1.481685605193446276e-01,-1.450544521213122939e-01,-2.922704043585753197e-01,6.110913888802005020e-03,1.139560954662689578e-03,2.562503266845914986e-03,1.461485922336578369e-01
-1.520092776836965420e-01,-1.321350384087362495e-01,-3.075331170869488040e-01,1.483055658369328809e-02,1.202792417928460990e-03,6.412405118345496091e-03,1.687041819095611572e-01
-1.244625822625660128e-01,-1.581938263392432820e-01,-2.812681633057183550e-01,-7.881451427343763713e-04,1.924435137700814024e-03,-6.417472491311059023e-05,1.430018395185470581e-01
-1.484903029446508482e-01,-1.461011244117052799e-01,-2.875497330857816891e-01,1.196771250019562898e-03,-6.373126378016798644e-04,-4.015741631244808024e-04,1.402906626462936401e-01
-1.598221153098336733e-01,-1.451752711022559483e-01,-3.021544365479833516e-01,7.708597221179057032e-03,-7.323150453213032266e-04,4.391359251219332724e-03,1.509816795587539673e-01
-1.681417567603468166e-01,-1.476922431717974937e-01,-3.384116333731839732e-01,1.490714183328557298e-02,3.096384093500269036e-04,6.112198130775518129e-03,1.834965497255325317e-01
-1.496507477488763505e-01,-1.346179854247934182e-01,-2.861404332314790300e-01,-1.083909870720289794e-03,7.245100733802785657e-04,-1.481068210449592963e-04,1.446112096309661865e-01
-1.547211348438664313e-01,-1.441826193385086219e-01,-2.940326550011228002e-01,7.016960036026824790e-03,-5.543456071482892513e-04,1.814575897728140002e-03,1.454146057367324829e-01
-1.768316936389258132e-01,-1.465933810150065186e-01,-3.295002825824999704e-01,1.363595289259547649e-02,1.100811546928640548e-02,3.156358260822760692e-02,1.809658110141754150e-01
-1.747590115409960732e-01,-1.332362844559075721e-01,-2.941457292547658420e-01,1.078934443198179861e-02,1.482333598475432364e-03,3.196075225539073139e-02,1.560605019330978394e-01
-1.552037667687468092e-01,-1.122786388659668677e-01,-2.672477128027088145e-01,4.634725463049320371e-03,5.180564958428410770e-03,1.865580279596054658e-02,1.428110152482986450e-01
-1.394274607485034012e-01,-1.391986515104559063e-01,-2.781313533596300180e-01,1.373987966647723970e-02,1.034946504610202017e-02,8.227066473146757777e-03,1.426930278539657593e-01
-1.620653419053573185e-01,-1.392805434181032254e-01,-2.930976652117414094e-01,1.012953456903672132e-02,5.671373862440454508e-03,7.869236098442620314e-03,1.458226740360260010e-01
-1.428582508730589784e-01,-1.192792100326344196e-01,-2.483144582348903173e-01,1.833701004505879431e-02,1.482001017792111339e-02,2.559830133966466137e-02,1.334053725004196167e-01
-1.631023203121033105e-01,-1.338768199550161297e-01,-2.804036396362939998e-01,2.118937122199525402e-02,2.126757008686556288e-02,1.864803057741244025e-02,1.476111859083175659e-01
-1.443616834856991382e-01,-1.450532650446812177e-01,-2.897097942948873017e-01,-6.247851729383969901e-04,-6.121451133831934334e-05,-3.388244692214000637e-04,1.450088173151016235e-01
-1.382920466070289289e-01,-1.554112431075403422e-01,-2.902935737223814039e-01,3.157686845008453660e-03,6.791918441743056501e-04,-2.347262667260033872e-04,1.443151086568832397e-01
-1.521453091548303771e-01,-1.411045257681212695e-01,-2.860099540293138398e-01,6.309846220954247117e-03,1.205040731277922869e-03,2.462624925327666116e-03,1.402198523283004761e-01
-1.533182691213484661e-01,-1.623272134267137179e-01,-2.940564554287854460e-01,2.275486643760670294e-02,1.301730315457657466e-02,3.932728221821266829e-02,1.591292023658752441e-01
-1.279582366955689388e-01,-1.531136797627100088e-01,-2.801778031308326256e-01,-1.176574135472482517e-03,-2.078708843230106529e-04,-8.266810961170877677e-05,1.413461863994598389e-01
-1.391161073658899461e-01,-1.415382206109837004e-01,-2.797833199649022440e-01,2.184930953281315896e-02,3.173629994488148809e-02,2.094261495315312416e-02,1.588142067193984985e-01
-1.380393399378603281e-01,-1.442568502686331633e-01,-2.858053252746831641e-01,-1.434371907152162239e-03,1.559427343414328824e-04,2.105302069512514699e-04,1.447794437408447266e-01
-1.649985478770621683e-01,-1.606122844137538308e-01,-2.389046679400895212e-01,1.042071850067247292e-02,1.095414510679695690e-02,2.689313974219159631e-02,9.306450933218002319e-02
-1.388562576997231512e-01,-1.722154930827672903e-01,-3.197820066860687094e-01,1.429213320008615104e-02,3.815962679033003870e-03,3.089419048354047695e-03,1.688091605901718140e-01
-2.230069991917828232e-01,-1.744250350333097499e-01,-3.440028859639138181e-01,-1.955622210526489560e-02,3.930028435181969620e-02,-1.190130226615911252e-01,2.667425870895385742e-01
-1.698676803128532087e-01,-1.462929468803524924e-01,-2.483493096641392339e-01,9.333853725041300897e-03,3.702310723713075034e-03,1.736430133159451439e-02,9.885524213314056396e-02
-1.178033748968535799e-01,-1.374715237370949805e-01,-2.353199878159547842e-01,1.667114680623636713e-02,3.637604659439478555e-02,2.259858256392304268e-02,1.349858343601226807e-01
-1.563988247597610792e-01,-1.265281604016683104e-01,-2.844359062145557226e-01,-1.760274647138182057e-03,7.296446206762104017e-04,-1.710660175935306169e-03,1.453615278005599976e-01
-1.635761600804042648e-01,-1.451995971884257886e-01,-2.957600131323850912e-01,7.480048063503764739e-04,-8.040620278359512365e-04,-5.799233202344387765e-04,1.422813385725021362e-01
-1.376540465405836078e-01,-1.662518775504066570e-01,-2.923545498377284058e-01,1.241987760754007138e-02,1.638359280657167641e-02,7.793124234084173284e-03,1.475676447153091431e-01
-1.413455546711852862e-01,-1.797995664388941650e-01,-3.319947874738386484e-01,-2.964929189049924415e-03,3.957885031179704180e-03,-1.003817309158044164e-03,1.748456507921218872e-01
-1.628135244700094630e-01,-1.502428600596215080e-01,-3.031428660584319923e-01,-6.419816768175697595e-03,-4.696868201409922471e-03,5.044308596590163290e-04,1.476650536060333252e-01
-1.425091515400999653e-01,-1.637275840435065133e-01,-3.125348570485897981e-01,-1.059983051254351737e-02,-3.666182227401379012e-03,2.905492786299570130e-03,1.617219895124435425e-01
-1.521336135089292052e-01,-1.849109383449934751e-01,-3.260842056396831556e-01,-9.427135018610428852e-03,-3.281727257786669523e-03,-1.724580702296008158e-04,1.610296219587326050e-01
-1.329022250245715797e-01,-1.504521998886729217e-01,-2.830695873715309840e-01,6.048648397536133571e-03,7.877832049435791809e-03,-5.888708365752328257e-04,1.432472765445709229e-01
-1.312403777276007211e-01,-1.576818048263377570e-01,-2.933370944487488918e-01,-6.340986473091846792e-03,-3.477664707104036450e-03,5.144838389022870877e-03,1.514091789722442627e-01
-1.440255676090824999e-01,-1.616112739487767236e-01,-2.964269963073221104e-01,-3.446935530066046107e-03,2.626989205196678372e-03,4.627660490436348020e-04,1.446110457181930542e-01
-1.816596964973432315e-01,-1.403300016042479115e-01,-3.081917836686166590e-01,-6.447430330961972759e-03,-9.635386595613106540e-05,-5.489958221223624132e-03,1.521946191787719727e-01
-1.408269965936778945e-01,-1.550762072198107466e-01,-2.903599017853806252e-01,5.724565215290469515e-03,4.646184370075257149e-03,5.780877682364976610e-04,1.435147374868392944e-01
-1.505393041913532515e-01,-1.374047118927573252e-01,-2.875849592145831579e-01,-1.527728696946515329e-02,5.129289042561714987e-03,-1.382193263255859783e-02,1.486819386482238770e-01
-1.540784649417915875e-01,-1.421968118914170853e-01,-2.955000741989362023e-01,-1.216118056338913976e-02,4.364783901942955770e-03,-5.023847132536712196e-03,1.496600210666656494e-01
-1.454413542647350899e-01,-1.190804848564398638e-01,-2.856713519211314667e-01,-1.630867910115529548e-02,2.807484729283987648e-03,-7.284244336284003730e-03,1.582298278808593750e-01
-1.434582485152731957e-01,-1.383901907126321162e-01,-2.907031296204860560e-01,-1.183921700608942321e-02,5.452300121880289049e-03,-4.187638519375176151e-03,1.517078727483749390e-01
-1.419873721073119932e-01,-1.542464386383538000e-01,-2.891495104780960057e-01,-1.409572180444884984e-02,8.788524065345150113e-03,-8.118487471425076679e-03,1.450117975473403931e-01
-1.563187802999227161e-01,-1.311206948542631701e-01,-2.874408020479348735e-01,-1.413514811401749872e-03,1.557614094709188705e-04,-1.527884138497117173e-03,1.454132795333862305e-01
-1.455971150003249059e-01,-1.488388511047695484e-01,-2.883543958902118343e-01,-7.018758601682487195e-04,1.923659837537477395e-04,-3.032933012232430156e-04,1.411709338426589966e-01
-1.617093953779712712e-01,-1.490076335384525608e-01,-2.402970598227620602e-01,4.466058426610569967e-03,-2.888986789944938526e-03,-6.748106934324823482e-03,8.693125844001770020e-02
-1.310197104779044497e-01,-1.236408849867507431e-01,-2.380117245847980234e-01,-1.307502425766073235e-02,1.310179249835812659e-02,-1.032083161225600537e-02,1.167844682931900024e-01
-1.448276724096059231e-01,-1.645486989674731781e-01,-2.985263463706341880e-01,-5.415489383062075876e-03,2.377613713382399803e-03,6.733769728692264207e-04,1.452150344848632812e-01
-1.332000445090995577e-01,-1.538158739533733166e-01,-2.850960366105251831e-01,-4.435526068555606903e-03,8.861705458836769463e-04,-1.070758359656363932e-03,1.429362148046493530e-01
-1.514065954923284330e-01,-1.485207534995773015e-01,-2.877815095896845698e-01,-1.014986073998024561e-03,-6.244204107800822466e-04,4.044178852480905580e-04,1.378577202558517456e-01
-1.497750496425680478e-01,-1.509527042497424143e-01,-2.880028021503041047e-01,-1.955996694101426719e-03,-3.165452300556427208e-04,7.072883905436993038e-04,1.376909315586090088e-01
-1.474530337071363606e-01,-1.470744513747656856e-01,-2.752950076893444509e-01,6.851945379140951184e-03,8.394987766375450102e-04,1.455723753216720028e-03,1.286135017871856689e-01
-1.366954592112032407e-01,-1.541863454804204281e-01,-2.961371285653056074e-01,-1.959362439648547338e-02,1.770634896843694545e-02,-1.343763141189173969e-02,1.599149256944656372e-01
-1.271870911251025971e-01,-1.464519252212589939e-01,-2.845026736553631364e-01,-2.062254230055768703e-02,1.240112892931821871e-02,-9.105123476679183661e-03,1.551599502563476562e-01
-1.489525306900286727e-01,-1.576412960780239902e-01,-2.952969910054393243e-01,-7.154224167562293728e-03,1.479903644321941365e-03,-2.029454580776813774e-03,1.428044736385345459e-01
-1.272926560885855873e-01,-1.584215471119877205e-01,-2.826990960365948768e-01,7.028572560092020472e-05,5.375895803552887750e-04,4.213181733529601541e-05,1.424198895692825317e-01
-1.722031916017578157e-01,-1.558067857207593443e-01,-3.278203263156775904e-01,-2.801227708693241128e-02,2.228194611580144868e-02,-2.540396867760540828e-02,1.811538040637969971e-01
-1.436325264597142493e-01,-1.664189248596913973e-01,-2.876198653962303009e-01,-8.667912207857078610e-03,6.690223368049639727e-03,-3.478070757412818435e-03,1.355233788490295410e-01
-1.465520718062594541e-01,-1.507154243416877759e-01,-2.912496482154289801e-01,3.833807874034929342e-03,-1.223098680623548777e-03,-3.657131318945050155e-04,1.428330391645431519e-01
-1.225218529189670419e-01,-1.552046756320286103e-01,-2.546736564291201543e-01,-7.548885259242633407e-03,1.386300224275326988e-02,-2.993070300866749935e-03,1.224236637353897095e-01
-1.327285296226068667e-01,-1.618904871691994041e-01,-2.916651676292184581e-01,5.650863613161255820e-04,4.429210149207758393e-03,-6.368705815496931598e-04,1.467562615871429443e-01
-1.280053149582399408e-01,-1.469288585618916676e-01,-2.747153279634140799e-01,-8.082180805284971958e-03,6.559434911678296495e-03,-5.302332336022752036e-03,1.396962553262710571e-01
-1.525981710274739167e-01,-1.449154168376133311e-01,-3.025995601736391483e-01,-1.264471600751676875e-02,3.613211233183436823e-03,-6.427412229051706824e-03,1.560597121715545654e-01
-1.611685014627324275e-01,-1.506860692523394607e-01,-3.117281070213949734e-01,-1.289084535086868627e-02,6.507427504292740902e-03,-6.132703282187664494e-03,1.584130674600601196e-01
-1.360267871935000317e-01,-1.590614074213688722e-01,-2.973645298386400349e-01,-8.579288558077057675e-03,8.435561674539262395e-03,-2.447002501357708158e-03,1.526314467191696167e-01
-1.739419120119633511e-01,-1.599476010270799164e-01,-3.406157833187276607e-01,-2.047499703177157668e-02,3.529342543942223819e-04,3.802277978653032919e-03,1.777918189764022827e-01
-1.345229411853341162e-01,-1.500400217888310794e-01,-2.863643455046241404e-01,-1.303978791061666817e-03,-1.235844733952085191e-04,-5.966112147671356458e-04,1.447296440601348877e-01
-1.473117955816784785e-01,-1.291475681817776944e-01,-2.923992252083870147e-01,-1.630574910752839030e-02,-1.144268880490132909e-02,9.171363449692241862e-03,1.595571488142013550e-01
-1.692815620320834991e-01,-1.506473344121351809e-01,-3.378593329106766574e-01,-1.502703137075993636e-02,7.967594634169956067e-04,9.458490988467827725e-04,1.805243492126464844e-01
-1.399760797725947969e-01,-1.508646898192369523e-01,-2.917607250116409645e-01,-2.104112853871718813e-02,-1.531961294310572007e-02,1.780010106420442176e-02,1.564838886260986328e-01
-1.543643061782953574e-01,-1.184332792817769792e-01,-2.383293279663152853e-01,6.066107621145066424e-04,-1.699393978294787516e-04,1.537019987758218680e-02,1.098546013236045837e-01
-1.475847352478592278e-01,-1.463824582729417734e-01,-2.759681520306761504e-01,-2.223138146037971843e-02,-3.255582279283230490e-02,3.791460602296369692e-02,1.600406169891357422e-01
-1.577984274034057166e-01,-1.437606125695438108e-01,-2.961817379530014005e-01,-6.798926864614369958e-03,-1.295394899346171162e-03,3.794355367765935450e-03,1.465486288070678711e-01
-1.459762546196485544e-01,-1.464049862114520928e-01,-2.873587786938188171e-01,-2.441628353581781416e-03,-5.789101009523191753e-04,-8.464018670559044400e-05,1.412356197834014893e-01
-2.067421864158116018e-01,-1.325835896600618402e-01,-3.666832044398596335e-01,-3.544292634475910281e-02,-5.065205423963280856e-02,3.814750135274572879e-02,2.424310594797134399e-01
-1.245001727011951081e-01,-1.038274746863122877e-01,-2.221721508755751806e-01,-2.990752795984284382e-02,-4.933616479580977404e-02,7.603098092621593529e-02,1.982775926589965820e-01
-1.475038860834653465e-01,-1.039602384154107717e-01,-2.634185647680562514e-01,-2.978168068101210569e-02,-2.898914942105789566e-02,4.629967444169405533e-02,1.788646131753921509e-01
-1.911205257502617272e-01,-1.406410305124475291e-01,-3.366053705925872719e-01,-4.294136870723350152e-02,2.199697732825394141e-03,4.502162765890681262e-02,2.066041231155395508e-01
-1.889065368386352861e-01,-1.484282401820648523e-01,-3.275298635465125896e-01,-3.116137829710799792e-02,-7.285435584655833297e-02,7.108543755353162463e-02,2.458900958299636841e-01
-1.218417365389737883e-01,-1.290218709431796007e-01,-1.556736135917106689e-01,-1.277994371402099705e-02,-3.940639055007810754e-02,1.453852900806478811e-02,8.207259327173233032e-02
-1.375567858304520275e-01,-1.477192610843254816e-01,-2.869756480274016086e-01,-2.293751679263742165e-03,5.028451427088231939e-04,-4.712803385470806425e-04,1.446651816368103027e-01
-1.427083344519751995e-01,-1.425463693388857589e-01,-2.892014490350579559e-01,-3.393986950096846561e-04,-7.811003861714200494e-05,-3.341316189343604046e-04,1.465765535831451416e-01
-1.602702766155442993e-01,-1.553334522663865069e-01,-2.260037163154106632e-01,-8.953696676754271250e-03,-1.322499510876895545e-02,3.033218399342852215e-02,9.052681177854537964e-02
-1.470628133378101277e-01,-1.697083800754802807e-01,-3.044135215559203855e-01,6.817298914503264196e-03,-4.352266483912005553e-03,-2.444360762209770691e-04,1.480040699243545532e-01
-1.683744533384080033e-01,-1.755157711600957571e-01,-2.246382590068365381e-01,-5.527853510171462474e-03,-2.264069745978136705e-02,1.069998380779951797e-02,6.919364631175994873e-02
-1.414564460266152790e-01,-1.413576147367219815e-01,-2.877875245839370821e-01,-2.184896480485116782e-04,-1.608362790792053864e-04,-4.518212000326549870e-05,1.463812887668609619e-01
-1.432710590623466340e-01,-1.455401516353797553e-01,-2.887076985789102657e-01,-1.036724990632517792e-03,1.755654086351827428e-04,-2.954783887835414993e-04,1.443278640508651733e-01
-1.588362090401749804e-01,-1.639992393944563198e-01,-2.039440985245885851e-01,-5.310945578602302430e-03,-1.548374770728394058e-02,1.497023317296822947e-02,5.748622864484786987e-02
-1.442687174283904250e-01,-1.705211833777632857e-01,-2.336128255572439694e-01,-2.468997102413851390e-03,-1.831275412783324452e-02,6.339817597131662021e-03,8.643493056297302246e-02
-1.453987500589187798e-01,-1.672506716964065610e-01,-2.627582402237242376e-01,1.500793325289092586e-03,-1.856784100101000964e-02,-1.722716091040047900e-03,1.128546893596649170e-01
-1.782829920016364977e-01,-1.984233595513009152e-01,-2.313890152867189021e-01,-1.896562052127690693e-03,-5.206824775010502476e-02,5.636906939046831301e-03,1.019594594836235046e-01
-1.488409939760038658e-01,-1.505675718224202819e-01,-2.885747535202518033e-01,6.393045027688496005e-04,3.952598584455345785e-05,2.030408429628376154e-04,1.388833969831466675e-01
-1.429780535852065437e-01,-1.481572293428711773e-01,-2.916579461277263308e-01,8.556115324952677167e-03,-1.448385320348673103e-03,-3.379210120001661932e-03,1.470464766025543213e-01
-1.511010160694377935e-01,-1.519613619148228734e-01,-2.961164641343436710e-01,8.821466620689395743e-03,-1.968162038264033298e-03,-3.207452137534516287e-03,1.455383002758026123e-01
-1.664919827529887653e-01,-1.675728659545232535e-01,-3.358099062616002328e-01,2.608354633491772115e-02,-3.028936215460040909e-02,-3.389409400175391607e-02,1.916416883468627930e-01
-1.482100801884748131e-01,-1.471741319050081931e-01,-2.868815200082716066e-01,1.667073079086603621e-04,2.272421629598299602e-04,2.682247771842670957e-04,1.391939371824264526e-01
-1.627003804817362398e-01,-1.388631016531754747e-01,-2.745092405282274495e-01,1.318625301167591565e-02,-6.637231275640924529e-03,-1.322290267514508559e-02,1.300499141216278076e-01
-1.505610397117376764e-01,-1.515339978172397795e-01,-2.898460702799531274e-01,5.550071560874083731e-05,2.128972675385237563e-04,-7.701739564435512849e-04,1.388080418109893799e-01
-2.468705994803097603e-01,-2.048237829679528110e-01,-4.073141623356132945e-01,-4.688719011270366804e-02,6.327758325727465827e-02,-1.014985941588442964e-01,2.894296050071716309e-01
-1.507802602112327528e-01,-1.508732946802137653e-01,-2.875244248498528554e-01,-2.071614817335634717e-04,2.318851233948760566e-04,9.975144871337273355e-05,1.366988420486450195e-01
-1.406571688774005402e-01,-1.433596123566285852e-01,-2.863691139177825251e-01,-4.762003085949610172e-03,4.650358329098877976e-04,-2.497685307774807285e-05,1.446173489093780518e-01
-1.275208220583699537e-01,-1.523822767956219959e-01,-2.844510642401657519e-01,5.535973039404407277e-03,-8.613370472152191010e-03,-1.088926667150024721e-03,1.471793055534362793e-01
-1.515351813735658082e-01,-1.517388071075665146e-01,-2.896585359292709883e-01,4.869918964908545249e-07,-3.606362713231952557e-04,-2.841527245920808615e-04,1.380239427089691162e-01
-1.308636275325019138e-01,-1.545017421079890318e-01,-2.835713673914639354e-01,9.549144415084174359e-03,-9.815165254315732363e-03,-3.309415036165451289e-03,1.444441676139831543e-01
-1.430904035509148187e-01,-1.418754110951870318e-01,-2.887987829668122175e-01,-3.849958845319138693e-04,-2.213467665254771821e-06,-1.581039347623593009e-04,1.463214308023452759e-01
-1.137445960574351433e-01,-1.496226418017248261e-01,-2.539868620646260067e-01,1.175439876239717067e-02,-2.969464780498038900e-02,-5.861145326936634779e-03,1.381534785032272339e-01
-1.468362138793300464e-01,-1.403548887841307435e-01,-2.866195784405368707e-01,-2.998278091578049451e-03,6.586418370859430810e-05,2.045014477711995125e-04,1.432287842035293579e-01
-1.258719106822226430e-01,-1.487976045790339874e-01,-2.680708724390668540e-01,-4.621918954353311688e-03,-1.032039034949043445e-03,2.294383405838860393e-04,1.324898600578308105e-01
-1.424180481392509634e-01,-1.418549913841589127e-01,-2.849081765118692267e-01,3.416576954511033742e-03,-5.399562204245740658e-04,-9.428564737490306193e-04,1.429074704647064209e-01
-1.436853494894986816e-01,-1.435772963564208027e-01,-2.871760502220195299e-01,3.974877718524815091e-03,-1.443327234098347369e-03,-1.081513585192793973e-04,1.437316238880157471e-01
-1.519089509167269592e-01,-1.512010330096923427e-01,-2.875437072503253533e-01,-4.279388671917148078e-04,7.361750474125227652e-05,2.112233569742353212e-04,1.359926760196685791e-01
-1.478176564456116782e-01,-1.478147890962518696e-01,-2.871097893367143827e-01,1.395532577361270068e-04,3.141376576465178413e-04,-1.174958812571316529e-04,1.392949819564819336e-01
-1.437484203852361364e-01,-1.472026305332229112e-01,-2.878091905285725671e-01,4.596349759126600563e-03,-7.230629375817075946e-04,5.665248310867216849e-04,1.425963938236236572e-01
-1.480339821356322361e-01,-1.466898054766854198e-01,-2.885280342115789098e-01,8.365685024294160959e-04,-5.951436931430207538e-04,-5.452171315509613892e-04,1.411852985620498657e-01
-1.438370486242813162e-01,-1.362937163980872390e-01,-2.850498975541158053e-01,-1.340987571541324766e-03,-2.731144121088852398e-04,9.894356465521101252e-04,1.451610922813415527e-01
-1.462421710557440802e-01,-1.497819859307898960e-01,-2.907666284371971943e-01,4.054613880761415504e-03,-1.367377213634309811e-03,-1.154618765859453895e-04,1.429798156023025513e-01
-1.136983819710326998e-01,-1.292652303049340035e-01,-2.423636733074462368e-01,1.615425153372316083e-02,-2.614433230589243221e-02,-2.244529163545294637e-02,1.383437812328338623e-01
-1.524531261576023422e-01,-1.292771402744543052e-01,-2.829445677885126798e-01,9.810696176758807938e-03,-5.494331064724292633e-03,-7.760244997388136834e-03,1.454282850027084351e-01
-1.547228359311316193e-01,-1.342600185729738160e-01,-2.857530249113413578e-01,-2.046057667475599529e-03,-6.627572738419447093e-04,9.716895640955750197e-04,1.424275040626525879e-01
-1.368036599154885125e-01,-1.465044072307746803e-01,-2.702603338876548023e-01,9.467697240252823457e-03,-6.429885630198979574e-03,-5.018366749651850811e-03,1.306853145360946655e-01
-1.559460319934023453e-01,-1.315141417648201527e-01,-2.873362332369845396e-01,1.847623233236842227e-03,-2.171012887359777071e-04,1.623526638506669981e-03,1.452195048332214355e-01
-1.451210753494798222e-01,-1.404556151613643444e-01,-2.898726169862912982e-01,7.421189534021523093e-03,-1.603757296069916122e-03,-5.097252121583717953e-03,1.479898393154144287e-01
-1.426182701331650260e-01,-1.458719221345231298e-01,-2.884914713418574306e-01,8.181266569968991681e-03,-5.530320699580111750e-03,-1.899618987951882032e-03,1.453214883804321289e-01
-1.596180653811319905e-01,-1.292465521140297446e-01,-2.852379826898666093e-01,2.127249143344651146e-03,-1.233045941717451736e-03,-1.988592662410363504e-03,1.433459371328353882e-01
-1.553831087117928944e-01,-1.311936892843027502e-01,-2.854884232738510441e-01,-1.239732791911583518e-03,-9.429513463809906541e-04,6.375083725535952419e-04,1.437643617391586304e-01
-1.573161391623138505e-01,-1.227816522087376988e-01,-2.837950674847523613e-01,4.031577937725987736e-03,-1.456514823685144512e-03,-1.129995658362280796e-02,1.483092308044433594e-01
-1.785536475701302583e-01,-1.398205749116799290e-01,-2.987142369472560732e-01,9.164951815190917547e-03,-1.932424805462416156e-02,-4.158101085793729917e-02,1.647793054580688477e-01
-1.472832369075093295e-01,-1.480369105746582870e-01,-2.898605590905055096e-01,-2.791073052497126689e-04,1.399812613038034785e-04,-4.416344788545389683e-04,1.422050744295120239e-01
-1.429465331697301056e-01,-1.466188894358954886e-01,-2.876238773730099840e-01,-7.824562289878472972e-04,1.578321751699086713e-05,2.492722786097928238e-04,1.428836435079574585e-01
-1.701331179078099110e-01,-1.382745320891696772e-01,-2.435745166674798123e-01,1.262387009011190810e-02,-1.269939667982600447e-02,-2.907095603280810889e-02,1.106599271297454834e-01
-1.849751307790118426e-01,-1.675072118117503228e-01,-2.515020002994462489e-01,6.031510326947423471e-03,-6.357608575698264937e-03,-1.856615223745759075e-02,8.460224419832229614e-02
-1.460183556384205827e-01,-1.564769791612241612e-01,-2.144828786654697506e-01,-1.464707034140011769e-03,-4.331941256440046024e-03,1.346131532579415225e-03,6.441194564104080200e-02
-1.687844710467387987e-01,-1.379149402637089294e-01,-2.343739751546900230e-01,1.803098592577102128e-03,-7.806437086822986572e-03,-1.527858220449448967e-02,9.040192514657974243e-02
-1.308829985230039183e-01,-1.632034804067933331e-01,-2.829455873471617422e-01,-7.839882945523183461e-03,-9.864989945270952881e-03,4.504307321822286631e-03,1.406773626804351807e-01
-1.522881943597239884e-01,-1.501583344422766642e-01,-2.887127988028739267e-01,-4.478726403970481997e-04,1.682126072920170432e-04,1.301331382245094436e-04,1.375045925378799438e-01
-1.548406035911789880e-01,-1.398224551285616457e-01,-2.915335796193264661e-01,-2.709652079349902411e-03,8.455339238843002101e-04,-5.280666881068133865e-04,1.448737233877182007e-01
-2.019787131216886911e-01,-1.597529434483683508e-01,-3.135404485157126109e-01,1.829164331702728616e-02,-2.213343705071189188e-02,-4.216430885790294070e-02,1.635442525148391724e-01
-1.864715735569722199e-01,-1.575300391338735340e-01,-3.526021836321839853e-01,2.139023954140066922e-02,-1.115423452443611851e-02,-1.647832807741936301e-02,1.892235428094863892e-01
-1.578641442180768739e-01,-1.246063676011489457e-01,-2.810947724062534681e-01,-6.224397964875966020e-04,-2.533306328887520551e-04,6.688038355753829056e-04,1.428038477897644043e-01
-1.580273671245837619e-01,-1.457494600605194202e-01,-2.926652624397212410e-01,-1.115673696878625521e-03,-1.096155677904593487e-03,-6.862278073036315795e-04,1.412088274955749512e-01
-1.544188492121185419e-01,-1.294732497681685135e-01,-2.815696258945054042e-01,-1.034015643964916655e-03,-2.409275448324680333e-04,9.665517461385161890e-05,1.412970870733261108e-01
-8.593187854561876171e-02,-1.462708529117755785e-01,-3.050253484761457079e-01,-3.235198872531140635e-02,3.151325090919389338e-02,-1.837107232258712239e-02,2.134351432323455811e-01
-1.621360109952906248e-01,-1.466077664306364992e-01,-2.410835457558332395e-01,4.014561097805755506e-03,-2.841734465543454755e-03,-2.157552875320687541e-02,9.575407952070236206e-02
-1.583723913048971921e-01,-1.433624160238310408e-01,-2.606262165519319107e-01,8.909349213339528770e-03,-1.483302715737119110e-02,-2.199159776209404574e-02,1.206857413053512573e-01
-1.514865363627672101e-01,-1.390085002512674028e-01,-2.628094338135192332e-01,1.241840867168766092e-02,-4.978175020283246918e-03,-1.092867275080267563e-02,1.217903345823287964e-01
-1.670845060005713978e-01,-1.620515208809765739e-01,-2.483123177801284664e-01,7.994923528410786615e-03,-1.376258645677261999e-02,-1.622648258048339787e-02,9.263900667428970337e-02
-1.522485630750849972e-01,-1.395653068070027703e-01,-2.895687630654482092e-01,-1.290647257273788012e-03,-5.245039012913548654e-04,4.846722312480020406e-04,1.441037654876708984e-01
-1.835133885501008255e-01,-1.796562783899705307e-01,-2.586474674038119481e-01,1.706258278006558826e-02,-3.210554407209058325e-02,-3.528970544608189819e-02,1.168400198221206665e-01
-1.153446302085526232e-01,-5.822166918145614545e-02,-1.549982403978040213e-01,-6.420229432592062385e-03,-1.472590081190063536e-02,7.920369386535171252e-02,1.633844077587127686e-01
-1.266250531243482136e-01,-1.023558382625693319e-01,-1.540399184798983412e-01,4.131553526830073104e-03,-8.770800787140511229e-03,-4.176779332627929969e-02,8.672682940959930420e-02
-1.702049292890579490e-01,-1.633341624857079510e-01,-1.239170778528072975e-01,6.628849492245546217e-04,1.729045329843108270e-02,5.376198570160565680e-04,5.263843014836311340e-02
-1.046286440147291691e-01,-1.110980956827888194e-01,-3.617307476461509297e-02,1.369491445308155609e-03,-2.269881910811593836e-02,-4.350723467718745595e-03,8.233474940061569214e-02
-1.474513274259087736e-01,-1.462175634283325310e-01,-2.886163746614924808e-01,-8.674682515561431403e-04,1.351801925731639480e-04,-2.569322180646872646e-04,1.417948007583618164e-01
-1.497536861212926118e-01,-1.459832390725062379e-01,-2.894979325541746640e-01,-7.443753807112560598e-04,4.306463949983860740e-04,-2.160882128743129530e-04,1.416754275560379028e-01
-1.518262379603051715e-01,-1.398556373964162935e-01,-2.890595681765601999e-01,1.357097476335595351e-03,-3.351511046138282510e-05,5.855950564569344574e-04,1.436161696910858154e-01
-1.324362684261987111e-01,-1.423490185550457809e-01,-2.764270593654689079e-01,-5.019397573434115391e-03,-3.044770621285000905e-03,1.388592842191703437e-03,1.396905332803726196e-01
-1.570156274787816164e-01,-1.269207001896023868e-01,-2.830831718064219515e-01,-9.155650583392380831e-04,-6.891483017654321912e-04,9.467879608978236987e-04,1.435247510671615601e-01
-1.478801714605388895e-01,-1.517086275654880023e-01,-2.896717666047623485e-01,-2.916924451304917366e-04,-6.857262004659947974e-05,-1.075971323292111833e-03,1.399300247430801392e-01
-1.542030422234423881e-01,-1.476545634122526374e-01,-8.860648923726929804e-02,3.157335688435304252e-03,7.817563460080134610e-04,-1.103056886680750005e-02,6.567338109016418457e-02
-1.515315968927642976e-01,-1.190380625335602793e-01,-2.728059744108287665e-01,-1.039072400816173913e-02,-7.166145664276116385e-03,1.589392526298465461e-02,1.447057425975799561e-01
-1.482795140599843520e-01,-1.495529152448305810e-01,-2.886045267953553095e-01,1.349019010286852879e-03,1.457567141791425605e-04,-2.485967114683650331e-04,1.397130936384201050e-01
-1.576774118986059292e-01,-1.244349688433469270e-01,-2.809213238723778372e-01,3.623828440036723584e-04,6.328056390143237521e-05,1.054512840187316058e-03,1.428103446960449219e-01
-1.594582169683607664e-01,-1.367366261440714770e-01,-2.752676593755468692e-01,-6.689954928187782403e-03,-1.130528472209721413e-03,1.316714575357089525e-03,1.292392164468765259e-01
-1.578256686038638501e-01,-1.245732434173446868e-01,-2.810339437404529850e-01,-6.220996499753402411e-04,-2.393519347936805383e-04,6.706363863878258766e-04,1.427783519029617310e-01
-1.498909212167486293e-01,-1.360286210842565624e-01,-2.871228331424712787e-01,-1.517066544700948266e-03,-4.382017305320161474e-05,1.420576272598387223e-03,1.447068601846694946e-01
-1.641596156628209735e-01,-1.427848964767097772e-01,-2.486278515939239764e-01,-1.615974408490743457e-03,-2.194164733065512123e-03,2.105586107266966059e-02,1.036801412701606750e-01
-1.351205966247159551e-01,-1.345913975762575987e-01,-2.707584739898448167e-01,-1.044666250614380287e-02,-5.971441427224937794e-03,7.557433709792551677e-03,1.381137520074844360e-01
-1.705396139851100834e-01,-1.467577954419647390e-01,-2.273040354251531781e-01,-2.396687287232754371e-02,-2.703641788570291041e-02,6.063326631120264515e-02,1.417146772146224976e-01
-1.524439842104382548e-01,-1.278424458343722925e-01,-2.809528920897906290e-01,1.252043235670220961e-03,5.812982396838371800e-04,1.078335990000014403e-03,1.424447149038314819e-01
-1.136015808681147127e-01,-1.108701281476388856e-01,-1.440006317847795092e-01,-1.350774840600435164e-02,-3.200624441682162896e-02,4.323978466569414897e-02,1.012136861681938171e-01
-1.778671109518610849e-01,-1.507366244499989683e-01,-2.588559276290420819e-01,-5.719063614134990182e-03,-5.223589278265814741e-03,1.842508880631460455e-02,1.033970490097999573e-01
-1.470833194554023449e-01,-1.285217784631690618e-01,-2.144389769049169781e-01,-1.338054312038474553e-02,-1.345698262834578961e-02,2.083995457426992062e-02,9.227588772773742676e-02
-1.483279541364640464e-01,-1.351607873669338766e-01,-2.838960956878604502e-01,1.252391565934778258e-03,6.282263310079275144e-04,4.661847036375980241e-04,1.426312923431396484e-01
-1.500003007977979697e-01,-1.571246484361615847e-01,-3.120931643261161681e-01,-1.719281666234865821e-02,2.003144185089830026e-02,-8.146183272099240258e-03,1.657096296548843384e-01
-1.471718087835363620e-01,-1.524250177526760841e-01,-2.921113945747400020e-01,-3.859694270345915244e-03,7.965326196594173886e-04,3.074507588965543956e-04,1.425502002239227295e-01
-1.572550291986372639e-01,-1.263398849149948711e-01,-2.849956056502900847e-01,6.786360161146145651e-04,1.183979860154067264e-03,4.643714989071444713e-03,1.459205150604248047e-01
-1.524945575203979775e-01,-1.438385640878317162e-01,-2.884462265835489037e-01,-7.593206714789955221e-04,4.712632706416312618e-04,7.994665897491382836e-04,1.404951661825180054e-01
-1.512584911726398418e-01,-1.544313375258143939e-01,-2.904515227512967090e-01,-2.166625598739331266e-03,-3.349132505051156711e-04,5.709320266714665911e-04,1.376899629831314087e-01
-1.467793799728328019e-01,-1.408328622496870242e-01,-2.859713957453588473e-01,-6.524518621934640057e-03,2.058054515863163084e-03,-1.871051618209892443e-03,1.427879631519317627e-01
-1.552227725886761167e-01,-1.527116363889497730e-01,-2.957493023463944049e-01,-3.831886805961134262e-03,-1.093725385531813107e-03,5.600081045063361705e-04,1.419699639081954956e-01
-1.348777527048110325e-01,-1.559456366201718291e-01,-3.006609949861921427e-01,-1.999868405861021659e-02,3.411593199979494860e-03,-8.416381083589170864e-03,1.608804017305374146e-01
-1.565863369889557155e-01,-1.619711758542163871e-01,-3.047098848646065949e-01,-7.622819323840809499e-03,-7.864810090506876156e-04,7.797985643389508453e-04,1.461162567138671875e-01
-1.375809628030066345e-01,-1.498116852395811049e-01,-2.898574394914697483e-01,-3.266587806486785824e-03,1.971269117769555956e-05,8.343891991264726317e-04,1.466607153415679932e-01
-1.399625867525714773e-01,-1.387342358681548926e-01,-2.798288154679001716e-01,-8.245958022349883509e-03,-5.635871041482404080e-03,6.621093033540021225e-03,1.420093923807144165e-01
-1.615164562045362240e-01,-1.270817973000435974e-01,-2.814677381370986331e-01,4.956685313700279465e-04,-3.959641117373697422e-04,1.471985945485155536e-03,1.404003053903579712e-01
-1.285903609219005150e-01,-1.394189680231785466e-01,-2.719982003198199161e-01,-8.125982196724760090e-03,-6.905552073236453058e-03,4.175398534633788065e-03,1.397269368171691895e-01
-1.409553456427727058e-01,-1.501991568897377838e-01,-2.865847912746103954e-01,-4.077508135753419444e-03,-1.461772321284066859e-04,7.894364041333026914e-04,1.414179056882858276e-01
-1.380688323004135576e-01,-1.491049909791946904e-01,-2.871549043693297776e-01,-1.777071977398043436e-03,-2.296273544629366930e-04,1.919521959907938930e-03,1.439576447010040283e-01
-1.427273996408779388e-01,-1.419036371119472006e-01,-2.874257794029274615e-01,-2.210179659888050503e-03,-7.596209869850931769e-04,7.035432984614910321e-04,1.451735794544219971e-01
-1.484722931223847187e-01,-1.464936667188903863e-01,-2.894662321311528563e-01,-6.922497499619532490e-04,-9.932345817664343273e-05,7.703552460423643180e-05,1.419988274574279785e-01
-1.529094268692307579e-01,-1.264238949370046772e-01,-2.786278262785433779e-01,2.588485922024903654e-03,8.608988151325073601e-05,6.089683156620703634e-04,1.409168392419815063e-01
-1.628251321253975648e-01,-1.378242672262185164e-01,-2.992538017817154006e-01,-1.730862117924116678e-02,-1.705161655541866453e-02,1.824291304746356382e-02,1.594305783510208130e-01
-1.466892629895079625e-01,-1.311317799286398356e-01,-2.830452847116128878e-01,3.164769833910159244e-03,-1.473610608474734500e-04,9.066816337554780029e-04,1.448755860328674316e-01
-1.236569511558845286e-01,-1.398123408962301806e-01,-2.613353738904612422e-01,-1.548960684408634894e-02,-1.798329841607119312e-02,1.267345955721703964e-02,1.384338289499282837e-01
-1.167916564663632473e-01,-1.463483792404623451e-01,-2.605359484365359357e-01,-1.727527205545604377e-02,-2.347423659702321114e-02,1.467929088925625652e-02,1.431163102388381958e-01
-1.513877384912444279e-01,-1.465456410874536874e-01,-2.794744618387208779e-01,9.060603021683447111e-03,5.039900634841825745e-03,5.326239772614814981e-03,1.321266591548919678e-01
-1.509357736319279497e-01,-1.238929432998643609e-01,-2.541293082536603132e-01,-8.851952393805534794e-03,-8.371966559255190551e-03,1.557944834805506835e-02,1.238723695278167725e-01
-1.686067932268121572e-01,-1.763773582620366265e-01,-2.369122065966608182e-01,2.726280084594431483e-03,3.177300328194937462e-02,1.218955548189533042e-02,8.770327270030975342e-02
-1.364548539630541790e-01,-1.192089813810501414e-01,-2.108355445913810411e-01,-2.020525633810070498e-02,-3.070047757433843477e-02,3.008502818496351996e-02,1.178147271275520325e-01
-1.227151454406850695e-01,-1.361149750639327194e-01,-2.465353143334012564e-01,-1.115873045047350264e-02,-1.586931721032267331e-02,1.567316603759901644e-02,1.253707408905029297e-01
-1.271002085695590034e-01,-1.457863292719696613e-01,-2.717337765571506414e-01,-6.516538889463006391e-03,-4.104615620957903846e-03,2.595507878158938731e-03,1.369801014661788940e-01
-1.749895954277933541e-01,-1.733254555531301699e-01,-2.620538927652434902e-01,-8.812221762029677496e-03,-2.523225421662367296e-02,3.017589949689549952e-02,1.122611612081527710e-01
-1.446761539486752790e-01,-1.388023707300685139e-01,-2.876029892287395029e-01,1.060096613384487905e-03,2.241164657228534234e-05,3.676369731767790863e-04,1.459653377532958984e-01
-1.439570316344592760e-01,-1.377818268116026146e-01,-2.854280323974845435e-01,1.129121873900837403e-03,4.385519503475282348e-04,1.145760822294992739e-04,1.446728408336639404e-01
-1.444614122861291872e-01,-1.437485067577222442e-01,-2.881801598595196134e-01,-5.939471728424645242e-03,-4.436814590942805185e-04,3.195950967527647329e-03,1.445514112710952759e-01
-1.193406927731181233e-01,-1.440429451567278862e-01,-2.298255371822272575e-01,-8.766179756233156636e-03,-1.360771204699113418e-02,6.324916771758230978e-03,1.048519834876060486e-01
-1.533041028231760805e-01,-1.440167198324207865e-01,-2.900336489577596266e-01,1.299144184586447379e-03,-4.204410406208437877e-04,5.540627927492260954e-04,1.416248530149459839e-01
-1.424414398192286602e-01,-1.422811104911517466e-01,-2.880814718495079418e-01,4.939885011127892857e-05,1.693735505200805375e-04,2.730344842724566305e-05,1.457205861806869507e-01
-1.506761576935629621e-01,-1.706017634997641363e-01,-2.930781030080483740e-01,-1.713333784000610482e-02,-2.444975016676558671e-02,1.043465908061532582e-02,1.443556994199752808e-01
-1.414687107727792548e-01,-1.402192513263031404e-01,-2.858448541203313931e-01,-4.390913914786844993e-03,-7.498413606896820122e-04,1.257708862909900829e-03,1.452263593673706055e-01
-1.460027140104649679e-01,-1.404582491900990826e-01,-2.878965822105573058e-01,1.152934364526284148e-03,-4.681325630399055414e-06,4.702272755072230289e-04,1.447618305683135986e-01
-1.384680923262355812e-01,-1.729023997505150789e-01,-3.014509064269281780e-01,-7.948685235833774856e-03,-9.418848712827136357e-03,3.012393070218717054e-03,1.503989100456237793e-01
-1.423191999770148930e-01,-1.420835179180829633e-01,-2.879050432617886179e-01,2.188704887442719383e-04,-2.588821435972648899e-05,-3.109373177504788096e-05,1.457043439149856567e-01
-1.496113450251475852e-01,-1.234024592895372197e-01,-2.779196009174064730e-01,6.097352206673546660e-03,1.658650777776633691e-03,1.198685619183411863e-02,1.451329439878463745e-01
-1.568370882954581158e-01,-1.463698006219829040e-01,-2.943135489728826437e-01,6.652686517265458434e-03,4.400716069414560734e-04,3.887452293209854408e-03,1.436211615800857544e-01
-1.515445730556146675e-01,-1.396658954330307623e-01,-2.887632508633387607e-01,1.377075511578668707e-03,4.832279583641079212e-05,6.043006751473949112e-04,1.435508131980895996e-01
-1.447602557166090820e-01,-1.447824945627853577e-01,-2.876960754459129133e-01,-6.908734861238979147e-04,6.689721228037224772e-04,7.688234715317901979e-05,1.429344713687896729e-01
-1.468999261401740808e-01,-1.396889406970017733e-01,-2.860034042130303322e-01,3.558436607788542476e-03,5.023055914992518504e-05,7.040421144359757704e-04,1.429836750030517578e-01
-1.482498271019093983e-01,-1.431124389514052409e-01,-2.865122345817261995e-01,2.363127074059826437e-03,2.423010224015469021e-05,7.577862381251388411e-04,1.409669220447540283e-01
-1.473281139039007981e-01,-1.495594274404637991e-01,-2.893249309366069943e-01,1.491036932939394846e-03,-1.019978867875654099e-03,-2.032443495311649377e-04,1.409295946359634399e-01
-1.480441340152549856e-01,-1.480631471021667811e-01,-2.879334479898555399e-01,3.377388712805953308e-04,1.729025996217495569e-04,-7.020921688184556333e-05,1.398814022541046143e-01
-1.486302498882691170e-01,-1.468047651009752874e-01,-2.887475493330251552e-01,8.665103370500842634e-04,-6.693404089401427471e-04,-4.640095014377198872e-04,1.410539448261260986e-01
-1.415399116052751816e-01,-1.422123037123537159e-01,-2.880006337925707927e-01,4.126319802146956534e-04,3.021219841090477955e-05,-2.281836688139793985e-04,1.461279839277267456e-01
-1.485171178563684802e-01,-1.523715486104417205e-01,-2.931202279661165866e-01,3.848653373244338705e-03,-3.393564370963308855e-04,4.533528247509375402e-04,1.428738981485366821e-01
-1.449146134017492149e-01,-1.430601366597937796e-01,-2.893732106466511134e-01,-7.086811190309709116e-04,-2.247329432009301763e-04,-1.121660591634492148e-04,1.454005390405654907e-01
-1.477697911558346344e-01,-1.478714648404336196e-01,-2.877532700302909974e-01,4.194217260116259345e-04,-2.471785125237868291e-05,-2.876114676652667635e-04,1.399354487657546997e-01
-1.229777208176360687e-01,-1.555977117166526258e-01,-2.693453010204392983e-01,-2.026219592242540710e-03,3.358542279020156757e-03,-2.837305981005483046e-04,1.332644820213317871e-01
-1.373126164408015881e-01,-1.454736865624315367e-01,-2.869583644308572046e-01,-2.514296300115371422e-03,-4.759561340771485482e-05,9.177663696482276983e-04,1.458104252815246582e-01
-1.338859634841686741e-01,-1.678838317613026154e-01,-2.861990815022746326e-01,2.080434938127311874e-03,4.563711983566372254e-03,-7.351733435987455284e-05,1.387526690959930420e-01
-1.522340384917308387e-01,-5.175271319301905093e-02,-2.981663486672161412e-01,8.864332809858673987e-03,1.119863090519538935e-03,2.298761143534208337e-02,2.188172489404678345e-01
-1.206923758321622325e-01,-1.536003730489339802e-01,-2.690639977416036666e-01,-3.427588297909854630e-04,2.944307902065808075e-03,3.402305771036667347e-04,1.350598633289337158e-01
-1.560192641027695337e-01,-1.250603802311006096e-01,-2.746816602242370120e-01,2.651593993584040829e-03,2.239965617833563401e-03,3.746057753662585151e-03,1.370806992053985596e-01
-1.283010721075384664e-01,-1.588671535792357536e-01,-2.827550497354206493e-01,9.975326477937916745e-04,-3.021469457463755721e-04,2.448812857593870348e-04,1.416781693696975708e-01
-1.542995787293255094e-01,-1.297255624531554741e-01,-2.837594552665444469e-01,-1.041955717855256799e-03,-4.525452169520820028e-04,6.667647304589908487e-04,1.433537453413009644e-01
-1.210859040211995918e-01,-1.544880899991528944e-01,-2.751566414132631255e-01,1.844614658748808765e-04,2.462465699342203124e-03,1.051952886045973043e-04,1.404475867748260498e-01
-1.583979642762372297e-01,-1.253824202776134822e-01,-2.818973377602245201e-01,-2.851507355867322242e-04,-1.963791949633385216e-04,1.283353592343720612e-03,1.429154276847839355e-01
-1.469176331970292460e-01,-1.573922665420799671e-01,-2.920204378940376988e-01,-7.715438896295298424e-04,1.331316778402332531e-03,1.183634621468999991e-03,1.401996761560440063e-01
-1.250875085070418391e-01,-1.559076552506846181e-01,-2.796854807795443043e-01,-1.449283552704159345e-03,1.885880644441470175e-03,-1.030234646043124260e-03,1.417950540781021118e-01
-1.255427400904513546e-01,-1.516028841117874892e-01,-2.779221027855401926e-01,-1.054996759110812289e-03,2.095589577679724067e-03,-3.559054563818611237e-04,1.412248760461807251e-01
-1.345142562767137340e-01,-1.626537187239555093e-01,-2.863237632628508611e-01,-3.850597503181964285e-03,2.293936922368739872e-03,-1.529890669381452723e-03,1.401192545890808105e-01
-1.288459548465574755e-01,-1.501823700332272915e-01,-2.787184344084069343e-01,-1.639964705372622339e-03,1.630442418534809633e-03,-2.878568258665358199e-04,1.404832899570465088e-01
-1.282732883536221169e-01,-1.496729279990678951e-01,-2.784232811462999946e-01,-3.848996017942740971e-03,2.341454956826829765e-03,-2.009960120122005042e-04,1.408929377794265747e-01
-1.442429929740594863e-01,-1.462983888338021954e-01,-2.881504116406220506e-01,3.654025889490694189e-03,7.327670965127703771e-04,6.505773170215052408e-04,1.430409699678421021e-01
-1.474173034244623537e-01,-1.446061932665890504e-01,-2.885561262870061094e-01,9.390545010791309178e-04,1.042857828669284139e-05,1.227897889650960740e-05,1.425744444131851196e-01
-1.461225501752420053e-01,-1.481003329208868124e-01,-2.895836071447147608e-01,8.895442469005997166e-04,1.035289542583609546e-05,4.408368090809623892e-04,1.424928307533264160e-01
-1.500089552699366280e-01,-1.537671392896736988e-01,-2.920593330631756634e-01,2.625535156238154814e-03,3.757177561644098633e-04,-8.325618151929252073e-04,1.402917206287384033e-01
-1.439827603576503967e-01,-1.504734170502055046e-01,-2.884438431663834401e-01,9.981090820014378202e-04,1.070604723802629524e-04,-8.162603251560628494e-04,1.413453519344329834e-01
-1.570517659593154147e-01,-1.248560491664256755e-01,-2.811400019473703771e-01,7.906578063519291866e-04,1.295599878394502243e-03,4.032895615478843988e-03,1.431267559528350830e-01
-1.463875881517165967e-01,-1.496208897813319783e-01,-2.890413789201146111e-01,7.417718040115957008e-04,8.380563687917631061e-05,-8.374334767236294884e-04,1.410783231258392334e-01
-1.564616822246288341e-01,-1.252074444991052027e-01,-2.829024865090498664e-01,-2.963874506488909863e-04,-8.088172595482696003e-05,1.291727198643114437e-03,1.446416378021240234e-01
-1.373359949546374970e-01,-1.433527730486627572e-01,-2.856767118851841758e-01,2.275580238591885969e-03,-4.002454980037184370e-05,4.691550272982456578e-04,1.454813927412033081e-01
-1.450080109754386115e-01,-1.473008473685654407e-01,-2.901997156142377965e-01,3.863302394891584592e-03,1.122019330751107850e-03,4.516951370840129824e-04,1.442295163869857788e-01
-1.453319446295388007e-01,-1.455236693330400066e-01,-2.870373231237991485e-01,8.134847360088476786e-04,-8.985050182397748882e-05,-4.877209127391469307e-04,1.416192352771759033e-01
-1.574029698893613660e-01,-1.370159113561252306e-01,-2.900505670133198266e-01,1.961164145866616144e-03,-2.197617585289959202e-04,2.434753564913891711e-03,1.440304815769195557e-01
-1.568464814986443856e-01,-1.334862050496894714e-01,-2.901351679474488687e-01,-3.988077165798351205e-04,2.815317157596110981e-04,3.192401835627595424e-03,1.464804708957672119e-01
-1.498270267721768245e-01,-1.360239642121784942e-01,-2.866441037517146739e-01,1.371061380984904023e-03,3.387226865608117970e-04,6.540813459444361168e-04,1.442400664091110229e-01
-1.412337191054202357e-01,-1.434112510406629626e-01,-2.879132203469353946e-01,1.129218049156598038e-03,1.692109896902265420e-04,2.060050736830402977e-05,1.456163823604583740e-01
-1.450107945746802462e-01,-1.443974652524272762e-01,-2.889309597265725671e-01,1.883787813896610421e-04,-2.632055930010879837e-04,-7.001549988266997945e-05,1.442289501428604126e-01
-1.533506666908153182e-01,-1.298423628144515785e-01,-2.847797631387671280e-01,2.067138320082861740e-03,5.068047175625684138e-04,1.786491092749076075e-03,1.447034478187561035e-01
-1.520749647052594966e-01,-1.541306315912536196e-01,-2.902385301212633273e-01,1.370377442323160563e-04,3.200710968210614279e-04,-8.741743973581674433e-04,1.371569633483886719e-01
-1.430220070492287388e-01,-1.410648324428211420e-01,-2.879744669224852394e-01,-9.837399152452254956e-04,3.765534738788788569e-04,4.454298325215362542e-04,1.459543257951736450e-01
-1.482390415682550977e-01,-1.414757638701435727e-01,-2.886348400915708101e-01,-2.846763849878375559e-03,-5.018311956274137909e-04,2.885847243497614194e-04,1.439846307039260864e-01
-1.447041476774995616e-01,-1.364010643411518453e-01,-2.845165532712328749e-01,-2.402150838406018254e-03,1.596299429217019265e-04,6.182063366291842138e-04,1.442076861858367920e-01
-1.542616667593679769e-01,-1.209694891954462281e-01,-2.667354704441471380e-01,-3.013686712594518778e-03,-7.102673196965283867e-05,7.715751720069377248e-03,1.330754756927490234e-01
-1.446879052239379293e-01,-1.433285054883552678e-01,-2.881245932232235907e-01,5.242334233659867249e-04,-5.864735454431194161e-05,1.668832563702111874e-04,1.441243886947631836e-01
-1.290877729602298019e-01,-1.591018863124123439e-01,-2.840786535292234571e-01,5.880056500876132495e-04,1.852184087644451313e-04,5.615940660245620150e-04,1.423839628696441650e-01
-1.388434095103981414e-01,-1.391351821488857332e-01,-2.838290996072510564e-01,5.355689475279166133e-03,5.551538300462554318e-04,5.724348997074909379e-04,1.451433449983596802e-01
-1.427319355773220555e-01,-1.388104291890130404e-01,-2.856485295477380060e-01,-2.722106263777341294e-03,-5.397432799691272804e-04,6.074431551081059294e-05,1.449968814849853516e-01
-1.581299535193078920e-01,-1.361741597711253193e-01,-2.898498236714615039e-01,2.358609053674188584e-03,-1.758826830104617649e-03,-2.929810438938765683e-03,1.441385298967361450e-01
-1.614737774432009054e-01,-1.419617154329418929e-01,-2.954609076928881861e-01,2.526518687716461636e-03,4.523213968475735150e-04,-7.101894917096907185e-04,1.448064744472503662e-01
-1.553999535041226121e-01,-1.411014096189575351e-01,-2.926287081113175259e-01,3.278313581435456786e-03,-9.485483227180070611e-04,-5.752175001302016895e-05,1.450286209583282471e-01
-1.588983456650764625e-01,-1.395843622827053487e-01,-2.935205150440475252e-01,1.464116476392813117e-03,1.737900625581144517e-05,-3.844625183350875450e-04,1.452691406011581421e-01
-1.562623257796837140e-01,-1.464239714190092023e-01,-2.923940348647672272e-01,4.029045532720426995e-03,3.615569921927886689e-04,-4.877908367010590674e-04,1.414841115474700928e-01
-1.534370778879855512e-01,-1.432762751565435366e-01,-2.890300851125947590e-01,2.657737462964153419e-03,-3.220529001245361314e-04,-2.566768216334577835e-04,1.410253196954727173e-01
-1.526584129873039819e-01,-1.529851587806453639e-01,-2.899537227848028031e-01,8.182372851240271236e-04,5.459155521052709049e-04,7.274733372828883242e-04,1.371486037969589233e-01
-1.512282597262054606e-01,-1.511799222097485462e-01,-2.884693276862790867e-01,1.618476469192382957e-04,3.220302360606993133e-04,2.853984593167350581e-04,1.372675597667694092e-01
-1.439882010593556139e-01,-1.443395251819755420e-01,-2.878930747507041366e-01,-4.304491703458833527e-04,3.409263618890351994e-04,-1.257253041517875027e-04,1.437328457832336426e-01
-1.343790458356797501e-01,-1.431810448982416273e-01,-2.831754943028412241e-01,3.349130343986303493e-03,7.321737411996974551e-04,3.735185767626674489e-04,1.447198241949081421e-01
-1.517678686589918335e-01,-1.517656781483135986e-01,-2.874767621832464148e-01,1.708151996662577810e-04,5.631136727808967897e-05,-1.518905398866208264e-04,1.357105970382690430e-01
-1.506839035312055319e-01,-1.507303868693875004e-01,-2.869526962308022178e-01,7.492980900704671651e-04,7.163320390079273121e-05,-4.834950831564347053e-05,1.362518221139907837e-01
-1.450146368612328374e-01,-1.433459304725516470e-01,-2.882803928331937326e-01,1.106394971414497797e-03,-7.465239071738114071e-05,1.093139984175973788e-04,1.441202759742736816e-01
-1.485342436497244512e-01,-1.432273845357362463e-01,-2.878258643082111101e-01,1.478796889253066685e-03,1.022887585091103462e-04,-1.710562796627212274e-04,1.420429497957229614e-01
-1.600328012965711866e-01,-1.309860170631962917e-01,-2.878881644532108597e-01,-7.919573148786095487e-04,-8.192201809740928689e-04,2.209211861557752211e-03,1.446479707956314087e-01
-1.505180783003942646e-01,-1.201862786201587652e-01,-2.308621915228702415e-01,-1.842019115777489236e-03,-3.026842930627709951e-03,1.118983229867082270e-02,1.011211052536964417e-01
-1.467067078964411631e-01,-1.468055831207472905e-01,-2.885042406159613049e-01,7.875819929589395526e-04,5.531318137947345082e-04,4.029111443372206071e-04,1.417596340179443359e-01
-1.472407536355072044e-01,-1.391575071485547099e-01,-2.877049317044378940e-01,2.527876368889158884e-03,9.649600883503568196e-05,-9.030099181430803089e-04,1.447500437498092651e-01
-1.496942539838168329e-01,-1.446862917359003631e-01,-2.888442517367220685e-01,3.356269021801479725e-03,1.761571359203871153e-04,-1.200705491405371734e-03,1.418551057577133179e-01
-1.595435689800493995e-01,-1.272693816790090582e-01,-2.857834258080307888e-01,8.467585084547100569e-04,7.599307576818784167e-04,4.604620181817141444e-03,1.453268826007843018e-01
-1.541733087883569719e-01,-1.454229514488020736e-01,-2.914152171513597067e-01,-7.621988735957548272e-04,-1.965695430329649569e-04,7.758522597434595403e-04,1.418326199054718018e-01
-1.465394362776871739e-01,-1.277003628251306422e-01,-2.759871417016708239e-01,-3.534388444986525778e-03,-2.349839647535155362e-05,2.387393954600521701e-03,1.400173902511596680e-01
-1.558263390033021722e-01,-1.375141583027480185e-01,-2.890291384950596232e-01,-9.692622327759035103e-04,3.861753439254159734e-04,9.431599455589602865e-04,1.432602107524871826e-01
-1.342275379648391054e-01,-1.256712184115987840e-01,-2.826466865599344125e-01,4.160074828218266602e-02,3.024385181665895095e-02,3.614712674015681942e-02,1.876889914274215698e-01
-1.479598250081433641e-01,-1.550225204444312943e-01,-2.915617742457582984e-01,-8.588730668847929664e-04,7.138328145247456848e-04,2.220787956636751477e-04,1.402179598808288574e-01
-1.512721264333700411e-01,-1.336904801224552131e-01,-2.856310928522718950e-01,-3.532640391855374623e-03,2.647658125462191633e-03,-2.174190867124840137e-03,1.442093849182128906e-01
-1.429943190922194907e-01,-1.607934454411209246e-01,-2.964606528776264627e-01,-2.707323565974883365e-04,2.581910882163793164e-03,-1.728919063582381316e-04,1.454560607671737671e-01
-1.455371699207837488e-01,-1.547497705566376891e-01,-2.926872567830539063e-01,-5.633168019742579996e-03,2.094262753919812810e-03,-2.610010849618125267e-03,1.432172358036041260e-01
-1.517448598059812082e-01,-1.281432964554156673e-01,-2.810281413801063444e-01,-1.710953568459576369e-03,-8.028185250736214742e-04,1.261918766450919986e-03,1.426112949848175049e-01
-1.482224669869918465e-01,-1.600388640442426125e-01,-2.935199807112662818e-01,-8.075805075493738567e-04,1.334023482713540733e-03,6.008130809333614214e-04,1.397944241762161255e-01
-1.531384695939887186e-01,-1.293332988551221807e-01,-2.762285544254030611e-01,-4.221180819923103962e-03,-2.966861402294824839e-04,3.205806469327265266e-03,1.368670463562011719e-01
-1.495762618734302329e-01,-1.304154827075749701e-01,-2.820801297882761238e-01,-2.148760723199896663e-03,-1.017855860852615339e-03,7.490377733346406056e-04,1.431150883436203003e-01
-2.518491379860931523e-01,-2.093563679058698945e-01,-4.313133622819653734e-01,4.107350631936879798e-02,-4.455434896693123703e-02,-6.923531059243304142e-02,2.589129805564880371e-01
-1.359060452622195825e-01,-1.237935307423182751e-01,-1.492062262274310991e-01,-8.710751476078101505e-03,2.313413306891802523e-02,-1.798991024634054997e-02,5.734817311167716980e-02
-1.474250942886349836e-01,-1.689966534915100793e-01,-2.999553691442513603e-01,4.802259060211773304e-04,-8.735661709977459019e-04,-5.448904455625230977e-04,1.429838240146636963e-01
-1.396283702975676388e-01,-1.522317995022593740e-01,-2.902666603062618589e-01,-1.626159596368902029e-03,1.252601111707810641e-03,2.461571801297392985e-04,1.447929739952087402e-01
-1.500367414538062993e-01,-1.461904824891460120e-01,-2.908084466397803936e-01,5.600018940294219667e-04,-6.809050700266980772e-04,-1.567559408791985396e-04,1.427421271800994873e-01
-1.409585660532918228e-01,-1.415589366297046181e-01,-1.869928094551502884e-01,-1.031389497646441680e-02,-1.078979150159387057e-02,1.251943634573133256e-02,5.683723464608192444e-02
-1.215314610440018511e-01,-1.393203497726252238e-01,-1.741593798133730386e-01,-7.643450968532502880e-03,2.875091497988367661e-02,-9.208825317523684773e-03,7.112994790077209473e-02
-1.850565828069391239e-01,-1.400833039165004790e-01,-3.053760249737879073e-01,1.011409574732922284e-02,5.306700268287414118e-03,3.399034283299193909e-02,1.605238914489746094e-01
-1.282973463089481514e-01,-1.390239183022329017e-01,-2.240595234806622982e-01,-9.850034513117059826e-03,1.729254335974551166e-02,-5.606823105917473071e-03,9.767665714025497437e-02
-1.526554853305046033e-01,-1.510944018041178172e-01,-2.998364418379614316e-01,-9.439403628520429135e-03,-4.217158065262036591e-03,1.973941570087967608e-03,1.490864902734756470e-01
-1.432838353743907389e-01,-1.486889165849715200e-01,-2.889570133220972781e-01,-4.754619016896440703e-03,-1.641144483342816271e-03,1.156885901894008119e-03,1.433262974023818970e-01
-1.288085902701606167e-01,-1.279846405912553331e-01,-2.579915956885471817e-01,-1.030727307741246407e-02,-6.423551055055978440e-03,7.732458004537578859e-03,1.319744139909744263e-01
-1.481100918042960735e-01,-1.474561061991331856e-01,-2.906879092284498367e-01,-1.868903052641791417e-03,-2.842675055924066938e-04,3.119525162466687835e-05,1.429434418678283691e-01
-1.464744811972499561e-01,-1.441587315977902461e-01,-2.881197353869586752e-01,-1.340386234293495897e-03,-7.793585166940568244e-06,4.173123940658018320e-04,1.428379118442535400e-01
-1.467845847878669618e-01,-1.396567428076023742e-01,-2.852104180126840416e-01,-2.859825291083287115e-03,-7.672616679346758693e-04,1.033547376423468896e-03,1.422276347875595093e-01
-1.590471086205974827e-01,-1.621200280515342762e-01,-3.099383471620358876e-01,7.767301312650768882e-03,1.804011480672069968e-03,-1.322382915775123036e-03,1.500331163406372070e-01
-1.664511850262305193e-01,-1.503668333523022205e-01,-3.093090775153150007e-01,5.789459223864067312e-03,-1.092785889211236958e-03,1.451755024860728162e-03,1.519056260585784912e-01
-1.523440758019868890e-01,-1.483459179923313498e-01,-2.980370017586688736e-01,1.281355974724664691e-02,4.543085656444351660e-03,4.237678727545733659e-03,1.497774124145507812e-01
-1.287323888934449045e-01,-1.576072958286308112e-01,-2.869231496344911148e-01,4.565571107082478123e-04,1.625845455897066087e-03,-4.987776842935274938e-04,1.459439396858215332e-01
-1.474831132412784129e-01,-1.446399257019319040e-01,-2.885961591263319637e-01,9.395568664481099026e-04,-4.729413088327728289e-04,2.637502593404714008e-05,1.425675600767135620e-01
-1.319395400743608726e-01,-1.234476334438416034e-01,-2.748081845362450037e-01,1.988979794336622267e-02,9.736596903544400897e-03,9.814027086126966143e-03,1.531566232442855835e-01
-1.502108563868229940e-01,-1.574143465484973969e-01,-3.174142241557703636e-01,2.444811540129941674e-02,2.336383034330112227e-02,2.382603728743304047e-02,1.787125766277313232e-01
-1.531321548998419435e-01,-1.423417218079898738e-01,-2.881236840180417813e-01,-2.536414804103238711e-03,7.275102899568800180e-04,-7.513071132880421365e-04,1.407776474952697754e-01
-1.467909836024320624e-01,-1.479042270297475925e-01,-2.885699716252136948e-01,4.537116265894709354e-04,-5.377336311410778596e-04,-3.372551469465440805e-04,1.412321180105209351e-01
-1.515438924723602754e-01,-1.286229428615550674e-01,-2.779140203562873168e-01,1.157035839660979989e-02,9.771341280080256958e-03,1.204135243950854584e-02,1.432282924652099609e-01
-1.331964524187512766e-01,-1.466439176837697478e-01,-2.442984846595254167e-01,8.074323027276095882e-03,2.664510216568109074e-03,1.071408926283291834e-04,1.060536280274391174e-01
-1.435308190271882278e-01,-1.470853931473270482e-01,-2.883309287933036869e-01,1.321666045086812525e-03,-3.521846287500198912e-04,-3.437015400864927621e-05,1.430755704641342163e-01
-1.472677599554928773e-01,-1.466323996958022735e-01,-2.878110324366940365e-01,-3.553343043706752667e-04,3.268292420240675599e-04,-5.278592597729697255e-04,1.408674716949462891e-01
-1.714023023073413809e-01,-1.413614854184405134e-01,-3.074195906571405845e-01,7.842743709935913118e-03,2.454078813183630404e-03,9.248716718686640290e-03,1.547528207302093506e-01
-1.631094855548297640e-01,-1.361034786561836629e-01,-2.996391123012704383e-01,-1.771973011337373569e-03,-5.462602007847787954e-04,-2.293847535756147679e-03,1.519305258989334106e-01
-1.550755991042485626e-01,-1.505716212144365129e-01,-2.922167587237205488e-01,-1.887382962833251661e-03,-6.393222478006516368e-04,5.734785219157250346e-04,1.394939571619033813e-01
-1.519715745259175854e-01,-1.508639942599205308e-01,-2.875772037573731676e-01,2.911241805119807696e-04,-1.678976179534066751e-04,1.375162926079686058e-04,1.361642479896545410e-01
-1.490436203713357000e-01,-1.475891215914294785e-01,-2.872872374405402995e-01,-3.806336542319526967e-04,1.727709348165510056e-04,1.131316400990298090e-04,1.389786005020141602e-01
-1.272351802867621728e-01,-1.289843770297600944e-01,-2.847194084810971693e-01,-1.927035572104690217e-02,-1.169739843945473597e-02,9.564557754517736057e-03,1.622585654258728027e-01
-1.609432476917493360e-01,-1.435147252652280159e-01,-2.945430521634842536e-01,-1.136369176375310111e-03,-1.165545013258254990e-03,1.335144036559524202e-03,1.431586742401123047e-01
-1.435169601797604277e-01,-1.480611013000707188e-01,-2.914651927820444133e-01,-1.260327808727520387e-03,3.440941059326540086e-04,-9.220882859737323232e-05,1.457469612360000610e-01
-1.436595393975025892e-01,-1.436973033239122288e-01,-2.795430858245564476e-01,-8.952496609216009996e-03,-6.276033225422648302e-04,2.151093639832261581e-03,1.368017345666885376e-01
-1.521114680120766449e-01,-1.496822943814546947e-01,-2.875798045872137165e-01,-4.910887833764759772e-04,3.600035288880925710e-04,2.246492058098204631e-04,1.367037296295166016e-01
-1.502323410514458668e-01,-1.492405797644852095e-01,-2.873538862658058246e-01,-5.830881213288173796e-04,2.586105153384816785e-04,-3.629863185647804412e-04,1.376259773969650269e-01
-1.498949548101926321e-01,-1.146728757665326920e-01,-2.735004894889850879e-01,-3.559716962957120388e-03,2.858131193738481721e-03,-1.652786857693282555e-02,1.474944055080413818e-01
-1.320001095504295396e-01,-1.456938112335671720e-01,-2.590965883639612111e-01,1.120265579543074617e-02,-8.890514464995761049e-03,-5.252489126656588805e-03,1.236810386180877686e-01
-1.670158390860414510e-01,-1.352664072639327975e-01,-2.969803191132623921e-01,-3.418399479815586268e-04,-4.840782863418129816e-04,-1.841845691895529309e-03,1.484463661909103394e-01
-1.559686069012489740e-01,-1.426731125299400271e-01,-2.895480017723335298e-01,-7.788604427962362350e-04,4.615053351835390937e-04,1.086457198396262834e-03,1.407203972339630127e-01
-1.628693045652960525e-01,-1.206885932769858200e-01,-2.780167738144237455e-01,-1.079094665333559357e-03,-2.843737202315036581e-05,-1.476586277810694632e-02,1.433622688055038452e-01
-1.518535615020007168e-01,-1.511364543478979083e-01,-2.869894374839705997e-01,-4.629992957837174143e-05,2.429581444090799229e-04,1.631905872458648793e-04,1.354968249797821045e-01
-1.679918760589017568e-01,-1.284125785241412854e-01,-2.850385833234615474e-01,-8.711088580143451152e-03,1.593894404280525286e-03,-1.777150882772719764e-02,1.451958268880844116e-01
-2.658859595543433540e-01,-1.865890787069276191e-01,-4.215638283237536643e-01,2.111710120947305272e-02,-1.940638415477313403e-02,-7.813668680623497842e-02,2.522934973239898682e-01
-1.428953968145652287e-01,-1.421387785999604081e-01,-2.879904064706603206e-01,-4.390987153707989104e-04,-5.993499100036146283e-05,3.123152252104278558e-04,1.454778313636779785e-01
-1.329347172238890540e-01,-1.488386455611998838e-01,-2.830108950997856643e-01,-1.301762892312336795e-03,-1.233758272951703883e-04,5.682702363710558178e-05,1.428080201148986816e-01
-1.462148429173655284e-01,-1.408635834852050850e-01,-2.883478648177205117e-01,-9.178935863848589928e-04,-4.849546160115832203e-04,5.036838000397161116e-04,1.448965668678283691e-01
-1.588452663842489510e-01,-1.348687270755700163e-01,-2.974340529657950594e-01,-6.694474395499212978e-03,5.114414195242710740e-04,-4.652927915183424764e-04,1.524483114480972290e-01
-1.557001536997006386e-01,-1.378580846540199412e-01,-2.886045681935084928e-01,4.900392688371736074e-04,2.629526060454599095e-04,8.801363590317791375e-04,1.426760852336883545e-01
-1.410819775136300802e-01,-1.453807057597012731e-01,-2.873918685716925769e-01,3.759904837072059348e-03,-3.829103936869561139e-04,-5.967212386933722860e-04,1.443607807159423828e-01
-1.563237300061475765e-01,-1.293956712489316430e-01,-2.892966122188255218e-01,8.700536648280850259e-04,1.157933056865032744e-03,4.322702652847744929e-03,1.484922915697097778e-01
-1.379270506128220941e-01,-1.441045969138131100e-01,-2.854558580894513420e-01,1.153952895136180646e-03,-5.486712440089204154e-04,-4.410630781875957769e-04,1.445580422878265381e-01
-1.433474663292031159e-01,-1.533311110846553582e-01,-2.910461091608626538e-01,1.372011003975734693e-03,3.120839389893011900e-04,-1.157356908931491443e-04,1.429894119501113892e-01
-1.461883187186286404e-01,-1.402637127930909666e-01,-2.867753217383717801e-01,-1.072773980923254905e-03,-1.516977713871232934e-04,1.975656494448323544e-04,1.436536312103271484e-01
-1.410878992083331174e-01,-1.432426866969623291e-01,-2.880464414518631444e-01,1.334709542858442555e-03,-1.633365059533847211e-04,2.201706108260560507e-04,1.459121704101562500e-01
-1.610905958518134840e-01,-1.394810339031827273e-01,-2.974846208578630913e-01,-1.830339395038616023e-03,-1.854798076964292311e-03,1.756718155707780865e-03,1.484834998846054077e-01
-1.543950764223045724e-01,-1.182839361672289175e-01,-2.701377910535747717e-01,-3.595400867106102096e-03,-2.673582040320680257e-03,1.430881002815740342e-02,1.398372054100036621e-01
-1.555801980513883687e-01,-1.490956861189167149e-01,-2.895821522172052354e-01,-7.369354444092470098e-04,6.052205592332934175e-04,5.547974056633528384e-04,1.373723447322845459e-01
-1.765673005055868605e-01,-1.167964037169231667e-01,-2.421016278074656913e-01,5.525398058145591798e-04,-5.610971766925144238e-03,4.256137314779951525e-02,1.315831691026687622e-01
-1.581915643258801074e-01,-1.404633561147750065e-01,-2.937343822521248926e-01,5.286107874913803691e-04,-8.221421475984535231e-04,3.578848940448628728e-04,1.452319771051406860e-01
-1.636585660216865190e-01,-1.298279268851991741e-01,-2.888698509009837156e-01,-5.207455714483563832e-04,-2.909726159437719603e-03,4.240724516697394475e-03,1.453909277915954590e-01
-1.606591158888723281e-01,-1.450434031673214774e-01,-2.933397576909414495e-01,-8.400095267920381059e-06,3.244577060888808868e-04,-1.383315970944285671e-03,1.411593556404113770e-01
-1.565663492185555006e-01,-1.515014137836990793e-01,-2.933184833654657320e-01,-3.784144629640998222e-04,9.721238736632075914e-05,-1.053113518151363014e-03,1.393672376871109009e-01
-2.071342538293637625e-01,-1.543434015400573511e-01,-3.264000144933724146e-01,-8.300916914680574535e-03,-1.049140363909203781e-02,4.114976788102917005e-02,1.700710803270339966e-01
-1.401559383642468903e-01,-1.391052358378782050e-01,-3.033337041034955828e-01,3.611387005097454334e-02,3.244283162546281185e-02,2.858938615257282725e-02,1.905829012393951416e-01
-1.615115532601821002e-01,-1.270881983823072270e-01,-2.848142700319855058e-01,-2.663047288690392105e-04,-3.158761815700059095e-03,3.336453717250387630e-03,1.438629925251007080e-01
-1.521525552303486517e-01,-1.429154368999401292e-01,-2.879579394122588343e-01,1.306223653192595301e-03,4.072009260372728149e-05,7.487973460190239195e-04,1.406758129596710205e-01
-1.448101431381902671e-01,-1.358384794615230540e-01,-2.837636032124693508e-01,4.003832982458013952e-03,-9.057974485221612125e-04,-4.504411906170376631e-04,1.438275426626205444e-01
-1.438281122345202445e-01,-1.409114112101304273e-01,-2.869575413260143648e-01,2.818781729617121732e-03,-3.458397947340825459e-04,-1.297219667045751814e-04,1.446936428546905518e-01
-1.466346936152186642e-01,-1.373617046349023263e-01,-2.858168691315267074e-01,2.268468817043840617e-03,3.746937283883714539e-05,9.462696595886573633e-05,1.440963894128799438e-01
-1.491358641310147615e-01,-1.958006454149640585e-01,-3.497910822261989239e-01,-8.534171406585230879e-03,1.912142331143533783e-02,-2.059620159690342400e-03,1.854850202798843384e-01
-8.092368296090415858e-02,-1.131710411387660126e-01,-1.854661436387490259e-01,-1.260807605974730537e-02,2.783689089202895026e-02,-1.826866813078702884e-02,1.113579869270324707e-01
-1.339343550071478428e-01,-1.619630078543812524e-01,-2.947577420423947991e-01,-3.482644600469446752e-03,9.343457191059676217e-03,2.309799165581869309e-04,1.498017013072967529e-01
-1.298022143564801500e-01,-1.629735611816438001e-01,-2.973176633886452924e-01,-2.797244488267182274e-03,5.184461186914192908e-03,-6.696958591869381393e-05,1.539778411388397217e-01
-1.548512889191047681e-01,-2.026915507183970344e-01,-3.574874102198564163e-01,1.563406641334334421e-03,8.641376113240242796e-03,3.494898100018131986e-03,1.841844767332077026e-01
-1.506220485520849417e-01,-1.493350406633791871e-01,-2.890401292703713709e-01,5.304147038837814179e-06,-3.565617350586819758e-04,-1.373931057095978717e-04,1.390676200389862061e-01
-7.127665219369483385e-02,-1.165988498145061475e-01,-1.888450386642222534e-01,1.891067245824213164e-02,7.344084827339540655e-02,2.321226892745237649e-02,1.715165078639984131e-01
-1.332103531858426226e-01,-1.503787353989906594e-01,-2.853591005035631678e-01,2.908913181259038545e-03,1.470037368951937354e-03,9.342240752613554080e-04,1.444518417119979858e-01
-1.307255511336647136e-01,-1.548502777139065811e-01,-2.850566628714910067e-01,1.712433629986213337e-03,1.540326676126520830e-04,5.130864416699717004e-04,1.438282132148742676e-01
-1.286832892148646601e-01,-1.731211376287783432e-01,-3.222780564281998439e-01,9.516472037207193485e-04,1.646444585642641706e-02,4.470794500478168614e-03,1.781197190284729004e-01
-5.163269193748382113e-02,-1.405977075874745297e-01,-2.511957445271529310e-01,1.176092306575183969e-03,4.764048658506981476e-02,-6.595502129821182932e-03,1.921706348657608032e-01
-8.011701509677544852e-02,-1.682697649644352145e-01,-3.198241986010169624e-01,-1.839415623871012984e-02,4.286449834056919178e-02,9.808359430793292533e-03,2.256442755460739136e-01
-1.522935067068306725e-01,-1.486366012396556635e-01,-2.898844198126440119e-01,-2.358989326638970350e-03,3.042947858847811583e-05,2.779460122496154911e-04,1.395160108804702759e-01
-1.289839545614812899e-01,-1.078505588091213108e-01,-2.552711939326812729e-01,-2.102433227530422361e-02,3.395271977938096181e-02,-5.021614064053466636e-02,1.772381961345672607e-01
-2.278530380009669010e-01,-1.709543695107771932e-01,-4.075483071185436179e-01,-3.002441869386368242e-02,-7.465023538764027633e-03,-7.759775485656340843e-02,2.582403421401977539e-01
-1.330651406894608202e-01,-1.649371269053117040e-01,-2.740405116326849466e-01,2.088847665786753826e-05,1.050572927215499526e-03,6.455168618393675086e-04,1.280674636363983154e-01
-1.504011155878114681e-01,-1.515321593926083066e-01,-2.868012998846315997e-01,-4.445592684635500257e-04,2.206023405551263894e-04,-3.452347551625406085e-04,1.358422338962554932e-01
-1.181370563485466679e-01,-1.440643965171382601e-01,-2.569927957661792828e-01,1.520845078158931203e-03,6.952078364999405256e-03,-2.155376094127706577e-03,1.285256892442703247e-01
-1.420183039063278307e-01,-1.478365334606603909e-01,-2.871944383375941157e-01,-1.376195669883951674e-03,-2.880401766386543193e-04,5.120172574339328548e-05,1.423770785331726074e-01
-1.674744599187245608e-01,-1.564016368515421807e-01,-3.125299073075596401e-01,-6.526889099147104717e-03,-1.253500074843763839e-03,1.267076645240468920e-03,1.513512283563613892e-01
-1.519342741068660796e-01,-1.390607179532150073e-01,-2.873615614868408330e-01,-2.791096901444592004e-03,1.012850750396010122e-03,-1.459832141404085589e-03,1.424168199300765991e-01
-1.929917241133725647e-01,-1.527256691542553391e-01,-3.352080235916589657e-01,-1.048896630031715543e-02,7.499320401209692497e-03,-1.789281139533347234e-02,1.703894138336181641e-01
-1.562331964818317043e-01,-1.360445049381449611e-01,-2.963859913174743954e-01,-5.653995188492177797e-03,-2.029240007908049512e-03,-6.695865360104625436e-03,1.520613431930541992e-01
-1.663039268459360898e-01,-1.499334918382886350e-01,-3.308543963503991492e-01,-1.473535542786202392e-02,1.228674784928510122e-03,-4.911522276441436345e-03,1.754049658775329590e-01
-1.485460140629674131e-01,-1.480746737775421318e-01,-2.887532495844852276e-01,2.493867615567570421e-04,4.173118306291657260e-04,2.398030792472597632e-04,1.404466331005096436e-01
-1.503237391131439227e-01,-1.524405851927846389e-01,-2.870753826879063331e-01,-2.516994746983142704e-04,4.595998610713343947e-04,1.376088066279956812e-04,1.357088536024093628e-01
-1.456535557225239474e-01,-1.453688688650353333e-01,-2.890821079311868269e-01,3.039981569355556818e-04,2.344912127380003133e-04,7.154873057950017631e-05,1.435727030038833618e-01
-1.469370248112934485e-01,-1.474202844815114821e-01,-2.888335052554130700e-01,1.751922125594093226e-03,5.455024769904111542e-04,1.429677186928287214e-04,1.416913270950317383e-01
-1.272653084777831956e-01,-1.545034323423332412e-01,-2.841471964066137890e-01,-9.684820953636204309e-04,1.954530469487114012e-03,-5.209307366676383094e-04,1.452438086271286011e-01
-1.478737475763509113e-01,-1.289295766517220831e-01,-2.060008563589010855e-01,1.273728913823139047e-02,-1.712553697408301934e-02,-2.457782219936492998e-02,8.954098820686340332e-02
-1.397828816946017905e-01,-1.445176796197267799e-01,-2.862274837601019861e-01,-1.010471439979205828e-03,-4.965786797713443723e-04,2.433730971853741306e-04,1.441493481397628784e-01
-1.452720572580437908e-01,-1.467706328275428240e-01,-2.882057976491129714e-01,8.139245524407337246e-04,-1.740785728920685106e-04,9.779753842355424858e-05,1.421977877616882324e-01
-1.280635832352631787e-01,-1.019008152621967006e-01,-9.445980367050835214e-02,1.448081932203455942e-02,3.631409500849263478e-02,5.630768966497450706e-02,1.226027235388755798e-01
-8.735022441587690645e-02,-9.256279220987120859e-02,-1.071893344322573105e-01,1.874003106145298234e-02,5.169030758396502001e-02,5.419769666345641140e-02,1.349027454853057861e-01
-1.567896015503854878e-01,-1.663065024466717501e-01,-1.724043323032707353e-01,1.361118041779905627e-02,3.021740109018533973e-02,2.020415098792674446e-02,6.859648227691650391e-02
-1.547435202208858884e-01,-1.461972595913519912e-01,-2.895394495817553149e-01,-1.000800367734639004e-03,2.307724847026874297e-04,-1.084153617814684854e-03,1.392898857593536377e-01
-1.678603495828724923e-01,-1.494860286771157454e-01,-1.553334604379154604e-01,1.067880618773468272e-02,2.427548958761265030e-02,3.313166119354933603e-02,7.528276741504669189e-02
-1.662022980958134943e-01,-1.480029760699829444e-01,-3.014263092958706092e-01,2.933450626792072444e-03,2.397668510693401998e-03,-2.053681103953052672e-03,1.453734785318374634e-01
-1.584728237459273048e-01,-1.273259096394095680e-01,-2.793902800415693499e-01,3.601558404914536942e-04,9.465073001442907109e-05,6.491146414541939125e-04,1.391367912292480469e-01
-1.466226118845123938e-01,-1.474946161029241920e-01,-2.874644744183814660e-01,-2.445771231657328749e-04,-2.016970719673658269e-04,3.080132168273402014e-04,1.404099762439727783e-01
-1.423906912403866964e-01,-1.408827804336969247e-01,-2.881338597510461064e-01,1.368723599827727710e-03,-3.052252132435074390e-04,1.177577012391881539e-04,1.465232223272323608e-01
-1.410909820545163951e-01,-1.427152239590960270e-01,-2.883880030537386840e-01,1.326976271672770328e-03,9.666543809409362237e-06,-1.370466099333535138e-04,1.465098708868026733e-01
-1.445518128655550738e-01,-1.452778023613203184e-01,-2.891511893587887516e-01,1.589972731096997221e-03,-3.115673100962529905e-04,8.227116966651332739e-05,1.442651152610778809e-01
-1.419461163650842517e-01,-1.404175994099310654e-01,-2.871250100731539412e-01,1.155264002460040448e-03,-7.369312934781911803e-05,-8.773415395622318771e-05,1.459630131721496582e-01
-1.424665964974131394e-01,-1.432058594005936047e-01,-2.892954598642661357e-01,2.317408323702439929e-04,-7.652548646861353718e-05,-2.458071884899286865e-08,1.464612483978271484e-01
-1.332924163494248193e-01,-1.573876482145638855e-01,-2.893574008810207987e-01,-1.404594869219826436e-03,2.279329168144629374e-03,-1.321093714594714366e-04,1.455953121185302734e-01
-1.574378929297674257e-01,-1.241846795356874728e-01,-2.755528735495177406e-01,-5.319056204178535365e-04,-8.434990356006620286e-07,1.539749807480147396e-03,1.378135979175567627e-01
-1.392722372472070258e-01,-1.470711990827445470e-01,-1.691150438424730285e-01,-7.560101270931223263e-03,-2.307828066137597098e-02,1.972692127007109105e-03,4.999634996056556702e-02
-1.421468261637780228e-01,-1.428468234338742260e-01,-2.887156993961240703e-01,2.194220453680148335e-04,-1.498528329000541710e-04,1.343048415442036464e-04,1.462210416793823242e-01
-1.613585134543026600e-01,-1.456583925450636030e-01,-2.970214823964990591e-01,1.208507066316555568e-04,-3.767919280220495245e-04,7.310694331640276399e-04,1.441628634929656982e-01
-1.498043199787510993e-01,-1.595501860652502879e-01,-2.922074170306022123e-01,-6.636479022348743331e-04,2.386936937553245364e-04,3.578608930302401353e-05,1.377943307161331177e-01
-1.496742301078829718e-01,-1.497485328508422475e-01,-2.880434703280422282e-01,-1.597097667723154125e-03,2.788779736683138556e-04,-1.294966364339722497e-04,1.383607834577560425e-01
-1.510180363606255516e-01,-1.504898674882500231e-01,-2.880480773154958096e-01,-3.312733466201036431e-04,4.142455768960583650e-04,-2.332119799137716135e-04,1.372985541820526123e-01
-1.462607960098189497e-01,-1.482711037069353310e-01,-2.875741704321106984e-01,-1.157075278497464704e-03,1.962656505881782117e-04,-4.560499915416578454e-04,1.403359621763229370e-01
-2.092385477873819344e-01,-1.558147125285457846e-01,-3.266186380086881780e-01,8.632914878055198207e-03,-4.880979369389629695e-03,-3.765896548375666925e-02,1.656886637210845947e-01
-1.498925589769338762e-01,-1.500692204548840225e-01,-2.896340026877445295e-01,-1.285221856940259658e-03,-1.126500218749143832e-04,-4.458100708597847171e-04,1.396732032299041748e-01
-1.477673310257725525e-01,-1.490079247668106843e-01,-2.876797618723030969e-01,-6.812156164678560269e-04,-7.763337080114195480e-05,-2.185832758031903489e-04,1.393018513917922974e-01
-1.600342477714481459e-01,-1.360982354546297624e-01,-2.805885937996638879e-01,6.688183032969636024e-03,-2.435913051801573501e-03,-8.352256256928791353e-03,1.354738026857376099e-01
-1.589392757957981683e-01,-1.457466074367543829e-01,-2.917039737187337445e-01,7.890057691408669483e-04,-1.062221290952258725e-03,1.983031309654136867e-04,1.398477852344512939e-01
-1.458819368956415508e-01,-1.450527327474577244e-01,-2.858376378641273030e-01,2.277928098258656230e-03,-6.131581607577172915e-04,-3.534820656184380528e-04,1.404329240322113037e-01
-1.527878331201658058e-01,-1.517929550594064314e-01,-2.881636862588570769e-01,-6.975928354148572177e-05,2.977191079919198772e-04,1.818493006965707381e-04,1.358774155378341675e-01
-1.553029525665947375e-01,-1.488197681981902609e-01,-3.018848095369044415e-01,2.156111257935926576e-02,-1.204211660932476800e-02,-1.119938843371280461e-02,1.571131795644760132e-01
-1.627070923394059732e-01,-1.432576349434527274e-01,-2.964250260600600484e-01,4.025736078719440933e-03,7.484713247216574512e-04,-3.061262157153234360e-03,1.446994245052337646e-01
-1.523059154196245990e-01,-1.389428292463653625e-01,-2.893021262635874780e-01,2.677257402451734426e-03,-2.970212157880890790e-05,-5.099606368095236817e-04,1.442203521728515625e-01
-1.515273883082100814e-01,-1.351008195292181524e-01,-2.869565656418539557e-01,3.434390783820778087e-03,-1.112981990756337731e-03,-1.959304678632108228e-03,1.445204168558120728e-01
-1.648814505175734135e-01,-1.371937321778775587e-01,-2.930229054961256407e-01,2.317552026679939575e-03,-1.402761650944132779e-03,-1.572977297590031102e-03,1.440979689359664917e-01
-1.340368896272459698e-01,-1.580087839832230723e-01,-2.900465599540951178e-01,-5.471762350361892083e-04,1.797992106976020266e-03,-3.780935211800096583e-04,1.455501466989517212e-01
-1.429023905736300226e-01,-1.419192676698307065e-01,-2.841568979940134465e-01,-3.806389151945610040e-03,-1.166241871565267376e-03,1.061241108567997568e-03,1.419281363487243652e-01
-1.549218106416240248e-01,-1.505164242080902492e-01,-2.894428728845006571e-01,4.568679333959927823e-04,2.595586895597195567e-04,-2.022664640849410674e-04,1.367804557085037231e-01
-1.432830135658954840e-01,-1.438303207084328239e-01,-2.895113116496456085e-01,-2.730543538282582776e-03,2.695012501991429321e-04,4.721162297899939627e-04,1.460350602865219116e-01
-1.442696428195983094e-01,-1.432075816110496003e-01,-2.875634595143296002e-01,-2.794558864845678951e-04,2.997750020525152847e-04,-1.577631420482099734e-04,1.438297927379608154e-01
-1.422211416044721621e-01,-1.429169167434540533e-01,-2.887572733288656934e-01,-5.913973341470392647e-04,3.093217555160571479e-04,-3.317609978021771408e-05,1.461940705776214600e-01
-1.403224171001219434e-01,-1.420712450270157357e-01,-2.869637295253206211e-01,-1.953865388332468988e-03,-8.368269542724782715e-05,5.335646538777923413e-04,1.458170413970947266e-01
-1.484670906394118250e-01,-1.387488347886710882e-01,-2.857194286693239826e-01,-4.426956859612020574e-03,-8.505916552881486554e-04,1.191360420166923367e-04,1.425745785236358643e-01
-1.374111750128982623e-01,-1.442332067038493426e-01,-2.747743593500078796e-01,-7.366394781051627955e-03,-2.041570082730892813e-03,1.098561095425752872e-03,1.347479224205017090e-01
-1.356099571746810506e-01,-1.441965610046684887e-01,-2.830403689596044936e-01,-3.880869778161260154e-03,-1.735471248987310519e-03,-1.479848482482532793e-04,1.435193866491317749e-01
-1.479910659977236864e-01,-1.442841832444513028e-01,-2.886051918149680207e-01,-1.028355375837802397e-04,-1.611805329164865729e-04,1.359117091192139036e-04,1.425043046474456787e-01
-1.350722797015537213e-01,-1.444947902811215268e-01,-2.826078304638180994e-01,-1.325893249790960132e-03,-1.032281755401224556e-03,2.088456834247057539e-04,1.430872827768325806e-01
-1.496891913614280534e-01,-1.522713528700622432e-01,-2.880922396897207527e-01,-9.224665967604627013e-04,-2.805332318834837134e-05,4.615759582556147080e-04,1.371418535709381104e-01
-1.389829129220190307e-01,-1.531710283079857349e-01,-2.880818201824094649e-01,-5.046372156710043737e-03,-1.339276876527569415e-03,7.565535576696905693e-04,1.428280472755432129e-01
-1.552315088699249002e-01,-1.290299847995213800e-01,-2.819988957020323483e-01,3.671660337322054605e-03,2.696866474832250687e-04,-1.746282783178285287e-03,1.418724805116653442e-01
-1.516440323131361678e-01,-1.370950731994455274e-01,-2.854768455801490745e-01,4.476822367120676834e-03,5.795881608817132465e-04,-8.130163191925881151e-04,1.418912857770919800e-01
-2.633577691830782941e-01,-1.870083647557198858e-01,-4.112709522929528516e-01,-5.080398761838610285e-03,-4.548568460710634802e-04,8.763182163705537930e-02,2.492321878671646118e-01
-1.450693872726471212e-01,-1.642280237005055710e-01,-2.080209875862680247e-01,-3.704082652804858381e-03,-5.209239918591452093e-03,6.483025475011843777e-04,5.698877573013305664e-02
-1.509361198029348095e-01,-1.316317303568242392e-01,-2.822037537487424030e-01,2.438104793564640181e-03,8.392764267352616214e-04,-2.915814729213455432e-04,1.419792026281356812e-01
-1.521442338545923589e-01,-1.262363772199437406e-01,-2.752690937591693032e-01,3.640412200986402856e-03,-9.259418221454916633e-04,-2.188888717348354707e-03,1.381215155124664307e-01
-1.425538299547236543e-01,-1.692303385899447676e-01,-2.450711893785213757e-01,-1.063417852733096903e-03,-3.080541071447300775e-03,-4.186535188321286317e-04,9.229857474565505981e-02
-1.433831460334753782e-01,-1.494782483136856965e-01,-2.899872666288650924e-01,-4.227119791227149440e-03,-9.853201171656970989e-04,5.805609680802300589e-04,1.438536792993545532e-01
-2.267061042399169113e-01,-1.925631943836823012e-01,-2.333358845757896871e-01,-9.813719783284010831e-03,5.828893898432240851e-03,-8.496700945382221204e-02,1.532484441995620728e-01
-1.453544193845301979e-01,-1.492196586379094247e-01,-2.872306493499134916e-01,-9.279662301075357941e-04,2.475689585682889658e-04,7.081064151121825969e-04,1.399988979101181030e-01
-1.401662741339643747e-01,-1.419193272170360953e-01,-2.874509186264078142e-01,-1.006513893768311426e-03,5.111224691750047177e-05,-7.514201340720055443e-05,1.464264541864395142e-01
-1.344786525823463141e-01,-1.443184819360410764e-01,-2.844961244786797794e-01,-2.696667748219824020e-03,-7.363458499676811021e-04,6.823099311131637602e-04,1.454329937696456909e-01
-1.585804204803634432e-01,-1.428876691722731351e-01,-2.918043166315773540e-01,4.697832063009683718e-04,-8.669093689087793285e-05,-1.078956307862541071e-03,1.417381167411804199e-01
-1.570233219486226184e-01,-1.512477347227757785e-01,-1.978673879909239042e-01,3.900317746401617530e-03,-4.185059296676388839e-03,-1.420704053655950580e-02,5.139255896210670471e-02
-1.403330925580172084e-01,-1.460798418049125691e-01,-2.875137941089244142e-01,-1.394095542286886112e-03,-2.532187182373964651e-04,3.011170584258137718e-04,1.444149166345596313e-01
-1.388617470642325435e-01,-1.445259348774149410e-01,-2.858979347192837084e-01,-9.888146143914454574e-04,5.926316969341351160e-04,-5.841089608658923439e-04,1.443048566579818726e-01
-1.560859849257491827e-01,-1.284130986588017664e-01,-2.797492443365519055e-01,-1.610192229553081928e-03,9.893308203809676564e-04,7.346531045385254477e-04,1.396167725324630737e-01
-1.303200058842706732e-01,-1.493138237264793888e-01,-2.819038109388263269e-01,-1.569998923422571014e-03,-5.241766325622878187e-04,6.723347922371141448e-04,1.430693417787551880e-01
-1.368179468859809234e-01,-1.636508662205263254e-01,-2.880712732899957662e-01,-5.429157063383111687e-03,-2.629564844557977839e-03,1.701827220749849981e-03,1.402029395103454590e-01
-1.404622034446762480e-01,-1.474892352246180705e-01,-2.001447384366977778e-01,-4.185559335590928031e-04,-5.771440334425545493e-03,2.668678025260487995e-03,5.756572633981704712e-02
-1.277179384950307695e-01,-1.567426276675455421e-01,-2.814293220122277561e-01,-1.419199245983075383e-03,-5.702057299848800045e-04,7.233626269184508179e-04,1.414806842803955078e-01
-1.443854006742150697e-01,-1.627633838548243339e-01,-2.253777790306041862e-01,-3.984490419388459978e-03,-1.609861239634311630e-02,5.149367518490778270e-03,7.945886999368667603e-02
-1.449056105943187234e-01,-1.401441539647121370e-01,-2.868923988115651413e-01,9.746704847115619753e-04,-2.866445352109974983e-04,1.718862472958063647e-04,1.444374173879623413e-01
-1.303635035315326429e-01,-1.537465498092890348e-01,-2.781269119806741297e-01,-4.834748047454862779e-03,-2.826634572010041941e-03,7.618607778507993427e-04,1.379183381795883179e-01
-1.509918391011213223e-01,-1.541358721543455712e-01,-2.904884683106880860e-01,-2.337810214334045799e-03,-5.503688994283178213e-04,7.618339164386647103e-04,1.380205005407333374e-01
-1.273836282362620365e-01,-1.567964813464713392e-01,-2.849540709662346516e-01,-2.049601933855027449e-03,1.825593205427104284e-03,-8.797865033105499444e-04,1.452029198408126831e-01
-1.569698870396494805e-01,-1.342293019739174142e-01,-2.904278001880477023e-01,1.413683309044986430e-03,5.969576382428598864e-04,-1.975154583548621983e-03,1.462252587080001831e-01
-1.273383158296945983e-01,-1.515007652865052734e-01,-2.843804980957075346e-01,-6.148685462913593830e-03,6.069965240420414562e-03,-1.570685146736000137e-03,1.472511440515518188e-01
-1.361183460154120617e-01,-1.568709835480018300e-01,-2.913053153996409961e-01,-1.327663380897459600e-03,9.625552444237148045e-04,6.628535974098473177e-04,1.459538042545318604e-01
-1.390015649317191959e-01,-1.551556676220390008e-01,-2.920761033458855183e-01,-2.975242211719286104e-03,7.936646614429385843e-05,6.284646870620623190e-04,1.457660645246505737e-01
-1.409416090785430842e-01,-1.551847593000075243e-01,-2.907307280182747644e-01,-6.610305553691494043e-03,2.997167668356109406e-03,-8.025496589203374179e-06,1.437505334615707397e-01
-1.606229211634664367e-01,-1.438595254227253983e-01,-2.928735661702738802e-01,4.703135926920083546e-04,-5.219803789405500676e-04,-1.080174452177922210e-03,1.413972973823547363e-01
-1.329479863376785975e-01,-1.635363550766129326e-01,-2.773691775929397751e-01,-6.322409125374666566e-04,-1.219772806603747206e-02,-3.643529073023204839e-04,1.335045695304870605e-01
-1.593131497847070088e-01,-1.433959433721214982e-01,-2.922823905483490359e-01,1.293397420902577498e-03,-5.810737989758932428e-04,-2.127954334119151227e-03,1.416696608066558838e-01
-1.540809129140259248e-01,-1.321269819171656534e-01,-2.869300411368349568e-01,1.548383432440189307e-03,-5.483047880520227539e-05,-2.552660282032426058e-03,1.451694816350936890e-01
-1.347385071528272027e-01,-1.617647272731444485e-01,-2.961370458736458100e-01,-4.313600942809497907e-03,9.835228202126946803e-03,1.088464500890621873e-03,1.508889794349670410e-01
-1.319974228809455141e-01,-1.605415570983506901e-01,-2.704424445024574131e-01,3.542559340649419942e-03,1.228701473211727367e-02,1.536848501314055752e-03,1.285598874092102051e-01
-1.338613275732006003e-01,-1.615530996242177386e-01,-2.933466090190254838e-01,9.281194154638609415e-04,-2.449450401189017489e-03,8.095957502267021356e-04,1.476770490407943726e-01
-1.383200119473295686e-01,-1.502923456642981104e-01,-2.863251509978379516e-01,1.113316412108623530e-03,-5.968470795298103223e-04,2.830904286262354180e-04,1.424145996570587158e-01
-1.227487684006643570e-01,-1.406336048346679690e-01,-1.791973441693893165e-01,-2.236626381191277047e-02,4.558464167635487008e-02,-5.279800255498100919e-02,1.363607347011566162e-01
-1.277668479753981678e-01,-1.571806022454097229e-01,-2.164499640406706282e-01,6.974137487227782470e-04,1.618311424464556961e-02,2.445196839587245822e-03,8.322521299123764038e-02
-1.363219040499169532e-01,-1.740315440980695072e-01,-2.952705149032295306e-01,3.509005862225279392e-03,8.701325831128365121e-03,2.641369293733845155e-03,1.448371261358261108e-01
-1.279016334128832144e-01,-1.567626167672427628e-01,-2.668507906040692990e-01,-6.965782119190446799e-03,1.033384670455469480e-02,-8.245972374220931003e-03,1.296130269765853882e-01
-9.023279741573253521e-02,-1.108889267419595759e-01,-2.112301556672099290e-01,2.486585111590419381e-02,-6.221302415404267316e-02,-3.956537424264137265e-02,1.753005087375640869e-01
-1.262383964032987582e-01,-1.579738449379974874e-01,-2.604197834980516157e-01,-3.996084035164115984e-03,8.831094279775237102e-03,-3.702889697242518936e-03,1.227863281965255737e-01
-1.535807918898486335e-01,-1.512686811442922052e-01,-2.922766092697283158e-01,3.125868782897616924e-03,-4.069057267690932519e-04,-2.198708183882583120e-05,1.399727314710617065e-01
-1.591736129404562883e-01,-1.496464550705308150e-01,-3.027364705562960445e-01,6.775063688826601233e-03,5.523113495562403897e-04,3.691881013088733812e-03,1.491587013006210327e-01
-1.254907930931794258e-01,-1.569960927122596717e-01,-2.783801790741429194e-01,-2.809888234259652444e-04,-1.478394536371162662e-04,4.331634462007869033e-04,1.398277133703231812e-01
-1.519283510973908347e-01,-1.515444983142790469e-01,-2.875235868189554012e-01,6.279451816554872622e-05,6.177632052985409584e-05,5.378637146540067694e-06,1.357876509428024292e-01
-1.525213948743613934e-01,-1.522256767129322175e-01,-2.886026711167590242e-01,-1.233192448652617370e-03,-2.226341625054888932e-04,-1.223131529240760506e-04,1.362468302249908447e-01
-1.511853145257002762e-01,-1.463385839350707374e-01,-2.888284065679302404e-01,-6.377449236958733546e-04,-9.161221810752046436e-04,-5.228034305587155273e-05,1.401426941156387329e-01
-1.499782917069444887e-01,-1.494730719750894943e-01,-2.889893054605353062e-01,-1.601486882933152427e-03,-2.774564380256150007e-04,-1.850631596088625713e-04,1.392931342124938965e-01
-1.518721603780073814e-01,-1.523584014896990080e-01,-2.877168268705734833e-01,-2.267051715064560423e-04,4.837042595958788837e-06,5.853862826000535426e-05,1.356028020381927490e-01
-1.506025640774661944e-01,-1.509163785177490280e-01,-2.880448530769084137e-01,-2.435377170543407592e-04,-1.344147215292948525e-04,4.504461064050156206e-04,1.372887194156646729e-01
-1.427508137051856363e-01,-1.474186586832283430e-01,-2.891658992632700209e-01,-8.604113654565759706e-04,2.659460343278749928e-04,5.049221489515226535e-04,1.441489607095718384e-01
-1.515332718286011293e-01,-1.506816503317153777e-01,-2.872835976777334266e-01,-6.206246983226657108e-04,-4.199507513480678442e-04,1.447806512825098083e-04,1.361845433712005615e-01
-1.529726939069278313e-01,-1.312812084423649606e-01,-2.034823294858885412e-01,3.393765170034336847e-03,-4.161409018627184458e-03,-1.716206871777379087e-02,7.132662832736968994e-02
-1.441767685340660798e-01,-1.442274131891482791e-01,-2.894690638714170206e-01,-1.755401835240132883e-03,-5.380013084173766811e-04,9.031093464040914221e-05,1.453018635511398315e-01
-1.405739331402798276e-01,-1.423525571847964188e-01,-2.873087709209280471e-01,-1.116895342146642309e-03,-2.180927765582695911e-04,1.158566412329948674e-04,1.458671092987060547e-01
-1.408318673622582506e-01,-1.427471977930689639e-01,-2.881833283841907511e-01,-1.071774418415914493e-03,-2.191646422574120934e-04,6.140280211848963632e-05,1.464154869318008423e-01
-1.575640365629675244e-01,-1.251145598549386340e-01,-2.837345205686727656e-01,3.353994280346822478e-04,1.554913957539776092e-04,-1.627561692713884976e-03,1.451705247163772583e-01
-1.410637576508239621e-01,-1.426010841030102005e-01,-2.876278017576708868e-01,-1.032086704929223485e-03,-1.689765329602924517e-04,9.630299738262882564e-05,1.458128094673156738e-01
-1.348397728449993171e-01,-2.033316524210058984e-01,-3.660673312614220465e-01,-5.630302324071047304e-02,9.799006952359200912e-03,-3.520087883330156459e-02,2.362955063581466675e-01
-1.434051358749131311e-01,-1.434838733649355935e-01,-2.880028026538238306e-01,-1.746418219674051100e-03,-4.353068028943872015e-04,3.831806063345069634e-04,1.445934474468231201e-01
-1.279589668663760338e-01,-1.578034178117742881e-01,-2.824368028432287514e-01,-1.298145167580872688e-03,1.030168328224109709e-03,-9.390059251188668469e-04,1.419671475887298584e-01
-1.272353344798743680e-01,-1.597776903710061147e-01,-2.819386644837511557e-01,3.152436962843499253e-06,-4.777438774367257445e-04,1.610751384284957698e-04,1.412744671106338501e-01
-1.260573317579122277e-01,-1.575639085029870989e-01,-2.765983404536013213e-01,2.268612472219288557e-03,-1.893590325953783179e-03,-5.002012241703944094e-04,1.376196742057800293e-01
-1.292008144868981856e-01,-1.539268209174208257e-01,-2.813715733082580162e-01,-1.345236329779384878e-03,1.441815151393197991e-04,7.180970154597208848e-05,1.414575725793838501e-01
-1.294796064729419327e-01,-1.584362132209591878e-01,-2.833729311171796494e-01,8.388385653504348231e-04,-3.357633710316637707e-04,-2.060861581145035780e-04,1.416615247726440430e-01
-1.428836026519732794e-01,-1.408663967800624361e-01,-2.880995245055744669e-01,-5.882579468922929976e-04,1.370911131605372481e-04,-5.190214327556413431e-05,1.462387293577194214e-01
-1.529343116286013271e-01,-1.266652471879931852e-01,-2.849584640809288971e-01,-1.868702255431456069e-04,1.564076267351739128e-04,-2.606582093909865644e-03,1.470005214214324951e-01
-1.254219288952569400e-01,-1.565367934607425626e-01,-2.759002606066558450e-01,1.291679171719597964e-03,-2.758461641531279734e-03,-2.834246123908206729e-04,1.376874148845672607e-01
-1.397606968355207535e-01,-1.405522526351699331e-01,-8.657532871138962083e-02,3.309613201534987361e-03,5.993054474523938635e-02,3.126981667317397379e-02,1.288902014493942261e-01
-1.744626211188111120e-01,-1.767042201506016652e-01,-1.767275485275760227e-01,1.868949280699683073e-03,1.801121889359317413e-02,-4.709691206499890329e-04,3.145527094602584839e-02
-1.307211796281776972e-01,-1.522172186876348254e-01,-2.222236731876930382e-01,-8.716370934518626740e-03,1.470476218291399094e-02,-2.531397388769084534e-03,8.811177313327789307e-02
-1.608831476998143772e-01,-1.700256223423023405e-01,-2.318952654681039061e-01,-3.312791758553120750e-03,1.524246498817367554e-02,4.702907138351479673e-03,7.261785864830017090e-02
-1.354632060283758321e-01,-1.487709049878420398e-01,-2.338469985941777629e-01,-1.141172800677049681e-02,1.651487638537176353e-02,-2.416168603908932632e-03,9.886163473129272461e-02
-1.572696464433600561e-01,-1.253965870001010341e-01,-2.819591238285145129e-01,-3.301619832998929378e-04,1.291204948884538732e-05,1.108112075483491275e-03,1.433234214782714844e-01
-1.996563653341568989e-01,-1.541363514253952793e-01,-3.512726658890820697e-01,5.739271658147610845e-03,-2.167506455184750602e-03,9.543019899169481735e-03,1.798534691333770752e-01
-1.451365689817294691e-01,-1.326583487999703770e-01,-2.770363698464509694e-01,-5.674125476658889791e-03,2.923690182682699319e-04,-7.726645641626640141e-04,1.389164179563522339e-01
-1.420442268988927892e-01,-1.576939853650218826e-01,-2.321911604244200344e-01,-5.268288491191765524e-03,9.096468942569491123e-03,-2.343231500237053476e-03,8.549024164676666260e-02
-1.232831858550651333e-01,-1.688054780576236646e-01,-3.116396286491591172e-01,7.959746963549468152e-05,5.846182220477971064e-04,4.882815881913116739e-03,1.704364418983459473e-01
-1.425167002388728621e-01,-1.565154353624981787e-01,-1.858082866159555813e-01,6.006535527422509875e-04,1.962434445790819243e-02,1.362486465714817180e-03,5.124543607234954834e-02
-1.584986659639814333e-01,-1.577447887533570681e-01,-1.267669648533673032e-01,-3.517648128312488628e-03,1.955895918537937310e-04,-1.110738686096929620e-02,3.729484975337982178e-02
-1.505557641114005363e-01,-1.456008840886934552e-01,-2.885824852368815696e-01,1.278286065853081891e-03,4.819520125911042757e-04,-5.713332359493885401e-04,1.405930668115615845e-01
-1.559668867401076686e-01,-1.568634851197318880e-01,-1.658837392491397666e-01,9.858256111969581313e-04,6.552700251438296243e-03,-3.123901452097896771e-04,1.490900292992591858e-02
-1.347449034996769934e-01,-1.591888024401399981e-01,-2.913599569295048930e-01,3.134979205535118416e-03,3.468574256858175664e-03,1.914838252217818549e-03,1.461987495422363281e-01
-1.616229759321954340e-01,-1.591585935724112999e-01,-1.755826795263654150e-01,1.204306335614606295e-04,5.195279923050574906e-03,-3.690627454607706224e-03,1.890045031905174255e-02
-1.547396214096361244e-01,-1.589131504785133431e-01,-1.745062927529203722e-01,-1.204201612388582998e-03,3.606595358234071080e-03,-1.278236495346194053e-03,1.933694444596767426e-02
-1.621862748978629143e-01,-1.436698833132804831e-01,-2.965846675455661718e-01,-4.366285694354093153e-05,-7.009981651810049275e-04,1.003604867573096651e-03,1.445643752813339233e-01
-1.247794609300024588e-01,-1.579779940815314310e-01,-2.797406490262769330e-01,-3.832041381385358197e-04,2.840362423268959923e-05,-6.098567546288797669e-04,1.413229852914810181e-01
-1.286919259157085493e-01,-1.594856021725219175e-01,-2.838195904741476205e-01,-1.845480918986760642e-03,-3.353781833094276413e-03,1.935274201135852288e-04,1.424077451229095459e-01
-1.277554849684392480e-01,-1.563598816228662369e-01,-2.826139419659568497e-01,-1.046825312651881740e-03,-7.879137996856991734e-04,3.613587871790383075e-04,1.427419483661651611e-01
-1.228802943838293860e-01,-1.534876844711582367e-01,-2.717054544411762196e-01,-2.184429335780595921e-03,-3.458552776741455163e-03,-3.107836264087006763e-05,1.363113820552825928e-01
-1.335848694814393556e-01,-1.484111908173863792e-01,-2.798759725946837751e-01,-5.739368589190612865e-03,-3.209391798446069050e-03,1.496324337136541388e-03,1.399585157632827759e-01
-1.468212613212725171e-01,-1.383371947420726777e-01,-2.863432942623316269e-01,-1.923335260954602520e-03,-1.069291921230579225e-03,4.470682646535503323e-04,1.440042257308959961e-01
-1.370981641077405055e-01,-1.465714625382205649e-01,-2.866784588065350303e-01,-1.408725133653934269e-03,-4.572495355953945452e-04,1.457593857761358064e-04,1.450987011194229126e-01
-1.329790629568868565e-01,-1.475528235999737370e-01,-2.831347360694377868e-01,-1.294879014421140145e-03,-7.722363710584472440e-04,7.665190526720060907e-04,1.434551179409027100e-01
-1.575104760598766696e-01,-1.265013074221449652e-01,-2.808717996328861655e-01,6.116388658781001918e-04,9.534184004628598521e-05,-5.616972621602647417e-04,1.414461433887481689e-01
-1.316423307059512993e-01,-1.502642149202157162e-01,-2.832983843454912609e-01,-1.695048749459720843e-03,-9.095489656445014670e-05,7.776949924156042289e-04,1.432922482490539551e-01
-1.474801225817277406e-01,-1.196405490417910000e-01,-2.475678474920877115e-01,-6.205183605578911310e-05,-2.461804458959789715e-04,-6.245211513168973973e-03,1.170307472348213196e-01
-1.481526139192914926e-01,-1.296021645292383950e-01,-2.174910094660681970e-01,-1.399885889668975878e-03,4.520452416687330797e-04,-1.182776499187215662e-02,8.285149931907653809e-02
-1.476229500572341091e-01,-1.471610998099613377e-01,-2.896458785702183958e-01,6.213192373972372361e-04,-4.766579930819034002e-04,2.031052292176087077e-04,1.422613114118576050e-01
-1.306402839021068019e-01,-1.576979890025831110e-01,-2.750532149243669622e-01,2.744750212017916038e-03,-1.208770586274973734e-03,3.681272709068395986e-04,1.330681145191192627e-01
-1.502225728577863406e-01,-1.306248231164469364e-01,-2.803382887520429190e-01,1.766380004531472323e-03,-7.197188752947415767e-04,-1.035169075169598473e-03,1.409903317689895630e-01
-1.567437168939496139e-01,-1.287122838493999222e-01,-2.806205699506379991e-01,2.001994603954376090e-03,2.120384278206657533e-04,-1.725722785861134206e-04,1.400568783283233643e-01
-1.499660917727888287e-01,-1.317259029225826827e-01,-2.813442529730478259e-01,2.587919563990566645e-03,4.978004065014097470e-04,-1.386696206371120529e-04,1.414573490619659424e-01
-1.520617285098092297e-01,-1.271333517745860398e-01,-2.793422517541704342e-01,1.237719985724672215e-03,-4.491857652910863645e-04,-1.908700256344209685e-03,1.414594799280166626e-01
-1.583114431765233476e-01,-1.271201842821444439e-01,-2.789526659157435251e-01,-5.718719896316323934e-05,3.007921260028332514e-04,4.598561024766936582e-04,1.388922780752182007e-01
-1.572148245126797905e-01,-1.278742750207032264e-01,-2.807651319205735629e-01,2.400785708728133804e-03,-2.259232316561602088e-04,-3.832995424546196874e-03,1.407554596662521362e-01
-1.522811346858451431e-01,-1.234730406850263751e-01,-2.728976903526833531e-01,2.674850728457378504e-03,-4.794061996578247213e-05,-3.576963383535902968e-03,1.375239938497543335e-01
-1.472243426498034413e-01,-1.314685208384107074e-01,-2.826220330068158759e-01,-1.234596285950604472e-03,-1.108259619478115643e-04,3.570722091353062400e-04,1.439412236213684082e-01
-1.506333734493827681e-01,-1.388270463617595207e-01,-2.873713551866575178e-01,-1.715993029934544719e-03,4.034711878120784707e-04,-5.579849459019038714e-04,1.430429816246032715e-01
-1.514504375249870471e-01,-1.391207939914688718e-01,-2.875443267261675873e-01,-1.606067767476667373e-03,2.654642433543899483e-04,-5.991069176167964239e-04,1.426905095577239990e-01
-1.591082145171484608e-01,-1.265451542030840981e-01,-2.792165808938664728e-01,2.938724444574670677e-04,-2.510686588651972256e-04,-3.108636973759676641e-04,1.392774432897567749e-01
-1.559638622366219529e-01,-1.241429789251651261e-01,-2.788486579794836606e-01,5.562912017586559964e-04,5.913029394587842555e-05,-1.697325114425771555e-03,1.415384262800216675e-01
-1.469140188586177953e-01,-1.470669443613116245e-01,-2.858357390564682521e-01,2.329951165403152356e-03,-1.405020180553628460e-04,-2.882584994451607967e-04,1.389050632715225220e-01
-1.497606367620933354e-01,-1.498947536860325558e-01,-2.880345894311805433e-01,6.505883972838317130e-04,2.861917867707133964e-04,3.056799477073198455e-04,1.382134407758712769e-01
-1.604125185999049907e-01,-1.303744105076486415e-01,-2.893503914587918224e-01,-8.211191376432253053e-04,-4.255493441519429473e-04,-2.819998849989145684e-03,1.463787406682968140e-01
-1.432292543648684136e-01,-1.385319588027457693e-01,-2.373105358669032050e-01,-1.336561256876229314e-02,2.597284807375286123e-02,-2.651684196425043577e-02,1.182556301355361938e-01
-1.509272006166059721e-01,-1.529067180082444022e-01,-2.913090581831115355e-01,3.089903171773002253e-03,-2.483477955668765905e-04,1.088222045756657297e-04,1.395061314105987549e-01
-1.419994470353795335e-01,-1.453520883909080186e-01,-2.870102496984580087e-01,6.240711045222042605e-03,-2.724377491346863852e-03,-1.682553101384101028e-03,1.438777297735214233e-01
-1.509215825901073227e-01,-1.509074321475827318e-01,-2.905288191030488409e-01,1.214216957004333585e-03,3.533144882649416878e-04,4.489357270333042436e-04,1.396336555480957031e-01
-1.082476278038849438e-01,-8.396013218380829479e-02,-1.432564277608789627e-01,-1.721783619143232510e-02,-3.740283486931844648e-02,7.518028771532192511e-02,1.571886688470840454e-01
-1.292582599124955378e-01,-9.396751668936709212e-02,-1.553557856478482435e-01,-2.795639451257519656e-02,-3.211479896884660012e-02,7.626518803011765602e-02,1.604226231575012207e-01
-1.577373821124266606e-01,-1.123934119420831185e-01,-2.683767069892502022e-01,-3.695625056539016649e-03,2.328775855946593656e-04,2.127847459965691648e-02,1.439215689897537231e-01
-1.678586233241390058e-01,-1.629068682026408588e-01,-3.007853590224823792e-01,-2.598302745780341552e-02,-2.425730840751219239e-02,4.151104590464037292e-02,1.652645170688629150e-01
-1.487473706390927963e-01,-1.556769456853993872e-01,-2.907607539010598763e-01,-1.551773976103183739e-03,9.649895548127119399e-05,1.614002238306668847e-04,1.387049257755279541e-01
-1.553035420906122011e-01,-1.344443840973831017e-01,-2.893254052034509027e-01,1.335556802465075622e-03,-1.148619533790352606e-04,-2.492843837754886958e-03,1.456591188907623291e-01
-1.487117871870828889e-01,-1.332522440965429877e-01,-2.856864762908475908e-01,9.310321470706476926e-04,-2.950513855704055234e-04,-8.411769123267898640e-04,1.453396528959274292e-01
-1.530037782420232417e-01,-1.402051364213661722e-01,-2.898972575146422370e-01,1.615997851045301165e-03,3.621871421874949394e-04,-1.652397126573809053e-03,1.437779515981674194e-01
-1.421810124734183278e-01,-1.690559189512406690e-01,-3.185767186314700239e-01,9.815482588919304321e-03,3.690940835533736575e-03,1.226435823348619863e-03,1.656245738267898560e-01
-1.500457148236761795e-01,-1.352364301988271122e-01,-2.875007757029580113e-01,-1.143591740714406486e-03,4.736771153761882972e-04,3.193668592034637390e-05,1.454421579837799072e-01
-1.566978793211119547e-01,-1.241802080846438339e-01,-2.742225766337406112e-01,-3.141479264576220172e-04,3.999239394233626674e-04,2.490279961715874228e-03,1.367861926555633545e-01
-1.416204574381549897e-01,-1.397715052701792304e-01,-2.843497927742756337e-01,3.623302969960045996e-03,1.408540353708924138e-03,1.582947650804253066e-03,1.438465714454650879e-01
-1.466288797030901314e-01,-1.371284144068416755e-01,-2.860778004293595966e-01,2.169694272513847215e-03,-3.102100227926563795e-04,-1.355023964081148206e-04,1.444837599992752075e-01
-1.525163875342545050e-01,-1.402849370193307854e-01,-2.904755511640546572e-01,1.617975145947249524e-03,3.420918866258442371e-04,-1.654312159736766145e-03,1.445205658674240112e-01
-1.503940375633089077e-01,-1.459157145846787518e-01,-2.895421108465539017e-01,9.008430094154654989e-04,3.318627262708779256e-05,-6.677324057134058875e-04,1.414537578821182251e-01
-1.635675792944917273e-01,-1.331511152531406894e-01,-2.975753856553710608e-01,1.488203516479089973e-02,7.260033760359167927e-03,1.173490570022514903e-02,1.555473208427429199e-01
-1.343597721473806517e-01,-1.483511462759997124e-01,-2.819691754330561073e-01,-4.162670665941353536e-03,1.159337670646256278e-03,-5.512975974004071010e-04,1.413363516330718994e-01
-1.559741423004249172e-01,-1.511977390574306690e-01,-2.904622542481722358e-01,3.637454618502867013e-04,1.115859029611130683e-03,-4.386059278705877563e-05,1.369539052248001099e-01
-1.427431773981503726e-01,-1.407254504134828610e-01,-2.875944600494995118e-01,1.184243875639757505e-03,3.343436259839406479e-04,7.457276652673440996e-05,1.458862423896789551e-01
-1.444186042494302324e-01,-1.386912423093462077e-01,-2.859705925854168496e-01,1.020764511058278121e-03,2.376041375439429343e-04,-3.043852341514203196e-04,1.445131897926330566e-01
-1.448831787046349073e-01,-1.391061289723080630e-01,-2.866144179966236827e-01,1.009568012050327934e-03,-2.728321162806232928e-04,3.069696952139630390e-04,1.447185873985290527e-01
-1.482922262994181839e-01,-1.379361389296676066e-01,-2.869174624851783539e-01,2.377598631626941152e-03,3.149303938477468370e-04,4.768786002553840098e-05,1.441425830125808716e-01
-1.586997691755162865e-01,-1.257808146913400593e-01,-2.846829577192447336e-01,4.494103810266809320e-04,-1.350899029708130510e-04,-1.583253483463865473e-03,1.452956944704055786e-01
-1.511179820302445964e-01,-1.385100023783220613e-01,-2.865496805303273664e-01,6.325080045083115478e-03,-7.459117915673979266e-04,-4.182478431975598411e-03,1.427669227123260498e-01
-1.572291757506264764e-01,-1.352972376392063691e-01,-2.901737492664713813e-01,1.255009787272523287e-03,-4.973346452193200219e-04,-2.481465469793921186e-03,1.452409774065017700e-01
-1.665263586143606311e-01,-1.348864245976230114e-01,-2.895198189997081339e-01,-3.525273008969061379e-03,1.410662388856925202e-03,-7.070931071318915101e-03,1.421732306480407715e-01
-1.571306770425821842e-01,-1.338366969098649106e-01,-2.831581627874086848e-01,7.868776083198088245e-03,-6.565363744669255354e-03,-1.081372184540034878e-02,1.415171176195144653e-01
-1.689815714726809470e-01,-2.280449279053891332e-01,-4.295063941566170662e-01,9.734253047268937031e-03,3.341789082954497309e-02,1.536257358313956531e-02,2.455946952104568481e-01
-1.443548498128557067e-01,-5.401095901130063826e-02,-3.125745325609308733e-01,3.308304341246623426e-02,-7.091316517376785797e-03,-7.577424764254936385e-03,2.350831329822540283e-01
-1.604480133237362605e-01,-6.394385691580826980e-02,-2.930850743309375006e-01,1.263528276855400111e-02,-1.688446978316066526e-03,-3.648989240261479167e-02,2.102087289094924927e-01
-1.524088453751756556e-01,-1.872934497631588147e-01,-3.465435225529494012e-01,1.413745659884878096e-02,5.510040321839433479e-04,2.114082804077467136e-03,1.809608191251754761e-01
-1.104490827710193218e-01,-3.723181815092233005e-02,-2.177383057701467728e-01,3.140099016573828089e-02,-1.710044198742746366e-02,-7.256282757979951037e-02,2.106148153543472290e-01
-1.442335985875766169e-01,-1.453560678693975872e-01,-2.881021378437206848e-01,3.204462880809033284e-03,7.509239274759341816e-04,8.802923935882053157e-05,1.434240192174911499e-01
-1.443528993506154878e-01,-1.510649894613729505e-01,-2.891339085369930562e-01,4.625561601469921867e-03,-4.848040822185358282e-04,4.617842469521879966e-04,1.417756676673889160e-01
-1.424132129583760009e-01,-1.481791378151288696e-01,-2.879696191836522146e-01,2.989710538077478864e-03,8.360198820697967810e-04,7.294963590120481138e-04,1.428676098585128784e-01
-1.492865654840784817e-01,-1.525427113438702631e-01,-2.893633773786554730e-01,7.428116772625627771e-04,-2.050756579703694025e-05,-1.085802048040109295e-03,1.384962052106857300e-01
-1.518586496250916851e-01,-1.517166650116577031e-01,-2.872086354402229591e-01,1.103574797917340668e-04,-5.194854916231407236e-06,9.115093504943166112e-05,1.354212611913681030e-01
-1.443576402481792087e-01,-1.452127775781260066e-01,-2.869211760354334340e-01,4.520570949773185568e-04,3.725018506879742360e-04,1.365143521358156114e-04,1.421417146921157837e-01
-1.665481074084058655e-01,-1.335135044875591093e-01,-2.935614802932228762e-01,-3.513034894238430540e-04,-2.713592531582971999e-03,3.098679962473158914e-03,1.465291231870651245e-01
-1.649336213662648543e-01,-1.343015633203197834e-01,-2.945951210677164589e-01,-1.185712784731096734e-03,-2.112792781642786576e-03,3.948132684540258709e-03,1.476028412580490112e-01
-1.770945403127545670e-01,-1.380042814975741550e-01,-3.252639291459459292e-01,-1.275934957125419121e-03,-8.922444410772072468e-04,2.061987347590748393e-02,1.748056262731552124e-01
-1.544314069897682884e-01,-1.296283546035957857e-01,-2.848309415583804016e-01,-1.498372742291291136e-03,7.895639279258833375e-04,-1.759354056530401536e-03,1.444694697856903076e-01
-1.440827504954267646e-01,-1.384089414653285333e-01,-2.774978425406791072e-01,-9.198172419856364204e-03,2.299498093333896681e-03,-4.664629967855612493e-03,1.375634670257568359e-01
-1.399057837235033186e-01,-1.436412784341986604e-01,-2.831018526784889744e-01,-4.515043847828976997e-03,9.748067300690569032e-04,-1.192366770142421449e-03,1.416066139936447144e-01
-1.901742124022600122e-01,-1.426779730614511910e-01,-3.361124263599349349e-01,-1.221162319382582302e-02,-2.331010809437225693e-03,1.403194743606419638e-02,1.775942891836166382e-01
-1.671307789373183139e-01,-1.222457196751489533e-01,-3.077110370269456885e-01,-6.503524510571518334e-03,-8.664246917220503122e-03,8.523673038907927935e-03,1.692852228879928589e-01
-1.433293591068300343e-01,-1.416587582457078942e-01,-2.876410845570387398e-01,-8.666984758236018216e-04,2.492287454069345748e-04,-1.356642278065046654e-04,1.451628357172012329e-01
-1.700692580183210678e-01,-1.427295423957857246e-01,-3.026983156501061312e-01,-9.125172871098226291e-04,-2.351236720959997469e-03,1.044885807000312883e-03,1.482778638601303101e-01
-1.564559374889846199e-01,-1.752961940024567455e-01,-3.010696476981856717e-01,-2.205579561767806798e-02,4.038919591185486518e-02,-2.450711620320324829e-02,1.633969247341156006e-01
-1.563661833780891353e-01,-1.244500112937808184e-01,-2.832440951469867296e-01,-1.238279469502128697e-03,3.940493714188142101e-04,-2.312044015964601247e-03,1.455582529306411743e-01
-1.340432955913423985e-01,-1.582602719222113985e-01,-2.885813593891082274e-01,-8.923685627487418573e-03,6.484481179185332643e-03,-7.414293672993707389e-03,1.457943320274353027e-01
-1.372765058338551170e-01,-1.586309515841838880e-01,-2.734488286516533195e-01,-2.196756146570910326e-02,2.017841299725144782e-02,-1.442970039319763781e-02,1.392296850681304932e-01
-1.424515975694697345e-01,-1.692028884785642950e-01,-2.525527511084389443e-01,-3.726832168875709225e-03,5.517958232108402701e-03,-2.714939922768219022e-03,1.002380773425102234e-01
-1.598236604983852560e-01,-1.263290613339823065e-01,-2.857272033438452707e-01,-8.928528433018411955e-04,-4.332107533577833906e-04,-2.250866156435222653e-03,1.456325203180313110e-01
-1.317659622855050505e-01,-1.495187997034127803e-01,-2.779300717959189426e-01,-5.515233115895498521e-03,3.342771034351938852e-03,-2.903557710587229869e-03,1.386879533529281616e-01
-1.369263446028105569e-01,-1.570605536240813060e-01,-2.531062905168605659e-01,-7.552555073460239486e-03,2.256555539225267668e-03,-2.491263568739890324e-03,1.084849908947944641e-01
-1.281895396001170584e-01,-1.538170220283119893e-01,-2.538035070106960944e-01,-9.771312302352216927e-03,5.753219744612580316e-03,-4.380231702082665497e-03,1.168749779462814331e-01
-1.531124147839763583e-01,-1.279026030325574326e-01,-2.849037812006057213e-01,9.430650381281074262e-04,-7.568240458593467187e-04,-1.005694718703448870e-03,1.460628509521484375e-01
-1.502132870546206145e-01,-1.643255880525803236e-01,-3.003956615758974769e-01,6.077101638103962582e-04,-1.239019716609913177e-03,-1.657075725356916933e-03,1.436956375837326050e-01
-1.655487701308227810e-01,-1.461445268851843393e-01,-2.092206137589686377e-01,-3.830958058098297633e-03,-3.116275888756920003e-03,1.730445887855156309e-03,5.668614804744720459e-02
-1.324318012510079801e-01,-1.447906118852500257e-01,-2.650823812387577139e-01,-7.074453662217740357e-03,4.067801927327184021e-03,-1.622378307905462686e-03,1.277387738227844238e-01
-1.487264678429322806e-01,-1.330528639520094369e-01,-2.851412395300600422e-01,9.857017225851426138e-04,-2.169665820331045968e-04,-9.296600439720114836e-04,1.449082940816879272e-01
-1.525848798593046896e-01,-1.280663249736210818e-01,-2.800160393870038678e-01,-1.266788010995444601e-03,7.739699342719291372e-04,-9.802540301247642928e-04,1.413286328315734863e-01
-1.195561510031714902e-01,-1.500478939145941937e-01,-2.688859301965704773e-01,3.682554803711677281e-03,-4.867165910340854468e-03,-6.510825460988188193e-04,1.370723396539688110e-01
-1.289912695992585234e-01,-1.570334055268415019e-01,-2.839506408847068397e-01,4.032531150047397907e-03,-5.728760992852483663e-03,-5.988508835305783986e-04,1.435329020023345947e-01
-1.333876060372643224e-01,-1.507676166080194335e-01,-2.587636256364995169e-01,9.770081738248052872e-03,-6.291306985995209072e-03,-2.825644564205895531e-03,1.194622665643692017e-01
-1.271251798853039738e-01,-1.574075159924513689e-01,-2.822437795227896173e-01,3.697144359842625180e-03,-6.699634243742150046e-03,-6.949111957365220306e-04,1.430334150791168213e-01
-1.509679239305225795e-01,-1.514090289091735986e-01,-2.872260729311645888e-01,-5.470665144788938641e-04,7.030480591823810637e-05,4.313935580574067985e-05,1.360415071249008179e-01
-1.512630962325480222e-01,-1.516654573621301072e-01,-2.882327817698958072e-01,-7.949978259632382123e-04,1.954359579215533469e-04,-3.501216881532636521e-04,1.367776393890380859e-01
-1.494429128591205913e-01,-1.353418788623753366e-01,-2.797282702563682610e-01,5.363715876908699970e-03,-1.362226368560328759e-03,-8.807262236919024276e-04,1.382189393043518066e-01
-1.503355994239966853e-01,-1.511621011134112735e-01,-2.870085611859549690e-01,-2.624547056177300628e-04,-5.469872849333101136e-05,-2.198369828043739084e-04,1.362629085779190063e-01
-1.534954357464739516e-01,-1.272832152173451470e-01,-2.829370957990363644e-01,1.201525299383654532e-03,-5.216695818906135970e-04,-1.358185533389537868e-03,1.443809568881988525e-01
-1.450761857520094233e-01,-1.443566446091054112e-01,-2.894531753404223640e-01,5.040806284494471707e-04,-2.171226459394314315e-04,-3.495996575360446265e-05,1.447412371635437012e-01
-1.522889440780237913e-01,-1.519816191296256280e-01,-2.879633830452689169e-01,-2.242565747918890144e-04,2.445472359120060371e-04,5.474909893077668430e-05,1.358296126127243042e-01
-1.530735302017967314e-01,-2.041920718888650954e-01,-3.268515579929993642e-01,3.746638699877178832e-03,3.467296209437516208e-02,-5.590256478179928858e-03,1.663464307785034180e-01
-1.536600067134653580e-01,-1.296971092776416645e-01,-2.810841021080439095e-01,1.289121828322119289e-03,1.275110403271396780e-04,-2.054089328449457618e-04,1.409600377082824707e-01
-1.406135956654631092e-01,-1.422454162400737521e-01,-2.862991042788989304e-01,1.831657049078248833e-03,-5.928220465997674580e-04,-2.313964111071021960e-04,1.449154168367385864e-01
-1.436379433130971495e-01,-2.134152954503479305e-01,-3.412897819149217638e-01,2.856045205979483928e-02,4.891855504028740781e-02,2.337718804265461955e-02,2.034924030303955078e-01
-1.467062855941046740e-01,-1.639072822928872297e-01,-2.952502443413497213e-01,9.308297290104762143e-04,-1.289006833231250366e-03,-5.900587446289370366e-04,1.407647132873535156e-01
-9.218265990897267503e-02,-1.322791235781518027e-01,-2.101123753574457020e-01,1.783185826384045547e-02,6.494535632334180741e-02,4.207059623811771482e-02,1.723485141992568970e-01
-1.298341141449318448e-01,-1.491992665441736754e-01,-2.794318740216624186e-01,8.708594029171000742e-03,7.505786589606925317e-03,4.771255527697924707e-03,1.425564438104629517e-01
-1.562151326865574563e-01,-1.875794783068920057e-01,-2.971771953439871772e-01,1.192315689647518127e-02,4.920539869106727027e-02,6.295575551341021751e-03,1.556975990533828735e-01
-1.270610728280973101e-01,-1.567328947906881376e-01,-2.822667068934965329e-01,3.879655712993906620e-03,1.178916677746469008e-02,4.808742913228497996e-04,1.443148404359817505e-01
-1.999946085218242686e-01,-1.601851103914344043e-01,-2.844122591577878389e-01,6.131486679274986747e-04,-7.152827589016232113e-03,-6.141124977663599965e-02,1.534288227558135986e-01
-1.791743404288350106e-01,-1.568319192048956146e-01,-2.532799743402719406e-01,6.931814375388649103e-04,1.680492526175292366e-03,-2.095946704007615666e-02,9.473299235105514526e-02
-1.622633987567075609e-01,-1.276486293569099317e-01,-2.582169420070074550e-01,1.204153862764472185e-03,-3.434271527644184013e-03,-8.437475565503588237e-03,1.182369664311408997e-01
-1.709580585211219750e-01,-1.469306479032310153e-01,-2.621763468979678713e-01,4.902147785827737879e-03,-4.674805506446238004e-03,-2.922081526083669667e-03,1.060806363821029663e-01
-1.462509606179906163e-01,-1.174817523317821522e-01,-2.451960016815925847e-01,-5.029757553660698250e-05,5.609522027641026870e-04,-7.576457213850853675e-03,1.167797893285751343e-01
-1.401051887560986753e-01,-1.209244441485495675e-01,-2.116688022456886809e-01,-5.635981792872637314e-03,3.174684739789782051e-03,-1.430015297928568033e-02,8.718317747116088867e-02
-1.515578714131486926e-01,-1.339016167681959246e-01,-2.217271429205911470e-01,2.907854213122807677e-03,-2.413976675829271421e-03,-1.536798819880087590e-02,8.500453084707260132e-02
-1.585767630433380648e-01,-1.390335510740841052e-01,-2.326444481691680166e-01,-2.353234153938811406e-03,3.495519619700922839e-03,-1.391126878489634504e-02,8.915895223617553711e-02
-1.392293879917826938e-01,-1.459020581137605299e-01,-2.686503766615947475e-01,-1.091709084738263190e-02,7.336410299410323597e-03,-5.699440134720882949e-03,1.286359280347824097e-01
-1.646960000881346753e-01,-1.434996111407483843e-01,-2.274297293883973947e-01,-1.803217772727182602e-02,1.648156304689337576e-02,-3.986007292933155255e-02,1.107764244079589844e-01
-1.406070061292327145e-01,-1.522993477815764163e-01,-2.864971273067134505e-01,-1.166164970072632381e-02,8.908935090350988614e-03,-4.319031042474326225e-03,1.428876966238021851e-01
-1.459848604559788321e-01,-1.480504559669184872e-01,-2.041316959449330504e-01,-8.294725403456628537e-03,1.423915149763262111e-02,-1.966274384230339012e-02,7.238613069057464600e-02
-1.349797104324159391e-01,-1.372159432185516559e-01,-1.860280810213927605e-01,-8.645230902219734961e-03,8.857453371180400159e-03,-1.359119001546844549e-02,5.924968793988227844e-02
-1.546326728056999777e-01,-1.332627319949177824e-01,-2.204952587457501556e-01,-3.691379839134643123e-03,7.421989930530253476e-04,-1.252459733957812793e-02,8.194608986377716064e-02
-1.604827858004325147e-01,-1.455353005549850365e-01,-2.206900138982049175e-01,-1.151854677222919308e-02,4.991481757083889373e-03,-2.499020247987234628e-02,8.422939479351043701e-02
-1.451395352208252887e-01,-1.459768813568272927e-01,-2.738393400808362133e-01,-8.116785693290903478e-03,5.436770678177404699e-04,-5.845162462301609204e-04,1.290586441755294800e-01
-1.447927004904448756e-01,-1.407868679075651164e-01,-1.901337127559412088e-01,-6.850156118681212901e-03,6.310437486448106960e-03,-1.439264381204932372e-02,5.599255114793777466e-02
-1.426533264500046416e-01,-1.384455308115532524e-01,-2.868138028023720087e-01,-1.342500520093508351e-03,3.267996651424700865e-04,-6.925198708222295944e-04,1.463342458009719849e-01
-1.546023076696902976e-01,-1.272367830172870806e-01,-2.748326367024637173e-01,2.426953107709448488e-03,9.733909758819384939e-04,2.548208801816140984e-03,1.361409723758697510e-01
-1.572609443288841835e-01,-1.249219681984855002e-01,-2.801740054851242778e-01,-5.297223238289151207e-04,2.833500775787617496e-04,-1.235090866853914490e-03,1.418942213058471680e-01
-1.581048048676724216e-01,-1.453621603796887152e-01,-2.711930876827933767e-01,8.198010399095755074e-03,8.159578027512545424e-04,3.029573248913009810e-03,1.209278032183647156e-01
-1.589320206500684507e-01,-1.257650785364351764e-01,-2.798511756037475595e-01,-5.467173745026007552e-04,1.880869613860718949e-04,5.205180210499123347e-04,1.404771208763122559e-01
-1.588849872722581658e-01,-1.259450827256138050e-01,-2.817164296303247828e-01,-6.194546775087614093e-04,-1.589526644467724155e-04,-1.295627209976080510e-03,1.422143429517745972e-01
-1.582850142935610382e-01,-1.289838114828659454e-01,-2.814526869682593690e-01,1.981067860819773520e-03,-3.351330304472308281e-04,3.324219522204834064e-04,1.401793062686920166e-01
-1.548470145805971032e-01,-1.219871214048830199e-01,-2.754340073053983540e-01,4.653304297045754347e-04,1.560953820046779466e-04,2.211235168052434578e-03,1.399959325790405273e-01
-1.582708459534546974e-01,-1.314531399663273759e-01,-2.832546373845822307e-01,2.687988170732488139e-03,1.254751217250535617e-03,3.106101952067169027e-03,1.405249387025833130e-01
-1.578430644587308640e-01,-1.268915754561133757e-01,-2.816794914170100972e-01,6.230783791508015751e-04,-6.658030925947943757e-05,-6.232130073812787050e-04,1.418757140636444092e-01
-1.527318311387830807e-01,-1.290394774811394474e-01,-2.802557425174291295e-01,4.353266342430110909e-03,1.822681121304991917e-03,3.892655717929942999e-03,1.412702947854995728e-01
-1.513734214960271995e-01,-1.263833038489059479e-01,-2.746732421885457187e-01,3.206405772951029416e-03,3.502735517330428914e-04,2.973080044842185427e-03,1.377183943986892700e-01
-1.506599500482849741e-01,-1.320172089558479256e-01,-2.824244178834033336e-01,2.520484808876424961e-03,-4.730461371251675818e-04,3.621659049557027807e-04,1.420774459838867188e-01
-1.419688761582549863e-01,-1.453767440645830633e-01,-2.889019412462099368e-01,4.514390338530733029e-03,6.534613877748313799e-04,5.790491671578194518e-05,1.454738527536392212e-01
-1.552571491061755793e-01,-1.314052469780739585e-01,-2.844874816245485105e-01,1.311687871570347760e-03,-5.846762364994605426e-04,-4.087958335469152392e-04,1.426831036806106567e-01
-1.315804413763773939e-01,-1.426080572528925783e-01,-2.803813119002390164e-01,4.762347590985404819e-03,-1.899109098295878335e-03,-3.257453789972535626e-04,1.438803970813751221e-01
-1.507535010061691605e-01,-1.371328149174368405e-01,-2.874383798560821157e-01,1.257358581450814233e-03,-6.927651754879148071e-04,3.472797942854107249e-05,1.440007239580154419e-01
-1.409624730020863359e-01,-1.438145500811921496e-01,-2.872398672050902602e-01,3.017619883507385772e-03,-6.077911294570849941e-05,-2.456908188020427838e-04,1.449673324823379517e-01
-1.358222299934718769e-01,-1.455918029534624958e-01,-2.853639961896389798e-01,2.728313667020924177e-03,3.810116366253964984e-05,5.318581933898638720e-04,1.449841707944869995e-01
-2.140310591975226329e-01,-1.098657221782034232e-01,-4.332262911814708795e-01,-4.188802504382312109e-03,-7.036866453096147968e-04,-4.264431105091878033e-02,2.953629195690155029e-01
-1.352221212003405504e-01,-1.543666117241910274e-01,-2.755699367888054252e-01,5.508864302791296845e-03,-1.347838355487178830e-03,-6.093690883749550992e-05,1.321878880262374878e-01
-1.449913013433624664e-01,-1.444693979566925579e-01,-2.891168836341854176e-01,-1.381462957007150686e-04,-2.487321245784225644e-06,3.927850366335174418e-04,1.443890482187271118e-01
-1.458507730703791361e-01,-1.470956758403991205e-01,-2.903106407644301945e-01,-2.018926593017704267e-03,1.767225366030294325e-04,-3.525678993612985698e-04,1.438855826854705811e-01
-1.417942331793345112e-01,-1.429040049858876227e-01,-2.888957643376314222e-01,5.642574278016099752e-04,-1.621001657234789222e-04,-1.267669019851883068e-07,1.465533226728439331e-01
-1.428083861226682738e-01,-1.404412663644944992e-01,-2.874691718230606430e-01,-1.155685260393090165e-03,2.625195988250064120e-04,3.880712721383139776e-05,1.458732038736343384e-01
-1.445137483770822240e-01,-1.444608702459261318e-01,-2.888284781201601037e-01,-2.338871067421398504e-03,1.612166951925384330e-04,1.311407971364907349e-04,1.443984657526016235e-01
-1.447825925453206930e-01,-1.446156010626327704e-01,-2.900991549624556964e-01,-1.854518795809619036e-03,1.843989990364791186e-04,-6.137513508711767846e-04,1.454398483037948608e-01
-1.381023110341274840e-01,-1.537713224332343531e-01,-2.893006877311231628e-01,4.276048609489722756e-03,-1.537160262107958690e-03,-4.135759040792011615e-04,1.442213356494903564e-01
-1.288720831793586652e-01,-1.475909781047718417e-01,-2.803747380107698972e-01,2.679112007019761495e-03,1.964689123970094769e-05,-1.718140432494724834e-05,1.431398689746856689e-01
-1.337245905668905110e-01,-1.493240484956285252e-01,-2.809238144946444304e-01,4.256913377406864631e-03,-1.056528898050402209e-03,-5.429480877036434129e-04,1.402616202831268311e-01
-1.386179587246025580e-01,-1.420072500288570572e-01,-2.824918924480240845e-01,4.493160615387836558e-03,-1.402309436464043964e-03,-1.190268584768562100e-03,1.424579918384552002e-01
-1.358341387269352829e-01,-1.453461105792607233e-01,-2.848320445645040055e-01,1.918643945946588028e-03,-1.176155545407694421e-04,-6.161224472002304947e-04,1.445192545652389526e-01
-1.301152364569038988e-01,-1.487672371051766140e-01,-2.826773561103759214e-01,1.980601105187151760e-03,-4.806979564664772909e-04,-6.665273989087512835e-04,1.441918909549713135e-01
-1.389432410325321943e-01,-1.536950652028022946e-01,-2.940267539924248386e-01,-9.253997669416091920e-03,-3.785335170723747120e-03,3.558494214910232992e-03,1.493942141532897949e-01
-1.761804580927103236e-01,-1.587752913164483803e-01,-3.263286660479067236e-01,-2.091296634354322670e-02,-1.713892976696329562e-02,2.676922071887203811e-02,1.726378798484802246e-01
-1.474568356644173350e-01,-1.556291866647999955e-01,-2.933513125889136153e-01,-6.252685917300551503e-03,-1.793212096828798426e-03,5.670251514518361794e-04,1.424344927072525024e-01
-1.513062520692674273e-01,-1.477551646800124852e-01,-2.901421313425786019e-01,-4.668187643322406488e-03,-8.427973373717152555e-04,6.022804404428121726e-04,1.408886909484863281e-01
-1.438217918623056202e-01,-1.539002807327244648e-01,-2.899130035542362149e-01,-2.769300442316839118e-03,-5.445798229642877860e-05,-1.362042727883014002e-04,1.414033621549606323e-01
-1.503204501932316750e-01,-1.557500492612513554e-01,-2.928045747014280664e-01,-8.769599571807832738e-04,5.635509334152247890e-04,-1.199459314685831371e-03,1.398754864931106567e-01
-1.483943074204997492e-01,-1.508953172337654525e-01,-2.899647350503649634e-01,-1.466278693090684350e-03,4.940006820118318567e-04,-5.859293053894481119e-04,1.403658986091613770e-01
-1.561304834687103626e-01,-1.245648043630018520e-01,-2.729413529873927491e-01,-1.311434547532043787e-03,-2.845559800741566804e-04,2.884544235370939489e-03,1.354944705963134766e-01
-1.480422695983320269e-01,-1.512928871999256186e-01,-2.886660564208902158e-01,-1.172479462524245175e-03,2.689313427999828754e-04,-7.587401507429438873e-04,1.390487998723983765e-01
-1.431583769313186094e-01,-1.483492153069749242e-01,-2.871160642167967514e-01,-1.223695201992581853e-03,-1.690669048340805430e-04,-4.719042062167189263e-05,1.414499282836914062e-01
-2.014299244948012380e-01,-1.504704986575923220e-01,-3.029877195745795393e-01,-1.836420632075482992e-02,1.183726866156573944e-02,-4.647731737407422015e-02,1.612410992383956909e-01
-1.556259876874954706e-01,-1.198214825922773175e-01,-2.831317306479388396e-01,-4.719770214660358801e-03,1.579172615050110882e-03,-1.356521483156091640e-02,1.507690697908401489e-01
-1.523372442815304484e-01,-1.614038391220763424e-01,-2.972623013467468045e-01,8.321960914757398509e-04,-1.087946865169019551e-03,-9.350317176513839703e-04,1.406404972076416016e-01
-1.642099100492920016e-01,-1.295027935646139716e-01,-2.920427444316384125e-01,-2.994137109425254028e-03,-5.943070255229319400e-04,-1.102059449171919128e-02,1.495822221040725708e-01
-1.827415386466595126e-01,-1.311140144632793880e-01,-2.961876493967173229e-01,-1.292675871670871147e-02,2.296813596273992314e-02,-2.806131106827136970e-02,1.607438474893569946e-01
-1.696435525656821985e-01,-1.288743580816929524e-01,-2.860599022605064823e-01,-3.694627380685378427e-03,1.206664615534451404e-03,-2.349402322550621022e-02,1.471812576055526733e-01
-1.425043640159815717e-01,-1.484893724544352756e-01,-2.140389370436787952e-01,8.820666049410475287e-03,-8.648026270850097189e-03,-1.462469652132118193e-02,7.631712406873703003e-02
-1.691606081460174382e-01,-1.523231503496209338e-01,-2.318736842879552673e-01,5.902536147666446673e-03,-2.440876741067065162e-02,-3.953977049375271419e-02,1.088780164718627930e-01
-1.365053781031164148e-01,-1.513820953104252076e-01,-2.418156298810782423e-01,1.745378620553889037e-02,-2.617556603960690884e-02,-1.581064089131636180e-02,1.160353794693946838e-01
-1.463388170640907704e-01,-1.374906243334000633e-01,-2.309228691934915312e-01,8.887444034990723413e-03,-5.129832070954678733e-03,-7.450186834695123918e-03,9.199777245521545410e-02
-1.420507188527521392e-01,-1.471948405957521910e-01,-2.903957895234458020e-01,-1.042188224645336286e-03,-1.160404201432531216e-04,2.669027928457200259e-04,1.458531022071838379e-01
-1.558093767765351967e-01,-1.258944152869722055e-01,-2.778387551798813804e-01,-1.751659687795128605e-03,8.100651370886884951e-04,-1.786710026004841240e-03,1.394895315170288086e-01
-1.515374466980390078e-01,-1.500887936489086194e-01,-2.897269854972119862e-01,-8.635003329504808620e-05,7.070888214996699696e-04,-1.358958876715828036e-04,1.389252096414566040e-01
-1.579152817361070826e-01,-1.289776970654586130e-01,-2.808750365777082925e-01,-2.268415435666347370e-03,1.430139137781456468e-04,9.210476250713079115e-06,1.397502869367599487e-01
-1.589365291169102801e-01,-1.300364787471835759e-01,-2.828987840055653957e-01,-1.628467982497952332e-03,7.094377307799072272e-04,-4.494277211897725250e-04,1.406927108764648438e-01
-1.437747699103357479e-01,-1.372873420852482040e-01,-2.853571320092175290e-01,-8.229423122468323493e-04,1.254269525177605500e-05,-4.013160275971293118e-04,1.449436843395233154e-01
-1.432070924634388787e-01,-1.422441341273315563e-01,-2.884569806884059173e-01,-4.578691114487956301e-04,2.239740103233983258e-05,-1.777411468354002480e-05,1.457359194755554199e-01
-1.601952422841126378e-01,-1.276881141495603555e-01,-2.824175336609677789e-01,-1.408761897003343096e-04,2.750709743540262074e-04,-6.701339960076150909e-04,1.413142979145050049e-01
-1.342580854538864554e-01,-1.658719179082382145e-01,-2.858736863839060893e-01,2.011666330027402170e-03,3.688049890130321983e-03,1.401895389243260678e-03,1.387530714273452759e-01
-1.320725132742155417e-01,-1.575531097623613097e-01,-2.815735323398017576e-01,2.834079471924765090e-03,3.860208826256588278e-03,4.185076071928373878e-04,1.387795507907867432e-01
-1.236215951393200424e-01,-1.547274933241163664e-01,-2.768074193444297615e-01,6.313051464976875441e-04,1.873145148276366117e-03,6.190426643462179981e-04,1.402902752161026001e-01
-1.281547409977808194e-01,-1.568367747151589442e-01,-2.820080027563603986e-01,1.098931780234603094e-03,-1.923042223165893124e-04,1.553152944857243254e-04,1.417196840047836304e-01
-1.469107489286378410e-01,-1.466626440060475045e-01,-2.887030398851974655e-01,1.896501556466678381e-03,-9.465445168200851912e-05,-1.233729518527009448e-04,1.419547796249389648e-01
-1.451959103097537618e-01,-1.462611574970709705e-01,-2.890997606474880466e-01,2.187864727678270806e-03,-2.076091645084783565e-04,-7.001294332427509105e-05,1.434247642755508423e-01
-1.519989843666697815e-01,-1.382454797649736999e-01,-2.876872793369300019e-01,-2.619732943304877836e-03,-1.754574077287028838e-03,1.996037184725957172e-03,1.432076841592788696e-01
-1.469246817133081362e-01,-1.479329874747524753e-01,-2.883005527428202375e-01,2.549879800381683794e-04,1.451150860660670291e-04,1.888172854158125984e-04,1.408757269382476807e-01
-1.565437849118093971e-01,-1.270379461986451131e-01,-2.802014941394319614e-01,7.828362013727336709e-04,7.749899981598415812e-04,1.231647216173823193e-03,1.407786905765533447e-01
-1.427625564383673828e-01,-1.451193002806502319e-01,-2.876976843557818020e-01,8.816911949460463785e-04,-3.150200002908397156e-05,-9.016738209412450758e-05,1.437794566154479980e-01
-1.434610590902080096e-01,-1.453822235809637542e-01,-2.873898084857025581e-01,1.175882328615863092e-03,-2.851843077131554246e-04,9.835629468214757143e-05,1.429933011531829834e-01
-1.408808538245219233e-01,-1.422867342041373995e-01,-2.880218615933219928e-01,-7.972401883361147738e-04,-1.498449168967154509e-04,1.358991113423455076e-04,1.464500576257705688e-01
-1.463666075759536556e-01,-1.320538895877859387e-01,-2.830560065018182248e-01,-1.137688124569768543e-03,1.807894302514813879e-05,-1.256846706216445397e-03,1.444086730480194092e-01
-1.427475103247126953e-01,-1.399821359979259439e-01,-2.878902043926432897e-01,-7.316202896857959591e-04,3.495523156470630019e-05,1.265869135203592224e-04,1.465506106615066528e-01
-1.412792123475337669e-01,-1.404252079086348581e-01,-2.874892272415867644e-01,-5.372425228697582907e-04,3.171073653778356378e-04,-6.584329052286956867e-05,1.466429084539413452e-01
-1.410551095195166083e-01,-1.417417849708996758e-01,-2.884717741483442399e-01,-5.289924543363474542e-04,-1.118256150005526617e-04,8.201534189242310334e-08,1.470775157213211060e-01
-1.404435600182271093e-01,-1.424417699885003885e-01,-2.867981830281549072e-01,-1.774983564258893459e-03,-6.947591290970555082e-04,6.489296673612518929e-04,1.454076468944549561e-01
-1.413433175809492015e-01,-1.391601588477012208e-01,-2.862953094095812001e-01,-1.817108386480947293e-03,-1.214026746034951691e-03,2.739447275944476685e-04,1.461056172847747803e-01
-1.506527366149288116e-01,-1.555423830115921779e-01,-2.981197207276425343e-01,-5.770704061225821052e-03,4.558256024077645481e-04,2.410145227150783682e-03,1.454899013042449951e-01
-1.456135163705625235e-01,-1.408637992481087120e-01,-2.841268982035879409e-01,-6.626307502970181680e-03,-5.213691952172850880e-04,3.656124859482175063e-04,1.414190828800201416e-01
-1.564837797520368390e-01,-1.453507600846517533e-01,-2.917145582993045938e-01,-3.588291367430853935e-03,-1.835013267692646400e-03,5.333364174994903060e-04,1.413025707006454468e-01
-1.377762397643494674e-01,-1.399378587674645624e-01,-2.842443187724325027e-01,-8.127188014384234722e-04,-6.635238325668796518e-04,-3.497619973503568978e-04,1.454119384288787842e-01
-1.477321065333859762e-01,-1.470975245357609706e-01,-2.889114305343885580e-01,2.131105026907410219e-03,-2.752079846111273541e-04,2.719021330340862290e-05,1.415466368198394775e-01
-1.461925896693477833e-01,-1.478288793902644283e-01,-1.806623124198978581e-01,2.759667258028025531e-03,1.204233021956744231e-03,9.820066194639401076e-04,3.412517532706260681e-02
-1.489340519278747332e-01,-1.497257739223248618e-01,-2.887741619576144059e-01,1.235862381072011951e-03,-2.238145110695154247e-04,2.665748968306972701e-04,1.394636631011962891e-01
-1.472661940866052122e-01,-1.485629354370325839e-01,-2.875125393338219260e-01,1.324335873558769427e-03,-2.629295980459730032e-04,7.987226601893522972e-05,1.396221518516540527e-01
-1.497084534519738108e-01,-1.506018224274454087e-01,-2.874646520650583348e-01,4.038375685250504316e-04,2.476143397922069629e-04,3.293056207998740236e-04,1.373153328895568848e-01
-1.579633338440167845e-01,-1.226852779543471245e-01,-2.911297008507337525e-01,-7.709283625248108864e-04,3.346249970766000930e-03,9.360364820252530318e-03,1.548350602388381958e-01
-1.368025773959170577e-01,-1.499222597212259700e-01,-2.878061476670104035e-01,1.285057168984112767e-03,4.813589386696556565e-04,-7.211661541427940420e-05,1.449094563722610474e-01
-1.430514206532856325e-01,-1.392120104868086461e-01,-2.844861028532927882e-01,3.572752630897937844e-03,-7.965439290815245306e-04,-9.397472566874936345e-04,1.435422748327255249e-01
-1.537245503858916396e-01,-1.394134818975273082e-01,-2.879092063603236884e-01,5.428701446566949404e-03,-1.061091846347283606e-03,-5.301650148408074874e-04,1.422086060047149658e-01
-1.565115099875841465e-01,-1.266594186624533380e-01,-2.790877493042572821e-01,1.156354968044050554e-04,-3.966867753431442783e-04,9.200134010983965910e-04,1.399224400520324707e-01
-1.300029089595335363e-01,-1.538481775069066304e-01,-2.842099673080626943e-01,1.702076589793978046e-03,7.307670208391368449e-04,8.871904754419320752e-04,1.438191831111907959e-01
-1.514256594053034199e-01,-1.319488120244285689e-01,-2.835675115584844197e-01,4.506033563437645932e-03,-3.159009845505075624e-04,-1.973866426846003757e-03,1.431342810392379761e-01
-1.235038720496715592e-01,-1.574287011976424622e-01,-2.827688096480428515e-01,6.371900404683177596e-04,2.814936046736909569e-03,-4.956416592739896554e-05,1.453897356986999512e-01
-1.470675859489914139e-01,-1.485642994864158073e-01,-2.901102299373412574e-01,2.321972572703266376e-04,-1.023780737546225956e-04,-6.099188143167679713e-04,1.423047930002212524e-01
-1.512677656222679023e-01,-1.658332215129083020e-01,-3.142705255964647337e-01,9.309813744389465115e-03,2.882601673043932479e-03,2.317565143334940000e-03,1.571906507015228271e-01
-1.298685599178725780e-01,-1.548788919543165887e-01,-2.850800414523686488e-01,1.335372248019858158e-03,1.093806658381722740e-03,-7.201639112940232709e-05,1.443716883659362793e-01
-1.489737860843559358e-01,-1.369477849091274568e-01,-2.843781174029543779e-01,4.357010764541121087e-03,-7.456764644761047344e-04,4.299576831106510972e-05,1.420068889856338501e-01
-1.436989841670121282e-01,-1.519725247628718745e-01,-2.875801723032293533e-01,3.981096579857135013e-04,1.528458564633837185e-06,1.160588708903101905e-04,1.399298310279846191e-01
-1.264707836454896372e-01,-1.547505095788737628e-01,-2.857043765129197999e-01,-3.099597963197272318e-04,3.012699583481371051e-03,3.169613759113504856e-04,1.472406685352325439e-01
-1.267280438686494703e-01,-1.571579584644234862e-01,-2.812887624950442533e-01,-1.199342818692491998e-03,-9.966948423214988008e-04,7.171367174807284205e-04,1.418469697237014771e-01
-1.266364869211503152e-01,-1.561705172767436089e-01,-2.807247281766983571e-01,-3.002202764598005825e-03,-3.818564740650158811e-03,1.014602859683346727e-03,1.419100761413574219e-01
-1.315762510509031757e-01,-1.557698023952949207e-01,-2.870087902742536334e-01,1.645250028168877181e-03,5.260138040500734634e-04,2.214692966296751312e-04,1.448904275894165039e-01
-1.306261819188559992e-01,-1.654679768097009618e-01,-2.843171655346838356e-01,-1.638936799675984411e-03,-3.940914238843616982e-03,6.396386394420384806e-04,1.397708058357238770e-01
-1.242075421971357285e-01,-1.564859012976261843e-01,-2.795126247830289623e-01,-5.377899866927271944e-04,-1.704753651379392306e-03,4.516773887021084156e-04,1.419815719127655029e-01
-1.487763562584059063e-01,-1.298043541519829092e-01,-2.833232845295739488e-01,-1.954741659894349524e-03,-5.615879043647144383e-05,6.729982789942576650e-04,1.450112760066986084e-01
-1.496306979381382130e-01,-1.298361469289273651e-01,-2.822282626310843590e-01,-1.526769987694626043e-03,-3.730455014726233721e-04,9.862738152649338716e-04,1.435582637786865234e-01
-1.499186531271845813e-01,-1.316819801868468476e-01,-2.816328576862359157e-01,-2.864238775693903928e-03,1.889472662610121453e-04,6.028698208086727840e-04,1.418063640594482422e-01
-1.371325903873655550e-01,-1.503339472346453820e-01,-2.886381797718893805e-01,1.742185562400804574e-03,5.457037478758241253e-04,5.468399752194316445e-05,1.453896462917327881e-01
-1.359421970728142692e-01,-1.493921518769188994e-01,-2.861587906189613784e-01,1.670946313185111068e-03,8.614257501470940458e-04,5.435824058442008302e-04,1.440034955739974976e-01
-1.568340132874012638e-01,-1.258631228944467328e-01,-2.778910235777119486e-01,3.934681278522517427e-04,1.833005807480321124e-04,3.843408321097898143e-04,1.391554772853851318e-01
-1.327880252219307278e-01,-1.546657564799493456e-01,-2.877806917115053320e-01,1.846219032153162149e-03,1.262855695749758381e-03,4.995491274466983336e-04,1.453486531972885132e-01
-1.465286069381560585e-01,-1.333253879557362853e-01,-2.815883060579257302e-01,-4.404219402724270614e-03,-5.498213520326821185e-04,2.131303882194617028e-03,1.423776447772979736e-01
-1.513213925214161870e-01,-1.520205120598670523e-01,-2.879356827082793502e-01,8.713891071615607409e-04,4.486948950493560258e-05,1.130125813129009409e-04,1.362745910882949829e-01
-1.518123564310812634e-01,-1.521638275389509132e-01,-2.874663327252902079e-01,1.349630509547345336e-04,-1.220951314568145796e-04,2.728697695796904123e-04,1.354797780513763428e-01
-1.531113047028286323e-01,-1.531785796479865625e-01,-2.904090554334706753e-01,6.916767572716970734e-04,-6.620857068431712077e-04,-5.052119039408613840e-04,1.372769325971603394e-01
-1.510299415355382258e-01,-1.516116689724459898e-01,-2.874328290397257790e-01,1.035364143767857390e-04,-1.000430794155780133e-04,-2.019015887408271304e-04,1.361136287450790405e-01
-1.255401347143083601e-01,-1.589728797431192719e-01,-2.801903945749338876e-01,2.166290283177356912e-04,1.649463730081952026e-03,4.400280280979124744e-04,1.409714668989181519e-01
-1.248612093632780196e-01,-1.553298063710954469e-01,-2.779288134757529338e-01,-1.246644503136382478e-03,1.818472577881589166e-03,-7.408471624033300318e-04,1.403940916061401367e-01
-1.256968330357545183e-01,-1.553770877322545596e-01,-2.810657451841502841e-01,-1.375331123497011915e-03,1.838623203662955374e-03,-1.395688927037606799e-03,1.429359614849090576e-01
-1.300701751275376850e-01,-1.871711196296744484e-01,-2.864151677549526265e-01,6.763644890156845016e-03,-4.937740942367717378e-02,-4.136312561473352682e-03,1.621104031801223755e-01
-1.185507172145610910e-01,-1.500103418041368597e-01,-2.637509263642404678e-01,6.740547348186110910e-05,-7.410068429004910279e-03,7.462226683912470248e-04,1.329333484172821045e-01
-1.433114564424031179e-01,-1.496334196706095021e-01,-2.859026148700409831e-01,7.675981082687524486e-03,-3.725575021222752789e-03,-3.894799722500847348e-03,1.404801011085510254e-01
-1.402812000504071177e-01,-1.796035790420229261e-01,-3.061657856710005010e-01,7.660010807518961504e-03,-4.097803956028709532e-02,1.089191932638608907e-03,1.666077822446823120e-01
-1.676916189579016336e-01,-1.482918432679102005e-01,-1.329557114400057860e-01,-3.352040599715577687e-03,1.275113370592631003e-02,3.798686021744199920e-02,7.589171826839447021e-02
-1.300400268986710572e-01,-1.592873032156869040e-01,-2.891356479629200171e-01,-7.000713817871467371e-04,-2.108784289235928876e-03,3.009141267650051218e-04,1.467269212007522583e-01
-1.246487536600292129e-01,-1.585949038649135667e-01,-2.814213132133456807e-01,-2.824854011217826704e-04,-1.904353672014134132e-03,-4.180782489362290023e-04,1.428978443145751953e-01
-1.274748460519926074e-01,-1.589337305560898639e-01,-2.878634064566274464e-01,8.324552023282033022e-04,3.924269132318344844e-03,-2.214962239929229866e-04,1.473666578531265259e-01
-1.420593658249399427e-01,-1.423671535894022455e-01,-2.886787782571781369e-01,4.184139030403101391e-04,-3.482375956490800202e-04,-1.130821309217393505e-04,1.464689224958419800e-01
-1.333953507059665033e-01,-1.645035946948081029e-01,-2.926563918193289537e-01,3.459251206317335713e-04,-1.742596024998765980e-03,-4.215771821591369150e-04,1.462445706129074097e-01
-1.460255378106993795e-01,-1.409869200061389938e-01,-2.807911000970211290e-01,-9.058416805807885386e-03,3.037597724362479240e-03,-5.997914731484878768e-03,1.387369781732559204e-01
-1.472779338575397612e-01,-1.432138744755201420e-01,-2.876297734492323510e-01,-3.744271304062178618e-03,1.022963010032337371e-03,-8.054925525252773673e-04,1.425927728414535522e-01
-1.397347914150845472e-01,-1.407355805066776711e-01,-2.761154557604867943e-01,-7.751668655762627980e-03,2.995470344518319766e-03,-1.344622522750195089e-03,1.366631090641021729e-01
-1.456342078796265815e-01,-1.359833534038508429e-01,-2.860565669625479979e-01,-2.311955191310819703e-03,1.243552322095734601e-05,-2.032385976261216938e-04,1.455435752868652344e-01
-1.449794917931057636e-01,-1.489631984921828689e-01,-2.900578701485511113e-01,-3.653045789440996678e-03,1.018989842723839155e-03,-3.670897906718326620e-04,1.432801783084869385e-01
-1.456043949836371976e-01,-1.362127290516059741e-01,-2.857527485387633126e-01,-2.414882619057114304e-03,6.568633397174360557e-05,-2.630659120420431691e-04,1.451334059238433838e-01
-1.414352254929359676e-01,-1.347199820165986828e-01,-2.849683144652211952e-01,2.560834287061817573e-03,1.409486746362424389e-04,7.106781229933682720e-04,1.470780372619628906e-01
-1.369061386956132997e-01,-1.372380748109093274e-01,-2.811854619386809917e-01,5.812365890673089862e-03,6.128470937852168116e-05,3.512262521101423341e-04,1.444661617279052734e-01
-1.568091651518737362e-01,-1.242780300110891828e-01,-2.792622317100744156e-01,-2.512818152698271341e-04,-4.374934590027281943e-04,1.279735423514953736e-03,1.415706276893615723e-01
-1.540523002719980383e-01,-1.483077277136895800e-01,-2.881662727267435553e-01,7.467371314438333869e-04,-2.015300220686522747e-04,-2.504417887545096872e-04,1.370837986469268799e-01
-1.526323807429942336e-01,-1.520089716229669485e-01,-2.886383465260331516e-01,7.346311706637293718e-04,2.935924092358300282e-04,2.920331089095930688e-04,1.363265663385391235e-01
-1.518964710160086995e-01,-1.515298082376543287e-01,-2.871265188612652230e-01,1.753171755116933429e-04,7.252704683770772216e-05,1.560844378200670576e-04,1.354144215583801270e-01
-1.499211112239035582e-01,-1.501824407718125032e-01,-2.892243759010211246e-01,7.978620399248137658e-04,4.743358489851566898e-04,2.496797344724256879e-04,1.391827464103698730e-01
-1.530104083362056888e-01,-1.524972511806390596e-01,-2.896453616099623485e-01,5.219710452172830230e-04,7.391416451507752672e-04,3.952734984768937901e-04,1.369029432535171509e-01
-1.537006982172196279e-01,-1.277691284866719623e-01,-2.809810855537108187e-01,6.769932935888205465e-04,7.105069222059196921e-06,3.700502365340599398e-04,1.420391052961349487e-01
-1.512912424896739050e-01,-1.378349946326846986e-01,-2.859130319952786770e-01,7.324671184354937178e-04,2.928309616836665655e-05,1.161812469384926457e-03,1.418494433164596558e-01
-1.519850244629732949e-01,-1.515009906494003689e-01,-2.877402883047563420e-01,-1.045847211447892429e-04,4.641557408241669892e-04,9.845667997482222421e-05,1.360005289316177368e-01
-1.274462984018764344e-01,-1.598800610621806395e-01,-2.810980949873062573e-01,-1.770628590087411120e-04,4.537278644962661894e-03,4.311003655174677090e-04,1.404981464147567749e-01
-1.285723362144979010e-01,-1.556871509401127618e-01,-2.763123578096867705e-01,-3.723944942854390348e-03,2.827903520921906406e-03,-8.732563222215308047e-04,1.364707499742507935e-01
-1.502093284895575642e-01,-1.374611479175828488e-01,-2.861311135141770268e-01,1.696882490327651996e-03,3.356265623920707403e-04,1.069809179889303664e-03,1.427669823169708252e-01
-1.268748675229864897e-01,-1.593370671615716716e-01,-2.800671141208647130e-01,-1.259596377615965765e-04,4.650008268990108579e-03,5.838109096440142294e-04,1.400522738695144653e-01
-1.283144854431342574e-01,-1.579070201344535684e-01,-2.820419074922332348e-01,-1.286828775662205967e-03,5.840833417662086476e-04,-8.050824931101913931e-04,1.413031816482543945e-01
-1.495815634100711722e-01,-1.408102230446557357e-01,-2.811714928373681421e-01,5.198181363709317507e-03,3.933044469664202835e-04,1.044962330625392056e-03,1.364986002445220947e-01
-1.563143382185307739e-01,-1.271332958027854287e-01,-2.876905113667155844e-01,-3.936355238842512280e-04,1.124249261023748747e-03,2.135349134133668076e-03,1.481987237930297852e-01
-1.245639856520688177e-01,-1.567574893247354884e-01,-2.724715161946919539e-01,-1.565723142383473052e-03,4.312006137901277375e-03,-3.193015142938971941e-05,1.349612325429916382e-01
-1.422964154218678279e-01,-1.404362689280383991e-01,-2.880191750679100826e-01,1.162310384287852574e-03,-1.205112633655088975e-04,4.042861981264308412e-05,1.466756612062454224e-01
-1.523876904253924636e-01,-1.374807312682007066e-01,-2.881447014837947851e-01,4.307697295887410148e-03,7.799799292516776481e-04,1.287110712337437681e-03,1.440082341432571411e-01
-1.542786674749303255e-01,-1.369306817611273264e-01,-2.854185263514778526e-01,4.283580927962556996e-03,1.245980403682669154e-03,1.637699238058492029e-03,1.408594250679016113e-01
-1.447836339270559269e-01,-1.357037542140121233e-01,-2.846598196519766755e-01,1.811698829399795629e-03,2.123572804741320514e-04,4.168019826837569678e-04,1.446663588285446167e-01
-1.554496979059377670e-01,-1.305830776077144262e-01,-2.846452373815647752e-01,-1.314379538890278823e-03,-2.843769548434073877e-04,-1.276884311593409977e-03,1.432927399873733521e-01
-1.437485696293383242e-01,-1.439458786722540296e-01,-2.880352624127343608e-01,2.526696713903610857e-03,4.639708052702998416e-04,3.794087298717381583e-04,1.442582756280899048e-01
-1.460574148075182155e-01,-1.327937357742741409e-01,-2.801864420893179775e-01,4.225978378353887309e-03,7.547543933887294193e-04,1.229969766535456014e-03,1.414404064416885376e-01
-1.147328737865547371e-01,-1.643218780699868820e-01,-3.119279644343391777e-01,3.238911494121954338e-02,3.085635138828739590e-02,3.200827273304320680e-02,2.016019821166992188e-01
-1.585838668711976873e-01,-1.424897524755129319e-01,-2.551423552887034374e-01,-8.793392673727218681e-03,7.953857617076096759e-03,-1.848916305212151487e-02,1.121779680252075195e-01
-1.354298857437549741e-01,-1.201422299739134392e-01,-2.150659061448126075e-01,-9.729068636342376800e-03,4.009144946105777998e-03,-1.411765025116217508e-02,9.339788556098937988e-02
-1.397546335143470542e-01,-1.397381494625549170e-01,-2.870519115398048049e-01,1.100090484085551341e-03,-8.938639452812475680e-05,-4.003160416379002477e-05,1.473179459571838379e-01
-1.527939088604743367e-01,-1.353138111992056025e-01,-2.780839734770921834e-01,-6.648687853378312806e-03,1.374365248430762512e-03,-8.216758652055373242e-04,1.354014128446578979e-01
-1.566116761275954672e-01,-1.293863897146907971e-01,-2.733221171175754249e-01,-5.145738974724988618e-03,-2.934441962373697966e-04,-4.016490689370349706e-04,1.327410936355590820e-01
-1.356423447299917873e-01,-2.091913864916211396e-01,-3.806412477498354319e-01,4.434584005232237308e-02,1.261199116056798721e-02,4.249392703916617803e-02,2.433280497789382935e-01
-1.426723062048018686e-01,-1.429254265166162441e-01,-2.884460212575731264e-01,-3.371220714340263666e-04,1.726676218007461652e-04,2.763661692339614831e-04,1.456495821475982666e-01
-1.397008929321065795e-01,-1.442971257802853624e-01,-2.867188568666136916e-01,8.782942853236234016e-04,1.662561219143525437e-04,5.246715000416502222e-04,1.447857022285461426e-01
-1.427107656679921788e-01,-1.434026143158357858e-01,-2.896345590360900335e-01,5.031846853224457539e-09,1.723087043844256558e-05,1.678114514364891527e-04,1.465793848037719727e-01
-1.412989647792783632e-01,-1.473944680366957027e-01,-2.860538606290350949e-01,-4.228281239795507636e-03,-8.254412922275966135e-04,4.913618372143676574e-04,1.420041769742965698e-01
-1.454835160563020535e-01,-1.427271734612454990e-01,-2.878217244275457221e-01,-7.862037211276221016e-04,-2.585954334345007201e-04,1.286127069553955179e-04,1.437435299158096313e-01
-1.428869020416944080e-01,-1.446421527227824688e-01,-2.875682926550141572e-01,-1.166322744701372418e-03,2.158392392022838262e-04,8.860191229355617027e-05,1.438265591859817505e-01
-1.434487129112300974e-01,-1.446832732670233490e-01,-2.891990569968523883e-01,-4.726042229405634206e-04,1.968232749217971019e-04,-7.520413668819173753e-05,1.451397687196731567e-01
-1.421830926242956816e-01,-1.413563650889969048e-01,-2.880508518768147286e-01,-5.109786155856495520e-04,1.491194742289563089e-04,-1.681588275335110750e-04,1.462860703468322754e-01
-1.399979921139175854e-01,-1.576985679654531181e-01,-2.900651766792402553e-01,-4.767585138859749836e-04,1.964880051028886857e-03,-7.320336092187027096e-04,1.420952677726745605e-01
-1.602957579844407343e-01,-2.109482613677951535e-01,-4.278193256925428845e-01,6.016587932342849082e-02,5.728502537502010161e-02,-4.486030000463641504e-03,2.852169275283813477e-01
-1.431377728084201884e-01,-1.474690741908160629e-01,-2.897227584580461812e-01,-8.582394330959674080e-04,4.318308532162265295e-04,9.642179875704362502e-05,1.444777250289916992e-01
-1.353423625271544251e-01,-1.474894981365988955e-01,-2.807689735005258203e-01,-3.975732583779649672e-03,-1.320509467337925829e-03,5.558543778264146262e-04,1.399411112070083618e-01
-2.179809615707486159e-01,-2.214355834875349482e-01,-2.196029006968956976e-01,-1.096113248921660316e-02,-8.080620602533984675e-02,4.210425158223828068e-02,1.589862704277038574e-01
-1.442620149292466736e-01,-1.314980691309172167e-01,-2.814639029564320327e-01,3.876249217445650042e-03,8.688729458699671199e-04,2.125809965878728766e-03,1.442200094461441040e-01
-1.419839613643900378e-01,-1.431692066077075443e-01,-2.881997291777574910e-01,-4.236939402408462243e-04,-3.924179037330917868e-05,-2.189176536119329737e-04,1.456291228532791138e-01
-1.459822417319070198e-01,-1.392986761472772006e-01,-2.868569196516732034e-01,-3.375540024861982055e-03,1.992315517484386216e-04,3.497246507241516338e-04,1.444526165723800659e-01
-1.433280199672366528e-01,-1.393320502501974867e-01,-2.847717568962111478e-01,-3.454265324163795833e-03,-8.347928636140065873e-04,1.303445844318898298e-03,1.436331719160079956e-01
-1.656520358042824492e-01,-1.336591780954392017e-01,-2.782773498946884416e-01,-2.895743928663722846e-03,-1.449279822502636461e-03,1.944851120972967149e-03,1.317346394062042236e-01
-1.423249711975675125e-01,-1.404759033558693471e-01,-2.872985509084933220e-01,-1.596235807514119042e-03,-5.249646528340155219e-04,1.126399819829257756e-06,1.459359228610992432e-01
-1.362869312120819631e-01,-1.471479783445567846e-01,-2.791871525928334430e-01,-5.102439466910260735e-03,-2.428890293753739442e-04,4.837479853442400407e-05,1.380749046802520752e-01
-1.459322231453416552e-01,-1.452303112679934616e-01,-2.865633654410870701e-01,-1.878144582627558606e-03,-5.881468860957588364e-04,4.661412814976495121e-04,1.410269290208816528e-01
-1.405628968976667115e-01,-1.423925012731968587e-01,-2.874867801247991683e-01,-1.507248059834731448e-03,-8.691937101522171803e-04,7.895457933729414573e-04,1.460551768541336060e-01
-1.387383918870885857e-01,-1.440467550514342165e-01,-2.845600710348363260e-01,-1.149493223867982007e-03,-8.946249625983006618e-04,4.642543437743911600e-04,1.432657539844512939e-01
-1.535454084099887040e-01,-1.502283325020463689e-01,-2.247141184580546958e-01,7.516890699280386230e-03,8.175440507258123490e-03,3.782642076762059505e-03,7.566379755735397339e-02
-1.373041557966562520e-01,-1.460944111759401864e-01,-2.853666739496476534e-01,-2.285249077035747620e-03,-2.874678319274303370e-04,-6.369286674141172834e-04,1.439284682273864746e-01
-1.244524669845902681e-01,-1.566688032336277236e-01,-2.751836350642256068e-01,-5.452003361172604598e-04,9.326062167442154523e-04,-4.384143201772051500e-04,1.374985426664352417e-01
-1.513292945105708664e-01,-1.611530745372164175e-01,-9.081414537411597321e-02,-4.581984349405842684e-03,1.262689728105818691e-03,1.119491537092625645e-02,6.925909966230392456e-02
-1.402876148884246166e-01,-1.450416965667255531e-01,-2.873150005327564926e-01,-1.135392582464662698e-03,1.731904376575621690e-04,-4.802459476248541496e-04,1.447249948978424072e-01
-1.488843003105733420e-01,-1.340978430406686295e-01,-2.859289967184465708e-01,9.227371979669062941e-04,2.530051540896494544e-04,-7.077201046960182194e-05,1.450139880180358887e-01
-1.298388405461485262e-01,-1.623300214331486746e-01,-2.855344328396516307e-01,-1.066686266245897357e-03,9.534332780429021284e-03,-9.912902233419871884e-05,1.432278454303741455e-01
-1.542100991921295516e-01,-1.407109580752424205e-01,-2.782009328775051360e-01,-8.030715597784541387e-03,-5.606345032873041520e-03,1.000329132989469585e-02,1.334829181432723999e-01
-1.362111238403790336e-01,-1.870577982852679455e-01,-3.329500610633153723e-01,-4.941986708524675987e-04,1.492446081661791962e-02,4.392274772500821063e-04,1.787668913602828979e-01
-1.456504821373247327e-01,-1.501290866721846085e-01,-2.909299810800485275e-01,4.846062946592999453e-04,-9.325829722853121000e-05,-1.066704225569799951e-03,1.431072503328323364e-01
-1.383574204154972009e-01,-1.661030683581160017e-01,-3.047944688853302386e-01,-3.128782808976399957e-04,3.755393548237142849e-04,1.069842781990340205e-03,1.544582694768905640e-01
-1.113808963856768586e-01,-1.425013937289974775e-01,-2.581251324621179899e-01,8.205380536822771964e-03,1.603814519382806489e-02,6.153432757420952692e-03,1.379233449697494507e-01
-1.604201306242886704e-01,-1.289257039204605437e-01,-2.882972477519294419e-01,5.981562333957433485e-04,-3.156570889102940070e-04,-3.200200509871595732e-03,1.463009566068649292e-01
-1.190710941913229182e-01,-1.518804175200547113e-01,-2.776027910769564566e-01,-2.178000295927181012e-03,4.342338585441260848e-03,-1.740343034306512590e-03,1.452147364616394043e-01
-1.346688819419682992e-01,-1.667334274848663589e-01,-2.979017842383504533e-01,1.240477375230307792e-03,2.383756455640759393e-03,4.091881610814989204e-03,1.500367373228073120e-01
-1.598938990130140958e-01,-1.518500860783613404e-01,-2.237205037523697926e-01,4.168750993163963109e-03,1.398968030567277225e-03,4.394183902349995362e-03,6.904984265565872192e-02
-1.481929551700511549e-01,-1.433603220453839311e-01,-2.893787543427134290e-01,4.032674959610120513e-03,9.067113999873312744e-04,1.010479732661264882e-03,1.438520103693008423e-01
-1.308088364343594212e-01,-1.638218737938387515e-01,-2.862617319946065275e-01,2.245583528260592168e-03,-6.591976585401195660e-03,-1.837579288030954114e-04,1.423695236444473267e-01
-1.356102081641232804e-01,-1.608834973727702455e-01,-2.870645668468151390e-01,6.284288858280300850e-03,-4.018058641165366159e-03,-2.847098412950330778e-03,1.412113308906555176e-01
-1.283183066253847648e-01,-1.585580578527494011e-01,-2.835149593765274867e-01,1.242750542494163671e-03,-4.106398303027037310e-04,-3.769802443184984420e-04,1.425233334302902222e-01
-1.257992361803406678e-01,-1.583921573464548427e-01,-2.814476871459450358e-01,1.606895378952812601e-04,-2.052313654376147940e-04,-2.359584359878948411e-05,1.421826481819152832e-01
-1.565006777893174217e-01,-1.628429412276998500e-01,-1.897949473474439264e-01,-1.072827011027555543e-03,1.286885575121316655e-03,1.285025965849651312e-03,3.083742223680019379e-02
-1.253948887172118276e-01,-1.605406307669558219e-01,-2.819136532377004012e-01,-5.533173037299810547e-04,-1.244404782790366768e-03,-3.680544949100833301e-04,1.422615498304367065e-01
-1.272020465580318560e-01,-1.623359617909871933e-01,-2.830031825231525966e-01,-1.849785694057692019e-04,-1.529940648138007489e-04,4.512977760223318697e-04,1.415459811687469482e-01
-1.484630092380966326e-01,-1.609932415776437198e-01,-2.976017827809385174e-01,9.970475578584575994e-04,1.096932720241832653e-03,4.031591229288239062e-04,1.433098614215850830e-01
-1.345403847743357473e-01,-1.420968000585632329e-01,-2.844838199338963203e-01,1.906559776971667505e-03,2.016625422137107468e-04,5.702286661142258331e-04,1.463526636362075806e-01
-1.417524324258311319e-01,-1.395599243789830135e-01,-2.861998017024507401e-01,-2.008806725146177613e-03,-2.757940266133588106e-04,-6.952028475899960894e-05,1.455984264612197876e-01
-1.433346793956807308e-01,-1.426208473547189992e-01,-2.885157358491088342e-01,-5.225024975592544238e-04,-9.077417890274263170e-05,-2.100578954018626114e-04,1.455426365137100220e-01
-1.453383969584463309e-01,-1.363536321520070205e-01,-2.778122720661234668e-01,6.623479900124041100e-03,3.597862341117425929e-04,1.003556906266235083e-03,1.376783251762390137e-01
-1.398942805103543796e-01,-1.439652107922131108e-01,-2.830206053219768703e-01,5.727982134962538059e-03,7.456800198091186223e-04,1.798220977983789985e-03,1.415233463048934937e-01
-1.433382574012591615e-01,-1.383454119084843170e-01,-2.838876738495723639e-01,2.798505171957669201e-03,1.411877675164189497e-03,1.445935750299235474e-03,1.432360112667083740e-01
-1.300187494196748672e-01,-1.462762877840413367e-01,-2.828603289878506843e-01,3.585840701813767118e-03,1.042789440741839204e-03,-8.255411804980693203e-05,1.455399841070175171e-01
-1.454647337894066361e-01,-1.305388160202820835e-01,-2.780150404899015548e-01,4.607604890306239709e-03,6.574567723380590149e-04,1.413007028223865280e-03,1.408608406782150269e-01
-1.463455659277522747e-01,-1.363758871530489358e-01,-2.863123857075918766e-01,1.858554820301728562e-03,1.176511177566751760e-03,2.815849989717420583e-04,1.452593654394149780e-01
-1.461023568895620239e-01,-1.550198655178247065e-01,-2.917041803272993894e-01,2.553464428571576746e-04,-3.413045283721664511e-04,-9.059123181577760945e-04,1.413648277521133423e-01
-1.439462092278682159e-01,-1.404598138963656095e-01,-2.803936266003127509e-01,7.352988632677209639e-03,2.287068417147045379e-03,3.668692775624872362e-03,1.390109062194824219e-01
-1.358161850106603397e-01,-1.459483935784909869e-01,-2.829415551528610129e-01,2.036454577231383827e-03,8.014872698590017139e-04,7.896035735361265186e-04,1.423870474100112915e-01
-1.376132463288342045e-01,-1.439634034836449750e-01,-2.850859506168749724e-01,1.155041831446569894e-03,-3.575600259779310273e-05,-1.758380341266586313e-04,1.444165706634521484e-01
-1.493133773490153415e-01,-1.503107419327681105e-01,-2.894167449615399068e-01,-2.404137789647875501e-03,3.619417761653227783e-04,6.289717469362272580e-04,1.396750956773757935e-01
-1.502169725406214962e-01,-1.379805681665583483e-01,-2.865693536119462981e-01,-1.531791976529201264e-03,-6.413278109835024877e-04,3.597951306697973499e-04,1.428944617509841919e-01
-1.384279070897050934e-01,-1.484463794786729518e-01,-2.871593634579113763e-01,1.862773550285979837e-03,1.775396800625978107e-04,3.698173036779962017e-04,1.440217643976211548e-01
-1.193696152586377623e-01,-1.517565742989212541e-01,-2.698924897719065519e-01,-1.520557445642672088e-04,-1.078862078183564013e-02,-2.718363718216000027e-04,1.384938508272171021e-01
-1.495770342615738158e-01,-1.703868999280583885e-01,-3.185510013703974908e-01,-2.221069791928009449e-02,-3.546729497786587498e-02,2.462958298821922923e-02,1.803954243659973145e-01
-1.384278642667332304e-01,-1.402397032088468221e-01,-2.831981278022213111e-01,-1.315293819546908567e-03,-3.985673450438009932e-04,1.006420887516506742e-03,1.439031511545181274e-01
-1.465265636085775203e-01,-1.553682076658154387e-01,-2.917520389703363581e-01,3.764511784268635176e-03,2.136912929631427753e-03,-9.055003046753395913e-04,1.412205845117568970e-01
-1.341501092375276261e-01,-1.519733486081430995e-01,-2.810643630600579979e-01,-5.107124856597966382e-03,-2.518743616383412130e-03,1.043204564181235850e-03,1.392247229814529419e-01
-1.479165233546166358e-01,-1.485673773930458463e-01,-2.891613641639874110e-01,-4.476088497559329378e-05,-7.225346573264669571e-04,-2.893035272924142452e-04,1.409270167350769043e-01
-1.287769644036465266e-01,-1.525117319649524072e-01,-2.856098395395885170e-01,-1.038503072865258180e-03,-2.594807280979104756e-03,4.362991783980870657e-04,1.464974582195281982e-01
-1.336184820133928253e-01,-1.618531448045887333e-01,-2.931449252361281732e-01,-7.167145113347192726e-04,-3.328477627507158906e-03,2.777341110109545191e-04,1.475693583488464355e-01
-1.584873912850992550e-01,-1.594725851810582240e-01,-3.219513853245253299e-01,-2.429220202735921791e-02,-1.226588822865878024e-02,1.402348592009362849e-02,1.713828146457672119e-01
-1.481062075727928307e-01,-1.622247919709886022e-01,-2.963117038858937846e-01,-3.729777059319820849e-03,6.463574903685434514e-05,-1.307543288025700065e-03,1.418401449918746948e-01
-1.314135334042564052e-01,-1.492895637027787659e-01,-2.809240102917504034e-01,-2.482153679697343077e-03,-5.114911336167817955e-04,-1.168530571331748602e-04,1.414906084537506104e-01
-1.445220214348606480e-01,-1.450281294919438246e-01,-2.888356115872458552e-01,-2.934268185202935420e-04,-5.925624773261959803e-05,1.336696329723661416e-04,1.440623253583908081e-01
-1.430220350020694753e-01,-1.422801536397717836e-01,-2.884657568818861373e-01,-4.012852485680399347e-04,4.601827904906996244e-05,2.886124344233118792e-05,1.458177715539932251e-01
-1.777612618132813627e-01,-1.486724167604868141e-01,-2.582447962934328323e-01,-1.023269001954584759e-03,2.054561732059504917e-03,2.002672985140030795e-02,1.043261587619781494e-01
-1.553849763211636037e-01,-1.353087253599939976e-01,-2.443571768581453141e-01,5.347322330036844047e-03,-1.014616209287522944e-03,3.963075721439693506e-03,1.011994257569313049e-01
-1.425711904374667993e-01,-1.408439327220782356e-01,-2.871280243358612649e-01,-9.763014398082719980e-04,4.538041250441447782e-04,-5.498510049575549468e-04,1.454432308673858643e-01
-1.420714780877714578e-01,-1.461867057477688192e-01,-2.863087460342284007e-01,-5.805636964124813275e-03,1.328632858002023109e-03,-1.262931225020183816e-03,1.426146924495697021e-01
-1.474477850174195914e-01,-1.555370213373570565e-01,-2.912981890954352004e-01,-2.141779071215269264e-03,1.605772593051225309e-04,7.480727501301750332e-05,1.400306820869445801e-01
-1.359938769766746158e-01,-1.477462638872954759e-01,-2.870281242331914617e-01,-9.078830810678756302e-03,2.831124526551561001e-03,-2.125353219870840683e-03,1.464900076389312744e-01
-1.497358767404650126e-01,-1.304457807529341706e-01,-2.826706971325573248e-01,1.381772003606735648e-03,5.853741409758841203e-04,1.194165567526584608e-03,1.435936391353607178e-01
-1.571125405501346273e-01,-1.315277800891824778e-01,-2.842104434567367943e-01,4.529039239415981292e-03,-2.927310089782399205e-03,-9.708801317936634895e-03,1.429344415664672852e-01
-2.272774259755445114e-01,-1.995121619727889817e-01,-2.622805250545768296e-01,-1.132092226181872704e-02,-2.858335503339174896e-02,9.694674993462455703e-02,1.843896061182022095e-01
-2.008088048438283757e-01,-1.528049433196346507e-01,-3.020181375954932301e-01,-1.984153454150567111e-02,-5.460021070935233700e-02,7.263744726560118770e-02,2.082290649414062500e-01
-1.533546828893495584e-01,-1.547029490580408839e-01,-2.447369234301628727e-01,-7.172037653469865923e-03,2.735426815109057944e-03,-2.798536305406870272e-03,9.181275218725204468e-02
-1.291940066255202746e-01,-1.603165805702548297e-01,-2.879460852613571764e-01,4.668324851499530670e-04,-3.029658837770253087e-03,2.192999494802986941e-04,1.458026021718978882e-01
-1.536648053943823755e-01,-1.728168293110845244e-01,-1.274245752531061870e-01,-1.286089527480997405e-02,7.324234862225059706e-02,-5.172888266692291653e-02,1.617871075868606567e-01
-1.733740353300352588e-01,-1.831055716418900081e-01,-3.477192630956527641e-01,-2.404381512698991821e-02,9.826121820149991484e-03,-1.015734533119558823e-02,1.764307320117950439e-01
-1.490387317218615504e-01,-1.427334873972586904e-01,-2.936982851402445971e-01,5.258984585439517578e-03,1.287827748758448108e-03,1.266670108968989011e-04,1.482101529836654663e-01
-1.613408940081033360e-01,-1.437411875810490347e-01,-2.918757967560309252e-01,3.758836515889114405e-04,3.767781585449892336e-04,3.001019700917219508e-04,1.401699185371398926e-01
-1.235366030740053661e-01,-1.387332884740407890e-01,-1.557677415380941954e-01,8.038952527985507995e-03,-3.491558865497984554e-02,-1.723967950733947332e-02,7.431532442569732666e-02
-8.250784184860174286e-02,-1.280771665657060021e-01,-2.958376263780878590e-01,3.850817117455886812e-02,1.641293888598851711e-02,1.096962386660241262e-02,2.085249572992324829e-01
-1.638112836935488315e-01,-1.563522525781714523e-01,-1.904915748661331898e-01,-1.180337732597669647e-03,-2.304129766061963763e-02,-3.402488484557441434e-02,7.769457250833511353e-02
-1.533796108929182389e-01,-1.431544749796867799e-01,-1.782569727991334951e-01,3.222723904724742860e-03,5.137046309726448629e-03,1.231881915619849679e-02,3.928608447313308716e-02
-1.653213557080807639e-01,-1.364180204230826254e-01,-2.751554736718346827e-01,5.497855152535294134e-04,-1.277645274103479927e-03,1.163116205317562234e-02,1.283945590257644653e-01
-1.312831599260800286e-01,-1.509849805240445209e-01,-2.798164753600116406e-01,5.515905410142235045e-03,3.526568297994624960e-03,2.811532672758946041e-03,1.402719914913177490e-01
-1.491207943827989879e-01,-1.478436563258481162e-01,-1.589744830779565576e-01,2.680273141094523704e-04,-2.833756775467116077e-03,1.336087774547321371e-03,1.187317259609699249e-02
-1.710126157555111048e-01,-1.650731818956257257e-01,-2.033078945838415752e-01,3.090034038341557109e-03,3.990518692967482306e-04,-1.223513743003367717e-02,4.181262850761413574e-02
-1.419161356396173301e-01,-1.404685136511156229e-01,-2.706359335017938239e-01,8.825932241848457802e-03,9.410303534822455707e-04,1.631196953172280592e-03,1.303899884223937988e-01
-9.006797164761382035e-02,-1.046637492733281105e-01,-1.759321867756115931e-01,2.702104771602551955e-02,6.264113750862349006e-02,3.634314217301318206e-02,1.557468026876449585e-01
-1.396475558815999385e-01,-1.244280292609503541e-01,-1.755914386637468516e-01,7.808637088960998507e-03,-1.669400008739497371e-02,-2.672923452235490341e-02,7.233944535255432129e-02
-1.480993293223652751e-01,-1.619139063482432084e-01,-2.677669921136974218e-01,5.800170926711738055e-03,2.487434563975247752e-03,4.975026303474632807e-04,1.139221861958503723e-01
-1.534965016730304443e-01,-1.545831290452414353e-01,-2.437714184384584815e-01,6.251537110013111187e-03,3.444652373915876864e-03,1.857800127871180604e-03,9.064128249883651733e-02
-1.652424898899446937e-01,-1.547845573018839793e-01,-2.267780067017829415e-01,2.872100170590116078e-03,6.143352082457481525e-04,4.375782905672771089e-03,6.799150258302688599e-02
-1.479011754389621403e-01,-1.354760299025662140e-01,-1.852129411433687256e-01,6.007607802123813429e-03,4.839598412326859798e-03,-4.428997863246189430e-03,4.740826413035392761e-02
-1.547161573434835125e-01,-1.524767008261731505e-01,-2.351100165795422525e-01,5.899679952002896341e-03,-9.888021189728441601e-03,-1.768879757248830939e-02,8.935683965682983398e-02
-1.381639328415190660e-01,-1.561363385036940166e-01,-2.876756353260944699e-01,1.067377470441009495e-03,2.939766698749851181e-04,-2.586965170988587861e-04,1.413985490798950195e-01
-1.294999554535633535e-01,-1.586420196698812846e-01,-2.867775411447378020e-01,3.770810801007794255e-03,8.189920715164323434e-03,1.348016277359488299e-03,1.457787305116653442e-01
-1.422322384215066460e-01,-1.617309158980191064e-01,-2.425589983908367497e-01,4.599200396122707889e-03,1.871523142886747162e-02,1.035236158473941143e-03,9.801464527845382690e-02
-1.550602574885330542e-01,-1.694654158101349395e-01,-2.688606481847157226e-01,-5.865231954718302942e-03,1.496134084964598383e-02,-4.827639201130234752e-03,1.111906990408897400e-01
-1.341614206335151049e-01,-1.445728383668347661e-01,-2.787083470169350319e-01,7.195843188370437682e-03,1.211412090015582914e-03,-6.740935998405385530e-05,1.402035355567932129e-01
-1.378742710999443788e-01,-1.531707435311081000e-01,-2.863149964302239003e-01,2.571959618157731997e-03,6.452276022898468556e-04,7.384850817975530395e-05,1.414889395236968994e-01
-1.326356564119885728e-01,-1.519234757680376358e-01,-2.689565357156002423e-01,5.335338779077154585e-03,2.255048663842636192e-03,3.091879285918279897e-04,1.281678974628448486e-01
-1.310438046566294867e-01,-1.567129029891180803e-01,-2.702161975913557335e-01,2.618079590321490194e-03,5.740117488332834982e-04,3.710644394441668702e-04,1.283642947673797607e-01
-1.612463636744738138e-01,-1.365640689819831166e-01,-2.935848119402258982e-01,2.484725921045923686e-04,1.475831556852700167e-03,2.254884028502595218e-03,1.463252156972885132e-01
-1.310026341540485306e-01,-1.493646842124378982e-01,-2.825448237735162516e-01,2.121194143307809921e-03,9.759213766188421608e-04,1.586959083652948862e-04,1.433039009571075439e-01
-1.380180522057317116e-01,-1.528804408970834139e-01,-2.895491329732167163e-01,5.566823590136217061e-03,3.637156623998116095e-03,6.211785725629193934e-04,1.451353132724761963e-01
-1.258156055512048843e-01,-1.553212289128400592e-01,-2.828542188792339540e-01,2.276640001436310186e-03,2.432779256463787204e-03,2.568629072522418851e-03,1.447455883026123047e-01
-1.393586214708780469e-01,-1.424223759979214854e-01,-2.861734216387901153e-01,1.262025526931651693e-03,-2.350820549937485517e-04,1.780482324394321361e-04,1.453244835138320923e-01
-1.526866824769085862e-01,-1.377352485676507365e-01,-2.822648093438137051e-01,-5.416573026290981592e-03,-2.198934879026744017e-04,2.002457590052530729e-03,1.380275636911392212e-01
-1.459274798046369670e-01,-1.403275161715029085e-01,-2.887755250927809270e-01,-1.053966494877938472e-03,2.164885389483236914e-04,5.200967426001189319e-04,1.457434445619583130e-01
-1.418587984681620728e-01,-1.729497072254961854e-01,-2.698475016415625705e-01,-7.283314239647550002e-03,-2.071449877416375526e-02,8.603625642803080023e-03,1.226252242922782898e-01
-1.459546150099399198e-01,-1.447321914672427545e-01,-2.821502684846278752e-01,-7.957218200452672099e-03,-1.228329007282470209e-03,1.779185095068185713e-03,1.375544071197509766e-01
-1.484539497393582985e-01,-1.295342134430963466e-01,-2.800780244537755537e-01,-3.376858090916936683e-03,-1.595935321700247319e-03,1.154461062378722268e-03,1.421935111284255981e-01
-1.267439914894330777e-01,-1.528829915333216050e-01,-2.794999060408964175e-01,-1.202567146077034889e-03,7.854369291418405400e-04,1.952812178715220687e-04,1.415310353040695190e-01
-1.496473603133020025e-01,-1.321295658271252338e-01,-2.807932355310558403e-01,-3.422227923629914646e-03,7.064830153762430222e-05,7.593181011654448736e-04,1.408558785915374756e-01
-1.347927188706021795e-01,-1.512423333973111905e-01,-2.868982458745516495e-01,2.195586218744553959e-03,-1.170578347239080181e-03,-5.532180778324403232e-04,1.446516364812850952e-01
-1.502205664999223811e-01,-1.387838412302825064e-01,-2.881884566724112196e-01,-1.493637812308460863e-03,3.214869999419373622e-04,3.960082737355368897e-04,1.440531611442565918e-01
-1.483720787608331371e-01,-1.310253688693552021e-01,-2.834195162067195128e-01,-2.686860441706432831e-03,-1.785737475346816511e-03,1.323916252109569184e-03,1.446299701929092407e-01
-1.494156103035033656e-01,-1.507672552408233502e-01,-2.874464677808481472e-01,5.765407108907151697e-04,2.740491150010264474e-04,4.323206485697048129e-04,1.373665183782577515e-01
-1.478610712605640809e-01,-1.465158134780538968e-01,-2.878350046151921804e-01,-3.547546518408824711e-04,5.055648151982241505e-04,-2.296966105094486502e-04,1.406560242176055908e-01
-1.531090797068820897e-01,-1.520254518699451218e-01,-2.364690776864779020e-01,-7.954658670716771920e-03,-2.480421975546663865e-03,2.594417245939133546e-03,8.525769412517547607e-02
-1.472235570669335192e-01,-1.472779995303767353e-01,-2.878962464370844465e-01,-3.465222308654581393e-04,4.615198740493986918e-04,-3.214130447162104917e-04,1.406501233577728271e-01
-1.458513655114834773e-01,-1.471934180101503731e-01,-2.871843773309953884e-01,-9.635661709933957767e-04,1.402968050913395829e-04,6.209976581948473432e-05,1.406769454479217529e-01
-1.274686836490460107e-01,-1.507530308449546164e-01,-2.725210826528581820e-01,-4.851432882314610402e-03,-3.324652304347837178e-04,7.368128677956183427e-04,1.351942270994186401e-01
-1.499351556079248082e-01,-1.492650144060979067e-01,-2.886112881740482972e-01,-7.712166993755094607e-04,5.278664258223495940e-04,-5.234508236284300632e-04,1.390247941017150879e-01
-1.401666614327974902e-01,-1.404608964354866485e-01,-7.764968583657197443e-02,5.757866332648383170e-03,3.405420199650625868e-02,5.494898253854212100e-02,1.286994516849517822e-01
-1.713981535891370145e-01,-1.341836032607930385e-01,-2.512052482978814893e-01,1.583959579528237613e-02,7.995256826396858127e-03,3.886838656497185879e-02,1.272823065519332886e-01
-1.727274633128090819e-01,-1.302032076804671423e-01,-2.344473695337642993e-01,-5.463233737096662851e-03,-6.069133110991540821e-04,3.445583410779717859e-02,1.090619638562202454e-01
-1.424051313503122973e-01,-1.410636428173250301e-01,-2.871162852120334730e-01,-1.564979175822551159e-03,-3.394481960719676421e-04,3.494885620316341354e-04,1.454142481088638306e-01
-1.462907116876480673e-01,-1.550551191106429583e-01,-2.677348953774010831e-01,-8.111721749606101706e-03,-1.834873595001110984e-03,1.086788199249844045e-03,1.182039007544517517e-01
-1.574518728485575503e-01,-1.286922100673151825e-01,-2.870269211607803794e-01,-1.124973895485677612e-03,3.134616993876430816e-04,-2.907147094098561091e-03,1.461943686008453369e-01
-1.493313691738706039e-01,-1.590653789419179398e-01,-2.238091690884332907e-01,3.525242680476283006e-03,4.992704241145094063e-03,1.128780074348744627e-03,7.094090431928634644e-02
-2.048257330802898124e-01,-1.676398462705282477e-01,-2.471653303586645312e-01,1.699857765065634690e-03,-9.927949780181312064e-03,5.687938732453287627e-02,1.214908361434936523e-01
-1.568287830359466339e-01,-1.299641922759013080e-01,-1.840008331015599852e-01,3.942870523259311977e-03,1.797518343071787678e-02,6.256100687966040241e-02,1.222603470087051392e-01
-1.377225927173664766e-01,-1.557483736999752677e-01,-2.538231676962243721e-01,6.353268686903708849e-03,-1.107173910506935397e-03,-8.541138646211822536e-04,1.088045313954353333e-01
-1.427673523208702333e-01,-1.411766844973621760e-01,-2.876443424452162501e-01,1.022299652350394357e-03,-1.686455781736556896e-04,1.351572529034270216e-04,1.456900835037231445e-01
-1.584023137461395003e-01,-1.601677768241606681e-01,-2.476867542004321521e-01,4.587605444375491073e-03,3.029966872779541603e-03,1.221231915763870256e-03,8.895141631364822388e-02
-1.579515554209656725e-01,-1.532536977413949397e-01,-1.560225869073773863e-01,-1.565960789994394909e-03,6.886191129100945052e-03,4.444632629468354273e-02,7.805620878934860229e-02
-1.287004503662512733e-01,-1.257016150774986629e-01,-4.967546108675079120e-02,4.621026499298639192e-03,6.886646067558024019e-03,5.543201846273097116e-02,1.242635250091552734e-01
-1.712155095763688850e-01,-1.710627906817858979e-01,-1.309458988949040170e-01,4.931013270593503049e-03,3.885394703229028829e-02,6.141760019115002911e-02,1.324149221181869507e-01
-1.529248699561880365e-01,-1.315942564127281500e-01,-2.830046421299328152e-01,2.510000041676176477e-03,-5.064679877397383363e-04,-1.443370173459161774e-04,1.420216709375381470e-01
-1.912310595523540602e-01,-1.611653360183309402e-01,-2.086294524927477800e-01,1.476476652448756310e-02,3.143387068848606941e-02,5.486345935973482857e-02,1.199083179235458374e-01
-1.223379308317961156e-01,-1.531939594606919197e-01,-2.479893536777920959e-01,1.343536552909778718e-03,8.781292833966910724e-03,1.095838492924415498e-03,1.144710555672645569e-01
-1.523853132658968268e-01,-1.540318769121332143e-01,-1.834965945436666523e-01,-1.262092707651464802e-03,-1.106933900629006182e-04,6.778298744129819271e-04,3.042351081967353821e-02
-1.339261346402875752e-01,-1.051103573481145526e-01,-1.378346653103739994e-01,3.428290711213238546e-03,-1.831174182951855788e-03,7.293128327233312780e-02,1.302324384450912476e-01
-1.409713867701484491e-01,-1.473497852280782061e-01,-8.075567572268543826e-02,6.305369165307113388e-03,-5.820254108316291752e-02,2.844779989143307597e-03,1.198200881481170654e-01
-1.411942523231683455e-01,-1.401500126271898461e-01,-2.518184696913564058e-01,-1.216512144084139040e-02,4.701438117520785262e-03,-5.093818434185600624e-03,1.137648820877075195e-01
-1.563954635633516554e-01,-1.411478858064145747e-01,-2.884471455858514388e-01,1.285061663402195910e-03,3.797661232854429125e-04,-2.133645765554321744e-03,1.403661221265792847e-01
-1.367174198313738931e-01,-1.580131769962174748e-01,-2.929633906971857438e-01,5.461268707832578600e-04,1.866087296521438477e-03,1.516820637770587368e-04,1.468003690242767334e-01
-1.633265274203588580e-01,-1.726568653261160158e-01,-2.435083202384981937e-01,1.139692951741099435e-02,-1.576143957217847683e-02,-1.880554225499141488e-02,8.924088627099990845e-02
-1.126586475896741157e-01,-1.468500673157678571e-01,-2.587324754418519612e-01,-9.599073573868501181e-04,1.321850845513574367e-02,-3.162432098845422476e-03,1.344213485717773438e-01
-1.668657668805249294e-01,-1.697945543461625573e-01,-1.366713596652888163e-01,6.977042090867876514e-04,1.731753240849090176e-03,-1.269598184542249271e-02,3.876511380076408386e-02
-1.465441407436673116e-01,-1.285642871737198434e-01,-2.453036661046423261e-01,-1.386735295519029090e-02,7.399972695108055637e-03,-1.370289856602331657e-02,1.147035211324691772e-01
-1.743100521246706835e-01,-1.712037513643969167e-01,-2.100824203460427420e-01,1.568634300998597315e-04,-2.849949751195832159e-03,1.577038452488048470e-02,4.659384861588478088e-02
-1.470738857521107779e-01,-1.322253950902511077e-01,-2.819619600431285122e-01,-1.466976274567228589e-03,8.623519699492204673e-04,-5.273322318546939036e-04,1.429254263639450073e-01
-1.410914305021954973e-01,-1.513164940420513027e-01,-2.058093619344244785e-01,-4.090742581878469095e-04,3.399088764699595509e-03,-2.175415256252010918e-03,6.066777184605598450e-02
-1.168238714417154656e-01,-1.129916220703945234e-01,-6.478606308846254769e-02,3.084314226427703736e-03,-7.005693406995294140e-04,-4.414454506531725886e-02,9.164841473102569580e-02
-1.264045029100479556e-01,-1.547043988639258960e-01,-2.807962525135017096e-01,2.277550937670195976e-03,2.812816388278111045e-04,4.449896424660534661e-04,1.424247771501541138e-01
-1.419438375423109355e-01,-1.756938523891458104e-01,-3.190747681426525095e-01,-2.426418631928768492e-03,6.440678640171879077e-03,2.866364176697439817e-03,1.634105741977691650e-01
-1.588553462696660756e-01,-1.272985968155287140e-01,-2.862075309823714497e-01,3.327270866044045841e-04,1.252935344213992105e-03,2.714151718318144699e-03,1.458093672990798950e-01
-1.430791577761844346e-01,-1.615871609166307510e-01,-2.939102629996197535e-01,-4.090636320931832792e-04,2.084540376105312870e-03,9.681838547756426924e-04,1.425388902425765991e-01
-1.399944917372730468e-01,-1.613236684408679011e-01,-2.946411380107504807e-01,-6.965965924740520610e-06,4.635253534689338147e-04,-5.031632516520031167e-05,1.451643407344818115e-01
-1.412324948259230939e-01,-1.496402257261383872e-01,-2.833963713791856076e-01,5.205291923453693632e-03,1.217061410574594906e-03,-6.772318878614351240e-05,1.384619921445846558e-01
-1.290665683102742434e-01,-1.527797343012048392e-01,-2.679444494507578489e-01,5.774041052210975716e-03,1.657900461686849253e-03,6.996666272586378726e-04,1.290963888168334961e-01
-1.462532684908816605e-01,-1.650453359445235579e-01,-3.045331632176404568e-01,7.911329563973396343e-04,-4.269007134265348307e-04,1.531890965769812591e-03,1.498022824525833130e-01
-1.372519507129850158e-01,-1.596626242832613063e-01,-2.942885732750282202e-01,-2.722671706315551478e-03,-3.348887086534185244e-03,-7.642820521498799261e-04,1.473128646612167358e-01
-1.173932859648405685e-01,-2.003115942053514398e-01,-3.434272968633508283e-01,-1.421880638822387716e-02,2.832051096448127275e-02,-2.186426055546126027e-02,2.089767456054687500e-01
-1.466984224403219961e-01,-1.621327233530592826e-01,-2.972082618730710335e-01,1.422498650021800180e-04,-1.157442049383759026e-04,-4.305781430605516014e-05,1.434172987937927246e-01
-1.532431246244174428e-01,-1.674708206028250046e-01,-3.019977032806517303e-01,2.497078152468391659e-04,-1.832828004371959713e-03,-2.663878422423341264e-04,1.422124952077865601e-01
-1.466378600920257846e-01,-1.412199182185563118e-01,-2.877944336084226062e-01,7.910930265643425054e-04,8.015735648217214892e-05,-1.645467649433293613e-04,1.439489126205444336e-01
-1.463806983373400483e-01,-1.412997227800659450e-01,-2.880571092711296521e-01,-2.368849322297526035e-03,-3.843017807056017072e-04,6.458647345458698842e-04,1.443482041358947754e-01
-1.283703688468079418e-01,-1.576372400487935366e-01,-2.805098636862839445e-01,3.165225074459083348e-04,-7.859257318429281993e-04,3.287322188445254375e-04,1.398313492536544800e-01
-1.526504565896982246e-01,-1.544269679957209485e-01,-2.922668202385589886e-01,2.533922152569049492e-03,2.078129745221671547e-04,8.379300660185151671e-04,1.388140916824340820e-01
-1.374255999390526506e-01,-1.473228353482387010e-01,-2.861824000713687477e-01,-5.192693912883211693e-03,-3.212329136323663608e-03,7.230138559404491582e-04,1.444564908742904663e-01
-1.371447349407271532e-01,-1.463266856870912846e-01,-2.918909399589174614e-01,-8.654582537797786412e-03,-1.452770282153957246e-03,3.529605640624517305e-03,1.512555330991744995e-01
-1.359385276817067223e-01,-1.450787544655787187e-01,-2.849686791613381676e-01,-2.222910144737233300e-03,-1.404772999003727234e-06,-1.464147211330242917e-04,1.447281837463378906e-01
-1.354523691370556060e-01,-1.424221548544452598e-01,-2.856524861486935407e-01,-7.133681302293644333e-04,1.438200247028236130e-03,2.217312380645360429e-04,1.468661576509475708e-01
-1.363019917627344424e-01,-1.716121965854701115e-01,-2.803375607309344097e-01,-4.674258310841135529e-03,-1.243158886259211051e-03,1.207192067287693373e-03,1.303137987852096558e-01
-1.723247231054512441e-01,-1.564270003385162533e-01,-1.597743232540980718e-01,-3.362893509718324018e-03,5.946704512091403709e-03,1.617819812759545284e-02,3.370380774140357971e-02
-1.420407539909678274e-01,-1.329003902511557145e-01,-2.815980448450433049e-01,-4.570881740508527490e-03,-5.508671375686885604e-04,1.205860330845688090e-03,1.445798724889755249e-01
-1.405772013829818534e-01,-1.437011424591784492e-01,-2.873159511500767427e-01,-3.125620831899568724e-03,3.539920132177180526e-05,8.381157138726139707e-04,1.453101336956024170e-01
-1.419872380875926432e-01,-1.447806575687901887e-01,-2.891161118955749010e-01,-2.193527668962084749e-03,6.604221712653943633e-04,3.572338090600668667e-04,1.458075493574142456e-01
-1.611587314177230223e-01,-1.571068412458095365e-01,-1.837794507217671292e-01,-3.661085594923365466e-05,-2.410762514259035417e-03,-8.708419506023251742e-04,2.528805844485759735e-02
-1.562871478800436642e-01,-1.541422614598198237e-01,-2.938834580520577333e-01,2.467251254423228745e-03,-1.522993253343103812e-04,-1.775547616621923972e-04,1.387476176023483276e-01
-1.526490867248100070e-01,-1.544469127265500341e-01,-2.918836975816523349e-01,2.437876051547467962e-03,3.702526096583251986e-05,-1.050825869737828438e-03,1.384208649396896362e-01
-1.350399856790049369e-01,-1.545813744958602631e-01,-2.367050271101961978e-01,-3.126004541059075516e-03,-3.551122898638221000e-03,4.174846411952445532e-04,9.380106627941131592e-02
-1.344445561946729095e-01,-1.605229299500344764e-01,-2.872519264525279503e-01,3.479073663378390909e-03,-3.468397550810479926e-03,-7.882061337925771235e-04,1.418431252241134644e-01
-1.461543070272762479e-01,-1.639370685220860879e-01,-3.076611279900353102e-01,5.529214292327021274e-03,5.310212150210138517e-03,-2.298922787234717203e-03,1.540156155824661255e-01
-1.458871031764705783e-01,-1.561931713974555325e-01,-2.936302386668057651e-01,4.922804467961807567e-03,1.979025231107939785e-03,1.449318484299347374e-03,1.431864202022552490e-01
-1.559334557227908535e-01,-1.583388914292600536e-01,-2.768369284488003124e-01,1.306028453314446273e-02,-1.215012108209462607e-02,-3.728159851409776435e-03,1.238099262118339539e-01
-1.574902034627285730e-01,-1.448191590284501062e-01,-2.905772170258494880e-01,-1.027799070520320950e-03,-7.163395759671249870e-04,-9.260604361568821295e-04,1.398797333240509033e-01
-1.517159330940976159e-01,-1.494702302675732786e-01,-1.776507712842113063e-01,2.535570855489287061e-03,-2.291417116759745989e-03,-8.150093710033744004e-04,2.780166827142238617e-02
-1.376814972769696555e-01,-1.427272772722651961e-01,-3.030340898461399979e-01,1.659664564035852330e-02,5.670781482848265449e-03,4.486503509652495746e-03,1.658789068460464478e-01
-1.309510196289569439e-01,-1.499121947621991358e-01,-2.835254196021462225e-01,7.967342605676159921e-04,3.858985190025717923e-04,6.482751029130838939e-04,1.440454572439193726e-01
-1.508320726165010006e-01,-1.529529521040053353e-01,-2.899126801127144826e-01,1.262170228875631730e-03,-1.060214285024657817e-03,-7.136130162316619424e-04,1.380674391984939575e-01
-1.470828739525147921e-01,-1.510532979280256316e-01,-2.900635864286968957e-01,4.620321732925195511e-03,1.262367136415260514e-03,8.600901053670605492e-04,1.412890553474426270e-01
-1.876935849460974748e-01,-1.523417931678102688e-01,-3.367123233077853328e-01,5.059050110633250656e-03,-1.865175946211165576e-03,2.859787928619089096e-03,1.698121577501296997e-01
-1.283522750395713341e-01,-1.579117424216548438e-01,-2.753254467617868295e-01,1.387603949272124071e-03,1.528676578498548190e-03,1.332840055222313550e-03,1.347165256738662720e-01
-1.457015060449529387e-01,-1.284932469755749873e-01,-2.801281752435782479e-01,3.196491087887792619e-03,-9.213204984615577233e-05,2.342997147757713275e-04,1.439122855663299561e-01
-1.586234569082521917e-01,-1.291414919622958513e-01,-2.966359435210732531e-01,3.006192775537278039e-03,4.765778890926986619e-04,5.528332384873384416e-03,1.552578210830688477e-01
-1.514125812726873910e-01,-1.489322932179596437e-01,-2.225010729103834572e-01,5.606194785071861794e-03,-2.803799401876885984e-03,-2.122028102103543264e-03,7.326272130012512207e-02
-2.435743075197940866e-01,-1.364007829275829253e-01,-4.885364375058088293e-01,4.162002625565414116e-02,-1.533316255805993247e-02,2.301037985197281963e-02,3.244017362594604492e-01
-1.639386709955206189e-01,-1.438646555989322173e-01,-2.986441797205016124e-01,4.896920681972115634e-04,4.084147556721916608e-04,-4.243854617328776777e-04,1.457888185977935791e-01
-1.605980763964607871e-01,-1.252551426271204527e-01,-2.548200261431060043e-01,2.914744695292890032e-03,5.172634331212961093e-04,-7.046836670649251309e-03,1.167571917176246643e-01
-1.582010067091675631e-01,-1.402713422109449493e-01,-2.904419271213684595e-01,-1.580078046171381285e-04,7.413811979982721243e-04,4.659152052655693671e-04,1.420652866363525391e-01
-1.419752841942754640e-01,-1.667220237275462424e-01,-2.504268846417073702e-01,1.461888658162025260e-03,4.601901077174706985e-03,-9.736765276231879040e-04,9.880847483873367310e-02
-1.443025024002531909e-01,-1.353958174083139676e-01,-2.846284754301413589e-01,1.581186124484594991e-03,1.313164579916894690e-04,9.359120602704473787e-07,1.450106799602508545e-01
-1.577719075747955890e-01,-1.238468924923662451e-01,-2.895535484140902560e-01,6.007797655157335118e-03,1.859405603262299391e-04,9.065834667236757211e-03,1.527840048074722290e-01
-1.626082531024078959e-01,-1.426562767908569895e-01,-2.945852334945709972e-01,2.640200309755866889e-03,1.341485007186972054e-03,1.359575514145516762e-03,1.431120634078979492e-01
-1.630396309530771637e-01,-1.382172744020377930e-01,-2.998299856655259887e-01,2.274848678749171772e-03,9.410904621015392206e-04,2.269304900907267823e-03,1.508537083864212036e-01
-1.625404194961995730e-01,-1.469822179859651690e-01,-3.020447130146010628e-01,3.039092802222416716e-03,3.869959934461203476e-04,-1.130365934301556406e-03,1.480065286159515381e-01
-1.269115291438910331e-01,-1.214109193711511159e-01,-2.589356306053877677e-01,3.173838977356160246e-02,-2.632946538984338308e-02,-3.509067182559834353e-02,1.642637997865676880e-01
-1.285129547808800399e-01,-1.609282296231753229e-01,-2.829774931265817139e-01,-3.724989947422247048e-04,2.740862379499504247e-04,-2.041687154208332664e-04,1.410808265209197998e-01
-1.228378275752621818e-01,-1.564081113869677797e-01,-2.832197807173807980e-01,-4.718775369259183266e-04,3.132538355808003536e-03,-2.451595606468332683e-04,1.466136276721954346e-01
-1.298977956306701098e-01,-1.613633314821194820e-01,-2.791006595935429102e-01,-2.214884931967714670e-03,9.362363670047381360e-04,-4.401221272794157788e-04,1.362892240285873413e-01
-1.668229949243285326e-01,-1.470549689748259781e-01,-3.039274839866891176e-01,-2.803708133406770898e-04,9.921497789120250523e-04,-7.343879787783593339e-04,1.479983329772949219e-01
-1.586462811005658891e-01,-1.538946971813634212e-01,-1.729087423072555585e-01,-1.396194641394679116e-02,6.043397886262766999e-02,-6.577527696725597728e-02,1.575262844562530518e-01
-1.452772584048455384e-01,-8.191202758273857798e-02,-2.327052180890645527e-01,-2.020779122323366345e-02,2.329165686052088804e-02,-5.598035821119246025e-02,1.716177761554718018e-01
-1.658665101783662610e-01,-1.397294379618324034e-01,-3.027274736409352185e-01,2.044360031152489716e-03,-9.256968314026322274e-04,2.775437072557308208e-03,1.517545133829116821e-01
-1.345678470836653706e-01,-1.674553359395026531e-01,-2.757722581563312181e-01,2.837604045992297508e-04,2.061909335529529732e-03,2.323101317133561270e-04,1.280217617750167847e-01
-1.568519720640752513e-01,-1.289712490552692992e-01,-2.838366054370135005e-01,-1.746931255156652278e-03,6.764080323612721695e-04,-1.317922545400156261e-03,1.430335342884063721e-01
-1.559249102295336975e-01,-1.222528312843772502e-01,-2.762998399235979674e-01,-2.935635716366803791e-03,2.909135716479791488e-03,-1.193244331497137281e-02,1.419704109430313110e-01
-1.507054152468310093e-01,-1.509086646492466544e-01,-2.880797112305177876e-01,2.589032863047338977e-07,-1.596367706324952639e-04,-1.932841128236390232e-04,1.372734755277633667e-01
-1.005573675577979414e-01,-6.032096130726598282e-02,-8.742793439579266135e-02,9.872464215584906763e-03,-4.579720273847734217e-03,-6.766752396829846250e-02,1.239155679941177368e-01
-1.933248802015682111e-01,-1.504526531040938087e-01,-2.609953335121060758e-01,8.151173564034332533e-03,-3.961792658341947368e-03,-4.645371432221148678e-02,1.266442090272903442e-01
-1.369000995143587474e-01,-1.502426883879717512e-01,-2.872390610978332592e-01,1.167015826652970881e-03,-5.667301810853025588e-04,3.274950010247030759e-04,1.441502273082733154e-01
-1.437755717597584137e-01,-1.391798013923311872e-01,-2.854932677418938747e-01,1.220804044295549246e-03,2.462185822731213542e-04,5.948863541030594655e-04,1.440903991460800171e-01
-1.380038631830450002e-01,-1.300354639977463200e-01,-1.426916907061698547e-01,-9.796314940735604410e-03,3.556453861761874058e-02,-7.956924170821792763e-02,1.523122787475585938e-01
-1.254700355203054729e-01,-1.568877574961971832e-01,-2.757870853558747060e-01,5.822027982848352419e-04,-2.432598716749573113e-03,-4.125059824435902073e-04,1.374006867408752441e-01
-1.721995222705816342e-01,-1.475696355022141915e-01,-2.695311467240784631e-01,-4.963762415498974671e-03,1.142694905989212993e-02,-2.220397692415664037e-02,1.200917810201644897e-01
-1.412704963129206570e-01,-1.448272041610652316e-01,-2.853432418242915491e-01,6.331592624603086736e-03,-2.712003673467189291e-03,-1.624763845290030234e-03,1.428545862436294556e-01
-1.569130719384348449e-01,-1.270513900881454772e-01,-2.806099215574607841e-01,1.302725058525994401e-03,-1.831152537570671687e-04,-1.152586391746929749e-03,1.410517841577529907e-01
-1.282436159643387530e-01,-1.445809222544828243e-01,-2.705386023723455047e-01,6.997898406692722693e-03,-6.368276814823032803e-03,-3.142542960253306462e-03,1.359715312719345093e-01
-1.573157784562438655e-01,-1.267366438398042638e-01,-2.808992482190667550e-01,1.745552189427958603e-03,-7.282631511149903567e-04,-2.709222771770242177e-03,1.414912939071655273e-01
-1.438629281830227091e-01,-1.327588852708248002e-01,-2.829523011568927382e-01,5.836804986251198021e-03,-3.121721049887230242e-03,-3.511572812534290849e-03,1.455405205488204956e-01
-1.430779533956388905e-01,-1.515601997759500885e-01,-2.861464422803275398e-01,5.054511646073235956e-03,-6.847766474592156946e-04,-7.397713729269826048e-05,1.393020749092102051e-01
-1.620993859036179985e-01,-1.533018907483352788e-01,-1.748478450263213912e-01,1.184213238398676166e-03,-3.366544266187444789e-02,-1.642675691578179137e-02,6.757131218910217285e-02
-1.361804088520031097e-01,-1.351927459954217481e-01,-2.425486435081556924e-01,1.286839518985950261e-02,-9.238709515319434157e-03,-7.175164648094184590e-03,1.110294088721275330e-01
-1.423322591701296214e-01,-1.377266039757246430e-01,-2.149923920373111863e-01,8.749719262914986209e-03,-2.252996933622882728e-03,-1.042114084365618676e-03,7.670406252145767212e-02
-1.336243104022648009e-01,-1.325937997825111514e-01,-2.698978390351698398e-01,8.212183186634887735e-03,-2.948534427504445523e-03,-3.192409360196119678e-03,1.377350538969039917e-01
-1.313352537103505135e-01,-1.488499567410543067e-01,-2.766143336417450360e-01,4.723425524303791201e-03,-4.256498719226800564e-03,-2.189618443161199524e-03,1.378547251224517822e-01
-1.276271108026119649e-01,-1.302314247865548891e-01,-6.038414942694665666e-02,9.859656452665658437e-05,1.975629990017522750e-02,-1.477711005776121723e-02,8.080577105283737183e-02
-1.426862968847866231e-01,-1.288371457384255292e-01,-1.643729072741128838e-01,6.454773289474492574e-03,-8.801331188256555221e-03,-2.871156248858380486e-02,6.158646941184997559e-02
-1.581103814279835318e-01,-1.337560175166928600e-01,-2.904163679624141015e-01,-2.036157468955580505e-04,6.029932222746483585e-04,-2.817627297918622129e-03,1.461002081632614136e-01
-1.234531731283344258e-01,-1.599167006927528223e-01,-3.078916428798552651e-01,9.415763537087552121e-03,7.729671305584037699e-03,1.150129764750511567e-03,1.705023199319839478e-01
-6.676165465958185108e-02,-1.374756007980868222e-01,-2.382235257586242105e-01,1.693721807809678986e-02,4.736790982477059875e-02,6.817715019144562905e-03,1.732226908206939697e-01
-1.370355082422569093e-01,-1.562716939736638611e-01,-2.455615652550240946e-01,-7.592410754259963038e-04,5.307985609915477805e-03,-1.277321043067253204e-03,1.007544398307800293e-01
-1.570137201700432805e-01,-2.019148065064600706e-01,-3.511512393728657422e-01,1.782339222382075400e-02,9.352607250464028965e-02,2.735054116405627456e-02,2.458191514015197754e-01
-1.220909130638492684e-01,-1.577627444633210863e-01,-2.910825310083353101e-01,6.865301815311858910e-04,8.646663072859982549e-03,-2.228643110749943491e-04,1.550105214118957520e-01
-9.454110612656418944e-02,-1.942444619189274413e-01,-3.826319102602964151e-01,2.158022859563172788e-02,4.201905103723288515e-02,1.203615094684425818e-02,2.670992016792297363e-01
-1.453736588662322138e-01,-1.597014143796108288e-01,-2.929133584857871453e-01,6.996466405060424668e-04,1.075415791274990981e-03,-2.228165697513441221e-05,1.409406810998916626e-01
-1.177549717262595247e-01,-1.508248798369022370e-01,-2.827510929512269677e-01,1.991339455390764442e-04,8.113017200349716129e-03,-3.351195029058807399e-03,1.519611924886703491e-01
-1.562600518100796809e-01,-1.393980409175932800e-01,-2.913593238747939074e-01,-2.151604970722437431e-03,-3.333973425738798332e-04,-1.772521831129304478e-03,1.443531513214111328e-01
-1.766406181788045537e-01,-2.184060916205736169e-01,-3.665135613779288426e-01,-1.393965316115059958e-02,3.556935509583823013e-02,-1.137476259773199071e-02,1.860983371734619141e-01
-1.428586066141747657e-01,-1.747919178459469425e-01,-3.260082507199447699e-01,1.189538164037896298e-03,1.098986273615403051e-03,-1.703348486776294331e-03,1.695037633180618286e-01
-1.341727311345179974e-01,-1.719443438135937197e-01,-3.192856422037948505e-01,4.066435122291912029e-03,4.229073858162074248e-03,-1.283925029489232450e-03,1.697341501712799072e-01
-1.739677747115737638e-01,-1.716983358038690066e-01,-1.997970764675869315e-01,3.311851072837331748e-04,2.750722960206270114e-03,-6.578201200359187241e-03,2.972823381423950195e-02
-1.365677542095847241e-01,-1.885252599551218156e-01,-3.254334435198765196e-01,6.282793513146760385e-03,2.392484254032567394e-03,-2.351611346583379163e-03,1.694373786449432373e-01
-1.656799005277252990e-01,-1.956871372308967016e-01,-3.516488533684041240e-01,-5.651941363816988424e-03,-2.113777388484416354e-03,-1.654318611662680683e-03,1.732683479785919189e-01
-1.288171953618991727e-01,-1.568944938518036236e-01,-2.796135032497425454e-01,-2.391374054556479490e-03,7.723670016875193054e-04,9.038249485347551473e-05,1.389707773923873901e-01
-1.695360859806888665e-01,-2.964393638211714754e-01,-4.732535582950379571e-01,-1.311903119968870629e-02,7.799818056400945054e-02,-5.732442684143074577e-03,2.977785468101501465e-01
-1.482877704295872956e-01,-1.641596403572237461e-01,-2.983194672827124694e-01,-6.627416968645515266e-04,-1.010476297534530169e-03,-6.206483728002823008e-04,1.427784264087677002e-01
-1.296495690210829332e-01,-1.555080809151013488e-01,-2.852436231585342430e-01,-1.061097875838569850e-03,7.244369562926691007e-03,-1.333949616130127675e-03,1.449858695268630981e-01
-1.628474466863615300e-01,-1.652452634155487099e-01,-1.883211068569327629e-01,1.102935384811614414e-03,-8.889416370538657727e-03,-5.320933639221141209e-03,3.031876124441623688e-02
-1.425856687184847704e-01,-1.382992351394697339e-01,-1.928287978339470465e-01,8.144358676071520795e-03,1.318648353116357724e-02,6.212921262238142381e-03,5.995458364486694336e-02
-1.727667969969415018e-01,-1.736136928576462457e-01,-1.801600306510158234e-01,7.549686788257788800e-03,1.505319499913977156e-02,1.182039183109245307e-02,3.631900623440742493e-02
-1.801467380559954035e-01,-1.803559999303859795e-01,-2.070009743284586257e-01,1.185901954249753490e-02,2.856269945645215774e-02,2.426237845460272116e-02,7.315022498369216919e-02
-1.340581967865049628e-01,-1.667300575912331051e-01,-2.753088198753361193e-01,-3.698420176430570246e-03,2.682750289709813669e-03,-1.581133033086033670e-03,1.283526122570037842e-01
-1.373005115077271521e-01,-1.735485689824652622e-01,-2.833041354658722422e-01,-1.551084587349087739e-02,3.296980090802963809e-02,-1.419436383751344725e-02,1.480738073587417603e-01
-1.439146554775307396e-01,-1.927021074570401393e-01,-2.246134578775660084e-01,1.162555482037377387e-02,9.964693549462380617e-02,-9.244221327750178074e-03,1.881642490625381470e-01
-2.879260494024992734e-01,-1.904647750206638068e-01,-4.823547939625645320e-01,-3.986971770188342534e-02,1.373306070837248052e-02,-5.819383799982839889e-02,2.859102189540863037e-01
-1.392046422846979770e-01,-1.393453050706487395e-01,-2.859462923671913792e-01,1.260578149963294432e-03,-1.220375072251671657e-04,-2.573066314990077146e-04,1.466884464025497437e-01
-1.508331786719226963e-01,-1.513317772256549398e-01,-2.865402354481350056e-01,1.750611331811709084e-04,1.222875054889537309e-04,1.286556960228732417e-04,1.354591399431228638e-01
-1.589041229788141496e-01,-1.495592276965354572e-01,-2.132186167800362853e-01,7.048478307576623407e-03,3.600050308014168896e-03,2.401915837835959244e-02,7.391642779111862183e-02
-1.349140100883127191e-01,-1.479519411075759794e-01,-2.836453068217431039e-01,1.139476126246518391e-03,-4.364722981320519552e-04,-5.085326659227133641e-04,1.426782459020614624e-01
-1.614097973928129981e-01,-1.669006291374935946e-01,-2.019756034024776381e-01,9.671431262690818940e-05,5.786834715715814120e-03,2.952594885093098864e-03,3.974465653300285339e-02
-1.627725228555033377e-01,-1.705275836271736289e-01,-2.080941141775248804e-01,8.603408703390036860e-04,1.113008675696626135e-02,8.407794979930598156e-04,4.624601453542709351e-02
-1.554659169079807834e-01,-1.496976467708031333e-01,-1.647286920728945336e-01,2.524436248352173156e-03,1.698491226589805142e-02,6.903911184643669700e-03,3.464208543300628662e-02
-1.419685208015246114e-01,-1.427952485185315368e-01,-2.880807404078384315e-01,-8.825103776114740775e-04,2.698566642006806340e-04,1.548027231047691298e-05,1.457093805074691772e-01
-1.409186302319926642e-01,-1.423698933375866504e-01,-2.875359867213257425e-01,-7.787845059970044176e-04,1.081235225175215989e-05,-1.350800089578377413e-04,1.459035575389862061e-01
-1.335885042512927057e-01,-1.548880981501483400e-01,-2.834514678557210621e-01,1.117396259481472434e-03,-1.374340889979324982e-03,1.864557348807205426e-04,1.404637843370437622e-01
-1.332904465348184186e-01,-1.442740742670585441e-01,-2.812940415547658946e-01,-3.957051179387479321e-03,1.714328736328640411e-03,-3.527486974462370122e-05,1.430240720510482788e-01
-1.370976787903169514e-01,-1.469305872389694845e-01,-2.861332558537403870e-01,-1.212813410090020621e-03,9.514172373833091917e-05,-3.826179002283289741e-04,1.443873792886734009e-01
-1.634417101205121736e-01,-1.323462956843767802e-01,-2.770849132345111210e-01,4.002307816028577263e-03,3.824879554028351187e-03,1.053434931826136012e-02,1.335677653551101685e-01
-1.582382657615034327e-01,-1.264891268597891916e-01,-2.815340100287480607e-01,1.717295261305643765e-03,1.081462208939891045e-03,2.821582513071070435e-03,1.419880986213684082e-01
-1.474895248903183576e-01,-1.546423193650693362e-01,-2.889352428907994708e-01,1.220790525498824603e-03,-2.421276365987585924e-04,3.048805249496202262e-04,1.380262523889541626e-01
-1.369122957365128956e-01,-1.497335021332910077e-01,-2.512280962750710889e-01,8.348723921876141998e-03,-2.563683286633510524e-03,-1.664246934887484786e-03,1.095625385642051697e-01
-1.511810064015151056e-01,-1.255491182058397770e-01,-2.774924331047116111e-01,9.063878677490290253e-04,9.558921378258027068e-04,1.207202861907294986e-03,1.409210711717605591e-01
-1.457179104465194386e-01,-1.518825333946258738e-01,-2.932971405526098585e-01,1.047976347419507862e-02,-8.385355694848887348e-03,-5.225070440125467383e-03,1.467316746711730957e-01
-1.536917373985580426e-01,-1.343352557932246949e-01,-2.819191640452250458e-01,4.178804565028841796e-03,8.503838509775356368e-04,2.050054243818012593e-03,1.391622871160507202e-01
-1.532707950926245621e-01,-1.353868335847518700e-01,-2.899270517862419516e-01,1.062780022022902964e-03,-8.938454027875750944e-04,2.490190135365228773e-03,1.465029418468475342e-01
-1.552269704836798103e-01,-1.551480777537021793e-01,-1.680081837956926838e-01,-1.331806630346563406e-03,3.816986980147537428e-03,1.491542044317636798e-03,1.483500469475984573e-02
-1.444076420405152883e-01,-1.356609940903872047e-01,-2.816661964662204309e-01,1.200206437968363155e-02,-7.442737447982033031e-03,-1.357104445641095503e-02,1.458349078893661499e-01
-1.527142732834277650e-01,-1.352402196351573660e-01,-2.870622136268334845e-01,1.983138177119663295e-03,1.985033253019288877e-03,5.338729174823787131e-04,1.439680159091949463e-01
-1.535528583980084738e-01,-1.274500379552237217e-01,-2.796456415826944486e-01,2.632238354317847483e-03,-7.799252355340594576e-06,-5.809780147714037248e-04,1.410458236932754517e-01
-1.488959358527897070e-01,-1.528085288547101350e-01,-2.874439892832402754e-01,-1.256386877253662469e-03,-1.411357320924509751e-04,2.397588361919797710e-04,1.366519629955291748e-01
-1.572441388595627321e-01,-1.519746260462273291e-01,-2.257868875519108420e-01,4.887436861370789143e-03,-2.561147843514239957e-03,-1.996407417209359030e-03,7.204414904117584229e-02
-1.491556674845414820e-01,-1.518318046278493427e-01,-2.882981429594601019e-01,-5.410917251619508329e-04,4.097475202383261787e-04,-3.958010482181945609e-04,1.378306150436401367e-01
-1.497656310015559877e-01,-1.514077489238092877e-01,-2.883703600735189609e-01,-9.666665344376550780e-04,2.189145662993250991e-04,-7.768384616873756860e-04,1.378082782030105591e-01
-1.513080429992998410e-01,-1.515924457267443515e-01,-2.878772614751489156e-01,-7.332680839565751179e-04,-1.166794491934518833e-04,-1.029402867443373406e-04,1.364334225654602051e-01
-1.548313188681290919e-01,-1.185724627554792243e-01,-1.776126948402881045e-01,8.095729583858287531e-03,8.779075361023241583e-03,3.870384662265012599e-02,8.707194775342941284e-02
-1.568454345505186365e-01,-1.474787029069426214e-01,-2.145212436315364068e-01,-3.015215601674833996e-03,9.837911018480357834e-04,-3.945847177999984266e-03,6.349296122789382935e-02
-1.523003572718414356e-01,-1.527462368111639768e-01,-2.888297566949509232e-01,-1.274131105815224166e-03,-3.755119209261212538e-04,-6.105553589081733480e-05,1.363264620304107666e-01
-1.500695634253833566e-01,-1.439674351347122738e-01,-2.888879158463854568e-01,-2.227973951693055805e-03,-1.005380118513085006e-04,6.687744203030975736e-04,1.420250684022903442e-01
-1.514187137445460740e-01,-1.496548773629068907e-01,-2.878805496981630130e-01,-9.479253758519322207e-04,1.748743501856606000e-04,-1.217952637671412618e-04,1.373625546693801880e-01
-1.513711121466817244e-01,-1.508926579109311772e-01,-2.877556643306081186e-01,-9.885111171299956669e-04,-3.669183049819943433e-04,-8.242541358142854225e-05,1.366366893053054810e-01
-1.534900145134640570e-01,-1.532658266002771275e-01,-2.905314284493489829e-01,-1.174214118946502634e-03,2.754241317817572978e-04,-7.795453143123644161e-04,1.371762007474899292e-01
-1.509276125709230754e-01,-1.501478229981423884e-01,-2.868265167007247873e-01,-8.747536342201013820e-04,-2.435557641383383611e-04,1.746155400167902986e-04,1.362998783588409424e-01
-1.315065738020244623e-01,-1.654710100391088567e-01,-2.990893777266049880e-01,5.938768256183242673e-03,1.135459390666037661e-02,-1.784642546128538138e-03,1.550737470388412476e-01
-1.446923025013950315e-01,-1.576400649808570587e-01,-2.940743901758274270e-01,5.690109653473661953e-03,1.847363689668242090e-03,-5.135794275640922146e-04,1.437242180109024048e-01
-1.442203644256636608e-01,-1.600498711910210703e-01,-2.945488661122042107e-01,4.448472204779217211e-03,1.315085519256091592e-03,-8.749952119340088019e-05,1.432975381612777710e-01
-1.367918772695061180e-01,-1.304433778414887946e-01,-2.745336681913497778e-01,6.443770066161042497e-03,5.325118449752429088e-03,4.242481780752018795e-03,1.419548988342285156e-01
-1.472576993277757706e-01,-1.540889205894307723e-01,-3.033371358725884814e-01,6.950229368791597563e-03,2.030888827041249511e-03,3.460826077598261764e-03,1.534094661474227905e-01
-1.411270354797861670e-01,-1.410129291877519342e-01,-2.857668530961493536e-01,-3.388115227918272500e-03,9.505816981412536140e-04,-5.434343683138171364e-04,1.448282748460769653e-01
-1.547117996443334587e-01,-1.424266296986893554e-01,-2.583335132721276128e-01,-8.345438582111142437e-03,1.325512664418149232e-03,-2.589292825566904752e-03,1.113360598683357239e-01
-1.562419342626595042e-01,-1.788597959026586859e-01,-3.186056604853527707e-01,2.238649159530869265e-02,2.278116139886778718e-02,1.774150217986666597e-02,1.649421602487564087e-01
-1.258658065431277062e-01,-1.394105695562354863e-01,-2.591952264303954423e-01,-7.280978955992779313e-03,5.757644113721360583e-03,-2.265399255278984988e-03,1.281723976135253906e-01
-1.429226518717871541e-01,-1.468520434930478402e-01,-2.893162255509103553e-01,-4.519972502700322914e-03,-1.367676238707114529e-04,-1.443311640275586963e-03,1.447027176618576050e-01
-1.735656282715711540e-01,-1.521551881446242260e-01,-3.316292149702383951e-01,2.141799857425857531e-02,1.794411513567954058e-02,2.453146009764186133e-02,1.815881580114364624e-01
-1.341908658438051294e-01,-1.564886290006609615e-01,-2.838884481565038254e-01,-2.764042251428441409e-03,1.755574880354315794e-04,-6.612035978118650250e-05,1.399702131748199463e-01
-1.614549595597029874e-01,-1.284813598757888475e-01,-2.872505700242227178e-01,-4.630625719774690021e-04,-1.063533474445829382e-03,-9.364719807284030070e-03,1.460371762514114380e-01
-1.639111889925249088e-01,-1.345449756104604988e-01,-2.772881821247592526e-01,3.807661481047209823e-03,-1.517481798922282058e-03,-8.329922264198399290e-03,1.315474659204483032e-01
-1.388011459029246109e-01,-1.591595116341683602e-01,-2.823906692184209311e-01,-6.651656143202934468e-03,9.702274322615451812e-04,-1.730655322731426324e-04,1.350733637809753418e-01
-1.481144417008541936e-01,-1.614118270613477124e-01,-3.015864897117784271e-01,-6.810858741758290570e-03,4.074997347804899480e-04,-7.228320553576173283e-04,1.477529704570770264e-01
-1.429353310762068729e-01,-1.415022801973215283e-01,-2.858757471150155105e-01,-2.208979724721134037e-03,3.841187566125513360e-04,3.940010734817892815e-04,1.437163949012756348e-01
-1.400112870198228776e-01,-1.472598269775151625e-01,-2.810916979728139697e-01,-6.378540646678964969e-03,3.034892528456380298e-04,1.947954097286480851e-04,1.380436271429061890e-01
-1.583664784367913303e-01,-1.243598526385512465e-01,-2.798576692563800039e-01,2.601282060140996466e-04,-2.888364568212808329e-04,-2.973675002817681261e-03,1.416864395141601562e-01
-1.521010564918988395e-01,-1.520273917260767105e-01,-2.874300102788595601e-01,7.372473942364682429e-05,-1.841744726230100122e-04,1.115528047762235589e-04,1.353663802146911621e-01
-1.597667459514352239e-01,-1.268012976437953299e-01,-2.816972987577280874e-01,-2.792851681701823087e-04,-3.432350876901171604e-04,-4.469084089545750059e-03,1.415407359600067139e-01
-1.393935440708404805e-01,-1.431109391412036247e-01,-2.826844480214474875e-01,5.627575093365048443e-03,-4.202592103404232228e-04,5.811644633218853145e-05,1.418061405420303345e-01
-1.489448877990758868e-01,-1.492949798214864288e-01,-2.895986542969125055e-01,1.548710873638863743e-03,-2.638715696225981083e-04,-1.042453469119497441e-04,1.405055224895477295e-01
-1.426115944072137709e-01,-1.414660165034432038e-01,-2.877563493497781733e-01,1.985070864649555750e-03,1.187862237875647841e-04,-3.454851520789631683e-04,1.457628458738327026e-01
-1.475111644371949193e-01,-1.420867730566521547e-01,-2.894451508886194957e-01,1.107178951384168606e-03,-6.873754056730759128e-04,-3.190302903945914029e-05,1.447400599718093872e-01
-1.620566680080189059e-01,-1.281364396699059827e-01,-2.864840108271123897e-01,-5.510321405127223534e-04,-3.686016400494301535e-04,-9.774684899984203978e-03,1.454004794359207153e-01
-1.757855576141124643e-01,-1.751864924894181164e-01,-3.149749560933470249e-01,2.505626415765559167e-02,-2.295997980112471012e-02,-2.649000989628809075e-02,1.582009047269821167e-01
-1.518226913250656784e-01,-1.523829672737372354e-01,-2.879162126723021076e-01,-2.099816692150378579e-04,1.118002274573121475e-04,-5.420701146654131701e-05,1.358149051666259766e-01
-1.601395434589657496e-01,-1.159890606263516422e-01,-2.752394097854407029e-01,4.049178984092559677e-03,2.623163778369067413e-04,1.798313474881501478e-02,1.459401696920394897e-01
-1.552335970789535669e-01,-6.253967759041359487e-02,-3.272552280757715648e-01,3.440438296448114497e-02,-3.686274396786874425e-03,-9.772080657644297355e-03,2.408468276262283325e-01
-1.430381176896453055e-01,-1.433018130438583337e-01,-2.881730833555472548e-01,5.034719610070795964e-04,2.499051336069992978e-04,-3.491771553270574984e-05,1.450065821409225464e-01
-1.357973081625117040e-01,-4.980653453453569302e-02,-2.793679672810250869e-01,-1.862188769870160368e-02,9.734870605294332303e-04,-5.650795994027710094e-03,2.036950141191482544e-01
-1.951639901317971659e-01,-1.466554960801747798e-01,-3.358194121897586926e-01,6.003384806825925145e-03,1.054151989286942429e-03,1.941482583284931049e-02,1.737879961729049683e-01
-1.462390400311998906e-01,-1.460970177898135991e-01,-2.726047876373307033e-01,7.581036020838651315e-03,-9.552331806631205249e-04,-7.882470699831295924e-04,1.271349191665649414e-01
-1.415100181894483888e-01,-1.355484671318689938e-01,-2.848075293316434942e-01,2.542034941540511229e-03,-2.311133024612394796e-04,-8.906997419617289314e-05,1.464361995458602905e-01
-2.031884468321280279e-01,-1.029751270369619331e-01,-3.775755103485979869e-01,-1.350505851155046379e-02,1.377447105820689063e-02,5.785605483447780334e-02,2.628455758094787598e-01
-1.885363929396687843e-01,-1.452964511213879761e-01,-3.352158081768341624e-01,4.129718827210412252e-03,4.213235101687872602e-03,2.027564469077174428e-02,1.762517392635345459e-01
-1.598434277679143811e-01,-9.954356311471125596e-02,-3.024847357983005414e-01,-1.576628665071576688e-02,-1.000208948429010848e-02,4.249878782954906453e-02,1.976060718297958374e-01
-1.541570029723643431e-01,-1.428435008214365420e-01,-2.619180779587160779e-01,7.946337535565320756e-03,-9.138883952901035628e-04,-1.939441729807520488e-03,1.147293448448181152e-01
-1.460529266510320612e-01,-1.306384908219271612e-01,-2.813831467203460890e-01,3.152816793854153112e-03,-3.250535306406352121e-05,-6.456854442504843901e-04,1.437671333551406860e-01
-1.868429412521283306e-01,-1.551263619623227397e-01,-3.369552255909890603e-01,-1.296306388019864697e-02,1.028504458471841835e-05,2.010508341893099595e-03,1.697555184364318848e-01
-1.603653937993684830e-01,-1.268349038878427426e-01,-2.780072616207187042e-01,-2.701193989459218289e-03,1.670651381915200196e-03,-3.919532384474677666e-03,1.377854943275451660e-01
-1.620661106386792338e-01,-1.345257743724711241e-01,-2.767205571000203035e-01,-4.460620198006811678e-03,8.841755841670985482e-04,-1.612899610843293368e-03,1.308876425027847290e-01
-1.562637701122571166e-01,-1.269700676745096901e-01,-2.807070107018557747e-01,1.511129909752606743e-03,-3.501272612078506954e-04,-1.426899276897033650e-03,1.414318531751632690e-01
-1.548960193232120364e-01,-1.207688048136835446e-01,-2.658382418938351477e-01,1.208393865675532006e-03,-4.605889610308294083e-04,-8.565490424612586667e-03,1.322275102138519287e-01
-1.597735250663784301e-01,-1.263712564656127857e-01,-2.810138945108945352e-01,-1.054465587902846260e-05,-3.307901551722921933e-04,-4.846888276921611227e-03,1.411929428577423096e-01
-1.555235501655197472e-01,-1.338533648906168327e-01,-2.828576189202458568e-01,1.255483886411793521e-03,9.787340453154651503e-05,-1.040174329137656412e-03,1.394665539264678955e-01
-1.558515812200128858e-01,-1.242738522736917539e-01,-2.799440099155869888e-01,6.553419443101363108e-04,-1.306385193590465241e-04,-2.306008833700410807e-03,1.425900906324386597e-01
-1.594897043637494849e-01,-1.288605152570817536e-01,-2.859231362987726399e-01,1.273913781044779198e-03,-2.427792050867423623e-04,-1.222290713684502563e-03,1.442416012287139893e-01
-1.568881066414455627e-01,-1.367236890668686311e-01,-2.499982570568774209e-01,3.138048899937921112e-03,-1.115887527063352249e-03,-3.678472992267759183e-03,1.050118431448936462e-01
-1.680297796287088807e-01,-1.433166751260522842e-01,-2.842445239180809713e-01,8.107316441969053197e-03,-3.800562048714199292e-03,-7.178477720293934689e-03,1.318474113941192627e-01
-1.498265811021666782e-01,-1.518168933434381196e-01,-2.874703035041228372e-01,-3.776137917535261359e-04,-2.523767216279315748e-04,2.569822909986530716e-04,1.366624236106872559e-01
-1.589396928996635316e-01,-1.250661664820220120e-01,-2.808348243184023429e-01,-2.196291548037157521e-05,-4.082718355825076806e-04,-1.391754280163721687e-03,1.419195830821990967e-01
-1.292230408362550487e-01,-1.498243344491251849e-01,-2.805928065384986070e-01,-4.557458742633246039e-03,3.303079717660745498e-03,-2.034894112335613233e-03,1.425702273845672607e-01
-1.356451153493484774e-01,-1.530672887381465674e-01,-2.854316508203129099e-01,-3.730792491356335096e-03,1.401925282759937472e-03,-9.568363151990007687e-04,1.420574933290481567e-01
-1.625249564709454753e-01,-1.310493034734956930e-01,-2.815864935232126887e-01,-1.950957864656881809e-03,1.824763731087791351e-04,-7.388616142829925815e-04,1.375756561756134033e-01
-1.517503899802745970e-01,-1.302624822268509397e-01,-2.731563721685231205e-01,-3.905513669668968929e-03,6.831495736893328837e-04,-1.349871286823011189e-03,1.336507648229598999e-01
-1.384894110598093864e-01,-1.450051566403088299e-01,-2.829004489145702239e-01,-7.694931628701369083e-03,3.099172176626840188e-03,-2.960606341468162081e-03,1.420873105525970459e-01
-1.428685215071411885e-01,-1.407912863699659900e-01,-2.876643533756872428e-01,-4.231018300285513921e-03,-4.225465617747983273e-04,-4.926803625592009834e-04,1.460338681936264038e-01
-1.310462537208541833e-01,-1.418698918888084137e-01,-2.739545825216246344e-01,-5.489513683088938396e-03,3.391958415663279009e-03,-1.607328729907028146e-03,1.382961422204971313e-01
-1.518111495803868283e-01,-1.317221537361223382e-01,-2.836390462835614579e-01,-1.504459418321590783e-03,7.609548909632426290e-04,-4.555177645574608083e-04,1.429671347141265869e-01
-1.515075009750282975e-01,-1.513390652463558195e-01,-2.871067330879344404e-01,-5.733147679753982881e-05,7.479733304060560061e-05,2.159284949460266243e-04,1.356841474771499634e-01
-1.462935764935744676e-01,-1.458927027096439399e-01,-2.742532555400796768e-01,-8.293661125084511240e-03,5.655523860429342549e-04,-5.969267751732754059e-04,1.289709955453872681e-01
-1.416974789099421650e-01,-1.489180582169566947e-01,-2.880881052678611054e-01,-3.741137095323573969e-03,5.453835066211063735e-04,-4.997592548397459958e-04,1.430697590112686157e-01
-1.370904612361444896e-01,-1.469195554830019512e-01,-2.858843860468269216e-01,-2.426617839381009847e-03,3.064640149928736675e-05,6.650572796120692151e-04,1.441968381404876709e-01
-7.279974212921838661e-02,-1.305994268064416541e-01,-2.956619315864766340e-01,3.483406437501253283e-02,9.832676754576306216e-03,1.662124925832577770e-03,2.099179923534393311e-01
-1.502193548190593475e-01,-1.539674064175117763e-01,-2.905917489287593858e-01,2.785766022313057935e-03,3.328019100643176613e-04,8.577495287999123766e-04,1.386295557022094727e-01
-1.538474822836708999e-01,-1.704738513245146192e-01,-3.241872968949139899e-01,1.508834246249741301e-02,3.954074926035612905e-03,-3.465413085659495643e-03,1.650026142597198486e-01
-1.502862600432779416e-01,-1.501085917210432108e-01,-2.881392970218182858e-01,1.671831876464876729e-03,-7.448964237990335097e-04,-5.820912065015094354e-04,1.379820555448532104e-01
-1.339414349081901046e-01,-1.469472285671360734e-01,-2.786271372642212807e-01,-5.321355532784214151e-03,1.901482834092633523e-04,2.467230760488711553e-04,1.389481574296951294e-01
-1.517080204268588806e-01,-1.629706785138143876e-01,-3.073260594332022366e-01,1.774159432710190748e-02,-5.092221831613159486e-03,-1.674916568859621824e-04,1.536662578582763672e-01
-1.446035079538807999e-01,-1.253353649724260888e-01,-2.710696920685258249e-01,-6.615269560220024027e-03,1.557090975549798618e-03,-8.286938644688737060e-03,1.383701711893081665e-01
-1.495590029623721784e-01,-1.507215377709685833e-01,-2.869373320353519885e-01,-3.308599155602715567e-04,-3.676518558810615333e-04,5.037176528899800238e-04,1.368062347173690796e-01
-1.519242307305041784e-01,-1.627354096306563858e-01,-3.055037215929140015e-01,1.007876824762429270e-02,-3.886597018871302406e-03,-1.063725467503066815e-03,1.496550142765045166e-01
-1.690591455189603964e-01,-1.570893408532026692e-01,-2.115664448245053175e-01,-2.827754095135516683e-03,-9.660214156544453049e-03,2.297699166051670253e-02,6.592969596385955811e-02
-1.446771067922390519e-01,-1.433376984430427548e-01,-2.893766464132930816e-01,-2.147154408660125781e-03,-8.233369955798779029e-05,-5.640526215341550888e-04,1.454247832298278809e-01
-1.435636979570952543e-01,-1.417561263620908674e-01,-2.887675819701739921e-01,-1.841504118500618924e-03,-1.483386046560787280e-05,-5.060376329724817004e-04,1.461534947156906128e-01
-1.353810570297293570e-01,-1.416335611887113988e-01,-2.849566442596574989e-01,2.704078978508624338e-03,-6.578129706158908525e-04,-4.571055850676595980e-04,1.466307938098907471e-01
-1.467148270710690872e-01,-1.551364237137751179e-01,-2.918929982369230514e-01,3.884191457886156020e-03,-1.011771121408418326e-03,-3.812621672415141992e-04,1.413285583257675171e-01
-1.420114390403649784e-01,-1.493043444475893045e-01,-2.653331156065193985e-01,9.787081430856263420e-03,-1.408807751226925486e-03,-4.169100675425694777e-03,1.212745159864425659e-01
-1.426124962837766463e-01,-1.467576433677074688e-01,-2.875949819434784893e-01,4.514683999142047872e-04,-1.074019509163995882e-04,-2.540816538820254793e-04,1.429579257965087891e-01
-1.501807278603411178e-01,-1.473528866137006066e-01,-2.900674734804423727e-01,5.243575729756492750e-04,6.341029634988720439e-04,3.644165360945582333e-04,1.413304805755615234e-01
-1.462131693963358570e-01,-1.484086764439286887e-01,-2.892565851477590377e-01,4.869261912267107938e-03,-8.364961630944699449e-04,-1.050904621492104382e-03,1.422277390956878662e-01
-1.416078560247462093e-01,-1.430975183032260900e-01,-2.882607519231007442e-01,6.193539824533783123e-04,-9.333503841938114759e-05,-6.696019620874197156e-05,1.459178477525711060e-01
-1.405751985647921976e-01,-1.429727616533444101e-01,-2.878108272038329418e-01,1.199623017569800354e-03,-1.934565753758877148e-05,8.091433531649348929e-05,1.460664570331573486e-01
-1.412650551364165175e-01,-1.395338898121208093e-01,-2.839609094667606692e-01,3.158119465308102409e-03,-8.858612873838339011e-04,-1.300264899454429317e-03,1.436992734670639038e-01
-1.418723543405547571e-01,-1.410961074536368764e-01,-2.877121275956814883e-01,4.972392928929145802e-04,1.308018371039487368e-04,-1.204924636902514729e-05,1.462321579456329346e-01
-1.422395464968997381e-01,-1.422646493133902790e-01,-2.862763949786550910e-01,3.240247300722088209e-03,-1.143715395133472175e-03,-8.543484714225069339e-04,1.441548168659210205e-01
-1.790693361207240375e-01,-1.702857349476611659e-01,-3.356928028906909223e-01,2.696988909267921883e-02,-2.290202797053587230e-02,-3.681350758403585666e-02,1.838616728782653809e-01
-4.768191557223702692e-02,-2.200811264662743960e-01,-3.507546341833577275e-01,-1.992302125839956473e-02,-3.949709724968021411e-03,1.793134253281053123e-02,2.674457728862762451e-01
-1.518153338873326486e-01,-1.471449309660392835e-01,-2.916267177250377873e-01,4.320995551608986136e-03,-6.696075398055027208e-04,9.646638626881341076e-05,1.424057483673095703e-01
-1.444312687493878866e-01,-1.494668707193073376e-01,-2.904063147457276450e-01,2.308789687883455873e-04,8.737090418929044215e-05,5.300879884649696474e-04,1.435270905494689941e-01
-1.460471675732208929e-01,-1.461362086971862984e-01,-2.889486120607328568e-01,3.174360500749256932e-03,-1.888472476640303595e-04,-1.276743663156326507e-04,1.429632604122161865e-01
-1.751869990407045607e-01,-2.068609125209236177e-01,-3.704496119237277729e-01,-1.467057498526542700e-02,7.333750857708429445e-03,-8.989176189715166951e-03,1.843785196542739868e-01
-1.450680266223189629e-01,-1.405037257561372321e-01,-2.870591831604931699e-01,1.282441619529136809e-03,-3.042266231217197542e-06,9.461393543699706530e-05,1.443446278572082520e-01
-1.500152135763453964e-01,-1.509436267699223455e-01,-2.940084999616495720e-01,8.758266082165669028e-03,3.029011988509560521e-03,2.961455902087550048e-03,1.445171236991882324e-01
-1.520041484681183830e-01,-1.433485910777363703e-01,-2.875915222202944932e-01,4.872013997491829278e-03,-5.215575176607136322e-04,-3.887505016156253827e-04,1.403742134571075439e-01
-1.430499898708877948e-01,-1.413224054125569729e-01,-2.879994735176836240e-01,7.425945727624591640e-04,1.128181011104061022e-04,1.751911475745259470e-04,1.458270698785781860e-01
-1.350205230466783313e-01,-1.423096683846361565e-01,-2.846673686438799811e-01,2.063171652639448923e-03,4.369852647844243987e-04,2.914795592068096888e-04,1.461851894855499268e-01
-1.178520539080460533e-01,-1.531396475107959509e-01,-1.619106978790551543e-01,1.392417826467714365e-02,-8.911204616206733209e-02,-6.334867436226071513e-02,1.951290220022201538e-01
-1.535892608414660410e-01,-1.461124443259023131e-01,-1.856813486865321605e-01,3.047627873165437325e-03,-2.189000310923770645e-03,-1.276737791388067762e-02,4.309302195906639099e-02
-1.659425524022691556e-01,-1.556677598374641702e-01,-2.366226439118036817e-01,-4.816537651371687566e-03,6.442127001857494810e-03,-3.573828050038961937e-03,7.784527540206909180e-02
-1.516852721872318510e-01,-1.273252481649169154e-01,-2.540535780786299380e-01,8.065594711535697264e-03,-2.652594269139997487e-03,-5.681338868325685847e-03,1.178111955523490906e-01
-1.399104545710544989e-01,-1.416933409593999493e-01,-2.863931859926495127e-01,5.754696985676516436e-04,2.473272651067564653e-04,8.336744407517748541e-05,1.456035822629928589e-01
-1.435720769480441916e-01,-1.444357307767655529e-01,-2.894143320787380680e-01,2.106083925694692254e-03,-1.336787029409118349e-04,3.225406505551404231e-04,1.454593539237976074e-01
-1.581327364249668910e-01,-1.311154153367060371e-01,-2.733187987110834438e-01,3.054578673890250094e-03,-6.042005442458767622e-07,-1.509488094424907148e-03,1.309374272823333740e-01
-1.403081501534067244e-01,-1.448085596616298099e-01,-2.876164205879728764e-01,5.649911538580053684e-04,-2.655997461400255068e-05,1.759357439397514109e-04,1.451140493154525757e-01
-1.669187111941103363e-01,-1.344024526495623262e-01,-2.780155345151405499e-01,1.069680341565819618e-03,1.056778367025328720e-03,-1.683895972864761330e-03,1.304896622896194458e-01
-9.726479284576888817e-02,-1.353027787509863411e-01,-2.188107635220958858e-01,3.390418148521839436e-03,3.435545878115466717e-02,8.167171680067822348e-03,1.239856183528900146e-01
-1.531104668748170528e-01,-1.178150872685320566e-01,-2.608879848332957274e-01,3.849714174843485350e-03,-3.086676030458312958e-03,-1.473984849226339655e-02,1.318735778331756592e-01
-1.534253971502668179e-01,-1.329414915283615439e-01,-2.869549139010938443e-01,1.828667970541270581e-03,-6.254440049899824506e-04,-1.143957850606140345e-03,1.449139714241027832e-01
-1.570766453881183300e-01,-1.254890049451509171e-01,-2.873123372876531523e-01,-4.369158024376772025e-03,3.017819430707464304e-04,-7.764477208103152429e-03,1.493698656558990479e-01
-1.560047384256452174e-01,-1.273966349047365720e-01,-2.674406780684616680e-01,-1.212895125235868843e-03,1.025192737460899631e-04,-2.342794922180782297e-03,1.282391250133514404e-01
-1.071874250376653182e-01,-1.381235655897020409e-01,-1.860663821202469814e-01,6.461315249246591709e-03,3.992849985879131508e-02,9.533641487900883574e-03,9.959666430950164795e-02
-1.320452703759853463e-01,-1.476325864964024015e-01,-2.260475692092873967e-01,5.125424686309210803e-03,1.380890983123561101e-02,2.196955786026077561e-03,9.099176526069641113e-02
-1.592521976023582586e-01,-1.373300236662195195e-01,-2.787994168256526795e-01,-6.312732476165875545e-03,1.267628835218711060e-03,-8.574945282891730273e-04,1.323609948158264160e-01
-1.352064894257541117e-01,-1.626870509687043664e-01,-2.641634259865139889e-01,6.916756069449655694e-03,5.838702249895718135e-03,2.179166750715656482e-03,1.187489181756973267e-01
-1.400769930694421850e-01,-1.566592992977477450e-01,-2.329279243097264751e-01,7.693729165399106583e-03,1.112327078988385384e-02,5.353482037598553296e-03,8.939421921968460083e-02
-1.407491987128263733e-01,-1.680952239533632375e-01,-2.435308298234505342e-01,7.407667053221143362e-03,1.112066214496379088e-02,1.209815663777660290e-02,9.734435379505157471e-02
-1.553347460009840419e-01,-1.016616493855979492e-01,-2.413430438135354683e-01,-7.166328502347916324e-03,-2.985354820961964601e-04,-5.683745623056034313e-02,1.572907716035842896e-01
-1.228645749634878215e-01,-2.268554882746607881e-01,-3.126232548823186241e-01,7.974760469324453441e-03,7.647563885325001087e-02,-4.075989796660085818e-02,2.231809943914413452e-01
-1.303976851164104223e-01,-1.577004151532331588e-01,-2.882220484294042429e-01,-5.729922093259239881e-03,5.924843962823125865e-03,-8.616651395215994174e-04,1.468024849891662598e-01
-1.416681400521553613e-01,-1.412691477426646358e-01,-2.873985017816895748e-01,-3.592994767367362866e-04,-1.351293216200424472e-04,1.059574968458773899e-04,1.459318995475769043e-01
-1.444002916631316746e-01,-1.430551543775049339e-01,-2.886020155821950040e-01,-1.958378164336966926e-04,6.996530463925991581e-05,-5.151746416673778938e-05,1.448794454336166382e-01
-1.512011594620323862e-01,-1.399831963438507021e-01,-2.874676370094371158e-01,-3.306918402413438346e-03,-8.563724875088644603e-05,-1.540044102895408247e-04,1.423233300447463989e-01
-1.435883655995262576e-01,-1.428012732188246314e-01,-2.885310600047436558e-01,-1.178211543162385484e-04,1.915825025533506693e-04,-8.722626723598642681e-05,1.453384459018707275e-01
-1.425271167587149057e-01,-1.369334451706035460e-01,-2.858055821697416121e-01,-1.569158462149465583e-03,-4.018391960729713079e-04,8.716763097840486132e-05,1.461826115846633911e-01
-1.432004071748863572e-01,-1.413909895808950490e-01,-2.880792093153480282e-01,-1.611436551640090106e-03,-1.632584864945257365e-04,-7.134945043401710353e-04,1.458241641521453857e-01
-1.433527085654939248e-01,-1.376457099431743769e-01,-2.870860953856327891e-01,-1.124105572645154412e-03,-6.280941728082781519e-04,8.228181448868690040e-04,1.466940641403198242e-01
-1.511638702369557108e-01,-1.518489492799405538e-01,-2.871708481863472495e-01,-3.751577366119603790e-04,2.317915017024342530e-04,-1.175076308903411879e-04,1.356680393218994141e-01
-1.430998869981730259e-01,-1.412036071337428034e-01,-2.888312042537549695e-01,-5.362605147682920036e-04,1.605704792577890032e-07,-2.161632919677583303e-04,1.466920673847198486e-01
-1.448792137677976932e-01,-1.429219802810936524e-01,-2.883040842313720487e-01,-2.631368793112828699e-03,-4.349360632911167843e-04,1.909465918046904286e-04,1.444876790046691895e-01
-1.731728296465776806e-01,-1.621919986434262884e-01,-2.294911980960964715e-01,1.472532707887154284e-02,1.070718907389072751e-02,5.587356793198541838e-02,1.194602996110916138e-01
-1.404215276966103709e-01,-1.505836849735829319e-01,-1.902803686445385667e-01,-9.399230462877642637e-04,3.824387239893676810e-03,7.860102136728748870e-03,4.810791835188865662e-02
-1.486018242553006630e-01,-1.630410488205470687e-01,-2.230234912981257367e-01,5.872675523011980890e-03,2.747546739737596194e-02,1.037761969924325470e-02,8.581222593784332275e-02
-1.505105283378317671e-01,-1.482170020824497003e-01,-2.013760814018776268e-01,8.662425686161786750e-03,1.427659673284432072e-02,1.024927160066343296e-02,6.213650479912757874e-02
-1.670612032108509115e-01,-1.737853286879230408e-01,-2.145767665606153618e-01,1.982011210867086048e-03,9.714321758231406201e-03,6.176264500602426585e-03,4.891594871878623962e-02
-1.363882113953121256e-01,-1.554889753864533153e-01,-2.254223317876242749e-01,2.225596989364059253e-03,1.335350226709817144e-02,1.120888733606364464e-03,8.452733606100082397e-02
-1.517218985685544475e-01,-1.377443514732280827e-01,-2.888204891262284857e-01,-2.124335747889026082e-03,-2.366213804808608577e-04,-1.660841380316673260e-03,1.446709334850311279e-01
-1.370581550790006820e-01,-1.434842595655015374e-01,-2.855241406580388275e-01,-9.394217535905270743e-04,-5.739096435618475274e-04,2.278116937846617375e-04,1.453725397586822510e-01
-1.559264353799747482e-01,-1.237837745063589401e-01,-2.694916374371001955e-01,1.467282111445828785e-03,4.755336869122805715e-04,3.720439352455544215e-03,1.327748298645019531e-01
-1.529004644014360648e-01,-1.284108640211480967e-01,-2.817183931771037875e-01,1.319038408011122526e-03,7.089618386289770575e-04,8.961662225000673054e-04,1.426801830530166626e-01
-1.506146141678853523e-01,-1.193373335234481497e-01,-2.636785799763351479e-01,7.510934150459271921e-04,-1.472889820668302424e-03,6.190986261299444640e-03,1.319895684719085693e-01
-1.551786937772837993e-01,-1.375432137948665312e-01,-2.811287910313188809e-01,6.003928579800412065e-03,5.543499649708859538e-04,8.130624803006158237e-04,1.360392421483993530e-01
-1.400107591308832888e-01,-1.459010887803667000e-01,-2.778664287310695924e-01,-7.017804015752239673e-03,3.207524072988193840e-03,-1.079461494720418586e-03,1.356796771287918091e-01
-1.459893172435814401e-01,-1.301140593053068395e-01,-2.631784151383021464e-01,7.440038457824192132e-03,2.012788175207822373e-03,5.238938255606774737e-03,1.269104927778244019e-01
-1.547816415356692010e-01,-1.244394330110567271e-01,-2.758536329383977637e-01,1.591859095644913586e-03,7.844391693667188397e-04,2.292170769572681246e-03,1.388448029756546021e-01
-1.415628386366859504e-01,-1.411878103703072262e-01,-2.874720708321618634e-01,-5.668276750402664139e-04,-2.711443909700623329e-04,1.157072280023613709e-04,1.461012959480285645e-01
-1.317536792395608003e-01,-1.489636205483486908e-01,-2.818106607089264637e-01,5.572164750467324679e-03,4.945578759823425485e-03,1.600478183883503490e-03,1.428461223840713501e-01
-1.498307589881421320e-01,-1.449592976582975146e-01,-2.900934513105403179e-01,-1.032198872567466645e-03,-8.710979707106587030e-05,-3.111395737025290497e-04,1.427730619907379150e-01
-9.431348894941221639e-02,-1.545446298297303844e-01,-2.624729611934792928e-01,-3.155564143770206702e-03,7.870063383484947328e-02,-1.017686992066733388e-02,2.017397135496139526e-01
-1.273923589752667951e-01,-1.624188830370729697e-01,-2.898471062823519961e-01,-4.996927707570680182e-04,1.103694254713616894e-02,-2.501278735067113523e-04,1.493136137723922729e-01
-1.407407906845371537e-01,-1.420880384278614683e-01,-2.878145790500548085e-01,-7.052979731667812294e-04,-1.851630555237506251e-04,2.800162716879667853e-04,1.464110612869262695e-01
-1.151937921351315897e-01,-1.541823345801218714e-01,-2.865760776794395448e-01,-1.231653270910875201e-03,1.093898290928461969e-02,2.123553047287542617e-03,1.568027883768081665e-01
-1.469772071026936022e-01,-1.755787707301028899e-01,-2.489435298911298888e-01,8.402139023386058806e-04,2.091490698969167283e-02,2.195346007710983691e-03,9.812064468860626221e-02
-1.196291419129448808e-01,-1.447286789451691091e-01,-2.506543189271364103e-01,-5.909510943109316100e-03,7.043056002516411354e-03,-5.379982002401456805e-04,1.215045750141143799e-01
-1.272982566065361532e-01,-1.569628260767230721e-01,-2.811656617174602690e-01,-1.897359703456601284e-03,2.949342656132740350e-03,-1.112638450389851928e-03,1.415321975946426392e-01
-1.524049407581699878e-01,-1.281720410599574977e-01,-2.796541439252607231e-01,-1.192954493888421022e-03,9.872792200873055628e-04,-9.907075922321794889e-04,1.409728676080703735e-01
-1.278734232054919151e-01,-1.618745456225720303e-01,-2.751945510034689568e-01,2.106372075482148762e-03,3.504860931927799954e-03,-2.820875938389017564e-04,1.337942779064178467e-01
-1.489372722919081182e-01,-1.344690604349688678e-01,-2.828315903631855588e-01,-1.020245186885973846e-03,-6.301820555351279472e-05,1.651893749166387978e-04,1.416949033737182617e-01
-1.503022101770402352e-01,-1.363251037515456343e-01,-2.867745856210559552e-01,-1.109770367366564627e-03,7.005741680182500609e-04,-1.702209755763197676e-04,1.439889222383499146e-01
-1.195693744405609549e-01,-1.513529817384957621e-01,-2.463224372251428540e-01,-2.383105217657120137e-03,9.834011231985805707e-03,-5.752982419139981854e-04,1.155682504177093506e-01
-1.224444422883862876e-01,-1.525889079878254562e-01,-2.750427149902049395e-01,-2.024457285908608326e-03,2.409733503828199921e-03,-2.147724498469587816e-03,1.401373744010925293e-01
-1.294704000621107465e-01,-1.572631827926595782e-01,-2.763155345110990813e-01,-3.929072305723803511e-03,2.744431067580940711e-03,-2.538844670471994826e-04,1.353654265403747559e-01
-1.612182843294285850e-01,-1.302318655734850394e-01,-2.832898464622093937e-01,-2.686756918087033260e-03,-4.449095233739421723e-04,1.786368154993108826e-03,1.402712017297744751e-01
-1.484208758798397088e-01,-1.192160217554740081e-01,-2.445012320988814158e-01,2.890706020220668504e-04,-9.103866153460153746e-06,8.219462026104001201e-03,1.144259646534919739e-01
-1.434401433600923093e-01,-1.370868251418044526e-01,-2.863777832562308667e-01,-1.024374803859395919e-03,-1.734091760918495635e-04,1.170072267593293093e-03,1.462429761886596680e-01
-1.317413805991162479e-01,-1.469248428519516758e-01,-2.826466707634004427e-01,-1.205488761434853539e-03,-5.656946698429662999e-04,8.863954506098002326e-05,1.439340859651565552e-01
-1.546692403895211509e-01,-1.247093243689785802e-01,-2.704154881852635084e-01,-3.940178021820436860e-03,-1.185374998655771466e-03,6.316591911749339094e-03,1.339142471551895142e-01
-1.406330127838918143e-01,-1.442173720514120794e-01,-2.791819891658287589e-01,-7.525952840823068105e-03,-3.667185858876952087e-03,1.452535226045188017e-03,1.375814378261566162e-01
-1.371505186525736886e-01,-1.467755260258547800e-01,-2.855666899647527068e-01,-2.192487369162672995e-03,-3.412574303980146751e-04,8.976262075789326680e-04,1.439051181077957153e-01
-1.387855273794124378e-01,-1.524166111587324235e-01,-2.884510973294439062e-01,-5.395657862941678068e-03,2.658602031487948460e-03,-6.800001626541282793e-04,1.437199264764785767e-01
-1.378843032319233830e-01,-1.451454700157933098e-01,-2.857104939902932461e-01,-2.643426266364769153e-03,-7.302755227890901863e-04,6.159014898589782209e-04,1.444147378206253052e-01
-1.302092557644381476e-01,-1.133044679920215125e-01,-2.322408751603816657e-01,-9.847773729474273291e-03,5.201445667947231233e-03,-1.655197153549516076e-02,1.166835501790046692e-01
-1.483628447647832027e-01,-1.512157312550655164e-01,-2.901407293140694232e-01,-2.609063930667244666e-03,-5.557814573293026663e-04,1.328325699146792969e-05,1.404492110013961792e-01
-1.441373590858308629e-01,-1.453467267124053941e-01,-2.875924007306021601e-01,-1.658733777328821228e-03,-9.733353670810875361e-05,3.099029753691906626e-05,1.428831964731216431e-01
-1.450454572447942292e-01,-1.432517883522323177e-01,-2.884855958410260657e-01,-1.061765403345646700e-03,-1.159932650717150919e-04,-3.693199037722575588e-04,1.443586051464080811e-01
-1.442817328629151519e-01,-1.391033199795168873e-01,-2.851094134107576838e-01,-6.267485962105022110e-03,-1.725773743306090397e-03,2.818041779628930720e-03,1.440108269453048706e-01
-1.418653925380962966e-01,-1.426064728910424739e-01,-2.887427246868280450e-01,5.942949236487779984e-04,1.057263572694137506e-05,2.920641841199021326e-04,1.465126872062683105e-01
-1.502390894159210399e-01,-1.922218291816668034e-01,-2.859985652887847563e-01,-1.252126533602594162e-02,-4.653180498242158458e-02,1.406764549382028516e-02,1.485035419464111328e-01
-1.271518481133472322e-01,-1.583012217662873033e-01,-2.889273704422233857e-01,4.039593383489597893e-03,-1.118116284729801617e-02,-1.854072501269484700e-03,1.501223444938659668e-01
-1.146025321648456996e-01,-1.406140525899891303e-01,-2.547621199153671245e-01,-1.262838221833974955e-02,-1.520160288537703713e-02,8.824573473432413551e-03,1.344650834798812866e-01
-1.170545316558360277e-01,-1.346948569305128629e-01,-2.455514418136197918e-01,-1.344248403927198431e-02,-1.982239049331651487e-02,1.248035968997738068e-02,1.293988823890686035e-01
-1.421177009903032418e-01,-1.583239534499379098e-01,-2.281659359210065907e-01,-1.032165473402593160e-02,-2.397525206907940784e-02,1.198680466729022849e-02,9.352818131446838379e-02
-1.802038841125395419e-01,-1.823625063709660155e-01,-3.265075855058509058e-01,-2.634959006911776619e-02,-2.428095326785521813e-02,2.882521202619473324e-02,1.656438708305358887e-01
-1.625333589526903322e-01,-1.288846097585046591e-01,-2.820681491409592345e-01,-2.695677781077391189e-03,1.196332418994753427e-03,-4.769081959343444629e-03,1.397759914398193359e-01
-1.639560650934508423e-01,-1.351996395024577247e-01,-2.819810011216806744e-01,-5.384101193640198138e-03,2.628887582417519051e-03,-8.988755264378605128e-03,1.360179632902145386e-01
-1.526394707914229820e-01,-1.265664512292671573e-01,-2.783735335396633759e-01,-1.000752338934011217e-03,4.007070461008227957e-04,5.822946946229825248e-04,1.406116187572479248e-01
-1.639776019489675718e-01,-1.294613723559401575e-01,-2.883307902082424268e-01,1.422490363941945196e-02,-6.403884970692096459e-03,-1.999962576315466797e-02,1.512524932622909546e-01
-1.512077209844309433e-01,-1.248449965647328574e-01,-2.725315238907657367e-01,-3.726829056230714175e-03,4.573832873629922967e-04,-5.783629072767900413e-03,1.369508355855941772e-01
-1.661823259070621672e-01,-1.324301265781613612e-01,-2.863690234027904680e-01,2.035890764123207252e-03,-1.193392571388426525e-03,-3.918879629863282303e-03,1.403687894344329834e-01
-1.219147026419682284e-01,-1.545021226289098326e-01,-2.727174503473964728e-01,-6.584227280896159202e-04,-2.621261200565103318e-03,-7.712994622102816887e-04,1.375239342451095581e-01
-1.580022697655360520e-01,-1.249548532949834451e-01,-2.838369757712831953e-01,-7.829161388066457937e-04,1.508377122867588481e-03,-3.569316490619972929e-03,1.453681588172912598e-01
-1.590833636059020562e-01,-1.316766268780168447e-01,-2.825762695896741339e-01,-4.033927964253352164e-03,8.028034054785323061e-04,-3.195751274132673306e-03,1.395261734724044800e-01
-1.577323683214276184e-01,-1.319599100373706202e-01,-2.841845684914483527e-01,-3.975226374987278315e-03,6.805373709275641019e-04,-2.912596625370919481e-03,1.413775384426116943e-01
-1.565905011997943408e-01,-1.258868934249747773e-01,-2.784520253947310731e-01,-3.931313985697958884e-04,4.619748032063767133e-04,-1.372667351568959812e-04,1.397701352834701538e-01
-1.501551145709074664e-01,-1.513811703707598766e-01,-2.889240053978823219e-01,6.208379182234058987e-04,-2.146398042472136964e-05,-1.206953576676402244e-04,1.381642967462539673e-01
-1.508146681897848951e-01,-1.212829013398692424e-01,-2.796616931347869484e-01,-5.228449688785836123e-03,2.311862799092489693e-03,-8.509868877350303812e-03,1.469491720199584961e-01
-1.424394272020798047e-01,-1.376611855019725383e-01,-2.825899198961660530e-01,3.773266409476756702e-03,-9.848189833867983592e-04,-1.079135839256903937e-03,1.427717804908752441e-01
-1.578551642203737393e-01,-1.371798131692587575e-01,-2.914657095551816957e-01,-1.545969249379971220e-03,-4.988911609239575409e-04,-4.286566057173547156e-04,1.450867354869842529e-01
-1.268449009648661696e-01,-1.299150548451223630e-01,-2.346139938864481578e-01,1.060915959452204613e-02,9.821747654588227835e-03,7.061702509588116058e-03,1.098608300089836121e-01
-1.634968404849704848e-01,-1.105767336340682805e-01,-2.455565088435573418e-01,2.899112624258856109e-03,-1.496465689310022952e-04,3.567917827521722290e-02,1.331211030483245850e-01
-1.470822271521224911e-01,-1.348967459927311596e-01,-2.680694204122371915e-01,9.791620276496973765e-03,2.802769311156230216e-03,3.896770505083227334e-03,1.289085894823074341e-01
-1.462457784473040756e-01,-1.549089187721789940e-01,-2.157512211414708281e-01,4.935127296908701708e-03,4.965224547741901168e-03,-7.716127443553349086e-05,6.671556085348129272e-02
-1.385974433278361617e-01,-1.578962437870516378e-01,-2.488211226126933739e-01,6.259810491969804505e-03,2.487547393621977136e-03,1.676452142498007468e-03,1.026599705219268799e-01
-1.574908696196335722e-01,-1.284760910111396037e-01,-2.798689921916136525e-01,6.167320825585879398e-04,4.754717370872826366e-04,-9.226311559834992661e-04,1.391883939504623413e-01
-1.280190201992396082e-01,-1.493255620530863637e-01,-2.780230429360776023e-01,-3.797491384144733011e-03,2.296168130644669469e-03,-8.156575728380874172e-04,1.407841742038726807e-01
-1.596643007204517906e-01,-1.578581529483893131e-01,-3.050364296007542775e-01,7.035584439076515706e-03,1.024082402896628113e-03,-1.073527750361485088e-03,1.468127518892288208e-01
-1.235521265329491969e-01,-1.455516574778492611e-01,-2.483487554221161797e-01,-9.099837801795749095e-03,1.550212866932122215e-02,-4.632541745239341160e-03,1.197767108678817749e-01
-1.586982381838752676e-01,-1.252368833173903573e-01,-2.831230562617080837e-01,6.743290134106904058e-04,-7.680994810993892283e-04,-2.232340816010292082e-03,1.441620737314224243e-01
-1.180800659576233258e-01,-1.461072137408281901e-01,-2.434345190724265806e-01,-8.837258154405655541e-03,2.023979306370188302e-02,-5.206482950008676884e-03,1.205424964427947998e-01
-1.044659814454957508e-01,-7.559246066101713013e-02,-1.532849718455755184e-01,2.731120507344963338e-02,4.268967971461705424e-02,7.658654279147326938e-02,1.729970425367355347e-01
-1.213780171067469077e-01,-1.471877440840654305e-01,-2.881194240963506070e-01,-1.153709928709879991e-02,1.009562501959845870e-02,-5.499538636265012895e-03,1.579908281564712524e-01
-1.256921545017768427e-01,-1.572346580650641756e-01,-2.846337486064699496e-01,-2.333254413817763360e-03,2.538950213922569216e-03,-1.644584669486842850e-03,1.459031552076339722e-01
-1.381374384581880721e-01,-1.556045454655945459e-01,-2.882407461004425908e-01,-5.394294473493858703e-03,1.893864579660189083e-03,-5.283221713073492885e-04,1.425241231918334961e-01
-1.357785187384862313e-01,-1.498649811975817370e-01,-2.797787886763108967e-01,-5.546645944302028286e-03,-3.273454314937892899e-03,1.576721998881257117e-03,1.379780918359756470e-01
-1.261166721203498819e-01,-1.586976339656471779e-01,-2.867341652093841620e-01,-4.567619612641761408e-04,1.825911518231458771e-03,-2.122007299906873993e-04,1.470958441495895386e-01
-1.785745519348647115e-01,-1.496791567015281210e-01,-2.490592847547526689e-01,6.997756242326963992e-03,-2.842537779013450117e-02,-5.355690881402119796e-02,1.378972977399826050e-01
-1.351086110998763745e-01,-1.502156896556526289e-01,-2.876421548035392184e-01,-1.186347797182891019e-03,-7.603812171892045243e-04,2.318535663301237652e-04,1.455901414155960083e-01
-1.532519683031235425e-01,-1.510515905067978115e-01,-2.885206263347878108e-01,4.686901422889989564e-04,1.357334270539683021e-04,2.880485615704981084e-05,1.363847851753234863e-01
-1.479073008897316965e-01,-1.433722356832689282e-01,-2.860729828889827520e-01,1.493263946290781944e-03,5.657725596190845828e-05,-6.405951193857487794e-04,1.405163407325744629e-01
-1.413697597456056165e-01,-1.518786460195786781e-01,-2.590976120428639673e-01,7.169465916442848558e-03,-2.828492846682157270e-03,-1.906420859191243575e-03,1.136758700013160706e-01
-1.489731853416525753e-01,-1.494469471846657238e-01,-2.869251120236632202e-01,9.314235399347351764e-04,4.765867078830372426e-05,2.172874337247620875e-04,1.377256512641906738e-01
-1.519198655379903617e-01,-1.487254380788714525e-01,-2.871065145273656305e-01,1.073298497518950607e-03,6.767552598080221228e-05,-3.926038328189388068e-05,1.368245333433151245e-01
-1.524410749528672393e-01,-1.522193933060791149e-01,-2.922639760759284666e-01,1.871128632275131454e-03,1.324183367742338795e-03,8.328404076720283527e-04,1.399976164102554321e-01
-1.356254450298236547e-01,-1.432068429241679097e-01,-2.839195256848331406e-01,7.251948428781562588e-03,-3.613469501947337223e-03,-3.090148050023067746e-03,1.454301476478576660e-01
-1.704452725301146832e-01,-1.824768351470609229e-01,-3.594587459740867796e-01,2.654669738746095325e-02,-1.243240076150691278e-03,5.659213693350732474e-03,1.892395913600921631e-01
-1.451725685752843498e-01,-1.392219038322019264e-01,-2.882625408674597267e-01,1.099064103789439356e-03,-2.047551566204547820e-06,-4.317250569852219247e-04,1.461704969406127930e-01
-1.507414195614841523e-01,-1.386141790910150884e-01,-2.868966578084601315e-01,1.214705823840523963e-03,2.202716761273817764e-04,-8.143898473370276897e-04,1.426291316747665405e-01
-1.382933803246098048e-01,-1.546226328472898315e-01,-2.870642729450178510e-01,3.454009468934308991e-03,-1.524550086706041169e-03,-8.115492338705948246e-04,1.414738297462463379e-01
-1.438389895160137044e-01,-1.334429700851407219e-01,-2.828362937542510669e-01,2.938933606196722503e-03,1.640150728643597765e-04,6.631383859950752777e-04,1.445706039667129517e-01
-1.356869656871406149e-01,-1.523093465713009076e-01,-2.833148215634859746e-01,3.692135451586528189e-03,-1.292308414464992370e-04,2.932523511950908346e-04,1.402054429054260254e-01
-1.521193886436487119e-01,-1.533036140669639114e-01,-2.889533702277827798e-01,8.910658426909701937e-04,3.536877914034213292e-05,-1.630279588451956753e-04,1.362547725439071655e-01
-1.501436215765985793e-01,-1.517398028261263410e-01,-2.884979690527337270e-01,6.707445736644655678e-04,2.673561750883282824e-04,7.159317644188689699e-04,1.375744789838790894e-01
-1.470468114638146251e-01,-1.489786989320257826e-01,-2.882777277112053005e-01,1.093401135432753692e-03,2.138601176540363773e-04,4.427755303087997098e-04,1.402903199195861816e-01
-1.359973709320911051e-01,-1.468086912309485570e-01,-2.866433964232072418e-01,-1.935823452523255123e-03,-4.481227452810630633e-04,7.688937718954714628e-04,1.455886214971542358e-01
-1.362005231484355039e-01,-1.458457176364068575e-01,-2.858931316554684798e-01,1.764817396993197769e-03,-1.060509200742591204e-04,-3.420888696678545983e-04,1.451441347599029541e-01
-1.460081494490885756e-01,-1.466806171915388535e-01,-2.872316325068647869e-01,1.052408103549184754e-03,1.911798726221936137e-04,9.259535365216963224e-05,1.409007310867309570e-01
-1.434180564429631821e-01,-1.453329293436085579e-01,-2.697511891924524452e-01,8.535054168715265968e-03,-1.577805330068505997e-03,-1.003619292523319885e-03,1.262966692447662354e-01
-1.500757081204966426e-01,-1.343994748488154534e-01,-2.870975249753979219e-01,1.705430142279059378e-03,1.844596946132868011e-04,-1.186023887825225255e-03,1.455395370721817017e-01
-1.464242893938038637e-01,-1.461106097604785159e-01,-2.898922833525571785e-01,1.566008318112655819e-03,-4.861652403514093732e-06,2.733018316521337469e-05,1.436507105827331543e-01
-1.498388752747973895e-01,-1.501352204004547386e-01,-2.881586498347554759e-01,1.340655272082648137e-03,2.822803511533120363e-04,1.341698358309405205e-04,1.381924152374267578e-01
-1.486549153044866567e-01,-1.495478895053898027e-01,-2.879719584385120323e-01,6.242057034203901504e-04,-8.818173255811024333e-05,3.498953900385278122e-04,1.388783305883407593e-01
-1.439373146042581264e-01,-1.450593982433275586e-01,-2.895955268498665025e-01,1.254708551769979528e-03,-9.854202693070773789e-04,4.317134247982093768e-04,1.451286673545837402e-01
-1.387128175756028869e-01,-1.415696569689408046e-01,-2.812806820095504201e-01,6.064319663187662211e-03,-7.105242823600391340e-04,-4.836381769134825005e-04,1.415591984987258911e-01
-1.424873615036789110e-01,-1.418373377363031929e-01,-2.882292504149119305e-01,4.612850995169285782e-04,-1.953442253644158144e-04,1.591240030891158126e-05,1.460705697536468506e-01
-1.416944506515842306e-01,-1.396564134108077559e-01,-2.869826513246673261e-01,1.008674894007614885e-03,-4.311259998662572029e-04,-1.764792445710246487e-04,1.463305205106735229e-01
-1.378989619539947864e-01,-1.525362950296468290e-01,-2.883767073576100626e-01,4.874471866806925728e-03,-4.703565976854517244e-03,-4.543919439521385212e-04,1.441994458436965942e-01
-1.558298926643256477e-01,-1.540193569122775830e-01,-2.950460516721897242e-01,2.308268600319745775e-03,9.982222063900526160e-04,7.974805680680905479e-04,1.402046829462051392e-01
-1.725797197795206350e-01,-1.907061315730246287e-01,-2.921996149003773802e-01,1.888270807376260171e-02,-5.864377758025247217e-02,-2.217029124402515247e-02,1.591562777757644653e-01
-1.529663613976254277e-01,-1.281031322678998774e-01,-2.838442330011499148e-01,1.387780326710537446e-03,-9.905391131606571930e-04,-2.088051604937589227e-03,1.449932605028152466e-01
-1.473090783150124983e-01,-1.520585871937974454e-01,-2.291194427563369995e-01,2.242825491118604839e-02,-4.202840394954558689e-02,-4.988919862571964542e-02,1.435338705778121948e-01
-1.458091732049534572e-01,-1.446889480204932854e-01,-2.899965188286031115e-01,1.407430420557488886e-04,3.801327702058136088e-04,1.130020369915001814e-04,1.447525471448898315e-01
-1.366789476723305197e-01,-1.498306177586917198e-01,-2.878818225576884049e-01,1.493523582162582753e-03,-2.562747834795491074e-04,-5.117581516817422144e-04,1.451012790203094482e-01
-1.454982151100635834e-01,-1.331338910811688536e-01,-2.794009974437924315e-01,7.777136143541701560e-03,-1.829361708844751610e-04,-1.823012262555879105e-03,1.411735564470291138e-01
-1.449271264042154284e-01,-1.376843939875351253e-01,-2.680072151407402181e-01,1.026164022405255324e-02,-6.491616338116706908e-03,-8.709452044829552736e-03,1.294700503349304199e-01
-1.284374698093436740e-01,-1.208446640391730720e-01,-2.035602324593396850e-01,2.168278119212752736e-02,-4.104391098823557960e-02,-4.161940617479591847e-02,1.339112967252731323e-01
-1.441543728762742227e-01,-1.379233212809664599e-01,-2.855711583484692451e-01,1.158433766908944281e-03,-5.344850200077249855e-04,-1.518917320252111179e-04,1.446501314640045166e-01
-1.517587407875536087e-01,-1.413433459813978610e-01,-2.882246865589088158e-01,-1.564417309893026842e-03,-5.910194976877523659e-04,-1.115066949589406300e-03,1.420031785964965820e-01
-1.029590266260551473e-01,-1.193263591542901569e-01,-2.217660410354815315e-01,2.492226166199633386e-02,-6.939216410208152996e-02,-4.082701343557354479e-02,1.837067008018493652e-01
-1.478252887206907007e-01,-1.444056731364622703e-01,-2.901144886229075626e-01,-1.393683687786136365e-03,-3.545118066848761324e-04,-5.004137390884641576e-04,1.440536081790924072e-01
-1.289861951768792869e-01,-1.567991675389170392e-01,-2.693059155697354878e-01,-1.441986612136025598e-03,1.587559190810436350e-03,-8.359443294115063506e-05,1.287412047386169434e-01
-1.456773543738657251e-01,-1.360487057100038533e-01,-2.857495567198670705e-01,-2.051267304888188328e-03,3.814876452687576041e-04,-5.929238915406014098e-04,1.451749056577682495e-01
-1.267740701426718908e-01,-1.593615747507588498e-01,-2.794386695107016205e-01,-9.311570980885637767e-05,5.219366132984506242e-04,5.423895620945418106e-04,1.392666250467300415e-01
-1.334518470400285206e-01,-1.534671761385736910e-01,-2.841916724513967041e-01,-2.691267037158672631e-03,2.263558440910411196e-04,-1.611336592166296247e-04,1.418730467557907104e-01
-1.345528770098710913e-01,-1.602318394961158299e-01,-2.794373909843253512e-01,-5.803685716899829698e-03,7.703147463115189025e-03,-2.082258388148038476e-03,1.349908113479614258e-01
-1.331692981287075639e-01,-1.536476960704495354e-01,-2.849991868597601119e-01,-1.965649642447075442e-03,3.137411069582386291e-04,-8.026536502340899477e-04,1.427454650402069092e-01
-1.373660714035131181e-01,-1.445746823733708442e-01,-2.676775454122364284e-01,-2.734547524912674457e-02,3.546357226742503227e-02,-1.740061117099908974e-02,1.517179757356643677e-01
-1.261990588312918715e-01,-1.481262706035086918e-01,-2.529714669600920951e-01,-8.746118778253203843e-03,6.656935299348835759e-03,-2.214947126554969292e-03,1.189513653516769409e-01
-1.243665394703507565e-01,-1.567800899814524029e-01,-2.823528789858454902e-01,-7.613028772011542133e-04,-7.032695863413442570e-04,-4.860738990267052468e-04,1.445453315973281860e-01
-1.332797350689046423e-01,-1.550718701640836361e-01,-2.804469980446158694e-01,-1.276909450235573160e-02,-1.792341816657091677e-02,5.151378013350796023e-03,1.430332809686660767e-01
-1.310204052264299923e-01,-1.551982315365059151e-01,-2.874119946811394266e-01,-1.315948389657806399e-03,-2.073419464389484723e-03,3.658280413359896524e-04,1.458772867918014526e-01
-1.406808145923644227e-01,-1.758629226350233721e-01,-2.834593748239692679e-01,-5.911916489142344383e-03,-1.171964224347814623e-02,-6.690181441826706420e-04,1.308376491069793701e-01
-1.626907101009559820e-01,-1.338651580996917390e-01,-2.754929419773937682e-01,-1.899091252788722377e-05,1.232739924264394243e-03,-1.024469680247659838e-02,1.308673471212387085e-01
-1.586327665713672674e-01,-1.256507431690396803e-01,-2.832569386630784947e-01,-4.657602793193121589e-04,4.251074578410514557e-04,-1.994482253723131159e-03,1.440225094556808472e-01
-1.339498104635410969e-01,-1.575871782685365208e-01,-2.862486186668330435e-01,-4.737181963823034435e-03,-3.926426315805245891e-03,5.507596662379875795e-04,1.423663944005966187e-01
-1.453512346961950419e-01,-1.489295710302178111e-01,-2.880243974317842071e-01,-7.615860414019092785e-03,1.675671609915452233e-03,-2.745906151773654623e-03,1.416437476873397827e-01
-1.653168795000306557e-01,-1.417195407804886231e-01,-2.534549624297379178e-01,-4.240643914296670161e-03,-2.936627439437986356e-04,-3.601513384805102042e-03,1.024602428078651428e-01
-1.246882743955435024e-01,-1.513729679324603006e-01,-2.800088694831145975e-01,-2.472721373752323568e-03,-2.590746243172425013e-03,9.711330120630618130e-04,1.439902335405349731e-01
-1.575661978985748446e-01,-1.255844545424693592e-01,-2.838916724195799657e-01,-4.656959868465307276e-04,3.725726689986049367e-04,-1.994209068133967911e-03,1.450312584638595581e-01
-1.427739572611161079e-01,-1.691993815104578247e-01,-2.590901407957520997e-01,-1.450788530963638238e-02,-1.935672487328778460e-02,-1.453878000753326682e-03,1.136480495333671570e-01
-1.313762403639519571e-01,-1.565239058746100143e-01,-2.801233474398989731e-01,-4.542591725872344340e-03,-4.173328970000426789e-03,-4.391480380338885292e-05,1.383171230554580688e-01
-1.514809687443543218e-01,-1.505481333214442330e-01,-2.868702909519366129e-01,-8.147914078563998430e-04,-1.597191856621323221e-04,8.919429697586898605e-05,1.358658373355865479e-01
-1.589322898650632754e-01,-1.261688948437804103e-01,-2.854882071027664558e-01,8.618879423370611218e-04,-3.972489511749542320e-04,-1.874598985085179767e-03,1.457720398902893066e-01
-1.888624729716749662e-01,-1.832284120595993326e-01,-4.615979213220496868e-01,5.388708378572300284e-02,-4.316032947588218510e-02,-2.221341971673352830e-02,3.028748631477355957e-01
-1.607533613426213037e-01,-1.285666851310057202e-01,-2.898971654288778343e-01,-3.445639476309227209e-04,1.374628977098288156e-04,-3.966807122073744488e-03,1.480487585067749023e-01
-1.262989980852515515e-01,-1.526429175586576648e-01,-2.817199498111604417e-01,-2.754758138029724749e-03,-2.133589082341602258e-03,1.222246816069125653e-03,1.442088186740875244e-01
-1.487965443939863464e-01,-1.360627475984184098e-01,-2.853848701772601082e-01,1.296728590426687823e-03,-4.014663937495732107e-04,-3.645656124474981152e-04,1.434006094932556152e-01
-2.057390184792013688e-01,-2.927266028099986261e-01,-6.120876223443080244e-01,8.900557778608181314e-02,3.065821418428445189e-02,1.148679095967991212e-02,4.053644537925720215e-01
-1.470043356408535784e-01,-1.360090101894407544e-01,-2.839178740360533415e-01,1.614281361587974802e-03,-6.787042377262406286e-04,-9.195410866314027458e-04,1.427703052759170532e-01
-1.443501383092724022e-01,-1.446292009822433000e-01,-2.886815128678966169e-01,-1.823421038509571545e-04,5.702263656281926512e-05,-3.584711140951756534e-04,1.441937685012817383e-01
-1.416174997084211074e-01,-1.476639568121276835e-01,-2.856628965447363666e-01,1.471568079073246136e-03,-9.059072493473979931e-05,8.679644242495782166e-05,1.411425322294235229e-01
-1.563796528439531097e-01,-1.339443622746193663e-01,-2.884309663863597883e-01,1.800629604401546595e-03,1.142062768870961205e-04,-2.551808989196316033e-03,1.446817219257354736e-01
-1.515197639220084158e-01,-1.522749170858428425e-01,-2.874254583230999582e-01,1.081089878878666055e-04,4.442276765964476383e-05,-1.600542072028657823e-05,1.355298459529876709e-01
-1.625319083283844890e-01,-1.289229935816141315e-01,-2.826010497323704351e-01,1.266210726810129911e-03,-6.259823546938715752e-04,-4.023604775407415429e-03,1.401288807392120361e-01
-1.460427748124561997e-01,-1.181880667899820464e-01,-2.479683151853185330e-01,4.233205831161618131e-03,-1.950293226883249029e-03,-7.898843097247455758e-03,1.193991303443908691e-01
-1.435270207895582850e-01,-1.198009409955850951e-01,-2.478062117781000273e-01,5.940912454675329954e-03,-1.015648104458922269e-03,-8.477195500782356424e-03,1.193137839436531067e-01
-1.552791186319227301e-01,-1.248692398980638940e-01,-2.800837854853397424e-01,2.260831550531925641e-03,-6.692683475487291520e-04,-8.015698031965911826e-04,1.425302326679229736e-01
-1.435826214054153060e-01,-1.629818809475348240e-01,-2.998284549243651620e-01,2.299709481798688226e-03,2.072956638442579659e-04,-1.277547928912169378e-03,1.475768536329269409e-01
-1.448175511531706872e-01,-1.473658788169708855e-01,-2.886741050323236579e-01,1.019500964665281690e-03,-2.273846903791976474e-04,5.442500636143204375e-04,1.426140666007995605e-01
-1.412778127690895724e-01,-1.575262599525372176e-01,-2.332835524826106788e-01,7.453748771672878866e-03,-9.106806935647514603e-03,-6.458971051781666611e-03,8.817454427480697632e-02
-1.513863555898811164e-01,-1.320047287016287152e-01,-2.841260696226717841e-01,1.479786925565294191e-03,-1.110843741145946294e-03,-5.573901215643599794e-04,1.434551924467086792e-01
-1.540658326435747905e-01,-1.324564095383864715e-01,-2.861633983285395422e-01,1.888894910351450809e-03,-5.302812090577069780e-04,-2.614107830440163746e-03,1.442336142063140869e-01
-8.565945356043772052e-02,-8.341900175711981780e-02,-9.551552919934865049e-02,1.798247429232111005e-02,5.800892025261212420e-02,4.753182427904533575e-02,1.340420842170715332e-01
-1.473795381433925522e-01,-1.355579205816311861e-01,-2.697099231210334791e-01,8.304943496934202515e-03,-1.077834822556721691e-03,-2.024969283445817326e-03,1.295118480920791626e-01
-1.416379288887053001e-01,-1.436786155430010425e-01,-2.876460997352593418e-01,6.112772204900257826e-04,-3.829895855873356497e-04,-1.421265798544241480e-04,1.450041830539703369e-01
-1.522917030516844350e-01,-1.313538285992233989e-01,-2.852624528641526935e-01,3.066449257080727971e-03,-1.469440732924087115e-03,-1.553519579763222190e-03,1.447261869907379150e-01
-1.465994352503966203e-01,-1.390054317655162741e-01,-2.865269972670073662e-01,2.180781625282713319e-03,-7.006578772149831989e-04,-1.145471294668972502e-03,1.439433097839355469e-01
-1.301747078714707850e-01,-1.575154129298789174e-01,-2.729784899798162745e-01,-5.271903428462387624e-03,-1.289259689944682831e-03,-4.868337032314685466e-04,1.316250562667846680e-01
-1.499188412905124168e-01,-1.326631446347729393e-01,-2.844755810430224519e-01,3.346308162437428187e-03,-1.362533987540938971e-03,-9.213980867309679241e-04,1.441071033477783203e-01
-1.560754660184945075e-01,-1.361492660002345534e-01,-2.944916359320634003e-01,1.037194672586125473e-02,-5.869392844553027525e-03,-5.254053707484143167e-03,1.510731428861618042e-01
-1.525502078169110876e-01,-1.492586780508181055e-01,-2.882647786789747091e-01,-5.464053859128928121e-04,-6.589715145824611179e-04,2.119196757983223608e-04,1.373984068632125854e-01
-1.483212580629497124e-01,-1.551679088210687341e-01,-2.898730811533108409e-01,1.887758161364419020e-03,5.077621067047518406e-04,1.049462964434200174e-03,1.383091062307357788e-01
-1.524216617385982797e-01,-1.613443670427613941e-01,-2.970405210538044072e-01,7.767566399664921004e-04,1.172678003747986645e-03,7.856060486941945096e-04,1.403981000185012817e-01
-1.422768892945456276e-01,-1.626483414454646392e-01,-2.973348539980501526e-01,1.641196695380724158e-02,-8.251924413321008386e-03,-4.664114327471749824e-03,1.495888233184814453e-01
-1.466738884095752649e-01,-1.480528103513340521e-01,-2.898413403109512121e-01,-1.984618994397045560e-04,4.890863000412418648e-05,4.953806193828133933e-04,1.424860209226608276e-01
-1.486730191859897132e-01,-1.484134443587013519e-01,-2.871195849547814594e-01,-2.006723916962619737e-03,-4.103176387288676977e-04,3.668318423805547678e-04,1.386234015226364136e-01
-1.346016719620393709e-01,-1.575242729679973142e-01,-2.918947660331296934e-01,3.366128421754860118e-03,-5.471924025107764364e-03,-9.067705064984002894e-04,1.476051509380340576e-01
-1.591884044912614260e-01,-1.446860133555429584e-01,-2.925185966811111316e-01,-9.353680689206831864e-04,-4.138738784779320400e-04,9.977764241937518708e-04,1.411629915237426758e-01
-1.391309715859006257e-01,-1.724990367274792102e-01,-3.006471825496104811e-01,5.722421289037557014e-03,-7.882045832470692057e-03,3.793915050800302901e-03,1.487925797700881958e-01
-1.446477941014181756e-01,-1.626003625659872831e-01,-2.965755975927141797e-01,1.738195491921618128e-03,3.850940323250805967e-04,-7.138136312154868526e-05,1.438276171684265137e-01
-1.471816556172618751e-01,-1.591936868015780826e-01,-2.932766777774119538e-01,2.225284230930380403e-03,-1.624762706170317073e-04,6.974461250203710123e-05,1.405279189348220825e-01
-1.446160032127169481e-01,-1.651886570096367524e-01,-2.956359665522412805e-01,-5.482316859682495429e-03,5.158044969899185789e-03,-2.727302756136419128e-03,1.425330787897109985e-01
-1.518797602167736849e-01,-1.505515164480545898e-01,-2.884052113095186831e-01,-1.358880880929972225e-03,1.780063245055050981e-04,-1.736810445794960119e-04,1.372152566909790039e-01
-1.563887083535783207e-01,-1.342303179354503162e-01,-2.911615334933146393e-01,-1.679114150619712663e-03,1.369036931453903824e-04,-1.864886042732810407e-03,1.471733897924423218e-01
-1.492044160879034964e-01,-1.507430941325605678e-01,-2.887194299481372073e-01,-6.573761749202870113e-04,2.437372757296231218e-05,1.832227856632367275e-04,1.387571096420288086e-01
-1.574426525163721002e-01,-1.307742160233435480e-01,-2.879586103190600599e-01,-3.781969814173736285e-03,3.145542613347766109e-03,-2.870815116047893602e-03,1.460260152816772461e-01
-1.485666838652737187e-01,-1.519860634896817997e-01,-2.891458583708759189e-01,-6.477579689044273914e-04,-6.903948682702780134e-05,-2.027149953528815214e-04,1.389060765504837036e-01
-1.470391179651583113e-01,-1.424287159820694371e-01,-2.894888365736711378e-01,-1.155789049422492089e-03,6.704792122614550241e-04,-4.419959954449686817e-04,1.448304951190948486e-01
-2.187595204349260525e-01,-2.043706499747807992e-01,-2.184789087518920758e-01,-1.245065726231361133e-04,2.780093700280174100e-03,-7.469813719111240147e-02,1.302526295185089111e-01
-1.471965630027773919e-01,-1.504935223778967879e-01,-2.871565325127518609e-01,-1.765236800174337919e-03,-5.463504760540317242e-04,-6.707312796705328117e-05,1.383780241012573242e-01
-1.481611166765289811e-01,-1.514088033914540721e-01,-2.893691544350509015e-01,-1.591824227748577956e-03,1.164905250698091777e-03,-2.426574376853558044e-04,1.396549642086029053e-01
-1.490932530207930706e-01,-1.488617411847785732e-01,-2.874816441088232088e-01,-9.265654217459523600e-04,2.952658141974144721e-04,-2.023496977755336935e-04,1.385149806737899780e-01
-1.410850869197559643e-01,-1.472993244412038327e-01,-2.854180506265450168e-01,-1.699156301967419879e-03,2.921394279862994116e-04,4.578066432082813695e-05,1.413599103689193726e-01
-1.477256855108773359e-01,-1.476311216278071714e-01,-2.871297440313612670e-01,-4.284895175470088808e-04,4.411043712942165201e-05,-4.782165187975827509e-04,1.394558250904083252e-01
-1.623320306138057167e-01,-1.130945613339543465e-01,-2.087448907592289460e-01,6.155478782327655600e-03,1.929373335601411096e-03,-7.862259824009802667e-02,1.597908288240432739e-01
-1.597138518696349652e-01,-1.252867096301797933e-01,-2.856750185679696186e-01,5.274650768967988979e-04,-3.477817790470034173e-04,-3.934706710110018150e-03,1.464089155197143555e-01
-1.557666891049178104e-01,-1.221656760897286420e-01,-2.706920673334726746e-01,-1.464425013713819461e-03,-7.904158744538802649e-06,-5.217176710871803715e-03,1.352278441190719604e-01
-1.593882057778198136e-01,-1.387071731691053023e-01,-2.914506482382905328e-01,-6.552427646994206031e-03,1.388617729130159871e-03,-4.355247996796973546e-03,1.441904008388519287e-01
-1.475223884270031316e-01,-1.353666052369663086e-01,-2.506439233041840575e-01,-7.253615977868096108e-03,1.013546862283377665e-03,-1.957874710681509808e-03,1.104887500405311584e-01
-1.559186577217073211e-01,-1.254444933177990829e-01,-2.789797400851115050e-01,-1.444108462320383302e-03,7.765023646997563835e-04,-1.835694249628997939e-03,1.408583074808120728e-01
-1.569959916834867131e-01,-1.250356106312321414e-01,-2.870525029079130652e-01,1.777246107154550761e-04,-5.169200505327007766e-04,-4.200782337993445859e-03,1.488175243139266968e-01
-1.590780335795735079e-01,-1.423349010535548964e-01,-2.927436988246753247e-01,-1.483187676248721803e-04,-4.270935645350250895e-04,-3.576957895662176336e-04,1.427789181470870972e-01
-1.564909006648370349e-01,-1.286064738786564243e-01,-2.847410283859591051e-01,-2.458332519255990774e-03,3.958657350286882157e-04,-1.652179969366694701e-03,1.443211883306503296e-01
-1.458578173267834344e-01,-1.310205517828288424e-01,-2.635415565218247047e-01,-6.927696752496373921e-03,2.027333410732862305e-03,-4.734045506544166081e-03,1.266461759805679321e-01
-1.480850021049786580e-01,-1.552356721665633099e-01,-2.900154555912641263e-01,8.471074948871881337e-04,-2.424352573358416741e-04,-7.220531588811110197e-04,1.385076940059661865e-01
-1.506600593285810641e-01,-1.504597803489120533e-01,-2.867999209793898330e-01,-1.760202295847027964e-04,-9.806276961679997409e-05,1.078827693793763383e-04,1.362406909465789795e-01
-1.517209082754604754e-01,-1.271882730176505660e-01,-2.753505876244698447e-01,-4.229077197864605266e-03,5.473926297544208725e-04,-3.196018565719012990e-03,1.378561109304428101e-01
-1.558660149564243258e-01,-1.470465899879055405e-01,-2.899590586856882757e-01,-8.755001701666423634e-04,-4.003508358570654203e-04,3.772850193051408094e-04,1.387247592210769653e-01
-1.606595963488431922e-01,-1.412372812189243709e-01,-2.913896400192516056e-01,3.863957171583537421e-04,2.853264576830359732e-04,-9.693082670313786682e-04,1.414572745561599731e-01
-1.509147476468514215e-01,-1.473733623795199232e-01,-2.875069683038255497e-01,1.196381451273524242e-03,2.038625804689793550e-04,1.421014899228854368e-04,1.384130865335464478e-01
-1.540620800286403025e-01,-1.364192543829291782e-01,-2.803429270469069978e-01,-6.188471123002243883e-03,7.849585935391573729e-04,-9.703204899836473992e-04,1.364024877548217773e-01
-1.311629643908182596e-01,-1.612533871017900466e-01,-2.890577686482108111e-01,2.794644233922865010e-04,-1.800130529673957952e-03,5.373221229672103241e-04,1.452442854642868042e-01
-1.325515738815819522e-01,-1.217715574718283567e-01,-2.554572810896698076e-01,1.817206824812019061e-02,-2.284895394898781712e-02,-2.863237672931700714e-02,1.468444168567657471e-01
-1.384202837301572453e-01,-1.765351986496430103e-01,-3.125087716358855294e-01,5.663538155709708227e-03,-1.094121012772479584e-02,-7.357890715955589696e-03,1.604429930448532104e-01
-1.470732170375731451e-01,-1.479347370179925902e-01,-2.903666358739722675e-01,1.502809656959052395e-03,-1.083194688618094076e-04,1.835498200856561495e-04,1.428887993097305298e-01
-2.245464861801129974e-01,-3.383316497221079966e-01,-6.209868026685465559e-01,5.881037875038789414e-02,-3.317654960067779185e-02,-9.766502081326183457e-03,3.727829754352569580e-01
-1.494928727418675662e-01,-1.450124355275378418e-01,-2.899881368118298886e-01,7.081833514675678646e-04,4.673562738569400437e-04,2.994177722913781361e-05,1.427957862615585327e-01
-1.345717388414541804e-01,-1.610974526286763631e-01,-2.976028405327125204e-01,5.333939556384024137e-03,-5.625600232963020100e-03,7.082914498261557064e-04,1.521185040473937988e-01
-1.388169489752603680e-01,-1.600601296842012189e-01,-2.177657290397800871e-01,7.823674375020904168e-03,-1.680706707188750135e-02,-5.588290979221442745e-03,7.830586284399032593e-02
-1.510532417711639985e-01,-1.496069645076150423e-01,-2.877911342382528659e-01,9.826317385101235834e-04,-3.938803716996939629e-04,-1.986332816640100482e-04,1.374793946743011475e-01
-1.508526204737475895e-01,-1.513817084191808604e-01,-2.884021272769605737e-01,1.282440875976498783e-04,1.571623113061995116e-04,4.529704951524061323e-04,1.372884213924407959e-01
-1.275432407494467291e-01,-1.555151480276102671e-01,-2.876359629505076954e-01,6.281079067807495038e-03,-8.462645710820176567e-03,1.524778514116151306e-04,1.492222547531127930e-01
-1.402653754305238643e-01,-1.626062746339725917e-01,-2.957589857153583579e-01,2.611111652799301755e-03,-1.559243812728570077e-03,-6.460506495250631928e-04,1.457137912511825562e-01
-1.321270872839570287e-01,-1.575925755957103824e-01,-2.904766780523648784e-01,4.041723805604421384e-03,-3.394091994629902867e-03,-1.433098400764283792e-03,1.475817114114761353e-01
-1.274337393103051608e-01,-1.526551875561567295e-01,-2.802280261129029282e-01,-1.340513547002276798e-03,-2.100130880394572748e-03,7.098677891325611477e-04,1.419459581375122070e-01
-1.402508990212433804e-01,-1.436328654906297020e-01,-2.809857387460310552e-01,-5.669718968282924133e-03,-5.251813046319164791e-04,8.496682952132821346e-04,1.394317150115966797e-01
-1.340249188393523028e-01,-1.475747890777874272e-01,-2.771858448914908957e-01,-5.008565165705382988e-03,-2.241219346954232295e-03,1.115862774443145264e-03,1.372330188751220703e-01
-1.477854761375760329e-01,-1.480517864507206460e-01,-2.873337202374096622e-01,-2.770565018185225793e-04,-5.467966852628049429e-04,1.248175336009683912e-04,1.394194960594177246e-01
-1.286165739665184049e-01,-1.551764372884741339e-01,-2.722127350145736036e-01,-5.437461233281421294e-03,-8.707103052077523175e-04,1.800114759332812242e-04,1.326742619276046753e-01
-1.316652284904261117e-01,-1.517002486222834290e-01,-2.821825113495978754e-01,-2.470084849573432433e-03,-7.966293506269149591e-04,7.056648855879726900e-04,1.416437029838562012e-01
-1.290977113394163323e-01,-1.510927767942062683e-01,-2.612220582019861848e-01,-6.333740179116206272e-03,-2.429980298649327478e-03,1.030626599856752142e-03,1.231900677084922791e-01
-1.505013646202641997e-01,-1.515525754684969029e-01,-2.898088592082297965e-01,3.148382277617295443e-05,-1.660868533540803737e-04,7.647509023985279942e-04,1.387915015220642090e-01
-1.324105627780514383e-01,-1.465694036712368586e-01,-2.695558794265008884e-01,-8.316054439109130808e-03,-4.636527177176223875e-03,6.189266811114106127e-03,1.321150064468383789e-01
-1.375859560511384916e-01,-1.428373556619407236e-01,-2.807456674144519493e-01,-4.694656546208446704e-03,-2.498935482523713131e-03,2.499233014657524770e-03,1.409754753112792969e-01
-1.156429343538203924e-01,-1.442480207521176783e-01,-2.368249271684134682e-01,-2.246083506115301859e-03,-2.135621011532197119e-02,3.318865919446875243e-03,1.159885674715042114e-01
-1.309426041486411174e-01,-1.512691869379629295e-01,-2.815909275525920186e-01,-4.806034677700491906e-03,-2.889261400517515593e-03,7.705178476966666277e-04,1.419226527214050293e-01
-1.363089661902990024e-01,-1.644001248429966255e-01,-2.935854234628764159e-01,-2.619304445989434869e-03,-1.483466801885704447e-03,9.456123000078195569e-04,1.453849524259567261e-01
-1.332991271230627162e-01,-1.538205207191278290e-01,-2.864887000138340856e-01,-2.485329780767139406e-03,-9.376313031807147680e-04,6.926060386135690639e-04,1.441079974174499512e-01
-1.333868042964131695e-01,-1.531122834377777742e-01,-2.845798578000504619e-01,-3.186378056383524279e-03,-1.210598810377298482e-03,1.319178403317167701e-03,1.424996703863143921e-01
-1.436641854075775826e-01,-1.338433052024691483e-01,-2.827143680233480394e-01,-3.607814453835222861e-03,6.088522370449241669e-04,-1.569390655028354408e-03,1.443764120340347290e-01
-1.287020736550397171e-01,-1.586941017494397366e-01,-2.838035080669427668e-01,-1.695568927350806984e-03,-1.293645037843238260e-03,3.834849482118505258e-04,1.425421237945556641e-01
-1.478828808606875989e-01,-1.489831983669097637e-01,-2.889507315499413309e-01,1.530218641945683749e-03,-3.899700373982122482e-04,-9.631445075094278269e-05,1.405476331710815430e-01
-1.515738194993431209e-01,-1.495226749026393465e-01,-2.913134550015920032e-01,-9.155534564843137218e-04,-8.143262118179210411e-04,-3.175460601095839619e-04,1.407934874296188354e-01
-1.476147017834380515e-01,-1.510288657166835302e-01,-2.924014530897094399e-01,5.320595818073069368e-03,1.048969358935877018e-06,-7.611036592390892693e-04,1.434126794338226318e-01
-1.606067509761254508e-01,-1.338872583052697074e-01,-2.899750751944294436e-01,1.605693540411530030e-03,8.343340671470538114e-04,-2.742899346745604483e-03,1.447036415338516235e-01
-1.431143038602165629e-01,-1.440562581507542628e-01,-2.881956313185099483e-01,1.019439267429600622e-03,-1.714520407788253282e-04,6.925968530039487227e-06,1.446237415075302124e-01
-1.599567296625817314e-01,-1.463653501411081581e-01,-2.946326107137712813e-01,-6.511473676550609416e-04,1.486112161147760220e-04,-7.079197617332679297e-04,1.419703811407089233e-01
-1.458164730893380945e-01,-1.432432444990068832e-01,-2.884071743017991296e-01,1.302462122994449585e-03,-6.382285728463351617e-04,-1.808348757843306867e-04,1.439168453216552734e-01
-1.442029903936775104e-01,-1.559361957308844637e-01,-3.021861900787829458e-01,-9.283271452254705097e-03,1.673413067819095722e-03,-2.843244797616672342e-03,1.534076333045959473e-01
-2.581890771273842589e-01,-2.180726588954199907e-01,-5.519031138415688709e-01,-8.260252637139937903e-02,3.394883892894306338e-02,-3.782307694146451460e-02,3.576015532016754150e-01
-1.643219767064367509e-01,-1.451070615357614724e-01,-2.962464415242360705e-01,8.368474605275550478e-04,9.135440363255679539e-04,-1.860787123466936522e-04,1.425233483314514160e-01
-1.597107479395440399e-01,-1.338272589728065898e-01,-2.943669029838937301e-01,6.006045652634823141e-04,-8.352110242631467047e-04,-3.957733684482502533e-03,1.494582593441009521e-01
-1.664427665099567910e-01,-1.391003057068198323e-01,-2.952587815382801129e-01,-2.025205338372736922e-03,-1.286471608160136369e-03,-3.949356738154225464e-03,1.446630060672760010e-01
-1.561823734483390180e-01,-1.394200020463973733e-01,-2.898931546308702867e-01,-1.084365462216611451e-03,-6.772311342294698054e-04,-1.156906473012120221e-03,1.428627967834472656e-01
-1.625690274889904641e-01,-1.295043035026671729e-01,-2.943083119855712804e-01,-4.803584360070231075e-03,1.648104661348387574e-03,-1.060794891170188138e-02,1.523791253566741943e-01
-1.597034340018989029e-01,-1.426930526855665349e-01,-2.932356211353278619e-01,-2.701423949772350716e-04,-1.567668150323784163e-04,-8.415271850209895318e-05,1.428003758192062378e-01
-1.613094434793667098e-01,-1.170885954480685998e-01,-2.744206913371316503e-01,8.449708355305749939e-05,8.898730727814961172e-04,-1.858432421612115845e-02,1.441875249147415161e-01
-2.009493069370688889e-01,-1.561181899177694343e-01,-3.595020829585907074e-01,3.729564042468312170e-03,1.787458897476867578e-03,-1.368421920519390100e-02,1.867350935935974121e-01
-1.626510291180192080e-01,-1.415427382891744079e-01,-2.964824819146873458e-01,6.773473035289722657e-04,-1.251245078913179598e-03,5.327659625600412617e-04,1.455619931221008301e-01
-1.496984854055220804e-01,-1.555610233588939351e-01,-2.907551335369250589e-01,5.252348074094280190e-04,-4.867669320626037146e-04,2.739141130013312132e-04,1.382250338792800903e-01
-1.727287384223609723e-01,-1.485313044512191760e-01,-3.052348479757418520e-01,-2.260401942035492572e-03,-1.337759057525116395e-03,-8.976339001644237977e-04,1.461944133043289185e-01
-1.665656847872044599e-01,-1.409161234370086280e-01,-2.507222570604021872e-01,2.662263428245943264e-03,-2.140982509981671517e-03,4.000177427476236426e-03,9.990908950567245483e-02
-1.540367874420985328e-01,-1.255823697333512123e-01,-2.792879457203921723e-01,2.306291892054654347e-03,-2.733495967231912332e-05,3.078009544200195255e-04,1.416957974433898926e-01
-1.587440142350625416e-01,-1.480466797374686005e-01,-2.932461157443284616e-01,6.322597192594751458e-04,2.539767894615695717e-04,-4.672698595508692032e-04,1.401645839214324951e-01
-1.559170705437376014e-01,-1.506655165574311284e-01,-2.911129103050635880e-01,3.073833427395251776e-04,3.131426953706256417e-04,4.566205524364816805e-04,1.379009932279586792e-01
-1.511230372483360895e-01,-1.512638419035665927e-01,-2.877542003434915285e-01,6.700304663901500857e-04,1.659019049252629882e-04,3.184188333873276804e-04,1.365671604871749878e-01
-1.525772475883295232e-01,-1.528614336569733001e-01,-2.887416701221472426e-01,2.515699212541862485e-05,1.121270782204820179e-04,4.084714150000049956e-04,1.360245347023010254e-01
-1.514114366313459303e-01,-1.509450669865264327e-01,-2.870918099752774455e-01,-1.288067895806290419e-04,1.816966337437559223e-04,-9.981526204822925878e-05,1.359148174524307251e-01
-1.522640356130623429e-01,-1.489489385173297931e-01,-2.899277998211000074e-01,-1.493678864539318464e-04,8.890797726894709768e-04,1.929085970040684856e-04,1.393600404262542725e-01
-1.511451257444587082e-01,-1.516983007081456059e-01,-2.919417663462050005e-01,2.197957079878333064e-03,1.268012736006778746e-04,9.416944774314532857e-04,1.405820697546005249e-01
-1.521839027762020291e-01,-1.439967355038943297e-01,-2.879814622364285093e-01,9.606400253668297487e-04,-3.561033234965028894e-05,-5.979083106210766798e-04,1.400844305753707886e-01
-1.631649214018082994e-01,-1.493088816612715142e-01,-3.002423607687826346e-01,-1.018972650565227274e-03,2.488781214852583881e-03,-7.047878138946026872e-05,1.445796489715576172e-01
-1.309480984983017460e-01,-1.541415942490279578e-01,-2.842804462033741153e-01,1.354741189991910677e-03,5.752033512246920591e-04,5.689570952240259648e-04,1.431778669357299805e-01
-1.526611806166703889e-01,-1.499540178138906721e-01,-2.876989606369185770e-01,7.270246049606902093e-04,-5.083889666257533158e-04,1.241775099517296614e-04,1.364203393459320068e-01
-1.573811525994292804e-01,-1.298878569541077610e-01,-2.894963345731538795e-01,-2.102792114096717075e-04,-6.143115842203428732e-04,3.639778552796879649e-03,1.479310393333435059e-01
-1.543110056841529576e-01,-1.456623608377257684e-01,-2.908282894262733120e-01,8.614208005995510663e-04,6.733801925209279178e-04,-3.694162408764937880e-04,1.410547941923141479e-01
-1.600170803217906557e-01,-1.406426061289374752e-01,-2.988081697683505067e-01,5.187695279635568153e-03,1.243785070981074769e-04,1.407796281821778808e-03,1.497132927179336548e-01
-1.525652058325237814e-01,-1.504291291089190352e-01,-2.888422745316372997e-01,4.477111027199489170e-04,4.165574930557893558e-04,3.187693702336000137e-04,1.373627632856369019e-01
-1.489583164481961819e-01,-1.469593433891442369e-01,-2.871236439981523780e-01,1.792342612791712980e-04,2.052127740682016329e-05,5.346828627053354746e-05,1.391759663820266724e-01
-1.590493861784174068e-01,-1.537799430643207177e-01,-2.963008225658910755e-01,2.900106288499266095e-03,-4.363199264412104847e-04,1.481416893812601563e-03,1.400762200355529785e-01
-1.512096137335456336e-01,-1.517812199221015568e-01,-2.874312681326358088e-01,-3.112010310252756552e-04,9.304385746446635708e-05,-4.210695481944318956e-04,1.359398663043975830e-01
-1.515795433326775632e-01,-1.509129044242971673e-01,-2.870744247465775167e-01,6.892066675870166335e-04,1.936670444767988318e-04,-8.922161841539174947e-05,1.358351707458496094e-01
-1.504626289061829769e-01,-1.498181229968527928e-01,-2.875440506730090884e-01,3.666547267140812219e-04,5.708389504401537159e-04,9.062444993735960556e-05,1.374099254608154297e-01
-1.189138342724553599e-01,-1.512014565612108952e-01,-2.649929136970245458e-01,-9.546582917198305224e-04,7.697588339190035434e-03,-3.643850056116209246e-04,1.335886716842651367e-01
-1.364576786028814381e-01,-1.566373320648888345e-01,-2.460895503271919305e-01,-9.010549290292149769e-04,-4.275527119259539197e-03,3.565504680730334237e-04,1.013493463397026062e-01
-1.274862331638945967e-01,-1.617775523823818673e-01,-2.859717828630340963e-01,3.245566100816498455e-04,1.718510526662668904e-03,2.500445031343232058e-04,1.444584727287292480e-01
-1.284642963007250338e-01,-1.562809910185586348e-01,-2.818154637713620181e-01,-2.608552423608239725e-03,3.258701733009751987e-03,-2.062998892130254135e-03,1.417380124330520630e-01
-1.491310747706962037e-01,-1.393923535528150404e-01,-2.869739120902412011e-01,-2.813670574622500944e-03,-1.123319997727625355e-04,-4.294880390267180061e-04,1.430463045835494995e-01
-1.247241133954106462e-01,-1.573103692119134089e-01,-2.816545009125546173e-01,-2.555209383197251075e-04,2.499753223202733597e-03,1.826160460884749159e-04,1.435070633888244629e-01
-1.641032738112185307e-01,-1.986196224894011542e-01,-2.466486229990900725e-01,1.723498805001260270e-03,-5.536619751084426860e-02,5.749309979849112628e-03,1.202508658170700073e-01
-1.523430831906518179e-01,-1.521166378638192651e-01,-2.881356824463798261e-01,9.207690924397654163e-05,2.927243722658445183e-04,-7.452473948570040969e-05,1.359070688486099243e-01
-1.519975114521672221e-01,-1.516944472929125376e-01,-2.875364287770711402e-01,-1.719948237383065630e-04,1.663003829687123525e-06,1.432533955495363035e-05,1.356910318136215210e-01
-1.296264115493704627e-01,-1.575142661894428087e-01,-2.857784095211794995e-01,1.143511697741246341e-03,1.707077998091357813e-03,5.687495379431713573e-04,1.442916095256805420e-01
-1.280259527447643875e-01,-1.579790398872124857e-01,-2.866870621211596304e-01,2.673092317025142425e-04,1.012192589951408988e-03,4.972276988460652605e-04,1.460211426019668579e-01
-1.268918231096273774e-01,-1.552230343115854894e-01,-2.814114329271525383e-01,1.366135256655894329e-03,8.433720077124700959e-04,3.591672058990770023e-04,1.425109058618545532e-01
-1.568151797837474826e-01,-1.476949196518342888e-01,-2.903716842061727643e-01,-1.422019096837358722e-03,-7.670625492962003717e-05,3.467822549051047970e-04,1.383655816316604614e-01
-2.370145245188373662e-01,-1.616380931861924053e-01,-4.945201888151929959e-01,-8.903185232920994563e-02,2.149837439989835813e-02,-1.677571602581768781e-02,3.426535427570343018e-01
-1.401460516030389458e-01,-1.716088839167430324e-01,-2.825745537858090906e-01,-5.558167218783466312e-03,1.908967503430544083e-02,-3.447855911701993084e-03,1.342243403196334839e-01
-1.283541149978729701e-01,-1.598505293236937019e-01,-2.749142794352146257e-01,2.165497399420724528e-03,2.886689288504477261e-03,4.158565177911780278e-04,1.337735801935195923e-01
-1.346942410635150189e-01,-1.566844750114334273e-01,-2.738183228583349615e-01,1.257495850149851525e-02,1.948791812020289269e-02,1.574002595138953783e-02,1.383353918790817261e-01
-1.515725030461938794e-01,-1.350221044967230832e-01,-2.864242425594095143e-01,3.652607021728642312e-03,1.063694040892438752e-03,1.083250592284107404e-03,1.440058946609497070e-01
-1.569466236667565462e-01,-1.440119668258618979e-01,-2.905888008071728645e-01,-6.579688059591850104e-04,-8.566720426244635832e-04,-6.862064443985813793e-04,1.405740529298782349e-01
-9.574836521883045570e-02,-9.328245845981493478e-02,-1.859834348011189797e-01,3.835355252786409180e-02,7.202204628456169988e-02,6.407534638210443667e-02,2.016492486000061035e-01
-1.760412162810676973e-01,-1.368904131312513872e-01,-3.298972081446794880e-01,6.326740364320108771e-03,2.248768464368037026e-03,5.906149266106241504e-03,1.773920506238937378e-01
-9.929737617618597523e-02,-1.121791385946090680e-01,-2.634034903748579959e-01,-4.101065789544810353e-02,4.603040731667733254e-02,-3.666588900230424719e-02,2.010421901941299438e-01
-1.299314664023497601e-01,-1.549654366064407152e-01,-2.868741645724599554e-01,-1.409466834035551404e-03,-2.631154815782720587e-03,9.518567509351842084e-04,1.461446434259414673e-01
-1.443236821212914855e-01,-9.678407935393094907e-02,-2.945489571044848653e-01,-3.428596118924189667e-02,2.153339472012066186e-02,-2.605918931974670477e-02,1.972921341657638550e-01
-1.717425691075404048e-01,-1.427311763310848969e-01,-3.189550994435062514e-01,9.453376645238624129e-03,8.659934666130257933e-03,1.981957690749586772e-03,1.651935130357742310e-01
-2.219178870785382396e-01,-1.751918335640187119e-01,-4.449777442147960782e-01,-2.054879119117755670e-02,4.526080472900648188e-02,-4.947161292207030020e-02,2.776984572410583496e-01
-1.498010636938990892e-01,-1.079924953272210636e-01,-2.819663593726725592e-01,5.831113977925276096e-03,2.379166074334911757e-03,1.386065246617525053e-02,1.594885736703872681e-01
-1.986070845132199003e-01,-1.606436425266912216e-01,-3.554683400189631026e-01,1.277676687574982699e-02,1.813969300319092639e-03,5.772263339446468029e-03,1.805581152439117432e-01
-1.403870708069115680e-01,-1.393373718082568380e-01,-2.800747334884397532e-01,7.585058055292441190e-03,3.162899435471200598e-03,3.575348779038232255e-03,1.410720944404602051e-01
-1.558514934018278564e-01,-1.497325280161274086e-01,-2.904701836623087563e-01,1.099064537192603408e-03,3.726812438783670234e-04,2.960777464061756749e-05,1.377947926521301270e-01
-1.465634002955733262e-01,-1.477973090487202379e-01,-2.887404760905913914e-01,6.365643832729240420e-03,2.042057326130417710e-03,1.258665471590631520e-03,1.420536339282989502e-01
-1.488860535565077192e-01,-1.280311456009971538e-01,-2.712872825698023904e-01,5.127055489421644859e-03,2.807040374637653594e-03,4.858422865793795425e-03,1.346958279609680176e-01
-1.640420317237621106e-01,-1.496590360832499855e-01,-2.994189309920328168e-01,-9.895876236817491463e-04,-5.747580467593436590e-04,1.111226734488597861e-03,1.431381702423095703e-01
-1.531332876643455854e-01,-1.292803923810705580e-01,-2.811533581590319741e-01,4.383649726371326681e-03,1.620975667210938385e-03,1.964085430518490178e-03,1.417351514101028442e-01
-1.463457483169327000e-01,-1.364553009522198601e-01,-2.854462999003571366e-01,1.571062194227541842e-03,-3.671156529726776621e-04,-6.972625025334161725e-04,1.443323194980621338e-01
-1.442074240835449217e-01,-1.379577402299216882e-01,-2.750198369892669081e-01,7.262155787944142397e-03,7.716073830572539941e-04,1.591360228525518601e-03,1.346702724695205688e-01
-2.917422160565504852e-01,-1.884033778779787838e-01,-4.595380271139869466e-01,1.504372588700851436e-02,-1.092842571201781306e-03,7.680108773036276038e-02,2.730419635772705078e-01
-1.509665516913822891e-01,-1.510008558215749919e-01,-2.876162071170828560e-01,8.234125044079040456e-04,4.025980219436686399e-05,7.623155503218427109e-05,1.366400271654129028e-01
-1.487543389355913681e-01,-1.349936730873999846e-01,-2.804859255733815337e-01,4.674566745233919504e-03,1.189672798825901602e-03,2.358803301892053485e-03,1.394337564706802368e-01
-1.484770160240558301e-01,-1.296284718776199996e-01,-2.836932838029924131e-01,1.985863649024469622e-03,1.573691856200870945e-03,7.023576437969504538e-04,1.456299275159835815e-01
-1.449843402479563670e-01,-1.348447772726828753e-01,-2.831089224833387430e-01,3.768128222938795392e-03,-1.650145716206760345e-04,-1.357621333983904596e-03,1.436312645673751831e-01
-1.731573636313490927e-01,-1.452831673709039373e-01,-2.049841654837716576e-01,-3.263836433549527002e-03,1.608109698989076963e-02,-4.281085209050199125e-02,9.477938711643218994e-02
-1.507789537246552736e-01,-1.531070071507700803e-01,-2.899482204707489741e-01,1.050747374653374609e-03,4.887364285092927509e-04,1.723294145706555922e-04,1.380348801612854004e-01
-1.325655442857631705e-01,-1.637796907871674479e-01,-3.051776130353848759e-01,1.750622324996410628e-02,-3.308349531069410682e-02,-8.138486405484953237e-03,1.725774407386779785e-01
-1.536549387228214048e-01,-1.515064045136352011e-01,-2.892468600228015330e-01,3.282442993337733410e-05,5.278989543196153629e-04,1.991223218565141056e-04,1.366823613643646240e-01
-1.498454735342099053e-01,-1.485810568843706769e-01,-2.894549473155670349e-01,1.361374962523251688e-03,3.523530580270838085e-04,1.000454335560423672e-04,1.402672082185745239e-01
-1.265829339255690744e-01,-1.327671352516520131e-01,-2.611157694644395955e-01,1.236793132831862270e-02,-1.148445571629932646e-02,-9.931003238641130174e-03,1.358521282672882080e-01
-1.511512546622041930e-01,-1.536629397513255557e-01,-2.892955528266724086e-01,1.030364668445682056e-04,-7.035169358386225019e-05,-7.211269968627517356e-04,1.369116008281707764e-01
-1.502403672120405653e-01,-1.508518617420127883e-01,-2.871228881813308043e-01,7.035133444485452189e-04,9.351137114297702142e-05,-1.535495170372916190e-04,1.365835964679718018e-01
-1.348985119209173411e-01,-1.428445479805665053e-01,-2.843478884124549522e-01,2.333620794243009260e-03,-2.129571690337963739e-04,-1.577594052033781940e-04,1.456958204507827759e-01
-1.512253693746518357e-01,-1.871434186955473478e-01,-2.710858784899901064e-01,1.367213109741466544e-02,4.827407348008327936e-02,2.384689300300525672e-02,1.435599327087402344e-01
-1.629736847200116967e-01,-1.431523388356947535e-01,-2.980098012954434106e-01,2.224299549749121716e-04,3.772279634259595059e-04,-3.895937012940914649e-04,1.459632366895675659e-01
-1.481435368361175564e-01,-1.453268815339042730e-01,-2.865632395103972496e-01,-4.651369398973288034e-04,1.915165703182885608e-05,5.748264248294576793e-05,1.398516595363616943e-01
-1.422265073815795755e-01,-1.398740677440039881e-01,-2.860875789013815340e-01,3.093329532775211232e-03,-6.563557133276460426e-04,-7.783030749409394593e-04,1.451612263917922974e-01
-1.482573392997169615e-01,-1.469643785227935928e-01,-2.901828429425019062e-01,-2.279392103685304576e-04,6.130536460546317894e-04,-5.943478370985742754e-05,1.425809115171432495e-01
-1.487440630697555444e-01,-1.409667168516558489e-01,-2.872343672113727986e-01,3.404816485319631450e-03,1.974543642573512890e-04,5.351809407318975547e-04,1.426635682582855225e-01
-1.490905579500880207e-01,-1.364938560505517540e-01,-2.858174121045801153e-01,1.914502778065541901e-03,8.396102618512074037e-05,6.589933758791424517e-04,1.434835791587829590e-01
-1.740412393439578209e-01,-1.766599361347326036e-01,-2.596731782086700857e-01,1.803992255472777057e-02,3.827638102289241534e-02,4.820676761486521189e-02,1.394943743944168091e-01
-1.282576274245830761e-01,-1.592573206077967651e-01,-2.855771575508397331e-01,-1.493393242554961337e-03,-1.091741871298009458e-03,2.025005945166403066e-04,1.443743258714675903e-01
-1.468071272405098437e-01,-1.466469937913131294e-01,-2.659486181314024145e-01,1.124837048267245641e-02,8.144901065846334859e-03,9.753637932880225223e-03,1.227916702628135681e-01
-1.495697573640383249e-01,-1.562045636110317159e-01,-2.902935907596745357e-01,-1.653100561965947096e-03,-6.813038604661695273e-04,-5.219861356248127037e-04,1.375643461942672729e-01
-1.500334168099394239e-01,-1.367571950246723178e-01,-2.861804784192801820e-01,1.302190665369297798e-03,1.192686474897830572e-03,5.567184665284843469e-04,1.432832330465316772e-01
-1.509662247746349772e-01,-1.293989853129736411e-01,-2.789141566173781728e-01,1.689996336383549303e-03,9.163087026416207861e-04,1.478416408919279055e-03,1.400462388992309570e-01
-1.358152877253147595e-01,-1.591819206415222565e-01,-2.852153598631568254e-01,2.045771508953150852e-02,3.265329444313633950e-02,9.674328074462426943e-03,1.552754044532775879e-01
-1.536657062419975461e-01,-1.446354507131357159e-01,-2.895466598649147905e-01,-2.286481137952327877e-03,-4.807398130713540522e-04,-5.477043790296866376e-04,1.406751424074172974e-01
-1.465475098764414674e-01,-1.357417952240252967e-01,-2.867999455029724420e-01,1.840675396637725652e-03,8.931682177717462307e-04,-1.425508832135390772e-05,1.459986120462417603e-01
-1.588023428964018269e-01,-1.473211520172449940e-01,-2.930028195911938971e-01,-4.398991990983587824e-04,8.063497274241794186e-04,6.595102341152099448e-04,1.403075307607650757e-01
-1.453764451250510736e-01,-1.368335655986036292e-01,-2.844197850772899328e-01,2.001132454979920143e-03,1.777984300075804948e-03,2.016284338598028220e-04,1.435809284448623657e-01
-1.589343679678457133e-01,-1.251836639179657318e-01,-2.804990822063615497e-01,1.346427420596345271e-04,-1.340082830078383669e-03,2.160957495881747365e-03,1.415607184171676636e-01
-1.577969038841265936e-01,-1.395647046397829882e-01,-2.914351695036091483e-01,-1.041411615296245060e-03,-1.108688823111861582e-04,1.542033235575651596e-03,1.436612010002136230e-01
-1.545178213539934453e-01,-1.380492612774006922e-01,-2.906371606861959389e-01,-2.976805011727772302e-03,-2.542991797716472068e-04,-1.045159572730077407e-05,1.451487392187118530e-01
-1.564613256917263551e-01,-1.227881709399454568e-01,-2.760040111189417944e-01,4.545863071913183772e-04,-6.944695748386422573e-04,3.431730363664527769e-03,1.395962387323379517e-01
-1.544233604756075351e-01,-1.212374068335254906e-01,-2.715347395004393816e-01,-1.236268869658667185e-04,5.296926366276651999e-04,2.424242967165342669e-03,1.368259936571121216e-01
-1.569323574141092137e-01,-1.231337444887922877e-01,-2.766630896082888924e-01,-5.502150363856580937e-05,-7.944550139339301366e-05,1.966330676876037499e-03,1.397717893123626709e-01
-1.545788732764157847e-01,-1.449434714790284739e-01,-2.920008111923154126e-01,-1.127103712343865060e-03,1.030215542249435798e-03,2.178988899421134713e-04,1.425092369318008423e-01
-1.668556024122309911e-01,-1.351903682028446352e-01,-2.920915868707093521e-01,1.043360024009792105e-03,1.856501478729410265e-03,9.130386472506942311e-03,1.446238607168197632e-01
-1.524101581099427949e-01,-1.386789499282239102e-01,-2.873186335234607647e-01,4.809593949178497113e-03,7.726155478653798413e-04,2.881994757328280518e-03,1.426092684268951416e-01
-1.567049290065788969e-01,-1.245251954516212595e-01,-2.804880272826411614e-01,6.721142323128174436e-04,1.193501221868564560e-03,4.180302770347904713e-03,1.428256034851074219e-01
-1.520835530292414250e-01,-1.253671620134198528e-01,-2.829930460462357633e-01,4.331297939160819871e-03,4.746278059860639491e-03,4.874382078649550434e-03,1.467774808406829834e-01
-1.619286570643637957e-01,-1.312499683425737418e-01,-2.829747188662651292e-01,-1.538050606449752186e-03,-5.576435459762549025e-04,8.229978040576326577e-04,1.389853507280349731e-01
-1.594161812911187026e-01,-1.461685767625078847e-01,-2.955392796166751435e-01,-1.461908757362835685e-03,4.435636172943569150e-04,2.073204745008025418e-04,1.432320922613143921e-01
-1.451020649187261258e-01,-1.542105736274560490e-01,-2.894061325367573989e-01,3.548356291104694509e-03,-6.902948894038211415e-04,6.951046436739391184e-04,1.401173919439315796e-01
-1.425357554371986246e-01,-1.685500657400862967e-01,-2.825066071347367980e-01,6.332202420175441632e-03,9.027027895504040680e-03,5.544417794694361801e-03,1.307069659233093262e-01
-1.667788748713887603e-01,-1.830915054128428310e-01,-3.526932119332636950e-01,1.658111756204067033e-02,8.617106701194785640e-03,-9.421731265467238445e-05,1.812321245670318604e-01
-1.702672986998549909e-01,-1.469952050255819431e-01,-3.026498120874357434e-01,-2.499672307272765050e-03,-9.681373718215521623e-04,5.724962680031122448e-04,1.454994082450866699e-01
-1.591970515932396579e-01,-1.351383111972766504e-01,-2.753130027163356308e-01,2.940553107883471518e-03,8.579283419994805909e-04,2.195424662332594225e-03,1.299921125173568726e-01
-1.609743753517277332e-01,-1.403659739994123079e-01,-2.911901990434390686e-01,-5.008662890057163702e-04,2.889221339166490876e-04,1.849376856900908752e-03,1.416886448860168457e-01
-2.953103633929595739e-01,-1.678054701281214145e-01,-5.123066357067538323e-01,-2.009682767514523599e-02,6.831271559008058464e-03,-2.969225653078615135e-02,3.082361221313476562e-01
-1.567227917235361201e-01,-1.356335395701023516e-01,-2.879926971964478222e-01,1.271803729595376688e-03,-2.146607640514219383e-04,2.502620567683743000e-03,1.430688947439193726e-01
-1.544574200002332698e-01,-1.303650567276818384e-01,-2.768647461343870519e-01,5.152144015295745567e-03,1.219709147177819655e-03,2.766342282349731896e-03,1.364556103944778442e-01
-1.567620887948049657e-01,-1.571615514021744153e-01,-2.858434471199371441e-01,1.114551319752814587e-02,4.730800511929265754e-03,6.163727425203483455e-03,1.310128867626190186e-01
-1.641293159373881649e-01,-1.816154181725292416e-01,-3.476550570206505264e-01,2.085661565796060810e-02,-1.026491851692944157e-02,1.548423610819039389e-03,1.800183504819869995e-01
-1.128277702338883470e-01,-1.009700510817312935e-01,-1.922974846845219854e-01,2.441790363583285633e-02,-5.929009675070763541e-02,-7.432469044517209245e-02,1.905400156974792480e-01
-2.358489751794883293e-01,-1.518984059545482601e-01,-4.802529908681706372e-01,-2.575167606761047043e-02,3.269630515348254454e-03,-2.562949919529715695e-02,3.021440207958221436e-01
-1.471864982950922829e-01,-1.674041332404895277e-01,-3.216387004410958816e-01,7.599837994748565549e-03,9.992294891538128568e-04,-1.337007422908631374e-03,1.658220291137695312e-01
-1.514695012849900657e-01,-1.424047760920815475e-01,-2.907950593057799793e-01,1.139226528700086226e-03,-1.454041985309124593e-04,-4.891986095199463841e-04,1.440881788730621338e-01
-1.466226822155652365e-01,-1.472879970465647836e-01,-2.872846685740606532e-01,2.366190772811793946e-03,-3.533454302129731823e-04,1.963407926116558409e-04,1.403920948505401611e-01
-1.437931116536574627e-01,-1.366587145658310631e-01,-2.850540312037574964e-01,2.037334745286971914e-03,1.030841112726384873e-03,3.626101998021892515e-04,1.450151503086090088e-01
-1.635238602312240608e-01,-1.385310253560550486e-01,-2.466548720832515418e-01,-1.000138194898598371e-03,-1.263119239927392020e-03,2.983928021140268196e-03,9.822212159633636475e-02
-1.501066295573513787e-01,-1.513396365936898746e-01,-2.895511447871904620e-01,-1.210327017466634836e-05,-9.306031655164121613e-05,-6.383662324801601430e-04,1.388366222381591797e-01
-1.562936118213773262e-01,-1.503762564807977486e-01,-2.918554183801682633e-01,5.774009708155636213e-04,-1.407888266312389990e-04,4.997617755758406799e-04,1.386217623949050903e-01
-1.472997296575770942e-01,-1.482706258048048509e-01,-2.872721675629321680e-01,1.151264924091629756e-03,2.041297174642602269e-04,1.904062139974444803e-06,1.395042240619659424e-01
-1.440070375773973566e-01,-1.448937132671247463e-01,-2.874930955329207394e-01,1.436789834216136439e-03,9.153920537328504785e-05,-1.918707453364376062e-04,1.430668979883193970e-01
-1.462179533713361956e-01,-1.488292548441988439e-01,-2.870701104007717941e-01,4.271649406271440510e-04,3.433258488845699068e-04,-2.779367315737138293e-04,1.395688802003860474e-01
-1.440846141496274768e-01,-1.529416310958163772e-01,-2.899879075277020934e-01,-7.261897883495407272e-04,-3.092075516646643446e-04,-7.096663847736514629e-05,1.416892111301422119e-01
-1.335646458185053564e-01,-1.528372934078555123e-01,-2.846822173831806690e-01,3.214366197289915926e-03,1.018290882485261986e-03,1.410100641657002123e-03,1.426029205322265625e-01
-1.501604099075820875e-01,-1.526016493339059643e-01,-2.898833717554724076e-01,5.498892238449033538e-04,-1.791064377446867741e-04,-5.473665314220804712e-04,1.385253369808197021e-01
-1.510266356202754900e-01,-1.489909572631785417e-01,-2.901296912026982144e-01,9.336174565526226144e-04,-7.162745755799705466e-04,4.177761421444849501e-04,1.401486694812774658e-01
-1.462387385817032204e-01,-1.492179762958765477e-01,-2.896613685890752077e-01,3.129176724371501373e-04,1.015516174001916038e-04,6.325681227130962683e-05,1.419576406478881836e-01
-1.464142055312936674e-01,-1.493900087626029716e-01,-2.899970673959297862e-01,6.964162819556949519e-04,1.326101667443908025e-04,-7.587981336538841652e-04,1.421297043561935425e-01
-1.369471238128427415e-01,-1.442535777597176438e-01,-2.852576724937270214e-01,2.896902734458902361e-03,1.175459253895981722e-03,1.986647400267064795e-04,1.448972672224044800e-01
-1.496367027268935834e-01,-1.495580822857885128e-01,-2.884993819653637326e-01,7.558789197109353148e-04,-3.781987869424185099e-04,-1.467589782292537653e-04,1.389099508523941040e-01
-1.452778851905660584e-01,-1.421356764809190432e-01,-2.878277541302217690e-01,-1.878031631862760523e-03,-1.267656683556785374e-04,2.094658197998994480e-04,1.441839784383773804e-01
-1.421739839825783280e-01,-1.400703862417384538e-01,-2.872078900603899365e-01,-1.529489212683678373e-03,-4.121211026142722160e-04,2.049397402883820112e-04,1.461232602596282959e-01
-1.565214288552950750e-01,-1.352636843416308576e-01,-2.890374162775729561e-01,-1.444496560866498185e-03,4.329479003186596179e-04,2.941965644386624300e-03,1.444373875856399536e-01
-1.440415686718285460e-01,-1.417088378703829921e-01,-2.878266902906116975e-01,-1.208694431224503546e-03,-8.100267128928899428e-04,2.727420019236583611e-04,1.449882388114929199e-01
-1.423046353327932501e-01,-1.392059443366684135e-01,-2.821764880531326680e-01,-3.994338533902962694e-03,-3.989457978799363248e-04,7.572551298234250945e-04,1.416235119104385376e-01
-1.471936221298977832e-01,-1.477490758280378680e-01,-2.867782123566394170e-01,1.694413168448352734e-04,-3.264215720635046101e-04,-1.693154902146124343e-04,1.393094658851623535e-01
-1.409204667918037002e-01,-1.394717412912223065e-01,-2.846268101742349121e-01,3.114437337206114442e-03,7.555796456446519293e-04,1.032955104803305905e-03,1.445538550615310669e-01
-1.463238823251214182e-01,-1.509335063108397934e-01,-2.877528622890975774e-01,1.460158825113464344e-03,-5.387311805737466454e-05,-4.230926716356344991e-04,1.392063647508621216e-01
-1.510603256627155166e-01,-1.470354082127905138e-01,-2.899375377211505511e-01,2.089030173051005784e-03,-3.778255382956671369e-04,-5.517670663981047788e-04,1.409839838743209839e-01
-1.474903731540013752e-01,-1.421380063769412394e-01,-2.890960217680121347e-01,2.137337155499275786e-03,1.638363814256349948e-04,-2.350213625834013170e-04,1.444045901298522949e-01
-1.490239136955809340e-01,-1.528110257356256052e-01,-2.901417433844740712e-01,2.590161453028897928e-03,9.799388340255967629e-05,-6.757618091119676216e-04,1.393401622772216797e-01
-1.775553714768423608e-01,-1.698592711265275168e-01,-3.262970090766976750e-01,2.595180411808092544e-02,2.283827393011860635e-02,1.630540886128444000e-02,1.664658635854721069e-01
-1.434451599422263413e-01,-1.495167691963161516e-01,-3.054163734271811426e-01,1.825745713254747077e-02,1.909494708091551488e-02,1.635900326762168219e-02,1.678833514451980591e-01
-1.500441429060648257e-01,-1.719925261330260691e-01,-3.076705105624544245e-01,-4.596281799081159227e-04,-6.277920450278877320e-04,1.325865055684543204e-03,1.479028314352035522e-01
-1.231547957954429312e-01,-1.540096145469146416e-01,-2.924324747869153640e-01,-1.666744383843669214e-02,2.048477283204305430e-02,-6.102747019032787011e-03,1.630580872297286987e-01
-1.371727293231404243e-01,-1.847050802169958039e-01,-3.094842799745421980e-01,-1.402839875495424590e-02,2.282762078351555091e-02,-1.008018509956121363e-02,1.619220227003097534e-01
-1.573642567246116009e-01,-1.351056088867738925e-01,-2.829370616024227125e-01,-3.142723006381108360e-03,2.597709660669720124e-04,9.020192384930688246e-04,1.381713896989822388e-01
-1.346029490863883682e-01,-1.622522411088959671e-01,-2.931132398538419115e-01,-3.134060836186395877e-04,1.239984171192116003e-03,1.431010123472234311e-03,1.466913372278213501e-01
-1.312486194586682808e-01,-1.164318380417724286e-01,-2.624396784640014024e-01,-2.975670411348042485e-02,-3.233527881024364503e-02,3.498525398691715999e-02,1.698218435049057007e-01
-1.517645179319617177e-01,-1.204502808614075909e-01,-2.988222178048127731e-01,1.502143692454355368e-02,-3.503796242280577105e-03,-1.089863937177545060e-02,1.681714951992034912e-01
-2.941254155482062593e-01,-1.436332123817536388e-01,-5.013197114737817373e-01,-1.114936758478500241e-03,8.156902086810326235e-04,-3.437682384870062446e-02,3.167167901992797852e-01
-1.636923043752171458e-01,-1.632710409164317700e-01,-3.090861396491200175e-01,6.679002826175075257e-03,-2.624453206156715512e-03,1.521089322605202960e-03,1.461582183837890625e-01
-1.764455238667555215e-01,-1.258655572375973475e-01,-3.296296701558700248e-01,-1.107993583717723808e-02,-5.445100100052090338e-03,1.300720421839725305e-02,1.863774955272674561e-01
-1.555205017197300310e-01,-1.335557343746028858e-01,-2.876799697307799164e-01,-1.949457280543736171e-03,-4.325785643786534350e-04,2.922594837154117442e-03,1.445303261280059814e-01
-1.515307796940087159e-01,-1.392794929173584439e-01,-2.890566021766568516e-01,-1.741825631918359667e-03,-1.868629070931452675e-04,5.830094069478889080e-04,1.440782397985458374e-01
-1.338039246004311678e-01,-1.416456915707531294e-01,-2.702504496934971523e-01,-1.769718421290522939e-02,-1.317941670117256034e-02,1.397243912842385631e-02,1.401981264352798462e-01
-1.541830181570331137e-01,-1.446819050954046837e-01,-2.900315399990447407e-01,4.549603438955310622e-03,-2.015585435810861867e-04,-1.065874822479514691e-03,1.410724371671676636e-01
-1.581467157354277675e-01,-1.370251294104935513e-01,-2.906694258323003210e-01,1.262323650563336149e-03,-1.301760303029285643e-04,2.578011595574555229e-03,1.443338096141815186e-01
-1.530452467892617352e-01,-1.281142930148550518e-01,-2.830440673881595148e-01,-1.013953311107092074e-03,-1.084036521501208781e-03,1.717150479229263447e-03,1.441446989774703979e-01
-1.534139603219858705e-01,-1.439059943372861528e-01,-2.890972726975391538e-01,1.101121872858166432e-03,-1.024494594119402689e-03,9.707830505186609968e-04,1.407126486301422119e-01
-1.602786350421136485e-01,-1.478823769098888130e-01,-2.873557762382622505e-01,-1.340161145247640608e-02,-1.326674061246461457e-02,8.395957974315268121e-03,1.384046673774719238e-01
-1.557204105404024208e-01,-1.452646530364984923e-01,-2.917969957129347702e-01,-2.671189817707407890e-03,-2.026311155953130984e-04,-7.263523310063619556e-04,1.416758745908737183e-01
-1.531705871971239530e-01,-1.374101737169263759e-01,-2.890249987968032119e-01,-5.369396103741585873e-03,5.764697046606675167e-04,5.757069846876117919e-03,1.450270712375640869e-01
-1.689867681598190563e-01,-1.500396489191747063e-01,-3.263342419812202411e-01,-1.788987919178120292e-02,7.253500093120075851e-04,1.544239436998314126e-02,1.725561618804931641e-01
-1.448352243435004627e-01,-1.441662138758158518e-01,-2.869550926571441396e-01,3.362416621884644491e-03,6.163580033346912300e-05,3.532351371450724543e-04,1.425759047269821167e-01
-1.294131015712046140e-01,-9.966561618482479290e-02,-2.428551552598816610e-01,-1.894830684644056504e-02,-1.452703706721319640e-02,3.381939261160941956e-02,1.492317020893096924e-01
-1.475532700562354749e-01,-1.482406055873081996e-01,-2.870353708195275688e-01,3.641135953672240558e-04,-5.707836730700097203e-04,-5.613979238598559455e-05,1.391446888446807861e-01
-1.554072392346846354e-01,-1.378986946131419700e-01,-2.892161588521793836e-01,-1.232436596428346763e-03,8.361266672627608570e-04,1.160768121338761043e-03,1.434045732021331787e-01
-1.516581319966176233e-01,-1.465246746995374494e-01,-2.901064921896280846e-01,-3.976138533615956698e-03,-3.318443119262821293e-05,-4.903312602550191331e-04,1.412557065486907959e-01
-1.318450355956909403e-01,-1.357231204648356726e-01,-2.837125658425623809e-01,1.452161746796252692e-02,-6.288417755987311952e-03,-7.555893236234027290e-03,1.530110090970993042e-01
-1.552214285826158113e-01,-1.472458220217100489e-01,-2.913710602391729743e-01,1.277742624576664590e-03,-8.055850926844122751e-04,-8.988221001629420896e-05,1.403320282697677612e-01
-1.478232095568442761e-01,-1.448392395758937856e-01,-2.901685933687134233e-01,1.168146764634456127e-03,-3.280240233488913989e-04,6.456363163473859731e-05,1.438759714365005493e-01
-1.448121392554762576e-01,-1.451178429427220362e-01,-2.891374624788636272e-01,2.713541289465669294e-04,-1.729301122835922135e-04,-1.665617894754786363e-04,1.441740840673446655e-01
-1.564909741544206201e-01,-1.534947808047037177e-01,-2.933572588501922596e-01,-1.807680349317918218e-03,-9.346263897081412246e-04,1.365505719484274173e-03,1.384537965059280396e-01
-1.540113808259101769e-01,-1.492104423175243388e-01,-2.893194219869089090e-01,-1.377766968855353904e-03,-1.175843301825791340e-03,1.117218266901409538e-04,1.378071159124374390e-01
-1.483759924844734457e-01,-1.473962782331750265e-01,-2.871776002688534724e-01,-1.867193451872248017e-03,-2.334629161242147518e-06,-2.403963431715594001e-04,1.393322050571441650e-01
-1.440401247250952532e-01,-1.448426680478751283e-01,-2.877028222478114072e-01,3.397785908681413462e-05,-3.317856565294611355e-04,-6.063422246667629525e-05,1.432643085718154907e-01
-1.434600061389536274e-01,-1.467497546449644807e-01,-2.884222614897560266e-01,-4.297784632434165607e-03,-3.510637721451970476e-04,1.309842674467588198e-03,1.435580700635910034e-01
-1.685670337323552648e-01,-1.427756631418660160e-01,-3.254279942727740238e-01,1.744129285510859564e-02,-3.588884718179088224e-04,4.639937863809739244e-03,1.740510910749435425e-01
-1.862282759024009304e-01,-1.529336426144195515e-01,-3.661976916103528712e-01,1.688838309070382626e-02,-4.298409520005196452e-03,-5.176940278533645468e-03,2.011989653110504150e-01
-1.367207921884465160e-01,-1.434587725781423240e-01,-2.857772801687790687e-01,-9.758406137345877361e-04,8.874436839602508698e-04,-3.368088843294650349e-04,1.458233743906021118e-01
-1.457985544214637219e-01,-1.480331949266621150e-01,-2.896292190277975909e-01,-1.190136599102575767e-03,1.549681145489510920e-04,2.537670252414981394e-04,1.427422761917114258e-01
-1.748150646406247677e-01,-1.338712101631780171e-01,-3.090111688162627268e-01,-1.469459321060821158e-03,7.517320023251183175e-03,1.029231753277162938e-02,1.602289080619812012e-01
-1.782052446993833417e-01,-1.481181172445363292e-01,-3.306739834922895471e-01,5.024846070976147182e-03,-6.386904509779392849e-03,1.567148436858295611e-03,1.701316833496093750e-01
-1.517069689344270056e-01,-1.539514467808492382e-01,-2.889449352541705318e-01,-5.693665473243705822e-04,-2.795809118524808211e-05,7.530355449945296648e-05,1.361332535743713379e-01
-1.517275329710102705e-01,-1.262113274547154163e-01,-2.978063795858771901e-01,1.712406664035128617e-02,-4.626761995575266718e-04,5.375938498695029960e-03,1.633539944887161255e-01
-1.574259141692591901e-01,-1.250190492468062353e-01,-2.802977131991640780e-01,-6.015743992206483036e-04,-4.629021739711685333e-04,2.635537356608898957e-03,1.419582366943359375e-01
-1.367707225476124389e-01,-1.395862996293697755e-01,-2.769753192915028750e-01,-6.542508942177402767e-03,-1.115721091690110656e-03,9.514828337151545528e-04,1.393031328916549683e-01
-1.460299545103146412e-01,-1.350883269507667239e-01,-2.820528081049603619e-01,-5.736347956050405657e-03,1.983238815565322864e-04,-9.289167770298282925e-04,1.421677619218826294e-01
-1.470761001605822293e-01,-1.416116668509123377e-01,-2.874187839419811152e-01,-2.262629450963882499e-03,-1.167726997942082303e-04,-1.092271362292812970e-05,1.432069242000579834e-01
-1.600253313634482921e-01,-1.326605735747107828e-01,-2.844823180400355422e-01,-4.628120835361898035e-03,-8.563898063929683939e-04,7.502307037900779463e-03,1.409943997859954834e-01
-1.614994079727496701e-01,-1.282733643599683615e-01,-2.518341316023371412e-01,-3.649611281916926523e-03,-1.931440721390610855e-03,7.992641831098290864e-03,1.118418276309967041e-01
-1.676657114272404048e-01,-1.010827546496505941e-01,-1.451355180523045130e-01,6.006918787067791997e-03,-2.572358672258426640e-02,8.060417412499937262e-02,1.581936478614807129e-01
-1.588091346123960135e-01,-1.296667363800442230e-01,-2.838811035503880364e-01,-2.171018739172575832e-03,2.787508112847902962e-04,2.269939717143304708e-03,1.420105844736099243e-01
-1.746258508443816193e-01,-1.365984204843865013e-01,-3.049147431601351155e-01,8.196385246302933386e-03,5.329332535654003784e-03,9.840695710174623967e-03,1.547678858041763306e-01
-1.536599305341015964e-01,-1.284082038386699931e-01,-2.795846343985133320e-01,-2.321374581952490718e-03,-2.460845970845666579e-03,7.690816721176470380e-04,1.403944641351699829e-01
-1.539046654985734564e-01,-1.291481865497273451e-01,-2.822071755321624020e-01,-1.198062367215307596e-03,-6.356989750541154355e-04,1.052100386640700182e-03,1.423361301422119141e-01
-1.592636744344089195e-01,-1.271882786920224828e-01,-2.867462087893947742e-01,-4.253756061259194470e-04,4.184975887721814961e-04,3.166592363153295821e-03,1.462902277708053589e-01
-1.561091006718186569e-01,-1.230233834430381895e-01,-2.816680705975670440e-01,-3.077207900695356612e-04,-6.652740703326457273e-04,2.379813415388428235e-03,1.450259685516357422e-01
-1.567785246016290268e-01,-1.342983383072013925e-01,-2.887348863964674939e-01,-1.838492675418289170e-03,-1.073774810514669292e-04,2.879533696721166096e-03,1.446350365877151489e-01
-1.523054426885117330e-01,-1.265871563233550434e-01,-2.776937466832966606e-01,-9.010412537555533485e-04,1.624186590808570588e-04,8.022619470512465021e-05,1.400391459465026855e-01
-1.528616640034055341e-01,-1.389721349059502842e-01,-2.811436262350213711e-01,1.122585992021196862e-02,-8.987596898054870526e-03,-1.107701756475856086e-02,1.393536776304244995e-01
-1.602866664735752567e-01,-1.289132704767563808e-01,-2.818511152104470341e-01,-2.613939021655898014e-03,-1.953125172445204926e-04,2.582156711382707030e-03,1.400596648454666138e-01
-1.316748570578673283e-01,-1.545647150068716058e-01,-2.496191245468448172e-01,1.045349190768580204e-02,-3.119903665129971498e-02,-1.080455712344028860e-02,1.238275021314620972e-01
-1.526009989268036215e-01,-1.493517133017095433e-01,-2.891069303653400202e-01,-7.091499903091037739e-04,7.312248892576121446e-04,-6.164965011191829750e-05,1.381705403327941895e-01
-1.426784378853341861e-01,-1.350560563409481663e-01,-2.845156421839184491e-01,-2.872054960791649552e-03,9.776728515082896195e-04,-1.020986798947116567e-03,1.459032893180847168e-01
-1.462224371695271252e-01,-1.395759856484680983e-01,-2.857709562577060991e-01,-2.434668056426328529e-03,-7.419354635283305095e-05,-1.932608993042999766e-04,1.430502682924270630e-01
-1.424237134566112006e-01,-1.434543500104947245e-01,-2.886291025094997464e-01,-6.017536660932802607e-04,-2.042003479920224897e-04,-5.368280147363691792e-04,1.456999331712722778e-01
-1.466501333471215973e-01,-1.460923843233045694e-01,-2.877722133621196665e-01,1.629240438270430696e-03,-3.134874772908322798e-04,-4.961748623766482243e-04,1.414335817098617554e-01
-2.111354602029398564e-01,-1.942481368429126443e-01,-2.002489830325349940e-01,7.430006912151393764e-03,1.940594931910204907e-02,8.334366415300473174e-02,1.495116800069808960e-01
-1.641711515673332511e-01,-1.300190184477936217e-01,-2.856046051099711547e-01,-2.367086658592298335e-03,5.207019914779540326e-04,3.144538898824308058e-03,1.417989730834960938e-01
-1.546312862391184817e-01,-1.290811082288096934e-01,-2.838249402394428245e-01,6.818985780174922776e-04,5.462306984249681212e-04,3.843370842880699623e-04,1.436922550201416016e-01
-1.282871524503672866e-01,-1.444901136412662934e-01,-2.611167596613424013e-01,8.355663328544175525e-03,5.814320027367681464e-03,1.317928922314810141e-03,1.267678588628768921e-01
-1.581296679745800848e-01,-1.299838062296748142e-01,-2.821113091149402008e-01,-2.219304513806014730e-03,5.239363581923513419e-04,8.002665871246281018e-04,1.402523666620254517e-01
-1.571258434325718545e-01,-1.240658615615329585e-01,-2.795914369328623694e-01,-3.782798325968584566e-04,-3.143336173509653659e-05,9.570271870458181215e-04,1.419248878955841064e-01
-1.564208403776015111e-01,-1.218425990294725592e-01,-2.718003939497357635e-01,6.517146906239777802e-04,2.911461866410666472e-03,1.185989749878210014e-02,1.376459002494812012e-01
-1.379669399047751821e-01,-1.466490708737037130e-01,-2.857213124874824484e-01,4.556975249869987983e-03,9.708788305410756894e-04,7.938101788228187940e-04,1.438434123992919922e-01
-1.502967501497762259e-01,-1.357308136414024091e-01,-2.876182759789063237e-01,8.246885698752368056e-04,7.653593844541901241e-04,4.856029530490531048e-04,1.451691687107086182e-01
-1.499621233349713867e-01,-1.453749258725676174e-01,-2.899994085271498934e-01,7.685745616174732885e-04,-6.420992773291965604e-05,-1.608962035789196173e-04,1.423928588628768921e-01
-1.568362930307178327e-01,-1.311627173660408208e-01,-2.721281040351984926e-01,4.191309754486339557e-03,1.613710399604052293e-03,1.139539347916548396e-03,1.302908211946487427e-01
-1.505121334732830163e-01,-1.501355786396141867e-01,-2.898975730734189016e-01,1.252604349370024491e-03,-6.319176716789129703e-04,-7.973960472681109683e-05,1.395953148603439331e-01
-1.324123576270206382e-01,-1.210627667596438639e-01,-2.755934206901731742e-01,2.946095288062428388e-02,-2.456422981906370220e-02,-3.447461493013250639e-02,1.738799065351486206e-01
-1.397935559521620852e-01,-1.335051143448767186e-01,-3.113799485651418397e-01,3.430660936247972859e-02,-1.891666206867069489e-02,-2.890468918476004484e-02,1.940907984972000122e-01
-1.430967863791806072e-01,-1.426685304519109410e-01,-2.885603095552332631e-01,2.504750051718140978e-04,-1.241314820159326556e-04,-7.573854122174816422e-06,1.456789225339889526e-01
-1.409969738779048021e-01,-1.459307260455746103e-01,-2.884026844326714190e-01,4.726924161957184395e-04,1.928582351134672853e-04,4.983373857530261027e-05,1.450045257806777954e-01
-1.565493384723075088e-01,-1.113972602481239083e-01,-2.918094097501037210e-01,2.148399477607993921e-02,-1.264322134238168166e-02,-3.286003240073211845e-02,1.776087135076522827e-01
-2.017409234225047976e-01,-1.090034051646742996e-01,-4.554538998455024412e-01,5.100905916613819591e-02,3.144986616226449344e-02,-3.482179515749066461e-03,3.275800049304962158e-01
-1.484097852107494064e-01,-1.506199801772701852e-01,-2.897523953856180889e-01,-9.496298308774295868e-04,-2.919633814469483647e-04,-2.978560622506239153e-04,1.402620822191238403e-01
-1.436492352809810302e-01,-1.428747448437452938e-01,-2.881277130185154745e-01,-4.641534514282639372e-04,-1.951854114789099007e-04,-3.639322337588176526e-05,1.448699086904525757e-01
-1.740404828909686841e-01,-1.460348061486874960e-01,-3.255590275041675974e-01,5.963167419645955258e-03,2.275185254419764651e-03,-3.976828738060760905e-03,1.677951663732528687e-01
-1.551998504701847248e-01,-1.522476867680730428e-01,-2.917693853009477589e-01,2.192916841537155548e-03,-2.209219529194443967e-04,5.409087982054703540e-04,1.381252259016036987e-01
-1.449005276306668810e-01,-1.390748592641134762e-01,-2.862132739834696848e-01,-1.052554889127228690e-03,-2.989212899998094919e-04,5.194006731186529870e-04,1.443290412425994873e-01
-1.579318659246036483e-01,-1.599585992687365121e-01,-3.063170281773276438e-01,6.361632946187439040e-03,1.337301062574359481e-03,-1.699782475072153705e-04,1.478120088577270508e-01
-1.401108150623512349e-01,-1.414848117667070748e-01,-2.822078881323133448e-01,-4.007282465046438022e-03,3.435504814222809216e-04,5.251156411791571953e-06,1.415865570306777954e-01
-1.433657819572533576e-01,-1.428964076321856125e-01,-2.883943430589074874e-01,-4.641543854417813988e-04,-1.948093674675744063e-04,-3.639340622738427959e-05,1.452664434909820557e-01
-1.495474022699388172e-01,-1.528551660464462780e-01,-2.877925374207004894e-01,9.768469848716579331e-04,-3.260655398526654493e-04,-6.104178572487210450e-04,1.366370171308517456e-01
-1.514763066772395472e-01,-1.516073818789013816e-01,-2.880534435363646395e-01,5.460110560925376250e-04,-2.391256047019319180e-04,-2.299877811957082654e-04,1.365161389112472534e-01
-1.519101383079251577e-01,-1.537925916588733233e-01,-2.890672570198901115e-01,4.311780887718189947e-04,-1.414157332058604605e-04,-4.263870739528304271e-04,1.362299174070358276e-01
-1.505448919617706216e-01,-1.476206670487774375e-01,-2.998916354370951276e-01,1.454661762938875072e-02,1.134535007035700248e-03,-4.150686181931839171e-04,1.529343426227569580e-01
-1.502923240034058083e-01,-1.498096133844737943e-01,-2.888517123546262000e-01,1.440074332458661033e-03,-2.309727323673065264e-04,-1.408513279892825948e-04,1.388245671987533569e-01
-1.519245901357353101e-01,-1.428658472955556813e-01,-2.890913913807519053e-01,-2.964062450720853382e-03,-6.549125102275641990e-04,8.684472587431806912e-04,1.420185118913650513e-01
-1.443625528982508399e-01,-1.449105290272807434e-01,-2.890158729233105461e-01,1.730672493205081099e-03,-4.118331006604004376e-04,3.375330898465013550e-05,1.444129943847656250e-01
-1.498171101348389489e-01,-1.286787091261307192e-01,-2.554880660644646140e-01,-7.702422012339871747e-03,-1.209078038234188968e-03,5.712344058178350434e-03,1.188577190041542053e-01
-9.887165385412033380e-02,-5.265206037854461285e-02,-2.188905324350590709e-01,3.522947114167912508e-02,-3.917608611353267517e-02,-5.374661137526252214e-02,1.976910382509231567e-01
-1.478367245051062651e-01,-1.364375145485753893e-01,-2.837076278883788882e-01,-1.489731611204736777e-03,-6.575076273156560099e-04,3.708797509631685599e-04,1.419437676668167114e-01
-1.439784810311046381e-01,-1.498757970764556802e-01,-2.868741526536334185e-01,1.011138125417581453e-03,4.280245909941261351e-04,-8.006075975790034795e-04,1.400599479675292969e-01
-1.562730374131524602e-01,-1.248499594601625851e-01,-2.745058277231767208e-01,-2.483527691884977393e-03,-5.717232674003364665e-04,1.837228831627785511e-03,1.367890685796737671e-01
-1.380462093699451609e-01,-1.581221434675551818e-01,-2.934182353946428456e-01,-1.488974184380796985e-03,9.044043997462564242e-05,9.243083018327672091e-04,1.464018821716308594e-01
-1.346558117485814055e-01,-1.693347024928888722e-01,-2.966885242818600998e-01,-4.018328262544838998e-03,-9.726504512359995108e-03,4.065114384237891385e-03,1.490635424852371216e-01
-1.530077713231992043e-01,-1.297122443426279859e-01,-2.823169758534125329e-01,-1.929257098123725268e-03,-9.649805183728294095e-04,2.249812250223148530e-03,1.424956917762756348e-01
-1.532287033232051232e-01,-1.279624627788385760e-01,-2.813240405697350899e-01,-1.082265962701692242e-03,-4.542276679229929285e-04,1.500617524591082693e-03,1.424576193094253540e-01
-1.564288780173076487e-01,-1.486491067280142075e-01,-2.938479467955467106e-01,2.062202276512332955e-03,-2.133246490012283888e-04,-2.952337602828601572e-04,1.415159702301025391e-01
-1.409413823419642664e-01,-1.393278811055114197e-01,-2.852862868823612952e-01,-1.763223510429115385e-03,-1.008921382834902748e-03,1.527531475604443248e-04,1.452012658119201660e-01
-1.404883391058006914e-01,-1.327568145223519958e-01,-2.770666266974474157e-01,-5.549869668257781385e-03,-2.766697185030476871e-03,2.309952619034632247e-03,1.410699784755706787e-01
-1.239959412156442509e-01,-1.560287387971134310e-01,-2.788682932007688353e-01,2.988838082150453495e-04,-1.471209649061283901e-03,-6.002798822662095020e-05,1.416238844394683838e-01
-1.250748174052667971e-01,-1.582925967569868697e-01,-2.803398300696651191e-01,-5.393949101222555472e-05,-1.409645179597342592e-03,3.045387602450759621e-04,1.416309773921966553e-01
-1.326920565742218949e-01,-1.595522390891217779e-01,-2.834576788285294580e-01,2.871534286564073925e-03,-4.103942501023091251e-03,-1.887812720194403460e-04,1.395618915557861328e-01
-1.527509665475222655e-01,-1.337610046248069451e-01,-2.675680924952952844e-01,-7.016488775915958633e-03,-2.788568740931622429e-03,5.865911128574089438e-03,1.264840364456176758e-01
-1.307493228237321947e-01,-1.325010549329384002e-01,-2.604825905668413100e-01,-9.924556500553712371e-03,-6.684581907446621521e-03,7.225566894750987817e-03,1.311209350824356079e-01
-1.479023985769551686e-01,-1.333947035835759964e-01,-2.838854314712665472e-01,9.203329319301670934e-04,2.504700622680669834e-04,6.056003427245031849e-05,1.437963843345642090e-01
-1.559344539847157263e-01,-1.302384123169742225e-01,-2.871104509671146277e-01,1.165019705588633304e-03,1.249354131691648301e-03,1.158543401484018499e-03,1.457769274711608887e-01
-1.349723772252609255e-01,-1.667972733305597144e-01,-2.792977512504487558e-01,3.966668446675410435e-05,-1.216219615803411196e-02,-5.201093243514644596e-04,1.330190598964691162e-01
-1.450255723033288813e-01,-1.438761568583113160e-01,-2.877256594545653523e-01,-2.336069098518368022e-03,-2.236348079242741474e-04,1.503943424295237118e-04,1.433361321687698364e-01
-1.495018901164943959e-01,-1.319369274249645174e-01,-2.627527104789809664e-01,5.560148810191928304e-03,6.424238073039925754e-04,3.462438728799649944e-03,1.235049441456794739e-01
-1.406477406689532472e-01,-1.427916804888818003e-01,-2.875507166697041650e-01,7.977328910183962164e-04,4.452803242906050630e-05,4.051914542453797043e-04,1.458510756492614746e-01
-1.415510113803588599e-01,-1.577462644899649269e-01,-2.964876825499457857e-01,1.762659117551275759e-02,-1.116841457691157904e-02,-5.486451231689254415e-03,1.521677225828170776e-01
-1.282361205511115543e-01,-1.609132470141922122e-01,-2.846552101372528121e-01,-3.944907717567691673e-04,-8.132712976788384826e-03,-4.212272249486336516e-04,1.436064839363098145e-01
-1.545248767525047584e-01,-1.315360696566192089e-01,-2.691486810094548821e-01,4.908148287723123303e-03,-1.551009914105847551e-03,1.278904808611620782e-03,1.280100047588348389e-01
-1.539418400177035295e-01,-1.280782712673458335e-01,-2.827755268305109371e-01,1.210687494344897053e-03,3.480916412624528319e-04,1.581210060366135695e-03,1.435667276382446289e-01
-1.492484671387811768e-01,-1.349319602625594638e-01,-2.862657578655721236e-01,8.239590141564946376e-04,4.248215949337536598e-04,4.851731468096143088e-04,1.447190195322036743e-01
-1.464993084502184129e-01,-1.417099779474895738e-01,-2.884386191447448344e-01,9.517097357182342917e-04,4.441941175448224774e-04,-4.607219211352153948e-04,1.444072276353836060e-01
-1.376633129608943185e-01,-1.598743401095573391e-01,-2.738622040989588391e-01,5.931052339668844292e-03,-7.436947138998965291e-03,-7.356041096845053473e-05,1.276315897703170776e-01
-1.095096494314455604e-01,-1.397459713041606377e-01,-2.336847548889574577e-01,-4.839609646630507419e-04,-9.170005502349190193e-03,7.252488215948614319e-04,1.132856607437133789e-01
-2.456177133797052548e-01,-2.494731564215783570e-01,-4.440534070001517231e-01,-4.092448014080679597e-02,-5.963954193897288980e-02,5.468761433989134668e-02,2.515825927257537842e-01
-1.429894256962701560e-01,-1.426389367378923800e-01,-2.883002695609041544e-01,5.094829597989353285e-04,-4.015704073790569398e-04,-3.037611844634926451e-05,1.454907506704330444e-01
-1.465518274604966087e-01,-1.427881226685648319e-01,-2.901012368298734323e-01,3.748965482608627043e-04,1.408840444302041192e-04,7.102523962058253934e-04,1.454746425151824951e-01
-1.655606858638568046e-01,-1.225774353715724796e-01,-1.575320698895282812e-01,1.824851772545685313e-02,1.703281987912266468e-02,7.409867004993908601e-02,1.410962045192718506e-01
-3.204501108309378843e-01,-1.832909242254281146e-01,-5.322860704695087097e-01,1.945416738557144767e-02,-1.935902132235416476e-02,-4.262224841485360433e-02,3.169417083263397217e-01
-1.286572770935496268e-01,-1.602301410768810774e-01,-2.820457344899512941e-01,5.663317866939524903e-04,-3.292790054691695049e-03,2.963304976777208968e-04,1.404126286506652832e-01
-1.287077296302603924e-01,-1.600879026281525619e-01,-2.822871809765010731e-01,5.843368884997449933e-04,-3.268280661723073615e-03,2.881228957799340383e-04,1.406603455543518066e-01
-1.433598874051477678e-01,-1.402931291916024170e-01,-2.862273392609819833e-01,-4.702339291981302676e-03,3.706552803570873798e-04,7.332479180709534558e-05,1.446562111377716064e-01
-1.479800621087459522e-01,-1.317543247442026499e-01,-2.832879850480598538e-01,-1.537035337594128831e-03,2.404573133807541725e-04,-5.478191115329214154e-04,1.441358476877212524e-01
-1.359904656355429009e-01,-1.583537236340162024e-01,-2.644430132759538199e-01,-7.030560854251354484e-03,-1.126316855026760280e-02,3.357249416826228565e-03,1.212032660841941833e-01
-1.406840432618097769e-01,-1.483922761256174505e-01,-2.826916021290782344e-01,-6.552757734938967522e-03,2.986445627281363144e-04,-4.198641863027170588e-04,1.387823820114135742e-01
-1.261049863686455608e-01,-1.603491517899430230e-01,-2.848671254146694087e-01,-4.021779640555022935e-04,-1.188080823746064845e-03,-3.133625537474420781e-04,1.447287648916244507e-01
-1.825003552367184256e-01,-1.524293095520516950e-01,-2.689196614005757713e-01,-3.384079470398694729e-03,-9.688876038654861342e-03,5.988124178097719436e-02,1.484740823507308960e-01
-1.400259970715637126e-01,-1.458806019140415633e-01,-2.878378668072313351e-01,-1.422885459078089814e-03,-2.746816494234317874e-04,6.016079647422007196e-04,1.449987292289733887e-01
-1.412687821308531988e-01,-1.454135226458161401e-01,-2.892460351528881035e-01,-1.189102227510445203e-03,-5.367192092398248706e-05,-2.590327976991828275e-04,1.459642797708511353e-01
-1.298338135709192209e-01,-1.595440676618908316e-01,-2.925444179373721254e-01,-2.798061066426789974e-03,-7.901788905250372794e-03,2.725209823823249340e-03,1.508520841598510742e-01
-1.246362582686362380e-01,-1.569617488047252707e-01,-2.804362822393711152e-01,-5.242748269351998154e-04,-1.146315958374554377e-03,4.306093062672132336e-04,1.424345374107360840e-01
-1.269694028527735552e-01,-1.566690792532849374e-01,-2.827780493425410269e-01,1.460793509800729787e-03,-1.163784815454991899e-03,-8.088603437756481437e-04,1.433295756578445435e-01
-1.235383916221323986e-01,-1.559829006790731387e-01,-2.778912636346266840e-01,-4.586088199044520549e-04,-3.784615143254526504e-05,-7.672319509391672000e-05,1.409617215394973755e-01
-1.299765438037085719e-01,-1.524763207408819099e-01,-2.604915782663851931e-01,5.790666823829228663e-03,-2.729107885260823561e-03,-1.786513884765854538e-03,1.213934496045112610e-01
-1.237181167841901741e-01,-1.581589768018396291e-01,-2.841747889456309739e-01,-1.507071329523834670e-03,-2.072982165510113117e-03,-1.040213801146511120e-04,1.463761925697326660e-01
-1.239986647280610921e-01,-1.572206539619464549e-01,-2.807495241863871005e-01,1.251793094372060039e-04,-1.544594241583757167e-03,-1.456835336810686783e-04,1.430881768465042114e-01
-1.367450255993003794e-01,-1.505695373506667767e-01,-2.869643924786472455e-01,-1.288053160473342888e-03,-3.270097680682327798e-04,5.365428954814706461e-04,1.438277661800384521e-01
-1.575478403849115139e-01,-1.234565392123259803e-01,-2.817496991864409939e-01,-6.065364093752389704e-04,-4.593989351922276622e-04,2.235217574517080891e-03,1.443580538034439087e-01
-1.647433048048400350e-01,-1.658738552575760861e-01,-1.857608141229208087e-01,-5.640469845460638516e-03,-2.794845938567789775e-02,3.632577942110912228e-02,8.256351202726364136e-02
-1.266795800656606574e-01,-1.592671897633975708e-01,-2.831768199049133905e-01,1.702440733402543662e-04,-4.023615947496757294e-04,-3.920034895620300554e-04,1.430192291736602783e-01
-1.265775863818584535e-01,-1.559460989053770841e-01,-2.811979422145419738e-01,1.334942524662861970e-03,-1.665514294768457790e-03,-1.116709609006613386e-03,1.422898620367050171e-01
-9.221379062562526374e-02,-1.522938780241105128e-01,-1.939737785605762654e-01,-1.129662264336036767e-02,-8.340027666958796382e-02,1.958677105059674142e-02,1.739297211170196533e-01
-1.823503778891633065e-01,-2.058954756060344116e-01,-3.336443155679046924e-01,-2.340503549681743900e-02,5.832383467199682425e-02,-2.515684012204303863e-02,1.833820939064025879e-01
-1.258988984966568081e-01,-1.529486614773732100e-01,-2.765887062981338129e-01,-3.370361864791977281e-03,-1.856147966772641808e-03,6.968667630066334396e-04,1.393156647682189941e-01
-1.308222907184072858e-01,-1.672326279194224219e-01,-2.917543173886408825e-01,6.968291974203518792e-03,-1.133929815916266508e-02,-5.924593290020421441e-03,1.483305543661117554e-01
-1.719158063693034255e-01,-1.344432689157912808e-01,-1.806812757313255025e-01,1.519743116498102967e-02,-2.842858348207162947e-03,-8.037138090906315036e-02,1.480043828487396240e-01
-1.252619119866907882e-01,-1.563582580990659499e-01,-2.803636639520123985e-01,2.047250032547607429e-03,4.606418344006738496e-04,3.569300722494494105e-04,1.421760618686676025e-01
-1.373012319404114945e-01,-1.383636926531572331e-01,-2.462192898033625232e-01,-1.258602132466914852e-02,8.781721361224370873e-03,-1.092730557970347273e-02,1.131960600614547729e-01
-1.694799135986582161e-01,-1.365667501793688676e-01,-2.760158241951181646e-01,-2.266364604710556247e-03,-6.979601474229475125e-04,-7.294381007578408342e-03,1.269492208957672119e-01
-1.253388252131258929e-01,-1.564369590351029626e-01,-2.802566793371872311e-01,1.348209606832327613e-03,-1.500209804927783459e-03,-5.387604436448260609e-04,1.419931501150131226e-01
-1.488451990067918562e-01,-1.341958180312121662e-01,-2.840332938706477961e-01,1.094348085271281551e-03,-4.347662543931615970e-04,-6.674979508285241742e-04,1.430955827236175537e-01
-1.432222720922646519e-01,-1.312261692661195744e-01,-2.179389653061504228e-01,-1.484099764454292932e-02,1.627726369871073872e-02,-3.173753243398890617e-02,1.053576096892356873e-01
-1.574855395036280359e-01,-1.687423782556471130e-01,-2.498866604712838557e-01,-4.416503669632450627e-03,-1.272677126414938596e-02,4.235656491537106993e-03,9.067960083484649658e-02
-1.509205421670460345e-01,-1.438498396411659330e-01,-2.469736693885724588e-01,-9.651357166401638293e-03,1.996965026978925455e-03,-9.418334847108671831e-03,1.025323644280433655e-01
-1.556991845060617663e-01,-1.236369970238217764e-01,-2.682716528517448129e-01,-3.181854757444707235e-03,1.603631257305219125e-03,-7.928847106923141499e-03,1.324256509542465210e-01
-1.480954694614441403e-01,-1.327924933848342870e-01,-2.831085960474926666e-01,1.264419621660361776e-03,-5.912582341444757228e-04,-1.006177976874200915e-03,1.433098465204238892e-01
-1.442045240923355842e-01,-1.341409236889041512e-01,-2.819350125015555042e-01,3.675225304149404727e-03,-7.901462612547810807e-04,-1.196730843398698335e-03,1.431912034749984741e-01
-1.485135239153562992e-01,-1.521171320247625969e-01,-2.923496043551903067e-01,4.062253715084709373e-03,-3.461304340048030649e-04,3.985437429670603336e-04,1.422456204891204834e-01
-1.476805974833659552e-01,-1.351243357579960669e-01,-2.251530090418073504e-01,-1.174292922939318938e-02,6.827512618617217338e-03,-1.082210971081994273e-02,8.965091407299041748e-02
-1.440038893121451946e-01,-1.497787033759384046e-01,-2.925626228920887306e-01,-6.853374071454769803e-03,6.640898831057535402e-04,-2.085864604840423613e-03,1.462888568639755249e-01
-1.496132127821431512e-01,-1.491023953460025586e-01,-2.877395730247013228e-01,-8.579775167074839845e-04,-4.106780711906123657e-04,4.964575337652214282e-04,1.383949518203735352e-01
-1.289882761646890530e-01,-1.460762887104881391e-01,-2.818334496728691629e-01,3.453729930463693074e-03,-5.722254564520107278e-04,2.205129301080688167e-04,1.451851874589920044e-01
-1.405050690450965756e-01,-1.418218721508197333e-01,-2.879064268894941936e-01,9.493278294162978224e-04,-1.299349731518814588e-04,1.520466725231160547e-04,1.467570066452026367e-01
-1.462725391417450949e-01,-1.466424175456952084e-01,-2.888205433231430530e-01,-9.894524269428129574e-04,-3.723439062576281008e-04,3.183500195529467315e-04,1.423762738704681396e-01
-1.428670686699785586e-01,-1.512270844047106932e-01,-2.850710814253168413e-01,4.941707741307152860e-03,-1.223567811769779058e-03,-5.475813130373501656e-04,1.384979933500289917e-01
-1.332569109547193376e-01,-1.268568810438076011e-01,-2.021016167516143380e-01,-3.519783309470335408e-02,3.508665339922990845e-02,-5.729207322206095188e-02,1.499272733926773071e-01
-1.423554396021092516e-01,-1.397124695109069614e-01,-2.873503666736237916e-01,8.305533088222163225e-04,-3.325794824698006581e-04,-1.228446310197939446e-04,1.463426798582077026e-01
-1.371107754418633973e-01,-1.481102621877969927e-01,-2.258224782760480109e-01,-1.344445442094966553e-02,2.677184786395767763e-02,-1.831096862459524743e-02,1.035050824284553528e-01
-1.403183246839095066e-01,-1.426086313403738814e-01,-2.863700404236992902e-01,2.451318242520566636e-03,-6.429908978133314600e-04,1.362163765924916592e-04,1.449867933988571167e-01
-1.467249609382622610e-01,-1.408164840376504301e-01,-2.882577403181514897e-01,1.010127399553908609e-03,2.268515967158882428e-05,-3.637978289822422400e-04,1.445895582437515259e-01
-1.342144478197379864e-01,-1.409105883089739886e-01,-2.845668529340344977e-01,2.921836326077869271e-03,-1.333878464964867862e-04,-2.034141716318697282e-04,1.472062915563583374e-01
-1.350825064065600267e-01,-1.420481691818981373e-01,-2.703774007710401106e-01,7.775681418932278190e-03,-2.977028017404655027e-03,-7.233668470523446333e-04,1.327416747808456421e-01
-1.557877992445157456e-01,-1.228842670839501022e-01,-2.815367702852247800e-01,-4.779510558889652817e-04,2.335819757907834195e-04,2.164787868868700994e-03,1.450790762901306152e-01
-1.472621857306783411e-01,-1.399563042901182941e-01,-2.824332840158600977e-01,-6.770648856764072653e-03,2.941607687661507977e-04,6.304655405781813687e-04,1.394672840833663940e-01
-1.363482452121210220e-01,-1.517398809211068789e-01,-2.769129439457165276e-01,8.564317465669759807e-03,-6.159133585868877513e-03,-2.622311104069679523e-03,1.348565667867660522e-01
-1.282129367731397185e-01,-1.487930167787152036e-01,-2.788005773787484154e-01,4.464866159772664343e-03,-2.278336738025520634e-03,-8.151900814111169222e-04,1.416984200477600098e-01
-1.470112656297878073e-01,-1.433699809709552964e-01,-2.852905968569888207e-01,8.482641127676264492e-03,-2.958433575483775980e-03,-4.390737959734716638e-03,1.412016451358795166e-01
-1.275660462782695903e-01,-1.485028285834408823e-01,-2.699850486413699069e-01,6.550452393761985702e-03,-6.238878300718880138e-03,-3.943322548101455688e-03,1.342827975749969482e-01
-1.159804287961289371e-01,-5.438211040647256134e-02,-2.832495064677466035e-01,-4.160512329793173564e-02,1.359592180974230832e-02,-1.753866421165373515e-02,2.207874804735183716e-01
-1.378164419664289209e-01,-1.402891464444154246e-01,-2.792903531087957969e-01,6.537458884122871600e-03,-3.301564863487281998e-03,-5.421536137703289113e-03,1.411391347646713257e-01
-1.443732811038971053e-01,-1.383676156760067499e-01,-2.862185240902487826e-01,-1.348849384010720629e-03,4.883679628011383710e-04,-1.139035131089277664e-04,1.449628472328186035e-01
-1.188347277692083093e-01,-1.693141160343780705e-01,-1.976391044840531963e-01,-9.453450340637714611e-03,8.549116144053538202e-02,-5.054545605143030002e-02,1.861159652471542358e-01
-1.576594226115884401e-01,-1.247757107204113813e-01,-2.818646027006535548e-01,3.625098353513331990e-04,-7.014390123277415470e-05,1.054883065809998676e-03,1.435142457485198975e-01
-1.503018287628998251e-01,-1.335570201133016999e-01,-2.812579366278382675e-01,-4.386920369499215829e-03,-4.482402549717456799e-04,1.293235811688371465e-03,1.403070986270904541e-01
-1.778622624644248251e-01,-1.760241331730604264e-01,-1.312831185098630726e-01,-8.344413581125049301e-03,-5.299015669955355057e-02,4.964130004706825833e-02,1.345842182636260986e-01
-1.612854593067932774e-01,-1.283170207303090393e-01,-2.873476178583326268e-01,6.205754756598051095e-04,-1.722061009531207791e-04,3.419878321689400705e-03,1.455025374889373779e-01
-1.706168514643024714e-01,-1.392720272292805039e-01,-2.825220893492489393e-01,-4.702699698294661099e-03,-1.056418878848975305e-03,1.786107258119953682e-03,1.307371258735656738e-01
-1.395053027426922942e-01,-1.433117280611669597e-01,-2.831102824185390832e-01,3.662774042221375852e-03,-6.380532484456961700e-04,-8.223139036006167201e-04,1.418934613466262817e-01
-1.281260896044529585e-01,-1.542252323473360665e-01,-2.779009485591744100e-01,-7.687635436777036368e-03,8.362081663792068562e-03,-5.835455551943232247e-03,1.403349786996841431e-01
-1.321766292373338092e-01,-1.547855208429716189e-01,-2.848276330016689117e-01,-1.264690000308371556e-03,4.886890461501464718e-04,-1.005127915812757851e-03,1.427261978387832642e-01
-1.310627538465937714e-01,-1.499831294374217305e-01,-2.837588928251956188e-01,-1.975274962460375240e-03,8.048448354650330734e-04,-7.744587266888875625e-04,1.442236900329589844e-01
-1.544344538726559468e-01,-1.447672427812197460e-01,-2.853643181645365012e-01,-8.853386371202219551e-03,3.945811746961801897e-03,-4.463298380168462774e-03,1.372713744640350342e-01
-1.420473065724165429e-01,-1.613163935394165416e-01,-2.932054514776535337e-01,-5.372588870285763783e-03,2.463622630953659493e-03,-1.818467726631886594e-04,1.428716331720352173e-01
-1.266658569960718850e-01,-1.576009359673063437e-01,-2.786218216779867696e-01,-2.360173576734966340e-03,-2.980833790430105490e-03,1.683641530696037289e-03,1.392792016267776489e-01
-1.282400174603871568e-01,-1.562282367173686570e-01,-2.838775602219142380e-01,5.644788794748917260e-03,-8.174979929247537178e-03,-1.480153284739310366e-03,1.447515934705734253e-01
-1.387049648465284724e-01,-1.321029741249835909e-01,-2.012780768272951493e-01,-1.912357760880023516e-02,-4.385355208840886754e-02,6.208449471028176098e-02,1.510035693645477295e-01
-1.574213269047868846e-01,-1.294831627143365471e-01,-2.736256403075537635e-01,-9.121913362069375289e-04,2.352698833048597841e-04,2.281402564793675886e-03,1.324718594551086426e-01
-1.424662283011251807e-01,-1.507321084943013256e-01,-2.829099978982002050e-01,-7.543884118412992786e-03,4.192273624152492544e-03,-4.317911866628722575e-03,1.375182718038558960e-01
-1.321034522366585917e-01,-1.499627140816257309e-01,-2.829451041535068212e-01,-2.228919105021124388e-03,7.401188496331987613e-04,-6.766613220907482292e-04,1.428151130676269531e-01
-1.432189336883283592e-01,-1.566267559684235700e-01,-2.621781905447020389e-01,-8.060289949425670022e-03,-2.771761066744079204e-03,1.444672730649323089e-03,1.138433292508125305e-01
-1.278770047833938106e-01,-1.520436706933693538e-01,-2.760274332265828523e-01,-4.351591185253650233e-03,3.474191975398730273e-03,-6.988427601667061406e-04,1.380099952220916748e-01
-1.416035510494821348e-01,-1.472868089658073143e-01,-2.890312986072399726e-01,-3.419471351211313386e-03,8.473729527633846710e-04,-4.135149585499445766e-04,1.448002606630325317e-01
-1.302308591551862849e-01,-1.581967261899283883e-01,-2.849328207328538642e-01,-3.834112900043692117e-03,7.851985818549267124e-03,-1.275824825796279286e-03,1.436048597097396851e-01
-1.360329632804180566e-01,-1.524862001863263317e-01,-2.866334016557279263e-01,-3.763375029341455708e-03,1.127955775111314906e-03,-8.214361782997320078e-04,1.432538479566574097e-01
-1.347091792415003875e-01,-1.531244320799591552e-01,-2.716107078751874848e-01,5.410948918609382631e-03,-1.755682601884299074e-03,-1.530395910510255168e-06,1.290626078844070435e-01
-1.295424837994928191e-01,-1.545438983763883223e-01,-2.610931308960520170e-01,2.721248076866916374e-03,-3.436892859227974779e-03,-2.775042427320525886e-04,1.212418004870414734e-01
-1.380432503040771031e-01,-1.524239718626687057e-01,-2.893198221628763278e-01,-5.717459303759841321e-03,3.058961951536309613e-03,-8.878687641102288568e-04,1.450670361518859863e-01
-1.369114785865843120e-01,-1.526357900819658442e-01,-2.863873880376439640e-01,-5.515991270156771556e-03,3.435701433139856219e-03,-4.695859450305671584e-04,1.427138596773147583e-01
-1.319583018858811740e-01,-1.407619131587734551e-01,-2.633637245014847084e-01,-7.446901035364125385e-03,2.712616770996957843e-03,-4.275566962989110070e-03,1.281847506761550903e-01
-1.510048670562665341e-01,-1.526352465529656754e-01,-2.887401910630208457e-01,-1.461176494587851425e-04,2.462523056579213636e-04,-1.355883113896710099e-04,1.369285136461257935e-01
-1.629278563367881072e-01,-1.661148747167179307e-01,-1.966224433566711172e-01,-1.859590483926844935e-03,-1.379904283140674127e-02,-2.549148423947746695e-04,4.024806618690490723e-02
-1.378257322046680389e-01,-1.518518350500647762e-01,-2.422367060741971168e-01,1.697403292281313841e-02,-2.423672645001044221e-02,-1.367689897303869286e-02,1.132328882813453674e-01
-1.521690600905520330e-01,-1.657378316515862315e-01,-2.373151881182295753e-01,9.966628500507859062e-03,-1.536908974151037464e-02,-3.456560649585541621e-03,8.556353300809860229e-02
-1.356467994940220856e-01,-1.432660646266731286e-01,-2.849062202378276898e-01,2.350976510146064995e-03,-4.122514813634340107e-04,-1.576148103495354248e-04,1.456583142280578613e-01
-1.537550100416265608e-01,-1.526870822193709676e-01,-2.896752346525175992e-01,-4.637871366711059204e-05,-4.157676548334969351e-04,1.634674671756816428e-04,1.364595443010330200e-01
-1.440610310154796792e-01,-1.516478409058099330e-01,-1.905086174691013878e-01,2.813603643138525966e-03,-1.304894679110139843e-02,-8.458494231121812222e-04,4.898233711719512939e-02
-1.531866503435947158e-01,-1.280551004540506077e-01,-2.810024138296483009e-01,1.225436919076918190e-03,-5.835725755141380573e-04,-1.429130213776013195e-03,1.420997083187103271e-01
-1.617639600740529426e-01,-1.496296485301668033e-01,-1.965794392695098258e-01,2.066713669523335614e-03,-1.015688649888070493e-03,-1.198946359502189168e-02,4.721198603510856628e-02
-1.460839381033474660e-01,-1.459071846667668038e-01,-2.889750121716517239e-01,3.443637754396721568e-03,6.166986400415581341e-05,-5.685178715529674289e-05,1.431039571762084961e-01
-1.622867707310556296e-01,-1.792853837552050578e-01,-2.428050457090023817e-01,-3.246335028085566357e-03,-2.415664429759236190e-02,1.262008975949104397e-02,8.754137903451919556e-02
-1.250469247499421677e-01,-1.568672902571937866e-01,-2.730164048946561728e-01,-6.162647712416693610e-03,-7.504926121362755220e-03,4.245449280970344311e-03,1.361471116542816162e-01
-1.466420090918361674e-01,-1.693346576479463073e-01,-2.528425392950097716e-01,2.068761625104174710e-03,-1.961938981644635246e-02,-4.196939917931243394e-03,1.029756367206573486e-01
-1.419301105824924969e-01,-1.354982713160832741e-01,-2.566021958639467249e-01,-1.966814841205440437e-02,1.860727258260596456e-02,-4.259621373740465899e-02,1.468711048364639282e-01
-1.386917297467915866e-01,-1.387407238231047890e-01,-2.833216535692059668e-01,5.846984096446874307e-03,-5.035283609060341647e-04,-5.714958926012145019e-04,1.449656337499618530e-01
-1.360960913916560155e-01,-2.213176802922350306e-01,-4.392111077700959765e-01,2.203399317997350310e-02,2.499077288499630678e-02,1.941906070596684589e-02,2.788743376731872559e-01
-1.460957180155883495e-01,-1.407633214230095131e-01,-2.885833535802763694e-01,1.154532363195299787e-03,-1.641252302515132749e-05,-2.537283304669748509e-04,1.452417075634002686e-01
-1.405525622752263337e-01,-1.446027876003304902e-01,-2.870915165060217156e-01,1.232533834572372214e-03,5.146033084309153353e-04,2.790708095601580831e-04,1.445757150650024414e-01
-1.511375053516003097e-01,-1.313926982932681897e-01,-2.838623466635837866e-01,7.483549655467436985e-04,-4.478400598579675086e-04,-6.885874058873085171e-04,1.436317265033721924e-01
-1.512566942702318618e-01,-1.409216639835377538e-01,-2.517319563168961549e-01,7.700186994767442387e-03,-4.363438382390238805e-04,-3.268205453960325215e-03,1.070093438029289246e-01
-5.747102408033774590e-02,-1.467775096380617983e-01,-2.944344625250983061e-01,-5.094614028198542373e-03,-3.346040271143830257e-03,8.665889723763819464e-04,2.075539827346801758e-01
-1.342093284333126246e-01,-1.612606549410116608e-01,-2.929763017382409629e-01,7.300093685069413210e-04,3.960733768498428224e-03,2.906343511584520006e-03,1.473698467016220093e-01
-1.585452042699377617e-01,-1.308134990629157834e-01,-2.885473221173250336e-01,-1.097967756912517946e-03,-7.162565355982512642e-04,2.436223639485061640e-03,1.459374576807022095e-01
-1.622025455192417365e-01,-1.340417380115632995e-01,-2.921813222528091836e-01,6.369286391428802610e-04,1.131699098411900707e-03,2.167652395397247876e-03,1.461744755506515503e-01
-1.446226683579498462e-01,-1.462488101169364396e-01,-2.740720911474217036e-01,-7.821606256293004225e-03,-5.462885411110255870e-04,9.942964339805428903e-04,1.293703466653823853e-01
-1.327787648038129542e-01,-1.603026947785749223e-01,-2.911452652163713517e-01,9.747498888566470188e-05,2.374143376808029223e-03,2.880767318783649007e-03,1.466986089944839478e-01
-1.452119314157039875e-01,-1.444753402567200140e-01,-2.736135268695654155e-01,-7.625736541664385366e-03,-5.697490722929161562e-04,1.026766394629298560e-03,1.294630616903305054e-01
-1.242792126146942816e-01,-1.550613557743521775e-01,-2.834834871086005514e-01,8.258121186505800598e-03,1.553065521916696841e-02,8.283921419307071349e-03,1.500898301601409912e-01
-1.364778586642043656e-01,-1.510529447793600710e-01,-2.886026944730322730e-01,-3.288286610817905010e-03,-4.919799733930646382e-04,-3.056558117681364346e-04,1.455012410879135132e-01
-1.345609402001915755e-01,-1.487259575237142029e-01,-2.833190998909242975e-01,-3.530999532294424193e-03,-1.581846022183679840e-03,1.142315819078173209e-03,1.423773169517517090e-01
-1.502565962933965216e-01,-1.306532693477250595e-01,-2.832527770894781582e-01,-1.750738043618359739e-03,-8.005202442961533880e-04,7.099914867070829336e-04,1.438473910093307495e-01
-1.588653232234593926e-01,-1.285672971000548503e-01,-2.796446145450421361e-01,2.540391715096617254e-03,2.387791115757344033e-03,4.841899383230708655e-03,1.388228386640548706e-01
-1.346943382693714664e-01,-1.606982370403197968e-01,-2.935862980376711118e-01,-1.353226311958698528e-04,8.040348467082482397e-04,9.041506319936191624e-04,1.476329714059829712e-01
-1.047976665053834411e-01,-1.233603827473656600e-01,-1.976993686112065718e-01,-1.482355455543073013e-02,-4.468587002887292048e-02,2.097676128055689371e-02,1.233716383576393127e-01
-1.487174878296948499e-01,-1.701162320014230622e-01,-3.062478228976595607e-01,-2.464876471634898846e-04,-1.231196613068792232e-04,2.484302094068511525e-03,1.480591297149658203e-01
-1.395372026008981636e-01,-1.607668853389853103e-01,-2.931891991583589485e-01,1.447663401463356069e-04,4.260750005331519620e-04,3.049473208839102289e-04,1.442169845104217529e-01
-2.458977051331922847e-01,-2.426204899803647841e-01,-4.468483348156608304e-01,5.515492448171855494e-02,8.474170910056215422e-02,7.390908522033540207e-02,2.968295514583587646e-01
-1.526687455447643393e-01,-1.532799188750567365e-01,-2.891338614806585605e-01,-5.845601629076722970e-04,-4.022335102914119322e-04,2.470684997601829171e-04,1.361667811870574951e-01
-1.433859132102277001e-01,-1.661241308709129894e-01,-3.023122632005570409e-01,6.065169425973553985e-04,5.412860416004355336e-04,-2.738846805856747402e-04,1.488728225231170654e-01
-1.448600500072795283e-01,-1.620926416927879199e-01,-2.931397655794629742e-01,-3.680605971200651681e-04,-1.446820387647965731e-03,-4.007921271329047022e-04,1.404840201139450073e-01
-1.533730300028958438e-01,-1.517200355969127168e-01,-2.888019515132566051e-01,-1.782724910332979858e-03,-6.314260518727240611e-05,6.802106467176813548e-04,1.363030523061752319e-01
-1.541406160571627826e-01,-1.370604216110141715e-01,-2.802678003457284572e-01,-6.498323965411185316e-03,-1.143769927406325338e-03,1.499996598296158895e-03,1.359832137823104858e-01
-1.517142970039377647e-01,-1.523298490352034962e-01,-2.886358541457867966e-01,-7.355270519696057363e-04,1.107578347187288501e-05,-4.734515824574897416e-04,1.366232186555862427e-01
-1.857111162510484692e-01,-1.739572902983209102e-01,-2.347498558492379095e-01,-1.775643299840798384e-02,4.231578120859920411e-02,-3.341681431255892620e-02,1.130802482366561890e-01
-1.536492536108225448e-01,-1.533313273732145876e-01,-2.419805485765658959e-01,-6.948826152485159877e-03,-3.276417164941217153e-03,2.254005584217848475e-03,8.957067877054214478e-02
-1.391002802727706600e-01,-1.468138852018669727e-01,-2.933294032908341231e-01,-1.075268795976005998e-02,-1.643637762937669514e-03,1.796653159032073153e-03,1.517270803451538086e-01
-1.277907062776200142e-01,-1.632465393546365384e-01,-2.544623865278646813e-01,-6.337814022671571859e-03,-2.370664981884057498e-02,1.660670698111744309e-02,1.242797151207923889e-01
-1.422782101003826627e-01,-1.224708704202532028e-01,-2.864059711616461779e-01,-1.468636894602110866e-02,-1.523735818859130262e-03,6.866343700509242205e-03,1.575290560722351074e-01
-1.488125950747362647e-01,-1.489144597503581080e-01,-2.869128442692286951e-01,-1.632823671443257157e-03,-2.698897329036778416e-04,5.624606456133402193e-04,1.380825340747833252e-01
-1.422194139981902972e-01,-1.511134638141392594e-01,-2.838360910334065124e-01,5.153792081388653551e-03,1.002371138227833858e-03,7.450795047951512626e-04,1.376924365758895874e-01
-1.522474777437683446e-01,-1.491537841259910901e-01,-2.895323871444838160e-01,-9.989848091939120336e-04,-6.911819954354707276e-04,7.641898993675402916e-05,1.388736069202423096e-01
-1.433756558429820360e-01,-1.541781369898206078e-01,-2.150255539817501338e-01,3.754758703296836968e-03,-2.347073785631923967e-03,-7.558783344534052671e-04,6.735680997371673584e-02
-1.529143493025332257e-01,-1.529025396670862791e-01,-2.892815625079676600e-01,-6.836876344423558445e-04,3.664414284185451708e-04,-4.487929514151179624e-04,1.363819539546966553e-01
-1.515451924958305940e-01,-1.334960511458749555e-01,-2.821044880159736534e-01,4.501433525862096052e-03,-4.754462115240762235e-04,-2.678061586428030511e-03,1.407514363527297974e-01
-1.374883597354378262e-01,-1.408321766725680324e-01,-2.381012891238162288e-01,1.490921015312036448e-02,-2.056959726428867277e-02,-2.195868014051178749e-02,1.148061007261276245e-01
-1.349413223507345827e-01,-1.490201892840016806e-01,-2.213315615103381984e-01,7.708940546927780905e-03,-1.219812122403031787e-02,-1.137160498363582947e-02,8.635865151882171631e-02
-1.461674291217959221e-01,-1.361308166354323890e-01,-2.852271874635127769e-01,3.838532845546448798e-03,-4.520463712125745697e-04,-9.862270724170965185e-04,1.445052623748779297e-01
-1.611576485805281123e-01,-1.276239493704815486e-01,-2.800287781404011689e-01,1.277469318846665043e-03,-1.624174880895004223e-03,-3.040438829160947709e-03,1.388581544160842896e-01
-1.555985189367843358e-01,-1.237957202791927086e-01,-2.786521560537097431e-01,6.865980244527103253e-04,-7.001653743179560687e-04,-1.755549491074441656e-03,1.417010873556137085e-01
-7.554813749782635091e-02,-1.476254760546065470e-01,-2.928612448079478403e-01,1.444363413248916060e-02,3.575798177529559974e-02,1.197397096869680898e-02,2.040800452232360840e-01
-1.459404456084825163e-01,-1.459058088712038848e-01,-2.709350875187411800e-01,8.033340295307380904e-03,-1.512672624097366079e-03,-1.025694764819794257e-03,1.258237510919570923e-01
-1.428031320805063786e-01,-1.701802343653384120e-01,-3.232985214904944282e-01,7.427062480545748926e-03,-4.930069412236006213e-03,-5.934060663186393504e-03,1.695013046264648438e-01
-1.314570858441770906e-01,-1.523604115150927751e-01,-1.534874329493249034e-01,-1.106816320116409992e-02,-6.858394344618086447e-02,4.487175558132936587e-02,1.448481529951095581e-01
-1.512335624119716948e-01,-1.430720210943703941e-01,-2.854462911657081325e-01,5.206044558326676508e-03,-7.274730781838735657e-05,-7.722035877909533405e-04,1.387737840414047241e-01
-1.766053359380451160e-01,-1.488263136779190976e-01,-2.359163858428214022e-01,-7.725403888893109770e-03,2.088727204152133338e-02,-3.631568320125855981e-02,1.066838502883911133e-01
-1.022111032055813551e-01,-1.339614170172508389e-01,-2.967689399791366700e-01,3.080274262562803303e-02,3.090175219256438219e-02,1.525553609343558749e-02,1.977193355560302734e-01
-8.663365949342881345e-02,-1.202370019280480928e-01,-2.817099396969933722e-01,4.032539528588610644e-02,-2.474448713750859036e-02,-1.450398318157847082e-02,1.999377459287643433e-01
-1.449267215132637454e-01,-1.631039745289951381e-01,-3.148892509116253957e-01,1.666111467468805313e-02,-7.357263014900946099e-03,3.637529980796171299e-03,1.648122668266296387e-01
-1.435647127702196491e-01,-1.524881213691189064e-01,-2.898865066329415208e-01,-4.455073984956391120e-03,-2.200488682060460421e-04,3.374244206156890480e-04,1.422815322875976562e-01
-1.568484002133884725e-01,-1.258327652704847865e-01,-2.803829812848377956e-01,4.027191093419497242e-04,-1.848153367884384308e-04,-9.178891827498673970e-04,1.416240930557250977e-01
-1.333808044743734489e-01,-1.518373927767927567e-01,-2.897333763447856869e-01,-7.467496211815162314e-03,-3.339927596273351788e-03,1.206649062306823072e-03,1.486814022064208984e-01
-1.430173923388103896e-01,-1.570269366831795743e-01,-2.890218520896765675e-01,-1.676251682858621774e-03,5.032921534046970588e-04,8.469124615195312898e-05,1.395611912012100220e-01
-1.476716636529416260e-01,-1.580563160531366640e-01,-2.919408910395488999e-01,-1.049920984029380959e-03,-6.698567161481413634e-04,1.300888574273447471e-04,1.393842548131942749e-01
-1.525935834358956578e-01,-1.269786807040836352e-01,-2.802558053515968872e-01,1.275077468813808632e-03,-6.278943228401336844e-04,-1.689336537925036378e-03,1.422618776559829712e-01
-1.484399757102247419e-01,-1.551617323926544334e-01,-2.893382755881256374e-01,-9.778756815931254846e-04,-1.568424481217335631e-03,-7.440948536175674135e-04,1.377038061618804932e-01
-1.430723244506506286e-01,-1.530574120732420551e-01,-2.882229720506683801e-01,-3.397500635131298595e-03,-1.540736003992116115e-03,5.309281695224293612e-04,1.405761986970901489e-01
-1.459574963085916166e-01,-1.601225556948903117e-01,-2.948577804462099716e-01,-1.513296735885022752e-03,7.880580572921983386e-04,-1.374574691060391572e-03,1.423979103565216064e-01
-1.611568088024887824e-01,-1.485979186736273161e-01,-2.812805073467220529e-01,1.258885688137821764e-02,-2.884235961236922708e-03,-9.441704177508912499e-03,1.298610121011734009e-01
-2.012069292470607673e-01,-1.726580004807944380e-01,-1.640474189185197607e-01,-6.024171570673260423e-03,3.907556024529255240e-02,-8.835391559459913891e-02,1.710082441568374634e-01
-1.441681473166225025e-01,-1.394155338845270986e-01,-2.858384599587254771e-01,3.786932852789780864e-03,-7.959816578779604088e-04,-1.584065955720163118e-03,1.442872881889343262e-01
-1.375186137237378869e-01,-1.449113035483888257e-01,-2.861537905517623215e-01,-2.273914549115870105e-03,9.793355062367339707e-04,-2.723664494337251678e-04,1.451442986726760864e-01
-1.446081993107157793e-01,-1.426159165941593976e-01,-2.869198061851045978e-01,-1.659199195523903799e-03,1.151651071937445620e-04,-8.047379476456396159e-05,1.433471441268920898e-01
-1.504378652377739989e-01,-1.367830798433056771e-01,-2.882179775488275530e-01,1.412456925477091315e-03,2.672366975638613905e-05,4.606473703956184287e-04,1.451130360364913940e-01
-1.364901756721950687e-01,-1.440716616373649006e-01,-2.848008897136766748e-01,-2.167792013652385195e-03,6.355089608676579155e-04,-4.822826406924404005e-04,1.447243541479110718e-01
-1.539761654406087144e-01,-1.347105521548858653e-01,-2.864242662597117350e-01,2.184328521156064622e-03,7.756670658270292239e-04,2.646734547771480497e-03,1.431869119405746460e-01
-1.422493706095918908e-01,-1.433655594931141641e-01,-2.875147902951152856e-01,-1.049123960900741467e-03,9.659356121383639107e-05,1.109998192143516409e-04,1.447221934795379639e-01
-1.472201835774792633e-01,-1.469106988098505540e-01,-2.894510058078982873e-01,-7.418901099728788260e-04,-2.735062327571636474e-05,5.429638290878497373e-04,1.423947215080261230e-01
-1.505437918800393293e-01,-1.354257232975682457e-01,-2.528710239754720090e-01,-6.253906907401959175e-03,-2.248707510249602515e-03,2.967215812303518330e-03,1.113791987299919128e-01
-1.393510368870465865e-01,-1.252366052806200558e-01,-1.589010811232536013e-01,-1.104722178418026529e-02,-2.951869240963630667e-02,4.295822929685030184e-02,9.681823104619979858e-02
-1.405136757477347120e-01,-1.399678749774034558e-01,-2.837801677588159266e-01,-3.318443996348350959e-03,1.021164553874166553e-03,-8.687620116363251781e-04,1.436739712953567505e-01
-1.320689885595138779e-01,-9.573550434205933823e-02,-1.258791833756850720e-01,1.224974842475161363e-02,2.444653198842039465e-02,6.676992054360683659e-02,1.294267028570175171e-01
-1.582330230212287692e-01,-1.363619274513361845e-01,-2.746456801141946014e-01,8.380942604406188892e-03,4.869089976397025787e-03,7.806719878809470665e-03,1.305411905050277710e-01
-1.555689182943008619e-01,-1.317786425487334767e-01,-2.748165720496436593e-01,5.348788051660761760e-03,-4.101271650327586028e-04,1.600628133752478484e-03,1.331049799919128418e-01
-1.433544883402112780e-01,-1.503930929581554221e-01,-2.900747408505730540e-01,-2.866156257773936223e-03,-1.989474088883014908e-04,-1.479918262184992022e-04,1.434172093868255615e-01
-1.697942606885467498e-01,-2.724257201431986575e-01,-4.096807407653034749e-01,7.492227569737156499e-03,-9.575360053429249341e-02,-6.753664128894575937e-03,2.669650316238403320e-01
-1.762348373362845888e-01,-1.462124427711687380e-01,-2.772627312226706442e-01,2.188630046368562898e-02,2.639744244460005829e-02,4.396951189456334286e-02,1.531944423913955688e-01
-1.391867478130063562e-01,-9.125078228285585236e-02,-2.530572962138681326e-01,2.035828948139486658e-02,1.630816193207285103e-02,4.404205326161535899e-02,1.690656989812850952e-01
-1.231791186051612169e-01,-1.564158301058641287e-01,-2.800932156028623776e-01,-7.281067403014312251e-04,-1.622619022529884266e-03,6.874058476509641588e-04,1.432560980319976807e-01
-1.387148338634079936e-01,-1.591915819380314012e-01,-2.909553188537754020e-01,-2.427773660643848044e-03,-1.941255619469899876e-03,1.248884970201582069e-03,1.432226896286010742e-01
-1.650146369154034121e-01,-1.291801742105295192e-01,-2.940525313670440677e-01,9.613898415309963836e-05,2.361375711337624413e-03,1.149381570351454621e-02,1.515650749206542969e-01
-2.375917036075344546e-01,-1.747380797566520649e-01,-3.644540757568262013e-01,1.003430701554904741e-02,-8.793161197236179505e-03,4.599443301374381982e-02,1.868124306201934814e-01
-2.051342469819437409e-01,-1.657108898393727381e-01,-2.638156812987482169e-01,6.789893292280669256e-03,1.638945151328420266e-02,5.152190596774928327e-02,1.273530572652816772e-01
-1.352138520160466595e-01,-1.506225450257807352e-01,-2.784266478356561825e-01,6.339096065366162797e-03,-6.004394339023009456e-04,2.989793971063891179e-05,1.366098374128341675e-01
-1.437746261894400912e-01,-1.368967610072403251e-01,-2.730782831523225762e-01,7.456419550275258240e-03,-1.025404028078759962e-03,-2.333378166523133925e-03,1.335752904415130615e-01
-1.445633006304231361e-01,-1.401031568405676775e-01,-2.621235776144742458e-01,9.684056936758307990e-03,-3.623710361979243927e-03,-1.243066768094043800e-03,1.212023943662643433e-01
-1.344336538172035966e-01,-1.328992557153751142e-01,-2.426306760723974387e-01,1.008616717142585446e-02,-6.278147644027278103e-03,-6.911995081379008338e-03,1.115425154566764832e-01
-1.317529115946390605e-01,-1.383438422043632710e-01,-2.302005421075456748e-01,-1.344222156930086932e-02,3.236098070055361264e-02,-2.443482791174420021e-02,1.206709444522857666e-01
-1.496972266041859956e-01,-1.648822561921436947e-01,-2.565641652725608735e-01,4.232823274128695579e-03,2.247743743870090835e-02,2.472645623641090903e-03,1.077782362699508667e-01
-1.500183416166427919e-01,-1.651756396683468631e-01,-2.627708558265372529e-01,2.572261015739365012e-02,-3.014837451238696134e-02,-3.616789487775223105e-02,1.409607380628585815e-01
-1.609480209486967572e-01,-1.573268228044184258e-01,-2.532064245973905114e-01,8.571422991503563696e-03,-1.989149574137334415e-03,-3.924898371839540510e-03,9.558925032615661621e-02
-1.592893348845604296e-01,-1.382659409504450598e-01,-2.877392101020404547e-01,7.018780945978109718e-03,-3.241705842120409754e-04,-3.611878658555631692e-03,1.408156454563140869e-01
-1.333225989654911181e-01,-1.518156589764442510e-01,-2.394619771628408444e-01,3.662378749896307798e-03,4.894728277729441107e-03,-5.088004956642840386e-04,9.878061711788177490e-02
-1.624376444473537018e-01,-1.662314852217842420e-01,-2.570863250519435095e-01,6.914746999454749257e-03,-2.661249273262333414e-03,-2.167668838142841354e-03,9.376816451549530029e-02
-1.269462403322247357e-01,-1.485332029235042761e-01,-2.749823258082984001e-01,7.580340099399789262e-03,-1.003992272445568615e-02,-4.469963312478701309e-03,1.404270529747009277e-01
-1.531221531929842228e-01,-1.370129055872761625e-01,-2.534299742270164080e-01,-8.431230776698309462e-03,3.976569353996024770e-04,-1.801203978982305514e-03,1.102747246623039246e-01
-1.542886929765254211e-01,-1.275560263627679158e-01,-2.798375826914843434e-01,2.217461379556779234e-03,3.490644431594915834e-04,-1.320717142348893421e-03,1.409033983945846558e-01
-1.564605604888050783e-01,-1.361509425995192646e-01,-2.791317778516904102e-01,5.001621202494452995e-03,-3.225838705213146854e-04,-2.268712385363735266e-03,1.343239247798919678e-01
-1.604460349137548369e-01,-1.234035799518470033e-01,-2.707669215820898700e-01,1.525428247299198811e-03,2.879263153169756353e-04,-7.799896323015607057e-03,1.334883570671081543e-01
-1.293122859722950491e-01,-1.506600999958200571e-01,-2.595819443931818848e-01,8.000603805908949179e-03,-3.681162150007730605e-03,-1.977695335917792081e-03,1.220219507813453674e-01
-1.492363538542301749e-01,-1.294241434794387025e-01,-2.788146114883728321e-01,2.690415197047174838e-03,-2.172846499769732088e-03,-1.658705111750891645e-03,1.406926214694976807e-01
-1.512675880143999896e-01,-1.185344511154515640e-01,-2.713726737914441411e-01,4.077436841288513067e-03,-1.288992495105414004e-03,-1.143695775729809683e-02,1.409800648689270020e-01
-1.470108644422900845e-01,-1.369063378439358825e-01,-2.868560227478699765e-01,1.609337890780943763e-03,-3.022527195662627814e-04,-6.946241712774471090e-04,1.451941132545471191e-01
-1.368743693413567719e-01,-1.284969540957759115e-01,-2.666388612955593596e-01,1.364363170327452524e-02,-1.245454800858796993e-02,-1.261197802026544842e-02,1.396319270133972168e-01
-1.575894713710239980e-01,-1.348929209699940013e-01,-2.791207274028109642e-01,6.467534038804143535e-03,-2.934233983812174155e-03,-8.141776639831736079e-03,1.356226503849029541e-01
-1.584262931919199202e-01,-1.323582688650627170e-01,-2.584019646333540754e-01,3.335887046510856418e-03,2.730056504163368841e-04,1.001414925307244665e-02,1.166846305131912231e-01
-1.533564070081742392e-01,-1.297152968281270746e-01,-2.836849221079285055e-01,1.323182181269872380e-03,-8.546721192182795681e-04,-9.258179230795372892e-04,1.436507850885391235e-01
-1.616293147450043322e-01,-1.291425015863449377e-01,-2.693639260515680589e-01,2.479802788588332790e-03,-7.234721438869614425e-05,1.521118398244586519e-03,1.272301077842712402e-01
-1.541096458294806681e-01,-1.705112525702761894e-01,-3.105376309983347571e-01,-3.011889530091462711e-03,8.650982570048275388e-05,3.383654190412410494e-03,1.491128504276275635e-01
-1.507918267320528249e-01,-1.237094194309085182e-01,-2.701367496016848779e-01,-3.720486302421447105e-03,-1.268500138898580234e-03,4.361333127643115051e-03,1.353226900100708008e-01
-1.395559456896478534e-01,-1.072946707496952728e-01,-1.852978185118900334e-01,1.536234877008160228e-02,-2.886685856563033642e-02,-6.675769280567392383e-02,1.455556899309158325e-01
-1.597724654507715614e-01,-1.279060600285951144e-01,-2.817825901549720347e-01,2.146113580769752442e-03,-1.127656974169998513e-04,5.172701747793141680e-03,1.410109549760818481e-01
-1.533928185109278974e-01,-1.481572391289187884e-01,-2.903123933039014615e-01,1.563387166546807358e-02,-1.003701767904826431e-02,-1.119623193891246433e-02,1.445779353380203247e-01
-1.517112638436871330e-01,-1.508331627854359591e-01,-2.723087579615321441e-01,1.299180849356294451e-02,-9.313597689399511284e-03,-6.955481943550155879e-03,1.247483491897583008e-01
-1.568576950105257661e-01,-1.295179157952658366e-01,-2.676278688419311269e-01,3.201092231965125059e-03,-3.346486956600408557e-04,1.668183125703739901e-03,1.268280446529388428e-01
-1.544536275386987900e-01,-1.650143783461058833e-01,-2.858650167920135932e-01,2.095575876941974114e-02,-3.817914156624284405e-02,-2.737960716892948870e-02,1.546996384859085083e-01
-1.457354864633655933e-01,-1.489878214304424242e-01,-2.869561811971611531e-01,2.503437606763279661e-03,-2.813251201027471048e-04,-1.231348196286833686e-04,1.396912634372711182e-01
-1.529386703965429362e-01,-1.344488426655165159e-01,-2.399498168883552607e-01,-2.067483878232515525e-03,8.005931595452334126e-04,2.121839235765460904e-03,9.772352874279022217e-02
-1.456349002507500157e-01,-1.486192740091824838e-01,-2.870958120983491124e-01,2.379266049024979929e-03,-3.609786696245117902e-04,-5.640416411396626981e-05,1.400546580553054810e-01
-1.524629493806822500e-01,-1.441377681249640386e-01,-1.656189674835331915e-01,-4.448775223389727371e-04,-1.036258425488071396e-03,-1.878700395642840179e-03,1.913947425782680511e-02
-1.500877735106806721e-01,-1.505732210100723112e-01,-2.895824917810077004e-01,1.771499419899132122e-03,2.145496584852269524e-04,1.811856986208183350e-04,1.392872780561447144e-01
-1.343869168964290650e-01,-1.517577945275943030e-01,-2.641702314814655672e-01,8.416370433387282066e-03,-6.198227159757764906e-03,-1.303138439123424164e-03,1.233850121498107910e-01
-1.564559007947854685e-01,-2.021223782665040325e-01,-2.686212922516121315e-01,8.605950140301365592e-04,5.128682765055985610e-02,2.432834894889730499e-03,1.321184933185577393e-01
-1.553283558037605316e-01,-1.423441985057389836e-01,-2.139655385726902947e-01,-8.190157164947211698e-04,-1.457433881329104914e-03,4.020983621874134328e-03,6.652181595563888550e-02
-1.471465916493026327e-01,-1.459349179434688559e-01,-2.876073869688158258e-01,9.844828261390404893e-04,-2.655575207059848730e-04,5.332177529404369962e-05,1.410816162824630737e-01
-1.481728330038148411e-01,-1.283844469432777746e-01,-2.796789098730090295e-01,1.252612809903467378e-03,1.489628606101866615e-03,1.271633585154957787e-03,1.424918770790100098e-01
-1.455926611174271357e-01,-1.500164345598428428e-01,-2.892158963830602225e-01,3.536771067654023628e-03,-1.495329531787970316e-03,-7.077497706816770091e-07,1.416194885969161987e-01
-1.535757504564730092e-01,-1.338849583498849527e-01,-2.407329144315790148e-01,4.075299305862781392e-03,7.394520564243356161e-04,-3.659934510717176119e-03,9.895424544811248779e-02
-2.434560240875536241e-01,-1.945332114259087641e-01,-3.016732110418490764e-01,-2.249708510992144000e-02,3.528036102311639388e-02,-9.022010636767981151e-02,1.957097351551055908e-01
-1.578411100458972927e-01,-1.568502700700341035e-01,-2.838440938243724232e-01,-1.302977512455657551e-02,1.682777138554216595e-02,-4.040854992388518557e-03,1.319485306739807129e-01
-1.507570533868613505e-01,-1.530979593164767949e-01,-2.907085269451583631e-01,7.388629025727697390e-04,2.998966517026980085e-04,6.641664437209728305e-04,1.388074606657028198e-01
-1.490195816059886602e-01,-1.628428020822833555e-01,-3.025705679104978008e-01,5.459797762074659194e-03,-2.018684463615494275e-03,-1.636148022590396326e-04,1.474725455045700073e-01
-1.496476456430552160e-01,-2.206032547363976082e-01,-3.856166113593525457e-01,5.001526590968511515e-02,4.153614887303363340e-02,-3.522075996966449879e-02,2.457123696804046631e-01
-1.547301047743168123e-01,-1.903801938832326845e-01,-3.377372839585769948e-01,7.357234441301712877e-03,-4.686770426920435460e-03,8.457497807926201219e-03,1.693552732467651367e-01
-1.321086568989947585e-01,-1.591950425076029130e-01,-2.885722657859300377e-01,3.217746484897168269e-04,1.773599916971837164e-04,-7.246176161080066175e-04,1.448394954204559326e-01
-1.093834500631028772e-01,-1.204434269843043526e-01,-8.228268538342073390e-02,-4.583315015564281766e-03,-4.112166542487717680e-02,3.416734805593801133e-02,9.896830469369888306e-02
-7.529437527545797260e-02,-1.467660638815149188e-01,-3.036629264417917140e-01,3.068808276992344292e-02,-4.144383826743618625e-03,-6.491431340541541995e-04,2.093241065740585327e-01
-1.398440095565332553e-01,-1.246944156032153417e-01,-2.544005295168124681e-01,-1.289866591360631053e-02,2.414166225694590676e-02,-4.082096533304064440e-02,1.494484245777130127e-01
-1.288699559561123087e-01,-1.527799573840762926e-01,-2.810586884935603602e-01,1.289402271618481002e-03,4.712574700161083815e-04,-2.337101856685815397e-04,1.417747586965560913e-01
-1.052201080980149916e-01,-1.687491452257866564e-01,-3.391741281137322650e-01,2.616095751619246582e-02,-2.957126803062066350e-02,-3.566153488461362708e-02,2.289090454578399658e-01
-1.202599465694167286e-01,-7.019035427350153733e-02,-1.681244151541196885e-01,5.586285827978393174e-03,-1.784750360048970377e-02,-7.365630913501933219e-02,1.565870344638824463e-01
-1.362398648445422855e-01,-1.108533860523669978e-01,-2.024267266349189243e-01,2.025457044483378738e-02,-4.486132560334007285e-02,-7.521834259215164076e-02,1.759181022644042969e-01
-1.698445727442996767e-01,-1.560727938409237625e-01,-2.130817647118776748e-01,1.275723431983531502e-04,5.696685601863401806e-05,-5.024948971968184325e-03,5.225302651524543762e-02
-1.383877455766496511e-01,-1.688926714966795251e-01,-2.840113926374761011e-01,-2.271270651005504425e-03,-1.082058357069743196e-02,1.888604153671201522e-03,1.344321072101593018e-01
-1.272373862168850178e-01,-1.573390757055344868e-01,-2.813693335793776007e-01,-2.635725235619188443e-03,-3.485821653450571055e-03,7.586140101533135312e-04,1.417115330696105957e-01
-1.601343261243424188e-01,-1.276820511646120093e-01,-2.806189576509511840e-01,3.079753810966672357e-04,5.795848144046379923e-05,-6.269636469971296127e-04,1.395749598741531372e-01
-1.547027715201063358e-01,-1.307754122087084747e-01,-2.836944508687552213e-01,-1.059330398192926152e-03,7.466251227919876252e-04,-2.662957463437827803e-04,1.424887776374816895e-01
-1.673454238817591866e-01,-1.324654136072216937e-01,-2.778230238679168518e-01,5.647515102848268184e-04,6.429615123910169304e-04,-1.662800061457736771e-03,1.314757317304611206e-01
-1.472245769110963887e-01,-1.343377838012815295e-01,-2.371244772160784886e-01,7.225607552151757686e-03,1.565187142187192144e-03,-3.702961297367987278e-03,9.803926199674606323e-02
-1.324866082544856050e-01,-1.520140886752163190e-01,-2.849824279959327078e-01,-4.049934942267612720e-03,-2.124912606352368123e-03,2.400064182862212986e-04,1.439491659402847290e-01
-1.473126242312965684e-01,-1.476592874058543781e-01,-2.832449059094974686e-01,-7.936972472493974973e-03,1.863914019070508129e-03,-3.143787547802178069e-03,1.366003006696701050e-01
-1.302427423709847654e-01,-1.546736695292455499e-01,-2.815669894560450248e-01,-1.252325062171292299e-03,-1.034268555845586340e-05,1.522981879202644573e-04,1.407255530357360840e-01
-1.248415386582004127e-01,-1.562836095743100617e-01,-2.807449080116782292e-01,1.080163746703289456e-04,-1.904302240714984048e-03,-4.747238410310060429e-04,1.428430229425430298e-01
-1.468744423396931842e-01,-1.195348746930840200e-01,-2.648594368112013875e-01,-3.468045488473718834e-03,-2.748385651554353221e-04,8.799821357459717414e-03,1.347671598196029663e-01
-1.613099984231035622e-01,-1.340805349613859443e-01,-2.756284657214060352e-01,-4.302805589401812771e-03,1.193030390744925654e-03,2.110429658323450912e-03,1.303693205118179321e-01
-1.679466290503571491e-01,-1.403970474998392226e-01,-1.872706922821262276e-01,6.193680198490651018e-03,-9.255733697275990782e-03,8.649077188761702950e-02,1.564570814371109009e-01
-1.561971692778000853e-01,-1.342076074400769814e-01,-2.713228473667161911e-01,-9.533165957765822943e-03,2.264646330291573647e-04,5.787274166201688934e-03,1.290050446987152100e-01
-1.546199136328592627e-01,-1.296861210734304160e-01,-2.842853199388070129e-01,1.326456410595313771e-03,-1.957160279007458085e-04,1.411936175802722343e-03,1.438027620315551758e-01
-1.320248370968483131e-01,-1.394437730443514600e-01,-2.682146326192174079e-01,-1.868109077737528656e-02,-1.461061808229503420e-02,1.464837253600634499e-02,1.411502808332443237e-01
-1.367612207461167406e-01,-1.358296005547945939e-01,-2.744048183083325210e-01,7.883107144101075131e-03,1.302621328330984480e-03,2.374945624254964829e-03,1.388643234968185425e-01
-1.780019663906988181e-01,-1.516729819252304878e-01,-2.723234010475338307e-01,1.269418446268367161e-02,1.028437733194331218e-02,2.572451986392337159e-02,1.218979954719543457e-01
-1.440684186678271028e-01,-1.287780358708294770e-01,-2.607524752460359529e-01,-7.713733796264518258e-03,-2.628632713859130766e-03,5.873495773720592214e-03,1.262372285127639771e-01
-1.562148105652161334e-01,-1.274133837410041381e-01,-2.838840304820742788e-01,-1.291751817556855385e-03,-7.604630636045522484e-04,1.242912022600368722e-03,1.442822962999343872e-01
-1.308038274976366100e-01,-1.602575961379084368e-01,-2.905362909296030915e-01,3.610187361095501643e-04,1.875982541595060896e-03,3.839584346154001999e-04,1.472706794738769531e-01
-1.530111309736431613e-01,-1.499589466526565218e-01,-2.910145511596838874e-01,3.261876883236400283e-04,-9.490049503863449629e-04,-1.217759667300794164e-04,1.395655274391174316e-01
-1.563451471354252720e-01,-1.283078132675782301e-01,-2.832720647605374009e-01,-1.999769836973429131e-03,-1.345383804532907001e-03,7.006298163836517916e-04,1.430878341197967529e-01
-1.485922788907775294e-01,-1.510741851454752704e-01,-1.763558008342193950e-01,1.870937599040823707e-03,1.434491019827631919e-03,6.541262616385803670e-04,2.694484591484069824e-02
-1.557294564903290435e-01,-1.266804194755614676e-01,-2.831686725731544230e-01,-1.304072124088234783e-03,-7.382892108192891552e-04,9.641583008014232735e-04,1.442085802555084229e-01
-1.470757557558191597e-01,-1.330131529590410644e-01,-2.776263404005299695e-01,-5.472236526928431558e-03,-1.176719346221648038e-03,2.397671161630253109e-03,1.385219395160675049e-01
-1.493437465748363169e-01,-1.319088784971239880e-01,-2.835558268314398167e-01,-2.385535488894047033e-03,-1.160487646036555392e-03,9.158215554863232116e-04,1.438070088624954224e-01
-1.441114451461356361e-01,-1.430248299256569877e-01,-2.868267956979040911e-01,2.717202910474503350e-04,2.500140234041125869e-04,7.476521887367003577e-05,1.432632356882095337e-01
-1.441238980671240566e-01,-1.447664812171998716e-01,-2.751544253259251560e-01,8.948525941424296734e-03,7.633541901792451241e-04,9.075444808258086764e-04,1.316421777009963989e-01
-9.275167183984972530e-02,-1.043239367610956647e-01,-2.467579935011879333e-01,4.708172796626742401e-02,4.273277704763715074e-02,3.250061855677617573e-02,1.933051198720932007e-01
-1.506537683094562041e-01,-1.286346709842550728e-01,-2.789028828155395434e-01,-5.171142418594659035e-03,1.202046713850990489e-03,-1.909439030767279321e-03,1.408974826335906982e-01
-1.599323488124372306e-01,-1.317154383296662568e-01,-2.797270454308590781e-01,-4.605918346106178084e-03,3.425958601719822079e-04,-2.345188536443510059e-03,1.364100277423858643e-01
-1.580709383637533549e-01,-1.281439864339941337e-01,-2.850650347802990980e-01,-1.874930086782932315e-03,9.944548153985196225e-04,-1.679285154024119176e-03,1.443801969289779663e-01
-1.586761750815856575e-01,-1.655596340290462487e-01,-1.970551171557374803e-01,-2.088235632147449755e-03,3.950546673120047640e-03,-1.252679206112683160e-03,3.634219989180564880e-02
-1.552476399621917913e-01,-1.694134621317316403e-01,-2.410721177122406855e-01,1.324414067831911936e-02,3.269799558340316659e-02,3.488320190529161507e-02,1.171962022781372070e-01
-1.545295803551345881e-01,-1.252957389131732491e-01,-2.751338812246181265e-01,-2.617818277883078148e-03,5.756404957240351559e-04,-2.092343200831873681e-03,1.376968771219253540e-01
-9.265851988632971270e-02,-1.231858916054449499e-01,-2.598978861786321870e-01,3.121076823022123775e-02,-4.247249103173037638e-02,-2.223461031883585889e-02,1.833378225564956665e-01
-8.925971100333537911e-02,-9.898167592146522864e-02,-2.549394381691780925e-02,5.051267713532293056e-03,-3.936981766586552384e-02,-1.612787201550437699e-02,1.014265045523643494e-01
-1.555572322018099751e-01,-1.234160707726090211e-01,-2.769872835002536449e-01,-5.235517446563132038e-04,3.190543790526156149e-04,-1.853165164353142791e-03,1.403304785490036011e-01
-1.416725607045838664e-01,-1.396690918468933840e-01,-2.855623003764073964e-01,1.238362933400337070e-03,4.448491431016710659e-04,2.765364354062302995e-04,1.449205726385116577e-01
-1.973585027946452020e-01,-1.851813155456229765e-01,-2.790891699806632986e-01,-2.946397550427285600e-02,6.531507342384922088e-02,-8.081196741454876875e-02,2.069244086742401123e-01
-1.545974380408199345e-01,-1.297792389513443001e-01,-2.810794488343545394e-01,-1.058240084802050587e-03,3.521229984893431962e-04,-2.660212920586654665e-04,1.405583173036575317e-01
-1.593075333884649558e-01,-1.295707001153072468e-01,-2.707667038237003831e-01,7.954528437806646828e-04,-1.033087514042719222e-03,-1.427098152243268898e-03,1.289692968130111694e-01
-1.560602711642190832e-01,-1.252209075556642015e-01,-2.797413455275120642e-01,1.586105279534938363e-03,-5.244268174928958968e-04,-2.647983014928836400e-03,1.417452991008758545e-01
-1.605127087784226914e-01,-1.272148550223928254e-01,-2.823361218191444699e-01,2.711898258786206136e-04,-2.724129395803587001e-04,-8.541488166313404530e-04,1.414524018764495850e-01
-1.317215612278123948e-01,-1.252346276688023896e-01,-6.842525804394539168e-02,-5.950220011001195602e-03,2.539656366274799064e-03,-2.927120088252147326e-02,7.958566397428512573e-02
-1.518595771299700581e-01,-1.423634561546276156e-01,-1.900043012281008581e-01,-4.503304489232381677e-03,1.434116144499589631e-03,-5.113877114690947023e-03,4.530880600214004517e-02
-1.288266176599394963e-01,-1.361164400855878198e-01,-1.712808551857221973e-01,-2.090055849600666246e-03,4.066143074956965475e-03,-9.468075959376617487e-03,4.333196207880973816e-02
-1.195960711763794371e-01,-1.293261328150239753e-01,-1.176549513712012995e-01,1.277400154466671114e-02,-5.485703922716828745e-02,-3.832365986635374172e-02,1.184940859675407410e-01
-1.574288187045415621e-01,-1.290980994133715809e-01,-2.802049316335282203e-01,-2.125678126420852722e-03,-2.698789973008068588e-04,-6.105471387857476723e-04,1.391755491495132446e-01
-1.644656384875219091e-01,-1.331890379270419256e-01,-2.775592524678297535e-01,-3.921370345684223845e-03,5.706248692034504707e-04,-1.064539933249408505e-03,1.317424923181533813e-01
-1.565107781178440294e-01,-1.363927895202406981e-01,-2.436098053823726461e-01,-1.361291232255759480e-03,7.849298834315547634e-04,-3.406916381444576297e-03,9.892148524522781372e-02
-1.568597223735759272e-01,-1.251345210369929628e-01,-2.771041536823601881e-01,-4.117479618448431796e-05,3.619540629762001529e-04,-5.190478544753455341e-04,1.388567537069320679e-01
-1.518091640201931214e-01,-1.408840369210330457e-01,-2.897621718068608687e-01,7.130843442465706859e-03,1.192352604282143460e-03,6.223527962176399718e-03,1.446739584207534790e-01
-1.628789815831186982e-01,-1.375326324228960950e-01,-3.077758231241983777e-01,4.567120274547731285e-02,2.428101641573723532e-02,4.103005861430519818e-02,1.959255337715148926e-01
-1.559079134649995757e-01,-1.270112292305165258e-01,-2.718468354176623580e-01,-1.493567109613971227e-03,6.902592195713235044e-04,-1.014388033964998964e-03,1.328092962503433228e-01
-1.645463632526290021e-01,-1.315744153887363488e-01,-2.837203141403333850e-01,-1.877901158473273529e-03,4.307994003761304630e-04,-2.909140892810140652e-03,1.387642025947570801e-01
-1.496400480803104505e-01,-1.274464577328813519e-01,-2.881341931419060254e-01,1.604880896672661317e-02,8.466414281579133505e-03,2.957460793064065410e-02,1.623532325029373169e-01
-1.576497762902344946e-01,-1.361680503196059933e-01,-2.766534079416527736e-01,-7.480603966328500457e-03,4.746795131948114486e-04,-3.197301204931359258e-04,1.317140609025955200e-01
-1.136370762751998942e-01,-1.502307067560279263e-01,-2.701641326930147025e-01,-2.979835011318255483e-03,-1.213025651834191698e-02,2.567812130215304297e-03,1.435261964797973633e-01
-1.603169749737629324e-01,-1.290956577220008228e-01,-2.857482084104532860e-01,7.148812078348540378e-04,2.152202526098346072e-03,9.521674801985492709e-03,1.446074247360229492e-01
-1.407358029448038117e-01,-1.377756217949522299e-01,-2.824799288953315779e-01,4.084707105777812645e-03,9.777326415202150251e-04,9.404824500308311486e-04,1.434410065412521362e-01
-1.437495376075587361e-01,-1.447791514260387824e-01,-2.885563941736267735e-01,1.954446486563802578e-03,6.377812594085657794e-05,1.765139358852799677e-04,1.443348675966262817e-01
-1.173814074633348081e-01,-1.066492741156977453e-01,-2.571070561261628029e-01,4.008604640810965042e-02,3.716097474727968891e-02,3.439269747023734891e-02,1.834394931793212891e-01
-1.506656611079306152e-01,-1.513178412817723084e-01,-2.872159252330882540e-01,-5.798016958285521268e-04,1.131212457501893802e-04,8.709191098874979192e-05,1.362292766571044922e-01
-1.558805057100257352e-01,-1.520846272203938976e-01,-2.918105663317452358e-01,-2.728629937570329310e-03,-1.041924107648223920e-04,3.721064917177740604e-04,1.379498094320297241e-01
-1.528337119906426345e-01,-1.607302499006415530e-01,-3.006122608419021791e-01,-6.328347829063631774e-03,-3.861994983343628417e-03,-2.323705324619664177e-03,1.446202099323272705e-01
-1.504423199664892130e-01,-1.387036461322127823e-01,-2.874312444267531630e-01,1.292951183129458729e-03,-1.422316269186280817e-04,3.531535025526063394e-04,1.432385444641113281e-01
-1.539272880046126668e-01,-1.484236931600240728e-01,-2.897281759568223203e-01,-1.604023986734374758e-03,-1.288810382986788159e-03,-3.217454975482275702e-04,1.386815607547760010e-01
-1.619259756714701293e-01,-1.745071656154207618e-01,-2.287254823537889226e-01,-5.578459777646679061e-04,4.239783248586454813e-03,-1.713433546587335822e-03,6.199767440557479858e-02
-1.539607313115501641e-01,-1.494233871050184015e-01,-2.882250640326720625e-01,-6.963512750027729421e-04,3.364325402224773820e-04,-1.860599904164629559e-04,1.365964859724044800e-01
-1.319255391934722743e-01,-1.525975449688065921e-01,-2.844367350740654166e-01,2.854733898026209308e-03,4.469414584924753385e-04,9.163828859982188924e-04,1.433940380811691284e-01
-1.555190637113378627e-01,-1.589491515414293010e-01,-2.117471197362695290e-01,-2.122160823993066592e-03,4.868478507910693406e-03,-3.697851440931637385e-03,5.573268234729766846e-02
-1.525042165295727170e-01,-1.526155685626106873e-01,-2.880676101052361271e-01,-1.030808319884408270e-03,-1.606344983232930513e-04,1.867982485814999983e-05,1.355198025703430176e-01
-1.333203679215326787e-01,-1.430638844348134653e-01,-2.772899711723777472e-01,7.933750091829377266e-03,1.647041204952365105e-03,1.213843384505447921e-03,1.400742828845977783e-01
-1.534976390005380054e-01,-1.553446308289437305e-01,-2.902466873485921028e-01,-1.891880512097239694e-03,-5.977250783991901488e-04,1.664624101973998980e-04,1.358787417411804199e-01
-1.998184936062087358e-01,-1.232276869054307333e-01,-2.799576153326980843e-01,-9.094946532945128587e-03,3.479702320526550929e-02,7.605611115726568228e-02,1.991496831178665161e-01
-1.478383150328567985e-01,-1.473043375033389335e-01,-2.775544246950562011e-01,7.931062402111395404e-03,4.911249295150999904e-04,8.339274578288823764e-04,1.307185292243957520e-01
-1.498195284927873183e-01,-1.491686346525568641e-01,-2.878299505873477826e-01,-1.690781068136250039e-03,-5.665646775733601363e-04,5.280989644675515701e-04,1.383745074272155762e-01
-1.439549664183222555e-01,-1.441316523690347462e-01,-2.867967523982800082e-01,7.280221526969460604e-04,3.667460778478303431e-05,-5.125459357460113771e-04,1.427618712186813354e-01
-2.543818437396184184e-01,-1.994738202428416041e-01,-4.961729994702910318e-01,6.789171120690506989e-02,2.861424373019904460e-02,3.392242279983261749e-02,3.073930740356445312e-01
-1.332876321580127588e-01,-1.542399526649901320e-01,-2.715095701882111467e-01,5.458783455806888799e-03,-1.821330327614688761e-03,5.862305343219596191e-05,1.294124871492385864e-01
-1.554345633226062451e-01,-1.512685024707628723e-01,-2.912705381020745388e-01,-2.666168585862749817e-03,-1.217831408391527277e-04,2.208693349688086881e-04,1.380441486835479736e-01
-1.465538262543316927e-01,-1.503429425418602861e-01,-2.867137625460858819e-01,-1.216938054745049080e-03,1.321145036968151762e-04,-1.195350678068232258e-04,1.383207142353057861e-01
-1.738634792599936807e-01,-1.789538343427291289e-01,-3.284703963562464191e-01,2.881652725633994730e-02,2.019540441930492425e-02,3.374212799470710511e-02,1.739900559186935425e-01
-1.606290631631195620e-01,-1.587932998578970023e-01,-1.991207787264182016e-01,-1.735041903706736281e-03,1.328887575583124732e-03,-4.997693842559564753e-03,4.055741056799888611e-02
-1.356160997893035014e-01,-1.505824422138927199e-01,-2.467080464725839861e-01,7.064539638066031323e-03,2.739082977281820461e-03,5.408346524376064562e-04,1.052420064806938171e-01
-1.529549217170313724e-01,-1.530218901407919274e-01,-2.898764210934871577e-01,-1.125887973324590091e-03,-6.884395735249213477e-04,2.060906845134332678e-04,1.369075775146484375e-01
-1.497022051207031468e-01,-1.488825793276826182e-01,-2.868984097507220055e-01,-8.625083049213635522e-04,-3.789638708436546309e-04,3.170570914812981603e-04,1.376186162233352661e-01
-1.513868549198890967e-01,-1.522724196297216559e-01,-2.888628557999995961e-01,-1.021336497275913665e-03,-3.773308173406057808e-04,3.088284594715709572e-04,1.370493918657302856e-01
-1.508650448230919039e-01,-1.504540266853595654e-01,-2.866187016635638463e-01,2.193720165335171358e-04,-9.915965596597541660e-05,-8.825057555140688494e-05,1.359603554010391235e-01
-1.482856866999152923e-01,-1.519125248171532827e-01,-2.872373538490770040e-01,-8.236753389226752478e-04,4.274180525560729847e-04,2.430691320725608684e-04,1.371842771768569946e-01
-1.442438407768289466e-01,-1.538940305257430752e-01,-2.915893485247245676e-01,-1.096302373971349718e-03,2.307277071096907760e-04,7.665347263453135699e-04,1.427845954895019531e-01
-1.325055525538174905e-01,-1.552023329781530014e-01,-2.855802436074282857e-01,1.218852089463871727e-03,7.721793681840105226e-04,6.092008215186753067e-04,1.431085616350173950e-01
-1.409783196298974861e-01,-1.664854044727239191e-01,-2.564596680704797627e-01,-2.935456804811520295e-03,3.311562406324610342e-03,-4.383725999653047289e-04,1.053579002618789673e-01
-1.300740695352181064e-01,-1.616644931055664369e-01,-2.810812958300424880e-01,-1.868439339074798138e-03,4.549866633305609410e-04,-1.507733435331634652e-04,1.379924565553665161e-01
-1.521166452535704927e-01,-1.526436508405072390e-01,-2.882901261096760259e-01,7.456196987065213965e-05,-6.019399118666803202e-05,4.608418599824558272e-04,1.359131932258605957e-01
-1.458306211445394296e-01,-1.463620729018845490e-01,-2.190863326963032875e-01,-6.245321543247138972e-03,2.604955686021871632e-03,-4.252799738783769219e-03,7.429251819849014282e-02
-1.516909503323423114e-01,-1.407975377559766983e-01,-2.885713911282212774e-01,2.981920605692729796e-03,-1.177020375851734775e-04,-1.009011355731556387e-03,1.427437812089920044e-01
-1.591177840862196269e-01,-1.347397310248317770e-01,-2.916809283608075565e-01,2.704944540034166182e-03,8.283165708162140142e-04,-6.563723056219395065e-03,1.468065530061721802e-01
-1.426491642157985129e-01,-1.470657844955731153e-01,-2.878942022188998306e-01,-8.608104647157740477e-04,2.543298391352358766e-04,-1.396957661047514248e-04,1.430965065956115723e-01
-1.635416609069668403e-01,-1.161032360531418506e-01,-2.756287997754585106e-01,-1.185425468048581336e-02,1.633813098453565024e-02,-4.292541985807117599e-02,1.639552265405654907e-01
-1.579104058154822410e-01,-1.352431993186365977e-01,-2.837618607008212113e-01,-3.305236242017267363e-03,4.028543665116753004e-04,5.854136855199954925e-04,1.387060880661010742e-01
-1.289767072039622875e-01,-1.737069640044398011e-01,-2.987370968255969039e-01,-4.388999582913678810e-02,4.896368527997066455e-02,-2.229863135932728252e-02,1.941364705562591553e-01
-1.780721229790059312e-01,-1.157886607426160674e-01,-3.516904448896962521e-01,-1.596458301844511096e-02,3.113034651274171078e-03,-1.634846943286228163e-02,2.154799252748489380e-01
-1.443988720414992044e-01,-1.404395065842707901e-01,-2.862482000220727407e-01,-1.026411205002608499e-03,3.606023099335941033e-04,-3.401797697585977342e-05,1.438822299242019653e-01
-1.430806899008897071e-01,-1.448127704251315206e-01,-2.747491291922335988e-01,-8.602352189352948861e-03,8.095596659818938244e-04,1.125291541482455659e-04,1.316644400358200073e-01
-1.577384465098098931e-01,-1.296561398170598400e-01,-2.729756843202589822e-01,2.607799333935115291e-03,6.399014830512056006e-04,-1.654882273229995584e-03,1.316594481468200684e-01
-1.499534717201524980e-01,-1.261978686731156651e-01,-2.698279705171244269e-01,-4.565245104310693657e-03,5.858712103290886338e-04,-4.222780411802198630e-05,1.335869580507278442e-01
-1.754221258363474756e-01,-1.565032130098743535e-01,-3.365395873969209695e-01,-5.021958635565080403e-02,1.957703761859337296e-02,-5.112221923972956605e-02,2.142922580242156982e-01
-1.447742730157725588e-01,-1.354156743274985697e-01,-2.844022036116877761e-01,-1.909008408899356447e-03,6.940119404578586363e-04,-4.731144367400406275e-04,1.445797830820083618e-01
-1.476092137528502990e-01,-1.402713225711285094e-01,-2.807812708013498471e-01,-6.849849711003760076e-03,9.071975666725096111e-05,7.363155561710561228e-04,1.375072896480560303e-01
-1.666731173194177240e-01,-1.331498983331640407e-01,-2.999301378296805876e-01,-3.456026841499491246e-03,3.780488123791838034e-04,-1.197405246763757515e-02,1.543205678462982178e-01
-1.450552340772949256e-01,-1.435825596528288728e-01,-2.895891676973758599e-01,-7.218133122530632183e-04,3.519304401802702989e-04,1.446752122063636259e-04,1.452827453613281250e-01
-1.861009258875684358e-01,-1.379244725903199242e-01,-3.104398918416750863e-01,1.293828946669480298e-02,-1.152745231411073275e-02,-2.112400920373330715e-02,1.612788736820220947e-01
-2.025425955656056654e-01,-1.485959674415794352e-01,-3.533661885159002369e-01,-4.929924585457111201e-03,1.396685219926612452e-03,-6.202646328274662689e-03,1.843599826097488403e-01
-1.414554072133570872e-01,-1.435744062395474807e-01,-2.875752744637575242e-01,1.094926929679186037e-03,2.969369403278356479e-04,2.446348598173986246e-04,1.450859010219573975e-01
-1.435498948020897669e-01,-1.327651863229582507e-01,-2.771708156883244678e-01,7.029791576713111806e-03,5.831739184523097386e-04,1.312389731826147168e-03,1.398798227310180664e-01
-1.455221580221490452e-01,-1.458054385012602927e-01,-2.890147986574199135e-01,3.150427680118301002e-03,-4.694848754728247889e-05,-2.684720454985750618e-05,1.434550583362579346e-01
-1.497633666690753040e-01,-1.419410758671326989e-01,-2.831132638789868317e-01,4.506703674753431005e-03,6.108789165601166780e-04,1.412965776937044398e-03,1.376754343509674072e-01
-1.874361183686476251e-01,-2.094984390980602906e-01,-2.435920466534131079e-01,-1.890853970451145116e-02,7.374679929464758588e-02,-5.885500671426830560e-02,1.737279742956161499e-01
-1.437463596231112473e-01,-1.470583065406331214e-01,-2.883510492250300206e-01,1.447506950944700251e-03,-3.141634960871309630e-04,-1.487577630194554653e-04,1.430007368326187134e-01
-1.372902598843199207e-01,-1.457379619314628227e-01,-2.856709103993668730e-01,2.094184746549221984e-03,6.527285586713550431e-04,8.762542379466374673e-04,1.444002836942672729e-01
-1.305473131575491108e-01,-1.585447028437275141e-01,-2.908438904724080509e-01,-6.712216930828135940e-03,1.116102681135969221e-02,-1.644618639221090807e-03,1.500264704227447510e-01
-1.282520877215483079e-01,-1.581659954976547267e-01,-3.003771587136104815e-01,-1.762704696912462468e-02,1.883620690398983208e-02,-9.075391054508614996e-03,1.661823838949203491e-01
-1.671022063958988724e-01,-1.760133384477633456e-01,-3.022766747976058932e-01,-2.005433121132145155e-02,3.557987363714228829e-02,-1.762149989609243864e-02,1.519304066896438599e-01
-1.332033351772763385e-01,-1.623187468149837054e-01,-2.968379142017454897e-01,-2.990221891995712561e-02,3.957965088409028803e-02,-2.414603650797807546e-02,1.788598895072937012e-01
-1.378412732523399131e-01,-1.537362325901707183e-01,-2.880813902546620620e-01,4.386570177647944324e-03,1.885312409841040761e-03,3.724113605249171669e-04,1.431973725557327271e-01
-1.638638713035508454e-01,-2.099457088743593158e-01,-2.541133189094091915e-01,-1.061124881833814398e-02,8.800759436709218453e-02,-5.872385703546932623e-02,2.000722885131835938e-01
-1.252246561700692817e-01,-1.576493052056063549e-01,-2.801323350321613392e-01,6.470219146947168987e-04,3.391752827827533567e-03,-1.297534127880005340e-04,1.416359394788742065e-01
-1.339896609584241560e-01,-1.483926485841906839e-01,-2.837550014143140897e-01,1.688109671652108200e-03,7.196108328857640497e-05,-2.395574603303862466e-04,1.431389898061752319e-01
-1.008814182034997176e-01,-1.293406188318384498e-01,-1.969108617110501003e-01,-2.849928119465391929e-02,7.559716206660292703e-02,-4.171647410380823623e-02,1.791671663522720337e-01
-1.478592172525385051e-01,-1.608183806474340338e-01,-2.958371482596913737e-01,-1.001617584882865666e-03,-4.284361855265499900e-04,1.264775717174766939e-03,1.419721692800521851e-01
-1.286873104231489318e-01,-1.577521662083758158e-01,-2.881785965936998206e-01,3.912176536531739024e-03,7.481894285031560204e-03,7.456345162443455679e-04,1.478585898876190186e-01
-1.544377681282743942e-01,-1.465216222424822745e-01,-1.977346071325674082e-01,5.764891703304466167e-03,7.334944998858923450e-04,1.215616624793836378e-02,5.314752086997032166e-02
-1.532513483733294879e-01,-1.518848394612267172e-01,-2.893247596157318968e-01,2.372541658617677632e-04,-6.024087533560429364e-04,3.825434594053467855e-06,1.367663890123367310e-01
-1.418441072653491009e-01,-1.499078660498499860e-01,-2.869614886038943657e-01,-5.816570171569852149e-03,7.433715840895523813e-04,-3.397390296631428537e-04,1.416241079568862915e-01
-1.789030674183111624e-01,-1.430969702058594029e-01,-3.189901319869055119e-01,1.405864689381847166e-02,1.317340486274521001e-02,3.264131193752442539e-02,1.738745272159576416e-01
-1.360937694022495426e-01,-1.499053863251148533e-01,-2.565774015423130106e-01,-6.049226077440651543e-03,9.534554314399232549e-04,-2.452559880543022167e-03,1.147760599851608276e-01
-1.350535731427407737e-01,-1.444804139205266291e-01,-2.837736119098555054e-01,-1.433599450908255640e-03,5.233974788918404524e-04,-5.344719071161481601e-04,1.442650258541107178e-01
-1.450043050626786401e-01,-1.399182232240614998e-01,-2.838715318697664913e-01,-3.961725705494804212e-03,6.582565564583125551e-04,-1.199062620093686773e-03,1.416649669408798218e-01
-1.430595056425709721e-01,-1.392652008194611157e-01,-2.815068497658777535e-01,-5.230536320804094266e-03,-4.135799277158765238e-04,-7.229706032317429571e-04,1.406823843717575073e-01
-1.379891204362770352e-01,-1.445502884143002320e-01,-2.855193508336384411e-01,1.720013707013747081e-03,-3.326071318148713101e-04,-2.965438740997805903e-04,1.443943083286285400e-01
-1.430598711474073970e-01,-1.441178465971024170e-01,-2.877952012693360540e-01,8.427060996443872833e-04,1.264203711039313567e-04,-5.468623263097777923e-05,1.442168354988098145e-01
-1.369110919879964472e-01,-1.570934981400521069e-01,-2.513182895515394533e-01,-7.627582656206016764e-04,3.307244551077662652e-03,-5.621462328530502312e-04,1.059378609061241150e-01
-1.431687328381674729e-01,-1.425303233995944829e-01,-2.874908729662805085e-01,1.145440063010637463e-03,2.927832336879746975e-04,1.437953730639775793e-04,1.446571052074432373e-01
-1.391374003942136284e-01,-1.455823569229683367e-01,-2.857759134329481698e-01,2.254071148006278526e-03,-7.154507162053630985e-04,5.957372313821848882e-05,1.435830742120742798e-01
-1.449066396648718835e-01,-1.454649331112483623e-01,-2.893113674289912729e-01,1.727578772433110109e-03,2.876788400862414358e-04,1.715293509721468705e-04,1.441586166620254517e-01
-1.452080010054171977e-01,-1.455461101705836924e-01,-2.877708953550094373e-01,-1.156414444916577407e-04,-2.682990949629708642e-04,3.225210951739226141e-05,1.423950493335723877e-01
-1.488473635713329635e-01,-1.474247127790649647e-01,-2.900353003786952377e-01,1.303624967402271001e-04,5.654695895296450205e-04,1.992407483205048966e-05,1.419081687927246094e-01
-1.513709934873608276e-01,-1.327167078518625976e-01,-2.819185333772542545e-01,-2.382355155834409242e-03,-7.509736802347973580e-04,-2.473252254882410970e-04,1.408716291189193726e-01
-1.523825604455455174e-01,-1.522442681197836989e-01,-2.893262814872971100e-01,9.165060951868016746e-04,-3.953485073394766465e-04,-2.398655944118414929e-04,1.370244622230529785e-01
-1.413346299897215164e-01,-1.402241515127753690e-01,-2.870075001930616487e-01,-7.648238629706424069e-04,-1.406264359852376093e-04,-1.474491392702391203e-05,1.462374776601791382e-01
-1.399175492038257640e-01,-1.489998823275270057e-01,-2.703123010361789258e-01,7.949801071148218656e-03,-4.827880671628654273e-03,-3.601889650680626612e-03,1.272770017385482788e-01
-1.280030841213506410e-01,-1.542148895288493471e-01,-3.006767042693110903e-01,1.318201367803132663e-02,7.348852650141128769e-03,4.982677673910597925e-03,1.635082364082336426e-01
-1.526604406763981681e-01,-1.830999976202940249e-01,-3.444092774049055672e-01,1.771771657212506054e-02,2.653507562479923837e-02,1.627121486887218166e-02,1.889597177505493164e-01
-1.556042799074862371e-01,-1.764084767901462347e-01,-3.187903815992365053e-01,2.288041437229706987e-02,2.125259276375100065e-02,1.546799020421489763e-02,1.652600914239883423e-01
-1.438959046374550244e-01,-1.352395628205480538e-01,-2.831072575985043582e-01,4.783644842906191984e-03,6.485202753561781575e-04,1.309205592647049408e-03,1.439960002899169922e-01
-1.377165722599592024e-01,-1.497611388189717951e-01,-2.863947381711719475e-01,2.648285308752657777e-03,1.942393154460927279e-03,1.552161588730101814e-03,1.431750357151031494e-01
-1.316513845515630554e-01,-1.557819928270220977e-01,-2.860412722394450324e-01,1.517695890648924082e-03,-4.720878998935377742e-04,-6.859677262773594339e-04,1.438818722963333130e-01
-1.426393403397975268e-01,-1.407347961555359961e-01,-2.873583332075578256e-01,1.671094518053354043e-03,-1.031906502834704833e-04,4.491165448736292353e-05,1.457094848155975342e-01
-1.471570289684712984e-01,-1.547265220951613007e-01,-2.901441786032619152e-01,9.460839455757353482e-04,-3.619631696499943873e-04,-2.355047964700254716e-04,1.393683105707168579e-01
-1.483874680784952049e-01,-1.340055442621326531e-01,-2.856377050628164938e-01,3.846543392000732232e-03,1.122163688503394294e-03,1.023471612211418686e-03,1.451540440320968628e-01
-1.698023098937588016e-01,-2.097945256200414721e-01,-2.389966183264618793e-01,4.688292846749395580e-03,-1.174505406941610541e-01,-3.673508324055108770e-02,2.216263115406036377e-01
-1.295089484652651446e-01,-1.464789147333487584e-01,-2.811015319489041375e-01,3.562034784060175673e-03,4.688942521511704677e-04,9.312960349488878277e-05,1.439948678016662598e-01
-1.481995252742469571e-01,-1.578374017479210467e-01,-2.952539590258859703e-01,3.763725816442700222e-03,1.780081313962934841e-03,6.254380504927680860e-05,1.426625996828079224e-01
-1.375031680754770225e-01,-1.470968761947744896e-01,-2.856904888763576733e-01,2.563265376909961910e-03,2.016715922576724457e-06,-4.549416398385573474e-04,1.437017321586608887e-01
-1.433803246108721896e-01,-1.476023717648655975e-01,-3.109290133177384785e-01,1.608909282579880362e-02,1.500892047448750205e-03,1.613412949260221042e-03,1.678515225648880005e-01
-1.502895892932568644e-01,-1.327100897315526828e-01,-2.847176334033397760e-01,-2.943905985069170464e-03,1.706600171504018409e-03,-1.043591643646636820e-03,1.441565752029418945e-01
-1.495522761880426210e-01,-1.353827889381431504e-01,-2.848782991869219239e-01,-1.709354789447115703e-03,8.877213861872657128e-04,-1.092346606651589756e-03,1.429899185895919800e-01
-1.470944185873717946e-01,-1.485966042986885949e-01,-2.909291942452491564e-01,-3.288418851278115691e-03,-3.829136348239161702e-04,7.213542328752669272e-04,1.432099044322967529e-01
-1.449581519706067967e-01,-1.353498198754369553e-01,-2.835944295976569052e-01,-1.520000293174300241e-03,7.221945852081858427e-04,-8.654267859238778211e-04,1.437189728021621704e-01
-1.429642696617051678e-01,-1.341522059043146198e-01,-2.817450448181908484e-01,-2.629217272391189564e-03,1.337283363724093036e-03,-1.123187536358379902e-03,1.434942185878753662e-01
-1.487659731741915459e-01,-1.442167657733575137e-01,-2.881535672580836649e-01,-4.553865032102168836e-03,7.598698669470367682e-04,-2.174542000977752396e-03,1.419923603534698486e-01
-1.325921658018435201e-01,-1.643448174213282542e-01,-2.736385164634851375e-01,-3.278357992388387585e-03,1.621656665563622193e-03,-9.125228982593803183e-04,1.283212304115295410e-01
-1.129408305947228741e-01,-6.709531120324177533e-02,-1.198823727136262840e-01,-4.450827360790849535e-03,1.620329393322398129e-02,-7.223404704179375857e-02,1.377264559268951416e-01
-1.358683764169613950e-01,-1.415597328887429340e-01,-2.642633295957450557e-01,-8.852693069816753094e-03,7.506166897232463553e-03,-5.969247793016337067e-03,1.276634186506271362e-01
-1.502424403313177559e-01,-1.304410501027463698e-01,-2.619319509640504196e-01,7.127179833384087414e-03,1.100375490019684559e-03,4.245036862288120889e-03,1.236459985375404358e-01
-1.794813612073664355e-01,-1.723267160375517304e-01,-2.816057365843112059e-01,-2.022814139947879536e-02,6.400540175822944100e-02,-7.710887140006031371e-02,2.063157409429550171e-01
-1.459352393622374844e-01,-1.508254951440896885e-01,-2.903209982417062074e-01,-4.075652533528889392e-03,1.048432795532614793e-03,-1.583456960286230863e-04,1.421910077333450317e-01
-1.694808778619780187e-01,-1.403944392488826465e-01,-2.787173243698736202e-01,-1.083584636499564102e-02,4.019987744025836640e-03,-1.660164138928209646e-02,1.310858279466629028e-01
-1.455046308710538083e-01,-1.552992508972351748e-01,-2.812655012645531860e-01,6.785454805070769389e-03,3.669634220573943836e-03,1.829820405843441116e-03,1.318551898002624512e-01
-1.332118192282335523e-01,-1.378823369305349211e-01,-2.901602440992046006e-01,1.444627877630461944e-02,-5.285234400545907839e-03,-4.673852855416645545e-03,1.571528315544128418e-01
-1.289027081068979952e-01,-1.559283882174844482e-01,-2.711334751440250823e-01,2.821082489014969507e-03,-3.779152740134082526e-04,5.050590821497852963e-05,1.309213787317276001e-01
-1.250155923668899438e-01,-1.181631283926297404e-01,-2.151345046663949157e-01,-2.648046734681236761e-02,3.600407559449964046e-02,-5.009085787741308221e-02,1.493509858846664429e-01
-1.600847692939883216e-01,-1.509943433905369392e-01,-2.468897648360674213e-01,-9.972928398802063249e-03,6.931055962362720965e-03,-2.512068071171436393e-02,1.036459356546401978e-01
-1.626602194910606314e-01,-1.307054425386116880e-01,-2.900372730984118741e-01,-1.083866824888057119e-03,-1.672755560377272091e-03,2.395067792015762292e-03,1.461008340120315552e-01
-1.311713004420115847e-01,-1.584075313347904079e-01,-2.814258327944780258e-01,-3.722025479835597370e-03,3.652314975312843763e-03,-8.257360991456650767e-04,1.389586031436920166e-01
-1.409450790522554509e-01,-1.595877613279252372e-01,-2.943612418310526113e-01,7.641583305603513602e-04,1.518862358955972748e-03,-1.571946586421378534e-03,1.450519412755966187e-01
-1.526864091689300040e-01,-1.358927371203230705e-01,-2.857510126744686740e-01,-4.398648475355601030e-03,-4.336330495566265977e-04,1.194622161473981757e-03,1.424280554056167603e-01
-1.629165718898079040e-01,-1.317443671538192085e-01,-2.859140787827271213e-01,3.495369942299110825e-04,-6.625684906041081094e-04,9.514366215902519616e-03,1.421529054641723633e-01
-1.582478896142535396e-01,-1.357978443373434319e-01,-2.922714068883648930e-01,-2.085000642080214565e-03,-1.978193272606729343e-03,3.768080953830287336e-05,1.466285288333892822e-01
-1.579016570639695527e-01,-1.304823957344870555e-01,-2.832203476411720433e-01,-3.700302957712902404e-03,-5.368448529934693406e-04,4.255407837864200009e-03,1.413824707269668579e-01
-1.547618214703142814e-01,-1.303895270894421254e-01,-2.844688256057170128e-01,-1.011647079147876471e-03,-5.071073730141062788e-04,9.086349045095296279e-04,1.434764564037322998e-01
-1.414802756167543030e-01,-1.421403766101275168e-01,-2.881989031061403250e-01,-5.474696994965619909e-04,-4.322222796201271791e-05,-3.096312332278720100e-04,1.463937610387802124e-01
-1.408620525716478833e-01,-1.417790204157524103e-01,-2.877003795790607499e-01,-3.614993602969070988e-04,1.145691054555161934e-04,-1.436887476434111808e-04,1.463836878538131714e-01
-1.297801926027453423e-01,-1.544252453817114290e-01,-2.836202961428899716e-01,-1.168599702959139449e-03,4.194998757246330983e-04,-7.147951518490524864e-04,1.431394964456558228e-01
-1.395113505181023450e-01,-1.457938032649905291e-01,-2.779876258272089284e-01,-6.929132963142222400e-03,2.425842556674161730e-03,-1.404144709275875194e-03,1.360616981983184814e-01
-1.447949615150721236e-01,-1.374164024212109481e-01,-2.849406051165508380e-01,-1.465643688501881139e-03,9.031746670299863088e-05,1.749971442044790380e-04,1.439995765686035156e-01
-1.449305916019156815e-01,-1.371453918980676812e-01,-2.854789828960865861e-01,-1.367590901247897617e-03,-4.953432559261999921e-06,2.252633603598920608e-04,1.446181833744049072e-01
-1.449793858710950456e-01,-1.377157655918025969e-01,-2.851590042719465146e-01,-1.879391722164613487e-03,-9.226452667149134335e-04,-1.482005904799272666e-04,1.439948379993438721e-01
-1.453102886465806320e-01,-1.390209187288534987e-01,-2.873362513092626025e-01,-1.657039141999977656e-03,1.891704576932348676e-05,2.079395409323642522e-04,1.453015953302383423e-01
-1.504320692888097000e-01,-1.517576797137363265e-01,-2.883025129176240431e-01,-5.311909323423780671e-04,-6.765470562139283138e-05,3.121120190487960380e-04,1.372166424989700317e-01
-1.432471882784994155e-01,-1.422639006160326680e-01,-2.890716464839533373e-01,-5.675115420583962513e-04,1.941762628464139108e-04,1.158468266149104473e-04,1.463223993778228760e-01
-1.430269889830017016e-01,-1.403532994455262140e-01,-2.866013415454795599e-01,-2.779262978960805441e-03,5.004232543865512689e-04,-1.714129938587473530e-04,1.450125128030776978e-01
-1.427003385648819012e-01,-1.422234279495513953e-01,-2.887759964928920953e-01,-3.557308409801749412e-04,-3.159967928470422981e-08,6.405873203889258637e-05,1.463160365819931030e-01
-1.420232915961225084e-01,-1.400039918790940696e-01,-2.842298410535548658e-01,-4.144658787029448406e-03,-7.101838606634383860e-04,2.413066117470197638e-04,1.434125453233718872e-01
-1.440582872600661146e-01,-1.430862052819707464e-01,-2.882290221352253323e-01,-1.660033869765935701e-03,-5.360071814248053203e-04,-3.949849460561168806e-04,1.446923911571502686e-01
-1.361371266697717908e-01,-1.597078468515880090e-01,-2.878437195349438649e-01,7.575937221803806694e-03,5.185932839700270990e-03,3.363269875703014770e-03,1.424129009246826172e-01
-1.412179654510251070e-01,-1.514155197566655620e-01,-2.900954768832952335e-01,-2.771413668937523778e-03,-1.257614387123418822e-03,4.754265402498758530e-04,1.441484689712524414e-01
-1.373833801860194215e-01,-1.502895699854714384e-01,-2.904065288057621208e-01,-3.492523971342894554e-03,-2.784405361577842642e-04,5.632411746469206471e-04,1.471240520477294922e-01
-1.433477541095367902e-01,-1.456395889048184289e-01,-2.894571520590319413e-01,-9.178199112992312288e-04,-2.758296887298931628e-04,-1.165735217318017875e-04,1.449867039918899536e-01
-1.634786595368999396e-01,-1.338944499540720146e-01,-2.939512478866672107e-01,-8.828962501703891200e-03,3.572228210493916777e-03,-2.131421280661951675e-03,1.484722644090652466e-01
-1.467252015599647685e-01,-1.497552943556622607e-01,-2.882216745604470054e-01,-4.648076705220251237e-03,-2.185359901763199865e-04,-1.150720875156303343e-04,1.402379572391510010e-01
-1.296876944631872031e-01,-1.579685419004580038e-01,-2.838557072947105464e-01,8.306635478105280990e-04,2.987788089258948876e-04,3.989393842277978632e-04,1.421632766723632812e-01
-1.343691603503534004e-01,-1.402029601394388925e-01,-2.824924047102677083e-01,2.810833958213178937e-03,1.233340579497568725e-04,-4.658728275735841387e-05,1.453759372234344482e-01
-1.417817604526625253e-01,-1.461216783851999879e-01,-2.876807531470065293e-01,6.046233856779773897e-04,1.260651636646166777e-03,5.109532225231566650e-04,1.438012868165969849e-01
-1.391203420250604894e-01,-1.391574099375127715e-01,-2.857867476997718037e-01,1.242685533998583300e-03,1.676784847727358252e-05,-1.451637025981486256e-04,1.466638892889022827e-01
-1.711352793405028494e-01,-1.429526710220999641e-01,-3.058705927991747786e-01,-3.919441980216373418e-03,2.620592166179806174e-03,-1.973989843794282922e-03,1.510742753744125366e-01
-1.527409266227953144e-01,-1.528977627642236492e-01,-2.886612404642893703e-01,-2.160522580815865895e-04,-3.774447438414619497e-04,-2.711904890767329263e-04,1.358448714017868042e-01
-1.391914215307981095e-01,-1.450081231500719159e-01,-2.870619865249133262e-01,1.051438275185915747e-03,-4.281767275103787640e-04,2.479818399477294079e-04,1.450636833906173706e-01
-1.597298211228469211e-01,-1.372048632656983624e-01,-2.959955412952376408e-01,-1.698951178767134536e-03,-1.720674726301694079e-03,-1.817483817487233668e-03,1.489045023918151855e-01
-1.270362902340954059e-01,-1.594542726387938592e-01,-2.816075495205147550e-01,4.843051073115406543e-04,1.428557475569759033e-04,-2.145254211360094509e-05,1.411845535039901733e-01
-1.234017864529825120e-01,-4.162470924698088992e-02,-2.756705645125372417e-01,-2.513992290664705115e-02,-2.439775027159047944e-03,3.539362868824334930e-05,2.103313505649566650e-01
-1.150775959067128484e-01,-5.215210721383878312e-02,-2.790899143055109999e-01,-3.278410572069916790e-02,-4.770887110069296257e-03,7.602170429996826448e-03,2.112966328859329224e-01
-1.279539486649805269e-01,-1.552105547373036631e-01,-2.827161409370193557e-01,2.321534915471366346e-03,9.134506835214923400e-04,2.750395628264273168e-04,1.431602835655212402e-01
-1.360543480633225888e-01,-9.295484426774545950e-02,-2.893539147806353240e-01,-3.308006212599584606e-02,1.946265150690443951e-02,-2.711955620286695540e-02,1.964462399482727051e-01
-1.678605028233427221e-01,-1.772576021503233235e-01,-3.340347956008986596e-01,1.743831841177964290e-02,-8.324323623258482810e-03,-9.296107794419221013e-03,1.658917218446731567e-01
-1.306161263972254183e-01,-1.553051725966128616e-01,-2.847906201237624946e-01,-1.345551617396096656e-03,1.056773074553366519e-03,1.283494877751628854e-04,1.434633582830429077e-01
-1.282640792505847505e-01,-1.579313815539701293e-01,-2.814655535930709052e-01,5.365683744900974234e-04,1.715735056327924771e-04,-5.178998027076709451e-05,1.407363712787628174e-01
-8.535444257143276481e-02,-8.750370109679564412e-02,-2.671847424498687701e-02,5.643517340424809674e-03,-3.991479931436608952e-02,-2.161905001514922292e-02,9.922747313976287842e-02
-9.629555694108815622e-02,-1.308929229970345609e-01,-3.030584340957377387e-01,4.122136242494490316e-02,-2.108284111282389406e-02,-1.155895281116169244e-02,2.088690996170043945e-01
-1.608304750455837595e-01,-2.472308340486477074e-01,-5.003147542296864092e-01,3.300131727480005300e-02,-3.454638903363204533e-02,-1.576766167519106851e-02,3.177680075168609619e-01
-1.428854281200342413e-01,-1.483968121322338241e-01,-2.900130067184429894e-01,1.118399304638628732e-03,1.311690005811979390e-05,8.129268979547601926e-04,1.444706171751022339e-01
-1.109381271575052286e-01,-1.425570160369855621e-01,-3.052228381977291072e-01,3.508545870515405313e-02,-4.209577275486638820e-02,-1.791800809082599519e-02,2.063383907079696655e-01
-1.751127239139943503e-01,-1.837434439667999797e-01,-3.465642199741340024e-01,1.734633325322238948e-02,-1.331391558056703971e-02,-7.781258656376467166e-03,1.720652878284454346e-01
-1.468392387954841061e-01,-1.468061706266337030e-01,-2.891053357805145052e-01,-2.052789257820942289e-03,3.380106566326069418e-05,3.019479909002490076e-04,1.423280239105224609e-01
-1.246470368335797496e-01,-1.568271800058910759e-01,-2.771107798922713972e-01,-1.758439834353534329e-04,1.708980157177362514e-04,-3.382655987531306549e-04,1.391940116882324219e-01
-1.314646117271029702e-01,-1.562899754732123836e-01,-2.872161455416127884e-01,-1.360704773699449900e-03,7.175776088454064415e-04,-3.810220795875287453e-04,1.449682265520095825e-01
-1.423273299892589550e-01,-1.445797636853869972e-01,-2.881029157372236860e-01,-1.175044225179801977e-03,-7.626264046607211366e-05,-2.758637860795838019e-04,1.446776837110519409e-01
-1.433807192412539788e-01,-1.448744234243752316e-01,-2.873250594525487145e-01,-1.653181640859235782e-03,3.014763459665654121e-04,-4.817050732213865922e-05,1.432329267263412476e-01
-1.349190783366090163e-01,-1.487027423672028226e-01,-2.850737569425831897e-01,-1.238689361200678808e-03,-1.469614687237574676e-05,-6.454157934338029118e-04,1.437796503305435181e-01
-1.478717903797945876e-01,-1.481479910758466967e-01,-2.892015961611071884e-01,-2.473729984497651836e-04,-3.986328944508796290e-04,4.317608731647040060e-04,1.411962211132049561e-01
-1.475654809557046532e-01,-1.471165766647119233e-01,-2.911122885154478479e-01,-1.813318076126455795e-03,-5.302663689690770066e-05,-2.852614036601030969e-04,1.438069641590118408e-01
-1.369459106077416943e-01,-1.522806594426910076e-01,-2.871031223883925843e-01,4.432627661342186491e-03,-1.092952656566275639e-03,-5.663831957244231611e-04,1.433290243148803711e-01
-1.373496899209409317e-01,-1.585443001517136408e-01,-2.782841216357503367e-01,-7.331455656606234404e-03,7.523257536369970511e-05,-1.207023871859698580e-03,1.322509497404098511e-01
-1.303871357656962437e-01,-1.487677782563437412e-01,-2.829604456231229470e-01,2.621498102400158115e-03,-2.832066585729495233e-04,-7.975969377420334639e-04,1.443427652120590210e-01
-1.453380870762988886e-01,-1.459308981177002140e-01,-2.896902140037534434e-01,2.332334533389734867e-03,-6.569613056329055541e-05,-1.097588488069924545e-04,1.441134363412857056e-01
-1.412632754092728871e-01,-1.423609914592182668e-01,-2.875922660362336680e-01,-3.913213398854099401e-04,7.848817137929290288e-05,-2.023270352047219799e-04,1.457852870225906372e-01
-1.354150222237514856e-01,-1.458460666040105602e-01,-2.851875749501162627e-01,3.501595468856277295e-03,-1.099739747388583933e-03,-4.447556256003936119e-04,1.449805051088333130e-01
-1.327578976880197104e-01,-1.503223053664750342e-01,-2.836123836342310800e-01,2.418892775636666184e-03,-1.945313530932951738e-04,-8.366699361263024064e-04,1.429534256458282471e-01
-1.417813843600140011e-01,-1.468762401008699980e-01,-2.885235758228187342e-01,5.972765915341750418e-04,5.161809084911706197e-04,2.105968059564631849e-06,1.442687362432479858e-01
-1.497487195781090907e-01,-1.509848044260493627e-01,-2.878830043105233827e-01,5.513402793334906812e-04,-1.376733442633987074e-04,-2.299443922055658144e-04,1.375245004892349243e-01
-1.515396530914271400e-01,-1.508129013746717928e-01,-2.874789410587943461e-01,4.631921854219252298e-04,-6.781114447904898262e-05,-4.962142234033132534e-05,1.363065540790557861e-01
-1.502142764158249100e-01,-1.507790528800664609e-01,-2.879834491004156227e-01,2.106926554989102865e-04,-1.898332959324249513e-04,-3.419778650731841838e-04,1.374898105859756470e-01
-1.522221522556684581e-01,-1.519216950330430360e-01,-2.884639384399438899e-01,1.076401471764049968e-03,-1.491594087098368140e-07,-2.208692599666433210e-04,1.364055424928665161e-01
-1.393381287958876391e-01,-1.455829473387293405e-01,-2.884623175093788960e-01,1.160478890958028218e-03,7.354222365274709257e-06,5.409996227763591440e-04,1.461187452077865601e-01
-1.310861204817601877e-01,-1.502244574444200897e-01,-2.833659371265626059e-01,2.685427853228381824e-03,3.454567126310775283e-04,1.371910949368512355e-04,1.437465995550155640e-01
-1.460226789537550363e-01,-1.407551745215517014e-01,-2.886695324840823362e-01,1.223226123739331716e-03,-1.202607280255527837e-04,3.496078046059023468e-04,1.453690528869628906e-01
-1.254670804387242600e-01,-1.507878036935056676e-01,-1.290167432534297387e-01,1.124116594480464339e-02,5.243571775205871366e-02,1.991226788235294851e-02,1.018869951367378235e-01
-1.611291491956138855e-01,-1.639251762575340554e-01,-1.224515516655087927e-01,6.146474984961840249e-03,6.717888665253629599e-02,2.624621355039245818e-02,1.316467076539993286e-01
-1.340733993542008451e-01,-1.527679939946169352e-01,-2.718653886609432302e-01,5.729206599443113779e-03,1.785122047179205952e-03,-6.762691960530175291e-04,1.298828572034835815e-01
-1.314006954460934240e-01,-1.512397268066560940e-01,-1.484722525797748383e-01,8.172507433198042404e-03,2.659104298429031468e-02,4.247529679150470992e-03,5.217362195253372192e-02
-1.361885954885977690e-01,-1.497048762867957405e-01,-2.850855136723435823e-01,1.484281456805598828e-03,6.670234517769912377e-04,-2.632771278621849040e-05,1.426478028297424316e-01
-1.429085888489754763e-01,-1.375348293082441775e-01,-1.543268419807423686e-01,3.317890073423314726e-03,8.616992395930896109e-03,1.670860270336346071e-02,3.624814376235008240e-02
-1.530086761661510752e-01,-1.563732069150639004e-01,-2.922849158691635529e-01,1.659443405440807259e-03,-6.588866013879149646e-04,-1.102183800867501074e-03,1.376727968454360962e-01
-1.252978640009803080e-01,-1.559814743473039444e-01,-2.835238691345939865e-01,1.737167174287262375e-04,1.861765168992196139e-03,4.134853451729779850e-04,1.453719735145568848e-01
-1.338021165798251588e-01,-1.561727801573914165e-01,-2.853200845310210898e-01,1.201358650609741455e-03,9.158304503480256542e-04,2.757561094768444672e-04,1.416886001825332642e-01
-1.824679175659596753e-01,-1.888427296848719239e-01,-1.778592434936635824e-01,1.227243044786620850e-03,-2.765143049134062905e-02,-7.744097869002825561e-03,5.069017410278320312e-02
-1.258787686941079953e-01,-1.597820342983850284e-01,-2.849326533547897333e-01,-5.521669813405155613e-04,2.139132121148332438e-03,2.057868429676972845e-04,1.451547145843505859e-01
-1.352122581286113179e-01,-1.440580099842451445e-01,-2.852480572555998184e-01,-1.680613777360166110e-03,3.825735457861824005e-04,-2.195127534582933914e-04,1.458453536033630371e-01
-1.505754339017512933e-01,-1.509572698030638982e-01,-2.869846353002878936e-01,1.013669076833565011e-04,3.277311689290004506e-04,-2.548072865490473517e-06,1.362199783325195312e-01
-1.491966605055043416e-01,-1.329480250969461985e-01,-2.855358621573387823e-01,6.934429947419389235e-03,5.733505861336387482e-03,7.340825012648369806e-03,1.465341746807098389e-01
-1.347224323916340893e-01,-1.565915018414856807e-01,-2.889151829858247478e-01,1.467024935661140296e-03,1.652461404790927808e-03,-2.120232537868466127e-04,1.445558369159698486e-01
-1.461027514524569915e-01,-1.613877163800211401e-01,-2.952263485519071029e-01,-3.903382818480355485e-03,3.489515934748391428e-03,1.110272800204138450e-03,1.424010694026947021e-01
-1.292039296680018434e-01,-1.535590354532853086e-01,-2.819236320280718022e-01,1.641055428617634428e-03,-2.283338355357530773e-04,-1.184855354220375727e-04,1.421451717615127563e-01
-1.378356556187865234e-01,-7.077096766220658530e-02,-2.296913638852639550e-01,7.796471338168076137e-03,4.812487399758841322e-03,5.559088356878553322e-02,1.691694110631942749e-01
-1.350312038841368911e-01,-1.573117811584738013e-01,-2.892043958705977635e-01,1.460594465425203107e-03,1.651610537779042839e-03,-7.265840639161414848e-05,1.443791091442108154e-01
-1.318827037377391653e-01,-1.551603934468603896e-01,-2.796906404504744814e-01,3.717339090122082166e-03,3.389104921846130668e-03,9.083456130960155432e-04,1.379376649856567383e-01
-1.298245398898260072e-01,-1.550291708240554844e-01,-2.795341812925360436e-01,-1.266461274953082673e-02,3.160883792737205489e-02,-1.752500441992804747e-02,1.538661271333694458e-01
-1.242324457864334569e-01,-1.787704323888680280e-01,-3.274114501433856850e-01,-5.510253059033242556e-02,1.834465205968805260e-02,-3.667780730351324903e-02,2.175531089305877686e-01
-1.284812546704300618e-01,-1.605737738933278869e-01,-2.783272082339310338e-01,-2.460409069521900596e-03,3.281054772993863191e-03,-1.435134406168770294e-03,1.368628591299057007e-01
-1.226707238553542828e-01,-1.554643103822465067e-01,-2.952779478552096104e-01,-8.607431474377617506e-03,6.338183015757170580e-03,-1.211359510526995639e-03,1.598607152700424194e-01
-2.107917039805460302e-01,-2.683998271138138825e-01,-4.238338230534491324e-01,2.635071202210726229e-02,8.709056660029591834e-02,3.671309160020283513e-02,2.555652856826782227e-01
-1.584834658633348936e-01,-1.881900866740235101e-01,-3.424026810342556959e-01,-1.629931032242383157e-02,2.519381803870957871e-03,-3.583586731527588654e-03,1.734926849603652954e-01
-1.215938212514139916e-01,-1.539116710314876457e-01,-2.703912607009118507e-01,1.171211357885175344e-05,3.589531550189150721e-03,-1.687744910392648123e-04,1.357020586729049683e-01
-1.492747782206000906e-01,-1.940523003409345970e-01,-3.830816797342635471e-01,-5.352708862843360421e-02,4.481418152873131722e-02,-2.184157836207546721e-04,2.466210126876831055e-01
-1.298051651948066432e-01,-1.689848943051909802e-01,-3.118424766627799771e-01,-7.831347669907463491e-03,9.274432928685271901e-03,3.417373395232007303e-03,1.673843860626220703e-01
-1.393441417681120509e-01,-1.499735075275195340e-01,-2.867764872354260364e-01,-2.971886625983862808e-03,-1.020462393233561411e-04,2.859429198649068483e-05,1.425085812807083130e-01
-1.424572194706934525e-01,-1.616545954232364024e-01,-2.937013332017495704e-01,-4.640259882786490378e-04,1.513315717168454500e-03,6.020991264039754313e-04,1.426479369401931763e-01
-1.294877701477412657e-01,-1.536550380585703646e-01,-2.838635386936789184e-01,-1.511147231805025273e-03,1.006101398847050786e-03,-1.223839107474892270e-03,1.438731253147125244e-01
-1.249004774966930714e-01,-1.539561077341215223e-01,-2.769662297641645732e-01,8.677594215105692435e-04,1.737317581378940157e-03,4.821674218784693672e-04,1.398637443780899048e-01
-1.508597400965692725e-01,-1.236808428381879904e-01,-2.787733853188000821e-01,1.085478832626028418e-03,1.178430589455907755e-03,3.307199907848065203e-03,1.435884982347488403e-01
-1.632999323722046370e-01,-1.373849746677998362e-01,-2.772421662658686170e-01,3.446740340143990885e-03,2.614903521397561863e-03,1.068663533105515193e-02,1.304070204496383667e-01
-1.532573781403747115e-01,-1.338007570943086921e-01,-2.814868920055439983e-01,4.309551899663872920e-03,2.362868460589183123e-04,1.037528003545725363e-03,1.391955316066741943e-01
-1.285479633009048439e-01,-1.572595238412314855e-01,-2.803225890189148806e-01,-2.006481599363807780e-03,3.693532092377733197e-04,-1.400726918945126949e-04,1.396952122449874878e-01
-1.425938742266697479e-01,-1.493229960381693977e-01,-2.889946239758056645e-01,-3.845505066894180229e-03,1.736205875158696376e-03,-1.934562093233724027e-06,1.433412730693817139e-01
-1.544186625729121742e-01,-1.332725367695099805e-01,-2.853395292916741655e-01,1.409740108995442484e-03,5.384196718565697776e-04,3.945405262076297974e-04,1.426996886730194092e-01
-1.364436780932279381e-01,-1.612094887940301591e-01,-2.233514918967518526e-01,9.974105641757512620e-04,1.739732193339583663e-02,-2.216886117502047098e-03,8.330485969781875610e-02
-1.335650090912747223e-01,-1.474570332291430252e-01,-2.828180662885420027e-01,-1.264394851770350497e-03,3.230435356321900405e-04,-6.969269340273397942e-04,1.428376734256744385e-01
-1.603815163559419721e-01,-1.715664567923829431e-01,-1.893670898283430770e-01,-2.541223250001209085e-04,-1.929102717116442864e-02,-7.248235482428659095e-03,4.376414045691490173e-02
-1.516493127733534452e-01,-1.212174718324306455e-01,-2.719181969842521251e-01,3.401468157662054358e-03,1.303558499694295941e-03,2.905295875292169486e-03,1.382600218057632446e-01
-1.375018081088041633e-01,-1.454666393286509207e-01,-2.852295735893099482e-01,-2.109912901591448012e-03,4.764180753801188048e-04,4.548672996450281035e-04,1.439616680145263672e-01
-1.354391404604521620e-01,-1.489303113921623956e-01,-2.858279624025516497e-01,-1.606019643705331639e-03,7.242553057806970247e-04,-6.628575196681778334e-04,1.441544890403747559e-01
-1.404588740646875167e-01,-1.432081415443722250e-01,-2.876099671767829435e-01,-3.840766665455404554e-04,6.381746336458901040e-05,-1.872894950806320235e-04,1.457978188991546631e-01
-1.930795290899055550e-01,-2.168191475883299302e-01,-5.252955782436734555e-01,-9.583908915383544669e-02,3.761861960332413962e-02,-3.460913436500671903e-02,3.720734417438507080e-01
-1.554058034697999857e-01,-1.320221744305916378e-01,-2.822746390503361180e-01,1.024139288550170602e-03,-3.069809112943047117e-04,1.172948842864199055e-03,1.400596499443054199e-01
-1.559098274978840681e-01,-1.261257960404545964e-01,-2.793191492197888426e-01,1.120771946200262680e-03,3.169189533937364256e-04,-2.465814398150530324e-04,1.407012045383453369e-01
-1.450446946384383318e-01,-1.411054963835805809e-01,-2.874604329522823520e-01,-1.320380341212714238e-03,9.966496731301760883e-05,-3.044609330127985808e-04,1.444448083639144897e-01
-1.523647358091101134e-01,-1.556397199422661914e-01,-2.932135061693169620e-01,-2.327360229585210757e-03,1.839941000558500939e-04,2.290488949802958535e-04,1.392994374036788940e-01
-1.430760367822787593e-01,-1.422488177877609949e-01,-2.876029703900866985e-01,-1.135888091610248079e-03,3.494183310603589171e-04,-4.807935150143243755e-05,1.449569463729858398e-01
-1.406153110490251379e-01,-1.466222570943530590e-01,-2.867242562120512206e-01,6.130787171575121687e-03,8.331784479512370414e-04,3.859449977561464108e-04,1.436019837856292725e-01
-1.442680650126611508e-01,-1.449047449859499070e-01,-2.886030410256277268e-01,4.598869063757101165e-04,-1.452874759812078104e-04,-9.124577690421569167e-06,1.440201103687286377e-01
-1.409404930830765179e-01,-1.454800028558748126e-01,-2.870189275987209410e-01,1.355111179824579912e-03,-1.904941447211234409e-04,-2.609390447291782910e-05,1.438819319009780884e-01
-1.421040544411711348e-01,-1.415462891664572009e-01,-2.869338143913768846e-01,1.586100837626210373e-03,1.795023923192684654e-04,-3.033397266165987281e-05,1.451357901096343994e-01
-1.486004433481279141e-01,-1.303552245581832136e-01,-2.830932049665224604e-01,-1.812784296176035530e-03,1.282124871152463255e-03,-1.417925804407157422e-03,1.445540189743041992e-01
-1.368832576905480991e-01,-1.292218044011187728e-01,-2.729405745271808459e-01,5.260210580376399256e-03,2.797609745028657637e-03,2.463387365436814965e-03,1.404897868633270264e-01
-1.638371819921693728e-01,-1.415238963638643932e-01,-2.571530850680850411e-01,5.388690246861695815e-03,3.591494289409489626e-03,2.426661761912650254e-03,1.069177314639091492e-01
-1.412643815190481877e-01,-1.441270340311265330e-01,-2.856845016855147357e-01,5.928664947609626340e-03,3.677846046623295742e-03,2.704730781775790613e-03,1.435963660478591919e-01
-1.360937367163908562e-01,-1.625155518284389089e-01,-2.445905019877774034e-01,1.527982009199772015e-03,4.552689107934090006e-03,7.255376571228001328e-04,9.835518896579742432e-02
-1.396267823268805275e-01,-1.506456788605188279e-01,-2.878619667205074562e-01,1.291014497658033973e-03,1.617204355729273202e-03,-6.786799745244626036e-04,1.430941224098205566e-01
-1.442012790606942707e-01,-1.427854754246626889e-01,-2.877607286496061678e-01,2.932296018552807328e-03,1.305505085901851323e-04,-5.511432969271444710e-04,1.443652659654617310e-01
-1.193612588925032081e-01,-1.572931065087271318e-01,-2.662995958298054466e-01,5.813722112226522680e-03,1.589181124428201697e-02,3.903800216831516089e-03,1.355021148920059204e-01
-1.394282900172083561e-01,-1.440324397763377562e-01,-2.752622527788842755e-01,7.610907575122293628e-03,1.328237091667989946e-03,9.595913146845503174e-04,1.342702358961105347e-01
-1.382689753201820082e-01,-1.515636300907395040e-01,-2.883370670077370357e-01,1.547135442253034588e-03,8.387078832343888976e-04,4.787084471653581795e-04,1.439168304204940796e-01
-1.306938229785729877e-01,-1.593597466760553472e-01,-2.786751206712040352e-01,1.862598206273525419e-03,1.428135128243965008e-03,8.030451937532336786e-04,1.360023468732833862e-01
-1.312666962505162349e-01,-1.546942032298291303e-01,-2.851677639614545456e-01,9.138442568956395545e-04,1.387419897485671046e-03,6.530120351576393747e-05,1.436564028263092041e-01
-2.643234150499876867e-01,-1.909281858255818254e-01,-5.193318893658576130e-01,7.187571408745631329e-02,-1.044513439825943933e-02,-2.014886914381089703e-02,3.258468508720397949e-01
-1.548248759713448108e-01,-1.323957553603670179e-01,-2.850652211390450885e-01,-4.487821754397031300e-03,-2.089772898772314542e-03,3.032231852350712395e-03,1.431359350681304932e-01
-1.337505658623496241e-01,-1.533143120627326605e-01,-2.855735099801508525e-01,2.834708583923240075e-03,1.107088112403251850e-03,6.778145135156594643e-04,1.431498676538467407e-01
-1.417653605886945722e-01,-1.430279575875785802e-01,-2.797008129050505554e-01,6.315766800852169738e-03,4.024902154494988758e-04,1.012781072562635512e-03,1.377565115690231323e-01
-1.480562900771796309e-01,-1.473789380602584520e-01,-2.872863987376956807e-01,7.244651531686190473e-04,-1.491513247815970790e-04,4.782359049457023895e-05,1.395759284496307373e-01
-1.635661580588847197e-01,-1.864997453625663881e-01,-3.100796952211797297e-01,2.429801232325891347e-02,3.177827883617679455e-02,2.954168292870634760e-02,1.614031493663787842e-01
-1.526647140072879272e-01,-1.302919700121230873e-01,-2.810275729356149221e-01,-4.480213466319753896e-03,-2.199425088461791356e-03,3.080738136487958488e-03,1.412536501884460449e-01
-1.480421597259536926e-01,-1.515637070128276476e-01,-2.865275954359894905e-01,9.005236440469886706e-04,4.234605312873872002e-04,-1.851235659477345682e-04,1.367699056863784790e-01
-1.557896324817618083e-01,-1.325955801516800481e-01,-2.867334516354418938e-01,-2.437306936162098557e-03,-2.350200526655105582e-03,1.024059221804152426e-03,1.440795063972473145e-01
-1.359710602506603028e-01,-1.444698235592837832e-01,-2.846969113576269250e-01,2.542685301528916243e-03,6.341677835726865957e-04,8.742215625585584432e-04,1.447429358959197998e-01
-1.234454636722143728e-01,-1.567793116894152794e-01,-2.837373026251490682e-01,4.131261815897852431e-04,-1.740656704804590055e-03,-5.238937175210973268e-04,1.465329378843307495e-01
-1.287975135306868579e-01,-1.613246825451515043e-01,-2.750070319814236219e-01,5.178853282477935763e-04,-4.204421001202160294e-04,-1.926119330116517734e-04,1.329695582389831543e-01
-1.492881456666243500e-01,-1.491977584264607970e-01,-2.879145552035169975e-01,1.192502389118001074e-03,-7.258725048351973193e-04,-5.055002717309949999e-04,1.386954635381698608e-01
-1.497096434530568176e-01,-1.459956015301139276e-01,-2.862226638368933207e-01,1.837824915080882001e-03,-2.131306328013899700e-04,1.696949234404577188e-04,1.384448260068893433e-01
-1.489548273300020376e-01,-1.530135144419026982e-01,-2.935701368420206014e-01,4.245077447632195945e-03,-2.989483402507956897e-04,1.126036038558693664e-04,1.428197473287582397e-01
-1.374031735953926969e-01,-1.506048438751057261e-01,-2.876592196481440045e-01,1.511414964222006045e-03,7.665523328921887381e-04,4.748052738366972600e-04,1.441416889429092407e-01
-1.540089046782227578e-01,-1.522727939237504824e-01,-2.891279266215303068e-01,1.466149848245574833e-03,-4.536801140565492325e-04,-4.941705654396674665e-04,1.360240578651428223e-01
-1.318937913948812768e-01,-1.668470398077500638e-01,-2.913028103915059064e-01,1.516722576942974377e-03,-1.066737570395644152e-02,-1.232782234083233891e-03,1.463350355625152588e-01
-1.447914203315247561e-01,-1.888843249641700694e-01,-3.272452729363075630e-01,2.138150624746836849e-03,-1.804129867344458557e-02,-2.235084634176421042e-03,1.679102182388305664e-01
-1.589801697089984756e-01,-1.504100912441771187e-01,-2.233948077898990081e-01,3.932155038735549168e-03,6.445783955521264610e-04,3.724164625204847822e-03,6.974217295646667480e-02
-1.434411310075999202e-01,-1.532025860505482062e-01,-2.889999814456345462e-01,-3.859459955342768415e-03,1.243007255613219793e-03,5.805303719441393199e-05,1.411067992448806763e-01
-1.269918908727331597e-01,-1.566115612398423784e-01,-2.837264691151630824e-01,-2.087109364186871385e-03,1.222638632439957242e-03,-1.968791057576436358e-03,1.443253457546234131e-01
-1.509220245566487706e-01,-1.535510045576795046e-01,-2.906647057841873494e-01,1.153479869107235187e-03,-5.619765167829326915e-04,5.005840998533056955e-07,1.384647488594055176e-01
-1.508445544142908712e-01,-1.514624974211652986e-01,-2.875372319678042299e-01,5.133726157294428048e-04,9.643657043492757496e-05,-1.569866765100523412e-04,1.363880336284637451e-01
-1.378260652552651955e-01,-1.462598285384779651e-01,-2.864515772922989756e-01,1.581817427783375899e-03,-1.844632263606275880e-04,-1.787154577130990838e-04,1.446198523044586182e-01
-1.440391331571600764e-01,-1.867448511604904438e-01,-3.122943369286840243e-01,1.548503768408084937e-02,-2.858872977771080917e-02,-3.575595910961639444e-03,1.617337167263031006e-01
-1.377864826015633981e-01,-1.451373785898155411e-01,-2.861866061122255167e-01,-1.838411398685884518e-03,-1.093444160675580129e-04,-3.585664057068271241e-04,1.449010670185089111e-01
-1.368602188683223364e-01,-1.505323955839599492e-01,-2.884312746362060476e-01,-1.568144396468928916e-03,4.597122195778014495e-04,-6.552169554153063275e-05,1.452461034059524536e-01
-1.347624984861723330e-01,-1.463332244132535820e-01,-2.806511440038640948e-01,-5.482399951706428722e-03,9.482877585931700744e-04,4.626336494525275103e-04,1.407936513423919678e-01
-1.363455416647259000e-01,-1.518675998799910165e-01,-2.807048741820964421e-01,-6.071199789106792276e-03,1.223911284461306993e-03,-6.598832727964945924e-04,1.376814246177673340e-01
-1.400875640745238293e-01,-1.512361466086249162e-01,-2.884414754408646253e-01,-1.307555616931789901e-03,9.195743106583489142e-04,-2.717986177514944510e-04,1.431332379579544067e-01
-1.530898535576865060e-01,-1.380800344337771990e-01,-2.745289130003263356e-01,-8.208023690340940717e-03,4.520895908431049603e-03,-5.934365988431138626e-03,1.310137361288070679e-01
-1.249729397048552210e-01,-1.603747348102774195e-01,-2.896312187663171445e-01,-2.096954894767108491e-04,-1.072691134553611925e-02,-1.533964048194808895e-03,1.512905359268188477e-01
-1.400394615078377480e-01,-1.428202697723553460e-01,-2.869016891624165955e-01,-1.742042148463246324e-03,4.598705088157146320e-04,-9.616748414325005615e-05,1.455253213644027710e-01
-1.369125205478216312e-01,-1.506022902824352139e-01,-2.868078533083168180e-01,3.239351332211404342e-03,-8.312082407234572820e-04,-9.702805164037115815e-04,1.436675488948822021e-01
-1.352002453481201127e-01,-1.577700733019553048e-01,-2.885728342874341878e-01,6.884943128841150561e-03,-6.024226757346042363e-03,-3.847808386580237744e-03,1.444522589445114136e-01
-1.371799029668221148e-01,-1.474030306150775071e-01,-2.848456764726418067e-01,1.336704654435057552e-03,-1.823020339016751586e-04,-6.785386394099593476e-04,1.428528130054473877e-01
-1.482920352122329422e-01,-1.465681076860684828e-01,-2.897785103342118140e-01,-8.179833242974891361e-04,2.262306251869150759e-04,-6.769717663710164593e-05,1.423639059066772461e-01
-1.449439384250307827e-01,-1.450396091818039190e-01,-2.882211598078774362e-01,-6.063393664522056126e-04,-4.610066839587959281e-04,-3.841662734575803045e-05,1.432355046272277832e-01
-1.393878295066245387e-01,-1.460581767178895651e-01,-2.876488768421338049e-01,-6.572051035369474688e-04,2.480141389364631517e-04,-8.713788283246213953e-05,1.450461447238922119e-01
-1.280589035073996240e-01,-1.568411638619888748e-01,-2.845988677494637464e-01,1.986759375538787835e-03,-1.105424083730196204e-03,-1.753363830805912751e-03,1.444033831357955933e-01
-1.570343218819572617e-01,-1.274974819443265017e-01,-2.818581820406053096e-01,-1.007206308457712788e-03,-5.356080171210353012e-04,3.874481841127014651e-04,1.419319510459899902e-01
-1.249209285212490445e-01,-1.620897777378019766e-01,-2.760926804223474140e-01,2.901039950512303636e-03,-1.083957451237620336e-02,-7.640524900328523857e-04,1.378224641084671021e-01
-2.365762016523171862e-01,-2.258099764335982362e-01,-4.905265036357865371e-01,7.387159998134967820e-02,3.913867885022525445e-02,3.618706980830355829e-02,3.037034869194030762e-01
-1.378695199354924295e-01,-1.508035837486127184e-01,-2.878382694810939779e-01,1.538769082625291969e-03,8.390602134218497253e-04,3.026059630609594922e-04,1.439711749553680420e-01
-1.491374269306444678e-01,-1.355764647043690152e-01,-2.535877002167125638e-01,-6.324313557787703856e-03,1.577060003761513373e-03,-2.062349340095688370e-03,1.124740764498710632e-01
-1.300081269087486613e-01,-1.545233845448037713e-01,-2.825544307456830939e-01,1.414116650259858313e-03,-6.013335352083691435e-05,-6.995665402310287079e-06,1.419072598218917847e-01
-2.731825847916849459e-01,-1.747660928542226766e-01,-4.864893527364585468e-01,4.548273809031736642e-02,1.793902402319248399e-02,3.816452688261172399e-02,2.961748540401458740e-01
-1.530560820797048360e-01,-1.400524363668200212e-01,-2.935919659900667611e-01,-8.313383650169817868e-03,-5.844737119513851963e-03,5.991288066563639145e-03,1.488771736621856689e-01
-1.499742264931935853e-01,-1.515660233197905493e-01,-2.872338796609991141e-01,4.242452257278600297e-04,4.967403422937382561e-06,5.169273313606655699e-05,1.364727318286895752e-01
-1.503079367597743021e-01,-1.506967097079257578e-01,-2.870266900429069290e-01,8.219568501829542994e-04,-5.212622064429264719e-05,1.751759541480190740e-04,1.365325748920440674e-01
-1.336585875384153077e-01,-1.551203393457395163e-01,-2.861569068036988739e-01,1.481988694263596321e-02,1.382828526169344562e-02,5.874700902715166567e-03,1.475789695978164673e-01
-1.715986924645666600e-01,-1.330553494483244781e-01,-3.202147076780387791e-01,4.604747360962515483e-04,2.308920536111888286e-03,7.105293211527878051e-03,1.716640740633010864e-01
-1.490896115438801739e-01,-1.624125389927947027e-01,-2.946342378733680101e-01,5.308986894139550942e-04,5.428540120431744583e-04,1.389382217616134030e-04,1.393680274486541748e-01
-1.301456741600723888e-01,-1.566559599691368654e-01,-2.745520545601174978e-01,5.956542434595776467e-03,-1.346425518142040393e-03,-6.087039817403147102e-05,1.335650980472564697e-01
-1.483414482081476804e-01,-1.523119435752042228e-01,-2.904371440476850585e-01,2.607463035681452986e-04,-7.404378040911643519e-05,1.090980675117270756e-03,1.401661634445190430e-01
-1.606893493803074890e-01,-1.313741929146293175e-01,-2.862558228906678659e-01,-1.359287776691285067e-02,-3.340102686060456450e-03,1.093650043232362659e-02,1.457871943712234497e-01
-1.380099218176517040e-01,-1.500676971955064165e-01,-2.869129875722765122e-01,-1.253288587493560065e-03,2.080724438984362745e-04,-3.475229244582707963e-04,1.432734429836273193e-01
-2.237172654928190618e-01,-2.113915861057563961e-01,-2.586410332048243443e-01,1.496141070489751673e-02,-8.888017919634426389e-02,-1.060170269072460980e-01,2.447273433208465576e-01
-2.204991108690186330e-01,-2.716809843311263073e-01,-5.274715573740087482e-01,7.500396402944703445e-02,-3.800148766171869419e-02,-3.214176120997833813e-02,3.247285783290863037e-01
-1.764476244153553863e-01,-1.568338306469939103e-01,-3.361138086406961767e-01,-1.168551495023630211e-02,5.802039986669675371e-04,4.067542550831793752e-03,1.716681420803070068e-01
-1.223361021454403702e-01,-1.057235396914811554e-01,-6.356452723364770796e-02,-4.454305236019268782e-03,-1.055733825743893420e-02,4.582566094372064747e-02,9.719874709844589233e-02
-1.720268331625946501e-01,-1.573797835610747375e-01,-1.812601816425764567e-01,-1.090552088303122988e-02,-4.452409830063338431e-03,3.746312303636796515e-02,7.114598900079727173e-02
-1.797888765317602888e-01,-2.638992486469706744e-01,-5.170139113776874851e-01,7.977819935417071462e-02,1.371815925074943224e-02,7.123811901358043618e-03,3.350248336791992188e-01
-1.507057852521647701e-01,-1.596054249851739937e-01,-1.801881604194797148e-01,2.731565128766333460e-04,1.539158977376730870e-03,3.605559235699796420e-04,2.633917890489101410e-02
-1.352250458225978669e-01,-1.571693959599114732e-01,-2.887835585647979819e-01,-1.520974436417543620e-03,1.511495763516087229e-03,-5.086489799968563425e-04,1.438978761434555054e-01
-1.654207759899078423e-01,-1.572602178389601313e-01,-2.107701223338306340e-01,-2.840435921268395216e-04,3.907223074490318894e-03,1.964326365878073591e-02,6.080171465873718262e-02
-1.305773109613176386e-01,-1.315113477139242815e-01,-1.167664174790825071e-01,1.164362120830816569e-02,3.256167267205941490e-02,2.701181427798749618e-02,7.733651995658874512e-02
-1.438043902770300697e-01,-1.445741750233063561e-01,-2.878609692141195220e-01,1.449717398592787734e-04,1.501918899819354913e-04,3.333663919183223732e-04,1.436748504638671875e-01
-1.536057721853782143e-01,-1.281040734014624871e-01,-2.804701963106817075e-01,-1.004591859835316870e-03,-2.660754242999815999e-04,-2.560551910098473574e-04,1.413634121417999268e-01
-1.489167643290823795e-01,-1.447767885930951459e-01,-1.498501731275387605e-01,1.402084442858684762e-02,2.947088561787509012e-02,5.121796073009483863e-02,1.052951291203498840e-01
-1.466321628567172630e-01,-1.604833586204106322e-01,-2.933977573134406991e-01,1.375307468529756100e-03,1.698642543302425825e-03,-1.203884903606585724e-03,1.404200643301010132e-01
-1.268077894112317194e-01,-1.560666408782242498e-01,-2.873402542470976373e-01,-1.166177143435238525e-03,2.942049202773333247e-03,-1.157321138489759646e-04,1.481885462999343872e-01
-1.477227527832243315e-01,-1.615565154183528085e-01,-2.962546922116995329e-01,2.405711370500361775e-03,-5.152716616503122101e-04,3.474862715442489868e-04,1.421860605478286743e-01
-1.477159740643771979e-01,-1.680445778950361846e-01,-3.044994291719100299e-01,3.932964551456402842e-03,-3.913085256937698072e-04,2.647844046746236548e-03,1.479020416736602783e-01
-1.405166250887387724e-01,-1.568760762034989154e-01,-2.893223758701274351e-01,2.147297118015841725e-03,1.541747729729681842e-03,1.068160621973680396e-04,1.414121687412261963e-01
-1.529544896232114537e-01,-1.895763178307483809e-01,-3.424482081856274895e-01,1.244799842468984064e-02,6.722208940195571053e-03,-6.604755146237625656e-03,1.761837452650070190e-01
-1.590921988518926300e-01,-1.357156875926158746e-01,-2.855406533231908406e-01,-3.171790705795879493e-03,-3.177718348276719885e-05,4.689742181850958445e-04,1.397227197885513306e-01
-1.449800641352638753e-01,-1.547328417043561943e-01,-2.894958629474207457e-01,3.801730934108178521e-03,2.459254159335864508e-03,3.905127624425914611e-04,1.401158869266510010e-01
-1.482898131988323320e-01,-1.552362620013088557e-01,-2.900821460612241776e-01,1.938837400962201488e-03,-1.059285901085190058e-03,-5.068694846047440980e-04,1.385055184364318848e-01
-1.406287532037210353e-01,-1.316805725795984205e-01,-2.621821548730292051e-01,7.705789002558235956e-03,4.499845181222981647e-03,3.170688400332957388e-03,1.273264437913894653e-01
-1.909957401938653654e-01,-1.698359554017541406e-01,-2.453869803879193401e-01,1.478149348253657291e-02,-2.925002364439616837e-02,-4.066212834172462653e-02,1.128691509366035461e-01
-1.376685011803437386e-01,-1.555919661275147747e-01,-2.920744947810905989e-01,-1.968684731562211909e-03,1.096898980607825640e-03,-2.668680399671108589e-04,1.463230103254318237e-01
-1.346179135337604305e-01,-1.580576820444513642e-01,-2.900817674572857552e-01,-8.064705930133450216e-05,2.272732873899893820e-03,-1.528098899897824259e-04,1.452239006757736206e-01
-1.267601296718964266e-01,-8.172051269228966519e-02,-1.532184612215652941e-01,-1.791069233792631690e-03,-2.341529499414830851e-03,-8.007004299320297225e-02,1.522497683763504028e-01
-1.434060961715697691e-01,-1.486598234359588488e-01,-2.887168698274970580e-01,-6.523749275528889328e-04,2.717870251503552194e-04,2.004066253580515078e-04,1.427621096372604370e-01
-1.643100917322210530e-01,-1.328396758276864376e-01,-2.932450291791131036e-01,-6.668414325405098595e-04,2.885222495369173744e-04,-2.395307411907053336e-03,1.472787708044052124e-01
-1.500341508759985287e-01,-1.461029348402261285e-01,-2.897866288379163380e-01,-7.249229436194950648e-04,-6.404464988586266354e-04,3.773108647625807751e-04,1.417703777551651001e-01
-1.470732179917930427e-01,-1.428595056914979955e-01,-2.892647371235372855e-01,-8.528316560797751097e-04,1.285990272855888476e-04,-1.627089693153558063e-04,1.443525105714797974e-01
-1.509943508450209693e-01,-1.495368768594899644e-01,-2.888675020945180583e-01,-5.440417864361090424e-04,1.197301026836673218e-04,9.211353509679947476e-05,1.386110782623291016e-01
-1.690951052512256469e-01,-1.315311320449829846e-01,-2.869644887681557788e-01,1.509683183758256169e-03,5.059125921390117235e-04,-8.960793306656687773e-03,1.413519680500030518e-01
-1.513530792876893183e-01,-1.498256480241186295e-01,-2.880195852853512095e-01,-1.071532245007231340e-03,-6.873218968119391243e-04,2.029491364929489534e-04,1.374547183513641357e-01
-1.516524529919096587e-01,-1.257450396183194541e-01,-2.735823453802110894e-01,-3.953627092905288853e-03,-3.799643793012437844e-04,5.212836421333741539e-03,1.372072398662567139e-01
-1.413229086167103188e-01,-1.532322037889717325e-01,-2.904577619995046267e-01,1.447725338398237350e-03,1.498116078221672920e-03,5.411998701407995897e-05,1.435965746641159058e-01
-1.494460300587958645e-01,-1.527083517879718466e-01,-2.876511685223253068e-01,9.860091608176241220e-04,-1.513427624199481371e-05,3.061516621587472703e-04,1.366149038076400757e-01
-1.526718585416141083e-01,-1.508048548747277506e-01,-2.954112273443569858e-01,3.887384152427323172e-03,-4.850176477806725488e-04,2.895391027320043885e-04,1.438429653644561768e-01
-1.553341927308729276e-01,-1.253974405332641262e-01,-2.790129248533738116e-01,-1.087384263071510806e-03,-6.681193056100765294e-04,1.038053195124655952e-03,1.410790383815765381e-01
-1.425203146113948882e-01,-1.379044789704451934e-01,-2.851225804925937024e-01,7.249099226992157877e-03,-4.121953481808810979e-03,-3.540521452337864246e-03,1.458120942115783691e-01
-1.360117155006144163e-01,-1.496203144692011544e-01,-2.867289412283696159e-01,1.359481909662784609e-03,-9.216407088145872574e-04,-1.101813282947091609e-04,1.444228291511535645e-01
-1.486006723544776587e-01,-1.421244596223507906e-01,-2.902503807054329088e-01,3.281047408285519152e-03,-3.071506275332641883e-04,-5.171787854858726080e-04,1.451113969087600708e-01
-1.682958538996017217e-01,-1.371911938482895665e-01,-2.408420441750384888e-01,1.234815294607559052e-02,-6.550343229535854871e-03,-3.817713570859074951e-02,1.159551963210105896e-01
-1.354976065748189074e-01,-1.309316668942361594e-01,-2.803159682369599226e-01,1.621115008632915966e-02,-8.648502166634862778e-03,-9.497436217960914667e-03,1.514524221420288086e-01
-1.440322646633416248e-01,-1.421176099307225327e-01,-2.867653569588871076e-01,-2.044089190181329688e-03,3.538542237206625777e-05,-2.085148823596110520e-04,1.437440663576126099e-01
-1.412109413385759515e-01,-1.402085092394396715e-01,-2.872644691512074022e-01,-4.707259362310921270e-04,-1.850619551845809625e-04,2.798633929419178687e-04,1.465607285499572754e-01
-2.216590681724116552e-01,-1.178282511329027671e-01,-4.894585587132629367e-01,4.569346326626076704e-02,-2.674335587951229276e-02,2.339157263884659652e-02,3.469207882881164551e-01
-1.505053341269894929e-01,-1.509150944763719138e-01,-2.870292532097806770e-01,5.131660234429829192e-04,8.789212289743046419e-05,5.261817070100341266e-07,1.363224834203720093e-01
-1.417601791998477911e-01,-1.426936251565792402e-01,-2.886592580844782319e-01,-3.915267640557485254e-04,7.852967327172020139e-05,-4.262378452689619866e-08,1.464362144470214844e-01
-1.412338443019059142e-01,-1.400633363250713415e-01,-2.868639802515614567e-01,-7.518659066186192614e-04,-1.292291907854750568e-04,2.861118175604105237e-05,1.462248861789703369e-01
-2.497490623953132483e-01,-1.878878673211116790e-01,-5.157490811671510134e-01,7.283612591988854190e-02,-1.501382850640102518e-02,-2.280883241568990374e-02,3.304393589496612549e-01
-1.426256307310562466e-01,-1.820729878384853839e-01,-3.186787935410373973e-01,-2.365497584942999245e-03,2.610243847648488491e-02,1.855712934266553040e-03,1.663643866777420044e-01
-1.452605509736831224e-01,-1.576365344126550161e-01,-2.912968228464442588e-01,9.800383748793939365e-04,4.239458639746693756e-04,8.300237185331499085e-04,1.402779519557952881e-01
-1.464587201498874225e-01,-1.532822921227283974e-01,-2.872106776900700265e-01,1.283041538099519542e-03,-3.588177420288146311e-04,-1.354993390686019968e-04,1.374868154525756836e-01
-1.326895016295414342e-01,-1.540346337701209989e-01,-2.874626952083836340e-01,1.217427828911028884e-03,1.830788243328941058e-03,-6.596219658622620155e-04,1.453358530998229980e-01
-1.339539917745729836e-01,-1.080534203208134286e-01,-2.108040922324611599e-01,2.023246817277531834e-02,-2.833275108856894015e-02,-6.130132156908092017e-02,1.532223522663116455e-01
-1.265869779942347395e-01,-1.585304389291028460e-01,-2.801908910588948864e-01,4.599879045993506390e-04,-4.486536064635089443e-04,6.255306628233589798e-05,1.403893083333969116e-01
-1.421236950240619967e-01,-1.428900542936079598e-01,-2.883532657958687295e-01,-3.532884212837738669e-04,-1.512274614499710694e-04,-1.683021918677769042e-04,1.458497047424316406e-01
-1.411164025544491274e-01,-1.434604956337433013e-01,-2.877939072565863787e-01,-1.114479542207817524e-03,1.806361378876246817e-04,4.647105026451580950e-04,1.455349773168563843e-01
-1.596777076741980328e-01,-1.311260179231188983e-01,-2.902781599434958171e-01,1.871530519702567594e-03,6.682663438796605749e-04,4.968189258323362292e-03,1.472631543874740601e-01
-1.631346390512005140e-01,-1.352679989527407478e-01,-2.936857549438269821e-01,7.173157147331463103e-04,1.558889777575913314e-04,4.094411176749147493e-03,1.466631293296813965e-01
-1.894743617917929723e-01,-2.306099150789444330e-01,-2.959190485678444560e-01,5.527600731596709997e-03,9.078730123593513335e-02,1.648464924470229021e-02,1.851427555084228516e-01
-1.639559234793325215e-01,-1.404646677434231716e-01,-3.010558109545968808e-01,2.561414085579153494e-04,3.348985501045607851e-04,7.834498183652195301e-04,1.502372771501541138e-01
-1.697154228475253879e-01,-1.205435570950160740e-01,-2.925261518558619489e-01,8.743755843444850611e-04,-1.883227808763082885e-03,1.141569511781059289e-02,1.547354757785797119e-01
-2.054896682807466624e-01,-1.518118174331632986e-01,-3.400034664337560075e-01,-6.248855622560020237e-03,-4.693933703159951232e-03,1.818378750434641866e-02,1.713793426752090454e-01
-1.555614328171760208e-01,-1.122874216021615273e-01,-2.913217226183018038e-01,5.410363152699876679e-03,6.010284796327711957e-04,1.374693410938447602e-02,1.638115495443344116e-01
-1.514923594565235065e-01,-1.540216004015208806e-01,-2.892944165977467397e-01,1.073139175541851182e-04,-2.613095482660485566e-05,7.386988798426352525e-04,1.365611255168914795e-01
-1.478973683425563179e-01,-1.482575697354746036e-01,-2.885770056015413143e-01,1.683143892670987268e-04,3.118576341306437396e-04,3.516056859015090981e-04,1.405025422573089600e-01
-1.314604803558987456e-01,-1.581744744842907280e-01,-2.778440566591716121e-01,-5.361196740702819756e-03,-3.394139982684943845e-03,2.336197492944926232e-04,1.354704797267913818e-01
-1.438386792887102750e-01,-1.494262289092794238e-01,-2.873768275168764319e-01,2.039976756462915947e-03,-7.830781190148460328e-04,5.134688551507341847e-04,1.408811956644058228e-01
-1.550936672275754213e-01,-1.685452943556033922e-01,-2.294455215630869238e-01,1.136961973546442165e-03,4.898247771727717859e-03,1.908618432436811675e-04,6.917338073253631592e-02
-1.537894162498136819e-01,-1.506401895816814607e-01,-2.890681672577958272e-01,-4.332052398451097122e-05,4.649422701046363382e-04,6.283354940286807510e-05,1.368829756975173950e-01
-1.472561415980972455e-01,-1.479123977172457360e-01,-2.858968586870410666e-01,2.547214020881835225e-03,-1.626696607233332206e-04,1.854321711144395760e-05,1.383844017982482910e-01
-1.522586965368529222e-01,-1.475925798140816092e-01,-2.925044626176941387e-01,4.309206143344774739e-03,-5.288587882953057649e-04,-2.158571985844679245e-04,1.428346484899520874e-01
-1.479065869711677084e-01,-1.521164568676996454e-01,-2.877799253265062029e-01,9.019186359707254434e-04,1.423250311399287197e-04,7.181981694830249152e-04,1.378313302993774414e-01
-1.508796537776609936e-01,-1.512723394850341019e-01,-2.872588265792890838e-01,-9.145275707468425224e-05,-1.932966033189394042e-04,4.164459973473378832e-05,1.361837834119796753e-01
-1.533037636269576898e-01,-1.495351360219451531e-01,-2.900507270446242014e-01,-4.864793535271580709e-04,-7.669130947516253089e-04,4.325354159592492817e-05,1.386786252260208130e-01
-1.410099486476821262e-01,-1.702805469289435936e-01,-3.033397790717095033e-01,-5.085255360289596231e-03,2.193258220410485449e-03,-1.172372939473130884e-03,1.501745134592056274e-01
-1.493762275995022537e-01,-1.620181597931096840e-01,-2.945843229696429311e-01,5.401482992679301591e-04,-1.403090646100197715e-03,2.242827099001811712e-03,1.393964439630508423e-01
-1.614138401483442287e-01,-1.316904269276200079e-01,-2.913378778921201784e-01,-2.532606972935367109e-04,1.998456366066220810e-04,3.641007666120821187e-03,1.471924036741256714e-01
-1.441579973306798546e-01,-1.629872518958930538e-01,-2.991273494351616158e-01,-8.035247715369201946e-04,2.924656824463425461e-04,-8.407363367023310777e-04,1.464800238609313965e-01
-1.431757314062896969e-01,-1.590333764722091647e-01,-2.969516887812502226e-01,-2.574925677879262749e-03,-8.442168835956629551e-04,-2.276202747382751455e-04,1.465679705142974854e-01
-1.358512572564400667e-01,-1.586344128863892422e-01,-2.966915285614649678e-01,-5.259416423095269154e-03,2.253997126390013244e-03,-6.263170381798045198e-04,1.510748714208602905e-01
-1.485511250513890380e-01,-1.524681605395467598e-01,-2.907462665108130895e-01,-1.558604071716397903e-04,-3.701001404833998668e-04,1.016944960107271775e-03,1.402904242277145386e-01
-1.511589004957180904e-01,-1.519660884666683975e-01,-2.872902951586182030e-01,-6.060713607333283182e-04,2.075208883950776552e-05,1.908710422206879605e-05,1.357336640357971191e-01
-1.690880730906579310e-01,-1.538846118732699886e-01,-2.213896010682803173e-01,9.922311044093564802e-05,9.171038056021988056e-05,-3.000567502363222193e-03,6.155342608690261841e-02
-1.523151691480419123e-01,-1.485172140539789964e-01,-2.877002232815747407e-01,-9.562296540705068904e-03,-1.978667859361059236e-03,6.531431151099127003e-03,1.388227641582489014e-01
-1.335576395323826993e-01,-1.594375413346827419e-01,-2.960045140637797556e-01,-2.527504889099533008e-03,2.890167757593431908e-03,-8.422412152415510386e-06,1.513237357139587402e-01
-1.472846703318014261e-01,-1.538076250860118954e-01,-2.905541934705402340e-01,-5.801614966215022998e-03,-2.559908515294336776e-03,5.950373868487942924e-04,1.405555456876754761e-01
-1.458196691244179055e-01,-1.679243139923110584e-01,-2.386081537873354363e-01,-2.260078975743907547e-03,-1.374566161076825124e-02,8.191593163637787833e-03,8.849136531352996826e-02
-1.484776905778948108e-01,-1.545110697968013480e-01,-2.878403634701945379e-01,3.331439149088731002e-04,7.830635828739850469e-04,-1.124305117160660219e-03,1.364679187536239624e-01
-1.552587257204814386e-01,-1.432941602544562931e-01,-2.909998942275472400e-01,-5.602620677855244154e-03,2.451300224294329644e-04,2.923578167759587933e-03,1.425233036279678345e-01
-1.548130614040452158e-01,-1.384870077322603310e-01,-2.914439696391338819e-01,-2.720280180080827687e-03,-2.809508896587116348e-04,6.406555125358187565e-04,1.455639302730560303e-01
-1.301523745603475057e-01,-1.589602510266692748e-01,-2.887843811419961160e-01,-2.195755232476359967e-03,2.703293998787615823e-03,-6.400076949496263283e-04,1.464983671903610229e-01
-1.554496986089509147e-01,-1.355691485073546310e-01,-2.937534314765118948e-01,-5.642679316945896882e-03,-1.446342948200051988e-04,5.681015369902011995e-03,1.498836725950241089e-01
-1.508745238693272872e-01,-1.558560147255985684e-01,-2.932206124611025366e-01,2.955518943730198341e-04,6.796738149186354978e-04,-1.442035993611583621e-04,1.399279832839965820e-01
-1.374694374324555157e-01,-1.876254307348141082e-01,-3.072510331718104615e-01,-1.034792897987499814e-02,2.708277119034632405e-02,-4.662287580749840780e-03,1.594136953353881836e-01
-1.294237624399305620e-01,-1.619267084264980061e-01,-2.762663107509296667e-01,2.245010073574145015e-03,-1.210185988064974147e-03,3.685602765133302807e-04,1.336648166179656982e-01
-5.532693259355923876e-02,-1.324048005475066403e-01,-2.840699176070851095e-01,2.376501820525289341e-02,6.026629521969793270e-03,5.274002409062348955e-03,2.062039375305175781e-01
-2.087448807878099222e-01,-1.640951598315376070e-01,-3.846472328565150312e-01,2.470382151838575874e-02,-2.858585916346817121e-02,-7.744597964163849046e-02,2.511277794837951660e-01
-1.325075414333812263e-01,-1.543036245750974977e-01,-2.851092107560316280e-01,1.392621119522284784e-03,-2.031915043943599921e-04,-6.086317001201630101e-04,1.429799795150756836e-01
-1.303950607994689981e-01,-1.565096068855455214e-01,-2.868090738468664913e-01,-2.636632033339306007e-03,3.512506029780885532e-03,-3.075019454713357261e-03,1.454264968633651733e-01
-1.378683078295007136e-01,-1.654427697189319868e-01,-3.029472943969468979e-01,-8.570786462048783291e-03,6.839782315304693792e-03,-5.583001760188997450e-03,1.546405255794525146e-01
-1.218416654240888214e-01,-1.608220689319626029e-01,-2.887773069254227498e-01,-3.949730370416531036e-03,2.248304726589252234e-02,-9.426484928846338984e-03,1.571928709745407104e-01
-1.439955128638048254e-01,-1.572035165264741019e-01,-2.911003009210810233e-01,4.025958217425865235e-04,1.134530908823437210e-03,-6.292352912408558834e-04,1.409852653741836548e-01
-1.456765732620114162e-01,-1.660419557143389402e-01,-3.022767384601738327e-01,-2.206145104086078366e-03,5.176137470108794700e-04,-3.045939871513905425e-03,1.476224064826965332e-01
-1.424024319317737930e-01,-1.459345681088530244e-01,-2.755219036840277358e-01,-8.801231896421858256e-03,-1.224909603136677041e-03,5.024113856668664148e-04,1.322902739048004150e-01
-1.483529265221316951e-01,-1.426169792754899412e-01,-2.885714238078598837e-01,-3.260040757204480614e-03,7.346643307645362017e-04,-7.323379170463499956e-04,1.432952433824539185e-01
-1.350751372897324165e-01,-1.575505314500635912e-01,-2.845208872908835396e-01,-3.351680765513679466e-03,-1.186027170309711653e-04,1.330048461215354823e-04,1.396929472684860229e-01
-1.477056522818016582e-01,-1.533486879354213350e-01,-2.875712882630807599e-01,-3.626388035985344833e-04,3.913678723877713384e-04,1.792852146620958808e-04,1.371346861124038696e-01
-1.525476558813227690e-01,-1.355464819828090528e-01,-2.816800467994898249e-01,-4.456273124658756586e-03,1.971446399773095991e-04,-8.391192756458064599e-04,1.386413425207138062e-01
-1.410345951562259059e-01,-1.586102343122163527e-01,-2.921699840144569293e-01,1.472546455654759237e-04,1.571187883124870689e-03,-3.687525875299304645e-05,1.431851387023925781e-01
-1.386654844751469273e-01,-1.564432450436524513e-01,-2.905995558099258580e-01,-1.883499485985480875e-03,-1.828199436299660433e-03,-8.268975385892522387e-04,1.439502835273742676e-01
-1.446094668250264004e-01,-1.439173168811934966e-01,-2.910062410442303404e-01,-1.329917285109526517e-02,-6.163148971968131218e-03,1.155295546351118967e-02,1.502624154090881348e-01
-1.470605481670579362e-01,-1.340573623830846883e-01,-2.799392245458353079e-01,-4.505161778798476811e-03,7.370569231215375831e-04,-1.488750188945434007e-03,1.400815546512603760e-01
-1.457104865241880542e-01,-1.371046498614253706e-01,-2.847342678629283252e-01,-2.426501571469486928e-03,-2.437469223577138949e-04,-8.856823651015992304e-05,1.435825675725936890e-01
-1.543826473736168992e-01,-1.414170595900840210e-01,-2.758415700920590075e-01,-7.881179634374017168e-03,1.674963144714291781e-03,-3.146224700144245514e-03,1.293043494224548340e-01
-1.527916251991175423e-01,-1.504368927045751092e-01,-2.880177926120716103e-01,-3.654834406216753736e-04,-4.956571366693294329e-04,7.786397146175555841e-05,1.364230066537857056e-01
-1.539308391561063083e-01,-1.216310355393801779e-01,-2.671582295633655457e-01,-5.026547260920860571e-03,3.069191744145121584e-03,-1.187010141993570002e-02,1.343417167663574219e-01
-1.361905167081544354e-01,-1.336105000562956557e-01,-2.877720267239651242e-01,-1.535418873236388954e-02,1.191937213101062522e-02,-9.075001753487747097e-03,1.573379486799240112e-01
-1.486063751299446789e-01,-1.542017021323887349e-01,-2.930743353392586958e-01,-9.789389416232304603e-03,6.453126236527970822e-03,7.303863151693688709e-04,1.432060748338699341e-01
-1.473324818747465959e-01,-1.589370499030957340e-01,-2.945046337396924896e-01,-6.292342878213053091e-04,-3.905440883290166472e-05,9.255671368785624905e-04,1.417399048805236816e-01
-1.479657630261380918e-01,-1.575096165982444729e-01,-2.902833600256983226e-01,-4.988766683377815871e-04,-6.987795544606816445e-04,-4.643079365405981774e-04,1.378041505813598633e-01
-1.505755338787819197e-01,-1.509949769191484825e-01,-2.864911127149892822e-01,1.917595362436273884e-04,-1.941046017692700857e-04,-1.349213398661781740e-04,1.357073634862899780e-01
-1.719068599503462969e-01,-1.689090650250431314e-01,-2.461310849045695859e-01,-3.634335267445568552e-03,6.329419471072707075e-03,-1.213970333883423666e-02,7.964080572128295898e-02
-1.280890212102717696e-01,-1.696339368416333870e-01,-2.686659013037500099e-01,-4.594569270198429339e-03,2.316331664553097566e-02,2.111129801030119622e-03,1.316582858562469482e-01
-1.383134210800825159e-01,-1.525863029502280144e-01,-2.887879557420613419e-01,-3.160145497861443099e-03,1.281406924905394802e-03,-6.862428435664370743e-04,1.439961642026901245e-01
-1.645673519702206267e-01,-1.799694779925854193e-01,-2.405718862143516601e-01,-4.736251611762837786e-03,1.778335317831916673e-02,-2.287325838759786227e-03,7.664866745471954346e-02
-1.310151469716601957e-01,-1.556528000340467732e-01,-2.861634598449437350e-01,1.354415471437614513e-03,-1.994773166492898060e-03,-5.165089945371375895e-04,1.444775611162185669e-01
-1.516433309612833791e-01,-1.491478715342975658e-01,-2.867170705958833055e-01,-1.774552227886122394e-04,-1.773954975417662552e-04,2.072038126952218708e-04,1.363397687673568726e-01
-2.259121377649705442e-01,-1.421037278178461927e-01,-3.690631819060760099e-01,1.159457520086314662e-02,-2.510156779687606685e-02,-3.583574472992059889e-02,2.136808484792709351e-01
-1.455426966191365468e-01,-1.373984907633868935e-01,-2.254432097621747455e-01,-1.252943059037781373e-02,5.606564558851892359e-03,-1.118586005853487199e-02,8.967595547437667847e-02
-1.798122993923963464e-01,-1.939651000739230913e-01,-3.673293758655195029e-01,1.933202922804832732e-02,5.508590969335734784e-04,7.838656877297454570e-03,1.844328939914703369e-01
-1.529381163331194060e-01,-1.524372547683171819e-01,-2.897624894446347299e-01,5.384167123039675351e-05,3.999552836716328705e-05,-5.817692076522486196e-05,1.370755732059478760e-01
-2.566651760866122678e-01,-2.075006905143604308e-01,-3.586088523513248916e-01,8.881783593317822689e-03,-2.506355556159954590e-02,-9.823942863781204293e-02,2.211240082979202271e-01
-1.373118593339617832e-01,-1.096344668368200020e-01,-1.633380501034817633e-01,-6.633876068068597122e-03,1.882605309414442721e-02,-4.224708654142704523e-02,9.334598481655120850e-02
-1.761534890374366336e-01,-1.644067854123385242e-01,-2.344155813852321635e-01,-2.748841502449377375e-03,3.838448008149282411e-03,-1.441166723435880447e-02,7.004857063293457031e-02
-1.593201179742164686e-01,-1.345232731409023996e-01,-2.801887200178158066e-01,1.056568323641006099e-02,-7.062771993824316051e-03,-1.661815208171333116e-02,1.397651582956314087e-01
-1.678944686066667080e-01,-1.535668666632310220e-01,-2.077781157213689223e-01,-3.185486975575642691e-04,-5.225894946120714785e-03,-4.908315537860057608e-03,5.021883547306060791e-02
-1.513143389299681230e-01,-1.536485419359552296e-01,-2.892260464680393994e-01,2.534449432106268660e-04,1.197157234266226715e-04,6.329182410370258428e-04,1.367648094892501831e-01
-1.364588466828743907e-01,-1.500929202995365808e-01,-2.875714953115112160e-01,1.354840851161696197e-03,-8.215672646212710114e-04,7.675505805132690825e-05,1.448039710521697998e-01
-1.460463888219649120e-01,-1.486603198349029098e-01,-2.870770539518558984e-01,5.978985175651680513e-04,-2.688400861978966472e-04,9.335053538767659450e-05,1.397467404603958130e-01
-1.521621252794086721e-01,-1.485047455275723682e-01,-2.067172369041418989e-01,-5.711558817883370665e-03,5.561876762388726254e-03,-4.179500072059054092e-03,5.858531594276428223e-02
-1.434332231909324906e-01,-1.497718576845148697e-01,-1.828172790488121757e-01,-6.322417784711723866e-03,1.007444462070648285e-02,-5.957921611610593471e-03,4.327278211712837219e-02
-1.481302722111311476e-01,-1.439056846709230730e-01,-2.887462820185761059e-01,-4.325068932171595611e-03,-1.346644862541747801e-04,1.348898300225327522e-03,1.429908573627471924e-01
-1.449074983249599990e-01,-1.067346705353728192e-01,-1.607895079765920832e-01,-5.422497650641055003e-03,8.067611528340514274e-03,-4.519141365029651081e-02,9.341266006231307983e-02
-1.460144496625199184e-01,-1.494376415902934629e-01,-2.891540746216968438e-01,6.403194028607414904e-04,1.206885722045510963e-04,1.649735136329439104e-04,1.414638906717300415e-01
-1.452999046939394689e-01,-1.545830637699500687e-01,-2.915053913144745601e-01,1.359179836378829331e-03,-3.504889685118054593e-04,7.547608433871766560e-04,1.418188661336898804e-01
-1.346081094517858900e-01,-1.572091797042803329e-01,-2.916757202716759312e-01,2.864558487137984803e-04,-3.290950417927563602e-03,-2.325210819120421637e-04,1.471871137619018555e-01
-1.650746672611141386e-01,-1.584083566981839275e-01,-1.899655238642068700e-01,-1.331235085042495499e-02,2.533291776864124781e-02,-1.904691969369125618e-02,6.614534556865692139e-02
-1.395146377795677406e-01,-1.576809603938378879e-01,-2.798427676354903748e-01,-7.989035270626502344e-03,-3.348878858130139983e-04,7.421890869618444960e-04,1.329143196344375610e-01
-1.348282340585833794e-01,-1.511273307632983176e-01,-2.864790770003187714e-01,-3.743189530006579054e-03,1.247207807176611968e-03,-3.493977508810667859e-04,1.443569660186767578e-01
-1.411391766877344855e-01,-1.416631005043699765e-01,-2.689512782575855243e-01,9.126872887003529070e-03,-1.047266886488909228e-03,-8.475666860717088937e-04,1.285479962825775146e-01
-1.843680956805104909e-01,-1.148882273691543693e-01,-3.339606439054695897e-01,3.782964678983807751e-03,5.056263613006910067e-03,-4.490528770381027601e-02,2.092083543539047241e-01
-1.255784330155370609e-01,-1.562064637795651523e-01,-2.702157522205496654e-01,-3.734941430232034546e-04,-1.230761943373685731e-03,1.195153647283449944e-03,1.320504546165466309e-01
-1.670761571433321269e-01,-1.381934939719597355e-01,-2.991406006796249462e-01,5.717466415649061218e-03,-2.902339910701444252e-03,-1.656237523916064686e-03,1.490676552057266235e-01
-1.513167657205068406e-01,-1.736596473988449296e-01,-3.302267424379338179e-01,-7.568008839264278934e-03,-3.576789513759664509e-03,5.228341853490893476e-03,1.697139739990234375e-01
-7.922554978192639097e-02,-1.367610647072919072e-01,-1.527178029566965134e-01,7.278991397962514785e-03,-5.946672857324644679e-02,-1.475828009895358006e-02,1.261121630668640137e-01
-1.644910339395428689e-01,-1.455950792093497759e-01,-3.001736278324259599e-01,2.905228501184244430e-03,4.215298637061772394e-04,3.164741815500205879e-04,1.461397558450698853e-01
-1.512125260999978016e-01,-1.638835930630130888e-01,-2.962806106459285882e-01,2.787928783065508984e-04,-4.455364346704034149e-04,1.569232764673577165e-04,1.391691118478775024e-01
-1.664578592596312467e-01,-1.490363539211350674e-01,-3.021543081162900712e-01,8.671809395604909883e-04,5.913961116777181806e-04,1.365526617281776377e-05,1.452046036720275879e-01
-1.373159616652319948e-01,-1.630154850423094770e-01,-2.946164088541176618e-01,1.103315841650685889e-03,-3.222048635609950449e-03,9.830463533445417835e-04,1.462841331958770752e-01
-1.210095634402124226e-01,-1.458754142590703851e-01,-2.721772942758257097e-01,-5.436375851065931505e-03,-9.247299892835906393e-03,3.562505025962419813e-03,1.417545527219772339e-01
-1.528286974593774938e-01,-1.481671491417833053e-01,-2.905982395461472745e-01,-1.305814738081965910e-04,1.258524902834698726e-03,-9.314458492343955984e-05,1.401757001876831055e-01
-1.667928805921355395e-01,-1.502874676723242042e-01,-3.034977022194772500e-01,-5.227500719892182917e-04,-1.154938638300688231e-03,-4.305559134805838728e-04,1.456790417432785034e-01
-1.515934457477817188e-01,-1.536819165264527998e-01,-2.883153956006697660e-01,-2.146452542004093002e-04,2.246590392894555238e-05,-5.626402443315962898e-04,1.356937885284423828e-01
-1.509349224726188043e-01,-1.616375006735135400e-01,-2.951112899054682548e-01,-4.344440327775277790e-05,-1.327014476071759763e-03,8.130358336413593236e-04,1.391602754592895508e-01
-1.389967941324075917e-01,-1.506920774438712529e-01,-2.864463525285467771e-01,-2.978277858065674598e-03,2.252601445273370601e-04,-1.910737221751444923e-04,1.420582979917526245e-01
-1.488249213203476917e-01,-1.489094853471932822e-01,-2.870402562962846016e-01,-2.677639389307118548e-03,-4.354491955276243491e-05,-4.370525412827167846e-04,1.382529735565185547e-01
-1.431080289847976861e-01,-1.732867825985681953e-01,-2.860855819992836890e-01,-1.210860807049827896e-02,-2.385623652854412802e-02,1.563582459651869511e-02,1.411350667476654053e-01
-1.193627498355672861e-01,-1.558156869811764267e-01,-2.901622094012421549e-01,-1.436258400002456224e-03,-8.766597722004131066e-03,2.071325669900315504e-03,1.566037982702255249e-01
-7.864353085323659565e-02,-1.514195770115534523e-01,-2.758395472065122700e-01,-2.639757574675940383e-02,-4.046562341904270249e-02,1.721610912096734752e-02,1.942255198955535889e-01
-1.159339279211030610e-01,-7.427443296508839943e-02,-2.131003357413740473e-01,2.212832722819627757e-02,-2.738303566349405138e-02,-6.344724535370747931e-02,1.761245727539062500e-01
-1.699813447747471340e-01,-1.432667157361042498e-01,-3.006650143593571078e-01,-1.285061177468372479e-02,-4.370407479395319213e-03,1.510693739033308093e-02,1.500680893659591675e-01
-1.784788485185393181e-01,-1.330993305733425003e-01,-3.012668014845361064e-01,2.977823503060171746e-03,3.546552895094579744e-03,8.577787712064027445e-03,1.516354531049728394e-01
-1.500810055789509045e-01,-1.506175119411188312e-01,-2.877294435378471293e-01,-2.017111446655261205e-04,2.737135878019556282e-04,-3.660099597475601103e-04,1.373836994171142578e-01
-1.453540917844567126e-01,-3.823646724281218323e-02,-2.795709842910983900e-01,-6.522781643807278387e-03,3.247724710162539462e-03,-6.231971786754670305e-03,2.100979536771774292e-01
-1.513307274634768107e-01,-1.122699688295263898e-01,-2.877221345936174512e-01,-2.233572163701488464e-02,-1.883541068456644207e-02,4.264954460905490824e-02,1.829585582017898560e-01
-1.462766416692628801e-01,-1.474352393493160718e-01,-2.876944690869923105e-01,-5.692487371822412033e-04,5.094179509894586951e-04,-6.518181799049760881e-04,1.408528387546539307e-01
-2.028261880815736828e-01,-1.248334022137615046e-01,-3.119585563219734459e-01,-2.190312272530499024e-02,-1.854447244853654406e-02,4.678128208093660506e-02,1.885223686695098877e-01
-1.568113428341955107e-01,-1.523572385410434937e-01,-2.929229781103757091e-01,4.710567179171941420e-04,6.372885631053533222e-04,-4.526148782664263280e-04,1.384014785289764404e-01
-2.007340690754701729e-01,-1.473170241942169667e-01,-3.245082910720231695e-01,-9.250061320418953917e-03,1.981853168032982494e-03,3.458873086741384023e-02,1.692415624856948853e-01
-1.618323471496452282e-01,-1.316289549747606258e-01,-2.918016543900660564e-01,3.047660606239292053e-03,1.759232407941683368e-03,6.063443755069979589e-03,1.479095220565795898e-01
-1.437622555473845598e-01,-7.268972193679318350e-02,-2.517598764093489927e-01,1.191755951264561984e-03,3.652685955971248150e-04,4.761356148257232801e-02,1.766246557235717773e-01
-1.735169549334697470e-01,-1.311089249769481491e-01,-3.015248106918617110e-01,2.381643850499496479e-03,-1.920049033919593568e-05,1.152509396334232272e-02,1.550113409757614136e-01
-2.213818177883719318e-01,-2.075594290202554537e-01,-2.618459296107936707e-01,1.205238008377091177e-02,-3.809713320642014317e-02,-1.085496564358578997e-01,2.062201499938964844e-01
-1.454605786179452576e-01,-1.446315724872830333e-01,-2.875707766995140857e-01,1.169786160005685375e-04,1.874279304726245881e-04,3.636868326829108505e-04,1.425284147262573242e-01
-1.511141270854855223e-01,-1.498537830385786584e-01,-2.902564602563649232e-01,-1.188060959804042999e-03,1.569864266283844663e-04,6.709410450750438076e-05,1.397922188043594360e-01
-1.637785441215230675e-01,-1.292720551396287498e-01,-2.916500399743637839e-01,6.070356915314567905e-04,3.827674435273973209e-03,1.055406377217405108e-02,1.494437605142593384e-01
-8.511663270921433766e-02,-8.332535725806239357e-02,-1.150645063618225966e-01,-2.178161419142598046e-02,-6.455505186914041460e-02,5.460489706312935537e-02,1.543508768081665039e-01
-1.983947376331245682e-01,-1.897854111794936016e-01,-3.405143516092228873e-01,-3.637787237480610142e-02,-8.213846376113063952e-02,2.575156397135143493e-02,2.183925807476043701e-01
-1.134707376625631176e-01,-1.411952315828461091e-01,-2.836141623050936200e-01,-3.003488354363309173e-02,-4.411048362364314995e-02,3.091513378740127355e-02,1.908167004585266113e-01
-1.493723462278936098e-01,-1.293128963189484892e-01,-2.787989138652056109e-01,9.922225334443446690e-03,-7.268248519501131939e-03,-7.429842410911159135e-03,1.427210122346878052e-01
-1.369639656608644951e-01,-1.462711942997176884e-01,-1.848846377027743015e-01,4.314797071606360154e-03,-3.274821618651587666e-03,8.274772103833731227e-03,4.722761735320091248e-02
-1.386618239644741846e-01,-1.443282704535824579e-01,-1.445192723901078113e-01,2.959204423205255129e-03,-2.566392608997329974e-02,-3.219172731515757002e-03,4.545875638723373413e-02
-1.308698453134400919e-01,-1.554089068699524290e-01,-2.863624506551975535e-01,1.577911520883049350e-03,-6.785301900047286359e-04,-2.559188748137138721e-04,1.448223739862442017e-01
-1.779185652614927449e-01,-1.796121700162575108e-01,-1.849200193176079587e-01,1.794833803814687920e-02,-9.656543491177432825e-02,-6.066729629218662462e-02,2.000566720962524414e-01
-1.431878338378592963e-01,-1.597383025996029493e-01,-2.914748838712529766e-01,-3.574257930739912180e-04,8.190309931061881023e-04,3.268945128333364974e-04,1.407531946897506714e-01
-1.460998908766528992e-01,-1.479436411136195451e-01,-2.879670493029431455e-01,7.523715382506903802e-04,-6.669047956476578762e-06,-9.782107393503020108e-05,1.409604549407958984e-01
-1.595327383873596516e-01,-1.224092374900945662e-01,-2.924063100471098187e-01,-4.472038442778077886e-04,-3.883425385870703690e-03,-1.091779964921894483e-02,1.561080068349838257e-01
-6.002389976688019685e-02,-1.288855774075320371e-01,-1.654980981713536081e-01,1.010047901710798245e-02,-7.474578250666830126e-02,1.412589426679040742e-03,1.602387279272079468e-01
-1.030910936298858604e-01,-1.376146384409316359e-01,-1.242649945025612462e-01,5.447995090992790307e-03,-6.157781230085401097e-02,-5.168976092356427667e-03,1.115969941020011902e-01
-1.374742917487902782e-01,-1.759515645683368545e-01,-1.765617432566520539e-01,-1.671693743308295954e-02,-6.598400290577018101e-02,3.969017905571108756e-02,1.418813467025756836e-01
-1.253101695425246631e-01,-1.423162085681498601e-01,-2.198006220720026271e-01,-9.251899259569013045e-03,-1.133109020300791109e-02,4.847526042437283293e-03,9.123163670301437378e-02
-1.220328066574744158e-01,-1.514054049857914974e-01,-2.718293733308873583e-01,-2.962486183471192084e-03,-3.598688216894250884e-03,4.165090866275563715e-05,1.377208530902862549e-01
-1.551975551659377228e-01,-1.588740561854820321e-01,-2.070019559478841198e-01,2.021260828282558930e-02,5.087272399651546900e-02,3.721262221417094562e-02,1.251033246517181396e-01
-1.453984980894909851e-01,-1.558803755026240689e-01,-2.537413787807155652e-01,1.141457429494911746e-02,9.280204715394164278e-03,6.307333297670376232e-03,1.071494445204734802e-01
-1.387169956827912221e-01,-1.379262811023688473e-01,-1.892019324209865683e-01,7.688099743599683886e-03,5.935525676721584674e-03,1.156492038093463563e-02,5.721474811434745789e-02
-2.135190784147340815e-01,-1.731297767070290872e-01,-3.106608540406307628e-01,-2.114326102546211245e-03,-4.938083058126148221e-03,-1.022590239830930697e-01,2.155193686485290527e-01
-1.536046097822437451e-01,-1.506921877615293170e-01,-2.885391748430395920e-01,-5.139400812843381494e-04,2.487111580768860225e-06,1.090947473106931143e-04,1.364171355962753296e-01
-1.471366072950097692e-01,-1.360403911965554213e-01,-2.370071206360730987e-01,1.139694202126032528e-02,2.963513604210095669e-03,8.944802888925778434e-03,9.926280379295349121e-02
-1.314181178215104717e-01,-1.469734366281613691e-01,-2.817079844436035652e-01,-1.483788340146632639e-03,-1.861293266781026716e-03,1.130409212087934425e-03,1.432202458381652832e-01
-1.404850341727209573e-01,-1.588918180784832102e-01,-2.936521576505899400e-01,-1.879554489854196779e-03,-1.845407534976962116e-03,-4.687629403345660949e-05,1.449154466390609741e-01
-1.555375569665698177e-01,-1.499098801496279720e-01,-2.249711358286534957e-01,7.439634834814178380e-03,6.156844520511559928e-03,3.101832315022413650e-03,7.451222091913223267e-02
-1.521500091527224208e-01,-1.234818966005460650e-01,-2.465310902033762686e-01,1.583282125839695527e-03,1.669679938339184216e-03,1.210392076866009629e-02,1.135375499725341797e-01
-2.030591094304451949e-01,-1.599934841021047327e-01,-3.761202878367223557e-01,1.613358544663247990e-02,-5.621620490857825655e-03,-5.498349661908943919e-03,2.005596905946731567e-01
-2.087678682954079989e-01,-1.648148525181130086e-01,-4.257971452791097233e-01,2.787993411987381778e-02,1.300714863226712197e-02,1.671580226151924559e-02,2.495002001523971558e-01
-2.079097811100562299e-01,-1.274579974725262577e-01,-4.286464985693131391e-01,4.057179216710972425e-02,2.115564431530317369e-02,1.003217628677433720e-02,2.820260226726531982e-01
-1.441714728772068854e-01,-1.539877388333631414e-01,-2.894316275869496247e-01,-8.246681800968276143e-04,-4.010242192683507513e-04,-9.876390850048532080e-04,1.406286209821701050e-01
-1.452493317939195783e-01,-1.541148806491096923e-01,-2.922160647599324479e-01,-8.221166533159518074e-04,-3.952559323781623711e-04,-5.573470572734141220e-04,1.427526026964187622e-01
-1.332172214486209427e-01,-1.491144147642688988e-01,-2.859678250337979177e-01,-1.677946663665468106e-03,-2.150713128000528856e-03,8.180652461359490604e-04,1.455386281013488770e-01
-1.875156233768272007e-01,-1.370228004929429089e-01,-3.484217060433029700e-01,1.601584668759457875e-02,-9.339103010965143364e-03,-1.972890776665927118e-02,1.968851536512374878e-01
-1.426588480412190607e-01,-1.466010893046579833e-01,-2.897228721934800300e-01,6.740589867613207145e-04,-7.569287457736546647e-04,-4.855228442225044622e-04,1.451461166143417358e-01
-1.721796641261936212e-01,-1.445721338179095095e-01,-3.173118256247975943e-01,1.003722893826039693e-02,-2.831196356185628534e-03,-3.034086787709425539e-03,1.618213951587677002e-01
-1.473874098234390639e-01,-1.459169074690228607e-01,-2.883705358488640180e-01,6.238651667018964590e-04,-4.538130680528651146e-04,-2.481925372411575379e-04,1.417310535907745361e-01
-2.218172459352059922e-01,-1.017849520344637215e-01,-3.547271911334601846e-01,2.057870594162481206e-02,-4.714699424395871197e-02,-3.932955268237302293e-02,2.461822479963302612e-01
-1.533145860471180066e-01,-1.865218762593259805e-01,-3.373044893902754637e-01,8.963744596392129310e-03,-1.925979997250101480e-02,-5.479054830124806263e-03,1.740377247333526611e-01
-1.273764382450488231e-01,-2.126350327524845762e-01,-2.971032194497092438e-01,1.201142537433562939e-02,-7.810699141880400598e-02,-2.446806789902713011e-02,2.052718400955200195e-01
-1.781668374760447815e-01,-1.265629503570490089e-01,-3.043734386508814005e-01,-3.337744050016148902e-03,-3.516339651970024245e-03,-3.973294094321432740e-02,1.729463934898376465e-01
-1.363258315905621076e-01,-1.802287552338980303e-01,-3.014406897801377161e-01,1.058558021779909541e-02,-2.960757882760469556e-02,-1.124987542851213843e-02,1.590189486742019653e-01
-1.332600969093474808e-01,-1.494514119684215991e-01,-2.798019429247605161e-01,6.157353348611213639e-03,-6.407985855722436210e-03,-1.196369187699057547e-03,1.400185227394104004e-01
-1.378014605426308992e-01,-1.447787343802860727e-01,-2.859422882327745108e-01,1.185115641730741503e-03,-4.125384589703886043e-04,-5.243231758030852388e-04,1.447975039482116699e-01
-1.721619567501070092e-01,-1.441589915650303977e-01,-2.583015985974998485e-01,-5.378062639617471261e-03,2.046830575627485264e-03,-4.173314698607010799e-03,1.037687733769416809e-01
-1.389683527723905021e-01,-1.652333875787982409e-01,-3.191401695300536412e-01,2.163046635719729355e-02,-3.119628049778215562e-02,-1.778687369513020158e-02,1.835535019636154175e-01
-1.113088755068664393e-01,-1.564697758503847402e-01,-2.826857594654732520e-01,2.300169376318873110e-03,-3.317651903357805160e-02,-2.127887242745010038e-03,1.643213629722595215e-01
-1.351043031414230211e-01,-1.554519016561960454e-01,-2.882716148878271545e-01,1.848157576169518141e-03,-1.481540378092877476e-03,-4.321849708350759670e-04,1.441355496644973755e-01
-1.247211495782077628e-01,-1.475687834106707841e-01,-2.046816524798467651e-01,-3.196082058074038897e-03,1.609831161141617867e-02,-8.042154312818924553e-03,7.804439961910247803e-02
-1.281406229843239930e-01,-1.525370347340190003e-01,-2.760544797409872908e-01,3.742166575442748468e-03,-3.091377809372929976e-03,-8.567116002748244395e-04,1.376154422760009766e-01
-1.418898448673805157e-01,-1.328067947964831630e-01,-2.829488252030977202e-01,-4.352955495638899212e-03,1.429534363490454632e-03,-2.268972509122051985e-03,1.460814923048019409e-01
-1.101691703958079110e-01,-1.653139481646822007e-01,-2.626305453574029891e-01,2.210055574303486543e-03,-3.748546608910165862e-02,-1.260063563515588861e-02,1.502811759710311890e-01
-1.495671946414699471e-01,-1.288441892047154091e-01,-2.799302215279806383e-01,-1.669014022521559618e-03,1.081045791009769283e-03,-1.413560411953647964e-03,1.419272124767303467e-01
-1.500297817175686999e-01,-1.351757863571474150e-01,-2.875052232167680799e-01,-1.210001454623622430e-03,3.557091766007439626e-04,6.605916651361341634e-05,1.454887688159942627e-01
-1.519397817033304454e-01,-1.329102767839452637e-01,-2.829383331468379170e-01,-2.525043015673308390e-03,-1.218812042862714462e-04,-4.946792167600109124e-04,1.415467709302902222e-01
-1.266439089642067972e-01,-1.533531210171358850e-01,-2.826120568066752270e-01,-1.456023353183454570e-03,-1.243305930542992375e-03,5.113380081692395522e-04,1.445179581642150879e-01
-1.267280573964040535e-01,-1.462412340427318158e-01,-2.740149886182704497e-01,-3.852496638482276990e-03,-3.259944769804296993e-03,7.765029975153544563e-05,1.388401687145233154e-01
-1.672069871097763560e-01,-1.552937931224872004e-01,-1.945351586076807804e-01,5.523348304356209045e-04,1.178461053643984442e-03,-1.119479642091994985e-02,3.994209319353103638e-02
-1.352454682915166517e-01,-1.545311882743419796e-01,-2.834768696035505631e-01,-1.327589264576894100e-02,1.168097785233594872e-02,-3.572649525643268285e-03,1.430458426475524902e-01
-1.878953324362789279e-01,-1.631812331284373530e-01,-2.285817838373678246e-01,-3.450129655659838184e-03,1.774351498953267645e-02,-5.113057874499774003e-02,1.099769026041030884e-01
-1.273469173766036411e-01,-1.595587860685494241e-01,-2.878173445528237617e-01,-5.810453368963564924e-04,-3.142565332654751343e-03,4.746489474675736221e-04,1.471415162086486816e-01
-1.281676526081030332e-01,-1.628687341830302726e-01,-2.794432720066162834e-01,-1.589769976165432766e-03,-3.008571033522786792e-03,-1.126204100508465707e-03,1.373957544565200806e-01
-1.695092990012367351e-01,-1.546692033955027468e-01,-1.838165483897878094e-01,-1.584535281633458722e-03,-7.897273971644705459e-03,-2.456638526082787280e-02,5.140429735183715820e-02
-1.302645238635543323e-01,-1.483736562831177441e-01,-2.624641630236486667e-01,-8.229705002336400524e-03,-4.191544992879805455e-03,1.045543201885106629e-03,1.251792162656784058e-01
-1.367819088481625200e-01,-1.460728646354551574e-01,-2.853756392061927993e-01,2.021109458868729138e-03,1.992539023832282379e-04,9.525113785803839082e-04,1.442252993583679199e-01
-1.522612779440944974e-01,-1.658821091565913786e-01,-2.163368727009879200e-01,9.547287129702724043e-04,-4.548203365312417264e-03,-2.316179808398442178e-03,5.915516242384910583e-02
-1.420382677221121437e-01,-1.407926935136169511e-01,-2.863204199542198070e-01,1.886913983019999430e-03,-8.844022030098870114e-05,-7.292801140016863569e-04,1.449513882398605347e-01
-1.432645391081100450e-01,-1.437624040518764856e-01,-2.892524064893107205e-01,-2.001392769300923153e-03,-1.429263290755083930e-05,7.951690401847742121e-04,1.457872986793518066e-01
-1.423853649664979515e-01,-1.405561028029621018e-01,-2.877022822584644479e-01,8.700919497393327798e-04,-4.132295346638840456e-05,-1.020536026061773672e-04,1.462480127811431885e-01
-1.426848472312989002e-01,-1.421738651475573656e-01,-2.880718563527843168e-01,3.112143835080405699e-04,7.771892777089270778e-05,1.339077113456662671e-04,1.456444114446640015e-01
-1.463352084129464215e-01,-1.404778713223370501e-01,-2.878038306406348057e-01,-8.143860932041247077e-04,8.744052104826684592e-05,-8.631857115289838815e-04,1.445010602474212646e-01
-1.335410363510293186e-01,-1.471071999315427259e-01,-2.891629191749565675e-01,-1.124161251281920355e-02,-4.224397731433109787e-03,4.268206527459754776e-03,1.509249210357666016e-01
-1.370912410704998863e-01,-1.469252414755739533e-01,-2.735806701831531296e-01,-7.149548650294480952e-03,-1.198035911336769359e-03,1.612355612626317509e-03,1.324737221002578735e-01
-1.429190659661604967e-01,-1.432219826346769753e-01,-2.889065324613426244e-01,5.052351673240262412e-07,-4.558836697417039622e-04,-6.372750065652800847e-04,1.458425521850585938e-01
-1.423846056244457980e-01,-1.446477408992916658e-01,-2.879738732623857711e-01,1.773205214450114704e-03,-2.503063884029009859e-04,5.284711070469198064e-04,1.445071846246719360e-01
-1.429139729276922566e-01,-1.418439201715044340e-01,-2.889189786364737000e-01,5.270690378272941583e-04,-1.889504363351036671e-04,2.586746501771267884e-05,1.465461850166320801e-01
-1.654247779043993005e-01,-1.404597746384571022e-01,-2.989565724592376239e-01,-2.512907421995430341e-03,-1.281253588390821084e-03,3.282881812085315740e-03,1.477965265512466431e-01
-1.617870458751502483e-01,-1.298481167971430317e-01,-3.015915037894010275e-01,-1.286672731183193842e-02,2.052047106248645284e-03,3.804490524301544670e-03,1.599477976560592651e-01
-1.640276601372701315e-01,-1.321244477207467738e-01,-2.976806536603364695e-01,-6.694265857296099152e-03,2.386632075433720978e-03,-5.972090725163297677e-03,1.529817730188369751e-01
-1.649813133705892443e-01,-1.314516130060529586e-01,-3.026261585989337144e-01,-8.605797299665476560e-03,6.151280785585590142e-04,1.140399137653305001e-02,1.590566039085388184e-01
-1.585633486846094176e-01,-1.662696959029832111e-01,-3.110775622147868846e-01,-6.577885291647132121e-03,-1.154545772896580760e-04,-1.304664677667345717e-03,1.492635160684585571e-01
-1.392091968577661154e-01,-1.446461648897394703e-01,-2.859344189316382900e-01,1.123854271345481760e-03,-2.826110138630224329e-04,-4.129678655560396891e-04,1.440994441509246826e-01
-1.439955466077472157e-01,-1.452032715256738327e-01,-2.893792312019131119e-01,2.619875760609303322e-04,-1.822871317662576592e-05,1.236710926335244970e-04,1.447844803333282471e-01
-1.380853910821735753e-01,-1.426067299463702476e-01,-2.823051986389252255e-01,4.607772183148244396e-03,-1.544804782906429022e-03,-1.366514526534221919e-03,1.422820538282394409e-01
-1.362468756285951099e-01,-1.497199005110232406e-01,-2.872826484530024427e-01,1.300198763064489222e-03,-1.149552479117787410e-03,-1.780125823603184319e-04,1.448017656803131104e-01
-1.381584542944222227e-01,-1.447297731253744391e-01,-2.869268441364217215e-01,1.185539969935334084e-03,-4.126866895266035652e-04,-3.877988006728461286e-04,1.456117779016494751e-01
-1.447026071078768017e-01,-1.423207036729998154e-01,-2.861800107533724047e-01,1.640913025913793817e-03,-1.226492210478690933e-04,2.938935983823715253e-04,1.427126377820968628e-01
-1.508626820882528197e-01,-1.322303698666489891e-01,-2.830646473253715101e-01,1.450809255588087323e-03,-5.523321631668906941e-04,-4.338537231145618220e-04,1.424624323844909668e-01
-1.380602706120572232e-01,-1.405977057193780744e-01,-2.840737204680010564e-01,4.158151267470705861e-03,-1.304271369256170205e-03,-1.034164669991483043e-03,1.449691355228424072e-01
-1.399729771988660887e-01,-1.405709640750988920e-01,-2.863884692845996560e-01,1.360663222397209392e-03,-3.302708441330899869e-05,-1.670204669174514631e-04,1.461367160081863403e-01
-1.442884030662680284e-01,-1.351849228479651277e-01,-2.820044475030072384e-01,4.196769069561405614e-03,2.659727138233568223e-04,-9.143920138590546200e-04,1.426808983087539673e-01
-1.351405016729880504e-01,-1.483413296190050079e-01,-2.844953165844678056e-01,1.011280408543073104e-03,-3.354949015387475014e-04,-3.686367567663041754e-04,1.432247459888458252e-01
-1.305947017188824888e-01,-1.463913653278210436e-01,-2.818233451208641549e-01,3.033552160620699590e-03,-3.351489215055928716e-04,2.821204142643595402e-04,1.440795361995697021e-01
-1.285501704157304970e-01,-1.576312878112685611e-01,-2.863680447564858067e-01,4.734749103609984210e-03,-7.491200579067244618e-03,-1.655963473978983979e-03,1.463096290826797485e-01
-1.347270857564462077e-01,-1.458884230896307366e-01,-2.807315795500178179e-01,7.358531029494539376e-03,-1.505122993908238494e-03,-2.927406000371419277e-04,1.413569152355194092e-01
-1.297528178229145623e-01,-1.501227937692394265e-01,-2.810956490408494934e-01,4.385916875254008279e-03,-3.823773882160962697e-03,-1.875163628126944992e-03,1.426494270563125610e-01
-1.294255481467757873e-01,-1.611599796216443836e-01,-2.833647497096571932e-01,2.248209338976812476e-03,-4.019973075335266273e-03,6.414342121931945187e-04,1.410108357667922974e-01
-1.292415971105008166e-01,-1.529000213257980523e-01,-2.838587793940289816e-01,1.787338949581996662e-03,-8.431100307480957979e-04,-9.595280044572898626e-04,1.443006396293640137e-01
-1.305834408317967099e-01,-1.502330336761887875e-01,-2.823179514361261466e-01,1.794142157004126803e-03,-1.030306892564608091e-03,-9.176459607121385592e-04,1.429801136255264282e-01
-1.280248557667778009e-01,-1.522948117225539633e-01,-2.803822364098264019e-01,1.155772292965313039e-03,-5.896894942642818584e-04,-5.995799779732782471e-04,1.418105214834213257e-01
-1.224320420099000994e-01,-1.556525239575552721e-01,-2.448528200715512915e-01,4.160514097927437566e-03,-7.275193354078642385e-03,-3.040231468175118908e-03,1.107339784502983093e-01
-1.291207707277661765e-01,-1.535246901994054558e-01,-2.827616703121390573e-01,1.277136558070423753e-03,-3.460607485578156444e-04,-7.823980542175447460e-04,1.430339962244033813e-01
-1.491015029033528894e-01,-1.376534363682913875e-01,-2.861208327485121328e-01,-1.403516612535213575e-03,-4.985587016719971636e-04,1.349238167530347342e-04,1.431106925010681152e-01
-1.260066294555642064e-01,-1.572149890578213860e-01,-2.804536297579008908e-01,2.961243190496702410e-04,-5.868840387015288257e-04,-5.353125398381835821e-05,1.414535492658615112e-01
-1.603682418807043375e-01,-1.351329843775350703e-01,-2.900776042689975354e-01,-4.826741814796755084e-03,-1.153067151935835465e-03,6.635275058719598135e-03,1.447084993124008179e-01
-1.246602176370805726e-01,-1.571214356354427300e-01,-2.830293286833594490e-01,3.740603997524557535e-04,-1.591686927814116043e-03,-7.114625486894964523e-04,1.449247747659683228e-01
-1.574236530339353513e-01,-1.269716964115552571e-01,-2.818777720015904764e-01,-1.468200543952115356e-03,-6.785828432896011831e-04,2.623139406583774487e-03,1.422480642795562744e-01
-1.263993788442758504e-01,-1.578250262934005888e-01,-2.813599076665805332e-01,-4.799140555634287086e-04,-7.654779220540219777e-04,3.418711197662050848e-04,1.418922245502471924e-01
-1.244894652926884643e-01,-1.569611907435602416e-01,-2.832323689721947257e-01,-4.896300537395628346e-04,-1.371808413204904722e-03,-7.356724047926071347e-05,1.452771425247192383e-01
-1.250277429817878705e-01,-1.583303956357040576e-01,-2.836527317767041922e-01,-6.971610574736395241e-04,-1.434780390648493671e-03,1.722586946456293780e-04,1.449001133441925049e-01
-1.852835373895023174e-01,-1.719350609238229910e-01,-2.878817887510363160e-01,-1.557026798679862767e-02,-2.002244025206327896e-02,2.314212466820091130e-02,1.249431148171424866e-01
-1.221409599084077868e-01,-1.502969969628147329e-01,-2.669229392734424611e-01,-3.455434638547208014e-03,-6.307760000666788602e-03,1.523390767542007283e-03,1.335673779249191284e-01
-1.318231400293571054e-01,-1.557477237753328025e-01,-2.850233879042053942e-01,-1.391482464577388804e-03,-4.590745595382192141e-04,8.019220424129083064e-04,1.427789181470870972e-01
-1.530325192653931854e-01,-1.303395122145849516e-01,-2.819238734776762234e-01,-1.654092581830838736e-03,-5.903269883362335588e-04,1.993801197852067969e-03,1.416829824447631836e-01
-1.434239867110775335e-01,-1.266556535218651969e-01,-2.752133205471578581e-01,-3.248348200564282924e-03,-3.383467555888690793e-03,1.863969210474142497e-03,1.411945968866348267e-01
-1.309130668259099739e-01,-1.506523787104857015e-01,-2.827082221521561856e-01,-1.758490128481377587e-03,9.364811453619556209e-04,-8.933220999635262767e-04,1.430013328790664673e-01
-1.268924734467805626e-01,-1.528604576295780060e-01,-2.836594120174473765e-01,-1.266080412106407749e-03,-1.028008306110634847e-03,5.975913929977470481e-04,1.455621421337127686e-01
-1.333315110000926063e-01,-1.516112506469437515e-01,-2.833844723173783997e-01,-2.747185980391201460e-03,4.341752047676779888e-04,1.985010508853841656e-04,1.418817639350891113e-01
-1.353891631968507092e-01,-1.498271060753355033e-01,-2.872983128721551815e-01,-1.255685051874935428e-03,3.635130039916949283e-05,7.218602185562368601e-04,1.452511101961135864e-01
-1.465838475298311683e-01,-1.497784685060881693e-01,-2.915810177995917796e-01,-3.952151500067363488e-03,-8.896570512304894382e-04,-9.477775438816159756e-04,1.436074525117874146e-01
-1.334389815702555770e-01,-1.481247727255991242e-01,-2.842919255353384411e-01,-1.458003595542320570e-03,-8.207818850747663261e-04,4.788973359612736045e-04,1.441040486097335815e-01
-1.410382982912019856e-01,-1.482840593120798578e-01,-2.870638988465579744e-01,-3.797501535919358372e-03,3.241782810732145607e-04,-3.309892166872376636e-04,1.426948457956314087e-01
-1.356806048070099968e-01,-1.443122532101308031e-01,-2.855659360275395464e-01,-1.368955969861891143e-03,5.836291954428550477e-04,-7.750620143959293003e-04,1.457902789115905762e-01
-1.355835756009959869e-01,-1.495424429588718407e-01,-2.866552546845106408e-01,-1.272296430532036038e-03,5.573439197131892535e-04,1.455028598060706781e-04,1.446186900138854980e-01
-1.358758227554461850e-01,-1.448953972799509327e-01,-2.849405790835725094e-01,-1.248092587819996362e-03,2.110016768533961066e-04,-3.139980844175857804e-04,1.447834819555282593e-01
-1.619752959711740492e-01,-1.424400182659557590e-01,-2.953692263653091565e-01,-3.275113586048127631e-03,1.266456666130903698e-03,1.418780328901641293e-04,1.442862004041671753e-01
-1.519948976318783451e-01,-1.526326709719967589e-01,-2.985086684801086521e-01,-4.706976646694547607e-03,1.231832996259076083e-03,-7.028818665984445154e-04,1.464436799287796021e-01
-1.536329516471321432e-01,-1.384252566796812800e-01,-2.891057497445517210e-01,-2.795047054684975454e-03,-1.001747064137551704e-03,1.988997657519882886e-03,1.438148021697998047e-01
-1.415685924862925549e-01,-1.440545266533272695e-01,-2.878938332811211143e-01,-1.880078404826897786e-03,2.103143880533280431e-04,-6.361431590740726646e-05,1.451352834701538086e-01
-1.408936941656555586e-01,-1.464724268490058545e-01,-2.892113569180578270e-01,-1.467320880136313696e-03,-1.087557610495131508e-03,4.535498144237324236e-04,1.456449478864669800e-01
-1.445860087711943187e-01,-1.449154794729103912e-01,-2.876029352029909614e-01,3.780652275511158390e-03,3.689091065255092672e-05,-2.066647239887065089e-04,1.430029422044754028e-01
-1.481008526597776265e-01,-1.430890227070910070e-01,-2.875909278624135257e-01,1.807256234626606044e-03,2.834355427985527000e-04,-9.489530775171846940e-05,1.420977413654327393e-01
-4.711785410662910206e-02,-8.369986217728772604e-02,-5.959378724007882017e-02,-1.502136061857088471e-02,6.309281417245185541e-02,-2.859683420236507068e-02,1.269246488809585571e-01
-1.504204821925261004e-01,-1.591835974381249907e-01,-2.941340795660023488e-01,-6.696042336488243225e-04,2.464481079071200028e-04,-1.942798046991874397e-04,1.395444422960281372e-01
-1.318869944446691700e-01,-1.502804285903794335e-01,-2.833196259695404118e-01,-8.512698799361012245e-03,5.538615337575222321e-03,-3.285248353371983746e-03,1.443142443895339966e-01
-2.103789619276144052e-01,-1.514662212051363088e-01,-4.576075769701494211e-01,-3.699655491953016129e-02,-1.345232619232331756e-02,3.870100570296015202e-02,2.971532344818115234e-01
-1.567288800954170502e-01,-1.508907457844913813e-01,-2.915683983818727620e-01,-6.750460085580457662e-04,4.828881861810323988e-04,-1.442128777534204922e-04,1.378590613603591919e-01
-1.408063716430266454e-01,-1.610762661971918419e-01,-2.910857520320302427e-01,8.116381559974476497e-04,1.831078045682729390e-03,-7.368250854843663104e-04,1.412879228591918945e-01
-1.460692749073732866e-01,-1.421293774841480562e-01,-2.888936874224731222e-01,-6.626366474083252760e-04,2.437942293444169154e-04,-1.380379832645451765e-04,1.448399126529693604e-01
-1.320830527203776805e-01,-1.160407145465650047e-01,-2.683559012547140354e-01,-1.380060642490713550e-02,-1.050399601405280908e-02,1.185108589417050926e-02,1.494573503732681274e-01
-1.842169789583670281e-01,-8.360418052763861352e-02,-2.874906469354632232e-01,-8.532608266757267870e-03,-3.893520945813279399e-02,-6.590981803522825977e-02,2.213088721036911011e-01
-2.543806410695392262e-01,-1.461764399140160764e-01,-4.788553156035670888e-01,-2.247724428597211097e-03,1.011238062407359729e-02,-3.635630614702180241e-02,3.011202514171600342e-01
-1.573748505281603038e-01,-1.517590939303689879e-01,-1.865450920633151266e-01,8.586408819083973624e-04,3.658650994008293047e-03,1.668485095632615475e-02,4.386085271835327148e-02
-1.200597171197010649e-01,-1.119885905798245485e-01,-8.178908879705121260e-02,-1.003078184764001624e-02,2.623326191880188951e-02,-3.076121423775986241e-02,8.016268163919448853e-02
-1.545075047920099198e-01,-1.470878354342678440e-01,-2.907802203713029110e-01,1.299098143686667215e-03,1.147148309974624272e-03,-1.266004804284579953e-03,1.401792466640472412e-01
-1.482565923275960817e-01,-1.379659395403909916e-01,-2.873127457958278841e-01,1.529708492486644414e-03,-9.381955260025156987e-04,-3.947470493299426713e-04,1.445116549730300903e-01
-1.664334164832033114e-01,-1.502406886420985799e-01,-2.261174749448072729e-01,2.782363673773166103e-03,-9.268707793899884145e-04,4.585001600736155272e-03,6.985490769147872925e-02
-1.346302608210076246e-01,-1.559273148404745346e-01,-2.881165402630353478e-01,-1.666355844895250774e-03,1.501756778302950008e-03,-7.758890207643498590e-04,1.440822631120681763e-01
-1.914912711222060415e-01,-2.711211741601051162e-01,-4.922162326287492506e-01,6.498364437510223413e-02,2.443111119468639042e-02,2.087478735395085702e-02,2.976512312889099121e-01
-5.641563903122297219e-02,-1.437137431678492672e-01,-2.677611585201195021e-01,1.395560022116386530e-02,-3.981035021627547799e-02,-4.349332656537123845e-04,1.979324668645858765e-01
-2.713799824056015164e-01,-2.043864038194879440e-01,-5.412109988391420323e-01,-7.373461248347995545e-02,1.185161856414547119e-02,-1.650426763771048813e-02,3.360398709774017334e-01
-1.581947061018884604e-01,-1.389348184347913018e-01,-2.894543158199218702e-01,3.813262463965140601e-03,8.272845914651081895e-04,-2.605986775160107349e-03,1.421060264110565186e-01
-1.572713882623713866e-01,-1.576609654112635650e-01,-3.039386439746893376e-01,-6.308847528295548172e-03,-8.465062947114608994e-05,7.409518505987615659e-04,1.468855738639831543e-01
-1.749587892894272634e-01,-1.221166175672245141e-01,-3.275437694312350323e-01,-2.450312681168707180e-02,1.538755432339347466e-02,-5.094862261038853035e-02,2.107990086078643799e-01
-1.524357115420135189e-01,-1.984676214119916460e-01,-3.483654826270314864e-01,-6.529613170634514414e-03,-6.972861894467507343e-03,-1.742622788684013374e-03,1.782449781894683838e-01
-2.733075850618070790e-01,-1.644186344792467613e-01,-5.384149138054525885e-01,-1.970325420188152876e-02,-7.748765362971713790e-03,3.250345139476136513e-02,3.398825824260711670e-01
-1.490018588932838506e-01,-1.620126672519612288e-01,-2.947016531872372891e-01,4.502007281758332630e-04,4.933833315254425311e-04,9.368945023060484996e-05,1.396545916795730591e-01
-2.268058376754540917e-01,-2.291725651453430934e-01,-3.839264831458391036e-01,4.149910632977593661e-02,-6.221465974724736669e-02,-6.768148474222461519e-02,2.341826409101486206e-01
-1.543384641310023841e-01,-1.431145335764563431e-01,-2.912494785784387474e-01,2.266129623416425660e-03,1.030421440852825714e-04,-2.427932639005785185e-03,1.429699361324310303e-01
-1.563026924031115650e-01,-1.515252171716426899e-01,-2.910893028983435604e-01,5.809316119065327392e-04,-1.730240688643542712e-04,-2.282055742097193791e-05,1.372417509555816650e-01
-1.432145918064078316e-01,-1.417482225840170640e-01,-2.876370214959899085e-01,1.437189238283794347e-03,-2.399906498944920743e-04,-2.810741012639245725e-04,1.451839208602905273e-01
-1.474274646670961086e-01,-1.012530069726773480e-01,-3.096025940114311981e-01,-2.686610591311486620e-02,-1.380136143571122388e-02,2.928231186819022988e-02,2.030525952577590942e-01
-2.446758332406847591e-01,-1.937040032079669905e-01,-5.070584707432068683e-01,-4.082156478489305101e-02,1.471710425315451293e-02,-1.495766667919545476e-02,3.018891811370849609e-01
-1.706535676059938167e-01,-1.518343040473251193e-01,-2.231507673489029342e-01,-4.690721771586258554e-03,-5.741610726531485871e-04,4.189372213140701504e-03,6.494405120611190796e-02
-1.523940353242638213e-01,-1.219085423207276753e-01,-2.531098294088431344e-01,-7.422324410540052583e-03,-8.369893911505926071e-03,1.683618673210534461e-02,1.239726468920707703e-01
-1.569453186629687635e-01,-1.295166927361727227e-01,-2.790098199879741392e-01,2.578879068245642277e-03,6.697976403813388560e-04,3.204747296858519948e-03,1.380298584699630737e-01
-2.091023738996396208e-01,-2.552856307348665976e-01,-4.430078597556922348e-01,5.298577977654522764e-02,-7.090226537956811903e-02,-4.091667588093236135e-02,2.730724215507507324e-01
-1.606166710801169017e-01,-1.447139519444041733e-01,-2.919648896233566493e-01,7.693785554654364832e-04,-3.998427052594564915e-04,8.258241592944701517e-04,1.399940997362136841e-01
-1.398694984737696712e-01,-1.312240696051928113e-01,-2.597169545215872732e-01,-9.517715819424205081e-03,-6.084777306713720808e-03,4.064951943656682117e-03,1.261217445135116577e-01
-1.599263633224111969e-01,-1.255863154903987811e-01,-2.822544555416668377e-01,-2.007894153471156062e-04,-2.796145085014317948e-04,7.055516586767680842e-04,1.426394134759902954e-01
-1.427478751269714574e-01,-1.620544030894955079e-01,-2.941825584834441010e-01,3.265125662661082028e-05,1.642362311552027741e-03,4.649858667448800859e-04,1.427945047616958618e-01
-1.569034880972660917e-01,-1.247186719594848003e-01,-2.785594319716105938e-01,-5.895608929361449875e-04,-2.731317914484777433e-04,5.591177354081068411e-04,1.405478864908218384e-01
-1.512550925418044978e-01,-1.502056988986125718e-01,-2.892730459651101094e-01,-6.940364167421036155e-05,5.859912320687337035e-04,5.300592080395500797e-05,1.385494321584701538e-01
-1.623308192295508379e-01,-1.446004279854826713e-01,-2.955518869170752350e-01,-3.504607689705508278e-03,-2.057598210646430258e-04,3.215370352686200504e-03,1.431512236595153809e-01
-1.519417043823070024e-01,-1.530040859775120277e-01,-1.632522648954664035e-01,5.504707721655099787e-04,-2.096324618878216573e-03,3.802480838108644734e-02,6.684902310371398926e-02
-7.862125510023440511e-02,-1.507676355214871977e-01,-3.056521918772345803e-01,2.450930173402390833e-02,-3.069605905265557905e-02,-1.731689916356645917e-02,2.142362594604492188e-01
-1.614627556136393471e-01,-1.311850060210420776e-01,-2.828163094284353307e-01,-2.409216215157440090e-03,-2.629529120317863010e-04,6.002958421909524323e-04,1.390555351972579956e-01
-1.567555288055108853e-01,-1.229144623904915024e-01,-2.760417668193563268e-01,1.201826032761924076e-05,-1.100126623297412941e-04,1.982988284180543445e-03,1.393665373325347900e-01
-1.600714435610578468e-01,-1.262823737050150497e-01,-2.829016157364786510e-01,1.093880059971934275e-04,-9.054624584160323461e-04,1.951168381508787755e-03,1.428047120571136475e-01
-1.584291847040176227e-01,-1.288173816458863807e-01,-2.808942371349991696e-01,7.261120519447783429e-04,-3.957541065383427697e-04,1.471202562838134185e-03,1.396764218807220459e-01
-1.888498072704646313e-01,-1.703145208417888301e-01,-4.133871138779371956e-01,-4.474015416010638374e-02,3.660973387728908859e-04,3.790646558903574409e-02,2.554184198379516602e-01
-1.900195558023312359e-01,-1.587868233055820810e-01,-3.379681226410798378e-01,3.470633066500313640e-02,-6.009031134075819985e-02,-5.513997798428644376e-02,2.259479463100433350e-01
-1.495184941229789066e-01,-1.535645338154685569e-01,-2.937952395328510269e-01,-3.665904344384498994e-03,-3.169062507297066276e-04,8.938833753111214211e-04,1.424479335546493530e-01
-9.899988430402263673e-02,-1.368347896333838576e-01,-2.939006547220142651e-01,2.901979739101337441e-02,3.399563245921110449e-02,1.625351465392815484e-02,1.970528513193130493e-01
-1.713853445783307117e-01,-1.697783745209708872e-01,-3.485645455481958810e-01,-2.331841186093668722e-02,7.197866710146228093e-04,5.486800943128004523e-03,1.827645748853683472e-01
-1.267727825262191244e-01,-1.484324634604772819e-01,-2.959883735129939519e-01,-1.315396030651154805e-02,-8.225502529105871083e-03,3.126028337500873916e-03,1.618310064077377319e-01
-1.542595104555017915e-01,-1.352375661140990948e-01,-2.756110166449272647e-01,5.001251736357475823e-03,-4.607080005965114413e-04,1.670543110832492951e-03,1.322135031223297119e-01
-1.216192228285845750e-01,-1.530067253027447283e-01,-2.943128242991944199e-01,3.170086148876005011e-02,4.099656199399945994e-02,2.667563959628939385e-02,1.886255294084548950e-01
-1.489085980877392079e-01,-1.305233743812310721e-01,-2.841671785165899577e-01,2.431091784282035390e-03,7.856478274350348718e-04,1.112558763968089347e-03,1.454061716794967651e-01
-1.568276224065950908e-01,-1.233978343197267846e-01,-2.680119174789861725e-01,-5.891084481810791341e-04,-9.737036746153489872e-05,6.392589562371396583e-03,1.316055953502655029e-01
-1.999649782452605773e-01,-1.610580804627545493e-01,-3.066884424181285373e-01,1.739612546825442321e-02,1.210566421010286255e-02,4.263447933145212559e-02,1.544556170701980591e-01
-1.447959610805129582e-01,-8.123839201226662476e-02,-2.333070170529881748e-01,-1.090689461545574397e-02,-6.578686058581468925e-03,5.641383199651992669e-02,1.659325063228607178e-01
-1.434456477611323888e-01,-1.511572958480469908e-01,-1.286991068962622942e-01,-1.674390772737770205e-02,6.643646916672496516e-02,-3.862365570161045703e-02,1.376535445451736450e-01
-1.738795736664902059e-01,-1.838318552688557039e-01,-3.581138011186600911e-01,-1.406972116295509244e-02,-5.842149447709175328e-04,-1.421000805800444770e-03,1.811317205429077148e-01
-9.204367721577393080e-02,-1.016502616052234881e-01,-1.492180681248019558e-01,-3.555892110079916096e-02,6.088366223900811003e-02,-6.829312642718575466e-02,1.780942827463150024e-01
-1.289954891862060971e-01,-1.505503261955469518e-01,-2.676649635340777045e-01,6.388642589303487017e-03,3.707736862729525077e-03,2.149178173951399578e-03,1.299322098493576050e-01
-1.537150797207988973e-01,-1.487396182202956330e-01,-2.881343095408274158e-01,-2.375088216053352426e-04,6.123255092067711935e-04,-5.358934146390592260e-05,1.369795054197311401e-01
-1.469081581819483839e-01,-1.371559449971985201e-01,-2.871858462169163961e-01,-2.208318421146651320e-03,4.426254398581180665e-04,-4.786335949095684491e-04,1.454539746046066284e-01
-1.354906702474063251e-01,-1.465611822132682485e-01,-2.856076796604349877e-01,-3.915450239975630520e-03,1.451894532030006003e-03,-8.222094266465857513e-04,1.450866758823394775e-01
-1.770251587251433500e-01,-1.367673357943169909e-01,-3.227561393224244735e-01,-1.467226503342431224e-02,-3.697626640272789079e-03,2.789716396439411491e-03,1.715669333934783936e-01
-1.432310265325334175e-01,-1.740320817597581782e-01,-3.101532896310218446e-01,1.870311203500784301e-03,-4.107576130548211066e-03,-5.127235243974857630e-03,1.543059945106506348e-01
-1.413451602131659546e-01,-1.029354726314213736e-01,-3.122051392443900841e-01,-3.520024209091633660e-02,-1.076522176347840566e-02,1.866791693961748072e-02,2.057703286409378052e-01
-1.681005751973861373e-01,-1.295436113976543291e-01,-2.934858132267652575e-01,-1.796778252146083790e-02,3.450885516572759285e-03,-2.924268579282700634e-02,1.600382030010223389e-01
-2.629000884418058459e-01,-1.258475113170353654e-01,-4.603150446504317150e-01,2.239057106127519559e-03,5.308755205889741959e-03,-4.204246710796844672e-02,3.003574609756469727e-01
-1.528575312789627050e-01,-1.377279653417851080e-01,-2.879191365158825233e-01,6.008978107102803945e-03,-6.787115855574181195e-04,-3.162533650459694711e-03,1.437138617038726807e-01
-1.501590151103022186e-01,-1.502624458619455650e-01,-2.875497873897285839e-01,-1.737129570412593478e-03,-1.268925367171265842e-04,-1.871476546750742184e-04,1.373725980520248413e-01
-1.759886141630366552e-01,-1.328664719108842429e-01,-3.171678896723835739e-01,2.169381238442291693e-03,-1.035881867812755812e-02,-5.626155467911031841e-03,1.682559251785278320e-01
-2.793068449464884417e-01,-1.557289163813841415e-01,-4.835164751234595770e-01,2.367609454804001090e-02,-7.544228780686525887e-03,-3.567526748836371414e-02,2.964447140693664551e-01
-1.544844350470710448e-01,-1.309576978663247182e-01,-2.794877835003898303e-01,4.531008801783495930e-03,-8.033538259752729099e-04,-1.539066471654520736e-03,1.385312229394912720e-01
-3.095388628035891099e-01,-1.833005684066704999e-01,-5.374937232757386329e-01,-2.294274248661709939e-02,-8.312736808423614333e-04,-2.863297816194956477e-02,3.173592388629913330e-01
-1.410658095324782146e-01,-1.590438620540503001e-01,-2.933236060207310425e-01,1.502850823232605802e-03,1.177630267221191612e-03,-7.866547973915016985e-04,1.441566497087478638e-01
-1.401647957194811778e-01,-1.513512082394255776e-01,-2.608229009617033523e-01,-6.283919778933346433e-03,2.336286071602525910e-03,-9.304372920631310542e-04,1.160655766725540161e-01
-2.238007385783962466e-01,-1.082424857729350487e-01,-3.734084328516252826e-01,-2.830446855920279794e-02,2.966577139811550981e-02,1.074510648861950156e-02,2.416910231113433838e-01
-1.551386349889076754e-01,-1.288344445597613963e-01,-2.019623326299010424e-01,2.895359704437394394e-03,2.988457874067478471e-03,-3.767903344173861163e-02,9.179923683404922485e-02
-1.535535383365801421e-01,-1.451943771225950031e-01,-2.903652457449020785e-01,-1.139647420971562439e-03,-3.845298982177997710e-04,-2.491645725009452119e-04,1.411930471658706665e-01
-3.074738961569588591e-01,-1.829222231149104094e-01,-5.287155784677686210e-01,-3.144690698907626203e-02,2.112058900508216250e-02,-2.645083530573165767e-02,3.137210905551910400e-01
-1.573266582227164645e-01,-1.315595981252508928e-01,-2.874105976783011829e-01,5.100382300961893954e-03,-6.266196672729480764e-04,-6.254764216986591352e-03,1.453762054443359375e-01
-1.518964314316285091e-01,-1.278963568228543846e-01,-2.765854451992249552e-01,5.927077556256179353e-03,-1.746836431960418047e-03,-8.100265398568432321e-03,1.393818110227584839e-01
-1.436958688986574029e-01,-6.163291594973165088e-02,-2.915534616625257147e-01,-9.081626477293710392e-03,-9.199259899683282730e-04,-2.606745259620455932e-02,2.074086070060729980e-01
-1.554694919285239119e-01,-1.728408767820023839e-01,-2.731540167354100657e-01,7.777878999310631862e-03,1.380071694129013891e-02,1.238399202960364411e-02,1.154124140739440918e-01
-1.340837580507307503e-01,-1.563962303505726237e-01,-2.170146156923954406e-01,-4.114923448165707515e-02,7.630830565894618223e-02,-4.673579678494874101e-02,1.860815286636352539e-01
-1.403766237436012143e-01,-1.464640989407631766e-01,-2.857477165432947275e-01,2.624745371084945267e-03,-4.146907982144810192e-05,1.286760021558198443e-03,1.425149440765380859e-01
-1.602951968684208917e-01,-1.431426242218454825e-01,-2.925535574808812989e-01,-1.987954699604711079e-03,2.204834656424168194e-04,-1.647544787509636196e-03,1.416869759559631348e-01
-1.384305417146683148e-01,-1.570093589250487753e-01,-2.453906824647538731e-01,3.586402823463750566e-03,4.396444364853504400e-03,3.321606140619379807e-05,9.947375208139419556e-02
-1.275990126976702665e-01,-1.580347389594154994e-01,-2.814806600434688333e-01,2.592584620416816111e-04,2.499294586218499953e-04,-9.652377807508912401e-05,1.411481946706771851e-01
-1.125749282742256330e-01,-1.538169855189166213e-01,-2.788687880939390018e-01,-3.359349628418435707e-02,4.933715815142049321e-02,-1.612935132103588201e-02,1.842952966690063477e-01
-1.230447681221222694e-01,-1.524040117407793327e-01,-2.719212366929838476e-01,-2.263322660615749073e-03,2.998080048511248159e-03,-9.208389756794316651e-05,1.367392688989639282e-01
-1.849280459768301021e-01,-1.717260285548179444e-01,-1.389709855893674906e-01,-6.349802470912978627e-03,-2.524393644644495329e-04,-6.181005314118136890e-02,1.151617020368576050e-01
-1.421630721749601312e-01,-1.472228772788872764e-01,-2.883820221047296295e-01,-2.845223431742453877e-03,-1.620959889862708472e-04,-5.943400268481682791e-04,1.438442468643188477e-01
-2.064181271933058226e-01,-1.650871580025812246e-01,-3.563175751557204896e-01,-5.410367602866969147e-03,-1.053269954114929114e-03,1.032618527410816798e-07,1.745414733886718750e-01
-1.300879422457318080e-01,-4.585063257994320685e-02,-2.773640743566647693e-01,-2.872658437971982101e-02,7.387532910629500231e-03,-1.900314513745234024e-02,2.119317501783370972e-01
-1.964787561143618022e-01,-1.560033515341067711e-01,-3.561007624493225387e-01,-9.003431730562471303e-04,-1.576144676123721923e-03,-9.924091977893567673e-03,1.840748637914657593e-01
-1.745422821481991404e-01,-1.808051840057165460e-01,-3.502902921557148330e-01,-1.837023273641057858e-02,-1.868700347299238462e-03,5.773407311990317410e-04,1.756410151720046997e-01
-1.713431961773931866e-01,-1.717229102944419772e-01,-1.238984565044146807e-01,-5.184062359054759581e-03,2.048091806736625914e-02,-2.941968666975553620e-02,7.877019792795181274e-02
-1.453979994135630172e-01,-1.472372404911375665e-01,-2.869533999283647163e-01,-8.305216056669324862e-04,-1.121392624747525631e-04,4.827031496990958687e-05,1.406523138284683228e-01
-1.436195693345212465e-01,-1.553680855161407026e-01,-2.635740222501031793e-01,7.578878052891239829e-03,2.639602459844287655e-03,1.077410400639103706e-03,1.153885349631309509e-01
-1.816327178174478862e-01,-1.451658049619235780e-01,-3.460491215030705447e-01,-5.179386541350373616e-03,-2.111037648387298349e-03,-9.222968233318459830e-03,1.862991750240325928e-01
-1.624514254795518808e-01,-1.869247860926347982e-01,-3.445289207658042141e-01,1.199674342971121521e-02,5.343653656620575045e-03,1.591654050773349356e-03,1.726850867271423340e-01
-1.523870127050163670e-01,-1.513042119638896843e-01,-2.731084636142440680e-01,-1.223699630437837318e-02,5.186916269093463407e-03,-5.277202970694479592e-03,1.237701475620269775e-01
-1.668494470279134889e-01,-1.326466818481412124e-01,-2.845188840733924862e-01,-3.176577259016659556e-03,-1.468354755582184116e-03,2.188791391797891006e-02,1.432289332151412964e-01
-1.315153687577321762e-01,-1.564147874143750616e-01,-2.918534360069590661e-01,1.059285293736610296e-02,7.666460823685517303e-03,4.708702147327817854e-03,1.513783931732177734e-01
-1.926164647875046876e-01,-1.245993955639261852e-01,-3.153054515463665219e-01,3.321033587369381923e-02,2.724749836687801602e-02,3.695638182868233451e-02,1.940547227859497070e-01
-1.514924266882198278e-01,-1.513455030555836411e-01,-2.869309738428860168e-01,-2.286715233436202913e-04,-1.889822254632185644e-05,3.207039847803566624e-05,1.355126649141311646e-01
-1.497239453196734515e-01,-1.514102222066404657e-01,-2.882811250844419804e-01,5.984181676125014358e-04,-2.011608752347940961e-04,-5.248978832149281404e-04,1.377291232347488403e-01
-1.445615149152414958e-01,-1.564583725380247758e-01,-2.891363786209050768e-01,9.486553256741059184e-04,1.019071098682533798e-03,-2.899381585322519973e-04,1.390306055545806885e-01
-1.456802742223397285e-01,-1.573240854081793816e-01,-2.914802971416750044e-01,1.013113523120017087e-03,7.444867340504732244e-04,-7.516738475317894441e-04,1.403637975454330444e-01
-1.590124155149579555e-01,-1.397927157915580809e-01,-2.909441799924609162e-01,2.404721247881193725e-03,-1.010518342170579594e-03,-1.406336173100690900e-03,1.426093280315399170e-01
-1.390213769063002591e-01,-1.523241495424941250e-01,-2.900680298336336671e-01,2.407423071496112531e-03,6.826440166050137424e-04,3.602533592109299844e-04,1.449202895164489746e-01
-1.991909314446603241e-01,-2.527267192022147890e-01,-3.959779226825791421e-01,3.875421048466534679e-02,8.617448558746736154e-02,3.845880765247885330e-02,2.495537698268890381e-01
-1.317757634136467737e-01,-1.518372113638047360e-01,-2.897919266218529355e-01,9.322145800102668578e-03,7.633756529814014931e-03,3.788316667882380383e-03,1.505992114543914795e-01
-1.484627368378267920e-01,-1.296348998653907014e-01,-2.799879718389068350e-01,-2.536217808864429761e-03,-1.699440491300673950e-03,8.228130963791197841e-04,1.419848650693893433e-01
-1.788113179287282306e-01,-1.828730542015550020e-01,-3.181577225652838514e-01,2.419123497169471323e-02,3.815857352523007590e-02,2.207999169757989336e-02,1.626480370759963989e-01
-1.440426505161012394e-01,-1.477141187528873689e-01,-1.638660718995361698e-01,-9.021648786793552352e-03,-4.106864605926120737e-02,1.247818161027360387e-02,7.813356071710586548e-02
-1.374697957869929765e-01,-1.481686820913226676e-01,-2.879985653727659689e-01,9.575113829796224468e-03,2.068689528163959908e-03,7.296199370491349362e-04,1.464662700891494751e-01
-1.566999971932788172e-01,-1.335048877417439606e-01,-2.887511262512217347e-01,1.807549506820333311e-05,1.534438494900442406e-04,2.471589078441099267e-03,1.451097875833511353e-01
-2.324188373732042623e-01,-1.692223307982587688e-01,-2.732803713998799289e-01,-5.726390480493209929e-03,-1.256884106111980613e-02,1.057141293006318011e-01,2.057777941226959229e-01
-1.387607464968318161e-01,-1.544439020639169768e-01,-2.483755637719992637e-01,6.995481737310908950e-03,3.567126049917212181e-03,4.979428235286816225e-03,1.039308980107307434e-01
-1.666002259298007271e-01,-1.607217212406196749e-01,-3.234099475245613142e-01,5.664991945266983214e-02,4.225761323062670466e-02,2.841221943161924973e-02,2.072490602731704712e-01
-1.512346632298037230e-01,-1.631851174472319643e-01,-2.159195977090004326e-01,2.442058818552802785e-03,-4.802329926474182241e-03,-5.482316359248570877e-04,6.034831702709197998e-02
-2.045634079831595842e-01,-2.700592148433220707e-01,-3.745251867809918922e-01,-2.542507892823982207e-02,9.751251907246746842e-02,-3.353020441468471113e-02,2.363961189985275269e-01
-1.428317313359327712e-01,-1.572549954489263491e-01,-2.969789044249626087e-01,7.380471702534672357e-03,3.568667595075494716e-03,-2.053864933816939003e-04,1.481479704380035400e-01
-2.303368055239843060e-01,-3.008630947067958417e-01,-5.525937804272393894e-01,5.713845333727243098e-02,-3.132687667970793233e-02,-1.890089863387584695e-02,3.160794079303741455e-01
-1.514900532696801527e-01,-1.495853110101648120e-01,-2.894659979240739034e-01,3.506434965507404609e-03,1.788872166308654943e-03,9.583095348889035308e-04,1.391151994466781616e-01
-1.556767184605176990e-01,-1.414020641750983742e-01,-2.571089323532477211e-01,-8.058226679243621349e-03,-2.545568023981125035e-03,2.503482075448727143e-03,1.103323027491569519e-01
-1.600524616759201602e-01,-1.307787892823664144e-01,-2.997270634365042929e-01,-1.422030491017060340e-02,-1.556273727611574777e-04,7.497142055824057225e-03,1.588397771120071411e-01
-1.448608900756993001e-01,-1.417961816393479013e-01,-2.864786280773833904e-01,2.877150610484930163e-03,9.944192081178725119e-05,3.337548155961873783e-05,1.432615071535110474e-01
-1.436839734008695524e-01,-1.525401758875802594e-01,-2.887250986361135086e-01,1.450213140501082883e-03,-5.779540697541350747e-04,6.729921265167073448e-05,1.408480405807495117e-01
-1.500662273559750792e-01,-1.635204366988642910e-01,-2.956985642748102272e-01,1.815008763823938202e-05,2.792168963009925096e-04,-5.802017394416005306e-04,1.393975317478179932e-01
-1.295800129829337566e-01,-1.545172233493581626e-01,-2.877415536194451451e-01,-5.692275580123125350e-05,-3.456976770943782831e-03,-1.500018079159860405e-03,1.474294513463973999e-01
-1.670549884571100041e-01,-1.719950375864129355e-01,-2.064259617721701245e-01,8.659279051170275026e-04,-1.506770145060345491e-02,3.404109804965573579e-03,4.580505937337875366e-02
-2.189830702766531190e-01,-2.695414516691533313e-01,-4.759389514565662838e-01,5.613429600419241744e-02,-6.761276915944448851e-02,-4.206758308490024523e-02,2.899446189403533936e-01
-1.567382764692680230e-01,-1.916757685392537491e-01,-3.453429176178975379e-01,6.415889842074553456e-03,-4.379249131522436160e-03,2.597129569524857066e-03,1.743680685758590698e-01
-1.478716497572384880e-01,-1.587972721240218932e-01,-3.012250913959809151e-01,5.092860657140075263e-03,-1.998168686072644262e-03,5.564533246614281059e-04,1.484987735748291016e-01
-1.757292682412371077e-01,-1.740537171038654407e-01,-2.022046831326591021e-01,-1.504901060770987746e-03,6.926184501875989712e-03,1.040463647984626178e-02,3.497993201017379761e-02
-2.478344362104304976e-01,-1.837168043399103889e-01,-3.815023870338914436e-01,2.881118939421326366e-02,3.825424441903962913e-02,1.001651840847969793e-01,2.598620355129241943e-01
-1.451687079824417748e-01,-1.445985888854190993e-01,-1.960765874171888079e-01,9.182800399545663558e-03,9.917738032257728334e-03,6.957068228379382525e-03,5.756925418972969055e-02
-1.726399751728490417e-01,-1.692769164914917079e-01,-2.020489768656126006e-01,4.444885477679365771e-04,-1.523420360754478182e-02,-1.498860703842562871e-03,4.097168520092964172e-02
-1.827541453456681120e-01,-1.713561768249944606e-01,-1.797992051660623758e-01,8.031803043217678904e-04,4.042468196479452949e-03,-1.079941042399926339e-02,2.249014936387538910e-02
-1.510424824450060932e-01,-1.469131615852980466e-01,-1.099782970480109173e-01,7.624522582178797471e-04,1.622425839512345661e-02,1.858144798771076134e-02,5.797401070594787598e-02
-1.509135054730883219e-01,-1.470455365342195619e-01,-2.882587701048436868e-01,1.797462002438170647e-03,-5.051717302885811323e-04,9.439154251834086409e-05,1.393571496009826660e-01
-1.831714170737097913e-01,-3.015600406450302806e-01,-5.213833174895393663e-01,1.566541461675502456e-02,1.854805032869478662e-02,-3.744853409341978526e-03,3.002883493900299072e-01
-1.371856665603150283e-01,-1.616726343906912389e-01,-2.942917412086422102e-01,-1.550047517836286039e-04,2.379516901301595346e-03,9.509587771973852365e-04,1.464740633964538574e-01
-1.356907034319921601e-01,-1.392570803492832188e-01,-1.345776398437237564e-01,-2.846024211015125462e-03,-2.465739990949934388e-02,1.669715780330980172e-03,4.329610988497734070e-02
-1.751692020609396105e-01,-1.279885548841878662e-01,-3.040992246497693507e-01,5.240021787607975455e-03,-3.813065450847695145e-03,2.314853974835869976e-03,1.583478301763534546e-01
-1.454816963331514168e-01,-1.572975916875952174e-01,-2.907830798999318511e-01,-5.634778003368568454e-04,4.418738405405598052e-04,1.556122884696902603e-04,1.397742927074432373e-01
-1.649628944435894140e-01,-1.450799863332536410e-01,-3.024625786985759568e-01,-3.283079823208525597e-03,-8.838434249721384677e-04,3.070988254158904833e-04,1.485609263181686401e-01
-1.504008530155154788e-01,-1.624148119514016164e-01,-2.952133587538360304e-01,3.575822047559449528e-04,-4.615976437006666681e-04,-2.018520928529604597e-04,1.391990333795547485e-01
-1.414685866151368376e-01,-1.525282535222479141e-01,-2.887110656721596502e-01,4.027139382201290474e-03,-1.565258685972056049e-04,-4.459347358002428274e-04,1.422094702720642090e-01
-1.506680668280596103e-01,-1.596679693722124482e-01,-3.001376793786614261e-01,5.510362698558324453e-03,-5.337032232205346968e-06,-2.630573751925894144e-03,1.455637365579605103e-01
-1.448235211671655420e-01,-1.631821743486195075e-01,-2.650194400016849805e-01,-9.641544515327281004e-03,1.210012114312700258e-03,-1.372539085857269305e-03,1.134300902485847473e-01
-1.510229828454437151e-01,-1.621522351250633265e-01,-2.988822587529507135e-01,1.226000474186735977e-03,-9.887801515834774083e-04,2.303740482145097911e-04,1.426473408937454224e-01
-1.513926054614215255e-01,-1.711296950750850476e-01,-3.092337465566805665e-01,-1.954383151507730915e-03,3.020028426981655450e-03,-1.256621078227802925e-06,1.490868031978607178e-01
-1.297369771481240441e-01,-1.245997095496356732e-01,-9.853182539530200290e-02,6.860867862649540003e-04,-2.931476139264746570e-03,6.222455238040627140e-02,1.117260977625846863e-01
-1.228156352867229850e-01,-1.549802296200966378e-01,-2.793582998323654865e-01,-7.428573595987165599e-04,-2.179957693593987094e-03,1.529605671927893712e-04,1.432515829801559448e-01
-1.260583179990314995e-01,-1.570402279400031076e-01,-2.862251975443886876e-01,-2.905009146466708617e-04,-3.155244119905310698e-03,-9.677197855904939654e-05,1.472453027963638306e-01
-1.480099529546359538e-01,-1.483356714429705792e-01,-2.862737204052922535e-01,9.403309507538822705e-04,-1.166038248971568560e-04,-1.284842558865145854e-04,1.381111294031143188e-01
-1.629180230862141143e-01,-1.391934392226655270e-01,-2.992863409448862644e-01,2.078377764815621221e-04,5.531675290047819533e-04,1.358370788092577925e-04,1.496514528989791870e-01
-2.054369382493834162e-01,-2.531298504904666569e-01,-3.705229705073018187e-01,2.982111893196536662e-02,-9.451252671275023332e-02,-3.288872218981709478e-02,2.331637442111968994e-01
-1.385510379087732946e-01,-1.620142240275573575e-01,-2.408559457624064315e-01,-4.883615598807412514e-03,-3.620695137804555257e-03,1.363130668266846531e-03,9.344981610774993896e-02
-1.692364504776082135e-01,-1.465627510117304411e-01,-3.038568157698304795e-01,2.661651534391310404e-03,5.039774324914678399e-04,2.431498937559351588e-04,1.473474651575088501e-01
-1.298125229547336112e-01,-1.573165792952659903e-01,-2.845940298476692942e-01,2.838386932784861105e-03,-2.992836283116432662e-03,-1.980651600407030890e-03,1.432462185621261597e-01
-1.946559378971231269e-01,-1.467558393755096224e-01,-3.360413824749364786e-01,4.964738415617261913e-06,1.369838233261488859e-03,2.030516229668234696e-02,1.740665584802627563e-01
-1.548120979345309900e-01,-1.237139804422708739e-01,-2.833141336534850674e-01,4.018212232103342794e-03,1.134523835131598987e-03,7.253147270254325582e-03,1.472622156143188477e-01
-1.512000487588971986e-01,-1.506966746768653720e-01,-2.871446572677731623e-01,1.312104794206412874e-05,-1.039838194846780164e-04,-2.076194919559358194e-04,1.361975818872451782e-01
-2.013029602132272444e-01,-1.834407596156034104e-01,-1.737946659686310791e-01,7.731955609772013689e-03,-5.576090640127335379e-02,-3.595085839178639719e-02,1.181904524564743042e-01
-1.107653591422072259e-01,-2.125457610698149868e-01,-3.069257176449361468e-01,1.856181413580654249e-02,-8.276597257746967640e-02,2.127001750099762403e-02,2.276276350021362305e-01
-1.684424628318007544e-01,-1.649839162144115245e-01,-2.052087704583085148e-01,2.590175352022840247e-03,-9.029472841792550789e-03,-8.218218507305276137e-04,4.192407801747322083e-02
-1.438813881108913506e-01,-1.604369434704891739e-01,-1.394336867030146199e-01,-1.978311642464914994e-03,-2.697256981218750654e-02,3.105909816172753527e-03,5.089933425188064575e-02
-1.503652441825163166e-01,-1.483427538863432982e-01,-2.893567008356736636e-01,-7.224181010990539950e-04,4.113006798392586415e-04,3.136519996856925395e-04,1.400221139192581177e-01
-1.660294169100837436e-01,-8.424221311892382547e-02,-3.355465768534715565e-01,2.481704390109689198e-02,-9.949554875856884625e-03,-1.701388647854734301e-02,2.286976277828216553e-01
-1.552756570469981945e-01,-1.301255980655647571e-01,-2.850179635569306535e-01,1.228212528904838773e-03,2.807422174176854753e-04,-1.432367870276190884e-03,1.440122723579406738e-01
-1.462953136675655408e-01,-1.380459387353241141e-01,-2.841523308397402303e-01,3.665967452363051108e-03,-3.000064519323101652e-04,-8.789193144641933245e-04,1.423121541738510132e-01
-1.517656847078898974e-01,-1.225031531203923940e-01,-2.525969601592320535e-01,-2.779308619745135718e-03,-1.610475848189519914e-04,-8.318865713826584588e-03,1.191833987832069397e-01
-1.518066655259770747e-01,-1.522160911532602912e-01,-2.876092183495261856e-01,-6.124545379074819214e-06,-1.096662077514653534e-04,7.018888312797592606e-05,1.355984956026077271e-01
-2.453162021089582701e-01,-1.580495584436158452e-01,-3.475049025925390778e-01,-1.883892986492315472e-02,2.480573006738922420e-02,-1.048730752376717673e-01,2.507617175579071045e-01
-1.474823089270179133e-01,-1.323070552018858759e-01,-2.767717903399430357e-01,-8.380269269341962882e-03,5.110471630206638721e-03,-6.588740567316112538e-03,1.390227675437927246e-01
-1.570339229228858158e-01,-1.323354800193531911e-01,-2.884821273765894034e-01,1.197565462991409578e-03,1.323797611904481170e-04,-2.816123620628543586e-03,1.454763114452362061e-01
-1.650321687598355624e-01,-1.553452991657756632e-01,-1.851014844498672929e-01,2.098731175096750848e-03,8.792605180484313471e-03,-2.930164894123768807e-03,3.101488389074802399e-02
-1.635308684304007665e-01,-1.194802693579019442e-01,-2.903044012119537776e-01,-1.564802321535471372e-02,1.534930827534706187e-02,-3.875600627887824251e-02,1.718834042549133301e-01
-1.455280791651172856e-01,-1.515279259903288267e-01,-2.209125599229327386e-01,-7.016661904177843266e-03,3.123458627758111516e-03,-5.162427042801488730e-03,7.431986927986145020e-02
-2.487171858765421240e-01,-2.230459486351574205e-01,-4.381089434047880093e-01,-4.340603561385659309e-02,4.047987450394480158e-02,-6.955789969206670198e-02,2.578239440917968750e-01
-1.491071329343708618e-01,-1.611006001515991048e-01,-2.923415303041735358e-01,4.681298564717191382e-04,-3.773857256128305558e-04,-5.610516665862307854e-04,1.376375257968902588e-01
-1.621150347645366752e-01,-1.324304037338626672e-01,-2.893428249210681091e-01,2.150978311873948980e-03,-1.198270303924191997e-03,-3.089813899873798154e-03,1.445393562316894531e-01
-1.594929100593560078e-01,-1.413707381300745025e-01,-2.926438737557904290e-01,-8.220139926737900834e-04,1.746398159264607062e-04,-1.263464253101529919e-03,1.430995613336563110e-01
-1.598146778368785270e-01,-1.420794117000814816e-01,-2.942966986213743086e-01,3.827822683017910173e-04,5.966464898856413228e-04,-9.750607636587219030e-04,1.441852599382400513e-01
-1.503740829768320797e-01,-1.142342037761570617e-01,-2.750555988169450794e-01,-4.039532117798685928e-03,3.080141580098432613e-03,-1.553240505810061546e-02,1.488580852746963501e-01
-1.646241770270566451e-01,-1.398629626518136382e-01,-3.213493427132950719e-01,-1.296846278582083900e-02,3.221138752215222528e-03,-1.586374376845143749e-02,1.742046028375625610e-01
-1.605048769559546118e-01,-1.672126766712583590e-01,-1.979686401178913646e-01,-2.542232309285446731e-02,8.045933997979529129e-02,-1.147137943390664876e-02,1.514991968870162964e-01
-1.240283513554867600e-01,-1.566046428923993372e-01,-2.864696560740203624e-01,-1.674919426492465016e-03,5.472968076122953357e-03,-2.789861770766370683e-03,1.492591202259063721e-01
-1.457352900759561753e-01,-1.347583988727315552e-01,-2.854451542684062204e-01,4.960735428964016189e-03,1.004780972284294999e-03,2.941818995315251782e-03,1.458620429039001465e-01
-1.491550467762564058e-01,-1.479812990666454775e-01,-2.334665356599683328e-01,-6.679092505001767155e-03,-2.353158777434936899e-03,2.715279951601100999e-03,8.591464906930923462e-02
-1.409078395565843966e-01,-1.584597112558259191e-01,-2.930384704041297805e-01,2.367134364322464463e-03,8.030938744056102590e-04,-4.743655318169343786e-04,1.442256569862365723e-01
-1.640294531700406122e-01,-1.435726892296639579e-01,-2.970889641938346815e-01,1.223513339292236091e-03,1.545936613273382523e-03,-6.086573891335623652e-04,1.444231718778610229e-01
-1.497470857959898871e-01,-1.381694857025025092e-01,-2.874269603274186013e-01,-1.239676917892906316e-03,-5.821154241064434515e-04,6.761076279976522630e-04,1.438429355621337891e-01
-1.569788835818432537e-01,-1.455392077883428947e-01,-2.896070085625507828e-01,-4.360279359832692071e-04,5.889943291974840297e-05,4.275458460649498031e-04,1.387062966823577881e-01
-2.696040832444274726e-01,-1.918801439439042911e-01,-5.014288092267494834e-01,-7.049622251115665594e-02,-2.708657301270980117e-02,3.866837531725159788e-02,3.152744472026824951e-01
-1.674786066425386910e-01,-1.426804563527402370e-01,-3.032670290665279156e-01,6.742693213321625028e-04,3.086763434414402634e-03,-3.992259383869697052e-03,1.499950289726257324e-01
-1.597482723907706070e-01,-1.371224513322124861e-01,-2.908669122942532659e-01,1.804021599517758841e-03,7.975883330391654808e-04,-2.695706006557363997e-03,1.438894122838973999e-01
-2.569746550610067515e-01,-1.704449065795646256e-01,-3.889677547875193264e-01,-2.594379268823263779e-02,2.587532760625472009e-02,-9.771457423556008381e-02,2.626845240592956543e-01
-1.530767076632042478e-01,-1.496094928443921501e-01,-2.884195838624076247e-01,1.250999485652406129e-03,4.848732511090242847e-04,-3.694079339504411632e-04,1.371305584907531738e-01
-1.745195012969226744e-01,-1.341132994152443858e-01,-2.672571976438582464e-01,1.859793751839424608e-02,-1.455569100594012594e-02,-3.596316056971737840e-02,1.397620141506195068e-01
-1.146018358140490495e-01,-1.493273092456276763e-01,-2.676262418053393932e-01,-6.656837225865304408e-03,-1.861234922291038138e-02,-3.452499292338005298e-03,1.432356089353561401e-01
-1.582504860645231048e-01,-1.315964658771336671e-01,-2.903474567908422843e-01,-1.568761954446117090e-03,4.930079905846683876e-04,-2.519460964119970333e-03,1.473367512226104736e-01
-1.462972648121045882e-01,-1.541770708393969125e-01,-2.883419054223880229e-01,-6.728414675036681336e-04,-7.359946250186257368e-04,-2.816489955416879979e-04,1.382848769426345825e-01
-1.471220538664479716e-01,-1.423630808806559955e-01,-2.884863756341341512e-01,-8.710707253027136611e-04,2.258983012740203096e-04,3.680003358318792331e-04,1.438127458095550537e-01
-1.466627148379767431e-01,-1.541926523850047359e-01,-2.903608169706272668e-01,-2.429184323137103911e-03,1.910297863178184104e-05,-8.887604172844962855e-05,1.401482522487640381e-01
-1.377212528668248503e-01,-1.577491879796370233e-01,-2.905949528353008460e-01,-1.484479003019370264e-03,1.496238231782130810e-03,-1.831377926858082606e-04,1.439554393291473389e-01
-1.424144133554573477e-01,-1.519429222584117167e-01,-2.881688710459801017e-01,-1.108560891842944084e-03,4.329157962110451456e-04,-2.764361256083183945e-07,1.412465274333953857e-01
-1.530021388563420626e-01,-1.422563863340805534e-01,-2.897316688641079496e-01,-1.575179613428354455e-03,-2.000034836368840159e-04,-1.101945739544685048e-03,1.424461454153060913e-01
-1.405189115217848617e-01,-1.241647417282164823e-01,-2.805961240224342790e-01,-1.364797379684236540e-02,1.450804885562153755e-03,-1.214649118780315815e-03,1.508292853832244873e-01
-1.541279446245591156e-01,-1.546284799013105393e-01,-1.664095188415080639e-01,4.068531486841791612e-04,-2.813614201000364228e-03,-4.522434113109427729e-03,1.518365368247032166e-02
-1.605992733246833504e-01,-1.609546904799223910e-01,-1.715293695311214672e-01,9.850959453171388713e-04,4.991036324645343504e-03,-1.126528506134117161e-02,2.395978011190891266e-02
-1.642009752294594227e-01,-1.736548637724959765e-01,-2.192946708911751308e-01,2.284987558262863714e-04,-2.061990170760173019e-02,-5.217416993865133315e-03,6.293809413909912109e-02
-1.743855724375292515e-01,-1.933588011194760370e-01,-2.002817596610928508e-01,-3.912605555499418589e-03,-3.887664870846920667e-02,1.781120598340175986e-03,7.161623984575271606e-02
-1.369240050543990006e-01,-1.257813833882464039e-01,-1.183702149243217872e-01,-7.493777056702434491e-03,-3.178117945570665959e-02,4.732260280049820078e-02,1.008887961506843567e-01
-1.353953594373368818e-01,-1.601441001433541733e-01,-2.900630999479888450e-01,-8.042499500231235820e-04,-2.767244748081923965e-03,-1.298124098132131870e-04,1.439852118492126465e-01
-1.441551548534429350e-01,-1.621337793494801727e-01,-2.930321028795866978e-01,-5.965198356122134148e-05,-1.481790006358910334e-03,-1.101570294189302976e-03,1.407878249883651733e-01
-1.637072766307204885e-01,-1.439012446124471878e-01,-2.973850730136394782e-01,-2.897774358882840859e-04,2.060993594077679524e-03,9.015437204614906892e-04,1.446550786495208740e-01
-1.825863668489153546e-01,-1.864024037315401006e-01,-1.932385855635371519e-01,-4.242131376323892734e-03,1.293953710973151303e-02,-8.953511978974500142e-04,2.541789785027503967e-02
-1.256623751956030266e-01,-1.314038638924233671e-01,-1.230876911845271843e-01,2.485543057608432128e-03,-1.593150886147110673e-02,-1.138642421638869258e-02,3.497571870684623718e-02
-1.303761477028760607e-01,-1.400801523856220754e-01,-1.309702688450118391e-01,-1.536053527683514837e-03,-4.875918727405191555e-02,2.033381717070125230e-02,9.202500432729721069e-02
-1.452553829518813955e-01,-1.438954979850954330e-01,-2.899471103323594812e-01,5.908724279229998679e-04,1.503536345160175159e-04,-4.670389105289951884e-05,1.453803032636642456e-01
-1.619338397784345074e-01,-1.439265625296617945e-01,-2.947342851299622479e-01,1.013616101754314156e-04,6.325802114449838006e-04,1.050001661373280637e-03,1.426749229431152344e-01
-1.466077159645626238e-01,-1.484100666354361553e-01,-2.882321191206981825e-01,9.394964511189510649e-04,-1.122671569896078244e-04,-8.597835045820540682e-05,1.407414972782135010e-01
-1.559428888168495897e-01,-1.265441323376250704e-01,-2.880390125426655068e-01,-4.641404436756197197e-04,-7.764289205130020998e-04,-3.984503640412218398e-03,1.491550207138061523e-01
-1.542096465675928951e-01,-1.316607427348210624e-01,-2.873788598766904290e-01,-1.374751951484769240e-03,7.023282445761963198e-04,-1.106705837938254952e-03,1.457948386669158936e-01
-1.591096172936907194e-01,-1.430284681211772824e-01,-2.943707317878847540e-01,-5.283766022621390291e-04,2.193176706787085695e-03,-1.842712348300521059e-03,1.440652012825012207e-01
-1.439040093288140865e-01,-1.503469386429264198e-01,-2.482711536856921364e-01,1.000044110457032343e-02,-7.207304141478978153e-03,-3.612562795180174896e-03,1.037140116095542908e-01
-1.641805762316009276e-01,-1.367973600386466759e-01,-3.024371285867464842e-01,2.322138651020590368e-03,-5.539517480136504869e-04,-6.013486371244013140e-03,1.541953533887863159e-01
-1.589561905197955927e-01,-1.424505904671909406e-01,-2.923656254353805273e-01,2.554123899707621929e-03,-8.437928824049088002e-04,-7.453464394281761676e-04,1.424636393785476685e-01
-2.993911804448785574e-01,-1.698406157774141334e-01,-5.168258285468915192e-01,-2.072834717842177502e-02,8.145126290797846669e-03,-2.899404587145605616e-02,3.102256357669830322e-01
-1.500384067462211535e-01,-1.346580315567679764e-01,-2.915527156906071449e-01,1.291269569981148314e-02,3.903560161989391881e-03,6.595808069323551986e-03,1.520389467477798462e-01
-1.657287867068252540e-01,-7.099882196014294100e-02,-2.832910096803490374e-01,4.492290628118296436e-03,-1.587878708687329513e-02,-6.457679223978342320e-02,2.173907607793807983e-01
-2.422722676798516606e-01,-1.886328611607738237e-01,-3.469309498223946964e-01,3.258470168553601054e-02,-3.617746033021961016e-02,-9.756430141269419043e-02,2.347606122493743896e-01
-1.518181169199581126e-01,-1.086059125134794939e-01,-2.962150679120102437e-01,-2.503513270569215909e-02,-1.473881901875423971e-02,3.714960767369276246e-02,1.887584030628204346e-01
-1.494270794188099216e-01,-1.526511397021473593e-01,-2.894759367234810421e-01,5.530546562277563602e-04,-2.422964238633024201e-04,6.587425059452668317e-04,1.384736299514770508e-01
-1.433553595234059452e-01,-1.724715469913457588e-01,-3.044408590141236548e-01,5.831667873784918132e-04,-3.732661561836689117e-03,-3.895236439555576236e-03,1.489779651165008545e-01
-1.587485755321687564e-01,-1.491550984368261723e-01,-2.966292139117404636e-01,5.083216090081213966e-03,-2.054159726759327478e-03,3.658903099312517328e-04,1.432356089353561401e-01
-1.428229467749165538e-01,-1.525473571514679161e-01,-2.892716854360449230e-01,1.293445882243714554e-03,-9.657248383480412143e-04,7.876834022784973653e-04,1.418708860874176025e-01
-1.578530464404885592e-01,-1.406881937696154716e-01,-2.932476887468379312e-01,6.302688519016205802e-05,4.819569587874810573e-03,1.388248214436835172e-03,1.450029313564300537e-01
-1.608281058578050760e-01,-1.437964427805677459e-01,-2.953560042488928006e-01,-1.968610081919165982e-04,1.944879890507048307e-04,-1.719004740250545374e-04,1.438032835721969604e-01
-1.552849081068747028e-01,-1.274887378367621227e-01,-2.874074390666244705e-01,1.052673419032622900e-03,1.300203013059554082e-03,3.221857146858526921e-03,1.481250375509262085e-01
-1.567892923511153835e-01,-1.317324063998668027e-01,-2.889583218499234274e-01,2.644411336090642019e-03,9.592841926371196070e-04,1.903567687717377726e-03,1.464337855577468872e-01
-1.627998233839749731e-01,-1.522169902784536177e-01,-3.047714262475997860e-01,5.144359392012395893e-03,-1.482332455168945771e-03,1.058083230513076969e-03,1.478503942489624023e-01
-1.612083898460306697e-01,-1.332540362622209040e-01,-2.920934723561431356e-01,6.500647507900704156e-03,-4.923322640949598242e-04,8.559183629645729374e-03,1.480487734079360962e-01
-1.561406471429453435e-01,-1.452942954673047682e-01,-2.971037546321390610e-01,1.894612304939169087e-02,4.891843417592136103e-03,8.106953052595684828e-03,1.512051671743392944e-01
-1.302625117334695604e-01,-1.610389206312196897e-01,-2.897378970353747807e-01,2.198075028455017603e-04,-2.693272976880918632e-03,-6.947591587513032071e-04,1.466112583875656128e-01
-1.195013419345669625e-01,-1.693835276847588944e-01,-2.604339080893859903e-01,1.078322028403948425e-02,-3.258291149877824699e-02,-8.104293672425610245e-03,1.380253881216049194e-01
-1.755305367351439605e-01,-2.003292891741971504e-01,-3.358660115768334897e-01,-1.759066634611883284e-02,-4.440525388967519332e-02,3.897035040256349031e-02,1.837012916803359985e-01
-1.514711427448556802e-01,-1.833190641687480471e-01,-3.961879152933025505e-01,4.331212122777922113e-02,-5.060981785950677964e-02,-1.507544180775141282e-02,2.590377628803253174e-01
-1.462475464381491341e-01,-1.292860099522273598e-01,-2.866328314299155799e-01,1.210381688851011606e-02,4.417510175627637793e-03,5.194591509139140709e-03,1.515119522809982300e-01
-2.209419539838964330e-01,-1.902353360536382931e-01,-2.639610720113715336e-01,1.696661369777561351e-02,-3.335721411550878618e-02,-9.731615160130314968e-02,1.916442513465881348e-01
-1.546458729951719069e-01,-1.280509985282436425e-01,-2.894176895086076895e-01,4.555391118154111275e-03,2.466749673883776323e-03,6.399502939152861870e-03,1.505268663167953491e-01
-1.547402349131730692e-01,-1.339171481370592665e-01,-2.863254349369070972e-01,2.875843812734134655e-03,2.578186047404265949e-03,1.265837466535996809e-03,1.433102786540985107e-01
-1.803113998570644028e-01,-1.505738438325325279e-01,-3.284261256311342692e-01,-9.499868918690153319e-03,7.248781425449249763e-03,-3.446123555532904555e-03,1.664057374000549316e-01
-1.523818661857508361e-01,-1.523402097376156117e-01,-2.876838897244538007e-01,4.405651084081691816e-04,3.503514306790045515e-05,3.750336659966708834e-04,1.353265792131423950e-01
-1.040895646658296925e-01,-1.294132445257293318e-01,-1.928551437182735029e-01,2.489624758861887222e-02,-5.234731510959479694e-02,-4.568902126615348447e-02,1.503841727972030640e-01
-1.456495466357823343e-01,-1.714137904728586237e-01,-2.591724449198541391e-01,2.164888359279115802e-03,-4.950157759148099586e-03,2.024863891651540373e-03,1.035677865147590637e-01
-2.044390062464127855e-01,-1.018620836754411396e-01,-3.696364026180151141e-01,-2.164152694257909931e-02,2.859289223289796650e-02,-3.010743052057448382e-02,2.476585209369659424e-01
-1.647178824461549562e-01,-1.506641786143087802e-01,-3.013575142288671405e-01,-4.408430620825415347e-04,4.847410574283879045e-04,-1.568554372050017963e-03,1.442111581563949585e-01
-1.548960377212637296e-01,-1.534744072500792700e-01,-2.900952590809652842e-01,2.001375917894806719e-03,1.514868369313628830e-04,-2.630402748624402921e-04,1.359608322381973267e-01
-1.548450487398659314e-01,-1.384358103986405575e-01,-2.521732549117685074e-01,7.521763133716150886e-03,-1.067214474919306929e-03,-2.705216744986699371e-03,1.073975190520286560e-01
-1.732298719461002889e-01,-1.403300089368333947e-01,-2.962332356617172202e-01,-4.661848820160110519e-03,-3.218698214498859084e-03,-4.036338992597467146e-02,1.588801741600036621e-01
-1.600483045963847772e-01,-1.495630569010389932e-01,-3.019977546938685808e-01,5.032510005680875496e-03,8.591452151497362038e-04,-7.540562315545538703e-04,1.477425545454025269e-01
-1.397473715019398044e-01,-1.531272665502039498e-01,-2.589669856295142014e-01,7.228997159672814060e-03,-2.882025323648298130e-03,-1.856983714380209486e-03,1.139703094959259033e-01
-1.474618468380456682e-01,-1.437142610780930974e-01,-2.880554433486279819e-01,8.894254484758530284e-04,-9.546045187800750338e-05,-8.841451633142379462e-05,1.425128579139709473e-01
-1.470384336481063148e-01,-1.472069113804299334e-01,-2.880663019874096786e-01,1.632708768578453669e-04,9.423189349612788753e-05,2.299550471068127842e-04,1.409446448087692261e-01
-1.577527685489275855e-01,-1.352513906234826535e-01,-2.980180750921971877e-01,-6.905586060042346978e-03,-1.391474210105253908e-03,1.813954031600707728e-03,1.532826572656631470e-01
-1.437931843121902642e-01,-5.703563395371687161e-02,-2.748530353215863364e-01,-1.693550377838972179e-02,9.421810506178142017e-03,-2.848521979671745502e-02,1.990852952003479004e-01
-2.033317935808465760e-01,-1.342433425014815107e-01,-2.896776558357349596e-01,1.369140657530880378e-02,1.610702817463469105e-02,-8.462110250217112772e-02,2.025270164012908936e-01
-2.022744151370340915e-01,-1.510991910835168817e-01,-3.598050583069560826e-01,2.711794731841278127e-03,-5.316323879257741671e-03,-3.704173747475687523e-03,1.887974739074707031e-01
-3.064704900049036174e-01,-1.741605314510611124e-01,-4.859521464602956642e-01,2.885443745164898918e-02,-1.784477455805696944e-02,-9.327995223812417247e-02,3.209724128246307373e-01
-2.205726660664522332e-01,-1.854229319722648928e-01,-2.550682348493689133e-01,1.027452934828805044e-02,-1.100186460474137685e-02,-9.909030344885705333e-02,1.837782412767410278e-01
-2.645340918754470194e-01,-1.371730897477651256e-01,-5.106909656000602205e-01,5.919513658246151541e-03,1.235139985087844311e-02,3.258486389912861741e-02,3.345339000225067139e-01
-1.607555187460575907e-01,-8.161184636569043804e-02,-3.302118369537674902e-01,-2.789213795542171484e-02,-6.995189617162495335e-03,1.477995782185847866e-02,2.269947379827499390e-01
-1.487415126455824133e-01,-1.513397852817038591e-01,-3.011492051717025720e-01,1.171064888125545808e-02,9.187713953770111630e-03,4.561280588493725127e-03,1.535120010375976562e-01
-2.140088553975907915e-01,-1.015289415876800688e-01,-3.371527732856649529e-01,-1.365760660795589318e-02,-5.075293169910754555e-03,2.282417489953377301e-02,2.094446718692779541e-01
-2.104444985392875112e-01,-2.517773755407230474e-01,-4.264589146306179135e-01,-4.161796867253870352e-02,7.559557369246959480e-02,-3.795388070372716915e-02,2.571067214012145996e-01
-1.454083843053991243e-01,-1.661014460266074522e-01,-3.106123418469933783e-01,-5.228583054693629155e-03,-1.311267027381017016e-03,8.325180877196004369e-04,1.561769098043441772e-01
-1.514108322948808927e-01,-1.376963855438581852e-01,-2.889249774937417414e-01,-2.117678697850964523e-03,-2.628987920318693597e-04,-1.656203557735520067e-03,1.449346244335174561e-01
-1.533769706182647463e-01,-1.351315206812586378e-01,-2.662207882736511988e-01,-7.775038396282991406e-03,6.687831217282120882e-04,-5.287992731251960066e-03,1.240648776292800903e-01
-1.419677287703520474e-01,-1.471391000686568529e-01,-2.885891377501302313e-01,-8.138113636903010787e-04,-2.453691659680646512e-04,-2.263327382165656633e-04,1.441133916378021240e-01
-1.461152052044962790e-01,-1.487862563068862998e-01,-2.870346510234937920e-01,-4.654587397649142307e-04,-1.211909140794521956e-04,-3.608121552027910222e-05,1.396055817604064941e-01
-1.464059846191211045e-01,-1.432114813736984349e-01,-2.754192479518759451e-01,-8.887191448570546173e-03,1.097080711863324641e-03,-1.160323667974023503e-04,1.315574347972869873e-01
-1.501609359722221038e-01,-1.354912175787234274e-01,-2.870204007795789658e-01,-1.129538502792642399e-03,1.816547300396592645e-04,-5.974778194813248249e-04,1.447701603174209595e-01
-1.603911224222541732e-01,-1.398500684026703911e-01,-2.991735298276732014e-01,-4.823084594011253431e-03,8.779637876249666000e-04,2.289847154427141450e-03,1.504029780626296997e-01
-1.687967807940220777e-01,-1.526742659196184126e-01,-3.034988673248698032e-01,2.787399256005306447e-04,5.547670177381837072e-04,-1.768990709063952317e-03,1.434812545776367188e-01
-6.015809965765420153e-02,-8.247978095784019859e-02,-1.433728693685541733e-01,-2.923169724099429143e-02,6.924880249998240089e-02,-3.908952553219206816e-02,1.646180450916290283e-01
-1.276499850405370118e-01,-1.501414386196707751e-01,-2.712810917091729168e-01,-4.342326540811063985e-03,9.006891453771459586e-04,-6.891568325872924174e-04,1.340362429618835449e-01
-2.211777836405354192e-01,-2.133898104799610285e-01,-3.565548325320012091e-01,-3.636431737096905425e-02,5.699378247155496846e-02,-7.215687951651165999e-02,2.208477258682250977e-01
-1.500528559562782083e-01,-1.515641075686811057e-01,-2.897571555259362830e-01,2.115539925588762746e-04,3.490087406606689487e-05,6.708042429942813771e-04,1.389601975679397583e-01
-2.458617793385856898e-01,-1.728925734771064315e-01,-3.101402313038945091e-01,5.769533602818438696e-03,1.141553961608324230e-02,1.108767245745106433e-01,2.269764840602874756e-01
-1.395752238829376379e-01,-1.089234231524500857e-01,-2.551766111934781200e-01,-1.077178502516317263e-02,9.598092432878383221e-03,-1.950739925569110536e-02,1.400453001260757446e-01
-1.368549063798205345e-01,-1.362098657511116584e-01,-2.894199370001238059e-01,-1.548187365549041211e-02,1.173588313663765682e-02,-9.714041559585957081e-03,1.574492305517196655e-01
-1.462310998829129960e-01,-1.596636431399116596e-01,-2.920516775609821036e-01,-3.165240858994711887e-03,-1.905949145853090120e-03,-4.330833886651436486e-04,1.397385001182556152e-01
-1.393385256088955082e-01,-1.453034292335189659e-01,-2.880774765077331878e-01,-8.341765022755050999e-04,1.098616911773333415e-04,-1.282567779668996276e-04,1.458554565906524658e-01
-1.552751097596087038e-01,-1.265125161186825831e-01,-2.853525678827449896e-01,-2.582642893719106544e-03,2.424385211539313231e-03,-2.823038210592191625e-03,1.468003690242767334e-01
-1.681587345066372363e-01,-1.372623620327448890e-01,-3.015253454163780433e-01,-1.277819604589930207e-02,9.261394111340556508e-05,1.190641256187499695e-03,1.528263986110687256e-01
-1.666790450185447747e-01,-1.447499378011283810e-01,-3.030306644637644764e-01,5.980000981215482202e-04,7.596768894997965550e-04,-6.697773112486342688e-04,1.485492140054702759e-01
-1.171750794612524543e-01,-1.247658114223335890e-01,-3.001118859438050568e-01,-4.078405924281307271e-02,4.274351983801949473e-02,-4.071258247253659729e-02,2.181248664855957031e-01
-1.405551840059252600e-01,-7.631263644057273421e-02,-2.609026418542775838e-01,1.096026902809103289e-02,8.063154238149095390e-03,4.353535868723017177e-02,1.805088669061660767e-01
-7.978089427546990187e-02,-1.066202861502192761e-01,-2.825359479726070600e-01,-5.278327565706814745e-02,2.966647899616466424e-02,-1.997093131564249557e-02,2.204159200191497803e-01
-1.351271243330387506e-01,-1.639010576206562375e-01,-3.000453537906144774e-01,-2.395285324315260447e-03,1.493759887637550587e-03,-2.865988077004941788e-03,1.527388691902160645e-01
-2.526580147647906616e-01,-1.787236762422604319e-01,-3.178728803805013770e-01,-7.142964352371919748e-03,-6.404208837978329731e-03,-1.122089057648176652e-01,2.293240129947662354e-01
-1.365671056091566915e-01,-1.415918324543924134e-01,-2.598296250128501184e-01,-9.266664004843780736e-03,1.351848901920088856e-03,-4.128816546168322804e-03,1.221219599246978760e-01
-1.584089055229221943e-01,-2.311112299237293444e-01,-4.589250399048050433e-01,-3.414130679830575110e-02,1.976138480176067511e-02,-3.263139500093233808e-02,2.856749892234802246e-01
-1.646140528187844676e-01,-1.377345425853921390e-01,-2.949125934035606300e-01,-1.849747425342349559e-03,-4.288729390892507078e-04,3.032710533571434525e-03,1.457428783178329468e-01
-9.981961478225336026e-02,-1.460284691211304331e-01,-3.998148389884604303e-01,-8.704207425744370230e-02,-6.275994264180527298e-04,-3.127139602594271317e-02,3.223876655101776123e-01
-1.899010731522163820e-01,-2.584517673855612485e-01,-4.809376660090767253e-01,-5.841296321313163564e-02,6.692621249213810686e-02,-2.821749694075670334e-02,3.090517520904541016e-01
-8.826660303322539369e-02,-9.765809775093772793e-02,-2.310879561928484427e-01,-3.820592834270458704e-02,4.315916044412656388e-02,-3.465238082188339813e-02,1.808712631464004517e-01
-2.088381641740530426e-01,-1.969215316870058241e-01,-2.186994638029840510e-01,-1.049489259141579006e-02,-5.281152128090606940e-02,7.376033316162104725e-02,1.592988520860671997e-01
-2.500833712713969592e-01,-1.576662793256300155e-01,-3.281322756700983945e-01,-1.085856089576293232e-02,-1.544195445474299926e-02,1.106149464252068615e-01,2.441755235195159912e-01
-1.248757300470275389e-01,-1.580727676191563957e-01,-2.835028455303318373e-01,-7.223256037327877282e-04,2.205618373779894524e-03,-2.322370512632214977e-04,1.449654251337051392e-01
-1.515035123382851012e-01,-1.474755852878696372e-01,-2.908964958827546798e-01,-4.642863121769457910e-03,-2.653208742477456360e-04,-9.864515430388399748e-04,1.416894197463989258e-01
-1.763591640421409423e-01,-5.953870702408112225e-02,-3.035469328460792537e-01,-2.419209867380626294e-02,-8.873122537562141282e-03,-3.126479412871882232e-03,2.161091715097427368e-01
-1.498632959561118638e-01,-1.521924081993188960e-01,-2.890344516686053078e-01,-4.846548275249684700e-04,-2.982363862349455652e-04,7.238032088875656330e-04,1.380305588245391846e-01
-1.502417929721844014e-01,-1.561522901606438030e-01,-2.926197480923578564e-01,-8.357571785605128530e-04,6.399248759989675317e-04,-2.131865194590037808e-04,1.395290344953536987e-01
-1.879556799774397824e-01,-3.140303050487829317e-01,-5.252262226802749678e-01,-1.258967919766317001e-02,2.843558873305951709e-02,-7.081365880811785326e-04,3.000462055206298828e-01
-1.314598034015471428e-01,-1.212918040851867774e-01,-2.801720457101260497e-01,-3.437287243272815762e-02,-3.086121010413162002e-02,2.943499379350925788e-02,1.809193342924118042e-01
-1.850125441861850961e-01,-2.080933803246221847e-01,-4.710985529083477896e-01,-6.010359921910594927e-02,5.516500885599964765e-02,-1.921114267062337677e-02,3.112055361270904541e-01
-1.380347169259618645e-01,-1.773918255100240537e-01,-3.062397063957698617e-01,2.848104673907536719e-03,8.122513862142789060e-03,-5.837474769399246186e-03,1.534481197595596313e-01
-1.740392012407708244e-01,-1.486147355161306360e-01,-3.241146429495673775e-01,-8.700263731252717847e-03,-4.995148845521787603e-03,7.260216475439311076e-04,1.651912480592727661e-01
-1.721040272424357032e-01,-1.646043603654554488e-01,-1.196661193906531917e-01,4.090048238228311851e-03,-1.830815740716191381e-02,-4.512806254873644174e-02,9.786771237850189209e-02
-1.853514560560565461e-01,-1.843157124572651073e-01,-1.694003515345457733e-01,8.190697369666353339e-03,-4.594689572890406359e-02,-4.812319166383596108e-02,1.171372160315513611e-01
-1.872888555018644707e-01,-1.913176993693387340e-01,-1.607555289328889414e-01,-3.772609737122350690e-03,6.339306196280658501e-02,-5.531400995991839903e-02,1.486768424510955811e-01
-1.642710670351791025e-01,-1.403350572086664583e-01,-2.541806099414247733e-01,1.369268640718079161e-03,-4.724848331309646735e-04,-3.710700487368000927e-03,1.041937470436096191e-01
-1.674683197249731970e-01,-1.445770435620581940e-01,-1.827929558886652872e-01,-1.980840738755674027e-03,-1.421061135763674980e-02,2.971492360802216806e-02,6.615271419286727905e-02
-1.693173701915221541e-01,-2.578448145630649613e-01,-5.278487990815090569e-01,-8.625060915035323572e-02,-7.885871254084828724e-03,9.481575390044334620e-04,3.565792739391326904e-01
-1.220286043201961601e-01,-1.228313154310894384e-01,-3.020689962935044909e-02,-2.769323681870236673e-03,2.373155028030999019e-03,1.919635902450179954e-02,9.823939949274063110e-02
-1.802270018114788264e-01,-2.129176387381536140e-01,-2.417560422469926529e-01,-4.041185709812963704e-03,-9.235289114829305090e-02,6.156754597126667082e-03,1.690945178270339966e-01
-1.277108922795841539e-01,-1.582209867325653774e-01,-2.785308530905781788e-01,-7.162619425407849849e-03,-9.475483842956317418e-03,5.784135187837855657e-03,1.399986743927001953e-01
-1.814297074612741256e-01,-1.739455153970027312e-01,-2.267546943730788245e-01,-6.117142992844439367e-03,-1.050246994781679939e-02,2.093979031476925906e-02,6.487046182155609131e-02
-1.548678952364569983e-01,-1.717249569914191254e-01,-2.233898232589960342e-01,-5.223808302022782575e-03,-4.470590337342489860e-03,1.580671178361124662e-04,6.297805160284042358e-02
-1.635404456361662373e-01,-1.456283989149959046e-01,-1.938957072954515248e-01,1.374816216439879966e-03,-1.471387698188750606e-02,3.176335094550278987e-02,7.394528388977050781e-02
-1.905022010670712196e-01,-1.954416175842927372e-01,-2.776170382431143446e-01,-9.783816839270610341e-03,-3.767626553957815431e-03,2.719136289518988767e-02,9.864563494920730591e-02
-2.134050443704770816e-01,-2.097422681030382818e-01,-2.865931308400447297e-01,2.517143185435057745e-02,-8.558253579358106322e-02,-6.029019841307765165e-02,2.010388523340225220e-01
-1.944566444636656177e-01,-2.214581606706027272e-01,-2.298326717929246310e-01,1.721644132357945389e-02,-1.009123018298504898e-01,-5.632315498271428522e-02,2.048934549093246460e-01
-1.514079983174492217e-01,-1.533010330783491915e-01,-2.882331711026271948e-01,3.996420606398480352e-05,2.388725713952168466e-05,-4.497056842791165017e-04,1.358907967805862427e-01
-1.675559791396885601e-01,-1.667042797611750782e-01,-1.898961665034366586e-01,-2.508326003950045544e-03,-8.046274816104747110e-03,1.183806745328561290e-02,3.394640982151031494e-02
-1.534005098002982348e-01,-1.434468844034998414e-01,-1.770460108587870174e-01,-6.048921729408921789e-03,-7.907421082117045349e-03,1.139635222096230423e-02,3.975579887628555298e-02
-1.324363858277896600e-01,-1.561528908076657562e-01,-2.997020540619304563e-01,1.012466414041844273e-02,5.467497413954059381e-03,5.498169276466804978e-03,1.583073437213897705e-01
-2.106479921662738897e-01,-1.962440559571742293e-01,-2.473367416577294808e-01,1.972200550481638739e-02,-5.426545766309543578e-02,-6.676339623500159026e-02,1.595466881990432739e-01
-1.658398647698493822e-01,-2.920729101982759701e-01,-5.106389717553883045e-01,3.076215347388566029e-02,-3.444641323764191521e-02,-9.452834968458039694e-03,3.129901289939880371e-01
-1.562245438972267308e-01,-1.534085946652178345e-01,-2.429791447339928745e-01,-7.372729341955863540e-03,-3.214312576105805841e-03,2.223617367953017662e-03,8.937273919582366943e-02
-1.558066528573713860e-01,-1.518495500672453202e-01,-1.675382694252038895e-01,-1.477671621023576376e-03,-1.027846587279851280e-03,1.062022958365750830e-03,1.458822563290596008e-02
-1.501562352710589798e-01,-1.421045845117777651e-01,-1.006071333991759020e-01,-6.123581328249728083e-03,4.103531826278022931e-02,-2.375632129954704727e-02,9.475371241569519043e-02
-1.385487293493164462e-01,-1.366629521843190920e-01,-1.846342811544513796e-01,-8.253248180069153520e-03,-7.021963101513024538e-03,1.105584653042260626e-02,5.416002869606018066e-02
-1.525935961485622439e-01,-1.712938838268455166e-01,-1.923651720719566638e-01,8.850469317519307419e-03,-3.659269365743891139e-02,-3.477378829853037569e-03,7.400056719779968262e-02
-1.515760218518091007e-01,-1.651923148573453126e-01,-2.221131125695706698e-01,7.637121684062415840e-04,-1.965184885383871715e-03,3.161945023475425261e-04,6.491584330797195435e-02
-1.889457250961153467e-01,-1.918233865968147212e-01,-1.981858883725660936e-01,-6.355943054967577548e-03,1.027670964502694524e-02,-5.441932245942882398e-03,2.437091805040836334e-02
-7.231924982087342690e-02,-1.283667830905337870e-01,-2.998798857489083369e-01,-4.196042852986255067e-02,4.520410063463506031e-03,-9.458160221518605720e-04,2.179838865995407104e-01
-1.559869765302000499e-01,-1.560532322448879849e-01,-2.414034519586717442e-01,6.563140411983922964e-03,2.744597927693598251e-03,2.266875344520182141e-03,8.635715395212173462e-02
-1.959850104667380521e-01,-1.491587881470674282e-01,-3.415781471370300526e-01,1.699106692713101864e-03,-1.687529807634609259e-03,3.453217754062980639e-03,1.739557683467864990e-01
-1.700849660297374943e-01,-1.761128990297297081e-01,-1.457586630549309037e-01,3.613311328680000011e-03,-6.453308907383906168e-02,5.415490841378069664e-04,1.153618171811103821e-01
-1.628703585023482114e-01,-1.430619041269698966e-01,-2.967049921054726869e-01,3.195773159986447544e-03,9.043147709679581238e-04,1.199548638452303979e-03,1.448880583047866821e-01
-1.636457558143251667e-01,-1.340999408707379825e-01,-3.030549160207607895e-01,2.440544338339698926e-03,-2.171603749344551068e-03,4.938354973122243211e-03,1.566269546747207642e-01
-1.576899929991782967e-01,-1.373138170065869856e-01,-2.923672961905640633e-01,3.447124899910635355e-03,2.806978608625987619e-03,2.777821401132573101e-03,1.462183594703674316e-01
-1.544192620573880959e-01,-1.580053354010154398e-01,-1.981250625589050518e-01,-6.643792927391698085e-03,-1.484953083611385838e-02,9.410136241048552147e-03,5.315940454602241516e-02
-1.530281196170714397e-01,-1.558019952650136486e-01,-1.522475260532585306e-01,4.426558711134965726e-04,-9.192878868797368930e-03,-1.600200777297542711e-03,1.650047861039638519e-02
-1.809573882285691326e-01,-1.725356053892513619e-01,-2.127841425171683454e-01,-9.906521695804669254e-04,-5.876297344064342065e-03,9.166400624875763875e-03,4.135834053158760071e-02
-1.556563640260125447e-01,-1.751953341370380279e-01,-1.634895267400079955e-01,5.125704967583714564e-03,-2.557973532887247367e-02,-6.753119048531448093e-03,4.968580231070518494e-02
-1.014346135213468336e-01,-1.467926982489560217e-01,-2.851483568501530508e-01,-2.685653234513096441e-02,2.700085272408692463e-02,-2.561070483141867499e-02,1.838311105966567993e-01
-1.553202203267955439e-01,-1.591678553785088879e-01,-2.991189024942600971e-01,3.970603657586194331e-03,1.158151156303093357e-03,6.527520518170105762e-04,1.420991867780685425e-01
-1.791229824989695463e-01,-1.928146004582098338e-01,-1.971100748461906971e-01,4.857977128626199403e-03,-3.461436741520323296e-02,-1.071016928617990471e-02,6.537667661905288696e-02
-1.663055970282506790e-01,-1.718559410195507897e-01,-2.171987773052623250e-01,-6.283693608443892409e-03,-2.293033488354080315e-02,8.854047607741957759e-03,6.534129381179809570e-02
-1.306512496316841465e-01,-1.280129506604689160e-01,-1.255190627460059105e-01,-9.345020952147856325e-04,-7.243174231196971083e-03,1.572282983715333690e-02,3.035444766283035278e-02
-1.371539538677815917e-01,-1.317591820087118115e-01,-1.332135277449648936e-01,-1.368119136983359657e-03,-1.161278377652924867e-02,1.202449021336455225e-02,2.945035509765148163e-02
-1.323014430080886594e-01,-1.420938678139504752e-01,-2.804794257884863917e-01,-2.634224270371490501e-03,-1.102951510412776299e-03,3.542745898774047513e-04,1.436190307140350342e-01
-1.658538203506295383e-01,-1.555482836214342468e-01,-1.902120921003946641e-01,3.029155183057210404e-03,5.923624362124946946e-03,2.395624940571019698e-02,5.296277627348899841e-02
-1.770688575926625263e-01,-1.834318463537340793e-01,-1.517846265906198644e-01,1.140762039441691779e-02,-6.218186170381135441e-02,-3.829462223079505706e-02,1.312640458345413208e-01
-1.245552334163163716e-01,-1.358566315873495911e-01,-2.150061837306380674e-01,-1.068737030750247473e-02,1.242883133716374960e-02,-9.039264591784701083e-03,9.131312370300292969e-02
-1.606680861998282805e-01,-1.603735103606387380e-01,-1.729117434930886876e-01,-7.805431201634611829e-04,-8.424892130594083088e-04,-2.719138196571700824e-04,1.256103161722421646e-02
-1.470037172937753711e-01,-1.167053284402281843e-01,-2.809011886685824355e-01,-3.087931064606033726e-02,-2.214178619618212968e-02,4.228314658219087252e-02,1.805501878261566162e-01
-1.579966729519369506e-01,-1.698709756061093923e-01,-1.775883348171056475e-01,1.967728896278604471e-03,1.348356280137750877e-02,-1.249932892867237043e-02,3.630330413579940796e-02
-1.778474804968001033e-01,-1.772077500595002075e-01,-2.134257333861941108e-01,-1.276475542943974074e-03,-6.739671171643989850e-03,8.180728129066299273e-03,4.038455709815025330e-02
-1.638020050409032813e-01,-1.649694765658900331e-01,-1.922793231198679786e-01,-1.833950822084116266e-03,-6.154173097054557728e-04,7.814647721863821409e-03,3.120106831192970276e-02
-1.708619089243516576e-01,-1.606135697491359315e-01,-2.674179188500465099e-01,-1.259320214856112299e-02,1.144112230070256156e-02,-1.220653187595388371e-02,1.083194017410278320e-01
-1.636569749392338957e-01,-1.631725688474094105e-01,-1.936533023454503899e-01,1.343173263447751918e-03,3.805704768365656288e-03,9.306434461325474930e-03,3.497479483485221863e-02
-1.385632690964530844e-01,-1.473796301223925520e-01,-1.578703245710145753e-01,4.224708882845516073e-03,1.487639706313576005e-02,2.043498264014940915e-03,3.178468719124794006e-02
-1.793769560873137714e-01,-1.695814049165271509e-01,-1.698726501442998915e-01,-5.007339042408150316e-03,5.520343909068844979e-03,-2.557449308144966408e-03,1.671673730015754700e-02
-1.260072085558421873e-01,-1.718357912602757609e-01,-2.898315742349199531e-01,-2.606329350078360509e-03,2.073669215954334830e-02,5.348372163694293906e-03,1.510863006114959717e-01
-1.428714854881222573e-01,-1.420150852326872992e-01,-2.881203249103181374e-01,-5.775469171382309908e-04,2.384691186611269007e-04,-1.072912690136324692e-04,1.456830650568008423e-01
-1.059762961546927840e-01,-1.489271555169241479e-01,-2.549659203112383254e-01,-4.338984783574906072e-03,2.433986566501677648e-02,-6.698989112460676867e-03,1.400423049926757812e-01
-1.411315342807667739e-01,-1.757948011684869472e-01,-2.836490567333956880e-01,3.200632981121131218e-05,9.243909836759992699e-03,5.588591280125647246e-04,1.297303140163421631e-01
-1.310324688197451459e-01,-1.513719864392463199e-01,-2.144359500664177465e-01,1.959544865847608584e-03,1.584004353740784202e-02,4.898626520330274202e-03,8.068259060382843018e-02
-1.241155597128111576e-01,-1.560786026477120614e-01,-2.414546909707520894e-01,-2.963673236907724343e-03,2.065604104296785495e-02,8.225821585843546115e-04,1.111215054988861084e-01
-1.259702292664595380e-01,-9.989896144294488356e-02,-2.298690421027669017e-01,3.296457804953260157e-02,-4.466776943105237041e-02,-5.047367831864520149e-02,1.762720793485641479e-01
-1.580837621556971662e-01,-1.317235202535391725e-01,-2.868935584978081765e-01,2.650338782127687615e-03,2.196914070922767991e-03,3.872649369619729498e-03,1.440931260585784912e-01
-1.272521188166924333e-01,-1.593825769003980319e-01,-2.652566277394919347e-01,3.870878856206447336e-04,2.088420705972515376e-02,2.215369391434089154e-03,1.302577704191207886e-01
-1.230236507077128033e-01,-1.480215201613404030e-01,-2.183842776870259517e-01,-5.568241892287607332e-03,1.399544522406048069e-02,-1.924638562432875446e-03,8.959060162305831909e-02
-1.251549618246241835e-01,-1.600286166478659955e-01,-2.530380994244832982e-01,3.755834384035195811e-05,7.359031380753626797e-03,1.256561202258885644e-03,1.152290031313896179e-01
-2.187728917453308775e-01,-2.104639014139817188e-01,-2.465980202564106161e-01,1.423959619954143219e-02,5.875910041071941842e-02,8.446264619029515697e-02,1.828728616237640381e-01
-1.760482087183260214e-01,-1.503424112424142089e-01,-3.106354917951447137e-01,-1.193986837450835767e-02,-2.887012103248629696e-03,1.522011234252869903e-02,1.529112160205841064e-01
-1.615242660363209182e-01,-8.985745326946641132e-02,-2.896369605612223452e-01,-2.151780924687062002e-04,-1.036433712721020022e-03,4.893187653861832270e-02,1.947222948074340820e-01
-1.603973852220185459e-01,-1.573897619543986881e-01,-8.637641829825806750e-02,-5.169523619419159714e-03,-1.179094139039405312e-02,1.665148681241801140e-02,8.120707422494888306e-02
-1.428718543612584879e-01,-1.524226121446687066e-01,-2.184984941418058879e-01,8.652756961055513979e-03,2.830361094685569789e-02,1.039303187479413693e-02,8.966745436191558838e-02
-1.493742395403280798e-01,-1.385335925319477746e-01,-2.919544411806872519e-01,1.345618636399802115e-02,3.173189010229388388e-03,8.201901808600996213e-03,1.508891135454177856e-01
-1.248733817894669695e-01,-1.267800391424280249e-01,-2.940372063629605182e-02,-2.702167257697048706e-03,1.836492279150815990e-02,-1.184915125184586755e-02,1.037065237760543823e-01
-1.645821886474043982e-01,-8.600383626093838219e-02,-2.074194289002306013e-01,3.344734472336369224e-02,3.954877524424280089e-02,7.462321338269306548e-02,1.900790035724639893e-01
-1.847917487119465074e-01,-1.838928905158112304e-01,-1.249979742425293416e-01,-1.096826569398261795e-03,-1.381800007463459407e-02,4.111696859636213008e-02,9.576321393251419067e-02
-8.874127309487633841e-02,-7.521230763791150742e-02,-1.741869086148246093e-01,3.051066805265859397e-02,4.852462664331638059e-02,5.962459155065415184e-02,1.707684844732284546e-01
-1.969588492747183228e-01,-2.004910621972698370e-01,-2.614400913372354474e-01,2.719023464830714817e-02,6.101931845271729021e-02,7.803981700659473608e-02,1.886827647686004639e-01
-2.272372232142138015e-01,-1.564031917998079391e-01,-4.489515835324706661e-01,-2.861464170541783494e-02,6.418520244663744601e-03,5.055451288608055899e-02,2.830669581890106201e-01
-1.056220967499400809e-01,-3.519582526549709656e-02,-1.445881274150294105e-01,1.923082981611647438e-02,1.620244391346493257e-02,8.277439393782032306e-02,1.779726892709732056e-01
-1.578444456283587261e-01,-1.422854169458885876e-01,-2.641502071997184342e-01,7.670222691221885263e-03,1.904746605073985783e-04,2.242830691962005400e-03,1.157095879316329956e-01
-1.685508245676754779e-01,-1.308139204139490419e-01,-2.978679168167979729e-01,4.238995621547912707e-03,-1.821860318375676099e-03,8.285569772848420250e-03,1.526329815387725830e-01
-1.644785398474847560e-01,-1.246745965036974574e-01,-2.810439884145751188e-01,-3.134023600479641375e-03,2.041826212230958126e-03,1.503383227834953310e-02,1.432886719703674316e-01
-1.817154832351118854e-01,-1.942804991389545655e-01,-1.533852688187746505e-01,6.132836709014385414e-03,6.983529802282879839e-02,3.633862646480987002e-02,1.414979845285415649e-01
-1.522950092927567167e-01,-7.948853222525810447e-02,-2.582221226762262400e-01,-1.182943742834392190e-03,3.455665909859650855e-03,4.943324400015840225e-02,1.777764707803726196e-01
-1.465123010643633317e-01,-1.514993315531851792e-01,-2.886779626362845352e-01,1.181504974905210267e-03,5.232757596591168818e-04,-6.674560526952449512e-04,1.397616118192672729e-01
-1.523653520045028520e-01,-1.807698375056345230e-01,-3.079403110239847807e-01,-3.574439387127983925e-02,8.796955955031690588e-02,-1.347044178914014873e-02,2.195099741220474243e-01
-9.802301228488086160e-02,-1.643771283518119242e-01,-2.666511646945975422e-01,1.887023913318153223e-02,5.727221439431345873e-02,3.502920017089686516e-03,1.805395781993865967e-01
-9.429024069697639066e-02,-1.025097464937135272e-01,-1.805977809140815460e-01,3.860832849056371890e-02,7.643230542809567596e-02,5.766479431101737690e-02,1.969272345304489136e-01
-1.607518574605976969e-01,-1.303271271895535821e-01,-2.924094058115936923e-01,6.401604529261391632e-03,1.561461291331838743e-04,1.083270987010410275e-02,1.507981270551681519e-01
-2.853432291657057585e-01,-1.807157393777401311e-01,-5.018548932385251682e-01,-3.992973536987408367e-02,-1.657549630693591625e-02,3.924876301027548781e-02,3.011744916439056396e-01
-1.883912978493832990e-01,-2.146880851610935004e-01,-2.474968316356954134e-01,-2.244283454442838610e-02,-9.303206655145883353e-02,4.647626652050139417e-02,1.912766844034194946e-01
-1.496609587638746963e-01,-1.451888806079847383e-01,-2.881571994317430607e-01,1.158705280237036159e-03,6.665501266523606028e-04,-5.558439938484996835e-04,1.408078968524932861e-01
-1.795930917720328646e-01,-1.669669891935322004e-01,-3.377957511526799572e-01,1.910544271567108515e-02,1.219534268010727445e-04,7.355157640799030346e-03,1.686486750841140747e-01
-2.593772773743744375e-01,-2.013770671684229630e-01,-3.966987774095936392e-01,-2.189959091993402135e-02,-3.190764387795805290e-02,9.035232196288428552e-02,2.432480007410049438e-01
-1.457458425740651153e-01,-1.734664662198653062e-01,-2.839662158619546961e-01,6.914120892815200405e-03,8.748473427534283683e-03,3.614831536770404807e-03,1.282730400562286377e-01
-1.465264718389205356e-01,-1.508887263103531884e-01,-2.907685098626556774e-01,1.229868997251681514e-02,7.052565926467473274e-03,6.481522651017489027e-03,1.446533650159835815e-01
-1.515640835020916066e-01,-1.523643510509896659e-01,-2.876295759711929301e-01,2.295045403372062971e-04,6.185029320347705376e-05,-1.574794524050329519e-04,1.356680244207382202e-01
-1.542841139807402395e-01,-1.521420014764732209e-01,-2.900553132456642480e-01,-2.250796686970808584e-03,-2.037910580428939377e-04,-1.848870882114043068e-04,1.369111686944961548e-01
-1.624416113988304267e-01,-1.624100391468788485e-01,-2.122865784405782996e-01,3.136849361925880039e-03,8.697175728143730772e-04,6.937875832742533382e-03,5.159734934568405151e-02
-1.730810389203681077e-01,-1.441485545662085643e-01,-1.962606475721408450e-01,2.808349263775838326e-03,1.082079835928688276e-02,4.423061908014542382e-02,9.104394167661666870e-02
-1.480698828371641296e-01,-1.451832705120542910e-01,-1.043975000015702204e-01,1.944553129837318754e-04,1.818226351437563643e-02,2.163515427874349636e-03,5.287234112620353699e-02
-1.517776599294473339e-01,-1.515600786159334579e-01,-2.876579046460729372e-01,1.908630194610878438e-04,8.259729363017157780e-05,-7.585878887506538747e-05,1.359897106885910034e-01
-1.545836929436648355e-01,-1.235991731910172087e-01,-2.472591629949558167e-01,2.167124590394172660e-03,9.792608697109202783e-04,7.553342730563461505e-03,1.122871935367584229e-01
-1.586887523696300095e-01,-1.537634646147867379e-01,-3.032969859220648878e-01,5.641792013584854236e-03,-2.464022245753793357e-03,8.553208151716453714e-04,1.475260555744171143e-01
-2.609716452472778392e-01,-1.961984514185711459e-01,-3.771363596291550380e-01,-3.566626317143462704e-02,5.133815102029048311e-02,-1.082780459734072609e-01,2.685323655605316162e-01
-2.833591790789365961e-01,-2.136178022952181788e-01,-4.106474576666814258e-01,-1.808993596063254369e-02,1.946333580440541208e-02,-1.217321523009490397e-01,2.766184806823730469e-01
-1.560222484808521104e-01,-1.286457394737900717e-01,-2.871572251812428145e-01,2.987906776414836311e-03,-9.198370894444854104e-04,-2.860705608119751449e-03,1.469344943761825562e-01
-1.421939890913445637e-01,-1.435721615141185847e-01,-2.845322319543864276e-01,-2.671006936731647619e-03,1.395293162541384573e-03,-1.149124418787945794e-03,1.417642831802368164e-01
-1.305409132900476887e-01,-1.526702977077613599e-01,-2.766819647723124387e-01,-4.210411170726790185e-03,9.647556151061698580e-04,-1.720896101460888978e-04,1.366344392299652100e-01
-1.617378356436919018e-01,-1.592078580382751962e-01,-2.855666470334204954e-01,-1.811499456647979595e-02,1.474707206890805630e-02,-1.373424819152385679e-02,1.336264759302139282e-01
-1.505364341458121924e-01,-1.298178403585792673e-01,-2.762911178775013243e-01,-5.009306918815216447e-03,1.318518787487225679e-03,-4.168951136351489728e-03,1.377737075090408325e-01
-2.100907403438948551e-01,-1.530151898347867911e-01,-4.268645128542247758e-01,-3.108334224549008998e-02,3.476566015131322962e-02,-4.750661833480806368e-02,2.755287289619445801e-01
-1.559978786486551361e-01,-1.504295316701849683e-01,-1.967238194772809312e-01,-3.330374908000319992e-03,1.512682499383128818e-03,-9.585031304437423988e-03,4.724555090069770813e-02
-1.273454448861364718e-01,-1.378296755860369260e-01,-2.856712993459414873e-01,-1.663782882718841533e-02,-5.993637892314919446e-03,2.917922349783455115e-03,1.564635336399078369e-01
-1.584709240481371184e-01,-1.205135872729242164e-01,-1.536718334151275789e-01,-2.258693665207388984e-02,-5.516451238224204245e-02,5.852257582545916659e-02,1.490509510040283203e-01
-1.490109967385211398e-01,-1.427166498372682280e-01,-2.885968749322664340e-01,-1.963533563767993172e-03,2.493341227213010389e-04,-1.023987029519216518e-04,1.428783535957336426e-01
-1.494966568810605079e-01,-1.484370214959210288e-01,-2.878649766437441082e-01,6.562988740035901334e-04,-3.678836075403771116e-04,3.661182120625096901e-05,1.389072984457015991e-01
-1.517355299196553320e-01,-1.529668503187586182e-01,-2.879289722697256915e-01,2.444654193907788578e-04,4.817111354697523826e-05,-1.870744041419006548e-04,1.355830430984497070e-01
-1.067073459393425572e-01,-7.693709711151161534e-02,-1.691528237706312054e-01,3.238389998573380085e-02,4.175378159494051722e-02,6.543738259499029541e-02,1.669346094131469727e-01
-1.505219678945257100e-01,-1.510175430515608153e-01,-2.871642845887579787e-01,1.082765803312518628e-04,-1.632254275268340269e-04,-9.316937489712773441e-05,1.363957226276397705e-01
-1.484703250428907328e-01,-1.313988013828906731e-01,-2.843291373312339387e-01,-3.636516576311923758e-03,-2.267603469490341115e-03,2.471020022973224005e-03,1.454021632671356201e-01
-1.275849734328466378e-01,-1.537118146026528465e-01,-1.828819975173349710e-01,-3.680863331970309679e-03,-7.772915268206878614e-02,2.193743294733117161e-02,1.480050683021545410e-01
-2.699330367140845288e-01,-1.654314672813769205e-01,-4.241214868917595471e-01,1.454912838967454408e-02,7.447474288131757103e-03,9.362202359346470659e-02,2.791133522987365723e-01
-1.523033575806172490e-01,-1.486133346266516331e-01,-2.875066263914691223e-01,7.512241980727153365e-04,-4.833050564550784678e-04,8.676249422681675983e-06,1.370942592620849609e-01
-1.522549951440179683e-01,-1.492478605711655970e-01,-2.881182965700123111e-01,5.719695515936628607e-04,-5.695436438834956122e-04,-1.109528106491722239e-04,1.373987942934036255e-01
-1.460683116588271935e-01,-1.628475295812581713e-01,-2.944154572849947415e-01,1.325335918416211105e-03,1.073702102781086323e-03,-3.742158246942800911e-05,1.407409012317657471e-01
-1.228482077466117178e-01,-1.426271905225535708e-01,-1.091347325387949652e-01,-2.880477021519538966e-03,-4.578599276564655762e-02,-1.729437986988160807e-03,8.469617366790771484e-02
-1.584483460480501926e-01,-1.284737334439462475e-01,-2.860477686723137403e-01,-2.687436923850173198e-04,2.600270731557296523e-04,2.709462597679229180e-03,1.450078487396240234e-01
-1.464521978553176840e-01,-1.388876846867317660e-01,-2.799567615201761783e-01,-6.924307195585410052e-03,4.946066507109390443e-05,-3.734058896663126865e-05,1.379653513431549072e-01
-1.571920295920764821e-01,-1.283010060306051248e-01,-2.729151626656317609e-01,-6.176681333103183329e-04,-5.952706322345216374e-04,2.104804166421086163e-03,1.326099336147308350e-01
-3.153068941779867407e-01,-1.587800475110007214e-01,-5.337014745819280703e-01,4.618469120128072813e-02,1.087490156859823726e-02,3.299609582130940549e-02,3.411767184734344482e-01
-1.794970022225303719e-01,-1.587717273160677567e-01,-2.357794726328285018e-01,1.362255557387424300e-02,5.373719030223306908e-02,8.245083542841734336e-02,1.854128390550613403e-01
-1.357306875074932029e-01,-1.595833086773914555e-01,-2.982845087176582699e-01,1.786313639245289608e-03,4.339374204108163106e-04,2.474215677440324852e-03,1.521310657262802124e-01
-1.453154041564331811e-01,-1.734647636293414064e-01,-3.221923338845661955e-01,1.472068617034849591e-02,-1.927665798169630063e-03,-1.632856045088087148e-03,1.666376441717147827e-01
-1.445552332364282433e-01,-1.647641629147502673e-01,-3.040797170437178898e-01,2.610924819085167132e-04,1.002462558272784526e-03,-1.562531755203802901e-04,1.504524350166320801e-01
-1.310222146145360311e-01,-1.564149012540417272e-01,-2.909288811266391162e-01,-2.088300082981071632e-03,2.257576835484202508e-03,-8.220370628744231873e-04,1.489458680152893066e-01
-1.449622586008212921e-01,-1.639323927924145885e-01,-2.406699788279031693e-01,-3.334339929408231332e-03,-3.441199296631359920e-03,2.139743739819825567e-04,8.816610276699066162e-02
-2.162789773874553845e-01,-2.373236841050913870e-01,-3.507275014006539515e-01,-4.260993563228095138e-02,-8.843033881611959968e-02,6.021208341686513921e-02,2.355269342660903931e-01
-1.369761138514433152e-01,-1.489087826774151413e-01,-2.869800408966198813e-01,-3.210665332861387892e-03,-1.377280488130194292e-03,5.138350890427252626e-04,1.445372849702835083e-01
-1.488949920176834141e-01,-1.614976308328774091e-01,-2.941978817241948096e-01,-2.593594731189630825e-04,-1.118916559732458481e-03,-8.243817935882807087e-04,1.394508928060531616e-01
-1.315006449785072196e-01,-1.733528531227794822e-01,-3.032559699229788186e-01,8.084119318460973591e-03,-7.452566437540674577e-03,-6.757339076212406405e-03,1.567253172397613525e-01
-1.519339867998394933e-01,-1.683673234412540187e-01,-3.048964570026948540e-01,-8.099075998832304477e-04,-7.497654700308641670e-04,5.114380261245882967e-04,1.454590260982513428e-01
-1.398228333664323086e-01,-1.415711578581083097e-01,-2.853841813727343579e-01,1.674433966601617885e-03,-2.822068925637324661e-04,-5.736714565499906196e-04,1.447284072637557983e-01
-1.446629889126869739e-01,-1.370862039138854294e-01,-2.848470034941452123e-01,-2.115037105079611846e-03,3.421716205116741619e-04,1.351998077354909242e-04,1.441698223352432251e-01
-1.386649314538849209e-01,-1.812803645906012062e-01,-3.165063600127311361e-01,2.589306564932690891e-03,-1.257726356939116615e-02,5.643320755889032203e-03,1.626501679420471191e-01
-1.505086360035598481e-01,-1.535935034419526057e-01,-2.586544719937041714e-01,2.025198264187685199e-02,-1.849129274232852102e-02,-2.544384624129689826e-02,1.247790157794952393e-01
-1.693108680528082610e-01,-2.409398744138847859e-01,-2.771948089254328007e-01,-2.382406536589571060e-03,-1.094115283647899423e-01,6.125592980259534151e-03,2.123305946588516235e-01
-1.461406098580255442e-01,-2.085169536878090923e-01,-3.317592741369043696e-01,1.364039812782272959e-02,-8.381990296821381636e-02,-3.581483216817306359e-02,2.285836786031723022e-01
-1.417353341887730989e-01,-1.729011783595780227e-01,-3.101155362207650423e-01,4.252715515316808984e-03,-3.031242229119782139e-03,5.237709745875548939e-03,1.556907594203948975e-01
-1.306414390994608821e-01,-1.545419189968779139e-01,-2.944035820722523122e-01,5.469484081895450642e-03,-3.739442361565203498e-03,7.673542106248859530e-04,1.536513566970825195e-01
-1.262029917982759597e-01,-1.560250995129828233e-01,-2.806847546761496170e-01,-1.549936249075270413e-03,-1.331397557407547859e-03,9.726630064543123665e-04,1.419942378997802734e-01
-1.387606218603878172e-01,-9.687085151436804209e-02,-3.174057022342899881e-01,-3.901633951935479239e-02,-5.595195819785267304e-03,-5.404744272671048455e-03,2.142442464828491211e-01
-1.706717577915533302e-01,-1.777199057503802415e-01,-1.189341660320215183e-01,2.523369764733788146e-03,-7.181450269159325717e-02,-9.059156189659071934e-03,1.372165679931640625e-01
-1.534949751492719061e-01,-1.592193815940267654e-01,-6.173776502669495181e-02,-3.865686995443860167e-04,-5.796393373877944261e-02,4.587534029588202431e-03,1.382767111063003540e-01
-1.465699312147515643e-01,-1.416765258675265204e-01,-2.873203442738684332e-01,-7.481026436584462588e-04,-1.942188079149000091e-04,-2.305724129351117914e-04,1.432666182518005371e-01
-1.940616000434268185e-01,-2.420156445187477690e-01,-2.663177717117166110e-01,3.368790423053425603e-03,-9.943649389673550609e-02,-5.164284439015052498e-03,1.839360594749450684e-01
-1.627378548026348071e-01,-9.515839379070969994e-02,-2.611178143031999133e-01,-1.279870594867470006e-02,-2.866250262378487301e-03,5.064855145806498177e-02,1.706046909093856812e-01
-2.268739625218659517e-01,-1.954419718781447157e-01,-2.835873908640098584e-01,-2.140040372700878143e-02,-5.469085522843758485e-02,8.539736869740927050e-02,1.954797506332397461e-01
-1.237520480421628738e-01,-1.494190923073610566e-01,-3.906551824529282957e-01,-6.355720650321544651e-02,-2.394168201146657307e-02,4.305256025549328291e-02,2.905928492546081543e-01
-1.689952364994181389e-01,-1.431379567182377577e-01,-2.548669544945895149e-01,-3.891707866257697844e-03,-1.427625975240047647e-03,1.961416282619575426e-03,1.016171798110008240e-01
-1.415661956016883161e-01,-1.078930346601044143e-01,-3.015525538636270042e-01,-2.443718248845678717e-02,-1.414923110614557840e-02,3.631549394582445772e-02,1.961258202791213989e-01
-1.774024225498455620e-01,-1.589407869653544636e-01,-3.391602832406483414e-01,-8.401766219399104535e-03,2.326695416640284491e-03,2.794476958154659511e-03,1.724650412797927856e-01
-1.795960834662337080e-01,-1.644332118880863780e-01,-3.157470239695513436e-01,-1.683406400194724026e-02,-1.570729457732019914e-03,4.482718065286341556e-03,1.474763453006744385e-01
-1.333807932738498847e-01,-1.438390189911596950e-01,-1.613907703204471300e-01,-9.081896607251194534e-03,-3.700538245008150318e-02,1.058845117114512110e-02,7.275288552045822144e-02
-1.528966014113457839e-01,-1.553693397279552746e-01,-2.927736040859757471e-01,-2.720304934621452057e-03,-4.932937904507750469e-04,1.239782273874410004e-04,1.387400031089782715e-01
-8.690129967724447013e-02,-1.706395355997539220e-01,-2.825520041709621566e-01,-8.152958750051475870e-03,4.279855938282195460e-02,3.816860745387894681e-03,1.861346662044525146e-01
-1.477551371996733143e-01,-1.479724166443029953e-01,-2.866277356520724462e-01,-2.241384233025721026e-03,2.657562883821081999e-04,-1.423732784672824365e-04,1.388193666934967041e-01
-1.520136281235573983e-01,-1.517491605084243245e-01,-2.875379107165479398e-01,-1.487525364097885372e-04,-2.886197075605268818e-05,3.308404926891035284e-05,1.356569826602935791e-01
-1.517810049299690989e-01,-1.522256651524542259e-01,-2.874332109957586368e-01,-2.111422859979596276e-04,-1.809265270702171039e-05,3.815692229448862990e-05,1.354309320449829102e-01
-1.511522042110753916e-01,-1.506335140568496045e-01,-2.869649082427756515e-01,-9.960707056785269209e-05,1.548228168666258711e-05,-2.502296724037625852e-04,1.360735893249511719e-01
-2.066682765546200284e-01,-1.920704672374221045e-01,-1.934277284167776334e-01,1.705387729973827310e-03,-3.577621208882379288e-03,7.993978349454047838e-02,1.393318176269531250e-01
-1.497581861866673913e-01,-1.530829347533676499e-01,-2.920864899629994071e-01,1.411225464848924003e-03,9.782490719153508901e-04,9.077024199655988950e-04,1.407356113195419312e-01
-1.491072241733189252e-01,-1.378349783960252650e-01,-2.879555057877729030e-01,1.606578749674705342e-03,4.580284143462404504e-04,9.738101736761573066e-04,1.448525339365005493e-01
-1.680069083829789367e-01,-1.859851070924644911e-01,-3.526926611533374167e-01,1.800657147835353633e-02,2.383786408073317476e-03,3.186953396367305912e-03,1.792538762092590332e-01
-1.516834512159405401e-01,-1.342379068461403702e-01,-2.811590620057816681e-01,-4.663304379958797125e-03,7.470213301918539502e-04,-1.934600110950681013e-03,1.393025368452072144e-01
-1.514571827330158382e-01,-1.290689483760377454e-01,-2.792590174430912286e-01,-4.922230206070296772e-03,1.200029172702187430e-03,-2.176355537391197123e-03,1.406663209199905396e-01
-1.531267545886133563e-01,-1.283095347127278241e-01,-2.812388550336862303e-01,-1.170667571435988824e-03,5.881221221859660479e-04,-1.095395518495624349e-03,1.421855837106704712e-01
-1.557892507039990992e-01,-1.284970789009106384e-01,-2.764085969221254935e-01,-4.012729490486571966e-03,5.050258395528631943e-04,-2.819677804667853650e-03,1.365971267223358154e-01
-1.633574957296596852e-01,-1.229570772307784776e-01,-2.435920985496723701e-01,4.642768601174906105e-03,1.614302656425312295e-03,2.028444596813919198e-02,1.123305708169937134e-01
-1.235099800919711999e-01,-1.523602540051168797e-01,-2.760621327839598571e-01,-1.778404507067845317e-03,-1.974671919118499083e-03,1.448286543512045717e-03,1.404663771390914917e-01
-1.979657593053643638e-01,-2.178162463983095432e-01,-3.512789303722161360e-01,4.239126570877786021e-02,6.710162285726491149e-02,6.093907835784732191e-02,2.255998253822326660e-01
-1.257418542976447839e-01,-1.772505072165556084e-01,-2.502954199301761218e-01,-4.525254814590086612e-03,6.115024650467020678e-02,4.771250052420259423e-03,1.519833207130432129e-01
-1.899514268578666176e-01,-2.449400998016636466e-01,-3.104557124743945185e-01,1.158028042607239447e-02,1.043260583876945563e-01,1.782137147404255773e-02,2.119565010070800781e-01
-2.261600832604354350e-01,-3.087271840965049030e-01,-5.513674214630851500e-01,6.005635876037138110e-02,7.230702004859837495e-02,2.816656889979320469e-02,3.385424613952636719e-01
-1.439071540745771038e-01,-1.680480630004402842e-01,-3.157439542431200730e-01,-1.441530331297703575e-02,2.093945932289108594e-03,-1.146021477196598748e-02,1.642952859401702881e-01
-1.411695187286995667e-01,-1.402029154806244682e-01,-2.859331950946684686e-01,3.037315005868919567e-03,8.709954259967989847e-04,1.318266922445546175e-03,1.453703939914703369e-01
-1.396640346950953071e-01,-1.619097638779970483e-01,-2.764764981155529155e-01,7.168214318953677715e-03,8.586894714773894016e-03,2.030819409530937054e-03,1.286730617284774780e-01
-1.770347065164474265e-01,-1.748977414422729360e-01,-3.458473512087698043e-01,-2.421203757388736347e-02,5.110501014543524304e-03,-1.018842719500210291e-02,1.761007010936737061e-01
-1.715981735098376371e-01,-1.526769187128381999e-01,-2.070811352047772225e-01,1.034902664823000168e-02,2.568311024866751571e-02,3.023671262475370602e-02,8.562351763248443604e-02
-1.134702312281258563e-01,-1.341782093947053167e-01,-2.465471744375026253e-01,1.764630901346842320e-02,2.837247753705923053e-02,1.642813656103119316e-02,1.397904157638549805e-01
-1.944909894590882704e-01,-2.093318681918558410e-01,-4.852057983841565059e-01,-4.393644267426320693e-02,3.129579613072090011e-02,-3.474331106136625304e-03,2.986412942409515381e-01
-1.665774363445720052e-01,-1.459152307773731172e-01,-3.254681578902088868e-01,-1.998627976442046705e-02,2.131084846100729166e-02,-1.861694219990003146e-02,1.804350465536117554e-01
-1.351647976024004660e-01,-1.675226771383649949e-01,-3.036771727517824093e-01,5.011925678319669938e-03,-1.698196283903121839e-03,-5.064192094232596898e-03,1.554081588983535767e-01
-1.356534339174204906e-01,-1.234540918394193970e-01,-2.863156313951247256e-01,-4.114813115262229426e-02,3.178542695602609020e-02,-3.964599108090002821e-02,1.936795264482498169e-01
-1.446022565200963672e-01,-1.592569771894766228e-01,-2.926190452885624182e-01,1.784199983996051942e-03,-1.268774122928592075e-03,-8.359958530330950828e-04,1.413190066814422607e-01
-1.310459971004951929e-01,-1.570962233962495125e-01,-2.746343710506519709e-01,-4.832626003194486798e-03,1.544754845507120009e-03,1.389435468461022152e-04,1.327893286943435669e-01
-1.145503685161177870e-01,-1.013094713102726252e-01,-2.657105022105724079e-01,-3.796070856818007516e-02,2.629509630992008656e-02,-3.708098285026373286e-02,1.885432153940200806e-01
-1.346522801065907493e-01,-1.540023425748037744e-01,-2.723003723969246170e-01,9.255227331490230649e-03,8.884742270519814175e-03,1.976741598869545275e-03,1.310093104839324951e-01
-1.384311703115308489e-01,-1.675542740212490056e-01,-3.031643273479301959e-01,-6.599669265742753171e-04,6.418396929172549923e-04,-1.398983932053326574e-03,1.523024737834930420e-01
-1.544284444877713491e-01,-1.601434375044562819e-01,-2.982327527924014121e-01,-2.543875491818991912e-03,-4.645456760263905389e-04,9.240635717004265070e-04,1.411138623952865601e-01
-1.333275638501681126e-01,-1.587384910813684769e-01,-2.935000898648041923e-01,-1.418902868400016924e-03,5.290392599575994203e-04,1.833260179871221401e-04,1.491234451532363892e-01
-1.500445829605671633e-01,-1.350648896651358566e-01,-2.873366463753511124e-01,-1.483380264300207009e-03,-3.228712744893787287e-04,-8.490087937669064250e-04,1.453931629657745361e-01
-1.405483582684811938e-01,-1.470490664310017959e-01,-2.944330485420906252e-01,-1.197000039278061506e-02,8.812858647728337783e-03,-3.631653956084947201e-03,1.530516445636749268e-01
-1.603722223792296009e-01,-1.243315995198068513e-01,-2.953457490163837185e-01,3.374848527560730515e-03,1.870674607865611917e-03,-6.315456503768405137e-03,1.566704511642456055e-01
-1.511214927310793876e-01,-1.201899509138854294e-01,-2.888342981115404884e-01,1.401641841014882213e-02,-4.590509481911857204e-03,-2.002375965002928943e-02,1.613589078187942505e-01
-1.389273653987566359e-01,-1.548747000266793017e-01,-2.898462858540527542e-01,6.216578433544383935e-03,-4.532052934910439819e-03,-1.019634656362470833e-03,1.442385464906692505e-01
-6.518641076696941872e-02,-9.379452308905328328e-02,-1.668270367060480375e-01,2.580130657292463783e-02,6.726549314484053799e-02,3.496282280412277982e-02,1.657701879739761353e-01
-1.477260234199037070e-01,-3.147046898661193803e-01,-5.815491793006175580e-01,3.842919676666553541e-02,3.367254403286667336e-02,-1.758393035674389029e-03,3.892125487327575684e-01
-1.627376895681725832e-01,-1.438473427556874740e-01,-2.993223705450853700e-01,5.167121254701467596e-03,-3.095540600331052480e-04,-2.667284638700643390e-03,1.472891122102737427e-01
-1.280708344837758750e-01,-1.082967408537084675e-01,-2.493579374338399934e-01,1.831071251183601784e-02,-1.222727133033333496e-02,-2.452440724350837473e-02,1.440785378217697144e-01
-1.324714807855496002e-01,-1.589198869221721266e-01,-2.890331572135954596e-01,-1.295441432318798259e-04,-1.587060621127664006e-03,8.829680404875692775e-04,1.451902687549591064e-01
-1.325689534275411585e-01,-1.574907554827926770e-01,-2.885713742595467646e-01,3.198718685973487349e-03,2.001011075928132727e-03,1.870798830938162583e-03,1.453382223844528198e-01
-1.673855460719111954e-01,-1.471789597678084816e-01,-3.008426229162196042e-01,-6.752175734809202868e-04,-8.414601457190831052e-04,-2.603822768751660414e-03,1.447053551673889160e-01
-7.624923882322681701e-02,-1.533578743016771329e-01,-2.914222376040667140e-01,1.486232402768536236e-02,3.679020324065397640e-02,1.110765267599050747e-02,2.018584311008453369e-01
-1.604802837864643117e-01,-1.426637261892441944e-01,-2.975282632998871302e-01,2.536393626667431123e-03,-8.329321046638103743e-04,-1.364506883131488216e-03,1.468613892793655396e-01
-1.480572525026622455e-01,-1.478542210095445952e-01,-2.872451680631700199e-01,-1.662714638455365594e-04,8.374217037731627165e-05,-2.107821941712314639e-04,1.392903923988342285e-01
-1.413584634283531760e-01,-1.436728263317392229e-01,-2.877565018616133896e-01,1.540938884271792018e-03,-3.219023868648963416e-04,-4.801933192704231027e-04,1.452826559543609619e-01
-1.528312737505514718e-01,-1.504640322695318111e-01,-2.899224513670046743e-01,-4.874815743669701673e-04,4.063391333177876095e-04,-5.550519335380092473e-04,1.382977068424224854e-01
-1.451801284529146696e-01,-2.428466814309828969e-01,-3.545600509720157056e-01,1.413925116682075017e-02,-9.597350320980849170e-02,-2.392984691035687089e-02,2.507582604885101318e-01
-1.226391731899991455e-01,-1.579347634314416382e-01,-2.791288474175088741e-01,1.423541582032645614e-04,3.265639600823792062e-03,-4.672227220166335943e-04,1.422818005084991455e-01
-1.380427492509372633e-01,-1.764544389612042186e-01,-3.423396258169643103e-01,8.233768696765945971e-03,8.262506654395774738e-03,2.387561487577728476e-03,1.891839802265167236e-01
-1.323969571154561542e-01,-1.510659746718840957e-01,-2.852306361971804205e-01,3.185878273318568359e-03,-6.843359343866058488e-04,-2.475505267273064923e-04,1.445179879665374756e-01
-1.900408812848077833e-01,-2.363385866897070864e-01,-2.440295517867852038e-01,-1.756575710453751882e-02,-1.047431093900146326e-01,4.347038897911972150e-02,2.051018029451370239e-01
-9.087588445269728643e-02,-1.297236870401941577e-01,-1.117579179075574441e-01,6.066869013677037709e-03,-9.396515089085201444e-02,-2.721381648751236906e-02,1.730737835168838501e-01
-1.354633582592391083e-01,-1.570255789382415945e-01,-2.892119693827434057e-01,-5.589688795265247527e-03,-5.480061930603663187e-03,1.452100453368095675e-03,1.448397636413574219e-01
-1.423157750042749470e-01,-1.407847467260022745e-01,-2.814018024467697110e-01,5.976392895131698441e-03,-5.982627380895224559e-04,-1.561746513356080063e-04,1.402444690465927124e-01
-1.352870404807908766e-01,-1.472818361066967063e-01,-2.856909788609630629e-01,1.111422800879967483e-02,-1.276322761491308425e-02,-9.144306799537007396e-03,1.485640853643417358e-01
-1.516335665097539032e-01,-1.662104216903213250e-01,-1.976921769664975459e-01,7.441643342489437374e-03,2.366285596215249309e-02,2.356357018235151132e-02,7.193151116371154785e-02
-2.325974475084932602e-01,-2.307857408824112444e-01,-3.463380608802558713e-01,3.300597262012198996e-02,-9.349102422711606797e-02,-6.816449240915276042e-02,2.378557622432708740e-01
-1.585645571276032839e-01,-1.627401562655472478e-01,-1.225031925662069254e-01,-5.518725364298027224e-04,9.880906809136950214e-03,-1.120085818332077626e-02,4.624525830149650574e-02
-1.394815449268408669e-01,-1.461490665290208768e-01,-2.882293146032719466e-01,-1.547163268680418462e-03,-5.329652042031586995e-05,-4.031025300074552592e-04,1.455549895763397217e-01
-1.379527411604810072e-01,-8.020636071988231086e-02,-2.460379121853661366e-01,-2.638269427386171623e-02,2.786042603991887440e-02,-5.750640067860999377e-02,1.886697709560394287e-01
-7.652705118903194159e-02,-1.323947349719875877e-01,-2.123795938815729034e-01,2.051129730848270244e-02,-6.283696712247884009e-02,-1.808213795961673490e-02,1.675584316253662109e-01
-1.587466437290576404e-01,-1.521546662092983504e-01,-1.235363007700518989e-01,2.611672091850713012e-03,3.962787187058239291e-02,3.547861872831767349e-02,9.776952862739562988e-02
-1.448570204624882451e-01,-1.450321421164744440e-01,-2.892885004185485331e-01,-2.118331719815981008e-04,-2.205530842034812244e-04,1.745891448461886508e-04,1.443452835083007812e-01
-1.644708709014132131e-01,-2.653420227766627448e-01,-3.556709702569599840e-01,-3.570444944206089405e-02,-1.013089453723581557e-01,3.476633637287210310e-02,2.562945783138275146e-01
-9.697923738020297613e-02,-1.227856238826581237e-01,-3.046735781358700379e-01,-4.423518299677696441e-02,5.021594259313014522e-03,-2.589464573883945662e-03,2.107346355915069580e-01
-1.610146443060155863e-01,-1.522395846112006568e-01,-2.030734551594491899e-01,8.987443716245588354e-03,2.923280139370501574e-02,2.011054695494412028e-02,7.895763963460922241e-02
-1.237482015337180996e-01,-1.295224424936390895e-01,-1.436659541336022805e-01,3.113633319862071924e-03,2.431428843663742748e-02,5.459504019927759536e-03,4.697984084486961365e-02
-1.167029808904366944e-01,-1.294147745639979419e-01,-1.230994209236895842e-01,9.606433465317266648e-03,5.262339821760290276e-02,2.204510737190592748e-02,1.008150354027748108e-01
-1.569044499304196871e-01,-1.440791630072543461e-01,-2.925911142127983755e-01,-6.648893108979769991e-03,-9.622839949349439774e-04,3.518516716646864859e-03,1.431367248296737671e-01
-1.225245066976266284e-01,-2.877578353881260487e-01,-5.444470298202612746e-01,5.463129825140169982e-02,4.169251429825289457e-02,1.181397041441528510e-02,3.875464498996734619e-01
-1.478095910852028905e-01,-1.117082128069412233e-01,-2.442711900737490893e-01,-3.173729107257846835e-03,-4.471376868547805722e-03,2.517859750105099284e-02,1.268173009157180786e-01
-1.708685673176164044e-01,-1.353690291073279262e-01,-1.521842657817499833e-01,-8.495866337145647693e-03,7.657977363861687310e-05,7.667914145049369024e-02,1.371191591024398804e-01
-1.096777262427956756e-01,-1.406369233489086767e-01,-2.323257085149656176e-01,8.477172919453194837e-04,1.924489775774562011e-02,-1.135041673946042681e-03,1.154167875647544861e-01
-1.590020544989630413e-01,-1.442668742122059089e-01,-2.930584082416178848e-01,8.543470178209981334e-04,-4.896436294057624275e-04,-4.033719305853645425e-04,1.420104652643203735e-01
-1.508213156476082006e-01,-1.359642316081700608e-01,-2.789174555990713844e-01,-5.394275450638338736e-03,-3.333697502755732494e-03,1.461877898372660432e-03,1.365999132394790649e-01
-1.436685254045790006e-01,-1.479971911639774984e-01,-2.889170867090159467e-01,-2.332938457675400729e-03,6.776458022862808612e-04,3.223967306026039904e-04,1.431962549686431885e-01
-1.260317934459621037e-01,-1.570680453379825758e-01,-2.856115743153464503e-01,-5.362409968482508872e-03,1.078326470383656095e-02,-1.655523283848819773e-03,1.480524241924285889e-01
-1.491882231862623476e-01,-1.467050577718513604e-01,-2.883282641150507475e-01,-3.840673666463084008e-04,1.923837079710300445e-04,-1.207518103246801348e-05,1.404000669717788696e-01
-1.467470470605429234e-01,-1.474953078154945807e-01,-2.868005809305325116e-01,-1.303726717234395416e-03,-2.033038319358799421e-04,-1.478893337988142253e-04,1.396998316049575806e-01
-1.651170832301394054e-01,-1.505599088154372933e-01,-3.009478909283380132e-01,-2.710518628013858233e-03,1.898596859297254020e-03,5.371453526602139057e-04,1.437809169292449951e-01
-2.687345721757664063e-01,-1.933442675343148287e-01,-5.006614762715757561e-01,-4.062013446553397467e-02,-2.149621236923857787e-02,3.819025842680975197e-02,2.960921525955200195e-01
-1.372176163444844554e-01,-1.465052345325236760e-01,-2.399241113670093350e-01,-8.535919095733372070e-03,-9.247990933240718414e-03,1.897910354678606628e-03,1.008313074707984924e-01
-1.401807009194042664e-01,-1.560935791600982503e-01,-2.351264067022225679e-01,-6.933463548271067388e-03,-1.542917620046024840e-02,1.198224071916765242e-02,9.511134028434753418e-02
-1.947983385885354024e-01,-1.897873172348704118e-01,-2.887315046642571770e-01,-3.219240065926314703e-02,-8.198953940150963127e-02,7.669742291320433281e-02,2.241487056016921997e-01
-1.446314245233260021e-01,-1.379397300066954601e-01,-2.842315672810999949e-01,-3.358039114084709290e-03,-7.741910402844164561e-04,6.542953559968842569e-04,1.431923657655715942e-01
-2.058325772644439000e-01,-2.086353434170457599e-01,-2.006206002805805966e-01,-1.301173798283668942e-02,-5.421205379401471819e-02,5.829653629301350531e-02,1.398922502994537354e-01
-1.781888587130851520e-01,-1.353474738054237236e-01,-2.865472283819284205e-01,9.647813704079360986e-06,1.169448813471236351e-03,1.868016136446956285e-02,1.388167589902877808e-01
-1.492388390810208132e-01,-1.341119446616458599e-01,-2.855617073020630392e-01,-3.615160670700779712e-03,-1.749552678225301796e-03,1.462863942326015623e-03,1.446710079908370972e-01
-1.636291094630815679e-01,-1.530783801735389194e-01,-3.159445980040965773e-01,-1.413326501434095973e-02,5.524606918302330492e-03,-7.150889402809005452e-03,1.605072617530822754e-01
-1.668656663385343908e-01,-1.413321650061603041e-01,-2.485799075276247383e-01,7.770846450982525286e-04,-5.299866565168867300e-04,-3.780926307722962121e-03,9.726853668689727783e-02
-3.065558700691792815e-01,-1.125432620251378135e-01,-5.403069382563674417e-01,3.131809128957313559e-02,4.933829662574426567e-03,2.519138706102542341e-02,3.775584995746612549e-01
-1.470973619721861470e-01,-1.283803006975181848e-01,-2.809322313612714894e-01,-7.690421173773481084e-03,1.477160548805299314e-03,-8.318775524069012620e-03,1.454602181911468506e-01
-1.593399337252816850e-01,-1.258286840597791501e-01,-2.809211469342475787e-01,-7.083619170167998599e-05,-3.143968747930921755e-04,-1.720747904911710353e-03,1.413807868957519531e-01
-1.641010420244612689e-01,-1.613707069667230376e-01,-8.686002460447171669e-02,-2.457743891861892578e-03,3.083196186074710615e-03,-1.041078906273257103e-02,7.832323759794235229e-02
-1.327366597761107658e-01,-1.357671793950915307e-01,-1.856638920247527524e-01,9.260962508347856184e-03,-1.108940400302450315e-02,-1.243476327790071258e-02,6.115692853927612305e-02
-1.529166814131262819e-01,-1.466477240806562110e-01,-2.450286278300682352e-01,-9.547248689679481426e-03,9.909100146622189329e-04,-8.754111796189501665e-03,9.801864624023437500e-02
-1.608756298423839048e-01,-1.444213396475793332e-01,-1.141981272434514222e-01,3.933589713614891927e-04,-1.831404861459451014e-02,-4.486109775236715724e-02,9.341155737638473511e-02
-1.750859602766863254e-01,-1.682976620403766888e-01,-2.203422101056109195e-01,5.918679819871315410e-03,-8.236855756242934118e-03,-1.713964356732418023e-02,5.992790684103965759e-02
-1.794916309333059179e-01,-1.509240249630723341e-01,-2.158831066267168641e-01,-5.827706859522419590e-03,5.156024835021043350e-04,-4.322544297613831188e-02,9.427653998136520386e-02
-1.482445473781791312e-01,-1.837154656704013955e-01,-1.576313939628482541e-01,8.766509022505586390e-03,5.592832533386823957e-02,2.860383947298709983e-02,1.143781691789627075e-01
-1.620287854279732209e-01,-1.235794191578879903e-01,-1.137936753568129650e-01,-8.916695894240997747e-03,-5.051279533249906488e-06,-6.515362184986517313e-02,1.221633180975914001e-01
-1.550842020119532760e-01,-1.371270902536375069e-01,-2.530560043962226668e-01,-8.153708266557389839e-03,1.163562068166827364e-03,-3.618038919689862531e-03,1.091925054788589478e-01
-1.663702808975279779e-01,-1.450856242461888157e-01,-2.296149424841822662e-01,3.993422087403127214e-03,-1.757504624683509358e-03,-9.755550617272347805e-03,7.836890965700149536e-02
-1.864384197267182353e-01,-2.049103462985940316e-01,-2.101201790874118736e-01,-4.534697237158820220e-03,8.554063827204554105e-02,-9.628218779547453518e-04,1.499355286359786987e-01
-1.415425972346094075e-01,-1.443733064906583818e-01,-1.445981780053278154e-01,-1.077374280856814234e-02,6.761138128288411708e-02,-3.182863991387249042e-02,1.308052092790603638e-01
-1.321531847305623120e-01,-1.533740314079903855e-01,-2.845364743520234496e-01,-2.805056379959361065e-03,1.595758086089684715e-03,-1.832657553799421375e-03,1.431034952402114868e-01
-1.192257060657801043e-01,-9.959809469493313694e-02,-8.456474970166917571e-02,-8.055286067632332070e-03,9.456179227222697575e-03,-6.410458531973656227e-02,1.170360073447227478e-01
-1.662858403676212016e-01,-1.760558311994220859e-01,-2.294514519559036070e-01,2.489114062694358989e-02,8.139800032197665181e-02,3.018277498410156662e-02,1.671431362628936768e-01
-1.510565623401683433e-01,-1.520676963140328575e-01,-2.380844028745625618e-01,7.968268782935881631e-03,3.132785645495691097e-03,2.458979062209667565e-03,8.789160102605819702e-02
-1.462481405663263734e-01,-1.387766369037349845e-01,-2.864562664092398792e-01,1.840361174516702732e-03,-1.411123481360213809e-04,6.358903710831272918e-04,1.441289037466049194e-01
-1.432767975238690705e-01,-1.393156033776861147e-01,-2.843988099170978723e-01,5.447455027251639666e-03,2.674839982010104780e-03,3.884133789656799268e-03,1.436867117881774902e-01
-1.501137407698150961e-01,-1.614955434225213704e-01,-2.429146341531921161e-01,-1.264720333934718152e-02,3.082300528866145639e-02,-1.200207728806569271e-02,1.069929301738739014e-01
-1.490468007505766357e-01,-1.363036355654620169e-01,-2.863631393595315600e-01,3.762614660289905280e-03,1.629222995607721314e-03,8.316667889300956252e-04,1.442931741476058960e-01
-1.594784530998711869e-01,-1.645139809651443297e-01,-2.016289332431200065e-01,-8.339503215937675356e-04,9.649496654467812004e-03,1.479268235653503493e-04,4.325806349515914917e-02
-1.446628743432716024e-01,-1.451474620112037650e-01,-2.877458853259730054e-01,1.767898481373468978e-04,3.195963268102849507e-04,3.667049676774559379e-04,1.428441405296325684e-01
-1.425697018786586945e-01,-1.478701206308171978e-01,-2.877025664358706103e-01,9.066501217446861979e-03,2.859409999073911531e-03,2.588631525835701896e-03,1.435744166374206543e-01
-1.479623300535821417e-01,-1.636477762152119264e-01,-2.330815531235880811e-01,-1.660405355645203605e-03,9.140977253067159025e-03,-1.084283321477777463e-03,8.011649549007415771e-02
-1.765697506246000914e-01,-1.461300738435415414e-01,-2.970480803071997578e-01,-8.701972444566455356e-03,-6.456116232768339784e-03,1.851351291761028917e-02,1.431411504745483398e-01
-2.373506597998716328e-01,-2.016518991063919741e-01,-3.742492961423060094e-01,3.828112211115140828e-02,5.424123755336076463e-02,8.968999627150478493e-02,2.495161443948745728e-01
-1.481442595205340051e-01,-1.998557058404001607e-01,-2.603929248169254418e-01,5.600542139183931761e-03,5.475062866770347841e-02,8.952333471751131033e-03,1.371011286973953247e-01
-1.570282715603162904e-01,-1.232638330388166614e-01,-2.721367079164582203e-01,-2.207947821436635760e-03,1.833988818390688976e-04,2.456545588491787502e-03,1.353121995925903320e-01
-1.513993226099227818e-01,-1.729932695615727101e-01,-3.327716006707052698e-01,-2.107579020676700332e-02,1.406489970395720379e-02,-8.272539970152056540e-03,1.776991635560989380e-01
-1.313050447693907274e-01,-1.452043407018493437e-01,-2.228549454999517454e-01,-5.960188443219059488e-03,1.400161943526024959e-02,-5.151187747119684475e-03,8.986883610486984253e-02
-1.703887846722663413e-01,-1.756157152210185146e-01,-2.185540668675772791e-01,-5.759802109437091398e-04,1.467063664081454978e-02,-3.601170304204641404e-03,5.273558571934700012e-02
-1.519852544717393006e-01,-1.667309898970193160e-01,-2.225215786940807350e-01,-3.976878976349307489e-03,6.506558162594093531e-03,2.542371591948629304e-03,6.592831760644912720e-02
-1.586766142498768073e-01,-1.362203080973362068e-01,-2.918930489532645112e-01,-2.209797524760677076e-03,-2.577532381804161637e-03,2.193496380049193145e-03,1.459159553050994873e-01
-1.581583891642732442e-01,-1.307480146838334023e-01,-2.926982919141460360e-01,4.584863425327157828e-03,3.298441989509844335e-03,5.448246654080220880e-03,1.507476568222045898e-01
-1.435676445023793546e-01,-1.834575797571355860e-01,-3.307165650679460556e-01,-7.072116947392892254e-04,1.345233330639703136e-02,-3.075363994431534308e-03,1.724045723676681519e-01
-1.754105423251592355e-01,-1.657792630778130161e-01,-1.791752431745621266e-01,-8.812641556133503362e-03,1.246080548257841140e-02,-1.203442840524209488e-02,3.572784364223480225e-02
-2.286157748421333014e-01,-2.681862393260761590e-01,-4.083851659921767796e-01,5.444589012126985206e-02,1.020718671518555526e-01,5.068477358477690986e-02,2.731761336326599121e-01
-1.867263933259868391e-01,-1.880244964993108836e-01,-1.685957417746619114e-01,2.997365438287522693e-03,5.471123835553699799e-02,5.208490810118075742e-02,1.322851628065109253e-01
-1.174976128163259803e-01,-1.488626209904430064e-01,-3.066934302425137204e-01,2.527792791932993027e-02,4.486855972586110269e-02,2.565521078525031390e-02,2.019300460815429688e-01
-1.273652730800720889e-01,-1.338918769788549068e-01,-1.435283832636838064e-01,-1.398078431284957264e-03,2.247560407031877830e-02,-8.289360260313079209e-03,4.388410970568656921e-02
-1.259259728776808140e-01,-1.615631725116557504e-01,-2.861745402874704691e-01,3.078850705135082431e-03,1.502881833935458718e-02,7.494359451484719752e-04,1.481435894966125488e-01
-1.415290827295890286e-01,-1.562905725694317960e-01,-2.905840540393148652e-01,9.235752542589124522e-03,3.913270063945710649e-03,3.981156029214161923e-03,1.434726417064666748e-01
-1.460068673899951597e-01,-1.527636198185605976e-01,-2.018139700485334642e-01,-8.067231885610580758e-03,1.640381280612306786e-02,-5.767127263521180068e-03,6.233206763863563538e-02
-1.866296750853676245e-01,-2.726777159609455325e-01,-4.818312524347910797e-01,4.268871760854323766e-02,3.299296139367263736e-02,1.575520089143092953e-02,2.803996801376342773e-01
-1.269935297564547538e-01,-1.488391202744753505e-01,-1.921856470764063129e-01,4.231674815998854797e-03,3.502498464956233654e-02,4.202505814883950724e-03,8.420234173536300659e-02
-1.667646243229376490e-01,-1.562071164698832504e-01,-3.209550891601834488e-01,-1.609930328111493225e-02,6.927590856497519572e-03,2.546384949881600086e-03,1.626499891281127930e-01
-1.484150429970537144e-01,-1.130428276661468445e-01,-2.866454442585523177e-01,-3.078888907782098214e-02,-2.126995167742288390e-02,4.175863105729585995e-02,1.862278282642364502e-01
-1.490851539772014567e-01,-1.539000144883717336e-01,-2.990658191094291429e-01,-1.806497697991376813e-02,-5.599958675190019712e-03,3.609017924915836582e-03,1.513520032167434692e-01
-1.842987317038098927e-01,-1.897645363384603268e-01,-1.610127211767412025e-01,3.957120971945552422e-03,6.269844476843389192e-02,6.673911195388662967e-03,1.125756427645683289e-01
-1.877815270434266548e-01,-1.617013020759835995e-01,-3.527447475536832355e-01,-1.380508323201211016e-02,-9.784993700094377078e-03,1.925435343314303369e-02,1.848417967557907104e-01
-1.435279971590163739e-01,-1.737696777291274086e-01,-1.613795346572955425e-01,-1.531918780348838147e-02,-6.833374076306955591e-02,5.731979611648758965e-02,1.589420884847640991e-01
-1.481294983473792348e-01,-1.532007217738206306e-01,-2.992910764923621958e-01,-1.284180493683381025e-02,-4.170348699026629920e-03,3.124369133645044355e-03,1.506159454584121704e-01
-1.547633212192206786e-01,-1.340006629811481553e-01,-2.975716970475543732e-01,-1.902225724542088228e-02,-8.727289658328279964e-03,1.343911043653877105e-02,1.601445227861404419e-01
-1.496451592147088616e-01,-1.637757977637441242e-01,-2.181010447475000835e-01,-2.271847584651078434e-03,-5.160211203970912694e-03,-2.796945980023116595e-04,6.335739791393280029e-02
-1.586091545193648866e-01,-1.646305329971386455e-01,-1.970103777073491935e-01,4.951556351888377998e-03,1.221347030163342541e-02,1.424682202992473123e-03,4.250684753060340881e-02
-2.271686402843223207e-01,-1.839099044424713225e-01,-4.797439050999370291e-01,-5.035306931478052833e-02,2.759485906575712480e-02,2.503845525170015490e-02,2.972594201564788818e-01
-1.720742556718105054e-01,-1.258616109990204346e-01,-3.719248869288291903e-01,-5.991964844564577619e-02,-2.589948136109035404e-02,-1.273815124151483902e-02,2.541293501853942871e-01
-1.914737645819886702e-01,-1.922263337887442636e-01,-1.468000754076431158e-01,-3.247150384882925740e-03,-4.827577950732803852e-02,1.039810477328294812e-02,9.683786332607269287e-02
-1.680296575452470687e-01,-1.644090117386224903e-01,-3.520048027818458714e-01,3.057410811405094839e-02,-5.466750468923943333e-03,1.941004741177439381e-03,1.934718489646911621e-01
-1.115937399550295528e-01,-1.057343109919350460e-01,-2.840938041326224739e-01,-3.986788347061813453e-02,-1.843244519831822512e-02,3.223525126438955141e-02,1.992643922567367554e-01
-1.302403882878210850e-01,-1.548418681240648909e-01,-2.878162315774134283e-01,8.197327710445538249e-03,3.251211017186736354e-03,1.135226606507685901e-03,1.476345062255859375e-01
-1.351247402379312790e-01,-1.820333013942937728e-01,-3.416078818715533871e-01,9.334256877828274457e-03,7.137119421962973389e-04,4.757372334358522803e-03,1.883631795644760132e-01
-1.600949907393302285e-01,-1.262767817635344902e-01,-2.829032969273130305e-01,2.606013338693479947e-05,-7.423271444521073762e-04,1.940545440753298342e-03,1.427993774414062500e-01
-1.503751314126150485e-01,-1.472738165196205151e-01,-2.863396137690489285e-01,1.274169953976150805e-03,1.128760597902850258e-05,-3.178809367532833808e-04,1.375601738691329956e-01
-2.212944012233178381e-01,-2.274569815209638579e-01,-5.297577917713809370e-01,7.973414859812671951e-02,3.648847659637197930e-03,-3.699295792726870619e-02,3.413278460502624512e-01
-1.423533795577393013e-01,-1.374524750434184539e-01,-2.762299847587908475e-01,7.309355479627299701e-03,2.477746697677322887e-03,3.051871668630442517e-03,1.371485292911529541e-01
-1.374033743049875578e-01,-1.528438004355128776e-01,-2.872897673370222726e-01,4.402532086924472628e-03,-4.687508749255287106e-03,-8.946432905835594723e-04,1.432358026504516602e-01
-1.335855459722694039e-01,-1.471946256585549007e-01,-2.817275193909609121e-01,4.092824387462523118e-03,-2.358235366867894871e-04,-4.979550649964550619e-04,1.420082449913024902e-01
-1.601407745791413317e-01,-1.783664305611609158e-01,-3.420779686160504429e-01,1.826343137969239569e-02,-2.048853035841651307e-02,-1.135221833829550692e-02,1.810083091259002686e-01
-2.599219703394084480e-01,-2.335538326975678258e-01,-4.848720078521259746e-01,4.647928233822747751e-02,3.926461421532110446e-02,6.303641734108972328e-02,2.832952141761779785e-01
-1.476110644784457970e-01,-1.328352186262465040e-01,-2.823936034508433002e-01,9.434218320989980547e-04,-2.859179551190083588e-04,-1.297957217614851676e-03,1.427730917930603027e-01
-2.467906075129374099e-01,-2.737116852361085595e-01,-6.203816841911421465e-01,9.035523232316243492e-02,3.041840740669346857e-02,-2.989552119814443444e-03,3.969035446643829346e-01
-1.589712144829843465e-01,-1.300698317381564495e-01,-2.887091381524511391e-01,1.505454102388466449e-03,3.312672875894496702e-03,1.641316417507956895e-03,1.465081125497817993e-01
-1.421623664243819307e-01,-1.407044233124598032e-01,-2.873533722810446278e-01,1.069387313823069946e-03,2.204573449508556607e-04,-1.394918622173065817e-04,1.459378898143768311e-01
-1.373463301471342657e-01,-1.239429578815207239e-01,-2.565994193074603302e-01,6.622945366790079086e-03,-1.429706147827897915e-03,-5.043872914036980244e-03,1.273318082094192505e-01
-1.500338462601393530e-01,-1.243036467855567900e-01,-2.528381892018334298e-01,3.173094692387625967e-03,4.285594658154557972e-03,9.070200200236246471e-03,1.191975772380828857e-01
-1.587314599780527136e-01,-1.470395971438662741e-01,-2.905555993650036917e-01,4.392952935605034083e-04,-1.409826024038111870e-04,-7.915496599758226970e-04,1.380510479211807251e-01
-1.426002778769249468e-01,-1.411793943887133806e-01,-2.864372167315776818e-01,1.437831884005629857e-03,-2.467154124111399049e-04,-3.071284494525098008e-05,1.445747166872024536e-01
-1.923400810188413690e-01,-1.441646658049999807e-01,-3.316449748330723701e-01,4.666595672853016304e-03,2.527100312396592541e-03,6.408518383248523395e-03,1.692497879266738892e-01
-1.663906015608680733e-01,-2.200937646852247631e-01,-2.694946482970339563e-01,-2.153399158880536443e-02,1.025827537809965440e-01,-3.681225797712296688e-02,2.121407389640808105e-01
-1.363061608543147674e-01,-1.795841933707072180e-01,-3.063285388218429106e-01,3.838126987961103416e-03,1.580066377671649272e-02,9.775423399245126641e-03,1.565318405628204346e-01
-1.485770867691291186e-01,-1.340304511267844945e-01,-2.784521675280197117e-01,6.210358618886079561e-03,-9.790072220930898499e-04,-4.478696997539093755e-04,1.381577700376510620e-01
-1.674844458046517715e-01,-1.334839404550218767e-01,-3.011725691435074292e-01,2.078452804996038308e-03,-5.525087675138952697e-04,5.274728772701469878e-03,1.538549810647964478e-01
-1.286499819791801225e-01,-1.554361550386103852e-01,-2.708641741171193273e-01,6.173859717183027666e-03,8.049112877176165014e-04,9.550060282182227590e-05,1.313366740942001343e-01
-1.541966722778677634e-01,-1.461007588653294442e-01,-2.893934459584358021e-01,1.929023446326187793e-03,-2.071667731323716284e-04,4.472568091437677099e-04,1.394637823104858398e-01
-1.605105748643301800e-01,-1.342261011877324828e-01,-2.015043043273533341e-01,-4.171133096595554084e-03,-8.209029926209204450e-03,5.439863470701882670e-02,1.121644005179405212e-01
-1.627334156996785297e-01,-1.363593469890981014e-01,-2.069850087553102291e-01,-5.136139116248598924e-03,-9.128955696121541716e-03,5.790314322605592118e-02,1.191988438367843628e-01
-1.572318641253040994e-01,-1.304727788776450237e-01,-2.658536125372598091e-01,1.205981885519370050e-02,1.132994986471336230e-02,1.584963665860745705e-02,1.303702592849731445e-01
-1.566013873700307091e-01,-1.559258422356581408e-01,-1.902360125473691599e-01,8.115116242793074183e-03,1.931037185123821165e-02,2.708700192262806367e-02,6.835070997476577759e-02
-1.261312422418398027e-01,-1.582588235237914476e-01,-2.840528185586486676e-01,5.349449983119376533e-04,1.994452634041506221e-03,7.977343710435196153e-04,1.446114331483840942e-01
-1.533957461182148818e-01,-1.395613434170194789e-01,-2.893414233865402307e-01,-7.300951232926528728e-03,-2.816894908856591891e-03,4.669211744243919465e-03,1.442306041717529297e-01
-1.479854676246529221e-01,-1.623725174320200804e-01,-2.598500529921424218e-01,6.725310305520241019e-03,1.880312501691928234e-02,6.318809446918348567e-03,1.114783212542533875e-01
-2.065118091551095270e-01,-2.409897562669069404e-01,-2.817287950297449606e-01,2.370243067205648688e-02,8.626314033145116023e-02,4.705290299553563371e-02,1.868270039558410645e-01
-1.350194407242468198e-01,-1.489656209351110649e-01,-2.840148303171408095e-01,1.420872991490662682e-03,2.011504030765012775e-04,8.958912164091310717e-05,1.425566822290420532e-01
-1.884350930690356363e-01,-1.728465672736962944e-01,-2.428937147052371848e-01,1.580164215294769733e-02,-2.504855285810441909e-02,-4.428026735495018545e-02,1.121216565370559692e-01
-1.976211565207053600e-01,-1.961148570719174755e-01,-1.746239662597123266e-01,-1.202572568025684838e-02,-5.840100493391540970e-02,7.245351681509469566e-02,1.640454828739166260e-01
-1.617816084756320272e-01,-1.591788551233653537e-01,-9.119854259212972769e-02,-2.719114947053858852e-03,-1.898183428378156373e-02,6.264576218938894270e-02,1.329722404479980469e-01
-1.868269113703697748e-01,-1.845177701066093578e-01,-1.887292868205101559e-01,4.082524344666026324e-03,-1.106091451048725471e-02,8.063204773887114318e-02,1.411912143230438232e-01
-1.626281675090148759e-01,-1.374125061708431350e-01,-2.611860317398294606e-01,-1.448313848341408958e-02,-1.050842999779993438e-02,3.638262799586516882e-02,1.332904249429702759e-01
-1.551393697796994708e-01,-2.118409557965515722e-01,-3.229395455242111135e-01,-8.406325657308063096e-03,-4.056526700449102768e-02,1.578487208228438127e-03,1.643579304218292236e-01
-1.882504879211516768e-01,-1.655131253643141453e-01,-2.300259092646162462e-01,-1.397429958487328601e-02,-1.530512258880651830e-02,5.360428929310994545e-02,1.145464032888412476e-01
-1.404904410978581875e-01,-1.553808727956433045e-01,-2.911838032534461163e-01,2.721585533847788781e-03,-3.311233104211463150e-04,-6.133523802087203613e-04,1.439097076654434204e-01
-1.780447991950226128e-01,-1.981412037270403881e-01,-2.476939355796740350e-01,-7.490382360411345156e-03,-9.947958379520917271e-02,2.325232664067233487e-02,1.879735738039016724e-01
-8.606413683836003359e-02,-2.353865496618338937e-01,-3.506114981880761317e-01,-1.678528270910110629e-02,4.127418784689488446e-02,1.179894792485894350e-02,2.432143092155456543e-01
-1.534783750373508449e-01,-1.164688188140091951e-01,-2.811995017914878381e-01,-4.587484039830605140e-03,-1.147066787477557309e-03,1.155409186010352730e-02,1.512510180473327637e-01
-1.796067294767665357e-01,-2.359382360212501917e-01,-4.015235032383228653e-01,3.678013351250634944e-02,-7.549702617093059787e-02,-4.076449332296453593e-02,2.570259869098663330e-01
-2.261725974079982771e-01,-2.682291111240119319e-01,-5.179924839296374817e-01,6.044054425132287800e-02,-3.820171330855362535e-02,-4.579032809225937195e-02,3.102937638759613037e-01
-1.620843254125208799e-01,-1.347405372388487954e-01,-2.905829395405766791e-01,-1.924908984960076522e-03,-3.461854039388083935e-04,1.552372975141561679e-03,1.441940367221832275e-01
-1.256451405817400890e-01,-2.837543128716794594e-01,-4.669623022761189013e-01,-7.780359136766600361e-03,-6.504929420519038608e-02,-2.852819710502545181e-03,3.169081807136535645e-01
-1.418090143354596711e-01,-1.716593665242960309e-01,-2.495067799726853608e-01,-1.118205624510871556e-02,-5.205014826652424459e-02,7.194504335726928899e-03,1.339144855737686157e-01
-1.560951744102565542e-01,-1.347008835300202989e-01,-2.883442633121335308e-01,-1.423652828333200502e-03,3.114774068454907274e-04,2.511830465923618749e-03,1.442297250032424927e-01
-1.466723046428601296e-01,-1.506246534445234708e-01,-2.904684155963685455e-01,3.655144898271395996e-03,-9.659069224723604253e-04,6.838162727878081435e-04,1.420172303915023804e-01
-1.757018425021351915e-01,-2.521535639947148910e-01,-5.006268021075199748e-01,3.256690280153494432e-02,-2.178205780929486426e-02,-1.384699744323702325e-02,3.029198348522186279e-01
-1.581421080077753116e-01,-1.481222209599148965e-01,-2.907407927763947519e-01,1.457288845768163347e-03,-4.901067244944776755e-04,-6.549771059090649930e-04,1.379123330116271973e-01
-1.604898965652900578e-01,-1.308393221830182473e-01,-2.886232069916963572e-01,-2.566277216249560414e-03,-2.981481291018281106e-04,2.838374749373259037e-03,1.453984975814819336e-01
-1.551709287006611260e-01,-1.544742804332230879e-01,-2.926672714384058738e-01,2.170286891344882022e-03,3.108238506563779134e-04,-1.978943193962848647e-04,1.378987133502960205e-01
-1.463518004819825968e-01,-1.482778583571557063e-01,-2.896401426952702751e-01,-7.345525503763061586e-05,-5.081477135499449729e-05,5.994021014267028298e-04,1.423389613628387451e-01
-2.423169690343675853e-01,-2.816900728516843477e-01,-6.168216115616298456e-01,8.733142253243628139e-02,2.671096104837076407e-02,3.788787402691392442e-03,3.900286853313446045e-01
-1.400524817385162268e-01,-1.434237230956069142e-01,-2.862265502332627665e-01,2.608705316407431297e-03,4.904744745765449258e-05,-3.774222104529438419e-04,1.445900648832321167e-01
-9.821640356219685231e-02,-2.964284169331839469e-01,-5.607213355253483078e-01,8.454363777486241516e-03,4.159893340608838974e-02,3.417496758321140159e-03,4.086143076419830322e-01
-1.581158738339075720e-01,-1.334668113863490269e-01,-2.880645358790278054e-01,-6.516109035618770917e-03,3.353676301562255515e-03,-5.583002288461419785e-03,1.447479724884033203e-01
-1.444852164016212914e-01,-1.446031642979121734e-01,-2.874314779024704780e-01,-3.255612985456328044e-04,-4.517318252562777317e-05,-2.304276547261908329e-04,1.428890228271484375e-01
-1.719247997276847628e-01,-1.954469342465729731e-01,-3.553963102555476317e-01,-1.279472718343786786e-02,2.333101924507607894e-02,-1.580487821952165570e-02,1.810330152511596680e-01
-1.423108591019232039e-01,-1.433386522452555489e-01,-2.883785928748252569e-01,4.624446640769757613e-04,1.104810654985260244e-04,1.190196759662552129e-04,1.455590277910232544e-01
-1.410415185216564726e-01,-1.525365063841091218e-01,-2.876572499865494015e-01,-2.035374676067482329e-03,-1.562425881766764087e-03,-6.997528207105452238e-05,1.412895172834396362e-01
-8.829703782148839997e-02,-1.388591863831864504e-01,-3.115975759579659443e-01,-4.094361712206457532e-02,1.982789455824615979e-02,-1.470617461194385044e-02,2.190582007169723511e-01
-8.885315900476779827e-02,-1.059742837037057905e-01,-2.845584210765976785e-01,-4.751335208663245990e-02,7.934124925441459440e-04,3.354611761127845610e-03,2.050638794898986816e-01
-1.481893602466579640e-01,-1.629148084718468892e-01,-2.997014416570297213e-01,-3.412352197656263759e-03,1.175441001431214248e-03,9.745345250812861675e-04,1.448571532964706421e-01
-2.576388050899809934e-01,-2.253968778844251952e-01,-4.716812332872116764e-01,-5.636191320088494022e-02,3.749275559648855560e-02,-5.644378915628904536e-02,2.775962352752685547e-01
-1.216008082608849572e-01,-1.492881395163730696e-01,-2.356338823733413745e-01,6.597845152564292548e-03,-8.660912905778998458e-03,-5.989115219984758424e-03,1.052430346608161926e-01
-1.616184483473447620e-01,-3.582986940851690671e-01,-5.619705224716471381e-01,-1.280738552775053003e-02,4.228309870899269601e-02,-1.910555208661764842e-02,3.566150367259979248e-01
-1.915564523910064654e-01,-3.873214571282108110e-01,-6.366389651821192652e-01,-1.198417153619450205e-02,4.083485811145354943e-02,-3.752878155475579749e-03,3.934035599231719971e-01
-1.585843033335029850e-01,-1.317997956871578003e-01,-2.879418042429413016e-01,-7.797235246690177200e-04,-1.280194236805094537e-04,1.739890017715162033e-03,1.446599662303924561e-01
-1.448086160382170140e-01,-1.452986056004075544e-01,-2.888640998099549217e-01,2.263224781954180972e-03,7.055897217645603465e-05,-3.357462377255341843e-04,1.438657641410827637e-01
-1.557605822651839944e-01,-3.040621637314270265e-01,-5.431318206898376744e-01,-3.344948998213291558e-02,-4.885457217512963191e-02,6.341580857118523165e-03,3.538921177387237549e-01
-1.443562043122411653e-01,-1.635137533799340404e-01,-2.972164484422866737e-01,-2.870907771452710865e-04,1.876182617809464396e-04,-2.068828609554175296e-04,1.442404985427856445e-01
-1.427186847978181294e-01,-1.406806455428400160e-01,-2.864415984205648802e-01,2.380089296239850521e-03,-1.044143029163515008e-04,-8.265105700925066490e-04,1.448185741901397705e-01
-1.428376685608863106e-01,-1.446763474721935450e-01,-2.882263849149342971e-01,1.019958382762017456e-03,9.092992221958941398e-05,-1.085159546663098723e-04,1.444891542196273804e-01
-1.674294222566864720e-01,-2.440272595727678295e-01,-5.252293094512470173e-01,-9.287390167092435256e-02,-1.957414323612159321e-02,2.051297497299819222e-02,3.671100139617919922e-01
-1.431844457564462880e-01,-1.435996414546094890e-01,-2.884212510393191486e-01,6.370426493226007505e-05,-1.502087424611236613e-05,-2.368727090940078001e-04,1.450302749872207642e-01
-1.581889782662341259e-01,-1.654041622711958648e-01,-3.077367550482691949e-01,-2.796808963787135796e-02,3.595437444945182720e-02,-1.396660780961862629e-02,1.677723824977874756e-01
-2.516413918030114827e-01,-2.020432721889349748e-01,-5.016606281346314145e-01,-7.204112175730618961e-02,2.231439875799688319e-02,-3.072237183659253315e-02,3.118737339973449707e-01
-1.787521383956705567e-01,-2.381930940602006164e-01,-4.201956601376884981e-01,-4.958577776588910663e-02,8.311794183502409228e-02,-5.232517656960099239e-02,2.894691228866577148e-01
-1.313839129668098460e-01,-1.595827550937288231e-01,-2.723781664426302984e-01,2.466304012176553928e-03,1.025720221267478922e-02,2.111559212801236100e-03,1.305600851774215698e-01
-1.619718646760888170e-01,-1.282112958675711845e-01,-3.185032995432484082e-01,-1.494543525583643187e-02,-4.681917094691227799e-03,1.436831121265733438e-02,1.796709746122360229e-01
-9.510649004938212525e-02,-1.495205961991291910e-01,-2.599256994035176183e-01,-1.857617906404420566e-02,3.834392555590494106e-02,-1.297755310978587068e-02,1.646481752395629883e-01
-1.209840296592549491e-01,-1.494133863524175210e-01,-2.833718947707066782e-01,-3.782932222115038736e-03,9.488207015754167306e-03,7.966397316791663926e-04,1.512493938207626343e-01
-1.282357214054558603e-01,-1.156739048215481291e-01,-1.466639109342130209e-01,-3.622442036685554791e-03,5.725675791362288582e-03,-2.383561628692456094e-02,5.070517957210540771e-02
-1.526315027220471743e-01,-1.442697046780690440e-01,-2.885902591159921760e-01,-1.136010953671421578e-03,1.215734960864625650e-06,-4.258630421273824863e-04,1.403423547744750977e-01
-1.454873348240328934e-01,-1.531807832151777793e-01,-2.896265990010934432e-01,-1.104612302279955665e-03,-7.068161772580207379e-04,-9.583364269593846844e-04,1.404788345098495483e-01
-2.149915579438211599e-01,-1.812844016526599100e-01,-2.886070343691995999e-01,-1.009652195284760877e-02,1.448091839610683718e-02,-5.877224697651439733e-02,1.425981074571609497e-01
-1.502778483754252659e-01,-1.561628299677992049e-01,-2.910729634002870991e-01,-5.201348615665216894e-04,3.432716118105378603e-04,-7.903584559568239574e-04,1.379578262567520142e-01
-1.294476937242473591e-01,-1.486298260483859823e-01,-2.619059389508308078e-01,-7.036952174177491838e-03,5.297399044535541432e-03,-6.146062793853440329e-04,1.249247193336486816e-01
-3.028663487226007089e-01,-1.993040811088660491e-01,-4.968447519017169522e-01,-1.298314313901896208e-02,-4.672658581358251143e-03,5.768378688175977709e-02,2.810605764389038086e-01
-1.576276526601881889e-01,-2.056106943937627551e-01,-3.502066906555794668e-01,7.846679877804755383e-04,1.228613164623956061e-02,2.520779571679455846e-03,1.749922484159469604e-01
-1.621310424239989223e-01,-1.436172248941414153e-01,-2.969966952312889097e-01,1.107108812440840608e-03,8.783555135763457733e-04,2.911291870083790485e-04,1.450331956148147583e-01
-3.332504789101101150e-01,-1.996122233126804146e-01,-5.678750805897955223e-01,-2.150591554445135944e-02,7.516626034781970916e-03,2.922804477363014075e-02,3.292150497436523438e-01
-1.630663750891357955e-01,-1.459749329688944108e-01,-2.946424922436937655e-01,-2.732762271723727411e-04,-6.417380192698939360e-04,-1.170635891500948749e-03,1.409212201833724976e-01
-1.658280683749980278e-01,-1.493451400203254231e-01,-3.036761547753351609e-01,-1.357121929417992199e-04,7.900931672968829027e-04,-2.218030555313686269e-03,1.468421220779418945e-01
-2.528437581545598944e-01,-2.075859011812445920e-01,-4.245884753312770821e-01,-4.386390751320509013e-02,-5.299752361477991225e-02,8.947114348297990905e-02,2.784437239170074463e-01
-1.384798395856511044e-01,-1.221487721603838894e-01,-2.173550440844027598e-01,7.114263661694122248e-03,-9.527959237641854887e-03,-1.482266103034373533e-02,9.412457793951034546e-02
-1.378725771393169985e-01,-1.623572173841512922e-01,-2.952118626558625225e-01,2.267460546209150180e-03,-1.005765608677232793e-03,-1.834866919856014593e-03,1.467355191707611084e-01
-1.578343069073638583e-01,-1.494302227970289165e-01,-2.949801375453471874e-01,-3.028496678873187579e-03,-9.126823241495945907e-04,-5.338906149263011490e-04,1.416441351175308228e-01
-1.605942647152870384e-01,-1.702434001353857751e-01,-1.815731702715402962e-01,5.704978311252892689e-03,1.300643987247384952e-04,-1.465485086038186523e-02,3.275327384471893311e-02
-1.625426863274763711e-01,-1.367163723394940744e-01,-2.945703889027616595e-01,-1.643265489182478361e-04,-1.134453756678862691e-03,3.273229596952946605e-03,1.467793732881546021e-01
-1.817134970782833536e-01,-1.756459701052673905e-01,-2.010550833762193013e-01,5.673350682246146477e-03,-2.177069062200294447e-02,-3.833985627742259733e-02,8.035266399383544922e-02
-1.389327416042508700e-01,-1.006780619366946655e-01,-2.553234641694463458e-01,2.913827057030697956e-02,3.021388613285593688e-02,3.914389443734032220e-02,1.713044047355651855e-01
-3.279242113956538085e-01,-1.846206721954351815e-01,-5.567873093447156529e-01,2.769709454021481929e-02,-4.299619903780800274e-04,4.791767558293403423e-02,3.389710485935211182e-01
-1.308704525814192166e-01,-1.473248821258112407e-01,-2.605129403399236709e-01,1.137311389421641512e-02,1.511904712213469650e-02,8.731221632765502269e-03,1.274646371603012085e-01
-1.624464772440238902e-01,-1.405799493286830626e-01,-2.995092032415666017e-01,-6.320290128735384875e-04,-1.565860435348565276e-04,8.716398411709676318e-04,1.492145210504531860e-01
-1.410306898720470048e-01,-1.640166850300889823e-01,-3.013268041776980821e-01,1.607332089983399366e-03,1.021732057275210367e-04,-8.885494718284481447e-04,1.501625329256057739e-01
-1.282656701331588156e-01,-2.103568170180105390e-01,-3.455148623191886537e-01,-9.191850615847504610e-03,8.102372015400448324e-02,1.148509781549901174e-02,2.375829368829727173e-01
-1.516550226318183481e-01,-1.575020210633655549e-01,-2.927913442543365052e-01,-2.498965478940974681e-03,-7.912078639989903156e-05,-7.985806253487719121e-04,1.383802443742752075e-01
-1.341860484568836165e-01,-1.915890073559227691e-01,-3.232185328660454604e-01,5.328234555482277632e-03,4.238823145817232491e-03,-2.757381767030421538e-03,1.683426201343536377e-01
-2.756922757227243670e-01,-1.968950193465613396e-01,-4.344899119050891212e-01,-3.624545936471834390e-03,-1.976591285499804552e-03,9.236800354729296503e-02,2.637900412082672119e-01
-1.624868393858887594e-01,-1.338757068408835682e-01,-2.894648395171044997e-01,2.574106697366164865e-03,1.484189862217859517e-03,3.932438185033689665e-03,1.436936706304550171e-01
-1.577465775435421824e-01,-1.290275058228199101e-01,-2.940072051252295982e-01,-4.036229061812627618e-03,-1.835784340733689988e-03,1.093962785081310958e-02,1.540228277444839478e-01
-1.944051732131623911e-01,-2.486863266461651345e-01,-5.084936858215767241e-01,-8.085888759321815944e-02,-3.407080080571792818e-02,3.085492364464853185e-02,3.324183523654937744e-01
-1.522448183823270906e-01,-1.520565886762383356e-01,-2.879748184520075638e-01,-4.723471116384266619e-04,4.314295397914688938e-04,3.747119003494347751e-05,1.358287483453750610e-01
-1.462584568332258583e-01,-1.674123199144734175e-01,-3.009198454161273739e-01,-2.049539623726438081e-03,-1.383318859409585081e-04,-2.318406572257980872e-03,1.453434824943542480e-01
-1.463508828836684594e-01,-1.455261567137839385e-01,-2.885018463762606955e-01,-3.210773577040864843e-03,1.963221689999519672e-04,-8.119128597197255873e-05,1.426740139722824097e-01
-1.578269940589120957e-01,-1.518871156024657609e-01,-2.934261694570245993e-01,-1.931584124909590427e-05,-7.324520854990390281e-04,3.714959219002588841e-04,1.386718600988388062e-01
-1.461674186785980323e-01,-1.505464550512646549e-01,-2.901212561194879691e-01,-8.245151572599031817e-04,-2.884832773305109010e-04,3.859774160405619946e-04,1.418246775865554810e-01
-2.581871118565223222e-01,-2.259771814243925203e-01,-5.293752220656624541e-01,-6.756382863441286191e-02,-2.706827083540408463e-02,2.598604975263177352e-02,3.181728124618530273e-01
-1.644955243938425460e-01,-1.362947187722365894e-01,-2.917895065796525245e-01,-2.620641245490823792e-03,-1.436870047094502157e-03,-2.565796852159985333e-03,1.436502039432525635e-01
-2.363458903325459104e-01,-1.766372559061564207e-01,-4.033938695878779290e-01,-4.607790214064790696e-02,-5.187394727284367485e-02,8.172960821441749291e-02,2.755463421344757080e-01
-1.491782864704999656e-01,-1.262558492009715205e-01,-2.694659422139538130e-01,-6.001789464979347989e-03,-4.591565915605027269e-03,5.945546538939017883e-03,1.342728734016418457e-01
-1.501806050110303381e-01,-1.503652489824930938e-01,-2.888520509037052486e-01,-5.871789426706751835e-04,-8.757422432659622705e-04,8.133286158460919938e-04,1.385984122753143311e-01
-2.906124303735784231e-01,-2.179649188903641510e-01,-5.594031816291267223e-01,-4.751961821907508404e-02,-1.055994054465523441e-02,1.619112057195517054e-02,3.239574730396270752e-01
-1.596446616879602098e-01,-1.905563140968798419e-01,-3.425350036014934152e-01,6.255997347335611782e-03,1.255578365088322657e-05,1.923453835307820841e-03,1.699396222829818726e-01
-1.774658106048229711e-01,-2.361667806812975112e-01,-4.111676983948400199e-01,-4.719192082481474954e-02,7.961577247055039164e-02,-4.977415786134944259e-02,2.783406078815460205e-01
-7.151491505557013018e-02,-1.718313102290271732e-01,-2.859214078553724003e-01,-9.798090017868374933e-04,-5.948369853051817258e-02,1.682250500747287970e-03,2.124884426593780518e-01
-1.279444479151772840e-01,-1.637638651590161698e-01,-3.068087015218811664e-01,-3.476621727215672281e-02,-4.092541385392436254e-02,2.805796146392357596e-02,1.946307420730590820e-01
-1.422240831813620376e-01,-1.583315845970006686e-01,-3.000452204626285480e-01,-1.193931011214769723e-02,-1.837467710183469287e-03,5.929284286605924700e-03,1.522106975317001343e-01
-1.340442167366197035e-01,-2.333201794360923176e-01,-4.084189668979003041e-01,4.023873103774947696e-03,6.248918833874255591e-02,-2.233043894139517815e-02,2.667538523674011230e-01
-1.298160275888963211e-01,-1.744334489545427969e-01,-3.133176532951231774e-01,-2.269289816793090917e-03,-1.828097165906924018e-02,2.344309891965517655e-03,1.688511520624160767e-01
-9.531136937806367060e-02,-2.033928776901756941e-01,-3.413459711404536190e-01,1.604243767660444575e-02,6.668271738543716989e-04,-9.999902998652988179e-03,2.160931676626205444e-01
-1.416648938597283025e-01,-1.986474746916999379e-01,-3.351530912630813486e-01,-3.615187094500343923e-02,6.901248684145581958e-02,-6.320844308052782357e-02,2.446511983871459961e-01
-1.395416885991515588e-01,-1.937035583856192011e-01,-2.760868289909325091e-01,-4.495590341897297629e-03,6.234742966651335427e-02,7.702811376973175712e-04,1.609551459550857544e-01
-1.263712062648234269e-01,-1.538083567815691222e-01,-2.848154588613890370e-01,-6.123411856770566430e-03,-9.109509923511916255e-03,9.995600819479886015e-05,1.478904634714126587e-01
-1.394340684193669244e-01,-1.378331368656274813e-01,-2.851437472441615828e-01,2.866310505337791095e-03,5.445742090125970866e-04,9.131366877403410695e-04,1.466123610734939575e-01
-1.410418853182489607e-01,-1.458483094704187688e-01,-2.641535382385918895e-01,9.928206209830070170e-03,1.699651130313961167e-03,4.017429357060137846e-03,1.222319379448890686e-01
-5.895971630627867832e-02,-1.551336603311206097e-01,-2.753156543773562226e-01,-8.652498421596252487e-03,-5.723978035925996605e-02,-5.660733037347038914e-03,2.130760997533798218e-01
-1.384322876681819137e-01,-1.619321997987630823e-01,-2.940720888283843149e-01,-2.803940088858852559e-03,-1.936236890988172598e-03,7.326380328398784958e-05,1.454418152570724487e-01
-1.529213353895272354e-01,-1.576489312448409730e-01,-2.926243076068061333e-01,3.165376852194445347e-03,1.141668736101675687e-03,-6.123394039226774709e-04,1.375278383493423462e-01
-2.055430973769107605e-01,-2.050351269547597277e-01,-2.633137417050520623e-01,1.935631147620030246e-02,5.718544288034767969e-02,7.736519606957954764e-02,1.796042770147323608e-01
-1.350926072818413592e-01,-1.609243076402527561e-01,-3.094215790350025586e-01,-9.369465748019211240e-03,-1.342163235141420261e-02,3.899453059553649979e-03,1.655416935682296753e-01
-1.568506749462334482e-01,-1.233905642563030008e-01,-2.821041624777201884e-01,-2.756321024152781282e-04,4.592447668917608522e-04,2.179649816379307121e-03,1.449624896049499512e-01
-1.610355887207849390e-01,-1.615841840040606048e-01,-3.143113784659812837e-01,-7.760455440097287043e-03,1.620469351633507013e-04,8.943203909123327664e-04,1.535995900630950928e-01
-1.631362673608593716e-01,-1.485985914783604644e-01,-2.743478563582441021e-01,6.857095312118608420e-03,1.443856229024785608e-04,2.896066389847316413e-03,1.198432445526123047e-01
-1.612515479711602862e-01,-1.670103045234876404e-01,-2.902885153272169450e-01,-1.721284759655643259e-02,-1.586016997144923737e-02,1.739822894890140359e-02,1.359859704971313477e-01
-1.408345799779117669e-01,-1.345699411710856996e-01,-2.835149939571308675e-01,2.773824968403771490e-03,-1.276952193373933979e-04,-1.490327680668098386e-04,1.459930986166000366e-01
-1.890235615924891477e-01,-1.858229145311563468e-01,-1.837637496343794696e-01,5.724687259772352071e-03,4.299414523483349737e-02,6.441114568177953859e-02,1.345781087875366211e-01
-1.367771547976239510e-01,-1.559288161997729183e-01,-1.296230705058515620e-01,5.220029625243319087e-03,6.718191121899211304e-02,-1.490142073144978992e-02,1.218323037028312683e-01
-1.418247243560983029e-01,-1.517943246368067822e-01,-2.890185687423948435e-01,-4.206579756151003144e-03,-2.998303595249550619e-04,2.203804714793832051e-04,1.426585316658020020e-01
-1.287531309991243600e-01,-1.603958267059019949e-01,-2.849725525042174912e-01,-2.187672433055649381e-03,-8.649961776236700416e-04,-6.910982301536778161e-04,1.431104391813278198e-01
-1.234254924235924228e-01,-1.571693799658871182e-01,-2.724668993622144098e-01,2.280255229150757960e-03,-5.152392528743178143e-03,-6.627858481596902041e-04,1.357177644968032837e-01
-2.238175583022550819e-01,-2.455493534767597130e-01,-3.892518578405443352e-01,-4.696636842772325404e-02,9.141541393742319555e-02,-6.496999336647407697e-02,2.619098126888275146e-01
-1.635616146154060258e-01,-2.048040252592102373e-01,-1.934814383866578225e-01,-2.786156745994955788e-02,1.277565516053205119e-01,-5.313741444354819210e-02,2.472386062145233154e-01
-1.301305404716511516e-01,-1.594509803155650940e-01,-2.817633905661073301e-01,-2.117584221846705115e-03,-3.983852751320797860e-04,-8.438689192020222020e-05,1.393564343452453613e-01
-1.514183631239197636e-01,-1.535070865331478185e-01,-2.890788254511837962e-01,-5.988879607513733017e-04,5.779385641298940115e-05,-2.121876833766278754e-04,1.366325467824935913e-01
-1.823395755559869824e-01,-1.995277972745289896e-01,-2.390330788836392550e-01,-3.160888487731023516e-02,1.217666035150994364e-01,-9.375592920052738810e-02,2.763771414756774902e-01
-1.431683842313616062e-01,-1.492452509117829229e-01,-2.889151017136549759e-01,-9.233618621993291151e-04,3.033086536922865160e-04,2.954934254343338372e-04,1.428161263465881348e-01
-1.336998971073078690e-01,-1.414290730290165832e-01,-2.621339389587791224e-01,-9.657671167468536919e-03,4.481505246428559193e-03,-4.354130338576235083e-03,1.263300925493240356e-01
-1.759540687939114834e-01,-1.963986178671186522e-01,-1.748848008548373467e-01,-5.894367246689560455e-03,8.058986374199640645e-02,-5.166150327455249977e-03,1.418078243732452393e-01
-1.345675595214623210e-01,-1.725566758756580388e-01,-2.951842024053472624e-01,-2.197686186271992316e-04,-8.940501602869202480e-03,3.682547315705035455e-03,1.463551223278045654e-01
-1.259743533678827632e-01,-1.585976551867144813e-01,-2.828300318839165883e-01,-5.305037892464504069e-04,-1.167826530107834646e-03,-1.360002838081674230e-04,1.433730274438858032e-01
-1.949746505117922746e-01,-2.348533393108901968e-01,-2.552200398050668562e-01,-4.019460897287579181e-03,1.006844056559745848e-01,-9.648507885964385800e-03,1.831859946250915527e-01
-9.088509564925639772e-02,-1.480429014068178617e-01,-2.082219656200593183e-01,-8.696398910437908372e-03,7.370089747835374683e-02,-2.216533287372295449e-02,1.682988256216049194e-01
-1.278814869278805388e-01,-1.605927796290967380e-01,-2.837639907611581580e-01,-5.595834922392669240e-04,-3.732152070857781747e-03,-3.426495941777039786e-05,1.425236612558364868e-01
-1.827836698535134363e-01,-1.938859292047662719e-01,-1.649768994130970667e-01,-6.065424938618639225e-03,5.756133432371875885e-02,-2.632033125753947822e-02,1.129894033074378967e-01
-1.329101850540447272e-01,-1.597390161030401157e-01,-2.642498890524490052e-01,-1.158555423352874633e-02,1.631970831194340388e-02,-9.894203475784327587e-03,1.262599378824234009e-01
-1.988704642343915863e-01,-2.429072927988412955e-01,-3.044124019495795253e-01,-1.526123410347754623e-02,1.088109785092439691e-01,-3.601283389837337673e-02,2.203170061111450195e-01
-1.482407027671185928e-01,-1.628916591178110052e-01,-2.720240481457108506e-01,9.315608499420102023e-03,1.707133460126478586e-03,6.457223735124582517e-03,1.188174858689308167e-01
-1.793977046806591591e-01,-1.905666947739671213e-01,-1.699066562114708856e-01,4.929703931249548518e-03,7.156304532417967490e-02,2.984886099941167978e-02,1.357586383819580078e-01
-1.200451962070394341e-01,-1.486348985865738048e-01,-2.487154333138779094e-01,3.520326986538556847e-03,1.009776116094244884e-02,1.419803791090267376e-03,1.185068637132644653e-01
-1.431193353249127775e-01,-1.453803339227809077e-01,-2.873871129251226453e-01,-1.389039217683717305e-03,9.493221017749193863e-05,-9.113889837445483149e-05,1.431710720062255859e-01
-1.345216588456256968e-01,-1.350327886009599632e-01,-2.636594631832723246e-01,-1.203265999215798708e-02,1.052592850600596840e-02,-1.103959974673743641e-02,1.332035511732101440e-01
-9.032694053371347065e-02,-1.510081268236410923e-01,-2.933126441747511692e-01,-1.582865527555842033e-02,3.544216616968703937e-02,-4.611490566513188130e-03,1.927481889724731445e-01
-1.483845867329575685e-01,-1.470936504707875403e-01,-2.901292469635171622e-01,-1.630817411534340346e-05,-5.428662376732906920e-04,3.530106887678363952e-04,1.423989385366439819e-01
-1.506432325366966751e-01,-1.419720790700804425e-01,-2.352498281278812553e-01,2.444929509590307304e-02,3.334184377941322441e-02,2.259605027923638695e-02,1.209429055452346802e-01
-1.371585055900027550e-01,-1.526740117000439101e-01,-2.873254568403232345e-01,-9.427423102482852812e-03,1.297512160938136747e-02,-7.954467122121852349e-03,1.463640630245208740e-01
-1.465223619982969627e-01,-1.551500193154881357e-01,-2.909906855497570444e-01,-1.348891042146777670e-03,7.821395838359468736e-04,-5.872134370818602378e-04,1.403831839561462402e-01
-1.543343483423870732e-01,-2.735700352660778156e-01,-4.248186733916808899e-01,-9.970639958188143304e-03,7.980499560780376922e-02,-1.173472833399956394e-02,2.737615704536437988e-01
-1.478175211651511778e-01,-2.376260336624613778e-01,-3.659642446944976202e-01,-4.086789286012917216e-02,9.480732301138308782e-02,-3.718075523631338836e-02,2.686730325222015381e-01
-1.228364057728614372e-01,-1.744762192850733140e-01,-2.964643975771981133e-01,-1.817077773762187844e-03,2.431505313047658753e-02,8.318298795333715565e-03,1.607432365417480469e-01
-1.312345478793319475e-01,-1.421178591762810861e-01,-2.307139085695098513e-01,1.251496531398982662e-02,1.285624756778207256e-02,8.793054772450912063e-03,1.006459146738052368e-01
-9.022240172300759198e-02,-1.399225680720125320e-01,-2.358007595040002013e-01,-4.069928637436841593e-03,2.789074310074617438e-02,-5.686827367229535177e-03,1.375074237585067749e-01
-1.368440737412678354e-01,-1.584182189679373132e-01,-2.718507714876180481e-01,6.404478249091310853e-03,7.078474793259115910e-03,3.072170341521930897e-03,1.268119812011718750e-01
-1.583645380147834514e-01,-1.906223523545826082e-01,-2.294854186633943638e-01,3.938415235662851011e-03,4.840832195468654925e-02,2.700057139581666169e-03,1.044176369905471802e-01
-1.637777840632473614e-01,-1.498567942113772367e-01,-2.994905157644269789e-01,-4.273673608978871530e-04,-2.213190545204707252e-04,1.627576599432495330e-03,1.432118564844131470e-01
-3.026061872672677899e-01,-1.561303583006969087e-01,-5.488853424700570471e-01,-3.538518507313800909e-02,-1.007780943905667650e-02,2.821192649768936717e-02,3.530315756797790527e-01
-1.600806477152136309e-01,-1.431980077577148236e-01,-2.941726059651051939e-01,-1.011643654908862225e-04,2.983316823545990263e-04,9.887064376200519616e-04,1.432924717664718628e-01
-1.544283723305594214e-01,-1.287698409168051561e-01,-2.861287787080992184e-01,-6.687081978742073166e-04,-1.438015357109648663e-03,2.123301096706726142e-03,1.462999135255813599e-01
-1.249301936384565048e-01,-1.280301603145634626e-01,-1.498419641374565403e-01,-6.965203960476948515e-03,-1.998396272428318993e-02,3.162310638588609196e-02,6.997615098953247070e-02
-1.466284976717449617e-01,-1.363719937601443610e-01,-2.849730335096790634e-01,1.441047952453355105e-03,5.573544425085149960e-04,7.442215451146833071e-04,1.437781602144241333e-01
-1.429158390559036595e-01,-1.471489905414317678e-01,-2.894972979832421967e-01,7.773862925704339445e-04,-2.533752960164329564e-04,-4.013382515482348772e-04,1.445199996232986450e-01
-1.459206622213792826e-01,-1.418198648059748601e-01,-2.883157781360596861e-01,7.307966207436448819e-04,-3.552614155439370956e-04,-8.914711637256568554e-04,1.445042639970779419e-01
-1.469764825243458084e-01,-1.321819032631383894e-01,-2.834804583985446325e-01,1.701220707047664156e-03,-7.631733219782351092e-04,-1.183096568774722000e-03,1.445211470127105713e-01
-1.433618622161953737e-01,-1.835057215243402484e-01,-3.200550589003293700e-01,4.755761754608221238e-03,7.206719609927030208e-03,-3.212444800627590330e-03,1.612249612808227539e-01
-1.438947527482115074e-01,-1.521334562715513927e-01,-2.510289380157814110e-01,1.602802868222119245e-02,-1.937991824371312552e-02,-1.168362365635637438e-02,1.138855591416358948e-01
-1.405594176689416996e-01,-1.318380031309013267e-01,-2.618440580562302333e-01,-8.320206877681285418e-03,4.386404745848399532e-03,-3.543112799201031046e-03,1.270702928304672241e-01
-1.414217334827069794e-01,-1.395744747631918470e-01,-2.861338551155027110e-01,-2.063060292882320200e-03,-3.941429412575723134e-04,8.498425714768426944e-04,1.456973999738693237e-01
-1.422196857850181184e-01,-1.595797814761623912e-01,-2.911934562754801004e-01,2.111470543849863855e-03,-3.225119011589545979e-03,4.063438255811156058e-04,1.412566155195236206e-01
-1.577411892087935141e-01,-1.276060866289103202e-01,-2.806225480640900383e-01,1.012994102357134187e-03,3.036436604169064166e-04,1.493661673861328143e-03,1.404316276311874390e-01
-1.447583885950357308e-01,-1.363854882628310894e-01,-2.866713309588812542e-01,-1.540385915741017322e-03,-6.491190974551655501e-04,6.742785076575084761e-05,1.463079154491424561e-01
-1.478186472453654199e-01,-1.581588336442361076e-01,-2.907680712860299943e-01,1.141637292253762023e-03,8.093823776158111079e-04,6.745348202481872600e-04,1.380962431430816650e-01
-1.483719926408580414e-01,-1.557585281129996169e-01,-2.910423308251162688e-01,2.510799277364290580e-03,1.204862517944873743e-03,6.594583557179506741e-04,1.392124891281127930e-01
-1.485820199148547294e-01,-1.523423459275695946e-01,-2.905613103382722606e-01,9.300987564534011695e-03,-3.164433357958938882e-03,-2.616664221267783058e-03,1.412390768527984619e-01
-7.869053420086843942e-02,-1.427312404491652142e-01,-2.471339206181853432e-01,2.207955121675238622e-02,-4.772912130175021445e-02,-8.044523252001738525e-03,1.737182289361953735e-01
-1.002022941022971680e-01,-1.435827267849606736e-01,-2.810507848314636736e-01,3.513513551352914766e-02,-3.656568792935771528e-02,-2.739902927258033166e-02,1.915971189737319946e-01
-1.423986768401631076e-01,-1.581037313470610162e-01,-2.962787847932811802e-01,-8.046802512229339274e-03,2.052837196625318956e-03,-2.939297838947340421e-03,1.474511921405792236e-01
-1.426701716857642910e-01,-1.349540508415610629e-01,-9.808033051020975668e-02,3.230846745954992546e-03,-3.242141369557187403e-02,-4.662616977390737771e-02,1.068198978900909424e-01
-1.726197939768661926e-01,-1.791770504376714868e-01,-2.177258696681026173e-01,-4.506922961711710279e-03,-4.761239109941100417e-02,2.273680804900061678e-02,1.009674593806266785e-01
-1.323243241164500372e-01,-1.306898014220697068e-01,-1.253587886393635886e-01,-2.598862946355471378e-03,-1.018402679639160424e-02,1.680801259076258186e-02,3.491043299436569214e-02
-1.091883913932437111e-01,-1.194383821297218679e-01,-1.454845794982853324e-01,1.510811236666470200e-02,-4.123997743887528739e-02,-2.302165320433170737e-02,9.180088341236114502e-02
-1.353263887555997969e-01,-1.454895226036750366e-01,-2.185154087666278666e-01,5.362892485046507479e-03,-1.088588977529796921e-02,-1.207777468636348980e-02,8.400981128215789795e-02
-1.248712267925751740e-01,-1.500752456318841799e-01,-2.086535618938846759e-01,-1.422285784466858626e-04,-1.305722613898129859e-02,-1.087617424151165503e-03,7.783414423465728760e-02
-1.665472429034089985e-01,-1.552228661542167931e-01,-2.060846690828696814e-01,5.797058804626935291e-03,-7.311310085584447199e-03,-1.235354944734005748e-02,5.346214026212692261e-02
-1.506576869427382614e-01,-1.476870129742188231e-01,-2.894028266084878176e-01,2.168128277826331021e-03,-6.852617621260975798e-05,-4.803080213724218272e-04,1.403068602085113525e-01
-1.392752477654497778e-01,-1.466905673214815853e-01,-2.825355613909010799e-01,-6.290158027584150796e-03,2.992657713029522816e-04,7.518196606339799543e-04,1.401315331459045410e-01
-1.524073775802476938e-01,-1.856773304697068583e-01,-3.499887111332928291e-01,-7.699496265574127911e-03,5.216249671414998528e-04,7.447865788762854204e-03,1.841652095317840576e-01
-1.379448733695729512e-01,-1.762853512489291341e-01,-3.113894886442015175e-01,-3.554011760248866614e-03,-8.315698701248656205e-03,-2.170014218468879763e-03,1.586270779371261597e-01
-1.187850766917687984e-01,-2.244683040245807060e-01,-4.745374084689693017e-01,-4.204230176352262427e-02,-5.122575353292500855e-02,2.526680617428242459e-02,3.394432961940765381e-01
-1.432011051976844196e-01,-1.416346725259417516e-01,-2.892675672902963457e-01,-5.462171511510046816e-04,-2.066173934251596420e-04,-7.072629927714409615e-05,1.468594819307327271e-01
-1.351965073659377181e-01,-1.464931071694601794e-01,-2.841409856513515408e-01,3.479376218585596842e-03,-1.169876303125494139e-03,-4.211927091901521082e-04,1.437722593545913696e-01
-1.507926419254087547e-01,-1.359268824197604475e-01,-2.877135965718655708e-01,-1.130088783137369419e-03,3.688879198250974716e-04,-5.977687097729224427e-04,1.449450999498367310e-01
-2.836332605159744280e-02,-1.543019498683505797e-01,-3.155491444556680625e-01,-7.000273835833433281e-03,-1.793748197955332205e-02,3.450298686817203017e-03,2.516275644302368164e-01
-1.779698277347648294e-01,-2.187028319874128046e-01,-3.739979898250315182e-01,2.012011097434666593e-02,7.938499977745880343e-02,4.966439509546653752e-02,2.441750317811965942e-01
-1.577132935052112939e-01,-1.817506585329289881e-01,-2.660476650087462702e-01,1.987352776022716962e-03,2.288671366828511425e-02,3.098774620732889888e-03,1.064054444432258606e-01
-1.199274301234430351e-01,-1.512841572662307621e-01,-2.476909312069502378e-01,-1.128799884104543039e-03,-8.767212405354361110e-03,-8.152123297480292838e-04,1.163482666015625000e-01
-1.320112825447279370e-01,-1.596577998351728922e-01,-2.879945042550989265e-01,-4.530363588971673440e-03,7.153406380955006430e-03,-1.885762437549252501e-03,1.449429392814636230e-01
-1.303716196550954165e-01,-1.600281963489754711e-01,-2.754058039021751725e-01,-4.238455387493092648e-03,9.806393150896255614e-03,-5.355842579793611540e-04,1.340017169713973999e-01
-1.562298129069558394e-01,-1.606907997258391341e-01,-1.412675541059805751e-01,3.315456084490262054e-03,-5.700469511071799833e-02,-3.966724446191403908e-02,1.217069029808044434e-01
-1.278564965121017916e-01,-1.493167534938936170e-01,-2.869395565500696410e-01,8.129126705933917632e-03,6.692787836281488892e-03,4.010132320710923549e-03,1.507808715105056763e-01
-1.265962885766340751e-01,-1.567718904924250145e-01,-2.840016363405609146e-01,-1.467729198410471295e-03,1.278257827818970582e-03,-1.478866062247326339e-03,1.447588801383972168e-01
-1.421952130656257418e-01,-1.433795257312679150e-01,-2.888706715225695110e-01,4.154196127024042625e-04,2.966083608314647272e-05,5.915860223308310291e-05,1.460887193679809570e-01
-1.251426359910638997e-01,-1.613590138879366920e-01,-2.464640555461839466e-01,-4.239354906495663988e-03,2.233753444518444403e-02,2.850561721217035032e-03,1.149429455399513245e-01
-1.527460414195362381e-01,-1.580496348335976298e-01,-2.930384540718420916e-01,-1.257619391856330988e-03,1.551496286496514880e-05,-1.239615628767630094e-03,1.377511918544769287e-01
-1.477270944347677528e-01,-1.502594622453146123e-01,-2.870558574102335392e-01,-1.221776575679397753e-03,-3.928197369619733609e-04,-1.610291549257445213e-04,1.380981653928756714e-01
-1.437397201726393070e-01,-1.432667750086591141e-01,-2.898156359423093020e-01,3.435309870346772839e-04,4.856360581034819835e-05,-1.038172813333114095e-04,1.463143080472946167e-01
-1.491523063190406118e-01,-1.461231141878072681e-01,-2.942481838083140233e-01,-9.307994877434106265e-03,-4.049872379372981314e-03,4.457842928638636529e-03,1.478859335184097290e-01
-1.495878719104311583e-01,-1.713385337487661753e-01,-3.270408333054505290e-01,9.015926619868566694e-03,8.874928945512701147e-04,6.876501483725647353e-03,1.687927991151809692e-01
-1.432375643368512808e-01,-1.423735608247685969e-01,-2.929831790224778354e-01,1.478216799502478189e-02,-1.362536614781918905e-02,-1.122411615934602001e-02,1.553843915462493896e-01
-1.446561875457966773e-01,-1.445663225596006407e-01,-2.881890780057659307e-01,2.860779403174346265e-04,1.729318637935245840e-04,3.091516539393069697e-04,1.435800045728683472e-01
-1.517177642163571316e-01,-1.436248904454833775e-01,-2.917683583272571157e-01,-1.540816883670835481e-03,8.647837850067368508e-04,-1.483658755224005299e-04,1.443000584840774536e-01
-1.517101087016637095e-01,-1.526850436730984861e-01,-2.894431627450846922e-01,-2.153123814415408219e-03,4.258886101823608549e-05,4.749341349133481154e-04,1.373013257980346680e-01
-1.457154288500873140e-01,-1.329886081227752426e-01,-2.772282728328613888e-01,-5.329223148957334434e-03,3.603313535344485454e-04,-2.163050392970795302e-04,1.386256515979766846e-01
-1.422384862743940048e-01,-1.435933455563132011e-01,-2.891304807886130868e-01,-5.742274690754240818e-04,-4.131594419632348959e-05,2.569349179034624231e-05,1.462226808071136475e-01
-1.475895729625807395e-01,-1.394580710123988487e-01,-2.875415368792062498e-01,-2.715139633400119774e-03,-8.085779394250946746e-04,8.785406859967366576e-04,1.442812681198120117e-01
-1.421513765257010065e-01,-1.323413681558815447e-01,-2.798368306335005107e-01,-3.615655277964919048e-03,4.750532475628434009e-04,-1.528528815232808261e-03,1.430074125528335571e-01
-1.502829711300530668e-01,-1.470150544219341326e-01,-2.904796790266097606e-01,4.008605692678131154e-03,-1.167631945532455638e-03,-1.095702244612892706e-03,1.420557796955108643e-01
-1.436405107198844289e-01,-1.519590913332485027e-01,-2.895879383157716758e-01,-5.388246113121235650e-03,-9.320283423223295555e-04,1.047916845724173717e-03,1.422981917858123779e-01
-1.437412931069166899e-01,-1.772604564835353613e-01,-3.187824660792243914e-01,-6.850658061368492674e-03,-4.758251090029140193e-03,-1.304198069046311539e-03,1.615844517946243286e-01
-1.264672785655683862e-01,-1.610331193619066736e-01,-2.891429103788754063e-01,1.179469311457205559e-03,5.280537274381069159e-03,4.000534800109626157e-03,1.488992124795913696e-01
-6.630968325397336438e-02,-7.262591355075784239e-02,-2.149033650887176017e-01,4.820851483019493455e-02,-4.093100376387290296e-02,-4.630365517475482778e-02,1.990269720554351807e-01
-8.056186277457623446e-02,-1.661143453879058984e-01,-2.995618392975027966e-01,7.715476552623099817e-03,-4.484531166711724220e-02,2.202551817522266538e-03,2.068107128143310547e-01
-1.401635531637449306e-01,-1.808292622759684609e-01,-3.070915451544651287e-01,-1.010924275604584664e-02,-1.378203396602883414e-02,1.405033264145800695e-02,1.555604934692382812e-01
-1.316483823498028061e-01,-1.553602705536054063e-01,-2.856942655922160568e-01,8.634616285236060371e-04,1.404032500867957505e-03,2.319507888810997136e-04,1.436940580606460571e-01
-1.508755542607721767e-01,-1.516140967647757465e-01,-2.868837955769990011e-01,4.706089647766910637e-04,-3.734699161393716658e-05,3.856896126937288003e-04,1.356445848941802979e-01
-1.343291610473471565e-01,-1.763130295701360872e-01,-2.869424804706297016e-01,-1.661717499013988866e-02,-2.385387744009983754e-02,6.468578362924539381e-03,1.459695696830749512e-01
-6.343586485216812232e-02,-1.285044548203578829e-01,-1.649753429369110735e-01,-6.514959477968665369e-03,-7.121696774971465749e-02,9.830507747418153891e-03,1.535251587629318237e-01
-1.243440202201406553e-01,-1.637727185560928778e-01,-2.483047038350043589e-01,-1.548431494305444085e-02,-6.699299150643259204e-02,1.529022554600148812e-02,1.640674024820327759e-01
-1.332918427456033506e-01,-1.759814484869975937e-01,-3.083903421038751702e-01,9.775387085057994033e-04,-5.121975385494561585e-03,-4.362557340100494188e-03,1.585738509893417358e-01
-6.350957141315059784e-02,-1.247725395334258885e-01,-1.849555326033955893e-01,4.076696260688484133e-03,7.702001708485267661e-02,3.430765413857553921e-04,1.700252741575241089e-01
-1.403715264385743677e-01,-1.921319381867340470e-01,-3.167142736790561908e-01,8.971299508697861899e-03,4.719125680846617682e-02,6.863033581148259010e-03,1.780790090560913086e-01
-1.462103861254875625e-01,-1.422324338528145882e-01,-2.896927225065533129e-01,-1.141430817202376650e-03,5.590464295918258714e-04,3.435389919927979126e-04,1.455299705266952515e-01
-1.413127823840339414e-01,-1.428413167889473478e-01,-2.880179339252618709e-01,-5.903410712432902163e-04,3.707408463336698038e-04,-2.944307553306770042e-04,1.459527760744094849e-01
-1.427039541311767024e-01,-1.673611348144424249e-01,-3.004536274762742432e-01,-1.124111485220236290e-03,1.008640162720688153e-03,-2.222617730155370709e-03,1.470541954040527344e-01
-1.307229552770017567e-01,-1.637437773950546349e-01,-2.903725543174268120e-01,7.413597318107859350e-04,3.584091125476580701e-03,6.632183344255981406e-04,1.461099386215209961e-01
-1.424686106859856527e-01,-1.372757762694932215e-01,-2.602482735873477560e-01,-9.288357704433409731e-03,-3.523828464738212006e-03,1.037408673403626344e-03,1.216960400342941284e-01
-1.504012557743694134e-01,-1.337151137431800418e-01,-2.442512231633455488e-01,-8.296687135060409543e-03,-2.275599840463345298e-03,2.091820854875221271e-03,1.043427288532257080e-01
-1.338336588348645328e-01,-1.592243609597424059e-01,-2.876933472729109598e-01,2.101523632429077530e-03,1.668845715509770537e-03,1.732028317363256374e-03,1.429737359285354614e-01
-1.150797371193698487e-01,-1.542324940754588591e-01,-2.871551794389858303e-01,-1.303575468221685450e-04,1.983465723562702690e-02,5.073572057415387700e-04,1.599585264921188354e-01
-1.449817526167620774e-01,-1.475724247586530091e-01,-2.909811924853142329e-01,3.509946809180938300e-03,1.201637390811852255e-03,2.677720293475560663e-04,1.448648273944854736e-01
-1.488167326050295058e-01,-1.329934961036980945e-01,-2.830215590494312150e-01,9.511780007168992024e-04,-1.820011103018430118e-04,-1.986992273831610022e-05,1.427854299545288086e-01
-2.883934609287682749e-01,-1.508817822363915928e-01,-4.911433354272695118e-01,2.415931409621248360e-02,7.625959201957439350e-03,3.916654996393948568e-02,3.072865009307861328e-01
-1.422465780472075281e-01,-1.424022945093061931e-01,-2.740882298712847831e-01,-8.187180095248727807e-03,-9.959644998967112726e-04,2.426580543899659807e-05,1.325359642505645752e-01
-1.720618767827475915e-01,-1.605623499386293063e-01,-3.187265003280297937e-01,-9.432886735971235045e-03,-4.722751007991550856e-03,-2.051333836071826591e-03,1.538694202899932861e-01
-1.572615066908785997e-01,-1.426606069367947760e-01,-2.914354863731391521e-01,5.701390370374340329e-03,1.088465063570017870e-04,2.811680269115094787e-03,1.424646377563476562e-01
-1.453138210537728292e-01,-8.609913246393574582e-02,-2.611628973327140280e-01,1.319824747520301211e-02,1.497251080832517553e-02,5.100222163919613388e-02,1.810694485902786255e-01
-1.632100259659017838e-01,-1.434773448680921326e-01,-3.013204233805705790e-01,4.465970859286829721e-03,-4.686750848816056449e-04,-1.231109010014095869e-03,1.491783857345581055e-01
-1.713767822264454788e-01,-1.484447475213105383e-01,-3.074488802032182555e-01,2.710091673358214215e-03,1.155010093340388304e-03,-1.244823918116742020e-04,1.489563286304473877e-01
-1.424821665071679122e-01,-3.616901843975868502e-02,-2.821880764414536058e-01,5.652389350366106638e-03,1.270736016347972413e-03,1.566789572415475118e-02,2.156616449356079102e-01
-1.409084631158941392e-01,-1.580002466946391904e-01,-2.919419807707697712e-01,-2.451457167267179476e-03,-1.129780129852892099e-04,-1.419229087703915895e-03,1.433385163545608521e-01
-1.550356251742771585e-01,-1.230596066648350639e-01,-2.776897028230381204e-01,-2.967583039606797212e-06,1.426140470980198204e-04,1.974703202668995697e-03,1.414221972227096558e-01
-1.484382163850554437e-01,-1.514151926715219809e-01,-2.972666156198314202e-01,5.683669309708745329e-03,-6.989619580677326836e-04,-6.280300308368890480e-04,1.476998925209045410e-01
-1.681577664534367189e-01,-1.541259853378527112e-01,-3.064358448909094146e-01,-1.897046017123977255e-03,7.964288121473409813e-04,-2.772367045627312232e-03,1.459238231182098389e-01
-1.556913477721116046e-01,-1.294562842218753840e-01,-3.225016329036036744e-01,3.837694527585218396e-02,-2.357984423988683867e-02,-1.320909811010774829e-02,1.987462341785430908e-01
-1.975448648115485095e-01,-1.571963928509726438e-01,-3.615769980161515074e-01,1.888779257061562813e-02,7.558702399065956104e-03,1.245029940297393695e-02,1.919887065887451172e-01
-2.707292986506527610e-01,-2.140277319971390924e-01,-5.749663042389633327e-01,9.208709327229246122e-02,-1.831088244786586994e-02,-3.402327303772314376e-02,3.780802190303802490e-01
-1.398045286843851154e-01,-1.453355405851335658e-01,-2.871648219052618245e-01,-1.464571400823006311e-03,-1.107887320386069779e-03,-2.956405592383632801e-06,1.447090655565261841e-01
-1.484818321056892432e-01,-1.472400705223643191e-01,-2.874370697397789498e-01,-1.278354087264009812e-03,1.349870078436201358e-04,1.301527078936064955e-04,1.395982056856155396e-01
-1.287361500726884600e-01,-1.660738474682473542e-01,-2.956340917808004676e-01,2.145976319238520995e-03,1.821581581166888467e-02,-1.608661357063582422e-03,1.550305336713790894e-01
-1.598669199528453821e-01,-7.500846468493405084e-02,-2.982335004636540443e-01,1.030257033108809448e-03,-2.145247387205318889e-03,-2.812471947798323921e-02,2.011910378932952881e-01
-1.634534294628597617e-01,-1.395770778936973322e-01,-3.003500162844950916e-01,-4.321637341712615370e-03,5.238464172567016688e-05,-3.049228489879072385e-03,1.505432724952697754e-01
-1.439043887698417401e-01,-1.797541453169754777e-01,-3.399761919186667924e-01,1.685220565423496339e-02,2.135948076832830042e-02,1.904315554179104863e-02,1.897599250078201294e-01
-1.830419342526514448e-01,-1.381795943072050004e-01,-3.268092720359312420e-01,3.849786035118128898e-03,-7.686535275169880353e-03,-1.044897197875595089e-02,1.722807884216308594e-01
-1.900649076789691638e-01,-1.528769907635982028e-01,-3.426091302131998306e-01,-1.257273502438445781e-02,7.021470498293415352e-03,-1.766043756436974643e-02,1.785589009523391724e-01
-1.417218640296900034e-01,-1.592681731760930974e-01,-2.948296374739148296e-01,1.931860946925395388e-03,-9.977390071205509848e-04,1.065626943962071993e-03,1.451928913593292236e-01
-1.649946029209909404e-01,-1.470007945777564440e-01,-3.042892089630775398e-01,-2.957202519200216161e-03,1.232022835915197239e-03,3.746251062488168857e-04,1.492126435041427612e-01
-1.618006495576143344e-01,-1.232531685066645677e-01,-1.914451493285394823e-01,1.126134634037557905e-03,1.755729096881978105e-02,9.926361929292654152e-02,1.843795031309127808e-01
-2.143878038999011415e-01,-2.266125760744220619e-01,-2.990102031187772957e-01,2.117069412379685156e-02,7.696627094762749366e-02,6.626722671778882690e-02,1.963821649551391602e-01
-1.576110843199964029e-01,-1.712087309377592348e-01,-1.490923509806427461e-01,-3.867784088364825418e-03,8.109736148152496549e-02,2.392327216352232652e-03,1.420059651136398315e-01
-1.527354487491219548e-01,-1.492059726698231337e-01,-2.894203391717468099e-01,5.607464412359026203e-04,-5.894761507103487338e-04,1.469703944301916439e-04,1.384907662868499756e-01
-1.970321737884299096e-01,-2.192717636186440888e-01,-2.672267061619955086e-01,2.161999763941203564e-02,8.282798627141627068e-02,4.690141839852166733e-02,1.801213473081588745e-01
-1.427437162444050445e-01,-1.418802351472209511e-01,-2.870842059291520698e-01,1.184485647116779528e-03,-2.716533486568852192e-04,-1.586949682093733479e-04,1.447897255420684814e-01
-1.302130273565264007e-01,-1.601178227008189514e-01,-2.844794283959449777e-01,8.328603496864507398e-04,2.037144547148724125e-04,3.699307306620898362e-04,1.417100280523300171e-01
-1.325956437921867737e-01,-1.549391855868341161e-01,-2.832413383349332014e-01,1.223998353240206413e-03,1.184670273918147793e-03,2.272372096556382953e-05,1.408407092094421387e-01
-1.557809915157774283e-01,-1.501968547528507725e-01,-2.923694341730437851e-01,-7.153139219157311204e-04,1.652811883938231166e-04,5.134263278541391145e-04,1.394730210304260254e-01
-1.546212269067983036e-01,-1.461317695750685985e-01,-2.892654593854293577e-01,-1.000837298749855664e-03,3.061481888946135572e-04,1.337805615579921959e-03,1.391145288944244385e-01
-1.585326376420858052e-01,-1.503564177474727981e-01,-2.962887530389864965e-01,-5.179380116163121578e-03,1.843892268549959150e-04,-2.792176176419427190e-03,1.423864066600799561e-01
-1.507005669726119712e-01,-1.501173532725013360e-01,-2.878814058087229566e-01,-2.036869466438712161e-04,2.252882234563996261e-04,-3.179194608233026974e-04,1.374754756689071655e-01
-1.697952394634011930e-01,-1.467422370451007818e-01,-3.043811284082733049e-01,3.405738748143643992e-03,1.576929105729036338e-03,8.184752499232709208e-04,1.476200520992279053e-01
-1.427045001163489146e-01,-1.573803366338576148e-01,-2.917696689541250388e-01,-1.248071122960626392e-03,-1.552224150075306184e-03,7.577240198005213414e-04,1.423438489437103271e-01
-1.486109149128169715e-01,-1.523529198145579799e-01,-2.894744625533724469e-01,-1.605769033155672598e-03,-1.399836895416219529e-04,-3.663537280012519947e-05,1.390583664178848267e-01
-1.377793748156242171e-01,-1.490714767853452694e-01,-2.693041490575248664e-01,-1.809648833266270379e-02,1.863618217838895058e-02,-8.100131860311374221e-03,1.347675472497940063e-01
-1.526030576342438660e-01,-1.488956652338270237e-01,-2.910489866159054473e-01,-1.603600975408114686e-03,-1.268567760940773025e-04,-7.021021150220112510e-04,1.403692811727523804e-01
-1.330706851006764335e-01,-1.728684244535438896e-01,-3.226032822982662918e-01,-2.835869568499065421e-02,3.462680009507264345e-02,-2.113693744291670132e-02,1.931670308113098145e-01
-1.470551715081039046e-01,-1.541474460984953165e-01,-2.898065463565025479e-01,-8.439322643248235679e-04,4.065796428216229830e-04,6.020813216285819192e-04,1.393540203571319580e-01
-1.467147799607507463e-01,-1.525567777335125608e-01,-2.890548332723705260e-01,-7.578677453267797454e-04,3.419146847467428884e-04,5.046976075049216083e-04,1.395209878683090210e-01
-1.501280084463106901e-01,-1.630227992499265754e-01,-3.004722829769384540e-01,-2.031523515975742957e-03,6.898400126808735449e-04,8.726301870169624617e-04,1.443852931261062622e-01
-1.501237996638729033e-01,-1.496998372716543124e-01,-2.885087143347391248e-01,-5.855667773291171278e-04,1.433643030872424967e-04,-5.361703575833488746e-04,1.386044323444366455e-01
-1.450022236383580465e-01,-1.524796624606574169e-01,-2.888598538264818827e-01,-1.154951441321253177e-03,-7.607173054172931825e-04,-7.493069535899741672e-04,1.402949243783950806e-01
-1.439394725064341851e-01,-1.485062363844207312e-01,-2.868989260244585449e-01,-1.473138391557909065e-03,-6.561889493688973386e-04,-4.874097134349413408e-04,1.407618969678878784e-01
-1.397008173865306457e-01,-2.668954791324390508e-01,-5.080778049207010927e-01,-1.748620488555145680e-02,3.817846410495750326e-02,-9.306967242452604192e-03,3.325273692607879639e-01
-1.946240139141681702e-01,-3.075380636509275067e-01,-5.628200253268589304e-01,-4.205426144164046975e-02,2.520757758186746578e-02,-2.243069410814466785e-02,3.398010432720184326e-01
-1.497291556696690451e-01,-1.440585632314999587e-01,-2.873773747807829015e-01,-1.578688952300785504e-03,-1.534791190171022298e-04,-5.003239837969226163e-04,1.405988335609436035e-01
-1.460130342974508000e-01,-1.637230628701363266e-01,-3.010395131738420882e-01,-2.787915631735926885e-04,-9.717772197435908940e-04,-8.324537378362149029e-04,1.469914168119430542e-01
-1.491566590946349358e-01,-1.565404046478049149e-01,-2.907876179996800037e-01,-1.190807377988995462e-03,1.068875608920594097e-04,-3.413817446216789626e-04,1.381040215492248535e-01
-1.471032235232588581e-01,-3.031822542456837910e-01,-5.815547882218050635e-01,8.686532609943528258e-03,4.384617027172382775e-02,6.454218093826550109e-03,3.891257345676422119e-01
-2.638286771529487762e-01,-1.768726457407512609e-01,-3.862979752531062738e-01,3.750394890506635742e-02,3.718475435584844835e-02,8.756363498237246246e-02,2.541248798370361328e-01
-1.474105139287891220e-01,-1.480101263712675086e-01,-2.883887542031506879e-01,3.431674148750982136e-04,-2.881055072357717028e-04,-4.632810223617294504e-04,1.406838148832321167e-01
-1.537246325091898014e-01,-1.458872694619787747e-01,-2.941515769791251955e-01,1.173100577230650702e-03,-2.292344948286602325e-04,1.100924838499985244e-03,1.445325165987014771e-01
-2.244081159299896322e-01,-2.000403370984624729e-01,-3.994288641857241529e-01,4.158179211505478451e-02,4.436348655945105551e-02,7.284288354015268363e-02,2.500013411045074463e-01
-1.416455317639372935e-01,-1.392544967055412974e-01,-2.866479772880458632e-01,3.284437058362287953e-03,5.118827940943550129e-04,9.679958714371710449e-04,1.463355422019958496e-01
-1.408735121737119400e-01,-1.427703003162143769e-01,-2.862030480448036762e-01,3.143905316850284948e-03,4.107515116914159891e-05,4.824038830483868634e-04,1.444955617189407349e-01
-1.469537181402520709e-01,-1.423211917625875067e-01,-2.897223576818276358e-01,9.923867094012732339e-04,6.961182062411075443e-04,-2.991799953894591743e-04,1.451564729213714600e-01
-1.487973096561113207e-01,-1.599004665405752701e-01,-2.944821834747290423e-01,7.634545440819873619e-04,-7.847062856172471162e-04,-2.999121168223512152e-04,1.404765695333480835e-01
-1.317513863894608228e-01,-1.505196339046368514e-01,-2.849970991879693938e-01,2.180482165341645403e-03,5.332120733249647287e-04,2.117373626217283354e-04,1.448295265436172485e-01
-4.393615496699979084e-02,-1.789041332901193937e-01,-3.516139638680861323e-01,7.272003428692887586e-03,-4.229414144736499612e-03,-4.547124166847777392e-03,2.676372230052947998e-01
-1.775451593620339108e-01,-2.667564638950343792e-01,-3.812532063023080786e-01,1.564779777810939784e-02,8.935154373033211972e-02,1.376084818907478101e-02,2.377736419439315796e-01
-1.492118110973528755e-01,-1.836870013930426704e-01,-3.249954985620306380e-01,7.164684333880440813e-03,3.820170189118231828e-03,-8.946032565677427455e-04,1.619519889354705811e-01
-1.459441499811315046e-01,-1.592030998291776300e-01,-2.953118041056334020e-01,1.149920330817039149e-03,4.637592778517839014e-04,-6.750686904939064321e-04,1.432201713323593140e-01
-1.460986550354178570e-01,-1.381925701992637590e-01,-2.865036585302171424e-01,-2.733238005944266160e-03,-2.447132790983900423e-04,-5.217309374053340004e-04,1.446012854576110840e-01
-1.418096908289757652e-01,-1.438056981011084923e-01,-2.884289332452263377e-01,-4.556804334102135083e-03,-9.635131079619548488e-04,2.511389241628778773e-04,1.458554118871688843e-01
-1.443580017304614271e-01,-1.479484524097789966e-01,-2.913471077797382125e-01,2.450427696585792334e-03,-1.179860842095484729e-03,-7.238330068272288932e-04,1.453089565038681030e-01
-9.605944556749773655e-02,-1.209326005798574410e-01,-3.085741365041488882e-01,5.072602359890093088e-02,5.192273359623729434e-02,2.664628568911079146e-02,2.417284250259399414e-01
-1.506453263761934336e-01,-1.470575406084983772e-01,-2.982637019833482839e-01,7.397453929454844701e-03,3.066432164157134512e-03,2.785703135038116590e-03,1.501643657684326172e-01
-1.466362726020749574e-01,-1.475716323221247239e-01,-2.977558515645781223e-01,1.183357049103573623e-02,2.250695371956878531e-03,2.667816788792912435e-03,1.521620899438858032e-01
-1.393701735997409097e-01,-1.462733990022913322e-01,-2.826194282590231976e-01,1.106048633011272840e-02,1.058793758195010135e-02,3.015936909388129347e-03,1.425121873617172241e-01
-1.468413822082032250e-01,-1.405196431590119699e-01,-2.847449332875925387e-01,1.686949179628897347e-03,3.039137350087850456e-05,-8.644661932242542104e-05,1.412009447813034058e-01
-1.506238159619409100e-01,-1.345118729665085722e-01,-2.827957973785709678e-01,-5.946844389843208671e-03,-2.039849117635330125e-03,3.941180477013612495e-03,1.415053009986877441e-01
-1.347886249732042629e-01,-1.482342613235218542e-01,-2.733801512740073880e-01,-8.280594032633927307e-03,-5.517407303238930708e-03,5.886123153918133497e-03,1.338876932859420776e-01
-1.625368212748068697e-01,-1.389546431195706477e-01,-2.438818904102322271e-01,-1.710079493381097895e-03,-3.481999556587971403e-03,1.994134584058064250e-02,1.016343981027603149e-01
-1.992202625414717376e-01,-1.561226479305585779e-01,-1.827528492439813579e-01,-8.403123259604688359e-05,-1.527235170553298271e-02,1.011801087514942465e-01,1.811929196119308472e-01
-1.868059430997853765e-01,-1.282880643748015581e-01,-3.121506248836330433e-01,-2.114349247380605326e-03,2.683392460037601918e-03,3.386184484325754918e-02,1.730474531650543213e-01
-1.538882490504572542e-01,-1.347014733743931991e-01,-2.895061279407208366e-01,-1.791781216184297346e-03,1.365714151100797099e-04,2.724933987491673631e-03,1.462681591510772705e-01
-1.639568434895658788e-01,-1.428426996189468001e-01,-2.951922698733647210e-01,-6.916861234861900820e-04,-1.381038520302780258e-03,1.489599846749113839e-03,1.430149674415588379e-01
-1.464728988167898760e-01,-1.476687439718169514e-01,-2.897898554338338428e-01,-4.978148801200107075e-03,-9.758859446022988444e-04,1.483549288406549804e-04,1.429932266473770142e-01
-1.567136623954031027e-01,-1.324954663793526666e-01,-2.870315009172820231e-01,-1.834760404391157880e-03,2.218222762409235191e-04,2.066604108434347969e-03,1.440429836511611938e-01
-1.360388449671418865e-01,-1.286339637750182896e-01,-2.533249693118231338e-01,1.904657383169369722e-02,-2.072652716024577305e-02,-2.849744294161142902e-02,1.396164447069168091e-01
-1.375699598546710756e-01,-1.372609056666714844e-01,-2.822098498299395741e-01,6.038942968945182170e-03,-7.863523513325509787e-04,-8.140568884274900635e-04,1.451852023601531982e-01
-1.436381375193570009e-01,-1.385136648242981383e-01,-2.832614358548901090e-01,3.136256585539928636e-03,-2.202185183599240145e-03,-8.918725380621419759e-04,1.424179226160049438e-01
-1.507814803815042681e-01,-1.436376677059641171e-01,-2.888896273325560204e-01,7.027495155925616958e-03,-1.587892151906579582e-03,-1.410329273937624417e-03,1.423839926719665527e-01
-1.467370697686792014e-01,-1.349450456208759475e-01,-2.823105930335337854e-01,7.120964656835341786e-03,-6.743543941376604987e-04,-1.248709923300382520e-03,1.423941105604171753e-01
-1.573792574374507092e-01,-1.713832824817337064e-01,-3.106017991472208584e-01,1.970389692108583113e-02,-3.077139383726798516e-02,-1.693919075679183386e-02,1.624613851308822632e-01
-1.473853030076116011e-01,-1.850496010403751279e-01,-2.137676566880377382e-01,-2.228360238419400084e-03,4.724460231135672872e-02,3.528287830513102911e-03,1.003661900758743286e-01
-1.250296049519318831e-01,-1.584371782113777050e-01,-2.801021938468056249e-01,-7.746068204009748869e-05,-1.428414906967605648e-03,3.128888695149785633e-04,1.413839012384414673e-01
-1.865170888610705457e-01,-1.487329686633220849e-01,-3.315138179227351545e-01,5.243521728531951899e-03,3.761427895998801976e-03,-2.919318880634870755e-03,1.675731539726257324e-01
-1.519172877841341862e-01,-1.504332554931507304e-01,-2.884068307441693402e-01,2.385482292783274914e-04,7.589150110746655789e-04,1.508460806912029857e-04,1.372447460889816284e-01
-1.431061035296970763e-01,-1.461859404062593182e-01,-2.887373743988546626e-01,6.129652738030885728e-03,3.986155926487531566e-03,2.009306202458881890e-03,1.447132676839828491e-01
-1.097599519260157030e-01,-1.687927781480142442e-01,-3.251731590839063157e-01,3.386777704129512179e-02,2.811062574004237480e-02,2.906141411095024968e-02,2.133463621139526367e-01
-1.428592681444504076e-01,-1.005251345816570996e-01,-2.208545939313740769e-01,5.895493563168032955e-03,-6.451093958862849122e-03,-3.402923427613757656e-02,1.219852492213249207e-01
-1.511871847445795947e-01,-1.526270462071154244e-01,-2.881546560218190556e-01,1.512082078662829222e-04,7.277242631034898824e-05,-5.538499551872171122e-04,1.362569332122802734e-01
-1.522240563525502632e-01,-1.471882940936567741e-01,-2.911171985249064176e-01,1.713719918460964451e-03,1.155088927660311059e-03,6.412125964301606303e-05,1.415235698223114014e-01
-1.631345799829473364e-01,-1.352255114240862865e-01,-2.569358874180346364e-01,-1.971137900009432842e-02,-1.245565746714094070e-02,3.123426096602251872e-02,1.294345110654830933e-01
-1.581864243067120090e-01,-1.316185199698142183e-01,-2.784704861941666998e-01,6.127889584250600236e-03,8.840990117614113504e-04,3.395833597502445102e-03,1.360859870910644531e-01
-1.598655788539630196e-01,-1.491876915503865253e-01,-2.953481089676472382e-01,1.043512667859358006e-03,-2.204349866436027124e-04,-9.653292343589605826e-05,1.411369591951370239e-01
-1.425555654574962583e-01,-1.354765055504237869e-01,-2.711533910559462135e-01,7.036365917230487897e-03,7.654810788739618713e-04,2.098743379833437842e-03,1.328960806131362915e-01
-1.373742355069021981e-01,-1.434349321385132159e-01,-2.733283077607823741e-01,8.151257300175202697e-03,1.563654159447998250e-03,8.218948892844116141e-04,1.338094025850296021e-01
-1.444046799131466219e-01,-1.576755264802831569e-01,-2.936570680480179996e-01,5.982859227817165400e-03,1.074874900706272556e-03,-2.958907039736186442e-04,1.434670686721801758e-01
-1.306087073605869397e-01,-1.509314950183795190e-01,-2.619265919959545830e-01,7.010808745450141169e-03,5.090420554824200486e-03,1.311484367261571329e-03,1.233653426170349121e-01
-1.391047684015105368e-01,-1.403507513219530989e-01,-1.932899292603880992e-01,8.138169874041071075e-03,7.663429593290886285e-03,1.104141065901397857e-02,6.008895486593246460e-02
-2.311559079729795796e-01,-2.009426889796109283e-01,-2.808914813362236029e-01,2.653308106561019092e-02,4.365097123259958217e-02,9.785360905773640705e-02,2.035764157772064209e-01
-1.383528050889393790e-01,-1.465780514389467548e-01,-2.869209761219520538e-01,1.715193799925282753e-03,-6.229981381046961232e-04,-1.751255485208930011e-04,1.446659266948699951e-01
-1.313165013315276131e-01,-1.516834984871709424e-01,-2.869463048696176966e-01,5.907752069235314152e-03,2.438013165306560700e-03,5.765460330543067339e-04,1.469328850507736206e-01
-1.483531592325244286e-01,-1.176468670108931913e-01,-2.760933514209151229e-01,1.088959708691483903e-02,-7.282526553673546350e-03,-1.186102224034570746e-02,1.487271636724472046e-01
-1.938428519244738135e-01,-1.586508607015679195e-01,-3.537415340770314609e-01,4.342985675453547856e-02,-3.189510493955485890e-03,-3.007963978612086808e-02,2.020805478096008301e-01
-1.567588782881669529e-01,-1.372156288391027934e-01,-2.807690292359139583e-01,5.116598306391008898e-03,-5.410554571152943228e-04,-9.469039185111182083e-04,1.351522207260131836e-01
-1.584321719279084828e-01,-1.336807794320825638e-01,-2.800898703177315818e-01,5.416922250289558406e-03,-2.807067768516874492e-05,-1.604610381900582793e-03,1.360888630151748657e-01
-1.530260920569004313e-01,-1.546991165481305386e-01,-2.898003611829470527e-01,1.602200940321471317e-03,-3.898905967810397289e-05,2.963790361807503880e-04,1.359747797250747681e-01
-1.336752843918592171e-01,-1.478104138172646742e-01,-2.492792628117508347e-01,9.169601717794434448e-03,-2.244851887384791481e-03,-1.624643210297630922e-03,1.104775369167327881e-01
-1.455178406263007984e-01,-1.460866401511375923e-01,-2.876574340110943373e-01,9.120751322220609211e-04,1.814701939779377797e-04,4.123836432528974524e-05,1.418652087450027466e-01
-1.477128194901656810e-01,-1.487576054891412425e-01,-2.887002675822592512e-01,6.491402108428736325e-04,5.318984440925176920e-04,-7.754686413342299950e-05,1.404755562543869019e-01
-1.515266856249847804e-01,-1.379774849269682635e-01,-2.831745846500756114e-01,6.708209922746283596e-03,-1.668420990781022866e-03,-5.912194747021073428e-03,1.398094743490219116e-01
-1.538288819765228910e-01,-1.206518391390528633e-01,-2.699405517578152836e-01,-1.534045489183557669e-05,-1.228328868159225004e-04,-4.545611366178026885e-03,1.360033452510833740e-01
-1.349677692871208146e-01,-1.821237257412357258e-01,-3.234454102539294773e-01,2.875445761112205983e-02,-4.609379777303947157e-02,-6.807414996139442287e-02,2.271922081708908081e-01
-1.524639676430792068e-01,-1.241957172689407696e-01,-2.688454080151537751e-01,4.900965939040698681e-03,-1.756282543624086137e-03,-6.758972842581258481e-03,1.336113661527633667e-01
-1.636513717673677981e-01,-1.446694196832460921e-01,-2.662520043879930687e-01,6.115030251282182160e-03,1.942251763542303367e-04,-2.336509612761869092e-03,1.138570904731750488e-01
-1.260723745084363356e-01,-1.562721881181187156e-01,-2.823006442754956158e-01,4.209832237577575825e-03,-8.404387190876471889e-03,-9.739042870204619139e-04,1.444615870714187622e-01
-4.009019296595456305e-02,-1.096383818961518541e-01,-2.718824798705204993e-01,-3.770770023398454379e-02,-8.662025014637626461e-03,-4.387783588763843044e-04,2.166452407836914062e-01
-1.893143283521239728e-01,-2.818269180276478658e-01,-3.658036307092014661e-01,-2.837021900504472539e-03,-1.105213874703641352e-01,3.424155120954993324e-03,2.451200187206268311e-01
-1.282643015766111172e-01,-1.576846273324365444e-01,-2.874191276626221758e-01,8.615057418627263463e-04,-2.874169832210298273e-03,-2.163928942103068864e-04,1.467670798301696777e-01
-1.064888818439372886e-01,-1.427920919432727476e-01,-2.530726245958795362e-01,2.965811371984799789e-03,-1.714993814168310621e-02,-9.327896695061558673e-04,1.356267482042312622e-01
-1.627376543189984204e-01,-3.020791846536975411e-01,-5.212856388988390544e-01,-2.350247227985264448e-02,-1.772093694786998352e-02,9.104755136156364795e-03,3.175846040248870850e-01
-1.847821656805907764e-01,-3.051385323028825702e-01,-5.354264233517669336e-01,2.302938130555952367e-02,-3.326864760194534615e-02,-1.254410058506200652e-02,3.172039091587066650e-01
-1.490020829367176558e-01,-1.636606283052841060e-01,-2.990168563884612607e-01,3.817807577900064384e-04,-7.497268864667668920e-04,2.453608273047722371e-04,1.432571560144424438e-01
-1.611631799499117224e-01,-1.676227657331409715e-01,-2.532094469495629885e-01,2.004516730840458921e-02,-3.604587580867080893e-02,-4.578223685335858911e-02,1.389641761779785156e-01
-1.428134089178648147e-01,-1.624296852491891319e-01,-2.591006695228311729e-01,-5.800526931140297972e-03,3.682334793238908367e-03,-3.169999238614748787e-03,1.086193621158599854e-01
-1.498413304340358854e-01,-1.356544234627871104e-01,-2.861580001508914339e-01,-1.565456883403320773e-03,1.052220136637269999e-04,1.508183798209847357e-03,1.439848095178604126e-01
-1.705730896423429399e-01,-1.391338352530276101e-01,-2.684356405716906147e-01,-1.942301409087903970e-03,-3.311990937000392540e-03,8.064756146995085556e-03,1.178201064467430115e-01
-1.500535695342496423e-01,-1.387568230661788693e-01,-2.868019950235152216e-01,-3.041097997675314742e-03,2.632027272548481653e-05,3.325666674809992516e-04,1.428308039903640747e-01
-1.213428426931571075e-01,-1.108906421890887006e-01,-6.992200052024966084e-02,-8.343771244800516490e-03,-4.187974234252656025e-02,3.733809726085526165e-02,1.089444160461425781e-01
-1.444491469864119249e-01,-1.411016126723899644e-01,-2.880866574036702876e-01,-2.110821863813499167e-03,2.654678393157044189e-04,2.472298412215814486e-04,1.453875303268432617e-01
-1.431830763113358662e-01,-1.350383976589959456e-01,-2.842612803766649821e-01,-1.450366524780871344e-03,-8.176582615530727897e-05,4.491922713128504462e-04,1.453456878662109375e-01
-1.427036655027694445e-01,-1.335245307094057032e-01,-2.827381946452262595e-01,-4.557324054530302766e-03,-1.171296351879743932e-03,1.502390247831811212e-03,1.450948566198348999e-01
-1.487630722607831135e-01,-1.337606417898122013e-01,-2.838562685332141622e-01,-1.401768954478547049e-03,1.213572215058585741e-04,-1.916614983982836153e-04,1.432062089443206787e-01
-1.406551162568144553e-01,-1.466985928073371859e-01,-2.889016767877237712e-01,-1.377498170464892206e-03,-1.819522044594794937e-04,3.340395476898342991e-04,1.453401744365692139e-01
-1.597911940330032921e-01,-1.502683715455995495e-01,-1.858190801953394922e-01,-3.927695266011842906e-03,-8.614759274689742785e-03,1.976993149531463753e-02,4.957284778356552124e-02
-1.519242575456679900e-01,-1.432726130912959639e-01,-2.158546064433182476e-01,-8.691079561758959654e-03,-9.650876884657046476e-03,3.796159875687030606e-03,7.255548238754272461e-02
-2.417748889018862535e-01,-1.830544818703158105e-01,-3.145317455728532385e-01,1.981695277335716247e-04,2.957867153492482488e-03,-1.084536232897083535e-01,2.198337763547897339e-01
-1.540844079701575997e-01,-1.370301381873381130e-01,-2.473824908844830806e-01,-1.675396258694577482e-03,3.868774798958519957e-04,-3.662586087213083336e-03,1.031291633844375610e-01
-1.591101711719782597e-01,-1.439165950173811881e-01,-2.180770551806015811e-01,-8.244858107158149416e-03,-4.824631744169975006e-03,1.424335639904546896e-02,7.406915724277496338e-02
-1.685872265507610823e-01,-1.369225149874274128e-01,-3.021316363194728738e-01,-9.963096338309199509e-04,-5.901974153510516083e-04,-2.205534828689268562e-03,1.519342809915542603e-01
-1.555524639687881350e-01,-1.330174754331648890e-01,-2.885209249664950626e-01,-1.645937340627753962e-03,-3.645870042085550921e-04,-1.758008770648990943e-03,1.456113904714584351e-01
-1.547678873806683786e-01,-1.299732148012717747e-01,-2.844470496645384872e-01,-1.382351234398998888e-03,7.502970422870294852e-04,-1.484629723600646746e-03,1.437388211488723755e-01
-1.494133518102990221e-01,-1.293286303935202719e-01,-2.791529570004344096e-01,-1.213709102112358164e-03,1.123376620862487655e-03,-1.528218485455470985e-03,1.409140080213546753e-01
-1.567616604106411848e-01,-1.329116999662624254e-01,-2.591473205938528701e-01,-8.865633544116437170e-03,2.420687077859713827e-03,-6.962653905749089517e-03,1.178658157587051392e-01
-1.462953127901151507e-01,-1.384054956705491612e-01,-2.870984445824057429e-01,1.640152107731641506e-03,4.885381876690237578e-05,3.639901997556955083e-04,1.449384540319442749e-01
-1.468845764235608142e-01,-1.422634015454823653e-01,-2.862271402820052435e-01,2.950037027188708721e-03,1.159262229481048626e-03,-1.344640721056116752e-04,1.418161690235137939e-01
-1.505749956863200734e-01,-1.443203016182795229e-01,-2.903668135775524517e-01,2.610600389946364508e-03,-1.200445620103133626e-03,1.739482802925915411e-04,1.431086659431457520e-01
-1.546894689751130425e-01,-1.540062576933004523e-01,-2.973258764013554378e-01,2.694061086686698123e-02,2.105579725076516320e-02,2.524170912516909143e-02,1.608164310455322266e-01
-3.204442935776036228e-01,-1.839333339160846015e-01,-5.294165285625703765e-01,1.973712895232555137e-02,-2.285078394040338402e-03,-2.450314701967765824e-02,3.062959015369415283e-01
-2.821231057950910892e-01,-1.770951238596900346e-01,-4.956106797759637361e-01,-3.901135605828950914e-02,-1.825407058313879491e-02,3.800320717119671371e-02,2.982079982757568359e-01
-1.643934369280836694e-01,-1.524788285294043644e-01,-2.984255037278314981e-01,3.631432416502206832e-03,-7.395210941610506298e-04,-1.259126442709661200e-03,1.405327469110488892e-01
-1.554149173798813344e-01,-1.453707369413404504e-01,-2.907270220177761710e-01,1.817558502447555934e-03,-1.076164314226977451e-03,-3.030996852083549871e-04,1.406520903110504150e-01
-1.569340261916854218e-01,-1.409676504777039874e-01,-2.898230101763364375e-01,2.395174264805659953e-03,-1.780325747014154230e-04,-8.599752596921917064e-04,1.416181027889251709e-01
-1.536250079006315494e-01,-1.515287842312302569e-01,-2.934691218607385910e-01,-3.674589836234094364e-03,-5.911304195448482306e-04,7.786775271155752269e-04,1.410577595233917236e-01
-1.640178667003464874e-01,-1.502127443721101019e-01,-2.998270236317251425e-01,-5.791758029750684053e-04,-5.866900835688641314e-04,1.457058858797868547e-03,1.432409733533859253e-01
-1.579111411640470586e-01,-1.291115133273871007e-01,-2.897921878835823528e-01,-2.807539086597330390e-03,1.849487354157307133e-03,-3.372466752472124719e-03,1.486209332942962646e-01
-1.614639184232140590e-01,-1.274981932081379332e-01,-2.897753568686329273e-01,-5.381310054107128543e-04,2.698159033220168691e-04,-4.087671488780594310e-03,1.484146267175674438e-01
-1.460294738615279253e-01,-1.275222968616325503e-01,-2.767308071511001000e-01,-6.734448591437308500e-03,2.796677998897278711e-03,-8.498677157873895868e-03,1.421987116336822510e-01
-1.506054988981875564e-01,-1.260773699136650827e-01,-2.690863751638170598e-01,-4.107746621105535720e-03,2.541587376472449668e-03,-6.245542287935121686e-03,1.331633627414703369e-01
-1.419477571495053603e-01,-1.423951970818052581e-01,-2.854845771166993895e-01,-3.589258579359171000e-03,9.068669717604559448e-04,-5.714575788486918936e-04,1.434604078531265259e-01
-1.605093837333058937e-01,-1.299595753311243440e-01,-2.815485901718386974e-01,-1.712441895306902493e-03,2.817914842230974230e-04,-3.522699648961740261e-04,1.388917267322540283e-01
-1.575934076518929472e-01,-1.243542830659914861e-01,-2.781650494715093846e-01,-4.628377751513588996e-05,1.797559017658992059e-04,-1.734719674289159248e-03,1.402112245559692383e-01
-1.579730390921080252e-01,-1.269301454813443752e-01,-2.812466756440162863e-01,-6.011220249982118834e-04,2.695490179869415841e-04,-6.636618724870518588e-04,1.413840353488922119e-01
-1.540529782104164414e-01,-1.586863397857561364e-01,-3.040215650743124387e-01,4.120451548303865653e-03,2.407306626979049090e-03,1.462419776851559168e-03,1.479591876268386841e-01
-1.558163905260798732e-01,-1.406429361168304859e-01,-2.897218063786045628e-01,2.479925934957391033e-03,1.178934902640441421e-04,9.460480392190792707e-04,1.421755254268646240e-01
-1.938939371492732489e-01,-1.637713958289258587e-01,-4.752792421892717556e-01,5.848105366115068093e-02,-4.548851021496105873e-02,-2.314947651332285861e-02,3.265524506568908691e-01
-1.650795907635946025e-01,-1.476556469401608673e-01,-2.989449534165884437e-01,1.325208137595173998e-03,1.136323001786867376e-03,3.890330098832213033e-04,1.434070765972137451e-01
-1.607713252818791794e-01,-1.422810635589933093e-01,-2.934567484786467229e-01,4.103114878564777072e-03,1.119380145141203641e-03,-3.959797580299390281e-03,1.431852132081985474e-01
-1.377327792252521221e-01,-2.001998329493898110e-02,-2.874681268692617642e-01,8.961165378663158224e-03,-4.516737032594688936e-03,-6.504890635257121146e-04,2.328220903873443604e-01
-1.479518364019519749e-01,-1.448552216856757446e-01,-2.876580435640140321e-01,4.494868626187889689e-03,-1.867574126890540493e-03,-1.594238098391276889e-03,1.415582150220870972e-01
-1.468004153194032435e-01,-1.406471356739586176e-01,-2.866802365051512869e-01,3.091512670296270131e-03,-1.194492048926475841e-03,-7.730170373477922600e-04,1.431771367788314819e-01
-1.517313167914340066e-01,-1.436963577361732858e-01,-2.920387888788374964e-01,3.586288623596514680e-03,5.847361685477323913e-04,-8.349358108945243535e-04,1.446368396282196045e-01
-1.335379304788818777e-01,-1.605657765051791974e-01,-2.922025341016677991e-01,-6.064922759231722023e-05,-3.403086009961396770e-03,1.196200649789536325e-03,1.471585780382156372e-01
-1.446476629503394007e-01,-1.373283723181536464e-01,-2.855007242839973092e-01,2.029075680333019063e-03,-1.130395199350429578e-03,-1.119960904599198639e-03,1.447205841541290283e-01
-1.486506661958345021e-01,-1.382999450646055228e-01,-2.876077103191668205e-01,1.758922354157474400e-03,-6.876624007279755592e-04,-4.498130686825940880e-04,1.444500237703323364e-01
-1.342413324759760274e-01,-1.567283930308658035e-01,-2.896170869536488501e-01,1.461725591306711801e-03,1.754068200751033972e-03,1.879874337299478461e-05,1.454956680536270142e-01
-1.405612968018817299e-01,-1.424021285115646962e-01,-3.323997236141980061e-01,3.350676216516367684e-02,-2.698498882459075821e-02,-2.458930717872015448e-02,2.093294262886047363e-01
-1.320932566096573724e-01,-1.595415891936234343e-01,-2.890011154928195936e-01,2.483727475472237781e-03,1.255126460976462585e-03,4.692674871419143229e-05,1.452235132455825806e-01
-1.416673237766274407e-01,-1.691358598038429362e-01,-3.025074243770762283e-01,2.333687645449884426e-02,2.885750989634283670e-02,1.980744629360641981e-02,1.658768206834793091e-01
-1.354930835262880551e-01,-1.516774531819206628e-01,-2.833204989435268439e-01,4.304833508760434919e-03,1.340771240469013992e-03,-8.832239461167001046e-04,1.406617015600204468e-01
-2.142610054292845567e-01,-1.917512148404489358e-01,-2.136665137053022911e-01,1.132673110221830634e-02,2.551796245650866934e-02,9.921402285615656125e-02,1.798952817916870117e-01
-1.528407588673443285e-01,-1.395750568973675443e-01,-2.898447775391335135e-01,5.451851693887052597e-03,1.508860712438435826e-03,2.568186547268851410e-03,1.444967836141586304e-01
-1.634604919987079075e-01,-1.262604209658417243e-01,-2.750751939084001840e-01,6.325680202630599991e-03,1.045459217196674810e-03,1.625913375426704319e-02,1.375142186880111694e-01
-1.462178583737211157e-01,-1.237274940134089896e-01,-2.501666672678981573e-01,8.148095014449348999e-03,4.179929818792560425e-03,6.494053088512262255e-03,1.184361651539802551e-01
-1.326215562698674910e-01,-1.436487336995839748e-01,-2.898096387637917881e-01,2.331619002239776126e-02,2.960561286670172418e-02,1.874131882867030238e-02,1.685540676116943359e-01
-1.627346810587306236e-01,-1.293536453406625986e-01,-2.783979229174889380e-01,-3.518287308820903896e-03,2.305184016848628122e-04,1.971505279683671494e-02,1.398448497056961060e-01
-1.471679162770216653e-01,-1.319399925123020401e-01,-2.844933393602930849e-01,3.218040589378570824e-03,1.912898034826459974e-03,1.539498508228215193e-03,1.457068920135498047e-01
-1.613209426021968984e-01,-1.463715379284306339e-01,-2.198666902541254187e-01,2.636316492325613096e-03,7.072570901041458054e-04,4.440543278893092569e-03,6.788092106580734253e-02
-1.325864311743112645e-01,-1.469862049195641007e-01,-2.723148164163379792e-01,6.740719492569284023e-03,6.294160144738184578e-04,1.519355481573445412e-03,1.336553096771240234e-01
-1.340853359421439184e-01,-1.515464984218132249e-01,-2.694889935738354891e-01,8.067281536450613896e-03,7.859723024785575385e-03,2.987990859988751916e-03,1.291591674089431763e-01
-1.381259073263422787e-01,-1.385239851116413234e-01,-2.506663725135367948e-01,1.083162960864388763e-02,5.103217961232813134e-03,4.092870401901489708e-03,1.144599094986915588e-01
-1.379882100020046742e-01,-1.394333359913190185e-01,-2.812348261899778046e-01,-2.518708561079497244e-03,-1.618128326410037164e-03,6.161306213678153804e-04,1.426278352737426758e-01
-1.505876196660858035e-01,-1.403835809057269179e-01,-7.378205784260231936e-02,3.637282975579095301e-03,5.223988208529839819e-03,7.255149066095642474e-02,1.453692018985748291e-01
-1.450362164161552447e-01,-1.399682934856054939e-01,-2.841313109211314192e-01,-6.064957646757677956e-03,1.248492617921742121e-04,1.202462620456662672e-03,1.421013325452804565e-01
-1.452201246166785753e-01,-1.354312547278243295e-01,-2.851672036477431171e-01,-2.654685914751186201e-03,-4.810719821248379607e-04,2.799636220574507864e-04,1.451654285192489624e-01
-1.589263254964707606e-01,-1.322672212288097671e-01,-2.866609070038604323e-01,-3.705183794304102874e-03,-7.117366230698198362e-04,3.717205743879340406e-03,1.432350426912307739e-01
-1.372699137017210913e-01,-1.457143529978452978e-01,-2.863319884554919037e-01,6.842849326090679439e-04,1.301071291982643879e-05,3.966813045494753929e-04,1.450308263301849365e-01
-1.394143049654155420e-01,-1.508301851935459070e-01,-2.882628671490192751e-01,1.280867261750823910e-03,5.381312354551817884e-04,-7.056991931155112740e-05,1.435018628835678101e-01
-1.283124133458088956e-01,-1.498748369698271188e-01,-2.803587712796742348e-01,4.585285184856459709e-03,4.261192438194351048e-03,2.353378876647681684e-03,1.429640054702758789e-01
-1.361532552183735700e-01,-1.520145872717770796e-01,-2.783769643297139273e-01,6.720900091292871838e-03,1.015615272952477988e-03,1.651895859260962742e-03,1.355363428592681885e-01
-1.304619019818486214e-01,-1.498394816457529755e-01,-2.829795365929501649e-01,1.128986049097683826e-03,6.099500569068385617e-04,1.122205261902149741e-03,1.438416242599487305e-01
-1.433623906506465984e-01,-1.469853765735683604e-01,-2.894339901860920050e-01,6.749057550337074886e-04,-2.840649690477490500e-04,2.299471199111508728e-04,1.443003416061401367e-01
-1.362730599749681915e-01,-1.492456839282074454e-01,-2.855337413556917059e-01,1.521386203980288829e-03,8.940590178304663781e-04,4.067140416450499532e-04,1.432500481605529785e-01
-1.721751297145748538e-01,-1.598441845156220453e-01,-2.177569152216881077e-01,8.762652493362704104e-03,8.041486237353989361e-03,1.605285714653200899e-02,6.316050142049789429e-02
-1.537044031381500364e-01,-1.346160701127814552e-01,-2.652986032280015283e-01,1.353335931061113578e-02,6.481163806150024194e-03,1.318399133637393299e-02,1.270617991685867310e-01
-1.760706029163484065e-01,-1.817411376313459725e-01,-1.295249405174456470e-01,-1.305483074907628572e-03,3.919711850371451062e-02,-1.534261425909663572e-02,8.822207897901535034e-02
-1.980188610028550400e-01,-1.913663256990819350e-01,-1.668246066047600340e-01,3.725118532072813245e-03,1.608968070633414946e-02,6.834496730925956887e-02,1.250647157430648804e-01
-1.443599416325975493e-01,-1.156069657835458869e-01,-1.531175706777046786e-01,-1.143665546735744414e-04,5.073022641319819247e-03,4.777495393832641851e-02,8.988782763481140137e-02
-1.418269443092765592e-01,-1.183474993885894055e-01,-2.096479077551925974e-01,-2.132172152643101604e-03,-9.035493188985335754e-04,1.447392516305085787e-02,8.595310896635055542e-02
-2.109554303476841863e-01,-1.777007919860840168e-01,-2.129660779393677816e-01,-6.335397916825189976e-03,-5.089570644083963973e-03,9.380556786805713254e-02,1.666533946990966797e-01
-1.482357416097270786e-01,-1.562755539258645909e-01,-2.264833075691214670e-01,5.654780937611058114e-03,-1.674327322847097774e-03,-8.499405220466190250e-03,7.667648792266845703e-02
-1.470775993279743732e-01,-1.423105157850344249e-01,-1.630327299634567739e-01,6.298349021366327722e-04,-2.944773812828361073e-04,-2.055614664591151521e-03,1.916970498859882355e-02
-1.865992730396254795e-01,-1.618091226107006286e-01,-2.361907507178545862e-01,1.129864336466589571e-03,-2.513409319366574288e-03,5.186708932971145075e-02,1.113400757312774658e-01
-1.386246820614053521e-01,-1.406819693865454524e-01,-2.764361424742521889e-01,7.901170304839718467e-03,2.896388277433793994e-03,2.089182986205717543e-03,1.376163512468338013e-01
-1.504079399075865242e-01,-1.363637378049278315e-01,-2.891682342231090552e-01,4.112571733856689588e-03,9.488148273432311149e-04,2.048749841636233245e-03,1.465144008398056030e-01
-1.411351593829012208e-01,-1.400283400986614690e-01,-2.853285347781851500e-01,3.438346836104476997e-03,4.697183210849917019e-04,1.188396539167233630e-03,1.448893249034881592e-01
-1.528464609606641211e-01,-1.351970695952832147e-01,-2.862909384683588465e-01,3.031621294821487938e-03,1.885822034408609314e-03,1.988365198318534522e-03,1.432628482580184937e-01
-1.474609262079798755e-01,-1.112854720230932321e-01,-2.863407129010365759e-01,1.117141399550560660e-02,8.502199428892312505e-03,1.128845439666320040e-02,1.630762070417404175e-01
-1.464836415300730388e-01,-1.493172753727098900e-01,-2.897952959336421719e-01,3.780029301309586944e-04,1.922857883566953202e-04,-3.732314944793185531e-05,1.419179737567901611e-01
-1.441921432910318046e-01,-1.443826989779823100e-01,-2.888786101519821292e-01,2.527570781459453388e-03,2.721471703639873844e-04,1.347313469553789385e-05,1.446583122014999390e-01
-1.333595600345717225e-01,-1.506865749147423550e-01,-2.860575315589459766e-01,2.883164171871758271e-03,1.334086875060360063e-03,9.222573572424275917e-04,1.449273079633712769e-01
-1.360906339948413923e-01,-1.515131292188554579e-01,-2.862203629031266905e-01,2.970701020507716689e-03,6.785042897643283298e-04,1.032801907238065564e-03,1.431519091129302979e-01
-1.326164010402738347e-01,-1.470333903309697932e-01,-2.802720809961695148e-01,4.849063841177760938e-03,9.222416553540256808e-04,8.802515273557766405e-04,1.412682384252548218e-01
-1.367436655300870163e-01,-1.501808634245813401e-01,-2.783587931123712167e-01,8.674249371182135571e-03,7.159554477183518659e-03,3.619398015188427572e-03,1.369353830814361572e-01
-1.322336849397590663e-01,-1.711733657475389414e-01,-2.963914006945024271e-01,6.772836787853815134e-03,3.633116294004727631e-02,9.005074652024181239e-03,1.625193953514099121e-01
-1.579604971053930329e-01,-1.490956423452168556e-01,-3.018863638514481806e-01,-1.640481398398601146e-02,3.522239929217713117e-03,-8.270273527033073294e-03,1.520489603281021118e-01
-1.471769157358516211e-01,-1.572511520609027047e-01,-2.953757711315401213e-01,-7.723567716134110105e-03,1.050681260560826745e-03,-1.365847622904360582e-03,1.440807729959487915e-01
-1.474839894808167851e-01,-1.568525838025101038e-01,-2.603651553832767584e-01,-1.102765525931737912e-02,1.032742014571030355e-02,-4.224431995683180716e-03,1.118513420224189758e-01
-2.236481636408604590e-01,-1.979891172525359011e-01,-2.513034899840018155e-01,-1.358650635591015371e-02,4.953599417150817558e-02,-9.108661295034217731e-02,1.869180351495742798e-01
-1.543375396586091630e-01,-1.523471789208542537e-01,-2.442192211022346515e-01,-6.950378079668067394e-03,2.651948190807146017e-03,-2.690496438783509213e-03,9.192014485597610474e-02
-1.515943617575191416e-01,-1.427304078246616759e-01,-2.826514776505503201e-01,-8.408928503256980769e-03,3.508446353421986689e-03,-4.997444873722695947e-03,1.368948668241500854e-01
-1.618307129242181341e-01,-1.302949675036256250e-01,-2.877369606002914693e-01,-2.131022757143551626e-03,4.552969472945598509e-04,-7.112681699787066006e-03,1.448566466569900513e-01
-1.407838763525886550e-01,-1.455376308363632853e-01,-2.759772429272102090e-01,-7.914799597927013597e-03,2.419199079294561284e-03,-6.972228581972586461e-04,1.336567103862762451e-01
-1.900218129556432711e-01,-1.666824721661298858e-01,-3.494803458347612302e-01,-3.858203896336805799e-02,7.732034054919791066e-02,-9.215962322973739185e-02,2.785221934318542480e-01
-1.273697540847027743e-01,-1.530927673344926188e-01,-2.759142268924228425e-01,4.159423805295178397e-03,3.444407749034649434e-03,1.241842501784365307e-03,1.378341168165206909e-01
-1.366225786037790491e-01,-1.531057923339839144e-01,-2.883832870832778728e-01,3.709075666968221583e-03,1.221920893236263204e-03,6.433794108105822963e-04,1.443900913000106812e-01
-1.310074133849620237e-01,-1.502711579639451900e-01,-2.845219568886803718e-01,1.546064783345414565e-03,1.859779011528134881e-04,1.302567322487229763e-03,1.448892951011657715e-01
-1.257028383012270267e-01,-1.524657495576775545e-01,-2.729992939113680128e-01,2.499687504373766279e-03,2.579690965438885021e-03,2.709595187018780209e-03,1.361291706562042236e-01
-1.363530163812748663e-01,-1.520160661604008645e-01,-2.862159390146866711e-01,5.336217069862404794e-03,4.107724543948195611e-03,7.142008206663058123e-05,1.431536823511123657e-01
-1.281137601445843099e-01,-1.497102431391083011e-01,-2.803619323230555072e-01,4.684305080397709910e-03,2.844062197612556592e-03,1.506248169501824647e-03,1.430202424526214600e-01
-1.258978624506399691e-01,-1.561995868787113273e-01,-2.817324599685264719e-01,1.970029566133791633e-03,1.719996501821389676e-03,1.785653114371706226e-03,1.432153731584548950e-01
-8.741613116624752378e-02,-7.036971578938326644e-02,-8.539392334506248905e-02,-1.422867945680683817e-02,5.209681628685940147e-02,-5.848887472432129364e-02,1.388259530067443848e-01
-2.030572854398794702e-01,-9.804454911513886539e-02,-3.176045925032031092e-01,-1.056988496710641046e-02,2.778032033103996698e-02,-4.372746491959309673e-02,2.111027389764785767e-01
-1.131566904075610863e-01,-1.259775960999826028e-01,-8.529268168678481865e-02,-7.826062581158201373e-03,4.068598455423318161e-02,-2.103222354058134971e-02,8.817524462938308716e-02
-1.544887895982847703e-01,-1.243933056599644538e-01,-2.703605292165115470e-01,-3.947607824035683985e-03,8.336310658845363670e-04,-4.802866746741229868e-03,1.339300274848937988e-01
-1.416115963988735515e-01,-3.101756556627349726e-02,-2.259751581659324160e-01,-1.090333671371054164e-02,1.457771717661824999e-02,-7.230381242551213450e-02,2.129696160554885864e-01
-1.528440818688469593e-01,-1.206238315221739854e-01,-2.679740289911438644e-01,-3.412485136678986312e-04,2.147881892763445205e-05,-6.661722797150060500e-03,1.346701532602310181e-01
-2.379028125962282803e-01,-1.385348146975953765e-01,-4.169703643713572605e-01,5.131920845344250214e-03,-1.291333826895492594e-02,-7.802175648161256694e-02,2.803109586238861084e-01
-1.235059782875179285e-01,-1.587135535925711938e-01,-2.832819683914464814e-01,-4.033574394152390254e-04,3.100130383658471298e-03,-5.646164927043981034e-04,1.455090790987014771e-01
-1.466004519114694760e-01,-1.642281178112593165e-01,-2.126144115888750907e-01,-3.269252510005349853e-03,3.294398747825574066e-03,-1.191852153661356398e-03,5.978118628263473511e-02
-1.297811035037923222e-01,-1.578995982672047327e-01,-2.702161888821850155e-01,-1.535636733070367592e-03,2.643742223065214010e-03,-5.198585440392291352e-04,1.288126260042190552e-01
-1.233483894923693147e-01,-1.641672195695637881e-01,-2.761239095600193094e-01,-1.813675972411058412e-03,1.684757116701840127e-02,-4.450509441883785701e-03,1.403254419565200806e-01
-1.385940697820244316e-01,-1.418469993940247031e-01,-2.595914329736855874e-01,-9.946550881842526268e-03,2.055115484826238337e-03,-4.041517738238051966e-03,1.208959072828292847e-01
-1.492067827043599970e-01,-1.443467358368729081e-01,-2.890555783013480928e-01,-3.940157891296559682e-03,2.288266698059886217e-04,-9.568974931319992753e-04,1.425147503614425659e-01
-1.380979415994566806e-01,-1.592685597205672210e-01,-2.937096285309774846e-01,-1.313783736855467232e-02,1.100525391339871387e-02,-4.053026356784010693e-03,1.493292748928070068e-01
-1.327677839760557088e-01,-1.486493893422707324e-01,-2.759818390772038610e-01,-6.927228452586946771e-03,4.407538625366771295e-03,-2.629804578242194921e-03,1.367881894111633301e-01
-1.582702674305263846e-01,-1.525808410948933935e-01,-2.985005360174256550e-01,4.697961276721254915e-03,-9.214972266056111914e-04,1.886415505355275215e-03,1.434369683265686035e-01
-1.339637961239330544e-01,-1.562354661242052467e-01,-2.885440769886550294e-01,1.533853222726005994e-03,1.853151449952599198e-03,-1.400245885120632869e-04,1.447955369949340820e-01
-1.258772787951579764e-01,-1.578693409768240630e-01,-2.904195365215067604e-01,-4.209880683032809177e-03,9.319350465425068827e-03,-1.205152103728381920e-03,1.521567553281784058e-01
-1.500479712442653046e-01,-1.635767128328944331e-01,-3.030740024245275333e-01,-2.633633326239550373e-03,-1.021794274849179571e-03,-1.556510925565668477e-03,1.468364745378494263e-01
-1.647762610656144933e-01,-1.382038849074586628e-01,-2.347706232736955778e-01,-5.742887175340880175e-03,-2.649133810906168299e-03,2.481456298517882228e-02,9.712106734514236450e-02
-1.568519408048130170e-01,-1.834241891571072314e-01,-3.392991895923595513e-01,-3.562706562681433684e-03,-3.646343537231907638e-03,-4.900051756860842982e-03,1.711579561233520508e-01
-1.579094284036610674e-01,-2.954469524873782338e-01,-4.718021817742515944e-01,-1.715236452561108224e-02,7.637347197721736092e-02,-8.152729669663001319e-03,3.047194182872772217e-01
-1.290962423715971696e-01,-1.541335356339383067e-01,-2.835377874199381254e-01,-1.471161803201645295e-03,7.368777487544156922e-03,-4.043632876604350544e-04,1.441601216793060303e-01
-1.356625141822271341e-01,-1.614623420236020179e-01,-2.918330412039001343e-01,-1.640129294803760495e-04,1.833749587141387345e-03,3.506134502846406276e-04,1.450387239456176758e-01
-1.394963139492572668e-01,-2.213265124721169319e-01,-3.633824372717122109e-01,-1.660390773304212114e-02,8.220447249570277115e-02,1.295030622397243432e-02,2.451600730419158936e-01
-1.624593938294879858e-01,-1.514207488102551347e-01,-2.774346045644534575e-01,1.386283108607352585e-02,1.608923101549634277e-02,2.285303810168987440e-02,1.324017792940139771e-01
-1.590882290368900165e-01,-1.573070106976194871e-01,-2.219891802669455294e-01,1.443521253201551953e-02,7.697602516427336228e-02,6.206738699171369944e-02,1.844718903303146362e-01
-1.534260218551146415e-01,-1.504440481627133952e-01,-2.935675709343188444e-01,3.257344792439405886e-03,-7.037074505953372231e-04,-8.061263638583371230e-04,1.417804956436157227e-01
-1.856311069937857383e-01,-1.269299351059777481e-01,-2.949609038959590812e-01,3.619771729828138301e-02,1.939751224327334461e-02,4.522916709197197932e-02,1.816955357789993286e-01
-1.292685240148109815e-01,-1.480449445377302609e-01,-2.776663838567300369e-01,4.934221444647042196e-03,3.903012556852731001e-03,2.333902887104078675e-03,1.404392421245574951e-01
-1.598492954929849885e-01,-1.273067614321159169e-01,-2.790203359796688543e-01,-4.099019289826348438e-03,-1.556913147629954532e-03,1.020688825282749929e-02,1.396749764680862427e-01
-1.503164955925541668e-01,-1.569124023989045269e-01,-2.251523495251438189e-01,7.685637805970837316e-03,3.814571216011094969e-03,5.293845405240033518e-03,7.385956496000289917e-02
-1.350593582980134655e-01,-1.174780295765279620e-01,-2.605312682065802354e-01,4.034318020048698744e-02,2.983830630821950741e-02,3.750691011253277224e-02,1.732981801033020020e-01
-1.576981137445239711e-01,-1.451626708147988332e-01,-2.913352011531712971e-01,2.190819055287927548e-03,-2.039647452376821938e-04,-1.467077147023390486e-04,1.403773427009582520e-01
-1.623579626585001101e-01,-1.345201583026601477e-01,-2.906493069785734407e-01,-2.235337863854553429e-03,-2.344707969852068304e-04,1.828989538548241424e-03,1.443265527486801147e-01
-1.476507694132650761e-01,-1.412453878046958655e-01,-2.882953330578326145e-01,-9.045799450792118028e-04,2.713462250896115009e-04,4.772174018396945438e-05,1.439634859561920166e-01
-1.492004825278904767e-01,-1.314921969687259107e-01,-2.836722665562274037e-01,-3.013133915201757131e-03,-1.619862394789770010e-03,1.277298459316285155e-03,1.442827433347702026e-01
-1.631605119189828146e-01,-1.529155339424343452e-01,-3.046630721965622457e-01,-5.486335194787704365e-03,4.337146730330614401e-04,-9.447755048791360501e-05,1.472022980451583862e-01
-1.532762119278081592e-01,-1.350859808467645695e-01,-2.831547662160254220e-01,-5.582808816434084269e-03,-1.899768429271833387e-03,1.409926905328546653e-03,1.402574032545089722e-01
-2.308795616198085210e-01,-2.026939370161288667e-01,-3.283413626943251229e-01,-3.142058304982394551e-02,-5.504164342311798630e-02,8.720907762521809548e-02,2.188767492771148682e-01
-1.862076570632561490e-01,-1.516113813129443266e-01,-3.022554323022867973e-01,2.088195627650001399e-02,-1.786124416870498929e-02,-3.865219547830023306e-02,1.594554036855697632e-01
-1.524035000794820571e-01,-1.338492349167224871e-01,-2.845296368065547421e-01,4.068238712081917799e-03,-5.880874475570614483e-04,3.695506062622621918e-04,1.424927264451980591e-01
-1.469407877465612189e-01,-1.292873219769341553e-01,-1.860590531457441965e-01,-1.919976033937826178e-03,8.257573675256455392e-04,-3.400130186173312696e-02,7.754886895418167114e-02
-1.640971496649150096e-01,-1.428015583551893453e-01,-3.083468951378223188e-01,8.938733542535798327e-03,-3.942228631424311153e-03,-2.005155315233154469e-03,1.569450944662094116e-01
-1.515641923603133767e-01,-1.206159999625139312e-01,-2.821086528954183659e-01,3.809052938721059923e-03,-2.244082314150539891e-03,-1.095411323399026089e-02,1.498611867427825928e-01
-1.545030113048275755e-01,-1.436093797368906133e-01,-2.823295115974598368e-01,8.338746670532699856e-03,-1.194770514555136293e-03,-4.609155123592387389e-03,1.346380263566970825e-01
-1.387519054009425656e-01,-1.542704898852123585e-01,-2.898326307394546442e-01,6.419840117086369688e-03,-4.402080010220378418e-03,-7.388584334921816099e-04,1.445858478546142578e-01
-1.392595046428426464e-01,-1.402111405173579461e-01,-2.856994314654527356e-01,8.714589566221841999e-03,-3.208232444168133361e-03,-3.359850944525172214e-03,1.469652205705642700e-01
-1.597918826993642016e-01,-1.816061535516624859e-01,-3.148067519194811537e-01,4.592241313235338740e-02,-8.432298557073020229e-02,-1.595708493651726637e-02,2.225882411003112793e-01
-1.308117988537813026e-01,-2.052043387376480121e-01,-3.283905489310102732e-01,-4.981007450397662711e-03,-7.420705284299362881e-02,-3.179446924299036276e-02,2.224868237972259521e-01
-1.336435456044581804e-01,-1.585694743529502126e-01,-2.446034449537205779e-01,4.024115259596898649e-03,-5.200513237937027210e-03,-1.925585712424090047e-03,1.015306040644645691e-01
-1.505872463217481361e-01,-1.489189187068177822e-01,-2.884802080871096686e-01,-5.491229465557700496e-04,-1.282929106555495691e-04,-1.230077393491908213e-04,1.387382447719573975e-01
-9.767777479483578940e-02,-1.070625352498498495e-01,-2.706013472751366278e-01,-4.155532956289227642e-02,-3.674507330528398868e-02,1.856633719983566758e-02,1.965529322624206543e-01
-1.411307815692764978e-01,-1.467905628244346450e-01,-2.850760774927044161e-01,-5.758099234549341784e-03,-4.251891969035869931e-04,-2.814160605290929587e-04,1.415550410747528076e-01
-1.297069560031078317e-01,-1.546016900076473966e-01,-2.854158745692910171e-01,-1.645092558626140697e-03,-3.080608025323310160e-03,1.003512428625840140e-03,1.450113505125045776e-01
-1.357587219421569347e-01,-1.442945584500746337e-01,-2.811465068226762232e-01,5.744784849491647340e-03,4.156773330495397434e-03,2.552738613650692469e-03,1.419149637222290039e-01
-1.437660398589613586e-01,-1.447585789263511336e-01,-2.888385305432510375e-01,1.870979578691929057e-03,1.690486010634983829e-04,7.620508582115444293e-05,1.446154415607452393e-01
-1.547853422214706121e-01,-1.537634472790192497e-01,-2.929804865746091780e-01,2.475043391510215428e-03,-2.017665239371756061e-04,-1.179209358691322377e-03,1.387906074523925781e-01
-1.483517943505363035e-01,-1.578183398144450966e-01,-3.026093655079681310e-01,1.600081916499119725e-02,6.796321250692172015e-03,1.072636101383626049e-02,1.538718342781066895e-01
-1.445121974818661392e-01,-1.489399719126817678e-01,-2.898406648062580304e-01,4.570216381615774780e-03,6.253911911362795362e-04,3.866657213057989560e-04,1.433902680873870850e-01
-1.514781221769380681e-01,-1.535175229613959524e-01,-2.887552213858993744e-01,4.793315644564413811e-04,9.752454592817339190e-05,4.128033392550725460e-04,1.362733542919158936e-01
-1.600032166329754535e-01,-1.413198276232214279e-01,-2.967724495129248075e-01,3.043596991925163076e-03,-1.634324185207585746e-03,4.369037407603414277e-05,1.471258401870727539e-01
-1.494227781003669153e-01,-1.478034566637805858e-01,-2.879810232960350880e-01,6.109593945780034119e-04,-7.266556114861522146e-06,-2.165472424317629076e-06,1.393789798021316528e-01
-1.483659469921667085e-01,-1.419058075012374076e-01,-2.892948338487679738e-01,3.577601484124726984e-03,-5.729664617000715996e-06,9.689782676182372547e-04,1.444102525711059570e-01
-1.484620857338541933e-01,-1.486797787647747560e-01,-2.872665362812679701e-01,1.010344138614116972e-03,-2.450842726405976662e-04,-1.692934529283286521e-04,1.387077271938323975e-01
-1.516460675415689796e-01,-1.503027879136179801e-01,-2.886787540759659931e-01,5.906466046723147243e-04,-6.796604575585865138e-04,-2.842105324773771505e-04,1.377189457416534424e-01
-1.455276751126315382e-01,-1.448187991907187444e-01,-2.869954158950823730e-01,-1.493672647603387508e-03,-1.162353002815516717e-07,8.722451248450333809e-05,1.418471783399581909e-01
-1.374972591115828091e-01,-1.355696068019608957e-01,-2.733441596072753166e-01,-7.251401080600281858e-03,1.614993607670297442e-03,-2.766271243278133150e-03,1.375081539154052734e-01
-1.462341146986921303e-01,-1.418101302294360599e-01,-2.854567414538770054e-01,-3.947028582290863959e-03,1.722680100217581717e-03,-1.117214308955865069e-03,1.416961997747421265e-01
-1.621921125936732488e-01,-1.379026372722405580e-01,-2.935424312926644963e-01,-5.376952945975223448e-03,1.911862436680251921e-03,-6.404524852743512069e-03,1.457877606153488159e-01
-1.669690778017280663e-01,-1.616857893200716323e-01,-1.405488208340684442e-01,-1.313958480314554936e-02,4.523744634555206673e-02,-4.513191120502151044e-02,1.155605986714363098e-01
-1.407026988551961511e-01,-1.359005933936509036e-01,-1.544968130774659887e-01,-7.722563800115311676e-03,2.226533512813451757e-02,-2.105254978004547639e-02,5.723074078559875488e-02
-1.722364146702370091e-01,-1.062565831230959656e-01,-3.172426347149446269e-01,-7.562721794103102399e-03,5.737542480778979551e-04,-2.295815734725506138e-02,1.915761679410934448e-01
-1.588245078162131840e-01,-1.362391546675589815e-01,-2.173113975649363927e-01,-6.693084496747093298e-03,8.468772363318995827e-03,-3.678556131876382224e-02,9.828960895538330078e-02
-7.842585844964231057e-02,-1.196004497536521105e-01,-1.799584302586175744e-01,1.893084080447906409e-02,7.239739344671525245e-02,2.677444713006614865e-02,1.636262238025665283e-01
-7.337473923980325496e-02,-1.310451992407808686e-01,-1.933551479610919333e-01,1.702145952784686828e-03,7.422712936178010867e-02,-8.643110066130929581e-03,1.660230606794357300e-01
-1.385680917823561842e-01,-1.559302174582621603e-01,-2.755074353972946644e-01,-8.550567228488936342e-03,7.315467977624904618e-03,-4.635585802944021394e-03,1.308457851409912109e-01
-1.649042436441752191e-01,-1.579816798785823595e-01,-3.065827389803956193e-01,-2.199509605231442580e-02,6.911261649813451452e-03,-2.055235979951812453e-02,1.548009812831878662e-01
-1.280921069957318137e-01,-1.605209874271015802e-01,-2.874489566802639340e-01,-4.232356876909080124e-04,3.324799177465423677e-03,5.054983179333976577e-04,1.459895223379135132e-01
-1.311840217224897742e-01,-1.588542963672880115e-01,-2.883541219350487794e-01,2.225868009718981032e-03,1.529026952438829580e-03,-2.186505966113472417e-04,1.454000174999237061e-01
-1.283464075876758204e-01,-1.573465199448638441e-01,-2.848578515290074997e-01,2.004059591275921762e-03,4.619152212854724473e-04,2.335551275669641358e-04,1.442596316337585449e-01
-1.260909636670163314e-01,-1.515812543069096907e-01,-2.739061989229099603e-01,5.005258145854696653e-03,9.984621366411613672e-03,-1.984054336264069122e-04,1.382230073213577271e-01
-1.430072589065531086e-01,-1.521394038802208470e-01,-2.910065996591728599e-01,8.075370524740981687e-03,3.466474200230310835e-03,2.321766377501236281e-03,1.445112675428390503e-01
-1.684198259200137548e-01,-1.579232452985407376e-01,-2.793703883488945494e-01,1.125603799119509821e-02,5.163929622516325209e-03,9.905520270132295996e-03,1.197466403245925903e-01
-1.337748696116533575e-01,-1.615248438710151224e-01,-2.904862722763857374e-01,7.882630740594370614e-04,-7.377579921352618759e-05,-2.702105727453702312e-04,1.448512524366378784e-01
-1.393762729327580052e-01,-1.774987109866660029e-01,-2.368789262369327131e-01,4.861213683608021224e-02,8.521190661952578183e-02,4.441043772437575782e-02,2.050183862447738647e-01
-1.915636889486306282e-01,-1.860002255485403155e-01,-3.619778970857367995e-01,4.345087221409746348e-02,6.790183327505551480e-02,8.686014012174220200e-02,2.686075270175933838e-01
-1.284021012081486557e-01,-1.560383743201394502e-01,-2.833713771780572710e-01,5.415173982950009270e-03,1.049946805497942517e-02,8.002386751660398208e-04,1.446273773908615112e-01
-6.851673476249467432e-02,-1.073062393541269477e-01,-9.130643841403349170e-02,-5.811098041319731492e-04,5.589199528349800966e-02,9.941250656076972697e-03,1.039674878120422363e-01
-1.435218086087902689e-01,-1.336707485799820128e-01,-2.827572853307054879e-01,1.306581185127481939e-03,-9.011465169408820492e-05,6.155707640436785481e-04,1.444349735975265503e-01
-1.430340581270552747e-01,-1.373278393104987172e-01,-2.848801722942327919e-01,1.476334415602396401e-03,-6.566758508358163087e-04,-7.927450859943022555e-04,1.448171436786651611e-01
-1.505271724168074643e-01,-1.385047218817052339e-01,-2.882747580252593145e-01,1.952128333251827198e-03,1.823937805827732371e-04,1.433172487579476557e-06,1.441753506660461426e-01
-1.484126219574595507e-01,-1.423372136732444226e-01,-2.861269102306057133e-01,5.910708856163866994e-03,7.970627671341999881e-04,3.835005915403194923e-04,1.412301808595657349e-01
-1.406608305474965070e-01,-1.426207522308012565e-01,-2.794084399382624762e-01,8.188165613819084823e-03,3.873716046167897768e-03,1.601544683682101051e-03,1.386962682008743286e-01
-1.465949141005163381e-01,-1.499378657061922748e-01,-2.900865640941618917e-01,5.230972912158438591e-03,1.862513789785813674e-03,3.639189430556283474e-04,1.421767771244049072e-01
-1.434352639132859542e-01,-1.308218119930285861e-01,-1.685513702383839296e-01,-2.897571279981706049e-03,-5.443120279801751289e-03,1.579318639567195079e-02,4.437413066625595093e-02
-1.464037274692071011e-01,-1.399917579107637366e-01,-2.894526578483517243e-01,1.337709785671339045e-03,4.745578106585768502e-04,-4.525623204547797856e-04,1.463830322027206421e-01
-1.490721335785623602e-01,-1.481120828436242043e-01,-2.876153475049965103e-01,8.311863116688956955e-04,2.897109890747415857e-04,-8.167973756778340762e-05,1.390341520309448242e-01
-1.488922710473027100e-01,-1.451598395493372551e-01,-2.873404847695933961e-01,5.817743558936327780e-04,-3.997553895206996141e-04,-5.209150404922311458e-04,1.403598785400390625e-01
-1.576171108237583718e-01,-1.469920572904802047e-01,-2.910704129945032581e-01,7.625952930086517647e-04,-5.903623428485656015e-04,5.247057047839127474e-04,1.390835791826248169e-01
-1.054465961726276657e-01,-8.439358166737832845e-02,-3.031381997525935956e-01,5.832151941076439000e-02,1.222983094460772246e-02,-7.954987318525379419e-04,2.331137210130691528e-01
-1.577213105603227361e-01,-1.495887619866982932e-01,-2.904688579718903152e-01,1.950706446382359646e-03,-9.975300440742095043e-04,-1.055603810508358139e-03,1.370597332715988159e-01
-1.649814284241071516e-01,-1.365645751369057859e-01,-2.952480822315368680e-01,1.665485619233917367e-03,-1.249990795365751644e-03,3.582975946306571693e-03,1.467317640781402588e-01
-1.514611687768445680e-01,-1.500324069818328165e-01,-2.869831625410720344e-01,2.121582483709173359e-04,-1.086257530668198245e-04,4.209359176499053031e-05,1.362426429986953735e-01
-1.757649388533520929e-01,-1.615482036860332593e-01,-3.366424717689593948e-01,1.018559619345379107e-02,4.426167248390606724e-05,-3.415961116389820435e-03,1.694612056016921997e-01
-1.657144415330663034e-01,-1.630993763414781972e-01,-2.455768697073595352e-01,3.098663075850374010e-02,-3.504047787443462930e-02,-5.403189916055494563e-02,1.480406969785690308e-01
-1.641009279778656293e-01,-1.538206952271546357e-01,-1.981805773479239918e-01,-2.545667223083565231e-03,-2.539129579551442639e-03,8.737481627893575742e-03,4.341964796185493469e-02
-1.323607323914955392e-01,-1.578393410528166618e-01,-2.634639570296675171e-01,4.898145060580887979e-03,-2.693178408338563114e-03,-2.064315047467123708e-03,1.208445578813552856e-01
-1.510040036001930319e-01,-1.329960904015271839e-01,-2.143355445377000956e-01,1.284543632952495941e-02,-1.950850098227011747e-02,-2.434010356872170350e-02,9.428531676530838013e-02
-1.426708635487002608e-01,-1.632297689718377742e-01,-2.479217901379140443e-01,3.026194909217245609e-03,-2.026646633016882318e-02,-5.639078332932301145e-03,1.034004017710685730e-01
-1.146255526837044875e-01,-1.856594888041944169e-01,-3.163154746910887272e-01,5.150282642234447344e-02,5.741752686648320114e-02,2.521605508510897306e-02,2.261709570884704590e-01
-1.220311638662215092e-01,-1.362934615594300625e-01,-2.128716888457886369e-01,7.408362939605081174e-03,1.423768736146775390e-02,3.252983191874030643e-03,8.924321830272674561e-02
-1.284542917435746445e-01,-1.505524722577334940e-01,-2.183037804051581321e-01,4.440299362488889581e-03,1.509145399725384321e-02,1.008475440399971479e-03,8.556404709815979004e-02
-1.148158391574849585e-01,-1.518562535711185657e-01,-2.663288705580266758e-01,1.358182335366756597e-03,1.785550222393669437e-02,-1.326917341792743354e-03,1.402973979711532593e-01
-1.437213801971999050e-01,-1.587653609844536240e-01,-2.943751151671451516e-01,4.374771277941425472e-03,1.359664281396902536e-03,-9.148130856218379594e-04,1.439510732889175415e-01
-1.293238279763999909e-01,-1.605469629641884111e-01,-2.710846818377705691e-01,2.268554892944760985e-03,1.565242727137441947e-03,-8.837628329769342409e-04,1.291121095418930054e-01
-1.558771818578818802e-01,-1.398281134855136054e-01,-2.914049432503003079e-01,5.286419991341312526e-03,1.305806733111804403e-03,2.953334211274227013e-03,1.446221321821212769e-01
-1.395521212413800005e-01,-1.898465594365459641e-01,-3.129134330545388920e-01,8.042039125395550672e-03,2.281616834906703348e-02,-4.883206023407356093e-03,1.602867990732192993e-01
-1.526860831762820725e-01,-1.339274062134202248e-01,-1.883061140078988449e-01,5.532801156875626590e-03,1.332887869417533067e-02,4.373421332147921226e-02,9.301460534334182739e-02
-1.382816034268546934e-01,-1.568873225143254668e-01,-2.902287356859994949e-01,7.023450356691906355e-04,-2.058812393240565686e-03,-1.141015716303611665e-04,1.436010152101516724e-01
-1.300559676055129121e-01,-1.786132013450899003e-01,-2.951036251580468894e-01,3.609083576398097737e-02,-5.345523543137274680e-02,-6.493432577984613319e-02,2.161335498094558716e-01
-7.687760821733718997e-02,-1.459504411357866183e-01,-3.017746070241603684e-01,3.228859811448300809e-02,-3.808324042081828124e-03,-2.496203827433288343e-03,2.073772102594375610e-01
-1.324217521110843676e-01,-1.606973895662316965e-01,-2.860252974222425859e-01,2.492309756562026413e-03,-3.489383666364404609e-03,-1.019831345646877996e-03,1.418048143386840820e-01
-1.499778404506307838e-01,-1.567956252959862851e-01,-2.938182814467594217e-01,8.822815103775001958e-04,9.543197446241211742e-04,1.509212128122503936e-03,1.405979394912719727e-01
-1.815491060520038891e-01,-3.492999395355476100e-01,-5.731154891761247594e-01,-2.044903094511462197e-02,-5.382052078816450258e-02,2.041947754445738034e-02,3.563345074653625488e-01
-1.339476549220365575e-01,-1.606063611198904340e-01,-2.948104737706820355e-01,-1.374792473100344865e-02,1.169279123644121655e-02,-3.427962769495100561e-03,1.526812762022018433e-01
-1.395742529576604052e-01,-1.407376263333340038e-01,-2.933114812945522010e-01,1.500359217729692676e-02,-3.649168014987073157e-03,-4.526469556544765113e-03,1.556739360094070435e-01
-1.595311557271964775e-01,-1.322601414333572367e-01,-2.898082011409058856e-01,-6.796992166240473391e-04,-1.657034202074808267e-04,-1.893238457002178717e-03,1.458794921636581421e-01
-1.453739296282594573e-01,-1.476086431024497270e-01,-2.913754055071149929e-01,6.369431487696111845e-03,2.579868734480209209e-03,1.775497030643726068e-03,1.454176306724548340e-01
-1.522586571289842594e-01,-1.447023568973329899e-01,-2.901445531015688362e-01,2.630917832630549989e-03,-3.899240196495416398e-04,8.301336245462477147e-05,1.418899893760681152e-01
-1.774301038443231726e-01,-1.440188049304897966e-01,-3.319617858856067638e-01,9.263945384133396091e-03,7.458433780737023198e-03,2.450714953752817712e-03,1.749337762594223022e-01
-1.902160577266981956e-01,-1.724464257272628198e-01,-3.651996599352502204e-01,1.580381913849962863e-02,-5.166332782053095502e-04,5.773420375931364625e-03,1.868006885051727295e-01
-1.528181562106051827e-01,-1.429627124077938460e-01,-2.896713401689591239e-01,1.324416917895957077e-03,-6.026425302861766348e-06,-1.132541450559851511e-04,1.420562267303466797e-01
-2.200127534326485612e-01,-1.434364024462043141e-01,-3.695713702563004355e-01,8.053130875036926956e-03,-2.600558306802789807e-02,6.717189877452528490e-02,2.354654818773269653e-01
-2.053851294848610121e-01,-1.930081524394000048e-01,-3.384956097870936986e-01,2.637423884945461552e-02,2.944471546340120954e-02,3.652287568395522904e-02,1.679542511701583862e-01
-1.520908282779591669e-01,-1.367206829473325558e-01,-2.869254161353178567e-01,7.671032426585302176e-03,6.180642191510942818e-04,6.584490762163243242e-03,1.442108899354934692e-01
-1.658919515352786644e-01,-1.076291586401991462e-01,-3.257625476454447666e-01,5.886806208480724507e-03,2.502677278537475663e-03,4.052152261241035586e-02,2.081259340047836304e-01
-1.492351395632673383e-01,-1.499386488996962141e-01,-2.879951618409729019e-01,8.359558240944297289e-04,-3.278277490977805409e-04,-3.268086339799863935e-04,1.384195089340209961e-01
-1.456093489661231810e-01,-1.528904575554432543e-01,-2.874762582331576999e-01,-4.884268777245616812e-04,-7.582435600454104623e-04,-5.851171261148174979e-04,1.383826285600662231e-01
-1.549749604056588348e-01,-1.509031713812168940e-01,-2.891575280167216766e-01,-2.587948401662409567e-03,3.054507128907846237e-04,2.313783693080289207e-04,1.363394111394882202e-01
-1.737781049951620249e-01,-2.509913553129476949e-01,-4.873498126678156295e-01,-7.392072505145053096e-02,-3.211994887716107527e-02,1.572211060615117881e-02,3.167122602462768555e-01
-1.511095322260483098e-01,-1.466968929431225199e-01,-2.867178616428582294e-01,-1.208785035390928450e-03,-2.137620297766562290e-04,-2.325874946701799546e-04,1.378846019506454468e-01
-1.311492514454965508e-01,-1.586662264775517417e-01,-2.756825218622799278e-01,3.716759453208117771e-03,-3.242414610078644933e-04,1.473111570346138141e-04,1.330855190753936768e-01
-1.260100465400618985e-01,-1.512601750536160805e-01,-2.801695093025816652e-01,-1.484661415105448679e-03,-1.667146280908553789e-03,7.940456568435983430e-04,1.432724893093109131e-01
-1.377728602340922981e-01,-1.574407612210905194e-01,-2.711258867855514954e-01,-6.370198421039750467e-03,-7.013488488362599506e-03,1.044921583765589558e-03,1.257762461900711060e-01
-1.595040230365309952e-01,-1.325636672701361873e-01,-2.964419402246843971e-01,-2.337531092833120862e-03,-1.617708126819756989e-03,-2.444757424107650567e-03,1.523453444242477417e-01
-2.362217379360270070e-02,-8.642027274340915999e-02,-1.265104578826831416e-01,-2.353213975388619358e-02,-8.353799877324198653e-02,2.351533531381255065e-02,1.797898858785629272e-01
-1.588869253833189443e-01,-1.258064368660011811e-01,-2.880243751156048582e-01,3.279024276173939361e-03,-1.475974671800769650e-03,-1.501708378041298128e-02,1.508577466011047363e-01
-1.692849977087413083e-01,-1.771061540586696958e-01,-2.811104160001046681e-01,-1.679821915038475291e-02,-3.801242799498349978e-02,3.490292277976073110e-02,1.432742327451705933e-01
-1.570918064617526921e-01,-1.486019933986983954e-01,-2.934070937597981210e-01,4.547709076766900602e-03,2.149458785306627851e-05,-4.841100895321281288e-04,1.409750878810882568e-01
-1.529181507917737048e-01,-1.517959748934464836e-01,-2.885077444161984750e-01,3.640899828000305431e-04,-4.829865443757439458e-04,1.215022337121046447e-04,1.361583471298217773e-01
-1.553706535739212136e-01,-1.488482348380648357e-01,-2.918871997171315069e-01,1.027066517869739369e-03,-7.050466325851289986e-04,-6.078547723942723593e-04,1.399124413728713989e-01
-1.523974270902566375e-01,-1.538395162153581852e-01,-2.918303867111351479e-01,1.013465367090086262e-03,1.243649096549139660e-03,6.919745089315602372e-04,1.387505382299423218e-01
-1.413404761632091888e-01,-1.560919273739201363e-01,-2.924068512741774817e-01,4.318305457557538446e-03,-2.829855264066086316e-03,1.278682882452659509e-03,1.445513069629669189e-01
-1.514616818152691724e-01,-1.531930413630713250e-01,-2.947160432178506650e-01,2.712261960993781612e-03,-1.555255244237409989e-03,3.303761124053985836e-04,1.425006538629531860e-01
-1.273467401594717274e-01,-1.163375685926472808e-01,-2.701115203331279080e-01,1.747605370839737035e-02,9.336479861237041711e-03,1.015918015022439225e-02,1.534994393587112427e-01
-1.589378592652138378e-01,-1.337417084251079080e-01,-2.912959320498093030e-01,-4.668235617777726290e-03,-2.088545053144724381e-04,-6.511865166338428636e-03,1.472451686859130859e-01
-1.537171461593439536e-01,-1.552894355652364722e-01,-2.924041836072293066e-01,2.007895848944293328e-03,-3.356999028379177748e-04,-1.807143696606546373e-05,1.379526853561401367e-01
-1.532275521724353606e-01,-1.303175586097840011e-01,-2.834445231377603069e-01,1.059103773160516770e-03,-8.607616282328650701e-04,-8.849061147202131206e-04,1.430822610855102539e-01
-1.870352219386698656e-01,-1.458452743900999771e-01,-3.193087993632363064e-01,2.398745607309126469e-03,2.934969235896396546e-03,-5.445051260458006089e-03,1.573953777551651001e-01
-1.674592161472549523e-01,-1.462573260238305972e-01,-2.902062870661036298e-01,1.830135768006127539e-02,2.100689020980596802e-02,4.115111055659254058e-02,1.597740948200225830e-01
-1.590530798760549369e-01,-1.414818275478679777e-01,-2.930248964981153614e-01,1.528093386764223412e-03,-3.059091415464218559e-05,-3.655454726488097908e-04,1.435919851064682007e-01
-1.516182089916668363e-01,-1.290910256119245925e-01,-2.816465106713992306e-01,-2.645394434572379948e-03,2.672250272043499419e-03,-2.134848201733180028e-03,1.428288966417312622e-01
-1.521304955727167951e-01,-1.348538633274429244e-01,-2.882304265407987787e-01,3.125122923598250106e-03,-5.164484551186277611e-04,-2.368106637603447067e-03,1.456706672906875610e-01
-1.520527409806545494e-01,-1.510648671209637861e-01,-2.764298252770415187e-01,1.138507770570382216e-02,6.537783804605682564e-03,1.079480223233311026e-02,1.282972097396850586e-01
-1.372016209701078515e-01,-1.513934921046807547e-01,-2.528015740442298154e-01,-7.788840445667005036e-03,3.686811753576257292e-03,-2.359536698636378535e-03,1.102889701724052429e-01
-1.217864519686481378e-01,-1.548892179412639236e-01,-2.811321858045470745e-01,-1.238359881711365885e-03,3.586607936863777431e-03,-2.364963203651588956e-03,1.458493769168853760e-01
-1.355654770408340204e-01,-1.477723024095254356e-01,-2.400780600927118758e-01,7.060445623815954884e-03,9.114819591015824521e-03,1.654829850912454452e-03,1.010105162858963013e-01
-1.238181767577322678e-01,-1.440586497582329595e-01,-2.116996903090737625e-01,3.857429273866062533e-03,1.443876733676966936e-02,2.904926065261713083e-03,8.396107703447341919e-02
-1.466465465431067150e-01,-1.402461797369098373e-01,-2.895193035126218950e-01,-1.380416562837291075e-03,-3.060030836572955049e-04,-2.081570895796160429e-04,1.461990326642990112e-01
-2.330700145033841875e-01,-1.083495798329967841e-01,-3.875589225798680149e-01,4.224101615416727545e-02,-7.866931660151166988e-03,3.791462296112232955e-02,2.618034780025482178e-01
-1.448016173338783075e-01,-1.627519952647529522e-01,-2.975191917234212835e-01,1.522773085800918288e-03,-4.304535910429364560e-04,-1.098412273420971844e-03,1.446190476417541504e-01
-1.494168369544480179e-01,-1.488230736575462398e-01,-2.869173285936566509e-01,9.544319969676108399e-04,-1.431723331307080003e-04,-1.763117213699245012e-04,1.378088146448135376e-01
-1.468733752649115931e-01,-1.514571314779250000e-01,-2.887652666597818052e-01,1.447055171490425635e-03,-1.741962418554125118e-04,-6.321833129938702169e-04,1.396835446357727051e-01
-1.546491928595357668e-01,-1.552743997496232875e-01,-2.937637615554578030e-01,5.994487211228280259e-03,-3.948646155392772426e-04,3.122775514379525570e-04,1.391935348510742188e-01
-1.479261848017780767e-01,-1.483660140066963562e-01,-2.868912710496743235e-01,-2.414116522905234579e-04,-2.240368053827039357e-04,8.535832202238807602e-05,1.387469470500946045e-01
-1.319600849989493174e-01,-1.580573527555875768e-01,-2.878837569527619156e-01,2.012694453131300045e-03,-6.457596341469012263e-03,6.723993997648844553e-04,1.451299041509628296e-01
-1.421877350288082709e-01,-1.702323037343024537e-01,-3.160770879951625978e-01,2.720818037479645537e-03,1.925232651165945195e-03,-4.836569084817836546e-03,1.620211601257324219e-01
-1.513509676364241940e-01,-1.546093479160998430e-01,-2.891696277184929720e-01,2.230547905559410703e-03,7.355341634055543145e-04,-8.623604983778587882e-04,1.362876147031784058e-01
-1.437686910279721564e-01,-1.408388662662835855e-01,-2.866134662506466535e-01,2.899966370687468483e-03,-1.794175772129578440e-04,1.769935413575487320e-04,1.444200277328491211e-01
-1.626551379840789902e-01,-1.966298879524951970e-01,-3.422083476042464545e-01,1.875190455393677472e-02,-2.517298742777299841e-02,-5.661631364637257323e-03,1.741994917392730713e-01
-1.612784297452673765e-01,-1.284185229911569970e-01,-2.875997196070268491e-01,3.731614567092755418e-04,6.274654465068516852e-04,2.604663152990779017e-03,1.456355005502700806e-01
-1.245286773665709446e-01,-1.605541640213925536e-01,-2.517188994608171582e-01,1.599756110493538895e-05,9.033145055553595815e-03,1.926769365088258342e-04,1.146211326122283936e-01
-1.686985320426059587e-01,-1.359451972985091239e-01,-2.830884556144940833e-01,-1.391625258258704203e-03,3.102616360232631366e-03,1.898722686567843460e-02,1.379156261682510376e-01
-1.616000515125362580e-01,-1.434148949598555156e-01,-2.988390096919352756e-01,2.342169588724837392e-03,-6.911091574526835677e-04,-8.140784607765561053e-04,1.472440958023071289e-01
-1.507261216992701047e-01,-1.201177001678224859e-01,-2.851864330155435834e-01,7.096573125670339703e-03,-1.149281644676999328e-03,8.246123328003708564e-03,1.532680988311767578e-01
-1.606416635394923020e-01,-1.273467178640690367e-01,-2.754830108016302903e-01,2.685599396365198361e-03,3.527344382351939572e-03,1.153874525261102194e-02,1.363052278757095337e-01
-1.414799707999909728e-01,-1.467722088489457621e-01,-2.883986894442198134e-01,-7.584485631138942726e-04,-3.539317554914203829e-04,3.015947174305257670e-04,1.443535983562469482e-01
-1.433968000928624309e-01,-1.422478950066551895e-01,-2.875916553474531234e-01,-1.069928337914227137e-03,1.375542571673667657e-04,2.331046387836706356e-04,1.447853446006774902e-01
-1.438084958673447045e-01,-1.379752536177422384e-01,-2.860094176530610932e-01,-8.249109000039199025e-04,1.676709927812902810e-04,3.540140600222171251e-05,1.452127844095230103e-01
-1.468015868180613526e-01,-1.373869102389781161e-01,-2.869568860503038943e-01,-2.200404825767473919e-03,6.292365353339015883e-04,-1.464244804847645307e-04,1.451462656259536743e-01
-1.466217081841436620e-01,-1.333002537038867064e-01,-2.804207946314171140e-01,-4.923449504248042508e-03,6.063031470824882096e-04,-2.736070330376465069e-03,1.412739753723144531e-01
-1.451396839490198265e-01,-1.404562377960126840e-01,-2.851005696107237197e-01,-5.521739547592312107e-03,1.013037286023049481e-03,-1.177822356425291652e-03,1.427066624164581299e-01
-1.609630776300195742e-01,-1.528802048979037986e-01,-3.004921260022448415e-01,-4.969346736646170631e-03,-1.237082891386486784e-03,-1.936298359872148716e-03,1.440534889698028564e-01
-1.529082304122091340e-01,-1.383270784828000421e-01,-2.903840294185820459e-01,-2.838546714782574660e-03,1.211526498428021174e-03,-3.257807026315466016e-04,1.454154551029205322e-01
-1.353580167061503303e-01,-1.510737741603244422e-01,-2.801121874842512627e-01,-5.944450623465454171e-03,3.323226400606490126e-03,-1.844464789860521692e-03,1.381129324436187744e-01
-1.548155076063777447e-01,-1.505570698596404577e-01,-2.901234008244555906e-01,1.152031871834641348e-03,-1.240623482884808525e-04,-3.187457392540039847e-04,1.375023424625396729e-01
-1.384461539040619249e-01,-1.486633073533160376e-01,-2.697174955253995310e-01,8.216060255979602822e-03,-2.944650396168176434e-03,-1.853825661303857729e-03,1.274133771657943726e-01
-1.479174109912082535e-01,-1.366420598434054112e-01,-2.801427755717461610e-01,1.424222273533459066e-02,-9.031878816265196189e-03,-1.314443877606489078e-02,1.430843919515609741e-01
-1.327432682009342668e-01,-1.604088100720084120e-01,-2.918803657213487335e-01,4.566494996769465513e-03,-7.906742804604531896e-03,9.837059173796337125e-04,1.481229066848754883e-01
-1.580845691870130243e-01,-1.390436159440007757e-01,-2.942635050776322703e-01,6.196640648473540278e-03,-6.966415172977528242e-04,5.137707826325095626e-04,1.470295190811157227e-01
-1.677336214760413724e-01,-1.568968228389367170e-01,-3.141660256615704805e-01,4.242778968358132397e-02,-3.556189685405762579e-02,-8.941157743810042302e-02,2.373274713754653931e-01
-1.521977854673147168e-01,-1.226203854119188724e-01,-2.809132305761610215e-01,4.626996098457124805e-03,-1.174016489669553795e-04,-9.711242256940331996e-03,1.469583213329315186e-01
-1.391906190027253631e-01,-1.444972215410306460e-01,-2.860673437867517488e-01,-7.662216924655105860e-04,3.251090654990840961e-04,-4.296544141102752760e-04,1.443057507276535034e-01
-1.404085325616005187e-01,-1.455594501802628671e-01,-2.885102226287437066e-01,-7.672238120002395452e-04,3.255351862208619249e-04,7.332352002274143698e-05,1.456017941236495972e-01
-1.416116189709406836e-01,-1.450737688032731898e-01,-2.879149793879828279e-01,-1.959824638209328902e-03,-5.752650767523458412e-04,2.283497288820038307e-04,1.446471810340881348e-01
-1.394524587214030498e-01,-1.425834388637817474e-01,-2.870580936811651385e-01,-1.353711557442355794e-03,1.563796225229103923e-04,-3.694153864810393505e-05,1.460843980312347412e-01
-1.553099208603032355e-01,-1.412607486300500315e-01,-2.913907635863475232e-01,-4.957549292742186725e-03,1.011962395375463853e-03,-3.021597489412857895e-03,1.439840048551559448e-01
-1.436754862699484159e-01,-1.451144484489309272e-01,-2.896887600642514826e-01,-2.328594304533829272e-04,-6.875388875568024026e-05,1.875958708199412578e-04,1.453001052141189575e-01
-1.526543290889215143e-01,-1.489356318953862224e-01,-2.945251834325768314e-01,-5.240428486425674146e-03,-5.845167403062797646e-05,-2.617260706671905180e-04,1.440532654523849487e-01
-1.341264912753798166e-01,-1.465711337991139063e-01,-2.838997025639480309e-01,-4.647352357631509036e-03,1.538051088294851813e-03,-7.746025831850870220e-04,1.442106068134307861e-01
-1.608733173292410390e-01,-1.339866599003294578e-01,-2.916477700201969836e-01,-4.944326223427063932e-03,-2.945648629349044163e-03,7.204152545144680390e-03,1.469558030366897583e-01
-9.497079512532108359e-02,-9.909819367330661988e-02,-1.072079528895264477e-01,-2.181525995701748266e-02,-6.045903532800756680e-02,4.037551829786278912e-02,1.319106668233871460e-01
-1.506460747920072007e-01,-1.669092402088630800e-01,-2.868750605330092629e-01,-1.785723946603142917e-02,-3.696994434496395088e-02,2.019771811228376901e-02,1.512882262468338013e-01
-1.298542777564514750e-01,-1.595371033227532542e-01,-1.326822221897901166e-01,1.874755782258594530e-02,-8.085829310826828098e-02,-4.635955688126386365e-02,1.670968383550643921e-01
-1.597557873188583666e-01,-1.606180738275155839e-01,-2.829150446976842481e-01,-1.230920989438629050e-02,-7.453309479537238019e-03,1.041290535159352694e-02,1.265276223421096802e-01
-2.511234607389898343e-01,-1.979305326015027289e-01,-3.427969288614597376e-01,-2.417277200143911134e-02,-2.636281648723172791e-02,9.880421555108197251e-02,2.218888849020004272e-01
-1.416029352034783029e-01,-1.446643482516450363e-01,-2.480154605711037963e-01,-1.305522580049590063e-02,-2.967099119943538126e-03,1.150640634508890738e-02,1.092801243066787720e-01
-1.508421784989112668e-01,-1.503020430426307286e-01,-2.878901521112505746e-01,-1.843491918013688612e-04,-2.989062556216024315e-04,2.777236156087841746e-04,1.373210251331329346e-01
-1.466563082506279481e-01,-1.501936892227735132e-01,-2.903510312740021915e-01,-6.188889473046191346e-04,-4.174489340987818362e-04,2.324934287238344943e-04,1.419655531644821167e-01
-1.482746896113111279e-01,-1.474297033729871365e-01,-2.869958463432240037e-01,2.506186366365332368e-04,-1.957943238598907308e-04,-2.185615615190972889e-04,1.391471773386001587e-01
-1.483938999566621897e-01,-1.476728518827019332e-01,-2.892270489372482656e-01,-2.530849662058234028e-04,-5.127113600746016501e-04,3.285653077191448253e-04,1.411996781826019287e-01
-1.426440225495215763e-01,-1.547766373849960853e-01,-2.890863935017672359e-01,-4.578861749205153688e-03,-1.914267379206278236e-03,1.043912716086628067e-03,1.410425454378128052e-01
-1.473429194787519991e-01,-1.481077192941975262e-01,-2.872486683904288407e-01,-1.294003010592320157e-03,4.668210009483487078e-05,2.971178459766521287e-04,1.395438909530639648e-01
-1.472065755601328907e-01,-1.413099395296725513e-01,-2.864329147692682431e-01,-2.995754849139444301e-03,-1.732367519011528373e-04,-9.594843907229843802e-04,1.423709392547607422e-01
-1.645011873430228255e-01,-1.403722904221515466e-01,-2.465769025845669371e-01,1.385362249002256105e-03,3.494828304802379362e-04,2.709459068911256908e-03,9.657727926969528198e-02
-1.997098245421882468e-01,-1.582282572939666121e-01,-3.429794631973284158e-01,2.331085706828225565e-02,4.849729820521344464e-02,9.354877639336602047e-02,2.512573003768920898e-01
-9.065808230100697029e-02,-5.471405075866232759e-02,-1.402406994138155616e-01,2.340248176892908635e-02,4.713088831943101908e-02,6.769921687586565040e-02,1.660998165607452393e-01
-1.356493851292261132e-01,-1.332463971486536891e-01,-1.807498262300214209e-01,-6.445110068463200158e-04,3.204344828458418649e-03,-4.987922475104532641e-03,4.748565703630447388e-02
-1.475612070082475968e-01,-1.258664759160781077e-01,-2.190334980137328413e-01,-6.026443594214062754e-03,9.796648477583657765e-04,-1.484374837044910751e-02,8.889525383710861206e-02
-1.655062083573957399e-01,-1.605215864695694605e-01,-3.273955881257210043e-01,1.991594992750319107e-02,-3.112617147890767155e-03,6.532815494265315284e-03,1.684844493865966797e-01
-1.109394144136031241e-01,-1.066543104951688942e-01,-1.133447840146781932e-01,1.444794586925104291e-02,-5.296780718631336621e-02,-4.609294079629606966e-02,1.243025660514831543e-01
-1.375422534283291531e-01,-1.427615453236423526e-01,-1.025588486694274520e-01,1.152457231895460607e-02,-1.665408814344540578e-02,-4.517040260003440250e-02,9.372986108064651489e-02
-1.599714578159042999e-01,-1.524802132238436136e-01,-2.061945805415574817e-01,4.351877253430900920e-03,1.702014190167389822e-03,1.673313597276978801e-02,5.868956446647644043e-02
-1.199922294363710840e-01,-1.307198807301783727e-01,-5.918081187701533519e-02,-5.629494524550794588e-04,-1.911328924452347644e-02,1.405069024913684766e-02,7.845154404640197754e-02
-1.372466067845890814e-01,-5.880221850877076495e-02,-2.892990449837968270e-01,-2.842370277895940600e-02,-9.966042796721303124e-03,2.066124777526011716e-02,2.126110941171646118e-01
-1.296845333896519126e-01,-1.639909819631026333e-01,-2.894141898816708913e-01,3.479232258236522515e-03,9.048671769575284893e-03,2.506835171840951851e-03,1.466681361198425293e-01
-1.669988036383430463e-01,-1.633380247890919845e-01,-2.396697832407275186e-01,-2.118966883440994743e-03,1.415302567959701198e-03,-1.463393279120075476e-02,7.888244837522506714e-02
-1.579881274994961171e-01,-1.615548944451136726e-01,-2.291906324405156570e-01,-8.083227770603419520e-04,1.979145091947403547e-03,-4.041577991046539295e-03,6.993761658668518066e-02
-9.606473092482990805e-02,-1.015331214837747881e-01,-1.045953295839542330e-01,2.085306837782188380e-02,5.969093989158355540e-02,4.235007644320542414e-02,1.320234388113021851e-01
-2.077752942994585683e-01,-2.446747935248582417e-01,-2.668932341497829985e-01,1.332552243431840353e-02,8.574986505695615657e-02,3.240046835778978562e-02,1.685712933540344238e-01
-7.433928415875590279e-02,-1.241025353247158097e-01,-1.796826425297275709e-01,1.360533596747976783e-02,7.123610966307583614e-02,2.896959727897342046e-02,1.631813496351242065e-01
-1.613806303215258586e-01,-1.539228163180444697e-01,-2.755389720861166625e-01,1.500434931607612377e-02,1.998564073462950549e-02,1.980489976105680866e-02,1.303437352180480957e-01
-1.355727149035293178e-01,-1.596629300892122572e-01,-2.455153191573450910e-01,-1.242912643190826434e-03,3.729954272323189775e-03,-1.540477310478370609e-03,1.003626659512519836e-01
-1.535523268690122123e-01,-1.452857763198505681e-01,-1.952285501735144257e-01,5.266214991746221569e-03,1.221814062913493962e-03,1.165214671226178118e-02,5.142720416188240051e-02
-1.533158487822673388e-01,-1.501748627566169836e-01,-9.913561954254274111e-02,6.655918940689083086e-04,-1.636895271322973610e-03,-1.262621884172566988e-02,5.712105706334114075e-02
-1.468004276980061640e-01,-1.303517129492959004e-01,-1.387971027988733341e-01,1.985053772625888086e-02,-4.620037726077864948e-02,-4.981946943078118667e-02,1.234279721975326538e-01
-1.339328548841630384e-01,-1.029370762301813902e-01,-1.395369571638716277e-01,-9.774339165014214043e-03,2.009088488229700264e-02,-6.366712149965718381e-02,1.217534318566322327e-01
-1.179810825594473644e-01,-1.121672793507173804e-01,-1.606044846057672337e-01,9.187056818029250976e-03,-2.312205951670060627e-02,-2.649468532246604044e-02,7.785473018884658813e-02
-1.774669140813467938e-01,-1.483619868556683430e-01,-3.295700705716618772e-01,-4.602828685191562123e-03,5.226817489389023151e-03,-1.792093333378910660e-03,1.690105646848678589e-01
-1.255348558067452269e-01,-1.208935946790349186e-01,-1.228923097124810515e-01,-1.239274804052783834e-03,-1.103378885417914158e-02,-1.767863305070308672e-02,3.638272359967231750e-02
-1.866564124155261628e-01,-1.624232311388841554e-01,-2.402026962454164027e-01,6.661073194853897768e-03,-3.827129514499916924e-02,-8.765411350788229750e-02,1.798025667667388916e-01
-2.667839299874140147e-01,-1.987334859985533386e-01,-5.915901348313917785e-01,4.944862874723240237e-02,1.791065251426752353e-02,1.608374421112910777e-02,3.759083449840545654e-01
-1.321322554090095525e-01,-1.438857903973577712e-01,-1.246837160719402732e-01,-1.116196230993387294e-02,4.877697448715489353e-02,-4.286339048668862811e-02,1.153444051742553711e-01
-1.542109759711704497e-01,-1.397253002755257656e-01,-2.858738630241584033e-01,-1.334175732645848447e-02,1.483930431610673908e-02,-1.459391617303759485e-02,1.458963602781295776e-01
-1.700455905601017670e-01,-1.417944184727067958e-01,-3.062000774535544867e-01,-6.908602690385259176e-03,4.398217854843616305e-03,-9.169472943354328373e-03,1.537405401468276978e-01
-1.388494611105156318e-01,-1.589041921708939098e-01,-2.916709072028467187e-01,-4.066882561859110415e-03,-2.590049114666618732e-03,1.372027420814457555e-03,1.441082358360290527e-01
-1.283321944716544483e-01,-1.529867876338819876e-01,-2.825137205192351786e-01,-1.433991529317421186e-03,-2.826237967629066823e-03,1.042132225840078493e-03,1.435684412717819214e-01
-1.439830872970152276e-01,-1.577856805947634999e-01,-2.911100793640540862e-01,-2.159205748175987722e-03,-1.105306759028864194e-03,1.245175714105575945e-03,1.408134698867797852e-01
-1.356047680453309479e-01,-1.463135883418399952e-01,-2.860095907808496429e-01,-2.499090501047426024e-03,-3.774144603633175781e-04,-1.430013233901345447e-04,1.454127132892608643e-01
-1.343960122145822500e-01,-1.554438905480959587e-01,-2.869220726902939056e-01,-3.415168623872848457e-03,-1.346888426786159226e-03,1.935432732120725106e-03,1.433475911617279053e-01
-1.399336968396202308e-01,-1.560052486455442700e-01,-2.330074883672199615e-01,-6.235267985237929501e-03,-1.284502162812783607e-02,6.644436026040402565e-03,9.038390219211578369e-02
-1.048786054601295592e-01,-1.700770268205914482e-01,-3.365713007053107719e-01,1.498706879749410470e-02,-3.371501369105128071e-02,-1.178437040870551275e-02,2.175474613904953003e-01
-1.278437507909702675e-01,-1.635281263800497098e-01,-2.796152661716142518e-01,2.285586992768489419e-03,-5.175499018306006956e-03,1.233958142004466622e-03,1.378139853477478027e-01
-1.369837278663135205e-01,-1.522299239996823816e-01,-2.301171494588262478e-01,-4.672074587413993334e-03,-1.322241952718411495e-02,5.033898757697003422e-03,9.029038250446319580e-02
-1.199405462827210500e-01,-1.475304321602524671e-01,-2.741995495150230666e-01,1.103434565388681718e-02,-1.866637098405152587e-02,-8.361618081288237775e-03,1.480586826801300049e-01
-1.465132454355186631e-01,-1.378175104018073416e-01,-2.859386752786544639e-01,-2.754535396656897662e-03,-7.546476984947727640e-04,1.485714076652602572e-04,1.440555751323699951e-01
-1.633842416843674650e-01,-1.297870679013533868e-01,-2.736738676375838342e-01,-3.959895038949472895e-02,5.196418217528193939e-02,-3.399124614131944500e-02,1.823986470699310303e-01
-1.550895891086838119e-01,-1.492604898041647588e-01,-2.884561260272876515e-01,-1.728673357295255843e-04,-8.252520491990606843e-04,-3.803372287747222168e-04,1.363839656114578247e-01
-1.168629941830717361e-01,-1.301583227443588175e-01,-1.604279572306449575e-01,-8.822581461313141679e-03,6.812498888197608682e-02,-2.903615866111538407e-02,1.348381042480468750e-01
-1.566318508792709507e-01,-1.530223665326784777e-01,-3.065273781262443653e-01,-1.008545859887594910e-02,9.268042096443163775e-04,-2.041609995611908673e-03,1.527840793132781982e-01
-1.206750051027587478e-01,-1.059780345823914394e-01,-2.243745984732006260e-01,-2.623133004178674482e-02,3.664032868552177108e-02,-4.713284944356362083e-02,1.589024364948272705e-01
-1.419377417319472034e-01,-1.273593056040929483e-01,-2.813729623630102372e-01,-1.476788135210761570e-02,1.169183654095939419e-02,-1.331989437193943637e-02,1.525912433862686157e-01
-1.452783352290193952e-01,-1.287983208081127928e-01,-2.845300920403723288e-01,-1.242763158184609362e-02,7.869087646963637481e-03,-9.757122874420792735e-03,1.513017565011978149e-01
-1.592521853851208424e-01,-1.643390019451802242e-01,-3.296493570722123789e-01,-2.470708758896659682e-02,8.874940577102833836e-03,-4.712145200587447742e-03,1.741508543491363525e-01
-1.414897159267464177e-01,-1.405129895036995868e-01,-2.847459358553241504e-01,-3.587738659450581853e-03,-8.434339453579953226e-04,1.067465902574510220e-03,1.439006179571151733e-01
-1.430120587141222865e-01,-1.396781741658243980e-01,-2.624372651866059281e-01,9.423326261399932180e-03,3.757775898359562612e-03,1.350086906484934332e-03,1.224168017506599426e-01
-1.431747639511618542e-01,-1.384596213338204762e-01,-2.689315676423084112e-01,1.092834882155018471e-02,1.110595879573075644e-02,8.093468175814116233e-03,1.317375898361206055e-01
-1.713973743665808125e-01,-1.372423943626780996e-01,-3.321844782094692250e-01,-1.310641468972608727e-02,-1.507611911861240443e-03,7.742181112475034384e-03,1.822435557842254639e-01
-1.487880870606761996e-01,-1.167894996643613348e-01,-2.123485472316399558e-01,3.483330681751753422e-02,5.616064827842106449e-02,6.738743329501803436e-02,1.839103549718856812e-01
-1.714720151560038541e-01,-1.365278089413916596e-01,-2.935654985179522725e-01,-3.218609233435226757e-03,2.265209979310157072e-03,1.952807247640188718e-02,1.469179540872573853e-01
-1.649925854207678622e-01,-1.361738289617171471e-01,-2.663610319719767472e-01,3.029361729526599666e-03,2.769008298039558197e-03,9.736065077792423889e-03,1.198428198695182800e-01
-1.414756177381430446e-01,-1.384080082983623339e-01,-1.933552278538777369e-01,1.569884958601958785e-02,5.194982164463756574e-02,2.776050169093196782e-02,1.183541342616081238e-01
-1.424204243559534233e-01,-1.626840989870666776e-01,-2.629762158053521315e-01,2.256162618844368209e-02,2.990776876910961751e-02,3.085639481941179763e-02,1.398866325616836548e-01
-1.450583914633276073e-01,-1.571968850778980298e-01,-1.918436216097968161e-01,2.593658565840629635e-02,4.384453134951626918e-02,7.470843988918154932e-02,1.621650457382202148e-01
-1.332190870514122216e-01,-1.557314274043931079e-01,-2.489784926156634326e-01,9.405189666864878853e-03,-2.769881043050392844e-02,-8.399110240555333895e-03,1.186579540371894836e-01
-1.216747855230120440e-01,-1.293879870251032072e-01,-1.733634238566673091e-01,-2.681233725971177151e-02,-6.766383801742172077e-02,4.631590529045154225e-02,1.570347100496292114e-01
-1.434210977412333499e-01,-1.647957606899271288e-01,-2.595650590253346102e-01,8.482708653811383767e-03,-3.675765488683188642e-03,-2.538685366692213646e-03,1.083489507436752319e-01
-1.236730704042841439e-01,-1.583978635042012639e-01,-2.831238022467789106e-01,7.459751985922569910e-05,-1.497983572825265560e-03,-6.519679575288793612e-04,1.452634781599044800e-01
-1.454033346630042578e-01,-1.566104620488216748e-01,-1.174385175126616276e-01,7.433614685907884156e-03,-5.549900807202329950e-02,3.777417113361263880e-03,1.032958775758743286e-01
-1.132375018925735610e-01,-1.281230855673478608e-01,-9.789014164191961465e-02,-1.561823876218499611e-03,-5.636302918849257076e-02,5.497577226720866926e-03,1.015575602650642395e-01
-1.664005963135748167e-01,-1.529103644452565747e-01,-3.009373403295204641e-01,-9.351986569898720512e-04,-3.559852520573700534e-04,1.192180104449165829e-03,1.417897045612335205e-01
-1.185452022910804676e-01,-1.545697897109530317e-01,-1.957014993083427135e-01,-3.120253408983757887e-02,-4.996337215091709028e-02,6.381079236789601039e-02,1.646104604005813599e-01
-7.331724517314473777e-02,-1.644015195307145794e-01,-1.740474718420222944e-01,-2.095556675354786486e-02,-9.691067866310791590e-02,1.023324995902522710e-02,1.976729333400726318e-01
-1.511717675022125340e-01,-1.315597509694459155e-01,-2.857260120506263656e-01,1.058730805366055877e-03,1.159220746957193449e-03,1.236680657044662368e-03,1.453971713781356812e-01
-1.554525972487895147e-01,-1.249075093839889655e-01,-2.790829057723439588e-01,3.395042714415192828e-03,7.440782766078542568e-04,3.164406695968628464e-03,1.416334509849548340e-01
-1.407271030973466508e-01,-1.174925133518515130e-01,-2.034010523161475792e-01,-1.790499246975428473e-03,-2.771246378020062514e-03,1.828028719263741220e-02,8.342204242944717407e-02
-1.528637447095066437e-01,-1.398303447328779758e-01,-2.755422619298085740e-01,1.694101374694258547e-02,1.574640420019998710e-02,1.366380716997505143e-02,1.377815157175064087e-01
-1.563495683364644895e-01,-1.235556425044441464e-01,-2.788264300065857459e-01,-4.897108449988597009e-04,2.070573687334887768e-04,-1.782457540102869858e-03,1.417846977710723877e-01
-1.595366411643994731e-01,-1.260217522764439657e-01,-2.739856090942742739e-01,2.005130020911190247e-03,-4.967422558656314118e-04,-3.939896985867104989e-03,1.345991343259811401e-01
-1.598189432337586979e-01,-1.272313844245281100e-01,-2.805461502939070040e-01,8.557702122559733776e-04,1.162376554625753756e-04,-7.121200524867346907e-04,1.399105787277221680e-01
-1.593232514522913146e-01,-1.252244071378699197e-01,-2.807297707566761558e-01,3.078191494738537334e-04,-3.430892361486754649e-04,-1.729001367485882412e-03,1.416040360927581787e-01
-1.575130098018143188e-01,-1.290895864806093085e-01,-2.823813253449603544e-01,1.466064866477037902e-03,-2.595553119720403414e-04,-4.907542625373286123e-04,1.412676423788070679e-01
-1.511534302259852636e-01,-1.325771601174544623e-01,-2.196351910197400226e-01,-2.529223372068139901e-03,5.091606214134656444e-03,-1.514036609660777098e-02,8.421176671981811523e-02
-1.659044048442418207e-01,-1.346654418225871064e-01,-2.740725300812915100e-01,-4.032104863347864450e-03,1.023793134011819058e-03,-2.007297845217655315e-03,1.269617378711700439e-01
-1.581308960765611116e-01,-1.290877944418897250e-01,-2.805763632110702677e-01,8.319903754017890897e-04,2.961762255839887632e-04,-9.009576675079500373e-04,1.392744183540344238e-01
-1.594339137815739549e-01,-1.444498967120231847e-01,-2.946864621049534727e-01,-1.050928222212070160e-03,-7.480246676462665254e-04,7.365817617929924441e-04,1.433562636375427246e-01
-1.557812965796495086e-01,-1.217764167990479790e-01,-2.781454756771353232e-01,4.257761744614694654e-04,-5.463418215413774542e-04,-3.452296078311851459e-03,1.425745338201522827e-01
-1.776189389339124514e-01,-1.816575625812706929e-01,-3.138360084089359403e-01,-2.487322835983512767e-02,2.839209458577982362e-02,-3.211061104539456729e-02,1.593389809131622314e-01
-1.755556129719731961e-01,-1.712890722016612577e-01,-3.286650433159933327e-01,-2.338811154651248420e-02,1.104461101879603002e-02,-1.683766122404282972e-02,1.642298102378845215e-01
-1.737948408334045181e-01,-1.344526730126099912e-01,-2.965285591279770427e-01,-4.607316812160257855e-04,-6.407876919842104679e-04,-1.039719933002425378e-02,1.475335806608200073e-01
-1.541029552307849881e-01,-1.346977670385265391e-01,-2.885970921261734046e-01,-3.908737525768817174e-03,-1.814960127375702336e-04,-1.701118638980705314e-03,1.453606933355331421e-01
-1.541672637141836555e-01,-1.515662503350951595e-01,-2.897568878470428988e-01,1.971262880453814124e-03,-8.256381998149652044e-04,3.750386949653550760e-04,1.369602382183074951e-01
-1.513069344769894520e-01,-1.567389217811113178e-01,-2.915729026423222736e-01,7.034680919652620736e-04,-1.022681018093559314e-03,-8.697132332011028909e-04,1.376554220914840698e-01
-8.152295664997173674e-02,-1.085383042655866936e-01,-2.624711597141095587e-01,3.907419830677372891e-02,-4.237245873845253696e-02,-2.595790855761022017e-02,2.014244198799133301e-01
-1.320136726129468863e-01,-1.477970987543842096e-01,-2.779428462369720187e-01,4.788970666624358177e-03,3.476270976045498819e-03,1.610801753234843234e-03,1.391187161207199097e-01
-1.279267480991695682e-01,-1.449643793807922354e-01,-2.191994499410127029e-01,3.928435599662197242e-02,5.565504757234830679e-02,4.782899599166241800e-02,1.668861508369445801e-01
-1.502150760229673532e-01,-1.384451243933840225e-01,-2.759816711136980905e-01,9.267478944442242295e-03,4.917101940307452672e-03,6.384653875072626890e-03,1.337479650974273682e-01
-1.352575433409780870e-01,-1.425681780579643454e-01,-2.824718453057227796e-01,2.571721037942163637e-03,8.042685512234233700e-04,8.964532498415447685e-04,1.437826752662658691e-01
-1.733317126046039769e-01,-1.557450238782502328e-01,-2.851672842260730700e-01,1.532205648470304736e-02,9.411865197252249418e-03,2.301659925768211046e-02,1.316914558410644531e-01
-1.489281402271638299e-01,-1.293242705706800222e-01,-2.778631464595141543e-01,5.764700302409614917e-03,2.382647236553384843e-03,4.259892810858015647e-03,1.403828263282775879e-01
-1.658285341215333109e-01,-1.247297639943436010e-01,-2.928427269960356405e-01,7.876675497520210442e-03,1.363859924842310452e-02,2.242846952422565196e-02,1.590443700551986694e-01
-1.807332618471231278e-01,-2.001264306115044800e-01,-4.121350434202248891e-01,-4.256705354165906535e-02,-6.896056088216336033e-02,5.817345300199088659e-02,2.815852463245391846e-01
-1.254300975516041416e-01,-1.442581286293409537e-01,-2.145876391612284717e-01,-2.152351209988920613e-02,-3.100774700530130670e-02,3.285009818644688689e-02,1.188970729708671570e-01
-1.676620328631739931e-01,-2.300501098101219166e-01,-3.482152991877053294e-01,-1.349613724817371255e-02,-8.848342532675725070e-02,3.226146069335161792e-02,2.288758903741836548e-01
-1.552823382977362998e-01,-1.290731866341014722e-01,-2.155664657426897834e-01,-6.623307519372514766e-03,-5.425545337592787426e-03,2.838121042499294408e-02,9.239850938320159912e-02
-1.645244684572656491e-01,-1.422145833659180236e-01,-2.978982269692980189e-01,3.082542902147438315e-04,3.979789366537350996e-04,1.007481386883497771e-04,1.458171308040618896e-01
-1.344984670885200906e-01,-1.781264652811596350e-01,-3.057429146305877810e-01,-6.177425522134562860e-04,-1.018533754334834986e-02,-2.696864982707456739e-04,1.551437973976135254e-01
-1.518063876484097574e-01,-1.363517130651719644e-01,-2.870432872049250572e-01,-4.419742966947339848e-03,1.672211216016740464e-05,7.359923909673218682e-04,1.437989473342895508e-01
-1.467880423189570904e-01,-1.507303644329662795e-01,-2.903344109151601571e-01,-2.357416453535395723e-02,-3.411224188938010576e-02,2.344842804212161208e-02,1.638988703489303589e-01
-1.306008686662036844e-01,-1.482837130093871969e-01,-2.828229240566944580e-01,-2.528417671551298328e-03,-1.298080169935658060e-03,1.935841612330109355e-03,1.443190723657608032e-01
-1.539353453040672726e-01,-1.590849379373425743e-01,-3.013770722097292021e-01,-1.520393040415662228e-02,-2.549689318661699407e-03,2.760021545742142538e-03,1.474522054195404053e-01
-1.651427589868860180e-01,-2.031339555106634887e-01,-3.745726596314384871e-01,-1.035036738661978574e-02,-5.594371892130074351e-04,2.874661210323034306e-04,1.940883845090866089e-01
-1.337715922748350106e-01,-1.474159044980293265e-01,-2.848187498300938092e-01,-3.854728315380398854e-03,-1.158702904626792698e-03,7.633350852735602083e-04,1.448821276426315308e-01
-1.480243197262917088e-01,-1.519754106078503308e-01,-2.964621802054240862e-01,-4.449448595829938284e-03,4.461677837260876888e-04,3.391537936261693090e-04,1.467080563306808472e-01
-1.609925066549247330e-01,-1.415468095064634779e-01,-2.922165320347870354e-01,-4.486895691423461530e-04,-3.174700832369595693e-04,-1.851158938242526307e-03,1.419887691736221313e-01
-1.323845530877252041e-01,-1.556514485328805708e-01,-2.837318787593795522e-01,1.266612921203758750e-03,-6.168185823265234704e-04,-1.496932174012632021e-04,1.411807388067245483e-01
-1.249938915781144688e-01,-1.606507291420290473e-01,-2.820295401351063935e-01,1.686062937074237758e-03,-1.158893289231223249e-02,-1.111132500242473448e-03,1.440394073724746704e-01
-1.336058824099777276e-01,-1.486966676210278449e-01,-2.839889047775076003e-01,1.062505237935861598e-03,2.332920431572230635e-04,1.862211044245223380e-04,1.434469968080520630e-01
-1.240741981285512219e-01,-1.531621431667679889e-01,-2.795903361446788749e-01,3.041155958830794957e-03,-4.416050901832627379e-04,-1.903413218173608586e-04,1.433044821023941040e-01
-1.513049391388093246e-01,-1.352478111263665794e-01,-2.831557067501814795e-01,2.102082708536096717e-02,-1.658663643982478605e-02,-3.733211740247381616e-02,1.615290641784667969e-01
-1.523183957338259120e-01,-1.278149103842643186e-01,-2.570851389901408490e-01,-6.566486507808944918e-03,-9.742025816410474675e-04,5.712513032687052510e-03,1.198905482888221741e-01
-1.433879118321469692e-01,-1.378309997333351800e-01,-2.738245635426250213e-01,-7.746108812143148552e-03,-5.270054647923515115e-04,2.568164183605065563e-03,1.340524107217788696e-01
-1.372502416571675099e-01,-1.544045132209458382e-01,-2.703305740445704486e-01,-8.749439065002282551e-03,-8.050996224078796684e-03,5.315242027930301054e-04,1.270696967840194702e-01
-1.480647741147573804e-01,-1.255296605084154360e-01,-2.540269385988584983e-01,-7.328037015120245252e-03,-1.803512456744466421e-03,6.025784315589549460e-03,1.200144588947296143e-01
-1.561501588992256218e-01,-1.374436508557652092e-01,-2.892909317007602565e-01,-6.101626165419438315e-03,-7.838060232622908125e-04,7.060441376390892178e-03,1.443262994289398193e-01
-1.495070293208645706e-01,-1.307617314967415290e-01,-2.845322756153335075e-01,-1.716105221294107926e-03,-4.810410818943911481e-04,9.881729654789975833e-04,1.453504413366317749e-01
-1.662254510069617330e-01,-2.154781972942681756e-01,-3.380590561067218780e-01,-2.515775778192281056e-03,9.537782741128660036e-02,-2.950472462921695932e-02,2.311075627803802490e-01
-1.674902769334733477e-01,-1.633196978083023554e-01,-3.032592034748669008e-01,-2.139837658519300884e-02,2.865266217461290982e-02,-3.132667660312062063e-02,1.606160253286361694e-01
-1.433073578869500098e-01,-1.557225380400702464e-01,-2.855693309975537719e-01,-7.107572288827928957e-03,5.056138401762018571e-03,-2.382389403141563049e-03,1.373742073774337769e-01
-1.373330432660735956e-01,-1.888841506656422642e-01,-2.572158672619326847e-01,-5.548417263977407574e-03,5.681780935993335085e-02,-4.899701412060440686e-03,1.438696682453155518e-01
-1.541768107529359888e-01,-1.611557401213714047e-01,-2.666233759601552844e-01,-1.214722077658541427e-02,1.401033176279068738e-02,-8.801582694577017932e-03,1.147698387503623962e-01
-1.457069860314745557e-01,-1.484663913553839476e-01,-2.557725124877491263e-01,-1.053809575333332187e-02,1.021667850341498145e-02,-8.804961727193695922e-03,1.126818433403968811e-01
-1.510179615287556287e-01,-1.402881904234598298e-01,-2.639195458144529827e-01,-1.053666538168464110e-02,7.634933595307268756e-03,-1.012808762767874061e-03,1.207655668258666992e-01
-1.209391507108328878e-01,-1.489770049729274848e-01,-2.529530570514434418e-01,2.506143242938515831e-03,7.172019476432874886e-03,8.909712043700821144e-04,1.211938261985778809e-01
-1.373082375289731982e-01,-1.618339299389154606e-01,-2.927628384224131852e-01,5.379043802821689355e-03,7.292028527365278061e-03,5.626880825531421553e-04,1.456100344657897949e-01
-1.332308305449788066e-01,-1.520306748165766997e-01,-2.828207052249350761e-01,1.481167203200131448e-02,1.447337290338427188e-02,4.389823584384429031e-03,1.458173543214797974e-01
-1.369937769819774553e-01,-1.583402649397011863e-01,-2.903110289545149936e-01,1.099195213516005951e-03,-2.058855567893623680e-03,-1.067500657073933222e-04,1.438938528299331665e-01
-1.307735752802624829e-01,-1.523200494707374897e-01,-2.774824679846482067e-01,3.994996943526223955e-03,3.185902810778191985e-03,1.482494107061864907e-04,1.374957710504531860e-01
-1.370190528859214218e-01,-1.410210202958429582e-01,-2.590819131592249080e-01,9.897801171159716083e-03,1.574847754376757121e-03,5.020148572189672698e-03,1.216709166765213013e-01
-1.415625665902772723e-01,-1.503703466570429637e-01,-2.413120162573076377e-01,9.710923138538158153e-03,7.419970536501938052e-03,1.745066267764026425e-03,9.801106154918670654e-02
-1.369811063516907512e-01,-1.646494736012830973e-01,-2.955377378740032812e-01,6.380086531360717236e-04,-3.197687811842847994e-03,4.724045824630053301e-05,1.468013823032379150e-01
-1.222887917235312844e-01,-1.580394932211277859e-01,-2.838485418292222007e-01,-6.749717485370745678e-04,-1.100545343270496398e-02,-3.926355589544866021e-04,1.482193619012832642e-01
-1.326036364839916493e-01,-1.623966949710314300e-01,-2.908520002426421835e-01,-2.314278782561480802e-03,-2.546082074466771584e-03,5.530515926171387800e-04,1.457803249359130859e-01
-1.205646060702701555e-01,-1.583659638797196567e-01,-2.826070714065738176e-01,3.094104141016194680e-03,-1.478389057201670923e-02,-1.680214137957145894e-03,1.491782814264297485e-01
-1.075593489326044233e-01,-1.828305162813486373e-01,-2.654340785271870895e-01,8.200906334512187909e-03,-7.464932553925361647e-02,7.884182184005033428e-03,1.892421096563339233e-01
-1.496179592578598117e-01,-1.563537654276307420e-01,-2.916060264189550555e-01,-9.836991824850969002e-04,8.318433741866716356e-04,-8.381799014506466448e-04,1.387683898210525513e-01
-1.278343866993749689e-01,-1.606824861026601992e-01,-2.866203019430298982e-01,-1.269307059984923396e-04,-1.135524740839392692e-02,-1.603171708729595976e-04,1.465028971433639526e-01
-7.081834714925272500e-02,-1.587135183093706936e-01,-3.048968073186728578e-01,9.294630414730149434e-03,-2.264058728010244319e-03,-3.575316835292479214e-04,2.054722607135772705e-01
-1.350928967582175899e-01,-1.501214608894612945e-01,-2.872218472275077650e-01,-1.540485139140901133e-03,-5.404805361553611858e-04,1.179351051432259634e-03,1.452410519123077393e-01
-1.083887501248640833e-01,-1.138065954408759017e-01,-3.796697551706729873e-02,-1.431099318438439939e-02,-5.494332794235798345e-02,1.589631324038620792e-03,1.226719841361045837e-01
-1.349086724655311209e-01,-1.637265734410391915e-01,-2.997522405254074984e-01,-2.688792249549551774e-03,-5.981974053630761436e-03,2.697677433573255745e-03,1.529846489429473877e-01
-8.888805454905794601e-02,-4.112187705450209840e-02,-1.127546105604766841e-01,2.011928070949897326e-02,2.215376252178650335e-02,7.446229128346708304e-02,1.526822149753570557e-01
-1.869366087940433352e-01,-1.606113041413993470e-01,-3.185682139550171654e-01,2.023734481119869588e-02,2.734591518944544733e-02,3.868046929459403871e-02,1.715975701808929443e-01
-1.454510931054572853e-01,-1.138249221655782961e-01,-2.305898374802101136e-01,3.530070567258031516e-03,2.760447395328771963e-03,1.627611185686150472e-02,1.086112931370735168e-01
-1.439381860465339669e-01,-1.193116608908403875e-01,-1.299481872760507861e-01,1.293572472614557163e-02,5.345664299008479059e-02,5.266591979089742942e-02,1.336173415184020996e-01
-1.343544493534786222e-01,-1.600621797163024329e-01,-3.000040547712806149e-01,4.886329068675184482e-03,-2.970208147991937071e-03,-2.963205600234478012e-03,1.548116356134414673e-01
-1.390621808919517699e-01,-1.463965940968235124e-01,-2.861487695100403128e-01,-1.746084939835019882e-03,8.673732186721653950e-04,-3.913530560947372453e-04,1.436012834310531616e-01
-1.377026241911377957e-01,-1.426600611334153390e-01,-2.898677436271797081e-01,-1.515038587955476815e-02,1.503650303449796145e-02,-1.202105199353559715e-02,1.556433737277984619e-01
-1.201590899109260119e-01,-1.553892469096414264e-01,-2.748998747939593312e-01,-3.112532454505059993e-04,4.383147527753153243e-03,-3.168115939519766449e-04,1.406860351562500000e-01
-1.528013142795313639e-01,-1.560653205511501884e-01,-3.015678808234457109e-01,-1.066629029400433838e-02,5.193017670351273915e-03,-1.031854464045742822e-03,1.486000567674636841e-01
-1.187080444933068385e-01,-1.539785712770482817e-01,-2.748213392133315169e-01,-1.252956849132812016e-02,-2.399279140287426462e-02,6.310381166781337328e-03,1.497550308704376221e-01
-1.834422682343232747e-01,-1.894952972042905082e-01,-2.075072101209713415e-01,-9.871013454516960189e-03,-3.471569763819521565e-02,2.575707704854113961e-02,7.980116456747055054e-02
-1.105586125207364406e-01,-1.337072832680312184e-01,-2.411862046267439497e-01,-1.307613424516548307e-02,-2.263789555370728998e-02,6.533036703821510499e-03,1.294372230768203735e-01
-1.400855266418776779e-01,-1.377210930715372927e-01,-2.852073891178426024e-01,2.793745960687992087e-03,1.150672174978666041e-03,5.405830766271080582e-04,1.464149653911590576e-01
-1.219469630811192556e-01,-1.553071784463386784e-01,-2.881464896620155591e-01,-1.374603370539802076e-02,2.688019473165692563e-02,-6.509014181776903024e-03,1.614073514938354492e-01
-1.460413280049051854e-01,-1.597530591751870066e-01,-2.968087382460790069e-01,-8.711668897861037791e-04,-1.026461134904464115e-03,8.484311259211139988e-04,1.444269269704818726e-01
-1.560150777536625788e-01,-1.513415338472967886e-01,-2.922294643864435382e-01,-3.262652863221500790e-03,-8.619544356404164895e-04,6.206307008888425686e-04,1.387376040220260620e-01
-1.583027357421530612e-01,-1.544802241549237953e-01,-3.039917754598084887e-01,-4.618440254638002396e-02,-3.699132723688740992e-02,2.624162393920560082e-02,1.853827089071273804e-01
-1.317772341186699836e-01,-1.565537160535891148e-01,-2.913860954697440331e-01,6.250098366714163314e-03,-8.954178112500193326e-03,-4.744900153955443285e-05,1.499734818935394287e-01
-1.394956852679787862e-01,-1.557082083581676213e-01,-2.902140312473832084e-01,-2.634833395801981087e-03,2.356659317300155432e-03,-1.622667373866338658e-03,1.434598565101623535e-01
-1.994148816422536830e-01,-1.952461458849581999e-01,-4.565799276275587237e-01,-7.445131722954462239e-02,-4.815670338307876525e-02,4.191634796233727200e-02,3.099684417247772217e-01
-9.376873355141911170e-02,-1.589404394937653509e-01,-2.756432253930209408e-01,-1.880252060643754219e-02,-5.120099018946835945e-02,1.740947943641880588e-02,1.879018545150756836e-01
-1.259888717012652704e-01,-1.827465043490235086e-01,-3.081229892596499820e-01,-2.010126935473542913e-03,-4.234847391577692410e-02,-8.756724896655649487e-03,1.779862493276596069e-01
-1.163971461515621447e-01,-7.317604273152837624e-02,-1.985734022276736677e-01,2.594589325336276245e-02,-2.888675780233108253e-02,-6.177468085480985333e-02,1.677616983652114868e-01
-1.468054578253301379e-01,-1.428326841034338601e-01,-2.816695155226779379e-01,7.319955483541108580e-03,-2.409540834848869235e-03,-2.589157671898074855e-03,1.376159638166427612e-01
-1.657868461167403273e-01,-1.719239163282517135e-01,-2.793803334992240872e-01,3.901360402610811601e-02,-4.568036011292853776e-02,-6.446205302165929074e-02,1.885108798742294312e-01
-1.901803461429223130e-01,-1.452375406168634753e-01,-2.402818839158340214e-01,8.027991631528914179e-03,-4.494732758748250234e-02,-7.559062418641272763e-02,1.737172454595565796e-01
-1.608105478098834085e-01,-1.364340810824923866e-01,-2.935582088040820659e-01,5.870378767190167178e-03,-1.327856461403538945e-03,-8.225341661280478889e-03,1.475252956151962280e-01
-1.482261464002962714e-01,-1.371872339834184773e-01,-2.871839709360574089e-01,5.565639077292335556e-03,-1.815248250549820683e-03,-2.829767680319951375e-03,1.452305614948272705e-01
-1.526143529021811163e-01,-2.046365159231775810e-01,-3.301586632225986806e-01,1.264462491272201963e-02,-3.220660983845834158e-02,-3.955317053379024152e-03,1.692053228616714478e-01
-1.522058571368147817e-01,-1.505772911159062866e-01,-2.949568815738724537e-01,3.830058057457108849e-03,-7.333861299802761505e-04,2.376947812760777322e-04,1.437316238880157471e-01
-1.676992228364471149e-01,-2.138807104140411641e-01,-3.485380462480464070e-01,1.234301341166800514e-02,-3.474053528442726940e-02,-1.087541599114297090e-02,1.758311539888381958e-01
-6.514500666022514375e-02,-1.226669226114871780e-01,-1.795544318495130576e-01,1.395861059156083481e-02,-6.895204135207760876e-02,-2.606482991627260062e-02,1.634106636047363281e-01
-1.605922270019050635e-01,-1.570810136053861217e-01,-1.842618588978641170e-01,-2.451020638638821882e-03,-1.153879818686702648e-03,-4.063302209886650784e-04,2.604229934513568878e-02
-1.306328798249881129e-01,-1.494436016980566495e-01,-2.776823486808224217e-01,-6.264556117264104794e-03,-3.408650743456025957e-03,1.807820506581563503e-03,1.391893625259399414e-01
-1.416898635761409952e-01,-1.380806442903469433e-01,-2.592552293452402012e-01,-9.383026342672936074e-03,-5.958548281283648426e-03,2.112278290457354334e-03,1.210081949830055237e-01
-1.321837545844208872e-01,-1.650270311062420059e-01,-2.966618375847092093e-01,8.437070721588437947e-03,-8.675667131464793666e-03,-4.082561663502188264e-03,1.523780673742294312e-01
-1.634023202200655112e-01,-1.227010884549473019e-01,-2.721673528076452575e-01,-1.299895977093880979e-03,5.417921359998210300e-04,1.498003977026165189e-02,1.363541334867477417e-01
-1.229660843423972388e-01,-1.580348245652750672e-01,-2.945864620732043249e-01,3.401275212744424119e-03,-1.080078347687940359e-02,7.954526562625644599e-04,1.582764536142349243e-01
-1.540878633199405934e-01,-1.471294133353135414e-01,-1.815948580650602051e-01,-4.710286935668240964e-03,-7.417336584807479637e-04,1.668754377676767015e-02,4.359006881713867188e-02
-1.386065719597052159e-01,-6.861632337346629251e-02,-2.285222341802789214e-01,-8.926397880493633710e-03,-8.474091386285556929e-03,5.263825541350466292e-02,1.674619615077972412e-01
-1.444618412927566597e-01,-1.416953108212881118e-01,-1.913571324059249734e-01,-9.883802044950996610e-03,-1.553123663510924679e-02,1.443084703815264436e-02,6.307165324687957764e-02
-1.787395392113960424e-01,-1.604558308516962906e-01,-2.740963536177458137e-01,-9.861426308119689010e-03,-5.155993762268185412e-03,1.504399953061332298e-02,1.105493307113647461e-01
-1.552839459685096402e-01,-1.493647298582355121e-01,-2.951470144009923358e-01,5.012433426166662022e-03,9.947209297093079564e-04,1.622914942451144686e-05,1.431884616613388062e-01
-1.530206664403361838e-01,-1.627306622166276862e-01,-3.080266270559509634e-01,5.255157365005021751e-03,-7.078772748257849447e-04,9.672515520568315903e-04,1.506757587194442749e-01
-1.567257476602501587e-01,-1.463958270128784545e-01,-2.908059485034086844e-01,1.143829275444023779e-03,-9.403485570592188788e-04,7.355759502444708686e-05,1.395558714866638184e-01
-1.442583206012404418e-01,-1.544312652688977217e-01,-2.889589965970237873e-01,1.639269287412232308e-03,1.597259092749887105e-04,3.825844141370506025e-04,1.399225443601608276e-01
-1.523554085305097172e-01,-1.500615816066058206e-01,-2.894909472128716077e-01,1.257827148332769669e-03,2.759613700359098211e-05,5.315313326180453202e-04,1.383169442415237427e-01
-1.461333895544986994e-01,-1.431424628034400348e-01,-2.851472750031520120e-01,5.835187061921658265e-03,1.169185835361849024e-03,1.232189529157599103e-03,1.409268975257873535e-01
-1.377348139134628724e-01,-1.694792842765093233e-01,-3.205134989871643580e-01,-1.125688614315775715e-02,8.167077480686905228e-03,1.535803622694849324e-03,1.708826422691345215e-01
-1.209120724383082601e-01,-1.541516501337144573e-01,-2.825191354987461323e-01,1.166396698897528708e-03,1.726411519607641554e-02,1.956612716655353051e-03,1.508631110191345215e-01
-1.262787715077001993e-01,-1.517858454363117393e-01,-2.689915155913223388e-01,6.493818237094087578e-03,6.034406690265066431e-03,4.190531641607337515e-03,1.329126954078674316e-01
-1.384994281844439956e-01,-1.799214123085100536e-01,-3.063064107988066054e-01,5.172474659743755108e-03,1.416656319511440387e-02,6.055548990774249976e-03,1.540013402700424194e-01
-1.298598428244073788e-01,-1.675229305439240313e-01,-2.540051042449049112e-01,8.651694112637407785e-03,1.847627917908056805e-02,9.228804031004093564e-03,1.168719232082366943e-01
-1.283599254429089176e-01,-1.583651401333208142e-01,-2.773163698464410909e-01,-4.981048084268272988e-03,4.075520772270071687e-03,-1.444130475695202262e-03,1.369283944368362427e-01
-1.264213466115275408e-01,-1.573115080487206274e-01,-2.842183892484657637e-01,1.938480431176953104e-03,1.606941159500261057e-03,1.787064218765241699e-03,1.449425220489501953e-01
-1.538652096653992662e-01,-1.242730372170802178e-01,-2.781046944019611722e-01,2.953540910856571750e-03,-9.350993711774403458e-04,1.710512257857536161e-02,1.445482969284057617e-01
-1.248101239706937010e-01,-1.592069636731572313e-01,-2.814382954091803057e-01,-7.884789739622288015e-04,1.925249397886072801e-03,-2.258011202145481433e-04,1.426224112510681152e-01
-1.301949239951513126e-01,-1.550513373049157428e-01,-2.855711393245418117e-01,-1.131355158009081201e-03,1.195952731169880627e-03,-6.515800879210590160e-04,1.445922553539276123e-01
-1.290133199126617947e-01,-1.527811581853312228e-01,-2.780865629903697678e-01,-3.520594346900844142e-03,2.056992453171973580e-03,-4.849302366328665749e-04,1.389070749282836914e-01
-1.477121931994272441e-01,-1.877933837665956285e-01,-3.321915011010687646e-01,-9.002555935788691954e-03,8.752449769249362813e-03,-4.082912840765436720e-04,1.694650948047637939e-01
-1.526252212941294206e-01,-1.215434304491155026e-01,-2.506518963947902412e-01,3.340154085000137264e-03,-1.033366956090003581e-03,-7.549803405615389262e-03,1.176002696156501770e-01
-1.630652102615423593e-01,-1.608086552360181165e-01,-2.602352129590049801e-01,8.286415280424737351e-03,-1.003137997768716733e-02,-1.857525007248984244e-03,1.009187921881675720e-01
-1.250342305478781557e-01,-1.471525171929419507e-01,-2.210684816825228272e-01,3.783697381096192292e-03,-1.507559171496556695e-02,-3.644711337721753038e-03,9.139094501733779907e-02
-1.565075454390680854e-01,-1.344208370503025274e-01,-2.895340023828006926e-01,-3.124486575796796197e-03,1.733271388983336631e-03,-3.731132301351233315e-03,1.456092149019241333e-01
-1.561574092894726373e-01,-1.345771047644295781e-01,-2.914397445093780403e-01,1.453595469792466448e-03,-2.635815596555019370e-04,-2.485239854008802242e-03,1.473483294248580933e-01
-1.773063162092150258e-01,-1.251170626731258895e-01,-2.874815526877370075e-01,-6.125767519163033588e-03,-5.463559675969158896e-03,1.887890169901196291e-02,1.479311585426330566e-01
-1.782059674085181011e-01,-1.424225477951721608e-01,-2.853888396996082655e-01,1.675988255384256278e-03,-4.604588890080453089e-04,-1.014333778117785557e-02,1.300835013389587402e-01
-1.618925241688560779e-01,-1.618447474050177803e-01,-1.530312307978085595e-01,-3.818763794552286570e-03,2.649606936654551673e-02,-7.917084482599173745e-02,1.450242847204208374e-01
-1.230090085510799625e-01,-1.164221071197604623e-01,-7.280223213580278019e-02,3.264633593995515501e-04,-5.971397026182493489e-03,-4.432131850185844213e-02,9.074045717716217041e-02
-1.711764459950046169e-01,-1.872017952883604230e-01,-2.254807026810067838e-01,1.156525901176060078e-02,-4.153588978087390665e-02,-2.964324428179716808e-02,1.027065813541412354e-01
-1.378190888989266616e-01,-1.349563738874531571e-01,-1.923096222000468258e-01,8.898664189356085205e-03,-1.904352380692502997e-02,-4.054300882662765192e-03,6.714344769716262817e-02
-1.114899656457650212e-01,-1.184274666292594869e-01,-4.058098699862405095e-02,-1.257138091436515786e-03,1.201030749830667155e-02,-1.883770799953986969e-02,8.408451080322265625e-02
-1.231913727001229253e-01,-1.400610996937390607e-01,-1.427451761736320823e-01,2.276725377019198082e-02,6.849593847340770814e-02,2.776084722947572136e-02,1.352005600929260254e-01
-1.637065676337063624e-01,-1.640357599846789527e-01,-2.049021447932644069e-01,-3.103225400928498554e-03,1.186601677088086962e-02,5.033492943923032273e-04,4.621341452002525330e-02
-1.201612621387562474e-01,-1.543298080212614498e-01,-2.620186664050975223e-01,2.662157488517932335e-03,8.709755417931803329e-03,1.247147351243353729e-03,1.292186528444290161e-01
-1.173222109299418281e-01,-1.529609195089091656e-01,-2.550224550758299902e-01,3.067548919662144418e-03,8.885648553413522804e-03,1.746438458791110902e-03,1.248929947614669800e-01
-1.465268355361937502e-01,-1.501809704838708293e-01,-2.237472244634940988e-01,5.959080828967749759e-03,4.374281634404241642e-03,6.298191514278409647e-03,7.731173187494277954e-02
-1.445530228282235763e-01,-1.434707826370058836e-01,-1.501813032480127930e-01,6.613813114225892704e-04,8.698745792184813322e-03,1.887414965357213023e-02,3.655074909329414368e-02
-1.334590945932370432e-01,-1.256591604064672407e-01,-1.589273645244891897e-01,7.716497663849925664e-03,-1.220407408479400567e-02,-2.772304615017586252e-02,6.196188926696777344e-02
-1.249957791570299459e-01,-8.188005856206063970e-02,-1.275938936726999373e-01,8.789147821232310212e-03,-3.155981683911708580e-02,-6.344213285898474275e-02,1.314239799976348877e-01
-7.788598192395075615e-02,-5.721484624210049219e-02,-1.449773307698906111e-01,-3.339307260133748262e-02,5.554220180557703501e-02,-7.953949076085954639e-02,1.946666091680526733e-01
-1.738512608836626783e-01,-1.659548090665712572e-01,-1.737830806210750589e-01,-1.654797619308822146e-02,6.337752602821240810e-02,-9.597113326669469424e-02,2.014071345329284668e-01
-1.426614142647167904e-01,-1.331895190927380457e-01,-2.620311664140143604e-01,9.121274971739215531e-03,-4.144808946111693156e-03,-2.462182388297155973e-03,1.256536096334457397e-01
-1.567038145835419061e-01,-1.312058197257346959e-01,-2.746802800988917825e-01,4.548241462879526117e-03,-1.043114959309626895e-03,-8.317316728614806672e-04,1.328313052654266357e-01
-1.414079770793643664e-01,-1.164230271478365886e-01,-2.460340605484078180e-01,4.571841780117285106e-03,-1.130301810060449930e-03,-7.107310239192800479e-03,1.200125887989997864e-01
-1.268091366371233153e-01,-1.453514185076448251e-01,-2.102949970108762556e-01,2.058584010370767547e-02,-6.536593140677246505e-02,-2.878879151149702983e-02,1.494707912206649780e-01
-1.428650867274120773e-01,-1.419649540044448932e-01,-2.865116885696439297e-01,1.542790921608542132e-03,-2.345015976253190474e-04,1.378911300951941236e-04,1.441243290901184082e-01
-1.565434860927385485e-01,-1.275819906125524317e-01,-2.808738288900512470e-01,2.697146475335354503e-03,-3.540727788099034840e-04,-4.064701580768736479e-03,1.413129866123199463e-01
-1.371492320208482774e-01,-7.131115513779485993e-02,-2.531829318120688566e-01,-1.727061034848478491e-02,-1.250214959792845561e-02,4.934675131202513609e-02,1.846806555986404419e-01
-1.448169391271915130e-01,-1.349824643538361790e-01,-2.821359973566357482e-01,1.189035325395129856e-03,4.171521663369434391e-06,-9.515252203952116782e-04,1.425154656171798706e-01
-1.505979388612050662e-01,-1.315556015079827334e-01,-2.828994412420905435e-01,1.383748825311379316e-03,-5.316514710677943192e-04,-7.297393978082861773e-04,1.428069174289703369e-01
-1.628316075231445170e-01,-1.357069713542403688e-01,-2.872132178222066012e-01,4.701805394133152204e-03,-1.536868985965330909e-03,-2.443506126531649111e-03,1.402556747198104858e-01
-1.317830805956840268e-01,-1.626995171218312275e-01,-2.718205851936532080e-01,1.289330914970414433e-05,-1.457812591776518583e-03,1.790950637562309941e-03,1.274867355823516846e-01
-1.235073606814409419e-01,-1.498545177734190714e-01,-2.711740836325522985e-01,5.105664624941146784e-03,-7.474575681429686778e-03,-2.468397468929595454e-03,1.373794972896575928e-01
-1.373779822706020226e-01,-1.659268106649943175e-01,-2.657523451616313204e-01,6.579967211235677321e-03,-8.095324775678848506e-03,-4.115864805752997638e-03,1.183528080582618713e-01
-1.482170154715509724e-01,-1.524990196985088753e-01,-2.885417296075976079e-01,-7.710257433340176551e-04,-1.786460162882082465e-04,5.443174075576610134e-04,1.382434666156768799e-01
-1.295848400584118099e-01,-1.477576770113790405e-01,-2.797275965434990463e-01,4.610347228424915150e-03,-3.802698787311010846e-03,-1.902957100669977388e-03,1.423467248678207397e-01
-1.259901188825205964e-01,-1.511986132804332139e-01,-2.683334801494132726e-01,6.121761927738425015e-03,-4.362758452624826075e-03,-2.838702296805672726e-03,1.322971731424331665e-01
-1.289110999533411295e-01,-1.576928722034370844e-01,-2.819377463416694596e-01,1.145370475627731583e-03,-6.180271770143762984e-05,8.954128171820754782e-05,1.408727765083312988e-01
-1.273643004868215134e-01,-1.576585436592679301e-01,-2.850356569623256897e-01,1.304596302821706827e-03,-9.862354240698673492e-04,-1.090259447196166489e-03,1.449587941169738770e-01
-1.310360158199854463e-01,-1.466494498867284557e-01,-2.673833513934600892e-01,8.103079961661039873e-03,-3.850238334959327387e-03,-2.776094152907850662e-03,1.302693337202072144e-01
-1.293478366847092553e-01,-1.563840810622583177e-01,-2.775644454060431365e-01,2.923769234207080053e-03,-2.509040449061384140e-03,-5.532873533338130171e-04,1.368844360113143921e-01
-1.299546858191429344e-01,-1.541464537217113184e-01,-2.841929354727347756e-01,1.138181145305273067e-03,-8.580346447578786296e-04,2.027293860724858194e-04,1.436996906995773315e-01
-1.322255926041571161e-01,-1.508248411949402734e-01,-2.828561493771610813e-01,2.663781525278747630e-03,-6.056722313725657438e-05,7.150027664199305136e-04,1.423260867595672607e-01
-1.378328041473894372e-01,-1.409777281230252532e-01,-1.919738053039598824e-01,5.916561788170958923e-03,-3.133992915636002723e-03,-1.279562334186211923e-02,5.827980861067771912e-02
-9.774074336299617971e-02,-1.429204815267332840e-01,-2.387866186822027170e-01,2.918750776470047017e-03,-3.625133852368914167e-02,8.676059173703728339e-04,1.397605985403060913e-01
-1.068985430048561697e-01,-1.525988507480097456e-01,-1.923644284458237430e-01,1.444162800608194720e-02,-5.701246532099885078e-02,-2.625387550299354208e-02,1.339098960161209106e-01
-1.364191532445281352e-01,-1.453989039343090706e-01,-2.400929839017229561e-01,-1.003807600225420545e-02,1.046324106164257112e-02,-2.108164594800492325e-03,1.026742160320281982e-01
-1.620072447070866617e-01,-1.470603234916031954e-01,-2.162976029146743140e-01,-3.768154007751655776e-03,1.763534099145058244e-03,-4.408761154426890302e-03,6.397316604852676392e-02
-1.312818278605447642e-01,-1.402669758989737170e-01,-2.292856502948494579e-01,-1.075177394269797616e-02,1.031281210896597446e-02,-5.202687422392278382e-03,9.773419052362442017e-02
-1.416672895381443087e-01,-1.384518217333752799e-01,-2.579849015387407629e-01,-1.002539560628310129e-02,4.956277480010626985e-03,-1.951647566829148436e-03,1.195859014987945557e-01
-1.567491922019284001e-01,-1.603603927885558222e-01,-2.053946199492137081e-01,3.621631903155923902e-03,1.220392495783596473e-02,2.010438049346815071e-03,5.198106914758682251e-02
-1.650378964909517132e-01,-1.406326976366302217e-01,-2.543454824620584587e-01,6.677690908276594358e-04,-3.844825567825137669e-04,-3.147615769523463489e-03,1.038389727473258972e-01
-1.547075420066463813e-01,-1.706654600004864908e-01,-2.664588561806219835e-01,-7.849089718443093278e-03,1.522580414022615437e-02,-9.814017302778555232e-03,1.101314574480056763e-01
-1.515540705072727645e-01,-1.321233392392527906e-01,-2.626106132478394084e-01,-6.480178179778799986e-03,1.491604907802264457e-03,-3.976625914787233068e-03,1.226748228073120117e-01
-1.462270996509353604e-01,-1.198675204781612103e-01,-2.486079433999588417e-01,-7.739760816202005331e-03,5.584672633154869406e-03,-1.543804657217907536e-02,1.219165995717048645e-01
-1.927779361277259518e-01,-9.920411505373855077e-02,-2.917229436852751823e-01,8.752274962548890411e-03,1.211572117654386056e-02,4.583004354580498541e-02,1.864837706089019775e-01
-1.507107105774684042e-01,-1.514106810569336714e-01,-2.884207462880733486e-01,1.055361823985387403e-03,-1.444613521194096101e-04,-2.300948802075830049e-04,1.373743563890457153e-01
-1.464024150772663124e-01,-1.423219350041750042e-01,-2.882751119366765424e-01,6.688888860609513596e-04,1.178994311406292918e-04,-5.604062448433532210e-04,1.439643949270248413e-01
-1.094824616785031179e-01,-1.533458359876953558e-01,-1.820406373220345153e-01,-5.096548050496946258e-03,-1.058872314677394150e-01,3.322316076803876611e-02,2.025626152753829956e-01
-1.340146267910093947e-01,-1.706863390468847941e-01,-2.910106268747508773e-01,2.283942404431919555e-03,-8.094735600488371305e-03,2.638900122701583824e-04,1.429953873157501221e-01
-1.259569994075669386e-01,-1.437153148880403464e-01,-2.804969361962809105e-01,-1.439238828500999205e-02,-1.173973166528237931e-02,1.013279172477733921e-02,1.509850621223449707e-01
-1.234152987060194995e-01,-1.542813020849480576e-01,-1.743278120504422324e-01,-3.026637046644407836e-04,-8.010023270858564193e-02,7.949879736468552782e-03,1.463261693716049194e-01
-1.254631315568803529e-01,-1.557224011466412095e-01,-2.792801451838289872e-01,7.792467388553237515e-04,-1.776485271034578201e-03,-2.236192481894751715e-04,1.411819607019424438e-01
-1.737211188237089976e-01,-1.562587399093635920e-01,-2.233279052030091860e-01,-1.978442272086640506e-03,2.080588716455585366e-03,3.940625873674170020e-03,6.085503473877906799e-02
-1.310429933640795130e-01,-1.503382695203585306e-01,-2.846968713460152900e-01,-2.097566171661110167e-03,6.278910831215922875e-04,-5.596850893409843503e-04,1.450253427028656006e-01
-1.425968555592059261e-01,-1.484169789499633352e-01,-2.868630935827106709e-01,-1.810570408539726199e-03,5.065654024761564057e-04,1.423301296036273646e-04,1.414837092161178589e-01
-1.323132378457395619e-01,-1.511075946782744484e-01,-2.847815036933330490e-01,2.655155687344943304e-03,4.917080519054697115e-04,7.192760209975809825e-04,1.440752744674682617e-01
-1.421929448285307318e-01,-1.587859444316250257e-01,-2.879698152521770749e-01,8.498193363733450717e-03,5.295566443796894014e-03,1.940521296644227584e-03,1.393536180257797241e-01
-1.345734440963965439e-01,-1.526482149371859165e-01,-2.874982506554030759e-01,2.994965858754440862e-03,1.357541801508608701e-03,-4.051680481135136149e-05,1.448483914136886597e-01
-1.305068917173280996e-01,-1.633923245610953978e-01,-2.882642881618213693e-01,-5.320573838952696692e-03,4.543858592157761639e-03,-5.577582491076687327e-04,1.446676403284072876e-01
-1.301169243211968141e-01,-1.596751308039745521e-01,-2.878691869446995955e-01,5.486823651658290961e-04,3.164504451273517094e-03,-5.551753920348988843e-04,1.453563272953033447e-01
-1.285652077067692411e-01,-1.630382650424891666e-01,-2.899048323568542695e-01,2.611319255151942726e-04,4.805594620949483510e-03,8.193129348137427907e-04,1.474058926105499268e-01
-1.246021810890115961e-01,-1.604904942278303770e-01,-2.844083782236085933e-01,-5.376919849260140371e-05,2.827150806620152678e-03,-4.636387620100059930e-05,1.453093588352203369e-01
-1.303287987621939981e-01,-1.574594801798229193e-01,-2.807352689561627423e-01,3.004670507489586462e-03,5.171028098192589732e-03,9.047992361479052347e-04,1.392383128404617310e-01
-1.713121769654428472e-01,-1.731308226183053689e-01,-2.456108409687609573e-01,1.081398342569118987e-02,8.164611723378388530e-02,4.971040233830395505e-02,1.820739954710006714e-01
-1.483224070524069571e-01,-1.618231405654726174e-01,-2.332719397205489931e-01,8.509365163750050374e-05,1.058446185235695919e-02,-8.616191380690627934e-04,8.117976039648056030e-02
-1.171258148498560137e-01,-1.603285516295965829e-01,-2.693780503235666535e-01,5.576550474338469107e-03,2.101611437306649677e-02,4.921126540389237324e-03,1.412815749645233154e-01
-1.608568211134648318e-01,-1.782969214241879041e-01,-2.688376285935465959e-01,-3.021808789937809742e-02,4.709625951173158215e-02,-5.053062859332946993e-02,1.647252887487411499e-01
-4.350987315633821073e-02,-1.301397696293196682e-01,-2.424044373570776456e-01,8.488058637022077163e-03,4.873053799400795666e-02,1.411296303957460582e-03,1.928203403949737549e-01
-1.353926696104428840e-01,-1.515860397938746940e-01,-2.866443832547504456e-01,-2.965362654446224242e-03,1.358094090191915146e-03,-8.621524238806471977e-04,1.439589262008666992e-01
-1.490286006199563751e-01,-1.353437467106909375e-01,-2.842546911175733437e-01,-1.274639172366126951e-03,-5.112733133745431344e-04,1.808101334547647940e-03,1.426162123680114746e-01
-1.841859804175439708e-01,-1.690205041579215806e-01,-3.301974777802101357e-01,-2.138984700745929710e-02,-1.564898632201219830e-02,2.924583039487088643e-02,1.686324030160903931e-01
-1.543809371002701769e-01,-1.552639570735969143e-01,-2.922418841693474878e-01,-3.917954955836168429e-03,-4.032401355230969984e-04,-1.408736040936672297e-03,1.376124173402786255e-01
-1.498701882578759026e-01,-1.342721275467649300e-01,-2.807463748819264415e-01,-6.011912421029895308e-03,-3.440061779687570050e-03,5.664737281073748895e-03,1.401908993721008301e-01
-1.847894229347585016e-01,-1.715194165392939230e-01,-3.334464761184171011e-01,-2.593057343284689564e-02,-1.641253668931568974e-02,2.632972796309073632e-02,1.707417815923690796e-01
-1.590881467013986472e-01,-1.826446716969259143e-01,-3.736430123566383266e-01,5.319413137672483055e-02,-5.955723393834150975e-02,-4.647505747614790947e-03,2.464333027601242065e-01
-1.429654006532416755e-01,-1.480271626195141244e-01,-2.866874630208308683e-01,1.859017540181149512e-03,-7.466911921834891311e-04,4.169291836589054858e-04,1.413036733865737915e-01
-1.482282918707706620e-01,-1.556204464935961873e-01,-2.920620886879943257e-01,1.514569265716055610e-03,2.271124215188698202e-04,6.082906398623450124e-04,1.403128951787948608e-01
-1.309104651775703787e-01,-1.461133939999315623e-01,-2.887468595101951863e-01,1.152566701265809491e-02,6.725503163715596498e-03,3.977131367682447925e-03,1.527270525693893433e-01
-1.523902666891625846e-01,-1.654378556349482277e-01,-3.021738399730296565e-01,1.048614630159291732e-03,-1.541550322901078310e-03,-1.010694341013632612e-03,1.437516510486602783e-01
-1.163671467876697119e-01,-1.588862739338535723e-01,-2.786514356424181216e-01,-3.367005313280133777e-03,-1.603715510192766855e-02,4.726071883589357155e-03,1.487160623073577881e-01
-1.519634396182565350e-01,-1.280878737165276893e-01,-2.821059195297756506e-01,7.615975378059829624e-03,2.498715528365052108e-03,9.404594014274082411e-03,1.451634019613265991e-01
-1.562612057376691621e-01,-1.459745155438411657e-01,-2.921377427538071059e-01,1.986039990907132163e-03,3.454804582062024243e-04,4.308127167674751065e-04,1.413460969924926758e-01
-1.415935634865873316e-01,-1.426654758763002129e-01,-2.864550018916938723e-01,-3.636651690088154882e-03,6.636575778817321641e-04,-6.148856273467137677e-04,1.444743573665618896e-01
-1.548159873242875573e-01,-1.437118402755924451e-01,-2.894500235451248904e-01,3.768180191302605148e-03,-2.732331138952998799e-04,-2.439828494294910292e-04,1.406684815883636475e-01
-1.845174235807220675e-01,-1.765769129728681497e-01,-2.010050625851583783e-01,4.449206643391637531e-03,1.698255033985063538e-03,-3.355804677388626173e-02,6.254822015762329102e-02
-1.690296116186811581e-01,-1.190023342848509635e-01,-2.045628447216885359e-01,2.495791472563818267e-02,-2.342036675068880774e-02,-7.393336068211900369e-02,1.595482081174850464e-01
-1.517189924246576394e-01,-1.303887359070229901e-01,-2.686870986550659590e-01,7.915960879029680305e-03,-4.473488235194225497e-03,-6.052409405685430475e-03,1.303433775901794434e-01
-1.948783437058369816e-01,-1.494618279093093416e-01,-3.054599331468036416e-01,3.934506293337049904e-02,-9.129964372643441239e-02,-5.641668934713107986e-02,2.418939471244812012e-01
-1.321488436929185717e-01,-1.475130508017674924e-01,-2.765286582632811019e-01,-4.986682039271892256e-03,3.156469499857947423e-03,-1.941375536687758863e-03,1.377646774053573608e-01
-1.506461304884984531e-01,-1.344774144709751096e-01,-2.790701172379250750e-01,6.622490332046475359e-03,4.818820672071649010e-04,-7.903175563202356627e-04,1.377125382423400879e-01
-1.154119692357704619e-01,-1.354059782758486319e-01,-2.030465443017395455e-01,1.436450516734192251e-03,-1.491259257854228928e-02,-1.328369192219549339e-03,8.370216935873031616e-02
-1.504626468396975114e-01,-1.603422586689504659e-01,-1.089224681361196934e-01,-1.532521104676345947e-03,2.625852048652901199e-02,-2.821577991616773529e-02,8.183862268924713135e-02
-1.531929569867803154e-01,-1.308347031990194920e-01,-2.761539627586226398e-01,-5.276007887501549774e-03,2.789832753154291873e-03,-8.743072298040931514e-03,1.367650330066680908e-01
-1.333490253103684076e-01,-1.393273031887805047e-01,-2.778522513648216119e-01,-1.031526727670747587e-02,9.207548104520100335e-03,-2.542943006665979600e-03,1.436871290206909180e-01
-1.486434008729196343e-01,-1.493015203140155289e-01,-2.890430482121357225e-01,-1.557673509757207236e-03,1.582394133833533328e-04,1.324502360968008222e-04,1.400981843471527100e-01
-1.490872324591236975e-01,-1.296376311414896565e-01,-2.840014300600090524e-01,-1.998488798456538387e-03,1.478995182595336079e-03,-9.204466568548744232e-04,1.456888467073440552e-01
-1.392863357654581524e-01,-1.554265142915079445e-01,-2.899619802207751285e-01,-2.190352373571503603e-03,1.967044641912047537e-04,5.740350605764717650e-04,1.433430165052413940e-01
-1.422805014819795710e-01,-1.528811655692220994e-01,-2.901492198321081184e-01,-1.408706527104611498e-03,4.729418025779298391e-04,5.576309234628791219e-04,1.428901106119155884e-01
-1.479887742566370623e-01,-7.239571050328619251e-02,-2.786712898951251849e-01,-1.892410990608560384e-02,1.226998329376226098e-02,-3.748191170175935172e-02,1.959888488054275513e-01
-1.467274668566076190e-01,-1.457501481104840346e-01,-2.869189625328477655e-01,-9.848947374759763843e-04,1.829024940398523270e-04,1.825026153103266114e-04,1.406937539577484131e-01
-1.505042305439748818e-01,-1.451445592958054420e-01,-2.881731094421837724e-01,-1.514524866340315841e-03,1.019299941264586632e-04,5.787654437238471273e-04,1.404536366462707520e-01
-1.536709479161657566e-01,-1.427545645919972572e-01,-2.920769351128700841e-01,-1.142425505813457172e-03,3.980770856303936082e-04,-5.617661249428631317e-04,1.441929787397384644e-01
-1.515008216771806804e-01,-1.568506369232594566e-01,-2.917195915033095055e-01,6.533468029488200251e-04,3.028773946605443782e-04,6.828677708095372712e-04,1.376326084136962891e-01
-1.568515315134401122e-01,-1.646276791969608078e-01,-3.064418458945807888e-01,8.445048831390614477e-03,5.573669951103172980e-05,-2.303805282423938318e-03,1.466437280178070068e-01
-1.500442509928174573e-01,-1.525619016508658332e-01,-2.887783585504404282e-01,4.750414245835487062e-04,2.251412936088841585e-04,8.006239203290738907e-04,1.375025808811187744e-01
-1.658534591966436822e-01,-1.992368081079743669e-01,-3.592275976881429411e-01,5.110734312885001351e-03,1.327685968269520008e-03,1.303028276222684611e-03,1.792798638343811035e-01
-1.457698305146042095e-01,-1.496471806479365285e-01,-2.875327945356837556e-01,4.625965492390201640e-03,1.156838543535077283e-03,1.206189159600078902e-03,1.401238143444061279e-01
-8.331326590858864622e-02,-9.133691313627530228e-02,-2.481379378120879553e-01,4.884251035210486480e-02,-5.005807385784446367e-02,-5.025441596051770377e-02,2.194533646106719971e-01
-1.378051902025006770e-01,-1.474336960307924549e-01,-2.865169913222988529e-01,1.258830312446876593e-03,-1.537726591754199409e-04,-5.284874705289375465e-04,1.441585868597030640e-01
-1.373355420685788975e-01,-1.396839763104001375e-01,-2.827188060451879537e-01,4.134474600008155969e-03,-1.342745047007274165e-03,-1.350876887016013795e-03,1.444387435913085938e-01
-1.326334004286194301e-01,-1.512656569240058979e-01,-2.840765722093728241e-01,1.430864179732898277e-03,-3.310758917372438989e-04,-3.809534390026928776e-04,1.430642306804656982e-01
-1.381432801324424808e-01,-1.475072473032493781e-01,-2.866430927237348381e-01,9.171949017594177621e-04,-5.809640221779455995e-05,-1.767317170080417380e-04,1.440553963184356689e-01
-1.362587217687862839e-01,-1.584279314675897110e-01,-2.895495816270523548e-01,6.804811821870383401e-03,-5.695880904910613843e-03,-3.739543978921485660e-03,1.444625258445739746e-01
-1.502423484541857701e-01,-1.331417796452857016e-01,-2.785449999484870820e-01,5.194477151182164305e-03,-1.159624279173155021e-03,-2.289864540240456933e-03,1.380172520875930786e-01
-1.517743213413621506e-01,-1.383200768288631033e-01,-2.844557527812683340e-01,6.361362517569546862e-03,-8.603939736325333073e-04,-3.250928379285457359e-03,1.404486894607543945e-01
-1.744300170971930797e-01,-1.517783838356048798e-01,-3.086976575791827715e-01,1.377498639930728810e-02,-8.517062088569697306e-03,-2.733448512379053896e-02,1.568778902292251587e-01
-1.574304067332532586e-01,-1.322537556242859846e-01,-2.756399061986407606e-01,4.567542369543605742e-03,-1.908471658531352838e-03,-8.960169983571098298e-03,1.337828040122985840e-01
-1.342068345018506415e-01,-1.466134038775766812e-01,-2.839604795820619976e-01,-4.639967400271489614e-03,6.967527487582677627e-04,-8.564745571343987006e-04,1.441887468099594116e-01
-1.575469255851836836e-01,-1.305786585532696109e-01,-2.773247748795110712e-01,4.659216050451425034e-03,-1.003471718183829384e-03,-2.421193412765833535e-03,1.356095671653747559e-01
-1.370407563206287593e-01,-1.525742781514781710e-01,-2.879271577169646990e-01,-2.781576000967715505e-03,8.648731521910515887e-04,-7.953568023515939032e-04,1.438455879688262939e-01
-1.558082979818355140e-01,-1.515610714374951706e-01,-2.912368481669244114e-01,-2.377664629716466724e-03,8.386656927485805534e-04,-5.433771453498386630e-05,1.376706361770629883e-01
-1.498120168406769093e-01,-1.484504433533487544e-01,-2.882746271923867787e-01,-4.403522088130732521e-04,-5.758004914181793794e-04,1.379950324681621608e-04,1.391542553901672363e-01
-1.468204101532020744e-01,-1.484833697937958108e-01,-2.889277106146057594e-01,-1.000907151692259547e-03,-3.065258589311392503e-04,2.199933419914859177e-04,1.412953138351440430e-01
-1.426315325341555584e-01,-1.430660639148875757e-01,-2.884429137050392167e-01,-2.325806062739775267e-04,-6.867148548957164721e-05,-2.760878151701080655e-04,1.455959975719451904e-01
-1.515168171238736039e-01,-1.511736932210618334e-01,-2.923306054895667971e-01,-1.447107676224460753e-03,-8.864978800025353394e-04,4.542543786251381508e-04,1.410184949636459351e-01
-1.449685935991524011e-01,-1.447544687527299034e-01,-2.877802874933191868e-01,4.798346716167005004e-05,3.561649806807376940e-05,-2.611154491004212628e-04,1.429196298122406006e-01
-1.449492633564893329e-01,-1.443541814233133547e-01,-2.887394407137469643e-01,-2.575923573778897695e-04,-6.280580524582457514e-05,1.255349841412522235e-04,1.440895348787307739e-01
-1.494081098631399596e-01,-1.469336164016203650e-01,-2.898659595776619247e-01,-1.312788509661693337e-03,-8.770317768177012148e-04,2.584305421529394355e-04,1.417383849620819092e-01
-1.458787770528750527e-01,-1.437190192160297253e-01,-2.891339060326081345e-01,-1.552518487105205257e-03,-5.381537362371712808e-05,-2.552760854022684549e-04,1.443728804588317871e-01
-1.391474785293033145e-01,-1.448923874266474787e-01,-2.871369652419680785e-01,-6.985575129787862259e-04,1.730567823526183086e-04,-3.687801953389289815e-04,1.452090442180633545e-01
-1.474670266946807862e-01,-1.487425834683847869e-01,-2.892704647431453835e-01,-1.884710533296191440e-03,-7.191208109736742852e-06,2.027530945491634899e-04,1.412081569433212280e-01
-1.425989936021111459e-01,-1.493620640645008379e-01,-2.893100751337443488e-01,-1.828462341287666630e-03,-4.838681326214647638e-05,2.904075471914448377e-04,1.434850245714187622e-01
-1.485190510366894978e-01,-1.558055032272508411e-01,-2.909031075151004009e-01,-1.753304670671903447e-03,5.767308761224496701e-04,-7.577313090770809723e-04,1.389272511005401611e-01
-6.925374125956432203e-02,-1.825764301724725203e-01,-3.445257596571538183e-01,1.303355940085902318e-02,1.831127064557903916e-02,1.114430122614175995e-03,2.427785098552703857e-01
-1.220552452408450034e-01,-1.407086819768651742e-01,-2.733254380248263393e-01,-3.752111291047047215e-02,-3.876202637410802038e-02,3.291931043265602236e-02,1.799748390913009644e-01
-7.110067903377131904e-02,-1.948542516488055432e-01,-3.644801531656314819e-01,-3.894952518150138904e-02,-1.443917038429615163e-02,-1.735492507801900466e-02,2.667582333087921143e-01
-1.368413120915243919e-01,-1.633782635350913282e-01,-2.951343889433627465e-01,1.568579364613303755e-04,3.189101974134185818e-03,1.739940575853119028e-03,1.469692438840866089e-01
-1.398979240163820692e-01,-1.241042396022334210e-01,-3.122194246883260860e-01,-3.770639324395809455e-02,1.536546177415305803e-02,-4.143760445154712896e-02,2.068587988615036011e-01
-1.636715513859464122e-01,-1.729103283321529183e-01,-3.193837182673187614e-01,-3.190658436135920643e-03,-3.725554296275493133e-03,2.083443144579737432e-03,1.515857726335525513e-01
-1.529756411582328113e-01,-1.479851934680619652e-01,-2.912349511026047777e-01,-3.561617045914983615e-03,2.310788443940828794e-04,3.032409531937150160e-04,1.409574747085571289e-01
-1.513311062175998201e-01,-1.574465935982522768e-01,-3.007840599437822116e-01,-5.183348476478046203e-03,6.652101248853501715e-04,1.285148247606526057e-03,1.467872262001037598e-01
-1.487031720231894172e-01,-1.515773011256321690e-01,-2.909659178751032305e-01,-2.697171597316214663e-03,-2.191688810940903471e-04,-9.766332475088393503e-04,1.409357935190200806e-01
-1.833594868744905515e-01,-1.767085724246808265e-01,-3.535979755888121745e-01,-1.747825989893420778e-02,2.350185353512538981e-03,-6.083497744154014661e-03,1.766399890184402466e-01
-1.471269333963844683e-01,-1.419310868806991921e-01,-2.879732843065905268e-01,-3.983750492686395465e-03,3.717727377437608067e-04,1.619761516198660854e-04,1.436823308467864990e-01
-1.486473938034037490e-01,-1.715255112501669066e-01,-3.386258835544346812e-01,-1.654706218404020795e-02,8.385838300484048727e-03,-2.931565645870303546e-03,1.825569719076156616e-01
-6.689912632280986537e-02,-8.863847760588199065e-02,-1.489975380241793379e-01,-2.363133756679527270e-02,-6.284362948245415803e-02,5.832778165591370051e-02,1.707561314105987549e-01
-1.485444838407816714e-01,-1.297552384415268656e-01,-2.181135038935088366e-01,-8.820725375865392376e-03,-9.716488852095341022e-03,1.004872253284675408e-02,8.555471897125244141e-02
-1.503405985166213488e-01,-1.349145502306261513e-01,-1.955573799611290409e-01,-2.795552284874486954e-02,-8.459412279495530373e-02,5.919709215308170680e-02,1.931474953889846802e-01
-1.570230922758089620e-01,-1.935553981965788262e-01,-2.170740922073718937e-01,4.632066194238867833e-03,-1.164557617462135819e-01,-3.107839912105643185e-02,2.153943628072738647e-01
-1.429703305595086127e-01,-1.431480262649044433e-01,-2.881962826083067641e-01,1.468350658404781860e-03,4.684327044545767748e-04,-8.774153047287181850e-05,1.451618075370788574e-01
-1.399717780976774961e-01,-1.667074366382850503e-01,-2.836996411838852428e-01,-1.258102621924372076e-02,-5.664178104355896415e-02,2.343251923032929618e-02,1.711046546697616577e-01
-1.343254847676779717e-01,-1.455525952498429032e-01,-2.678721926516351992e-01,-1.101475029782030511e-02,-8.242045577137892959e-03,4.674801834762981959e-03,1.307469159364700317e-01
-1.509959641967735244e-01,-1.419078908107252179e-01,-2.622311221796801983e-01,-8.290391923241312647e-03,-2.984744893432674743e-03,2.318322176980264042e-03,1.171145066618919373e-01
-1.625426480313892641e-01,-1.096200331825021718e-01,-1.906830356071422261e-01,-2.341384860272049950e-02,-2.044158690966367889e-02,7.305503503171520419e-02,1.548911333084106445e-01
-1.661140113744385138e-01,-1.416178231314714764e-01,-2.540117444212623976e-01,-3.544970186157001858e-03,-3.714764655828494983e-03,-2.217978064202972698e-04,1.027544662356376648e-01
-1.562300381011735295e-01,-1.378015991467218537e-01,-2.894988330999227477e-01,-9.962859413001723223e-04,-4.390596481309297296e-04,5.734985924494582837e-04,1.433898806571960449e-01
-1.534402411953748047e-01,-1.363450355231475841e-01,-2.307858495237929963e-01,8.536888217461867379e-03,7.125380976089476341e-03,1.349120835251328872e-02,9.227033704519271851e-02
-1.527102020923635506e-01,-1.266200495353123345e-01,-2.199959146391583520e-01,-4.999411110794642170e-03,1.846625855920057215e-05,1.396159105826630560e-02,8.731161803007125854e-02
-1.626787753615503151e-01,-1.433688320086681234e-01,-3.011050284777454511e-01,-6.150900473677479996e-03,-1.875127116469153636e-03,6.954373926420630986e-03,1.499227881431579590e-01
-1.367464351618863649e-01,-1.504140133821151304e-01,-2.858599129943156791e-01,-5.934226184040153687e-03,3.561077934860232361e-03,-1.489351876729233786e-03,1.432967334985733032e-01
-1.714798148922301868e-01,-1.663448656844739582e-01,-2.461552172394610438e-01,1.719934316164902638e-02,4.606204909880191184e-02,4.044688656761818296e-02,1.347096115350723267e-01
-1.345533721075512501e-01,-1.324825630458917325e-01,-2.421728288806423435e-01,1.177140085800896727e-02,-1.362815367381137177e-02,-2.810946962258498508e-03,1.131621673703193665e-01
-1.478358559711999698e-01,-1.474575601728326524e-01,-2.879924914814692150e-01,2.294393564238680124e-03,-1.808687926818680516e-04,-8.580165285775758800e-05,1.404028534889221191e-01
-1.539183791018919889e-01,-1.365818164828258297e-01,-2.487698799129718363e-01,-7.915055694058753880e-03,7.815167724722634586e-04,-2.549294724107112504e-03,1.055984646081924438e-01
-1.588596039891372880e-01,-1.288010832063655742e-01,-2.864596621584935554e-01,2.408538777167641438e-03,-4.288937156610992990e-04,-1.859218159179642496e-03,1.450830250978469849e-01
-1.402491054094543443e-01,-1.374122632312934078e-01,-2.819423918922190908e-01,7.650266321159789051e-03,-4.010140209760229731e-03,-3.715103322058042543e-03,1.440563350915908813e-01
-1.003396296302264540e-01,-7.560443577276949878e-02,-9.463608281525229260e-02,7.737805612100184284e-03,-2.801980344132313366e-02,-6.639634918509149109e-02,1.275290399789810181e-01
-1.516358047615528060e-01,-1.323405430680272554e-01,-2.151121223591580256e-01,1.465561823550074480e-03,-9.658888543528943446e-04,-1.564290245958606732e-02,7.981031388044357300e-02
-1.540044480487680334e-01,-1.655500748604886718e-01,-2.681580791556588128e-01,-1.327999749695740056e-02,-3.282704268852659063e-02,3.628460279567378988e-02,1.398499757051467896e-01
-1.249605077666320202e-01,-1.071504995160458690e-01,-1.279709192498411363e-01,-1.806867942592085136e-02,-4.034724108146775512e-02,5.336361985538358443e-02,1.215978339314460754e-01
-1.404073471700348907e-01,-1.494218856943816121e-01,-2.444577485878782486e-01,-8.837734605638298060e-03,-9.152560458484695211e-03,1.689777631943242472e-03,1.022935584187507629e-01
-1.258944197669657483e-01,-1.589530274081595307e-01,-2.849956071300520644e-01,2.333619677923777491e-04,-1.449790344415905798e-03,-1.801045179356922956e-04,1.454405784606933594e-01
-1.302991767382510324e-01,-1.537945652431559895e-01,-2.848212785996688812e-01,-4.672588353246574441e-03,-6.443491436473915146e-03,2.358965036985168594e-03,1.449320763349533081e-01
-1.276651239325840015e-01,-1.560157204041073553e-01,-2.795988752894923990e-01,-2.435400064989936934e-03,-2.918293987455238643e-04,-1.875502843413577559e-04,1.399941593408584595e-01
-1.266536452281337710e-01,-1.588932215216220523e-01,-2.800896849868383942e-01,-2.516302821939630499e-04,-1.220068431051735228e-04,-6.650920782658437515e-05,1.401268839836120605e-01
-1.264112927903630057e-01,-1.582903094521662946e-01,-2.810351051082117801e-01,-3.661247955186429370e-04,-6.703033125940249066e-04,3.579157175103759745e-04,1.414131373167037964e-01
-1.176081415272318687e-01,-1.506821097282255439e-01,-2.402373710128994366e-01,-3.517558300686140105e-03,-9.786298165138672400e-03,2.654907320219632898e-04,1.113580986857414246e-01
-1.248611041139366246e-01,-1.577200960364398552e-01,-2.746268558561116846e-01,-2.506845347338885685e-03,-3.815100663160118921e-03,2.492608113897504273e-04,1.365688294172286987e-01
-1.355174874062785861e-01,-1.474157345605030811e-01,-2.697942870339959942e-01,7.502877722294114086e-03,-1.834665049473995944e-03,-1.054688107676452630e-03,1.294468343257904053e-01
-1.367953807240324393e-01,-1.519170970662790943e-01,-2.357264406239111820e-01,-1.043272791266080558e-02,-1.161547866195921340e-02,3.520719370996100439e-03,9.637677669525146484e-02
-1.449268157175910843e-01,-1.455893382676755055e-01,-2.905320315536547016e-01,-2.927846797755789387e-03,-2.690521266557282078e-04,7.584992608597238397e-04,1.453702598810195923e-01
-1.518583558723810012e-01,-1.491929904649602900e-01,-2.941822473109718672e-01,-7.208408698142450451e-03,5.545923018444734801e-04,-3.310283271216271032e-03,1.443337053060531616e-01
-1.327721977648874119e-01,-1.439199989478535668e-01,-2.768847219046787211e-01,-4.729767297152879732e-03,2.865191948250786491e-03,-8.360129364872335902e-04,1.392120420932769775e-01
-1.499037904610010519e-01,-1.360078870820005115e-01,-2.844834144987870572e-01,-5.336034485006538319e-03,1.962046894830321662e-03,-5.104466232789438979e-03,1.426534652709960938e-01
-1.409705124280405952e-01,-1.428408824653452924e-01,-2.880321127229886757e-01,-1.080825569689764865e-03,-4.758508905497464334e-05,-5.122789733788455334e-04,1.461500972509384155e-01
-1.533868012591810270e-01,-1.360551991204822786e-01,-2.842743647514746619e-01,-4.644048243471087488e-03,1.013808597771643106e-03,-2.555358481927942193e-03,1.406691372394561768e-01
-1.557630854760350125e-01,-1.480725112165744706e-01,-2.913012241058610674e-01,-5.126679494280129284e-03,8.219879854665449988e-04,-1.771724138686153402e-03,1.398656219244003296e-01
-1.441527290968006025e-01,-1.386539595147163462e-01,-2.864137879240121198e-01,-8.148237384233959985e-04,1.319106617090039452e-04,6.071858050582964973e-04,1.450994759798049927e-01
-1.567602419805141090e-01,-1.250788374894792609e-01,-2.785501964659314877e-01,-6.699955163998826515e-04,-7.064118037550082925e-04,1.525311202353471333e-03,1.403737962245941162e-01
-1.617255577970335145e-01,-1.417977463387967985e-01,-2.915547057055399294e-01,-7.980532420610836342e-03,6.593305882081029572e-03,-1.150481981934123148e-02,1.433823555707931519e-01
-1.567699779881278899e-01,-1.706444958894179631e-01,-2.226512288209024359e-01,1.733839027897438045e-02,-6.482992594375887319e-02,-6.296233979440454820e-02,1.703589111566543579e-01
-1.751257951768191434e-01,-1.406965836063379105e-01,-2.364017160662461314e-01,6.907699019225723228e-03,-2.239258583618459683e-02,-6.023815939695643246e-02,1.399397403001785278e-01
-1.349157479343467969e-01,-1.163790507999045015e-01,-2.137487299614286851e-01,2.589632892312612733e-02,-6.657997858638944888e-02,-7.454425490474318738e-02,2.000015676021575928e-01
-1.486521759797719278e-01,-1.429767328786103464e-01,-2.850394973065187298e-01,8.860603631932898253e-03,-2.605660332181145532e-03,-4.265726098705925444e-03,1.404217183589935303e-01
-1.352355650791096375e-01,-1.391583882056273147e-01,-1.758999938255048356e-01,1.500215609041621358e-02,-6.696890608788116928e-02,-5.149120249917298747e-02,1.536007672548294067e-01
-1.956055841953337759e-01,-1.736754858357342779e-01,-2.274073994956702927e-01,2.438643483803718329e-02,-8.601412601283395243e-02,-4.495689401391410323e-02,1.795339882373809814e-01
-1.633829796242612931e-01,-1.443119429167218915e-01,-3.005717555928689166e-01,5.098620916285846565e-03,-1.445565399652613901e-04,-2.621564610384609448e-03,1.479846835136413574e-01
-1.419964628434672860e-01,-1.355648517766203376e-01,-2.812421582195376302e-01,7.088730975354615334e-03,-3.119521887981684376e-03,-3.526184686951846451e-03,1.433302164077758789e-01
-1.495018876312189937e-01,-1.445445822283432102e-01,-2.906098887461282532e-01,2.251731250426907381e-03,-4.411317237555282080e-04,5.165425795631514196e-04,1.437085717916488647e-01
-1.523903768518097557e-01,-1.503315270368438261e-01,-2.892230340137419420e-01,4.632885604173183052e-04,3.403085697594272416e-04,2.795087399026385420e-04,1.378780603408813477e-01
-1.435991545627517407e-01,-1.435714585506748520e-01,-2.859314001308786990e-01,3.694438023640239481e-03,-9.996348961981752455e-04,-1.136738223290014067e-03,1.425139755010604858e-01
-1.388132541888025817e-01,-1.663527107011223971e-01,-3.052717576902624352e-01,7.928932306152311482e-03,-7.040185855388812752e-03,-5.491543681525474715e-03,1.559180766344070435e-01
-1.497848701685711992e-01,-1.517581974959753277e-01,-2.899770102705020447e-01,3.540289898690192425e-03,-7.337815018033367036e-04,2.657963499462427746e-04,1.393575072288513184e-01
-1.515207813501328882e-01,-1.543113982999378686e-01,-2.917959680373194975e-01,2.662001243337737758e-03,8.512300779038511423e-04,1.147234091948165675e-03,1.389994323253631592e-01
-1.514650244015430247e-01,-1.489641244252221386e-01,-2.892328575778778665e-01,3.202881057513038473e-03,1.909426001179992394e-03,1.401691100443590342e-03,1.392062604427337646e-01
-1.313561756515413403e-01,-1.592189240889014812e-01,-2.883285109348952546e-01,2.206880491155394607e-03,-2.335561885613172961e-03,-1.338159613485958438e-03,1.451871693134307861e-01
-1.465192585453943819e-01,-1.499163506066861495e-01,-2.859259668953184619e-01,1.711464557449665419e-03,-4.450978363422581816e-04,1.911590529631764578e-05,1.377736330032348633e-01
-1.458804674847550553e-01,-1.570418437707569170e-01,-2.892553944851733450e-01,1.918600971879702490e-03,-1.567179299233001718e-05,6.451174971408473249e-04,1.381773352622985840e-01
-1.750069312987772296e-01,-1.461183903220709124e-01,-3.250564421835984708e-01,1.240412649597057333e-02,-7.061269078190989500e-03,-2.132848474503688807e-02,1.722207814455032349e-01
-1.580679695843270338e-01,-1.442835377181366230e-01,-3.024897649012333045e-01,7.983989022839655877e-03,3.623300157267412072e-04,3.565968745287247045e-04,1.524153649806976318e-01
-1.629979360137895072e-01,-1.439461235788071780e-01,-2.970309915192151928e-01,1.291993891890267547e-03,1.373262546241198635e-03,1.511121240374900629e-04,1.445411294698715210e-01
-2.301399321779130092e-01,-1.381513309429211467e-01,-3.925885408962795364e-01,8.419920492727933983e-03,2.208905176300364481e-02,-4.651640332010234524e-02,2.407543659210205078e-01
-2.103823448201174728e-01,-1.514358856681818910e-01,-4.592368167376549293e-01,4.102711695781623841e-02,1.815468614578743048e-02,3.529699687616944664e-02,2.997472286224365234e-01
-1.530876067025239706e-01,-1.397431024923060372e-01,-2.888092081409672773e-01,-3.024753811310058015e-03,-1.040547272089429692e-04,7.214280050571073803e-04,1.429636627435684204e-01
-1.478311909338435592e-01,-9.764184367015414645e-02,-2.721904817013091060e-01,-3.413908859841745941e-02,-3.035864437427347393e-02,4.208208841399944250e-02,1.892083436250686646e-01
-1.616684355277581697e-01,-1.431423797329875180e-01,-2.963920623183399217e-01,-2.336730983242180787e-03,-2.979544337541058349e-04,-1.875101627247376817e-04,1.449355781078338623e-01
-1.553635275330276511e-01,-1.488013297151533076e-01,-2.923098599920292417e-01,-8.067500287832939576e-04,4.157765374678305207e-04,-7.987724903088003984e-04,1.403581649065017700e-01
-1.501802628777822446e-01,-1.490052232208490257e-01,-2.885618079228688404e-01,-1.174339589642045198e-03,3.337394831495217986e-04,6.216068869086036313e-05,1.389889121055603027e-01
-1.618225605878608475e-01,-1.320541517726495084e-01,-2.915121210707131705e-01,5.071924062031555464e-03,6.522045850599094601e-04,1.147818113451723812e-02,1.484583765268325806e-01
-1.537752530528918860e-01,-1.116825339415354335e-01,-2.829460744113295734e-01,-1.541897168745714640e-03,-2.292235415125653143e-03,1.139781375020178407e-02,1.559059768915176392e-01
-1.962407164544822669e-01,-1.633413282298583624e-01,-3.538574289335745804e-01,-2.687940611470258315e-03,-4.815809946235345175e-03,4.554516186199048140e-03,1.768173426389694214e-01
-1.636319163245943675e-01,-1.352901019148820549e-01,-3.168084617413423620e-01,-1.323792584234773952e-02,-5.754789722428189924e-03,9.985382474216001215e-04,1.709844619035720825e-01
-1.391321701567228286e-01,-1.558221669190421599e-01,-2.906408592990684103e-01,3.003813606426618266e-03,1.397340603791315944e-03,-1.499474919614369670e-04,1.440060883760452271e-01
-1.606624930500998583e-01,-1.412880491015782447e-01,-2.923454361297162518e-01,3.873286865069123196e-03,-6.006515740932975378e-04,-3.437562681294150345e-03,1.426484882831573486e-01
-2.368975014901328335e-01,-1.533812056537052215e-01,-4.518127671858708228e-01,3.506955491905386357e-02,-1.932643711973222080e-03,-7.850144475315465331e-02,3.054516911506652832e-01
-1.434886929242279729e-01,-6.337406912881425602e-02,-2.604380616079434718e-01,2.972712472779445725e-02,-2.805822522615823017e-02,-8.165051804897142940e-02,2.334056198596954346e-01
-1.624555466284600680e-01,-1.324518389043791156e-01,-2.955501099872466231e-01,2.133141826041191902e-03,3.880772991203842960e-04,-7.895982486516094079e-03,1.510260105133056641e-01
-1.773516663500448454e-01,-1.422731085173967736e-01,-3.097380604952007510e-01,3.620769331178298571e-03,-1.563473023389519282e-04,-5.897744489941927210e-03,1.534416526556015015e-01
-1.655797888218771274e-01,-1.136673696463042921e-01,-2.884480546047229477e-01,-6.737564400452479259e-04,-1.044014849004646760e-03,-9.360682270967328814e-03,1.563246548175811768e-01
-1.606396344260604403e-01,-1.361359076201060225e-01,-2.913556508342918794e-01,-1.798250108239159758e-03,3.172323516547179059e-03,-2.105469916444279409e-03,1.447181105613708496e-01
-2.802891351672860409e-01,-2.277753359108218856e-01,-5.389725553714661554e-01,4.948674714389219437e-02,-3.242376164058990290e-02,-4.560620291751133620e-02,3.162273764610290527e-01
-1.599518002506823966e-01,-1.102489448122407484e-01,-2.783391998533250034e-01,5.097224817089697144e-03,2.959151141787020201e-03,-3.299043309146024172e-02,1.604352295398712158e-01
-1.612832604590645202e-01,-1.417083325927545878e-01,-2.940774721912166600e-01,-4.982586614745232803e-04,-2.781107213650668881e-04,1.440677274259362199e-03,1.436109989881515503e-01
-1.870199469993001906e-01,-2.566389169305127727e-01,-4.497617530429076638e-01,3.948556348734942600e-02,-5.729974649651751323e-02,-3.073103873632682809e-02,2.700898945331573486e-01
-1.313202464405572034e-01,-1.481720902069038615e-01,-2.824587400048785835e-01,-1.241745323898396213e-03,-4.272415835002269478e-04,3.277250363101427524e-06,1.434748768806457520e-01
-1.384980785343124243e-01,-1.512256350330292709e-01,-2.864227358772793441e-01,-2.937354815784159502e-03,-4.289186697079664127e-04,3.289863727739513410e-06,1.420824080705642700e-01
-1.363476829062919837e-01,-1.495027469393678810e-01,-2.855382145795841153e-01,-1.399723874268200222e-03,2.138969311245547786e-04,-2.914700790354330913e-04,1.430892348289489746e-01
-1.423224812776470172e-01,-1.438758431311298602e-01,-2.882299318295754031e-01,-2.253453360810175887e-03,-5.162467958248844434e-04,4.821477707217689885e-05,1.451922506093978882e-01
-1.358437072491292530e-01,-1.431035827865116128e-01,-2.854094336152428468e-01,-1.047181338324229853e-03,-1.067048308976889992e-03,2.725430082376635176e-04,1.460948735475540161e-01
-1.394821300460302727e-01,-1.536894898234564821e-01,-2.888289739091782771e-01,-5.806508096181860375e-03,3.451448834597989433e-03,-7.802271616363979333e-04,1.432592570781707764e-01
-1.514642462430853542e-01,-1.417565149716664696e-01,-2.842663900002604938e-01,-7.539640512696075929e-03,3.476975968284354811e-03,-5.150559336010816260e-03,1.389469206333160400e-01
-1.039549234961031909e-01,-1.566966613922617935e-01,-2.341964428854093616e-01,2.766307426507632998e-03,4.020509789298867126e-02,-3.042026614565359732e-03,1.333245933055877686e-01
-1.269834388817085435e-01,-1.752948242150318969e-01,-2.977921575605396720e-01,3.419753637417301435e-03,-3.847107059864962597e-02,4.529479315995896434e-03,1.667162477970123291e-01
-1.617640982790913007e-01,-2.479046570458962595e-01,-4.940939404173143590e-01,2.185919599982153252e-02,-2.760221458620449111e-02,1.209835789318944223e-03,3.048930168151855469e-01
-1.407977461628583671e-01,-1.421114816154465110e-01,-2.879489226033782878e-01,1.631292761276209938e-03,1.025714004589235403e-04,2.958232458787241363e-04,1.465269774198532104e-01
-1.379535617385463375e-01,-1.577718743501598797e-01,-2.927743360404856388e-01,7.155672852202920068e-04,-6.561858409022133332e-05,-8.699644421436622391e-05,1.459298580884933472e-01
-1.328323043157504380e-01,-1.515021326773176580e-01,-2.868188515530179505e-01,3.672128993677476871e-03,-1.579107863376762828e-03,-6.186222232818745304e-04,1.457209587097167969e-01
-1.288109591202097337e-01,-1.530503443158245935e-01,-2.810492727167380189e-01,1.398358514454762797e-03,-1.130065056512438585e-03,-4.622364096565189772e-04,1.417188346385955811e-01
-1.311519632359829379e-01,-1.497487149806624174e-01,-2.824810262883614698e-01,4.692507283314818062e-03,-3.854380577357253285e-03,-1.237111583544240863e-03,1.433433443307876587e-01
-1.594668463764451205e-01,-2.010525180224206065e-01,-3.070575646214810939e-01,8.554613308433966709e-03,-5.313522855655061078e-02,-1.517242131310338714e-02,1.635693609714508057e-01
-1.283598435104155722e-01,-1.838630297973436745e-01,-3.285668119643888607e-01,-2.256363441015181350e-03,-1.852798616156186781e-02,3.832325888780638203e-03,1.820453256368637085e-01
-1.268213837513298414e-01,-1.478089666215300080e-01,-2.590265020067210600e-01,6.268506448459048620e-03,-2.682976465024713292e-03,-2.378879873962738527e-03,1.236950308084487915e-01
-1.400744530546409738e-01,-1.444197536994387132e-01,-2.615058307611371480e-01,8.975220501797418621e-03,-1.890049237860071249e-03,-4.012283831458507248e-03,1.205714792013168335e-01
-1.374759613837287786e-01,-1.436955265595210585e-01,-2.715289523929713122e-01,7.382164955292141485e-03,-3.106008143107642869e-03,-1.359351994531069006e-03,1.318070888519287109e-01
-1.315487347685019293e-01,-1.452549956592686098e-01,-2.689377514508606293e-01,1.307234231362562095e-02,-1.290394823825308755e-02,-6.880159297225240354e-03,1.354057490825653076e-01
-1.760697116515115845e-01,-1.840234389246131474e-01,-1.229956326305634562e-01,-1.997029300361257125e-03,1.336059567527834481e-02,5.229531108383153951e-03,6.270391494035720825e-02
-1.519210066993701702e-01,-1.555167393675394583e-01,-1.838659349744839744e-01,-1.417607042710066151e-03,7.866022059930155748e-05,4.176986777518063758e-04,3.041567280888557434e-02
-1.564726585821598348e-01,-1.508237172973031226e-01,-2.315425621440626580e-01,-8.242911500789160475e-03,5.368807691408822302e-03,-3.778849870653543542e-03,8.015369623899459839e-02
-1.681636990340205917e-01,-1.732654965519481449e-01,-2.095905170892888858e-01,4.475174615112860878e-04,1.432122313360757347e-03,-6.304043268581012091e-03,4.070423915982246399e-02
-1.653135733785135453e-01,-1.884602236977798162e-01,-3.471217373950520324e-01,2.050351419726682833e-02,-2.021629923550009172e-02,-1.107531936240542005e-02,1.795466244220733643e-01
-1.510015107650111987e-01,-1.566253514792313728e-01,-2.915358325712956722e-01,9.438705224486696951e-04,-5.020359055719997120e-05,-4.975060564127651826e-04,1.378209143877029419e-01
-8.124087184140404982e-02,-1.273000651405944150e-01,-7.169627467710947000e-02,2.112137181479965646e-03,-6.839911465877339392e-02,-8.441079696949235073e-03,1.300562173128128052e-01
-1.296992696156514802e-01,-1.433981640832208415e-01,-2.317993136229290208e-01,-7.357119899946966413e-03,-1.551850519392513608e-03,1.343931037082079019e-02,9.962365776300430298e-02
-1.454562706788637416e-01,-1.442058005316584623e-01,-2.871387939750943974e-01,5.487902157247225889e-03,-1.075174244768548016e-03,-1.441064547360994350e-03,1.426629573106765747e-01
-1.258396451591195508e-01,-1.297415055346834711e-01,-2.341332246179195220e-01,2.868689382977553798e-02,-5.236840911665490567e-02,-5.212230892480645972e-02,1.736851930618286133e-01
-9.504981253948950604e-02,-1.355461624736804815e-01,-2.645902934623804992e-01,3.412063167051263002e-02,-3.815067556905980817e-02,-2.612685833979848729e-02,1.828252524137496948e-01
-1.752639694696690731e-01,-1.376254317840044650e-01,-3.101125091682881418e-01,1.776148505719302552e-03,-3.532445670763975122e-03,-8.911110144141797321e-03,1.579918116331100464e-01
-1.537279092136304981e-01,-1.406996459173050773e-01,-2.902789293319767983e-01,6.902878764560541926e-03,-1.733026163219609193e-03,-3.739459679355844682e-03,1.441833823919296265e-01
-1.677113515787463094e-01,-1.369136094564119555e-01,-2.797604795194680305e-01,2.714954819245842931e-04,1.796649361897144958e-05,-1.009682568200476194e-02,1.313789486885070801e-01
-1.594796410481464921e-01,-1.458768519429361477e-01,-2.933961410283655868e-01,1.022308363130366906e-03,8.516299165643067800e-04,2.706392453926031918e-04,1.412297189235687256e-01
-1.591337969605568226e-01,-1.312161652203916451e-01,-2.807284680543359889e-01,6.025073372561165659e-03,-2.788661668028949870e-03,-8.309834394375435404e-03,1.389197111129760742e-01
-1.593305365083351188e-01,-1.294588749558259755e-01,-2.887278435185475223e-01,3.523568627698560156e-03,-2.455354854557051728e-03,-7.980005138205797585e-03,1.474709063768386841e-01
-1.617976853424062944e-01,-1.365348890746528321e-01,-2.953861140195139789e-01,1.061458551729025680e-03,-9.547740508452682391e-04,-1.610672074002617244e-03,1.478945314884185791e-01
-1.424217446660981934e-01,-1.476093680323564139e-01,-2.877882440022052624e-01,1.596648764630014677e-03,2.022566510694777321e-04,5.636420865894501775e-04,1.428738832473754883e-01
-1.428603009747198282e-01,-1.423454170187268830e-01,-2.802332317799375305e-01,5.992934809368907940e-03,-2.937968541109078446e-04,-4.210791286216050504e-04,1.380248367786407471e-01
-2.014430875960180056e-01,-1.933089144422098782e-01,-2.966405621851868069e-01,-2.343320156467586582e-02,-3.415894689833703229e-02,3.685121032362032728e-02,1.382930129766464233e-01
-1.568504968465607163e-01,-1.265981862226391585e-01,-2.819674127551901055e-01,-2.423322902992978891e-03,-6.095974954961979166e-04,1.618990853549777354e-03,1.427624523639678955e-01
-1.402021613731160854e-01,-1.253659429061438624e-01,-2.592178914416682911e-01,1.354589147322291312e-02,1.248093762472254897e-02,1.730569338354888409e-02,1.344130039215087891e-01
-1.239258038991301186e-01,-1.476752412349961741e-01,-2.659327672672706644e-01,-1.419530931391688178e-02,-1.833463961907334447e-02,7.753366143783081178e-03,1.383863091468811035e-01
-1.508517180455836160e-01,-1.271090478806226609e-01,-2.719611731471399674e-01,-3.860990618878774525e-03,-4.472879950499988747e-04,1.316388656789616116e-03,1.347486376762390137e-01
-1.404274364336217940e-01,-1.396630123927056211e-01,-2.853569855912668762e-01,-2.871895381350352081e-03,-4.632268841657954418e-04,4.118439556231476241e-04,1.454023420810699463e-01
-1.464474769221060513e-01,-1.543843427642820065e-01,-2.888501575941484489e-01,2.728274109500080161e-03,-4.452114114225041823e-04,-6.118504818495702725e-04,1.386915147304534912e-01
-1.474405942411770865e-01,-1.328206535290040180e-01,-2.845007609461590037e-01,3.337383667790681883e-03,1.730298497026463728e-03,2.142049552223070693e-03,1.451178938150405884e-01
-1.591200454527928465e-01,-1.405784745964769600e-01,-2.955405668049346790e-01,1.098125064656014409e-03,-9.475791440508398757e-04,9.849615045488910748e-04,1.466049849987030029e-01
-1.555331934329163557e-01,-1.262388813996988823e-01,-2.802096256231064175e-01,1.430539831944933286e-03,1.253082401575513925e-03,2.406769561454311437e-03,1.417141705751419067e-01
-1.568021026946603003e-01,-1.330481711440579529e-01,-2.925883940949525197e-01,-5.842958570849455906e-03,-1.909003644311725112e-03,3.696832242162728394e-03,1.496060788631439209e-01
-1.528098133463446084e-01,-1.502388823856127542e-01,-2.885177464665450997e-01,6.179075635194062732e-04,-4.366175784447385981e-04,1.601257696644622930e-04,1.370180398225784302e-01
-1.750910923701910482e-01,-1.309861523319205412e-01,-3.021364985509793488e-01,3.484298815778729547e-03,8.934021363068228583e-03,2.207554252090493038e-02,1.594583690166473389e-01
-1.465501546839599878e-01,-1.418508316286384852e-01,-2.887574887748234898e-01,5.785358993504995280e-03,1.479728958426855491e-03,4.113863408768795443e-03,1.451586633920669556e-01
-1.579663700060078280e-01,-1.421739480058502869e-01,-2.957844920577554770e-01,3.284281467887363842e-03,-9.967105467972167069e-04,3.718416126196967585e-04,1.464768648147583008e-01
-1.413975026594260220e-01,-1.554325506532437950e-01,-2.910276459608812649e-01,5.549371400686926338e-03,4.447499485974011624e-03,4.454553450563226362e-04,1.436607837677001953e-01
-1.425147683775931096e-01,-1.193484782817649664e-01,-2.116305929009383302e-01,1.217376053231528782e-02,2.240926156138924041e-02,4.134177833824556614e-02,1.182936429977416992e-01
-1.302354150185148773e-01,-1.528593014541382578e-01,-2.099061429989008964e-01,-9.767287114493147099e-03,1.634948159807115761e-02,-7.389738871171219227e-03,7.942760735750198364e-02
-1.681537285745385857e-01,-1.534091649560964388e-01,-2.252686942674994586e-01,1.539692261713484491e-03,-1.518788603475939008e-03,-4.807796557830291105e-03,6.637042760848999023e-02
-1.468417122121968565e-01,-1.521361784786650351e-01,-2.238619466965972582e-01,-7.229483900638838771e-03,2.966794585722451472e-03,-8.686704210390167047e-03,7.721363753080368042e-02
-1.705295068032999239e-01,-1.869656127363601705e-01,-2.335285467599870213e-01,8.675237034717134255e-03,3.533662253498145306e-02,1.927194855734831735e-02,9.104723483324050903e-02
-1.753342955594786312e-01,-1.253196761418390315e-01,-3.040899494908189116e-01,-2.007524081023340495e-03,6.627383714330160706e-03,-4.099695657804512889e-04,1.601983308792114258e-01
-1.653130162250733837e-01,-1.477092131423429211e-01,-3.045125737060846438e-01,3.067885785421180255e-04,9.064063514249442750e-04,-1.630079764971245816e-05,1.487938165664672852e-01
-1.403286361044236152e-01,-1.626075384442266236e-01,-2.944576876968524881e-01,2.966890149786208740e-04,4.807595399720045919e-04,7.855986557439709325e-04,1.442951709032058716e-01
-1.281847396650080684e-01,-1.419148193187864393e-01,-2.661932509163875693e-01,1.038833233989220478e-02,9.605962912416594543e-03,5.821720201907582513e-03,1.343214362859725952e-01
-1.319455203060511672e-01,-1.602954833531300138e-01,-2.880314858518826515e-01,3.677659715541820029e-03,9.081296942673164341e-03,-3.407831126229469315e-04,1.450167298316955566e-01
-1.446870189979641563e-01,-1.634200560045354633e-01,-2.964471248941230042e-01,1.267656720044447712e-03,-2.112262419989467742e-04,6.004847891720445320e-04,1.433358490467071533e-01
-1.374093081271338668e-01,-1.637588127556885709e-01,-2.936133559661731618e-01,7.700812928937705859e-04,1.652932092279801824e-03,-1.970609338728360096e-04,1.448730230331420898e-01
-1.497342512289617511e-01,-1.852496954713199750e-01,-2.245444422924043060e-01,-5.180692331008427895e-03,7.862691464413529285e-02,3.484851615621173404e-02,1.627001762390136719e-01
-1.415056764546775425e-01,-1.473147094694178538e-01,-2.879698700957192825e-01,2.506420760167954280e-03,-2.467623179737314719e-04,6.584399267835512994e-04,1.437185406684875488e-01
-1.387490300511147745e-01,-1.480880389642842687e-01,-2.889822490533120458e-01,2.142534664309189360e-02,-1.808001650203594837e-02,-2.396433292914870034e-02,1.591693162918090820e-01
-1.625011705879680912e-01,-1.525632186005480007e-01,-3.072187729387091948e-01,5.901844916044604594e-03,-8.471140741552842023e-05,4.135672292642108530e-04,1.502836495637893677e-01
-1.428924804723641084e-01,-1.432209243528615450e-01,-2.860644466528721175e-01,3.388028695870052946e-03,-7.722395985340495565e-04,-1.163949095786544988e-03,1.431488245725631714e-01
-1.349285119652852971e-01,-1.496626358535949608e-01,-8.139125441497321867e-02,-1.083466070960591165e-02,-3.699298938026736316e-02,4.347655803647891559e-02,1.183233037590980530e-01
-1.573431826555827528e-01,-1.445067032910332672e-01,-9.835372099614192454e-02,-5.430713457507763652e-03,-5.002155448118869585e-02,3.506584179389454770e-02,1.190424337983131409e-01
-1.743785676255564798e-01,-2.178520390004630713e-01,-3.419757654715440687e-01,-1.409520336628949065e-02,-6.400455044229259871e-02,3.464922134326596775e-03,1.887180954217910767e-01
-1.726974274216049876e-01,-1.772846150916528862e-01,-1.959262572672375025e-01,7.614643311861701760e-04,-8.633081040436951445e-03,-5.671014321662505055e-03,2.785456553101539612e-02
-1.254572341122901225e-01,-1.598405581920927243e-01,-2.570072644867424927e-01,-4.714698597223802336e-03,-6.909643539607948637e-03,2.615889727667936471e-03,1.191425174474716187e-01
-1.346066958252407075e-01,-1.505307863492444942e-01,-1.790840366834943465e-01,-2.554600968708671885e-02,-3.915939791776206630e-02,6.937913908230870785e-02,1.500736922025680542e-01
-1.476083280521348629e-01,-1.642772211868566701e-01,-3.001823258179195375e-01,-5.390631681422071442e-03,1.448781576422546527e-03,5.156287584003800030e-04,1.452849209308624268e-01
-1.212348364307290205e-01,-1.515015380437940984e-01,-2.120581782196977183e-01,-9.985463979238714399e-03,-4.565346143461314343e-02,2.188502852406248866e-02,1.200197339057922363e-01
-1.438950637126090448e-01,-1.530090406601680442e-01,-2.910703988192733238e-01,-1.148869016244187047e-03,3.338920072601130507e-04,-7.247048378527524070e-04,1.428571343421936035e-01
-1.590601412616575727e-01,-1.792477574140769470e-01,-3.405912128573512776e-01,-1.863310843868910480e-02,-1.438541688914358845e-02,8.551886673900006841e-03,1.777025461196899414e-01
-1.522602415986677449e-01,-1.534528947901245277e-01,-2.902613685943166155e-01,-4.390711660364804338e-04,-3.080383998791477599e-04,-3.052951221013185546e-04,1.374128460884094238e-01
-1.143339313974923305e-01,-1.548886113239103524e-01,-2.993525440287131967e-01,-2.855579021626652308e-02,3.146935243720663106e-02,-2.515410733459491621e-02,1.889143884181976318e-01
-1.508095622421388726e-01,-1.611766380227919182e-01,-2.978117518654893048e-01,-9.686554980210826133e-04,-1.023521657746706602e-03,6.082042253766688179e-04,1.421274244785308838e-01
-1.461229247588632929e-01,-1.546346880874912566e-01,-2.899909960132440734e-01,-1.815372147097216128e-03,5.311777315095404144e-04,3.758826522368076579e-04,1.398465484380722046e-01
-1.431116006671188656e-01,-1.473844990107783803e-01,-2.887851957712070372e-01,-5.710930456756021373e-03,1.513235244980324148e-03,-9.597877056757679604e-04,1.439586132764816284e-01
-1.502588682989129121e-01,-1.296007010004046334e-01,-2.618584711627379713e-01,6.859346901234028918e-03,-1.402983091102301275e-03,-4.870003099499984126e-03,1.241164058446884155e-01
-1.393334761793424692e-01,-1.426773549484931514e-01,-2.470912122104158837e-01,1.276732434514717650e-02,-9.036772282877783904e-03,-4.553089789134203910e-03,1.098124682903289795e-01
-1.522172201909026690e-01,-1.416177276176413813e-01,-2.382358728286827210e-01,8.953090910721705001e-03,-2.249734697783441466e-03,-8.495409353455003754e-03,9.431587904691696167e-02
-1.478874175023099369e-01,-1.331688462829297981e-01,-2.772695555880264617e-01,6.216503702511927063e-03,-1.797984056367152349e-03,-2.967491120516824003e-03,1.378867179155349731e-01
-1.445982918362612168e-01,-1.330939958024928704e-01,-2.829845352369764200e-01,4.778681167023689919e-03,-1.342598119452535939e-03,-2.923435512136498410e-03,1.448264271020889282e-01
-1.537219658177684523e-01,-1.365593689321249193e-01,-2.521348009984376026e-01,6.201433279596229101e-03,-3.415140879890512550e-03,-2.456108126445484974e-03,1.087985336780548096e-01
-1.607723836434690745e-01,-1.361307061659706719e-01,-2.945300148429128573e-01,3.470508938444013657e-03,-1.544533251141361673e-03,-5.622127091808992033e-04,1.477787792682647705e-01
-1.591162377565560615e-01,-1.390344207820108924e-01,-1.481341850677725946e-01,1.121603780013089371e-02,-9.520335051904076085e-02,-7.879287539900219073e-02,2.156310081481933594e-01
-1.452300469793680049e-01,-1.373088061209364330e-01,-2.356256285290576624e-01,2.092605635421690077e-02,-3.471891115096888830e-02,-4.145722689114199333e-02,1.379716098308563232e-01
-1.576815528360960561e-01,-1.598085039187715772e-01,-1.438131478345504588e-01,7.612733504320531950e-04,1.765127076976496481e-04,-5.924170389655910446e-02,1.037155911326408386e-01
-1.463629691921034814e-01,-1.189718586979416903e-01,-2.454292233682762725e-01,9.760027401696753230e-03,-4.832631996537163112e-03,-1.774006873922235120e-02,1.207389682531356812e-01
-1.619877308627811763e-01,-1.526564722615538494e-01,-2.603394294760768557e-01,8.831289343273748815e-03,-5.097761163054889168e-03,-1.310145487620881059e-02,1.072602197527885437e-01
-1.286831373014765412e-01,-1.915859490485984085e-02,-2.756314696932960495e-01,-2.429667914522586070e-03,-7.713445729105261823e-04,-1.505370852772650557e-02,2.244620770215988159e-01
-1.522274568071048939e-01,-1.561119898822810603e-01,-2.117871648645078264e-01,-1.103276431712324826e-02,-2.764842423552743914e-02,1.784620431896921308e-02,8.333678543567657471e-02
-1.382861488476063438e-01,-1.427502782357110700e-01,-2.598615357859533903e-01,-1.025962210531040572e-02,-2.143180340307474646e-03,5.793739121740268914e-03,1.211942061781883240e-01
-1.315065769455982803e-01,-1.591819970553662311e-01,-2.919308405906232973e-01,-1.466450209449738154e-02,-2.537593457345145229e-02,5.233830572179501775e-03,1.572297662496566772e-01
-1.428727480279938233e-01,-1.418357753626036666e-01,-1.881602068886105983e-01,-1.067831180727359455e-02,-1.443758375053889528e-02,8.330801649903896849e-03,5.722419545054435730e-02
-1.662269648361632823e-01,-1.331278314938390550e-01,-2.893527376672121454e-01,-2.142358330685878876e-03,-1.343511214850932108e-03,9.324389227010640088e-03,1.435649096965789795e-01
-1.443765698692848209e-01,-1.533606073451946883e-01,-2.898705617980207316e-01,1.667259105708852884e-02,-1.028506188539824069e-02,-5.928660147509752336e-03,1.455981135368347168e-01
-1.468239138409278555e-01,-1.618841653535537661e-01,-2.979262078472623698e-01,1.369733111626699135e-03,7.700251771795317080e-04,1.853218369512328947e-03,1.442247778177261353e-01
-1.583079365353324830e-01,-1.829656870589936035e-01,-3.360739191285271321e-01,1.349779778944721828e-02,-8.942880591852817029e-03,-4.303151891892163274e-03,1.693147569894790649e-01
-1.388533400455077838e-01,-1.539931344566138893e-01,-2.874712024078522887e-01,4.273678406165959745e-03,-3.613858883393669588e-03,-2.816193613617340354e-04,1.419882029294967651e-01
-1.377789514696684536e-01,-1.507657483198774351e-01,-2.871106755439745140e-01,3.532935117649876455e-03,-1.304648506504914015e-03,-3.423157514712601014e-04,1.434300690889358521e-01
-1.380979214375550324e-01,-1.569453876134538350e-01,-2.899666020380118892e-01,1.604988069072258230e-03,-7.229524056098114845e-04,-1.850747624941385451e-04,1.434098333120346069e-01
-1.270724554788363880e-01,-1.555834725365995708e-01,-2.884173525707450780e-01,9.380648445043146544e-03,-1.036955284895313932e-02,-8.265698347721244302e-03,1.517777442932128906e-01
-1.604921880347540131e-01,-1.806352154667523746e-01,-3.386743992994400432e-01,1.888109721888039244e-02,-1.748995295151518567e-02,-1.373381935823311112e-02,1.764045059680938721e-01
-1.386309552711274540e-01,-1.526803516238927627e-01,-2.894883060355624149e-01,5.329995526280236970e-03,-5.212907368331360335e-03,-3.450816480883455340e-04,1.449240446090698242e-01
-1.555581420277167837e-01,-1.410278670384217670e-01,-2.902649090332377613e-01,-1.981194218647812453e-03,-3.682966748205569090e-04,-9.856923511118778885e-04,1.425814330577850342e-01
-1.612891061433344153e-01,-1.430234788355791431e-01,-2.939877321949593281e-01,-2.536908897433453442e-04,-7.470836783355915304e-04,-4.141383341857006895e-04,1.427191793918609619e-01
-1.705750063344529110e-01,-1.508270446905292106e-01,-3.320431135208709028e-01,-1.780475651540455381e-02,1.269859847781154767e-04,-8.217600019058930033e-03,1.755114197731018066e-01
-1.470966862345521875e-01,-1.410990576850488787e-01,-2.896078565738999244e-01,-2.902801432038838725e-03,-2.296573582101186991e-05,2.979192722761522588e-04,1.456903666257858276e-01
-1.434814936416889675e-01,-1.692904370868627550e-01,-2.827608988700044401e-01,-9.832569139661632290e-03,7.178564592254353324e-03,-5.513919279009610493e-03,1.304072290658950806e-01
-1.410900238747241908e-01,-1.472808506304577880e-01,-2.870571497645536541e-01,-2.021854564558773441e-03,1.526176683851528267e-04,-3.316952434875308255e-04,1.430165469646453857e-01
-1.571921960071467617e-01,-1.479051787814737451e-01,-2.909396648961602994e-01,-5.740810842869306305e-03,-3.261286530909026662e-04,-2.790698389080916017e-04,1.389826387166976929e-01
-1.543236552877421397e-01,-1.425381162839833571e-01,-2.929983547856859216e-01,-1.784837096052014922e-03,-7.630398030132278225e-04,2.421757969672570316e-05,1.449663192033767700e-01
-1.735711433401643244e-01,-1.954218138690366480e-01,-3.428571645592063399e-01,-2.313863560116460535e-02,1.747108268578687063e-02,-1.654292235536796579e-02,1.696440577507019043e-01
-1.483728191267079388e-01,-1.604209549771115906e-01,-2.958934341517902578e-01,3.001941301589727742e-03,-9.080610272986277057e-04,-6.347201349907774211e-05,1.419847309589385986e-01
-1.473275409239055422e-01,-1.299315120152775005e-01,-2.390180961384540947e-01,8.776436910350484538e-03,-1.944352242784808419e-03,-6.763074187442200645e-03,1.033656969666481018e-01
-1.103375166581100769e-01,-9.468965155639545717e-02,-8.978006165298638153e-02,1.480301395161803119e-02,-2.954895229044061933e-02,-6.315542699205937971e-02,1.248535811901092529e-01
-1.615684390231719170e-01,-1.322638769402754155e-01,-2.936217003522687552e-01,4.131820720448905635e-04,-8.170449940744146412e-04,-1.916577659109225569e-03,1.489299088716506958e-01
-1.554041502967230259e-01,-1.216037036254836168e-01,-2.784095820263690069e-01,-4.725679596249789984e-04,1.331809035356738738e-04,-2.993330887003493434e-03,1.430316269397735596e-01
-1.609294710630760350e-01,-1.448546531828356076e-01,-2.944379795082298079e-01,-1.220939257458658221e-03,-3.880566123680271218e-04,-3.360891519858635922e-04,1.422473490238189697e-01
-1.556354280621424224e-01,-1.484726931869327360e-01,-2.931365975861768836e-01,-1.268709939358774819e-03,-9.462637531529771891e-04,9.746407148032519953e-04,1.412555277347564697e-01
-1.563263185783934084e-01,-1.524099725637455272e-01,-3.050627915176792881e-01,-6.421922704225003012e-03,1.145041759832368319e-03,1.326713404442223616e-03,1.511731296777725220e-01
-1.596222892604851062e-01,-1.427312748282220656e-01,-2.962609617117692995e-01,-8.447570509231843924e-03,-9.392129283293759691e-04,3.014155333482578924e-03,1.466539651155471802e-01
-1.609754542582554071e-01,-1.305059588252368286e-01,-3.004667335410718398e-01,-6.858750240605501064e-03,1.157053249053729277e-02,-9.629739031446970035e-03,1.595537215471267700e-01
-1.738574299287216074e-01,-1.388682896517623999e-01,-3.307564478787593520e-01,1.873379211681108943e-03,7.872715595147886450e-03,-4.274925065992708426e-03,1.777149289846420288e-01
-1.627541668480098347e-01,-1.474381481383054415e-01,-3.243370922013208979e-01,-1.809254981660856146e-02,2.897286613340586004e-03,-9.187681491003138814e-03,1.734326183795928955e-01
-1.059263948734107674e-01,-8.645359162028076749e-02,-1.199474251700228256e-01,1.636460052192095782e-02,3.840572100063962407e-02,6.373273060767423170e-02,1.351398825645446777e-01
-1.450650895582239475e-01,-1.347483985489441316e-01,-2.373266313148363338e-01,9.193945121372950127e-03,2.910549399043795959e-03,8.510880915448887016e-03,1.003332734107971191e-01
-1.617673829564385546e-01,-1.339380376123788796e-01,-2.836479484720174082e-01,6.214031865713793255e-03,-1.726235918235612446e-04,4.835263900371973393e-03,1.385903060436248779e-01
-1.332332918854443049e-01,-1.435641959097403442e-01,-2.639907498101180527e-01,9.951477541369968191e-03,3.374153669938942824e-03,4.339736920500725410e-03,1.274407655000686646e-01
-1.568093976263297828e-01,-1.457895160139902613e-01,-2.351117653333483215e-01,-3.072389087252797024e-03,-6.435048018682132734e-03,9.914142463435051539e-03,8.696550875902175903e-02
-1.156238955994667306e-01,-1.221078540270256751e-01,-5.350584203155649837e-02,-1.152090472830343514e-02,-3.045223503895440331e-02,6.734506496564432454e-02,1.452230960130691528e-01
-1.706283642774197862e-01,-1.392372011578369706e-01,-1.347514028988245072e-01,1.489813643030594905e-03,-3.052708983011566055e-02,4.881555740855529624e-02,1.053450778126716614e-01
-1.524433588133427553e-01,-1.505367256493414518e-01,-2.890775002232995328e-01,5.749000170570020118e-04,-6.521462660869068893e-04,-2.675345644218775527e-04,1.376063823699951172e-01
-1.333442624937400955e-01,-1.134286704719243699e-01,-1.990650212569849142e-01,7.692139498364510648e-04,-1.345439765258795708e-04,1.827982789156553864e-02,8.383914828300476074e-02
-1.449106710690153677e-01,-1.287165384077837427e-01,-2.173762527280204693e-01,9.764604919010379594e-03,9.906354458917472627e-03,1.615078654425550556e-02,8.972191065549850464e-02
-1.479225748749234959e-01,-1.510258744178062940e-01,-1.898479174046762696e-01,-1.296652240618346302e-02,-2.478628793310767506e-02,8.692664857686883961e-02,1.632588654756546021e-01
-1.175444324244507982e-01,-7.590216899650230331e-02,-1.618648063637382617e-01,-1.561319780282714557e-02,-3.003866839566532790e-02,7.305307684200305907e-02,1.580902040004730225e-01
-2.017406032490550727e-01,-1.213297456840312927e-01,-3.186317731121902641e-01,-2.550056975768716025e-02,-1.136965059856003858e-02,4.233431768257095440e-02,1.929870396852493286e-01
-1.873412407893063347e-01,-1.311231582322759381e-01,-2.975286349173913991e-01,-1.539696338497743497e-02,1.661171590513899413e-02,-4.176700918140464902e-02,1.681331396102905273e-01
-1.350010720900680361e-01,-6.049603677511174171e-02,-2.182238431513587873e-01,-5.623303697479021005e-04,-6.072480577105014276e-04,-5.886919181424562358e-02,1.705178767442703247e-01
-1.940363583160636951e-01,-1.097631171954322749e-01,-2.828131602180909976e-01,-2.524948671406199857e-02,9.383931099488686256e-03,-6.116287825578338444e-02,1.893786787986755371e-01
-1.769905155017830189e-01,-1.650321233372689655e-01,-3.390067291525168391e-01,-6.483031776841398364e-02,1.086870645718321544e-02,-3.827245295695647781e-02,2.137459963560104370e-01
-1.545245317754994352e-01,-1.441686263496223253e-01,-2.901138793056383669e-01,-2.391189029789871686e-03,1.406523922702368088e-04,-3.925322772475811368e-04,1.411153525114059448e-01
-1.451820827108734058e-01,-1.451014701138358953e-01,-2.851524573292150699e-01,-3.448973050101546752e-03,-3.289077927869478251e-04,3.524724378841392631e-04,1.401405632495880127e-01
-1.446243304570189459e-01,-1.524727716373651121e-01,-3.249753025369107595e-01,-1.912630056576749074e-02,-1.055284740410617449e-02,3.183764678098941099e-03,1.806503236293792725e-01
-1.602564728155971008e-01,-1.400139241165586912e-01,-2.924689577983622946e-01,-3.308098692636092346e-03,-2.516897996195380238e-03,8.147473993874718764e-04,1.435968130826950073e-01
-1.520308860958468622e-01,-1.169136591486873017e-01,-2.667872077014926124e-01,1.004334728679860981e-03,1.854276583439026229e-03,1.467473040314755568e-02,1.381721496582031250e-01
-1.860024965187151991e-01,-1.578426895545776143e-01,-1.867456606093117755e-01,-6.699974865404868460e-03,-4.535388099260588557e-02,8.636783404534970066e-02,1.717505604028701782e-01
-1.490241706964068602e-01,-1.395819245010637144e-01,-2.408195513883333028e-01,-8.234273350390061003e-03,-2.791681695626907055e-03,5.854160571264905785e-03,9.854900836944580078e-02
-1.568188248320206424e-01,-1.304212254661727965e-01,-2.532813876058638836e-01,-2.399217520230304511e-03,9.944316177550455160e-04,7.240666022896613194e-03,1.128084957599639893e-01
-1.698109237419736794e-01,-1.474006587066326590e-01,-1.472660759517920581e-01,5.047438972744100125e-03,1.072470159478139222e-02,3.388777697629284658e-02,6.612023711204528809e-02
-1.257535569495026595e-01,-1.580354773779033550e-01,-2.805453601383521844e-01,-5.958306565566278508e-04,1.140441083503352738e-03,-3.043753681775996939e-04,1.414598673582077026e-01
-1.291810355775822039e-01,-1.497452228535749719e-01,-2.804326610848145718e-01,-4.541145480907465663e-03,2.570834695593271057e-03,-1.347717375786146353e-03,1.423963308334350586e-01
-1.324339683261265277e-01,-1.579055733802882666e-01,-2.909516536272087617e-01,-2.742735942278294939e-03,4.027132725027630922e-03,-3.358983851108878101e-03,1.477972567081451416e-01
-1.245708100908971133e-01,-1.580176155306345920e-01,-2.782471988324405343e-01,2.477119679614112882e-04,1.622416437816815793e-03,7.297604903394602034e-04,1.400171965360641479e-01
-1.278187853212542913e-01,-1.603623008080620471e-01,-2.822522597112731568e-01,1.219124439273713790e-04,5.311974939082916153e-04,4.565468502675504889e-04,1.410123705863952637e-01
-1.275292384564464809e-01,-1.575518173614443018e-01,-2.810255319770690319e-01,5.787097558039821761e-04,-4.005031680959190615e-06,-9.110418214615975500e-05,1.409082710742950439e-01
-1.204831628691081236e-01,-1.502378302286186407e-01,-2.720577644496710024e-01,-4.986376603444578857e-03,1.079547815289571590e-02,-2.423835917837372997e-03,1.406840085983276367e-01
-1.266094721729423833e-01,-1.592631372009244428e-01,-2.819362136820556808e-01,-6.367291655714583942e-04,1.191848612553813138e-03,6.259524475327085235e-05,1.418666988611221313e-01
-1.308639024684684349e-01,-1.629146087805430354e-01,-2.828043129706515058e-01,-2.422073083867242425e-03,4.367642207840772076e-03,-9.391126722996064784e-04,1.389993280172348022e-01
-1.517699559667792797e-01,-1.849182525534178723e-01,-3.334637393109251557e-01,-5.585691559915058162e-03,3.644733459954386471e-03,-1.128347867799364300e-03,1.680055707693099976e-01
-1.341291855415528145e-01,-1.515118534095761249e-01,-2.824980412737569946e-01,-3.705634164850286384e-03,1.188896617493005129e-03,-1.893643754589304916e-04,1.406483948230743408e-01
-1.561843421502022156e-01,-1.904784570724812887e-01,-2.930419208154819710e-01,1.308160355447542111e-02,4.224027825563835686e-02,2.894894611656410877e-02,1.535998284816741943e-01
-1.475733965559059557e-01,-1.738522412157653130e-01,-3.288272551005104738e-01,-4.011498085829533211e-03,3.018185495948356219e-03,1.101493200021890157e-03,1.698812544345855713e-01
-1.743207068975562990e-01,-1.754900764872997510e-01,-3.335707398520286748e-01,-2.327291058404299187e-02,1.436211589211031960e-02,-1.319670308954198380e-02,1.671582311391830444e-01
-1.426681637978814976e-01,-1.530166903251994059e-01,-2.907982941033960822e-01,-1.133762261958446435e-03,-5.891374377533911878e-05,4.132303305838131986e-05,1.432500332593917847e-01
-1.365047445178672048e-01,-1.569703040411428718e-01,-2.894576635053667246e-01,-1.342454170791375703e-03,1.003470794220171630e-03,-4.507213502778583780e-04,1.438478529453277588e-01
-1.341332185252841203e-01,-1.643324978431807970e-01,-2.909739633719659047e-01,-1.868206350661505985e-03,-2.853708151321584108e-03,-2.409425928814974346e-04,1.442553848028182983e-01
-1.335027944705733660e-01,-1.666256393671242120e-01,-2.906299750106570157e-01,-6.816126877392791059e-04,-4.655469243364455945e-03,4.144446100999131673e-04,1.436958760023117065e-01
-1.413987967295806669e-01,-1.600515577296208747e-01,-2.933258563333389635e-01,2.458149612310521481e-03,-5.015982307658840671e-04,-5.875781797433094877e-04,1.435820907354354858e-01
-1.348906309281791560e-01,-1.639505305603690677e-01,-2.921025462488691105e-01,1.779906316669617981e-03,-2.795902928930928556e-03,1.586687985341708341e-05,1.449981331825256348e-01
-1.257621469515534662e-01,-1.567375248670969667e-01,-2.846025051905586856e-01,2.472594154212029698e-03,-1.819913560110572766e-03,-3.104701309341536294e-04,1.459388881921768188e-01
-1.236593626810255780e-01,-1.564010825438068852e-01,-2.813270042893849521e-01,-2.658475394032141538e-03,-9.271583018551819710e-03,1.855662656315402092e-03,1.451144963502883911e-01
-1.288681777882221269e-01,-1.593121162620233788e-01,-2.865868841062881867e-01,-2.674364364443766219e-03,-2.411782317818889597e-03,-4.568663146556590582e-04,1.450516432523727417e-01
-1.363102011004271863e-01,-1.412529618617832661e-01,-2.821364842628598657e-01,7.701466519382813361e-03,2.968600621963357611e-03,3.319185650573864416e-03,1.442441642284393311e-01
-1.525292530694096760e-01,-1.577582302188997310e-01,-2.933912871717555548e-01,7.219185239673809804e-04,1.140110178258819116e-03,7.833574308102075369e-04,1.383480876684188843e-01
-1.603935833916799170e-01,-1.411868476381480941e-01,-2.899453171551382713e-01,-5.816043701922702161e-03,5.348955322203535843e-04,-8.632021073502778655e-03,1.413035392761230469e-01
-1.390186943860884650e-01,-1.507307178195311792e-01,-2.684040686994853542e-01,-1.044107365815807008e-02,-9.285052895678110041e-03,7.280703709534186094e-03,1.269137263298034668e-01
-1.493903124504549207e-01,-1.345687809857433748e-01,-2.781281867497127913e-01,-7.288899787888244823e-03,1.040081268212124594e-03,9.133223114051383781e-04,1.373548060655593872e-01
-1.468671708159454692e-01,-1.343710208324666588e-01,-2.763637697859981368e-01,-1.095726371900303427e-02,-1.772011172418221396e-03,9.276679383320657682e-04,1.375351548194885254e-01
-1.514966946532534664e-01,-1.386862406117536639e-01,-2.822775506547746116e-01,-6.553982296964563914e-03,-1.578884820973017449e-03,3.231126809265192582e-03,1.382416933774948120e-01
-1.346749849305803881e-01,-1.361507272867573393e-01,-2.405458042870310120e-01,-1.078600547083984930e-02,-8.725956515898542626e-03,3.648768019986265397e-03,1.080368086695671082e-01
-1.405259233677823016e-01,-1.480321555549865276e-01,-2.688528053316510680e-01,-9.476427847589473374e-03,-1.557459455468674248e-03,5.030336970649465153e-03,1.261486411094665527e-01
-1.416781345915014700e-01,-1.602980418589647904e-01,-2.904551928256940974e-01,-1.775146057043059528e-02,-1.266357708881645991e-02,1.206133883542431437e-02,1.468807905912399292e-01
-1.498728319370638273e-01,-1.463172032397211941e-01,-2.903963441422271474e-01,-6.404564126158945447e-04,4.401199781328672287e-04,-4.674118948444457087e-04,1.423433125019073486e-01
-1.435125307433058328e-01,-1.434444800203397707e-01,-2.897392059518061336e-01,1.358359437687326173e-07,-3.509127298750561088e-04,-2.225579465483627111e-04,1.462624818086624146e-01
-1.392142319072184609e-01,-1.392304156604933230e-01,-2.864194275275852020e-01,1.414133127468045594e-03,-3.527347437684942230e-04,-2.246278717039129668e-04,1.472192704677581787e-01
-1.429595353604785901e-01,-1.423060642686408417e-01,-2.891187882391179631e-01,4.617837275249619391e-04,-1.091634902923408025e-08,-1.705275574424235899e-05,1.464892625808715820e-01
-1.425213229727002873e-01,-1.436757587430473326e-01,-2.888708213150950055e-01,3.537974283522216275e-04,-5.960332280184277651e-05,1.749404379229316166e-04,1.457773447036743164e-01
-1.438274332770109465e-01,-1.421819712824300419e-01,-2.875918838380149833e-01,2.314483253385716914e-03,-2.118395341097251594e-04,-4.242169056353499077e-04,1.446520984172821045e-01
-1.395467614620306829e-01,-1.409266093633282368e-01,-2.854954442482621757e-01,1.499240878348147028e-03,-7.496190604622827297e-04,1.226251046058247473e-04,1.452928334474563599e-01
-1.669500155222377880e-01,-1.933181788279026980e-01,-2.724709212971169192e-01,1.737834882559401509e-02,4.261627864776938029e-02,2.795027835509419911e-02,1.332128643989562988e-01
-8.135066955527964216e-02,-1.308632222317506477e-01,-1.246008470330258744e-01,7.788503027432447379e-03,8.071235099586035466e-02,2.417312360875389053e-03,1.480662226676940918e-01
-1.460803887643934429e-01,-1.833117507027235138e-01,-2.376335603615115921e-01,8.154676022661320328e-03,9.334706736160451601e-02,3.674010096796668373e-02,1.917016804218292236e-01
-7.698667369154625628e-02,-1.109462468173348926e-01,-1.257243234762598638e-01,1.105004041581339816e-02,7.573224310589708741e-02,2.170487656496868784e-02,1.444272696971893311e-01
-1.412938043457517556e-01,-1.648347739423576264e-01,-2.501212152874965344e-01,1.358206006357062486e-03,4.501574327457747056e-03,-7.161900473064729874e-04,9.951655566692352295e-02
-1.736343336042339147e-01,-1.807744828839583651e-01,-1.378116638506139136e-01,4.470692007007282844e-03,4.156192326251998553e-02,3.291065511651037473e-02,1.004066690802574158e-01
-1.534924374892394916e-01,-1.280682518049007235e-01,-2.101356812632819426e-01,7.720904230426713089e-03,2.633037285687993626e-03,1.406247397679336909e-02,7.802467793226242065e-02
-1.672771732148022050e-01,-1.489216785495319217e-01,-1.402318494297802587e-01,1.011778438467806317e-02,3.487842510302820859e-02,5.035198279785803310e-02,1.101568564772605896e-01
-1.565569956248243355e-01,-1.196349226804924448e-01,-2.011437336410425158e-01,7.406686883900016763e-04,-1.468756084952103046e-02,6.725382511148070286e-02,1.386199891567230225e-01
-2.078812270877795909e-01,-1.614341620028387492e-01,-2.739550776991092618e-01,-9.122273380435703960e-03,-1.827772865525470122e-02,5.298538769003997145e-02,1.388029158115386963e-01
-1.566132837648517018e-01,-1.400693097599771675e-01,-2.114654940876035949e-01,-7.777501063963590533e-03,-6.687773275219747321e-03,1.763083142391492011e-02,7.374366372823715210e-02
-1.645499999067230879e-01,-1.354267805088349153e-01,-2.959930746243487620e-01,7.064134063387394850e-04,-1.297814812389014999e-03,-1.541309193783912349e-03,1.482132524251937866e-01
-1.166957678967202178e-01,-7.500340714772890660e-02,-1.230214241954235010e-01,3.587352492738053299e-03,1.478673999778142706e-02,7.316505541441786775e-02,1.370982229709625244e-01
-1.869049953667061836e-01,-1.658273692935611221e-01,-2.057347157860825448e-01,-9.397476314167641702e-05,-1.078326417457588920e-02,9.129324584570754075e-02,1.629353910684585571e-01
-9.673832216828534558e-02,-6.148297198689210707e-02,-1.320715622444003368e-01,-1.265505945996643275e-02,-2.661180491329330142e-02,8.071143059222939120e-02,1.608884185552597046e-01
-1.329743999237975038e-01,-1.342243601991454649e-01,-1.463513286074577535e-01,2.123886210884779607e-02,4.050995122039387913e-02,6.125675143322367733e-02,1.330315321683883667e-01
-1.636014816803389449e-01,-1.194184124260218027e-01,-1.925201893011673215e-01,-8.031900258102112403e-03,-1.314852658017839557e-02,5.208361575986658609e-02,1.136505454778671265e-01
-1.470549869911218499e-01,-1.107884826977017373e-01,-2.689591441271315664e-01,2.239415414954439975e-03,-1.551219855267326039e-04,-1.953221054485700450e-02,1.475010514259338379e-01
-1.265857536207915524e-01,-1.519499452117483718e-01,-2.790630948702131353e-01,-8.579606795743771911e-04,-3.450531137698088996e-04,-3.069026229460501687e-04,1.415205448865890503e-01
-1.279081671310507984e-01,-1.523768614511638586e-01,-2.796919607968904042e-01,-1.318411460399267774e-03,7.176661074061299389e-04,-1.006231964049682324e-03,1.411838680505752563e-01
-1.354669494285918874e-01,-1.575228754241365658e-01,-2.846529654809413223e-01,-3.248521959997078667e-03,8.002703752231014032e-05,-2.363024104301780185e-04,1.395863145589828491e-01
-1.334104430349021819e-01,-1.595132259379246631e-01,-2.861025269250726533e-01,-3.954292283623351244e-03,3.035116382902197391e-03,-1.266939653447452310e-03,1.417388468980789185e-01
-1.320378839583728758e-01,-1.603741661367286964e-01,-2.752465934275092341e-01,-4.164022651380457248e-03,8.224863786723894373e-04,-6.544226820854097361e-04,1.315637081861495972e-01
-1.333600010538292246e-01,-1.521447195560207133e-01,-2.645686353685641756e-01,-7.461439751578806401e-03,2.657800864447744382e-03,-1.392584766950651087e-03,1.236846074461936951e-01
-1.372264171313743453e-01,-1.453873393165513173e-01,-2.847629285156502155e-01,-1.724868595572784510e-03,1.993918339935213402e-04,-5.073591468869279465e-04,1.436642110347747803e-01
-1.519751771822598907e-01,-1.378625085221912294e-01,-2.882766566863227409e-01,4.516083171740169558e-03,-2.645576176172118738e-03,-4.066857114192541818e-03,1.443351656198501587e-01
-2.170253693383120963e-01,-1.334198226440327928e-01,-3.562870145014787604e-01,-5.022548564327810119e-03,3.181993424123170933e-02,-5.371336103189371797e-02,2.231486439704895020e-01
-1.405666345063752987e-01,-8.251261742853478742e-02,-2.778392458210688920e-01,1.911618348339950632e-02,-4.009028812778791737e-03,-2.788428199475480318e-02,1.834676116704940796e-01
-1.736481532260885918e-01,-1.695468264479365050e-01,-3.319625552765409493e-01,1.855153341441509798e-02,-3.431670564282975327e-03,-1.930648194155862047e-03,1.637331992387771606e-01
-1.805546751020378204e-01,-1.660945309086427901e-01,-3.407686764096961030e-01,1.760174317930060864e-02,-1.160993422751831206e-02,-1.517551497292436886e-02,1.738363206386566162e-01
-1.903470018649819906e-01,-1.459965513654875036e-01,-3.136733029125717831e-01,3.731831765459916322e-02,-8.503182298269140044e-03,-3.378458811303871462e-02,1.745422482490539551e-01
-1.737723409727961743e-01,-1.652741115657404281e-01,-3.136814277813378404e-01,2.394377915917507080e-02,-2.130071483468959359e-02,-2.477495960278116791e-02,1.604936867952346802e-01
-1.480202720954257034e-01,-1.479509586783895603e-01,-2.876318957303417578e-01,-5.943127736996577787e-04,1.958588624821639494e-05,6.253020193259130463e-04,1.396542936563491821e-01
-1.660888824075279491e-01,-1.525583344943005626e-01,-3.004787455015245912e-01,-1.422203706449632872e-03,-1.975449752816322733e-04,9.648539658346545495e-04,1.416723579168319702e-01
-1.476566937630678089e-01,-1.486550521390728741e-01,-2.870341891045843918e-01,1.287644428571938036e-04,2.530840065244510011e-04,2.102649480429400689e-04,1.388823539018630981e-01
-1.509745358060384235e-01,-1.499393139018874999e-01,-2.871868898340714793e-01,-7.795321943834313243e-04,-4.012039893561941792e-04,2.104098907861560173e-04,1.367418169975280762e-01
-1.431172360440478575e-01,-1.416749865278332798e-01,-2.881198962960035970e-01,-3.897592234568816264e-04,-1.336222518383328099e-04,2.466892967736852935e-04,1.457315087318420410e-01
-1.508620711156040683e-01,-1.504038747329090320e-01,-2.873194289086500874e-01,-4.783137680227178643e-04,-5.812919667383930613e-04,2.954504420140345307e-04,1.366942077875137329e-01
-1.497972309144400549e-01,-1.525733990817014774e-01,-2.894922731968430640e-01,-6.453775938853302746e-04,-6.646137638738398206e-04,8.350161833037186149e-04,1.383447200059890747e-01
-1.396478472809674631e-01,-1.294512597679714216e-01,-1.563854262246421600e-01,2.173609527949205839e-02,3.449973551969334057e-02,5.791995262264739569e-02,1.249280348420143127e-01
-1.795653452942618800e-01,-1.712378592268228583e-01,-1.710251376935295053e-01,2.256709777633451094e-03,2.721872181065505131e-02,7.649977974879304532e-02,1.409456133842468262e-01
-1.374408193811828827e-01,-1.659145233481672532e-01,-1.313297421174624280e-01,4.476433659259070443e-04,5.261915899820327619e-02,2.665322667531916725e-02,1.070523932576179504e-01
-1.486570837512128929e-01,-1.396665167759787163e-01,-1.310916619176515918e-01,6.050675067183972078e-03,1.619346884871105882e-02,6.570011260473272718e-02,1.186485663056373596e-01
-1.612677286631486184e-01,-1.401964918654586834e-01,-2.485436446346926953e-01,5.115128763067928542e-04,4.937827030616490781e-03,2.090984077120333628e-02,1.062341257929801941e-01
-1.630665795542887153e-01,-1.292009621638176564e-01,-2.834975957503699240e-01,8.278301694559984242e-03,8.141073368237839933e-03,9.694658233198132774e-03,1.428823322057723999e-01
-1.617059862894056621e-01,-1.316046880000387165e-01,-2.712976761882901489e-01,1.766968063656778687e-03,-3.787228950955879702e-03,-2.121154700559112899e-02,1.327307969331741333e-01
-1.386688891058769357e-01,-1.599064664781875145e-01,-2.494257899293975678e-01,6.877527283255821609e-04,-3.643158854373985261e-03,-9.275936782600654020e-04,1.020281091332435608e-01
-1.597640817384647360e-01,-2.168531662833645124e-01,-2.977276537812550417e-01,4.964069553468986561e-03,-4.615896512876584146e-02,-4.457494456475710742e-03,1.447148323059082031e-01
-1.036425700152642376e-01,-1.356537129495844207e-01,-1.622588452076341170e-01,4.515054716739753601e-03,-5.028423698515173401e-02,-8.639877139866986716e-03,1.022488176822662354e-01
-1.466771422046264650e-01,-1.584443051643390776e-01,-2.147043063572990629e-01,4.961766293090156578e-03,-5.807589077528140312e-03,-1.751817293149184529e-03,6.441989541053771973e-02
-1.325132216203081248e-01,-1.520190988541822164e-01,-2.281477806862943769e-01,2.090478659088710472e-02,-2.686251487068806731e-02,-3.343209502525845006e-02,1.203741729259490967e-01
-1.351106308649752397e-01,-1.531882975547427805e-01,-2.331283337716568149e-01,2.521597275210005901e-02,-2.811997329256653300e-02,-2.764158433703422721e-02,1.213847026228904724e-01
-1.197255588959218742e-01,-1.552340853517283625e-01,-2.810973562995817132e-01,2.999954401534919452e-03,-1.354107514729021959e-02,-1.926051043381641834e-03,1.488618403673171997e-01
-1.462205438761793597e-01,-1.556809571284281379e-01,-2.265208573526461266e-01,-1.575562891646265645e-02,2.947105909029759316e-02,-1.807271418499468638e-02,1.005394682288169861e-01
-1.953762563363453664e-01,-1.196150701736205108e-01,-2.093767271786102779e-01,4.501891588451152387e-05,-1.517486095003499390e-03,-8.860430690990389602e-02,1.748014539480209351e-01
-1.704243861027591178e-01,-1.632083762752029599e-01,-1.958332617209546933e-01,-1.149551706246933550e-02,3.191416050476903604e-02,-8.894907606753378604e-02,1.675375401973724365e-01
-1.337841441503397344e-01,-1.342302170594346922e-01,-1.858507645973700995e-01,-7.864184775630694846e-03,1.280281396527463249e-02,-8.400473900967561289e-03,5.980704352259635925e-02
-1.684537685827413034e-01,-1.337393771253973240e-01,-2.889215989045254007e-01,2.355429402914365530e-03,-1.600719289796120274e-03,-9.024587974949318039e-03,1.420148462057113647e-01
-1.375940842806979147e-01,-1.368813166387705116e-01,-6.231708978719550235e-02,-3.475029868097356724e-03,1.934410627458548956e-02,-1.707406548784523928e-02,8.744633197784423828e-02
-1.775274025741028772e-01,-1.714968210783195668e-01,-1.773580602814879281e-01,5.303868592416732634e-03,-6.146149612349372654e-03,-3.584706071742103928e-02,6.393847614526748657e-02
-1.253577416122396426e-01,-7.158728001208769509e-02,-1.541571895165080586e-01,-1.802138591641049697e-02,3.414096481491635943e-02,-9.368708830687630384e-02,1.899267435073852539e-01
-1.466541867113961006e-01,-1.188129865364978555e-01,-2.485104638584786085e-01,-5.080157387000616524e-03,1.511820290888872325e-03,-7.983056584534905381e-03,1.194198578596115112e-01
-1.595806954201197114e-01,-1.875566235370461632e-01,-4.212600745565150406e-01,6.025628658074014959e-02,2.097228711485998529e-02,4.954295888909209661e-02,2.855057120323181152e-01
-1.435824571603157018e-01,-1.056997377417467771e-01,-2.864219092505551068e-01,2.989217086247680094e-02,2.494667601484256564e-02,3.743202165758413580e-02,1.897378712892532349e-01
-1.632022713907904654e-01,-1.501252453199127257e-01,-3.123296324182093242e-01,3.495971266674864630e-02,6.438407010776568684e-02,5.706040747164149718e-02,2.241210788488388062e-01
-8.403536127043144399e-02,-1.115911127711354811e-01,-2.708653788109626204e-01,4.480063619364109406e-02,5.357387064243469138e-02,3.279943829732946681e-02,2.199447900056838989e-01
-1.445630174246538557e-01,-1.546418127438202728e-01,-2.939735062441389268e-01,1.023633551813396114e-03,-8.630694851928801762e-04,-1.070525309140796201e-03,1.446651816368103027e-01
-1.539345937221127114e-01,-1.753021201703163223e-01,-3.419317783658563092e-01,1.430536071977669792e-02,-7.257086596260060906e-04,4.871631254094514925e-03,1.801920831203460693e-01
-1.318367226158496941e-01,-1.495319876672711601e-01,-2.840448428237273282e-01,2.743085265397920795e-03,-2.454585026699441824e-04,-1.332908510013738760e-03,1.442745774984359741e-01
-1.362086729044870159e-01,-1.437574165126667691e-01,-2.861145928061030741e-01,7.589492258519930055e-03,-3.254968953423361972e-03,-2.658600841176018709e-03,1.470474600791931152e-01
-1.315259187112484129e-01,-1.548127120569934845e-01,-2.876232223330518201e-01,1.045783898600380953e-03,-1.602329485307852708e-03,-5.278764847793830173e-04,1.458953619003295898e-01
-1.422733708166538102e-01,-1.524021985117575140e-01,-2.892953030361353761e-01,1.243727194789354161e-03,-3.763874543167383636e-04,6.293454779560636288e-04,1.422502547502517700e-01
-1.460631284159601972e-01,-1.493243389367739649e-01,-2.880304992235862560e-01,4.626906205477741125e-04,2.324791766268239333e-04,4.064249809924329673e-04,1.403698176145553589e-01
-1.300247597993295368e-01,-1.490611307413129694e-01,-2.836110413194874447e-01,2.903703945377836011e-03,-1.598439333609451155e-03,-2.085154370381047534e-03,1.451668292284011841e-01
-1.318365708980445139e-01,-1.501971762945253364e-01,-2.851407249087061224e-01,1.967794445956565219e-03,3.735595790112345669e-05,-6.337710561648401270e-04,1.450425535440444946e-01
-1.494460167839643527e-01,-1.476971284023190223e-01,-2.889579354122688848e-01,6.822070529501966319e-04,3.578791848856211020e-04,2.180365127640122240e-04,1.404013782739639282e-01
-1.292081018781747748e-01,-1.621251843379985791e-01,-2.895497496780201074e-01,1.076328145376375094e-04,-2.855087457175302466e-03,-1.827650793714949342e-04,1.467637121677398682e-01
-1.379535844956186752e-01,-1.660119917853732641e-01,-2.746076527496962294e-01,-5.137796052381377043e-03,-1.101782063744151385e-02,5.080504526512086109e-03,1.270752400159835815e-01
-1.493706202964243668e-01,-1.943879559126769629e-01,-3.319079251640129069e-01,-1.385044472939061383e-02,-3.154821636691197695e-02,1.634041956087430372e-02,1.774584054946899414e-01
-1.286245548656260451e-01,-1.283563597233012554e-01,-2.592516605243211925e-01,-1.240519880941989318e-02,-8.967709194507076167e-03,1.230688283227120150e-02,1.351142078638076782e-01
-1.475758040723586795e-01,-1.429201337312095699e-01,-2.866084980923368497e-01,5.328595085497041077e-03,-9.160093284439697935e-04,-1.037324767211309732e-03,1.417391300201416016e-01
-1.507012526047402101e-01,-1.482388962108727726e-01,-2.897911614030322380e-01,1.640973680665166372e-03,-2.321949102143017641e-05,6.276120912049440361e-04,1.403702795505523682e-01
-1.561739080839086302e-01,-1.497955188514970282e-01,-2.926612495267633673e-01,9.636744053201809317e-04,5.761421491671145064e-04,6.095622186745594875e-04,1.398032307624816895e-01
-1.517075241701565380e-01,-1.393772225973407275e-01,-2.873858076830950181e-01,2.542690484697894028e-03,-2.286226771032748100e-04,-1.185622879523666896e-03,1.423283368349075317e-01
-1.534755507366013516e-01,-1.328259053395943745e-01,-2.233085575778009646e-01,2.572921570018153921e-03,1.088430616949896158e-03,1.114287320528858233e-02,8.450436592102050781e-02
-1.532646024219534442e-01,-1.276398507903259705e-01,-2.173760136474684468e-01,-6.366956186944436498e-03,-3.914466177977532144e-04,1.466216337442565604e-02,8.471570909023284912e-02
-1.538998257793267876e-01,-1.261970694249071046e-01,-2.163571209855255639e-01,2.809154705697999941e-03,2.121058526951729532e-03,1.450561531169208829e-02,8.406548202037811279e-02
-1.472669840051278323e-01,-1.371524963655730567e-01,-2.401166492052633217e-01,1.012451803622136520e-02,2.287791080098151592e-03,7.900412921567876584e-03,1.008610874414443970e-01
-1.559084076792403295e-01,-1.319480724643153358e-01,-2.193941899553090158e-01,9.049707636153751789e-03,1.784054317456145247e-02,3.332376088902987143e-02,1.032358855009078979e-01
-1.514382580561406955e-01,-1.186371945106122205e-01,-1.249593824388470359e-01,1.494184726999600414e-02,1.730989342320377392e-02,7.055216181673880371e-02,1.319469660520553589e-01
-1.726111073821886555e-01,-1.531782280667463025e-01,-1.657309271046009946e-01,7.239909279893646556e-03,3.900753381775547233e-03,2.852440470835535327e-02,5.417650192975997925e-02
-1.578331965116714086e-01,-1.361288249322264721e-01,-2.907620578261542743e-01,-9.065662736541715144e-04,9.294706629724460963e-04,-1.274896651916864979e-05,1.450219154357910156e-01
-1.617535068673477405e-01,-1.514136928782330860e-01,-2.982531384290556531e-01,-1.065256410001495964e-03,1.444251593678342509e-04,-1.542127730866021907e-03,1.419895887374877930e-01
-1.550262770853745864e-01,-1.437142748567558914e-01,-2.914320993617678934e-01,-4.233515177919739900e-03,-8.784584330131023008e-04,1.481349239294155531e-03,1.426190733909606934e-01
-1.584276575779707263e-01,-1.194491159489168564e-01,-2.961423604706052704e-01,2.484873591499049249e-03,6.814821784874351912e-04,5.451348812061261508e-04,1.608520895242691040e-01
-2.780668657795856147e-01,-1.995801687651759249e-01,-4.213302436505602100e-01,-2.281772211424066069e-02,1.688489691086552183e-02,-9.364497559135935567e-02,2.581747770309448242e-01
-1.473467040885073076e-01,-1.561048281939304005e-01,-2.959279018568221065e-01,2.757282080132519766e-03,-8.443504655191623942e-04,1.632947455679935886e-03,1.445154994726181030e-01
-1.882061138833928393e-01,-2.831141969626624899e-01,-5.513270644599671533e-01,3.145780632970632262e-02,1.180794628375844528e-02,2.433923079563145644e-02,3.340142369270324707e-01
-1.656375678427752240e-01,-2.344657603042482608e-01,-5.119717942955507306e-01,5.920916503191064190e-02,-2.446233783400953918e-02,2.464889035843702281e-02,3.390903472900390625e-01
-1.907178109911346064e-01,-2.919666230006580654e-01,-5.204355123389422522e-01,4.922878138009774418e-02,-3.952343413399335426e-02,-4.085544886515831212e-03,3.123913407325744629e-01
-1.495104041925204852e-01,-1.870094551393042537e-01,-3.202375061725365457e-01,2.893016555200686110e-02,7.204460477261824536e-02,5.744663402994648616e-02,2.283293753862380981e-01
-1.725375979405570082e-01,-1.906385221132415320e-01,-1.925098681229966691e-01,-2.918266393562774473e-03,-3.540420726505406207e-02,-6.075895641944154294e-04,6.443639099597930908e-02
-1.332669122968064834e-01,-1.435943314398289150e-01,-2.810168237256637780e-01,3.505789457979085252e-03,-1.032176631855580761e-03,-1.842071370689388611e-04,1.430069506168365479e-01
-1.390132598006640352e-01,-1.422723587159279435e-01,-2.807607429358935924e-01,6.236809997033548013e-03,-7.587886511661293045e-04,-4.945433808987565035e-04,1.405708193778991699e-01
-1.204071776607705258e-01,-1.516214565635556066e-01,-2.653676655565569420e-01,3.639904407225050785e-03,-7.929093304640134204e-03,-6.387438660310038475e-04,1.330136060714721680e-01
-1.151745311874623479e-01,-1.482895570695110798e-01,-2.322007897009007726e-01,5.456831776196001231e-03,-2.073001726303432338e-02,-5.696643079180047434e-03,1.113207489252090454e-01
-1.322126154800249420e-01,-1.563695812831485676e-01,-2.922109141921381825e-01,4.840874994908829151e-03,-4.511670171188648069e-03,-2.405272398094798411e-03,1.498888432979583740e-01
-1.448853491162341023e-01,-1.508422493650493357e-01,-2.483389632198425567e-01,9.263477161110054980e-03,-5.309909960960166285e-03,-1.708692736448663490e-03,1.023359745740890503e-01
-1.401541056000989438e-01,-1.849123308224857876e-01,-3.448177698092153021e-01,-8.273853389913902664e-03,8.413559887791998912e-03,2.249951268245098911e-03,1.875181347131729126e-01
-1.192743396016135715e-01,-1.654703131529280391e-01,-2.160515322118277126e-01,2.815196814024199107e-02,-7.259577515916458557e-02,-2.626490803583616737e-02,1.651870161294937134e-01
-1.291726125373453549e-01,-1.546174984866874325e-01,-2.854986488991378968e-01,3.678135937536331033e-03,-2.536398516015420102e-03,-2.011519354543393583e-03,1.455321162939071655e-01
-1.309366397387183578e-01,-1.585200532301976328e-01,-2.876396497190855661e-01,7.781054025465786086e-04,-2.336568827780781659e-03,-1.345483140214781049e-04,1.449569761753082275e-01
-1.461534310706343320e-01,-1.591505116430781130e-01,-2.939207810675766863e-01,2.277512998251644306e-03,-4.136586797805663802e-04,-3.386465218435035862e-04,1.417744308710098267e-01
-1.384718082305241293e-01,-1.715821692098160600e-01,-2.738243564094334781e-01,4.054148752269649825e-03,-1.145594823902761766e-02,-3.167158745569843489e-03,1.241295859217643738e-01
-1.509842378270926100e-01,-1.186837246766522524e-01,-2.311062749381603276e-01,-3.084894890041233774e-03,-1.964601306695767588e-03,9.813804628247917855e-03,1.018818318843841553e-01
-1.638949594020825129e-01,-1.274941214999736894e-01,-2.783488750712752036e-01,1.445722466834778279e-03,-4.894326515108853200e-04,3.418626028072090789e-03,1.365026980638504028e-01
-1.576997101779147037e-01,-1.215911927025419281e-01,-2.878701626392890511e-01,-3.937748021488535373e-03,-2.232625320449507442e-03,1.318360024342174995e-02,1.533992439508438110e-01
-1.593783868729260478e-01,-1.109846209387172489e-01,-2.508175090318699452e-01,-9.965515664957022915e-03,-5.864892987198494848e-03,3.373400989744485684e-02,1.376343965530395508e-01
-1.561542940281650249e-01,-1.347912526323988558e-01,-2.424921439619110997e-01,1.602676178468016117e-03,5.611252781988671466e-04,2.944151456685800174e-03,9.894289821386337280e-02
-1.411223332224997296e-01,-1.406519992178121847e-01,-2.827041564657936656e-01,-3.890289301303283438e-03,-1.103473490683047360e-03,1.285320133969238649e-03,1.420078724622726440e-01
-1.576568398970769613e-01,-1.318710064298114215e-01,-2.588281590680260869e-01,-3.409136249471658286e-03,-1.970611686673923602e-03,5.072939104628941195e-03,1.167606636881828308e-01
-1.652543708393490185e-01,-1.350509562435409094e-01,-2.812135058598929094e-01,-1.973925665007330091e-03,1.256610555312714450e-03,1.835586620536242344e-02,1.374349594116210938e-01
-1.437493986904225252e-01,-1.451838155496755212e-01,-2.897229585211938963e-01,7.409500266271513156e-04,-9.237700504114335185e-05,2.919548183364398752e-04,1.452683061361312866e-01
-1.458423207651498854e-01,-1.419927579039017840e-01,-2.883187212278337519e-01,6.438567683624767763e-04,3.906828695662596532e-04,8.993260277471343310e-04,1.444539427757263184e-01
-1.420768984309770666e-01,-1.321746618455824640e-01,-2.820074779152693667e-01,3.505660878160838170e-03,1.247835604475394742e-03,1.231607857417929422e-03,1.452939659357070923e-01
-1.399240651849543993e-01,-1.340675288892702877e-01,-2.829301175741072427e-01,2.936258311538032535e-03,1.357641601360966537e-04,2.447568484030805355e-04,1.461117714643478394e-01
-1.476624141860504447e-01,-1.436936488626805175e-01,-2.898784507062960314e-01,1.039123986284013748e-03,-1.082478588316234080e-04,-2.670427389979815650e-04,1.442534625530242920e-01
-1.454799609119384884e-01,-1.362675935894192281e-01,-2.860702899542382216e-01,1.933725633533087173e-03,-1.667610445591577566e-06,4.756387262114613159e-04,1.454564332962036133e-01
-1.396162601315955043e-01,-1.417631021644490119e-01,-2.866202925554181546e-01,1.546237550201890560e-03,2.158034286722626516e-04,3.509577320669376088e-04,1.459687650203704834e-01
-1.452829231991763503e-01,-1.436080317849998955e-01,-2.894886109568835519e-01,1.773626631860143786e-04,-4.268346515565915708e-04,1.369214414439094953e-05,1.450525969266891479e-01
-1.358201162225679548e-01,-1.442023300355835813e-01,-2.844746712286250756e-01,2.461329872393100849e-03,6.247458957135798140e-04,1.002215657259409318e-03,1.447229832410812378e-01
-1.547367758856844355e-01,-1.451721238964907568e-01,-2.900277077995161434e-01,-2.360197950378622230e-03,-1.636250713519559526e-04,7.627447491555591893e-04,1.403840035200119019e-01
-1.368783001803029198e-01,-1.633266802152905650e-01,-2.942609571395741752e-01,-1.366992625665512922e-03,2.799638722169973688e-03,-2.496191087726747342e-03,1.461304724216461182e-01
-1.652738892205792842e-01,-1.518012709274418892e-01,-3.016252204367902978e-01,-8.968699509726576168e-04,1.671102964074726999e-03,-2.226574332513747267e-03,1.436519026756286621e-01
-1.627389720999517231e-01,-1.524572264642396480e-01,-3.000706278235923952e-01,-1.050974376268800714e-03,-1.181795030339750701e-03,1.356311733641691903e-03,1.427961140871047974e-01
-1.561914350851307254e-01,-1.487284271034912397e-01,-2.943079505678528607e-01,-2.836702717957818171e-03,9.428184674511899503e-04,7.853792339715625053e-04,1.420960575342178345e-01
-1.518773422740825052e-01,-1.413925221138945809e-01,-2.990020310559668992e-01,-1.243999028662162026e-02,-1.907271117964986183e-03,-1.243343025211671345e-03,1.542011350393295288e-01
-1.525691231357043653e-01,-1.443253825689882752e-01,-2.884626658683291933e-01,-2.259778575386314162e-03,2.854393993263824696e-04,-5.591464657323571424e-04,1.402561515569686890e-01
-1.584389383854025168e-01,-1.533291376278212992e-01,-2.936386556790253621e-01,-2.565897126909904603e-03,2.233291120955162214e-04,-6.482552899306422720e-05,1.378978937864303589e-01
-1.475119099811053325e-01,-1.814220183109622464e-01,-3.154771986970814623e-01,-3.347732569191461116e-02,5.198411723514866772e-02,-6.990478186774187752e-02,2.231497019529342651e-01
-8.507975843427800777e-02,-1.401311951935649003e-01,-1.755037611921796137e-01,-8.869617003847340628e-03,7.164576271345871050e-02,-1.208431049672621140e-02,1.493406742811203003e-01
-1.021409040455016071e-01,-1.426183373463516812e-01,-2.679314300150700268e-01,-2.512827488525955916e-02,3.321429998215277152e-02,-2.311259461386395639e-02,1.709402948617935181e-01
-1.268035811133386148e-01,-1.600078640189190604e-01,-2.895711556065747594e-01,-2.354850887092416797e-03,9.114507530733549981e-03,2.772926341103284717e-03,1.499338299036026001e-01
-1.208137642936677747e-01,-1.540663387906948678e-01,-2.862763947098315720e-01,-9.793896167051040821e-04,1.546047539014712945e-02,-4.354956554982987622e-03,1.541376411914825439e-01
-1.111337771437220234e-01,-1.461169352125850363e-01,-2.564118523759383317e-01,3.629903841154664881e-03,1.710295447581944989e-02,1.377466297843490907e-03,1.347961723804473877e-01
-1.353456422845929485e-01,-1.605675633228976773e-01,-2.943042395381260112e-01,-2.176754759540619889e-04,1.975742682183106828e-04,4.422416979118330986e-04,1.479715704917907715e-01
-1.396059766534470115e-01,-1.591734103767922515e-01,-1.930689966399524449e-01,-1.054103729584196514e-02,3.990440383727901497e-02,-3.116911740162358474e-02,1.010940745472908020e-01
-1.394149269849895290e-01,-1.603752211814553352e-01,-2.932176466631079559e-01,1.553869632914728913e-03,1.631337931525771515e-03,-3.400180557241141077e-04,1.445214003324508667e-01
-1.336594870733409102e-01,-1.706775704310779518e-01,-2.967610488313284778e-01,6.661735388765724700e-03,7.613519386659918509e-03,-2.016707814294874113e-03,1.491777002811431885e-01
-1.225862980350873044e-01,-1.685798357649917201e-01,-2.933745553541443618e-01,1.496232799047024628e-03,1.123951513968201102e-02,3.186646789268495622e-03,1.544183939695358276e-01
-1.253588527096817229e-01,-1.549268900290427520e-01,-2.847960420287718453e-01,7.153297139714095629e-03,8.823120722131616925e-03,2.900161068293009327e-03,1.482987701892852783e-01
-1.483289938626440874e-01,-2.013680225852190198e-01,-3.557002329681754338e-01,2.519456135959983935e-03,-2.709424763631371191e-02,3.892779495493327215e-03,1.925720572471618652e-01
-1.480133997693652559e-01,-1.602029358050510999e-01,-3.007085869858408533e-01,-6.197320439150038468e-03,1.513598573753468677e-03,-1.278824271046467950e-04,1.473949253559112549e-01
-1.483359387248158745e-01,-1.684641825634037304e-01,-3.042638442560597900e-01,-2.074940238309681394e-03,-9.479793348816803814e-04,-2.111564146219486408e-03,1.470003128051757812e-01
-1.329105400036436901e-01,-1.376367591396392975e-01,-2.375059573280145497e-01,-1.746920990147795422e-02,-2.263404619952447822e-02,2.591102011728037974e-02,1.222078576683998108e-01
-1.019153249685161300e-01,-1.361891766849158136e-01,-2.040208334337734464e-01,2.086462331267881914e-02,-6.749427143238109772e-02,-3.018681009894557191e-02,1.606450825929641724e-01
-1.949555276816443694e-01,-1.819197544889375462e-01,-2.186082435406969948e-01,-9.228191297997491438e-03,-9.390356744198564629e-03,4.445826961483389378e-02,8.652942627668380737e-02
-1.473006018258865846e-01,-1.307273241447367007e-01,-2.229022271603046668e-01,1.017298082763849927e-02,6.826262282612345460e-03,1.377045821283717081e-02,9.089766442775726318e-02
-1.532225180182557045e-01,-1.427643041668476553e-01,-2.295347089429936038e-01,-3.165321590159295151e-03,-9.358436286700130141e-03,1.158216178636304466e-02,8.617570251226425171e-02
-9.660610799248253722e-02,-1.317190373344649390e-01,-2.516249973530438888e-01,1.429518423585434544e-02,2.330063512027286468e-02,1.264752414624685170e-02,1.501409411430358887e-01
-1.470480221908126994e-01,-1.353113737627954227e-01,-2.339480726388076526e-01,-8.338227007840554733e-03,-2.364417110729919759e-03,7.554608081581257358e-03,9.542457014322280884e-02
-1.486538594895163712e-01,-1.418688327256673043e-01,-2.122724903791669282e-01,-5.523614732445413823e-03,-1.011507842015913448e-02,1.040202338920066544e-03,7.019075751304626465e-02
-1.571225681234884874e-01,-1.489714745374655647e-01,-2.941806560482830291e-01,2.812795796198913970e-03,-1.089220609731550308e-03,-1.179144543337068722e-03,1.414213478565216064e-01
-1.703651350496315775e-01,-1.496237125848227101e-01,-3.183087430384438643e-01,6.682799652785841558e-03,2.111494958703461346e-04,-1.575689842747614441e-03,1.597737222909927368e-01
-1.592619997422851652e-01,-1.426489565667592441e-01,-2.958755994331435657e-01,7.474262930138452117e-03,-2.183916677903641743e-04,4.358677679719777246e-04,1.462092399597167969e-01
-1.574606297219073026e-01,-1.402216428800229786e-01,-3.315288839764422013e-01,2.988622931956827142e-02,-3.344284259564799227e-03,-5.525845089088472425e-03,1.907941699028015137e-01
-1.442646276630423219e-01,-1.443525285811700642e-01,-2.983710388303219552e-01,1.381797079705096055e-02,-1.019571164688329139e-02,-8.634761107617485582e-03,1.576184928417205811e-01
-1.820398552867176500e-01,-1.539106658870425526e-01,-3.649755931411908794e-01,1.557371425589033215e-02,6.863348887775538865e-03,-1.896250735802319440e-02,2.033475786447525024e-01
-1.561070125057987257e-01,-1.459890518221589328e-01,-2.901648428943125468e-01,3.971580329422400545e-03,-1.148193258005508277e-03,2.362140100723427848e-03,1.396362483501434326e-01
-1.883676781855947446e-01,-1.234558383110910679e-01,-3.758971173595941906e-01,4.981292918169329814e-02,3.564643663948152685e-02,4.757590020099912095e-03,2.507540881633758545e-01
-1.432464700403191793e-01,-9.378343467253497101e-02,-2.945454898034869928e-01,2.717981344132601798e-02,2.042049397882304829e-02,3.228513452291603691e-02,1.985343843698501587e-01
-1.649678179955048063e-01,-1.149054228503924441e-01,-3.443183410736934125e-01,2.261999566733502789e-02,7.300374478941030164e-03,-2.743666264253358938e-02,2.181851565837860107e-01
-1.688097033865099128e-01,-1.336659527581727236e-01,-2.914219584191571899e-01,-4.685815632045041705e-04,9.447856622019255250e-04,9.164027771135044645e-03,1.443370282649993896e-01
-1.557952565405637813e-01,-1.233338757790687912e-01,-2.806408828362607077e-01,-6.189218492763213662e-05,-2.773511300928709999e-04,2.108546046628615236e-03,1.438972353935241699e-01
-1.541290257650019258e-01,-1.334428850268081224e-01,-2.842542078026007446e-01,-6.664720372167389634e-03,-5.104432600515685682e-03,5.879075341098537535e-03,1.427143216133117676e-01
-1.795797493830046665e-01,-1.611673495496599440e-01,-3.539183227361605288e-01,-1.884860359921460005e-02,-1.385267713152088954e-03,-6.048673351504026477e-03,1.874147057533264160e-01
-1.647512648187974271e-01,-1.923616394723117462e-01,-3.592236943577891695e-01,1.740755376831175372e-02,1.462844636037302724e-03,5.368697700947098019e-05,1.847373843193054199e-01
-1.571268416800679912e-01,-1.208267434484502911e-01,-2.657556065154135783e-01,-7.909057121059278857e-04,-7.315869730800413475e-04,9.739374661683055864e-03,1.317163258790969849e-01
-1.589619306176388580e-01,-1.289668107386099105e-01,-2.843995363204108173e-01,-1.465434421213222989e-03,-6.650742834283919578e-04,1.995919308514752886e-03,1.428864449262619019e-01
-1.570102715770780588e-01,-1.254479134562717091e-01,-2.799337610056278347e-01,3.320440797739503385e-03,9.848196461047028388e-05,3.398591708497976285e-03,1.416117101907730103e-01
-1.587808256388265615e-01,-1.267821893391677945e-01,-2.839598022488510898e-01,1.078621805865486848e-03,9.188624900835371196e-04,2.234086675072051789e-03,1.439452767372131348e-01
-1.603402520446368662e-01,-1.295298332516184314e-01,-2.858702511956995318e-01,1.080633765939084407e-03,5.390531212344844237e-04,1.705483678684949645e-03,1.434844732284545898e-01
-1.486811099951063364e-01,-1.262134412784089998e-01,-2.537632643723933823e-01,-5.375427747516531643e-03,-1.667504087152557298e-03,5.040797620217371024e-03,1.186560690402984619e-01
-1.449276222192542873e-01,-1.444621315301069520e-01,-2.877336547138606981e-01,-6.230233257897174705e-04,-3.491523972524028280e-04,5.893026768321215888e-04,1.430483311414718628e-01
-1.433236347908044828e-01,-1.469499028344021241e-01,-2.884945894724215698e-01,-3.164306407303512942e-03,8.413095397506853814e-04,7.129431240556152348e-04,1.435096263885498047e-01
-1.468820081389714816e-01,-1.484928685460142062e-01,-2.899099701914517047e-01,-7.578803556194918089e-04,-3.427220284819934050e-04,-2.824926134885711064e-04,1.422375142574310303e-01
-1.424713180495425502e-01,-1.420919312719826910e-01,-2.881773381383682109e-01,-1.772766011714288828e-04,-1.808813695983145509e-04,-8.826680475554365395e-09,1.458967477083206177e-01
-1.474996460465994030e-01,-1.472152787373530725e-01,-2.876964146605998640e-01,-3.330011013537898684e-04,-1.718720295591244594e-04,3.373630559520827857e-04,1.403418928384780884e-01
-1.454860693880624389e-01,-1.489444690438550822e-01,-2.891146821645667053e-01,-4.115893820916682530e-03,7.149909059600001449e-04,-9.595247282586860053e-04,1.421250551939010620e-01
-1.430675353482749323e-01,-1.499115248100750808e-01,-2.891801779609106116e-01,-2.924924990569737534e-03,8.639565540732715369e-05,-2.925728163667325188e-04,1.429045051336288452e-01
-1.473991693053817165e-01,-1.404518189307106257e-01,-2.864764626957633231e-01,-3.545126939770885683e-03,2.416919239561869377e-04,-6.142714180329550411e-04,1.428145319223403931e-01
-1.406253466425555210e-01,-1.639236688335928283e-01,-2.975950875383935323e-01,-1.389915276538718171e-03,8.382176788862407768e-04,-1.189397574652971282e-03,1.467560082674026489e-01
-1.403448449157242151e-01,-1.627222675222109449e-01,-2.944962736007858406e-01,-1.154121126522453028e-03,1.671045048820719294e-03,-1.476500055046319447e-03,1.443357616662979126e-01
-1.452588282202870174e-01,-1.575834228315034780e-01,-2.915265282859031970e-01,-2.175613502144787409e-03,7.071000005983719408e-04,2.429960099344055820e-04,1.405678540468215942e-01
-1.444248266490219812e-01,-1.597892466595229322e-01,-2.919685058844039283e-01,-1.628152074860070948e-03,1.008578665465997837e-03,9.492206703463308215e-04,1.405417621135711670e-01
-1.213698940959434397e-01,-1.541985919907225555e-01,-2.914045928572344124e-01,-9.700084040529476787e-03,4.311039151926324836e-03,-1.200168402552927779e-03,1.573208719491958618e-01
-1.322154078843562064e-01,-1.593487474770508006e-01,-2.883659742068625520e-01,-2.376418699666425858e-03,1.959688537021313064e-03,-9.450870404731262064e-04,1.446149200201034546e-01
-1.483858517345538197e-01,-1.638089437133921633e-01,-2.982806571250445349e-01,-3.387918897732816541e-04,-8.943153854995671828e-04,3.472678258002025327e-04,1.428201198577880859e-01
-1.513956754218579726e-01,-1.606354421219483852e-01,-2.972289379692864553e-01,-1.099410627009334744e-03,-5.448334291795301236e-05,8.881638726804790690e-04,1.414611190557479858e-01
-1.512766933523556345e-01,-1.584895209782768988e-01,-2.963432853575073689e-01,-1.819744534508903593e-03,-6.279653229169936503e-05,9.489472017539565384e-04,1.416426748037338257e-01
-4.802555179744034952e-02,-1.572743788998037240e-01,-3.038395362817145617e-01,-8.367178565502564336e-03,3.455141303940059694e-02,-8.729965060525368692e-03,2.311899363994598389e-01
-1.574053591014516473e-01,-1.259334316728675796e-01,-2.752663558490140439e-01,2.146182671385048202e-03,-4.127434951882017790e-04,-3.658837504272831678e-03,1.365485340356826782e-01
-1.623494464449216079e-01,-1.291884902438910632e-01,-2.891596631345934587e-01,3.421955272004963654e-04,-1.143475594607121920e-03,-3.946534066342398395e-03,1.464125216007232666e-01
-1.624272939530532200e-01,-1.370812083135394821e-01,-2.964583935527813630e-01,1.291677770772718626e-03,-4.573839623898673916e-05,-1.582501073893613443e-04,1.483543366193771362e-01
-1.520344012551191060e-01,-1.237946398996417896e-01,-2.703760108448445276e-01,3.370728466705886963e-03,-1.115100242580631309e-03,-5.925353625744404600e-03,1.352305561304092407e-01
-1.634867094058813364e-01,-1.366274904476896812e-01,-2.936467733040658556e-01,4.430043480899380475e-04,-5.078899291726579526e-04,-2.442846467467098270e-03,1.455277353525161743e-01
-1.668743629412358653e-01,-1.284537339265592326e-01,-2.820080266661328938e-01,-8.435732541489132002e-04,2.597417065510618933e-03,-1.199919184860334144e-02,1.400347501039505005e-01
-1.247426106396821305e-01,-1.567729928032534636e-01,-2.827875844443159536e-01,3.710806745810529958e-04,-9.167096273235834144e-04,-4.518180607442470243e-04,1.447254866361618042e-01
-1.316969463073406621e-01,-1.554074838789880064e-01,-2.797949181521598994e-01,4.572896496990204104e-03,-2.650882538118150538e-03,-7.677476426254784860e-04,1.380916386842727661e-01
-1.332930800734638543e-01,-1.473463915166148830e-01,-2.819954804189868103e-01,5.101380469253757356e-03,-1.524286295927183930e-03,-4.738592597901101371e-04,1.424986124038696289e-01
-1.388980810682799438e-01,-1.381964859064126472e-01,-2.797378072375155678e-01,8.125976025859037166e-03,-3.307268390141904386e-03,-4.301781642470165791e-03,1.422025263309478760e-01
-1.595688913165543565e-01,-1.294816550372203112e-01,-2.844069671080585726e-01,1.455079327481320238e-03,1.298999579882212190e-04,8.513162832629360757e-04,1.423179358243942261e-01
-1.547691587678325931e-01,-1.335010389377142836e-01,-2.857857611629464056e-01,1.751805700251185104e-03,2.255553129769703269e-04,1.126770576184193485e-03,1.428892165422439575e-01
-1.587225449932729016e-01,-1.289017703161932094e-01,-2.865481716968150128e-01,1.329927565347318501e-03,1.318394626194414974e-03,2.630691655711224573e-03,1.451613306999206543e-01
-1.492179617960894267e-01,-1.050333712464270736e-01,-2.300454496869627774e-01,1.519647368023856237e-03,-6.256851122163073833e-04,4.064844027029588386e-02,1.304671615362167358e-01
-1.524864972355783610e-01,-1.351229817454512316e-01,-2.822583663171313040e-01,4.356797564476905249e-03,2.516682412621167064e-04,8.039610644701663568e-04,1.394797414541244507e-01
-1.545089080973482409e-01,-1.328286711211106030e-01,-2.816942368922477069e-01,1.273498694759322633e-03,-1.545663993976485501e-04,1.444947376451194464e-03,1.393368244171142578e-01
-1.512640971400238954e-01,-1.387181671204812672e-01,-2.884215808428802208e-01,1.231910301038674363e-03,2.133356138295788981e-04,1.889307569979170099e-05,1.438576877117156982e-01
-1.489526946059738788e-01,-1.354801639882243780e-01,-2.852921237918644159e-01,1.135946076632498832e-03,5.133905510667513290e-04,2.618104898763042509e-04,1.435675919055938721e-01
-1.523024469293441374e-01,-1.433562158186250102e-01,-2.840120230114371314e-01,7.860703509854863325e-03,3.983088698774349228e-03,4.402918569105392609e-03,1.374659091234207153e-01
-1.042514755613090371e-01,-1.847413122890445014e-01,-2.330074614035790026e-01,1.453422996345533208e-02,7.434384497606642828e-02,1.274768333135468078e-02,1.743428558111190796e-01
-1.611182088686432812e-01,-1.359694023773264093e-01,-2.876760881796468494e-01,-4.286489798863073013e-03,8.717081894747282346e-04,-6.875209295566102156e-03,1.415321379899978638e-01
-2.038776416870544950e-01,-1.638352462533531062e-01,-3.229478322999659867e-01,-1.229352667197559229e-02,4.622954382147708742e-03,-4.089459553294538807e-02,1.615040898323059082e-01
-1.547110365740822502e-01,-1.227531836765848872e-01,-2.786063311785129670e-01,-3.072187599309447758e-04,2.320218522560771053e-04,-3.170709974970875589e-03,1.426933109760284424e-01
-1.542817858658233343e-01,-1.237750705478166402e-01,-2.782773601909394601e-01,-1.877754123745556912e-03,1.272318124605889122e-03,-3.167388896120943223e-03,1.418935954570770264e-01
-2.059519111544276804e-01,-1.586147469692903156e-01,-3.255544650428116027e-01,3.615734348298332238e-03,-1.135286098452351587e-02,-3.887728807568887474e-02,1.648254692554473877e-01
-1.611230833824074948e-01,-1.297741250588254902e-01,-3.027811391574564692e-01,-1.023387655974935346e-03,-4.955117657926611831e-04,-1.042632002847647052e-02,1.606878936290740967e-01
-1.430812799640223676e-01,-1.434108842159136366e-01,-2.886357531376977370e-01,1.405348000035579398e-04,-1.940785265995255491e-04,1.128345981280876785e-04,1.453906744718551636e-01
-1.447672729172690964e-01,-1.454250659763366704e-01,-2.887584764739712928e-01,1.676798408835648781e-04,1.535455411619486620e-04,1.508958171862296931e-04,1.436642110347747803e-01
-1.428916973250067834e-01,-1.427238424243506554e-01,-2.886424278336104932e-01,3.026759826352019107e-04,-4.932041195549218872e-05,2.056627446824972909e-04,1.458361297845840454e-01
-1.401929430610777683e-01,-1.415145606893902785e-01,-2.873197806238828034e-01,1.007382574193874548e-03,1.407727197249216962e-06,2.012980664301188753e-04,1.464813053607940674e-01
-1.538122762002869237e-01,-1.440445162447681060e-01,-2.922272149357494353e-01,1.113730734725397117e-03,2.530042381795720181e-04,3.662104973963189623e-04,1.435633152723312378e-01
-1.431009735989594855e-01,-1.467716404196891533e-01,-2.883701415391545231e-01,5.062838299652220415e-04,5.256750046628555349e-05,8.395913840736708353e-05,1.434718370437622070e-01
-1.410322644942698378e-01,-1.448573128641251762e-01,-2.875156995024070183e-01,9.765404303353691440e-04,4.480293302685952440e-06,4.826772669857393302e-05,1.446187794208526611e-01
-1.498066573830669490e-01,-1.270451479728547661e-01,-2.792459409797872771e-01,4.129446371764824812e-03,-1.187934147118968348e-03,-1.754525319565726580e-03,1.424200534820556641e-01
-1.714410954596845837e-01,-1.850181165924779381e-01,-3.643555154215742942e-01,1.256050699473118711e-02,-9.581723821918383449e-05,-5.531362210872821546e-03,1.880059093236923218e-01
-1.348224557799390932e-01,-1.637855254899700519e-01,-2.893276745967017227e-01,-1.884915017780513635e-03,-2.400739673282007661e-03,8.577349353942398998e-05,1.423507928848266602e-01
-1.287903378778862962e-01,-1.691181791019694125e-01,-2.999471904988531556e-01,-2.488290797214440502e-03,-9.956630914137065691e-03,-6.496323585975224751e-04,1.559995561838150024e-01
-1.370497243950611621e-01,-1.624580042556388881e-01,-2.982831142040537342e-01,-3.024584270111929651e-03,-1.163868506992169144e-03,-7.523878521129736922e-04,1.502608656883239746e-01
-1.338333889316815073e-01,-1.643274126493240173e-01,-2.961227168650928387e-01,5.403405376918996028e-03,-2.927514917149505631e-03,-4.701790272770031351e-03,1.499949246644973755e-01
-1.515117265564736582e-01,-1.424983185514882289e-01,-2.819103878770420346e-01,-9.936120268811583778e-03,-8.148527613700495831e-03,4.532676236424827872e-03,1.371765285730361938e-01
-1.533497430534977723e-01,-1.334100517170230260e-01,-2.807863025336082563e-01,-4.997121312183842347e-03,-2.763320632641474463e-03,3.392857873819983376e-03,1.389642804861068726e-01
-1.495409380264998978e-01,-1.497581846464862698e-01,-2.890753585141759840e-01,1.094407762251043250e-03,2.170493472267180017e-04,4.164175666839197679e-04,1.394411772489547729e-01
-1.523446636608745408e-01,-1.496075888254545516e-01,-2.903215028347906346e-01,9.176918762565214370e-04,8.113428735168866975e-04,2.463768707098114080e-04,1.393823325634002686e-01
-1.510498399993443763e-01,-1.455802258192902821e-01,-2.888468035485549645e-01,1.162681562549269581e-03,6.640657866395407571e-05,-8.583380488931354651e-04,1.406339108943939209e-01
-1.513587371609827759e-01,-1.421978933628618991e-01,-2.868817723791631247e-01,3.637406123928494349e-03,-8.496626859909629792e-04,-1.653335836727726086e-03,1.405061483383178711e-01
-1.482240633294004961e-01,-1.474692535625226619e-01,-2.909741086777642982e-01,2.642514842018021167e-03,6.281978029636426687e-04,-3.443973240096954058e-04,1.432074755430221558e-01
-1.547981249694193873e-01,-1.468719981852504297e-01,-2.941892442115324191e-01,3.606536585156020890e-03,-6.208364050506944183e-04,-1.947629333319619990e-04,1.436587274074554443e-01
-1.389646090885843510e-01,-1.580286014304337072e-01,-2.986612882072632313e-01,1.714000683143696024e-02,8.105597448112138517e-03,4.039965655089544638e-03,1.547559797763824463e-01
-1.595058991644557056e-01,-1.481571799417430446e-01,-3.048708649672319249e-01,4.513579145271993422e-03,8.079594769391017315e-04,-3.849502081671423294e-04,1.515684425830841064e-01
-1.523421208270342442e-01,-1.409568895690114787e-01,-2.876137815812702669e-01,2.214184570752377769e-03,-3.041842716950466014e-04,-1.566214144930265072e-03,1.413877308368682861e-01
-1.505299884178269987e-01,-1.387560855839587715e-01,-2.855326798262724508e-01,-2.947134498996822720e-03,-2.233518719415722453e-04,2.312867918142806547e-04,1.413514316082000732e-01
-1.476600238433370682e-01,-1.315668924169672571e-01,-2.816373937032956021e-01,-1.281411032846082503e-03,-2.846664855935999864e-04,7.001255291787247207e-04,1.427293866872787476e-01
-1.517446455891795776e-01,-1.325806450079458076e-01,-2.832132687520375058e-01,-8.648388866808662517e-04,5.549048577894217940e-04,-4.616096705382635636e-04,1.420370638370513916e-01
-1.465177387501174766e-01,-1.605604183715404476e-01,-2.958862205709268389e-01,-1.872803515875269076e-03,-3.484632386408397019e-04,-6.322347626960150326e-05,1.429038345813751221e-01
-1.547731929940800444e-01,-1.352806346143826388e-01,-2.893057478127436521e-01,-3.661466955750686432e-03,3.174257157924232492e-04,-1.847677250055731590e-03,1.454376727342605591e-01
-1.430215351831739534e-01,-1.352726851567562782e-01,-2.724765025717328371e-01,-8.152458131061770391e-03,1.302376554483386777e-03,-1.183575196482299042e-03,1.342774778604507446e-01
-1.602238816129012144e-01,-1.290114225074004417e-01,-2.739327053217047170e-01,-1.245225582174699051e-03,-2.855070838292343976e-06,-8.266112664871390955e-04,1.321353465318679810e-01
-1.331482726488694701e-01,-1.503800821707647617e-01,-2.854753925212870080e-01,-2.628072263470494947e-03,4.057391105171223220e-04,-1.121500271235857009e-03,1.445704102516174316e-01
-1.292620730517134164e-01,-1.592590017536006652e-01,-2.868660796947260505e-01,3.632808411664257327e-03,8.412846680792935780e-03,1.488330965075226496e-03,1.458415836095809937e-01
-1.265991029186555039e-01,-1.521785353857981749e-01,-2.520996310016561659e-01,6.251301507107224174e-03,8.143186966889252865e-03,4.768436167923422592e-03,1.165282875299453735e-01
-1.402443177872465807e-01,-1.478517941446992334e-01,-2.881094129627307932e-01,7.235155159675320767e-03,3.010786775555926009e-03,2.225475686329601421e-03,1.449005752801895142e-01
-1.304587791650771988e-01,-1.183751684151393702e-01,-2.391704075654987327e-01,2.571749638096344770e-02,3.998923001876610733e-02,4.669408310201220852e-02,1.630964726209640503e-01
-1.496879183551538262e-01,-1.426449426259660536e-01,-2.704755028402763828e-01,9.888979589006382728e-03,2.002794935964741056e-03,2.222703021459724974e-03,1.257385313510894775e-01
-1.239674921175903666e-01,-1.397543204588528321e-01,-2.155953698602890989e-01,8.163238648824412344e-03,1.067687954631350855e-02,6.604687423780880758e-03,8.871947973966598511e-02
-7.244133466976040991e-02,-1.219724880506450337e-01,-1.741927165728876514e-01,2.435027907669810171e-02,7.265698436524858916e-02,2.679771522848326676e-02,1.659430265426635742e-01
-1.212933206772649347e-01,-1.614907607055338368e-01,-2.695623152724171412e-01,4.112704582338962654e-03,1.480119339060747240e-02,4.774241471183442338e-03,1.357049942016601562e-01
-1.292915472511042552e-01,-1.611864400068850900e-01,-2.670282717806981010e-01,3.354773168857872259e-03,1.384217414023822083e-02,1.699222973961509332e-03,1.273296326398849487e-01
-1.215863799163625081e-01,-1.494652446349800934e-01,-2.456304017096674897e-01,8.113612585620093298e-03,1.783385019360366960e-02,5.677152617115310655e-03,1.181281730532646179e-01
-1.128671495606041464e-01,-1.446830495622826729e-01,-2.605378186187856659e-01,5.529835936910401130e-03,1.414024541996190647e-02,2.526021404134833059e-03,1.372272670269012451e-01
-1.481501285683402558e-01,-1.592762810009419328e-01,-2.697496562797920827e-01,1.167781819196448898e-02,1.207343139806117509e-02,1.138373767424357905e-02,1.216243728995323181e-01
-1.023822315753692563e-01,-1.071300112533538768e-01,-1.386340994927558468e-01,1.343121946880993477e-02,6.073176619952453531e-02,3.860844468509778277e-02,1.313114464282989502e-01
-1.439621807755205318e-01,-1.378347395146923005e-01,-2.859722839005900963e-01,2.631879362148735208e-03,-8.359497197022061447e-04,-6.314737612550393826e-04,1.452537328004837036e-01
-1.285559299789721110e-01,-1.471289675154716647e-01,-2.775741914474305627e-01,4.684996491616617506e-03,-2.834993589101963453e-03,-1.504672440663291531e-03,1.409979760646820068e-01
-1.466372526426394929e-01,-1.461206914251188260e-01,-2.873990086083738071e-01,6.016036488300549080e-03,-4.687267343346667348e-04,-1.450793239465575325e-03,1.414298564195632935e-01
-1.352462733837839215e-01,-1.497778093509181674e-01,-2.862935710388673782e-01,1.136667983629604693e-03,1.788522552657982329e-04,-5.399128649950622619e-04,1.443480104207992554e-01
-1.277842505131440154e-01,-1.460526133295360907e-01,-2.774305415308336298e-01,2.692279280957638344e-03,-6.596172448328958566e-04,-2.273159277497878699e-03,1.415362358093261719e-01
-1.326755188152987652e-01,-1.464686867155136629e-01,-2.712751890375841302e-01,6.219604151148866965e-03,-1.478909601310757736e-03,-2.161643836630264617e-03,1.327592581510543823e-01
-1.334688127751971209e-01,-1.440317115354191879e-01,-2.655119354679145727e-01,9.629597584048887535e-03,-4.764504591269684390e-03,-3.662004611688765131e-03,1.286029666662216187e-01
-1.421639801283857141e-01,-1.348710507594275132e-01,-2.693586839550196066e-01,8.838502634490022838e-03,-1.196006739996038296e-03,-3.063217353275717297e-03,1.320079565048217773e-01
-1.445844325883050008e-01,-1.446461973999102479e-01,-2.876228595649080733e-01,4.922686508240888730e-04,-6.104290043830745303e-04,-4.793513823816340997e-05,1.430140286684036255e-01
-1.587828844396515227e-01,-1.890594514107872270e-01,-3.409756395568079856e-01,-1.857727282543526759e-02,1.646382482128380675e-02,-1.491627782108584030e-02,1.763822585344314575e-01
-1.490424219655261395e-01,-1.278663427943377007e-01,-2.770809509877489862e-01,6.701257254140692392e-03,1.601745016261779805e-03,4.973787073994487100e-03,1.406068205833435059e-01
-1.459481589825276093e-01,-1.502929244449496271e-01,-2.922207664354075085e-01,4.855646453590337953e-03,-1.493020033157893796e-05,-6.087920042272559505e-04,1.443983316421508789e-01
-1.460542365321087499e-01,-1.402462626228996312e-01,-2.883485557067558269e-01,1.181892990942246370e-03,2.396091788545049936e-04,-6.744365615188154320e-04,1.453051120042800903e-01
-1.434460441978679390e-01,-1.447645707052861719e-01,-2.885877180233632489e-01,9.326840851892953185e-04,-9.437468930783287377e-05,1.445339555278025187e-04,1.444962620735168457e-01
-1.480589620811765816e-01,-1.464181731718444957e-01,-2.897306104990673425e-01,6.902844286819052877e-04,1.754040243453828228e-04,-5.383059822212930866e-05,1.425044983625411987e-01
-1.160022294565350581e-01,-1.446412083068265297e-01,-2.588481738903667950e-01,3.726396758994012046e-03,8.938385810459756678e-03,1.329277095550085658e-03,1.319880187511444092e-01
-1.736408560248260957e-01,-1.615986981017790147e-01,-3.167642031194238816e-01,1.958007244069156008e-02,2.550949106386879786e-02,3.864589223276233831e-02,1.730192899703979492e-01
-1.295442872937100365e-01,-1.540148345174930655e-01,-2.839430546175559789e-01,1.194876745697081438e-03,-6.202862798761012478e-05,9.358908208141757286e-04,1.437584310770034790e-01
-1.332377988650144118e-01,-1.617498994473866025e-01,-2.883083024876627043e-01,-3.707268310220659165e-03,-7.019860735830208559e-03,2.179364062077246379e-04,1.436232030391693115e-01
-1.122795884626797691e-01,-1.507384243578253902e-01,-2.658075050520738447e-01,3.172453961349954062e-03,-1.794704269333717225e-02,-3.425283238561135143e-03,1.420460492372512817e-01
-1.431354009860246745e-01,-1.765503942953757510e-01,-2.701868530081519282e-01,1.378032683563632128e-02,-4.953482279628328155e-02,-2.192612961942369890e-02,1.496203988790512085e-01
-1.555190896639245257e-01,-2.032953750459935982e-01,-2.386391678639356861e-01,-9.110415998735762674e-03,-9.518173140019015044e-02,-7.075010591755324929e-03,1.811027526855468750e-01
-1.426342602770719337e-01,-1.464315779019730035e-01,-2.874417505121157901e-01,3.830091719066887508e-03,2.607150300635056265e-04,9.285144090525183870e-05,1.431013196706771851e-01
-1.349649208663752653e-01,-1.439632198857712653e-01,-2.836474418613724735e-01,1.270120042395538919e-03,6.952283573648199112e-04,1.005950154032377811e-03,1.444260925054550171e-01
-1.312206172200145182e-01,-1.504157622564689933e-01,-2.829592215193200699e-01,2.472098508594432458e-03,1.011794312801060712e-04,-5.418642971466988223e-04,1.431770175695419312e-01
-1.354851905722854744e-01,-1.486385487158613794e-01,-2.854132350291384013e-01,1.360239239818611867e-03,2.228330840930128800e-04,7.512384177184534611e-04,1.438289433717727661e-01
-1.320313706627652961e-01,-1.457888163471878773e-01,-2.801176025098656153e-01,4.155794901670973977e-03,1.334100428266020042e-03,3.982670757592958639e-04,1.419124305248260498e-01
-1.393424994128687477e-01,-1.302477783268582712e-01,-2.748101447070132597e-01,5.803756471720883901e-03,2.615474657090776766e-03,2.998886781327186196e-03,1.407650113105773926e-01
-1.263782225782792146e-01,-1.441394486223186722e-01,-1.993348759468643039e-01,-4.131287886496489911e-03,1.978462181120023075e-02,-3.455150827665416820e-03,7.485750317573547363e-02
-1.460509914036820234e-01,-1.466643593477019725e-01,-2.065102376156966457e-01,-7.501916672898718483e-03,1.819151121189888434e-02,-1.458780408796667670e-02,7.361151278018951416e-02
-1.467450147414253447e-01,-1.397823559084034328e-01,-1.548176430632660638e-01,-1.327711523404942516e-03,6.645067192393888308e-03,-1.626636459867061152e-02,3.318728506565093994e-02
-1.578292229360927779e-01,-1.652604380742530854e-01,-2.229244896645075635e-01,-7.886687965284609053e-03,1.796579547940498414e-02,-8.514674385700474885e-03,7.198116183280944824e-02
-1.272333681574703002e-01,-1.595093756616417779e-01,-2.924651788089563942e-01,-3.087558754081448989e-03,9.030447733358001536e-03,2.973465086276768938e-03,1.526762545108795166e-01
-1.604748325574930079e-01,-1.350887139721739794e-01,-3.001167398916674278e-01,5.474827013622243777e-03,9.736810039336332625e-04,9.633190129514489219e-03,1.551142930984497070e-01
-1.534054908272443341e-01,-1.418289499918726770e-01,-2.892086676783114374e-01,3.360191017387144027e-03,2.252606372027273179e-04,-1.039565145705242033e-03,1.420771479606628418e-01
-1.609914831274702751e-01,-1.465852180237788016e-01,-2.964623961985137224e-01,1.723060759853491759e-03,-1.619025443316092017e-04,-4.729238233819639948e-04,1.432522088289260864e-01
-1.592465727596117930e-01,-1.410367859758019093e-01,-2.971144685688955622e-01,3.967802820978672505e-03,3.888200946130604494e-03,1.065979712621695696e-03,1.481407880783081055e-01
-1.517205662067436789e-01,-9.124231490114748100e-02,-2.762168923082585770e-01,1.427321864806804959e-02,1.326961043605708913e-02,4.227597135183671501e-02,1.821742802858352661e-01
-1.534079406285298042e-01,-1.310090499780780515e-01,-2.881768479202641009e-01,3.184680445654840351e-03,3.073563130973735406e-03,3.873861796274093681e-03,1.476036310195922852e-01
-1.551052794319609518e-01,-1.447978066052112711e-01,-2.891895555860803380e-01,2.068676692563111222e-03,-3.547119621498446185e-04,6.248334301391137390e-05,1.395712494850158691e-01
-1.503091980847446330e-01,-1.511022289860510792e-01,-2.890474643977950508e-01,-1.945652166198515208e-03,-5.178187382841091622e-04,6.907991660102565101e-04,1.383925676345825195e-01
-1.554949738663921610e-01,-1.459745043384005903e-01,-2.945113953267083917e-01,-2.247809607742872005e-03,-3.684957719158758792e-04,3.821981911465756614e-04,1.440684199333190918e-01
-1.492761593481369553e-01,-1.488318639872226457e-01,-2.879819493465570202e-01,-1.491235541755621093e-03,-6.887343684634648000e-05,8.901473833373772088e-05,1.389526128768920898e-01
-2.182089349725810923e-01,-2.746207908978470225e-01,-5.114282856271559208e-01,-6.287378403343210631e-02,3.585654877044108790e-02,-3.096608713873313934e-02,3.020131587982177734e-01
-1.588678068665978493e-01,-1.539645517550459475e-01,-2.938804586665232366e-01,-3.093556997582908984e-03,2.301572182875541417e-04,4.398724662727776101e-04,1.376368701457977295e-01
-1.507650278038298597e-01,-1.533778536445664642e-01,-2.903355269860235510e-01,-2.856315902971521669e-03,8.046686438461222784e-04,-1.397911453472039161e-03,1.383992731571197510e-01
-1.439381672059827921e-01,-1.425356468783895991e-01,-2.837468016113738334e-01,-3.311478200256984250e-03,-3.513574154252368034e-04,8.553022040307062344e-04,1.406412720680236816e-01
-1.516073001075754489e-01,-1.479251328106112318e-01,-2.875858173678311758e-01,-1.074811007705600650e-03,-5.039430719091862298e-05,3.142282897858119923e-04,1.378701627254486084e-01
-1.555949757106556142e-01,-1.445287404215870875e-01,-2.393397725471218540e-01,-1.013671764340676879e-02,8.449637837937494858e-03,-3.251159437715576278e-02,1.084244027733802795e-01
-1.778419182612143989e-01,-1.545866875220017200e-01,-2.514251062031949702e-01,5.845731226377644772e-03,-5.593912569224693786e-03,-2.129538404138302254e-02,9.603831917047500610e-02
-1.431805071405490293e-01,-1.630330271499338124e-01,-2.962132705537552368e-01,-8.098398515173258578e-04,3.185562839055240941e-04,1.041550634322321449e-04,1.441435664892196655e-01
-6.473358735384970863e-02,-8.555866584938125186e-02,-1.454272371519859941e-01,-2.818800502513638812e-02,7.263732453311860793e-02,-3.978045740755239978e-02,1.680011451244354248e-01
-1.713163081207738636e-01,-1.987652847162151015e-01,-3.120465715755997294e-01,-1.545018627417754989e-02,4.106417418272851477e-02,-2.281651636981548922e-02,1.550234109163284302e-01
-1.521319823325661957e-01,-1.612608480364098873e-01,-2.844397501055084820e-01,-1.622105822753230897e-02,1.344679800764454237e-02,-6.672372228794806216e-03,1.335898190736770630e-01
-2.055558722539882477e-01,-1.517900607650601308e-01,-2.717659646361866299e-01,-3.285751149150352175e-03,3.509313960596728565e-02,-8.772729261060858985e-02,1.940350085496902466e-01
-1.633152763628548387e-01,-1.603302436411817022e-01,-1.595576979825082953e-01,-4.532083682452305723e-03,2.566979478671442549e-02,-7.782060927127174010e-02,1.421913802623748779e-01
-1.258234850156777773e-01,-1.442020936418605126e-01,-1.243471558827410478e-01,-1.966785794968874471e-02,5.751168233853883732e-02,-5.281852603879044761e-02,1.407825648784637451e-01
-1.167252304083501169e-01,-1.554088645209843467e-01,-2.690200384126097410e-01,-1.016695506888981408e-02,-2.637596498813619961e-02,2.414552578038459043e-03,1.456484794616699219e-01
-1.145374086875909081e-01,-9.959103440050812162e-02,-2.042453378765268779e-01,-2.321928872277763400e-02,3.597949809628597784e-02,-4.928200062701066503e-02,1.496624201536178589e-01
-1.475213069600733173e-01,-1.203124600091423635e-01,-2.682438746350429559e-01,-5.185232646807861299e-03,1.942660183506134900e-03,-1.233717696947451113e-02,1.383747905492782593e-01
-1.555660214784894135e-01,-1.041619380286216007e-01,-1.263050396530920882e-01,-1.750278986820383992e-02,2.813681747106532710e-02,-7.080423730982891850e-02,1.425771862268447876e-01
-1.516781039062845005e-01,-1.367345871042653926e-01,-2.726150623055296207e-01,-8.722163227135797808e-03,5.105518548900239359e-03,-8.027742886273527695e-03,1.309810727834701538e-01
-1.849736617791971627e-01,-1.458375823947853089e-01,-3.078475408854335904e-01,-6.363869345575335137e-03,1.187330468482830290e-02,-3.431874802920820144e-02,1.597378402948379517e-01
-1.194826731781556961e-01,-1.410930594412469763e-01,-1.605614570594296464e-01,-3.028044432661711714e-03,-8.053519596397822056e-02,3.176885022122086233e-02,1.542069613933563232e-01
-9.001344708785277704e-02,-1.458889752559764386e-01,-2.704645875485754969e-01,3.123649960462632907e-02,-4.503074659309871941e-02,-1.750701630875097989e-02,1.884988993406295776e-01
-1.386092977313497232e-01,-1.540372470805000671e-01,-2.896708679030620681e-01,6.362725196525618326e-03,-4.388370357159286465e-03,-8.165236916489396072e-04,1.445969492197036743e-01
-1.326533491944920373e-01,-1.513395271242257423e-01,-2.816855915853702097e-01,1.024226044644651300e-02,-7.689831771850746782e-03,-4.448214036417466946e-03,1.425707191228866577e-01
-1.376126426381025225e-01,-1.413717604192646360e-01,-2.561643781734254111e-01,1.768236726822745158e-02,-3.887724415376555415e-02,-1.846791116403555949e-02,1.418397128582000732e-01
-1.239649873867309238e-01,-1.574161260171450805e-01,-2.765321971220723318e-01,-4.381287469140045265e-04,2.433299028266175737e-03,3.745742628734950752e-04,1.389638185501098633e-01
-1.116664595148617600e-01,-1.769651896898965238e-01,-3.011740018660510332e-01,3.590349342121401666e-02,-4.292400866534140658e-02,-2.612296474787232856e-02,1.981016248464584351e-01
-9.734478656993897361e-02,-1.382923809181668962e-01,-1.911612214198643023e-01,8.872502895824701738e-03,-6.122756158091914591e-02,-2.053195900510725036e-02,1.392263025045394897e-01
-1.101743146158923603e-01,-1.709870821516382700e-01,-2.025396594830485286e-01,5.175696792956824797e-03,-6.729002400571507114e-02,-2.624837957651226725e-02,1.494780778884887695e-01
-1.266504041345997700e-01,-1.646687545017017085e-01,-3.002513671798823780e-01,3.144604684556245519e-03,-1.141113316803869446e-02,-1.265583880987841518e-03,1.593981832265853882e-01
-1.590379789030970381e-01,-1.271267710570836429e-01,-2.799457263586127009e-01,-5.042398048625714151e-04,-8.541717972632470977e-05,-2.381352410237269602e-04,1.396290659904479980e-01
-1.605291235250535797e-01,-1.275301172837421670e-01,-2.762777409136626394e-01,-1.944904849390687029e-03,-7.401904299061945729e-05,-2.216174349911324750e-03,1.353970617055892944e-01
-1.523862318058348264e-01,-1.210245458107749028e-01,-2.476835555977342507e-01,1.851727103315643210e-03,-5.374412546522866095e-04,-7.727358754379527739e-03,1.150830537080764771e-01
-1.439396021779172363e-01,-1.405738158431180662e-01,-2.843803894490633533e-01,3.805481397220020212e-03,-8.144368287830304649e-04,-1.638770826964183226e-03,1.423415839672088623e-01
-1.622651534199540668e-01,-1.331063959885468995e-01,-2.788542187380106396e-01,3.061721262825781859e-03,-8.296318929895089974e-04,-1.255785120053963012e-03,1.337077170610427856e-01
-1.609631433967064207e-01,-1.265819693362629228e-01,-2.845407422105609707e-01,7.610120603072364565e-05,-5.507552872227622381e-05,-1.506435166070255833e-03,1.439064443111419678e-01
-1.565999640695969197e-01,-1.276163496822572685e-01,-2.790094661808953380e-01,-2.654541846244565587e-03,8.349257793325992475e-04,-2.976042563826892216e-03,1.393621414899826050e-01
-1.580402615558818558e-01,-1.132302623267741060e-01,-2.325988526291593861e-01,-7.084029234580627860e-03,1.009469562170832446e-02,-3.019318262110331705e-02,1.187393516302108765e-01
-1.572239758816331712e-01,-1.282746655476827979e-01,-2.826913017350347612e-01,5.191215803899973391e-04,-1.390471758025017655e-06,-8.420804889528008159e-04,1.421803086996078491e-01
-1.581122014670174325e-01,-1.269871312726159607e-01,-2.825568127127657814e-01,4.203861161043366719e-04,3.000404418116159994e-04,-1.141257508001164911e-03,1.425948292016983032e-01
-9.425376258989114076e-02,-1.454516694059334037e-01,-2.330376050248784137e-01,-1.780819170403578899e-02,-4.430813159192954070e-02,1.504654891589027842e-02,1.493216753005981445e-01
-1.308261586675614208e-01,-1.548558414368932934e-01,-2.852673092813988731e-01,-1.337724479631795206e-03,-2.557263772092792202e-03,5.306843866445314041e-04,1.440283060073852539e-01
-1.444308116493117633e-01,-1.482606115953983561e-01,-2.893231467743053731e-01,-4.417893335710150644e-03,-1.014487963809226120e-03,3.588819284680832005e-04,1.432325839996337891e-01
-1.448449542848277427e-01,-1.630337441793424935e-01,-2.962870892576288107e-01,-1.406800802601307398e-03,2.365169743202626097e-04,9.376366335640824289e-04,1.432471424341201782e-01
-1.331005509278781473e-01,-1.634625575074439563e-01,-2.835696804258097115e-01,-2.039582198943773635e-03,-3.713925615783635753e-03,2.966465355423048358e-03,1.381105482578277588e-01
-1.352585363609855595e-01,-1.639903005855352369e-01,-2.978884717152584516e-01,1.168873110812556357e-03,-2.596029880145798389e-03,6.875188150502518176e-04,1.504230648279190063e-01
-1.470316613838603403e-01,-1.604065622741154551e-01,-2.942030549402042672e-01,1.777588918895389117e-03,-3.829370087719100339e-04,-5.915809627156418766e-04,1.409995555877685547e-01
-1.454520861405162735e-01,-1.532603893622409008e-01,-2.882253498994913898e-01,2.221337573798729762e-03,-5.761274630640079910e-04,1.307953427108780517e-04,1.390906423330307007e-01
-1.449704608428827868e-01,-1.544627600564731917e-01,-2.885124330424473360e-01,1.644813907396212166e-03,7.197989922504347124e-04,3.644605849323859920e-04,1.390752643346786499e-01
-1.441878775382327005e-01,-1.602013975611893959e-01,-2.930621892736828826e-01,5.405938555190894015e-03,-6.288803224205100594e-04,-5.045540819011201574e-04,1.418647766113281250e-01
-6.343062935783470857e-02,-1.167666150343678599e-01,-2.957680793467090119e-01,4.845957114264338311e-02,-2.145883500175005745e-02,-6.005080709887736581e-03,2.301479727029800415e-01
-1.558967797070375805e-01,-1.271174834200801684e-01,-2.771020165657402390e-01,3.012929588511449337e-03,-2.665110829719027148e-04,-1.592221541153326361e-03,1.379935145378112793e-01
-1.566401672502488185e-01,-1.241604363717014048e-01,-2.741947184937408855e-01,8.117936684867348238e-04,-1.650838386902013044e-04,-3.465046858409035098e-03,1.368584036827087402e-01
-1.569196866536460566e-01,-1.219492116526306319e-01,-2.775296596331776611e-01,1.377418196779989321e-04,-1.096482642472708656e-04,-3.195289603244787051e-03,1.414857208728790283e-01
-1.552997838468214431e-01,-1.245459011693188789e-01,-2.791767789110524145e-01,8.162653487410460700e-04,-5.398774275115446331e-04,-2.110348392032305662e-03,1.418352723121643066e-01
-1.590682133619108485e-01,-1.269433381727868293e-01,-2.800851219590608232e-01,4.281367342346348922e-05,1.015689180619000210e-04,-3.491877806530374606e-03,1.400048881769180298e-01
-1.605288741203950709e-01,-1.281517469488627492e-01,-2.822636026622706296e-01,3.004797317407350427e-05,-3.152264742347553003e-04,-3.508253051169477749e-03,1.408767849206924438e-01
-1.548796726001555879e-01,-1.230254184808007023e-01,-2.726087955187671552e-01,4.327121240677942734e-06,-6.382519546780176817e-04,-3.078948038532015440e-03,1.365821212530136108e-01
-1.470872894859424351e-01,-1.141836397948859105e-01,-2.338421360333860499e-01,6.401491861058937298e-03,4.297466766437469700e-03,2.104007357641941162e-02,1.138859093189239502e-01
-1.624565048816195012e-01,-1.357534590683362463e-01,-2.861715005763940112e-01,6.234297903758468859e-03,1.440900907738588456e-04,4.030301776179192989e-03,1.395973265171051025e-01
-1.761344054747840393e-01,-1.476554421927609995e-01,-3.030906995050900443e-01,1.102547765346541600e-02,7.404280679579435323e-03,1.874945853802209572e-02,1.487558931112289429e-01
-1.577540280803798600e-01,-1.265561078298988174e-01,-2.821315596017884841e-01,2.411426064208628691e-04,6.063140706118596169e-04,7.933516630799895440e-04,1.425712704658508301e-01
-1.577420565738848479e-01,-1.258556754968916669e-01,-2.802321977830911637e-01,2.246547586603871648e-04,3.299643747750709223e-04,7.653122394795244072e-04,1.411686241626739502e-01
-1.645524532135730078e-01,-1.318433214961911848e-01,-2.768288289921814194e-01,3.188641789658145818e-04,9.836621895424700935e-06,1.685707084554375701e-03,1.317465901374816895e-01
-1.550664936641740210e-01,-1.251933692136977250e-01,-2.513888221848571414e-01,2.865499770304089696e-03,3.619300858667763620e-04,8.174394618071323046e-03,1.152099445462226868e-01
-1.849660394674499664e-01,-1.797704960668430330e-01,-3.468157334767025257e-01,-2.104742292248830415e-02,-1.856472259914932615e-02,1.665367647998552275e-02,1.739487797021865845e-01
-2.061037725828368805e-01,-1.543663560210810637e-01,-3.172520152339966537e-01,-1.417268031524094272e-02,-5.557511903029415355e-03,9.677407046696899495e-02,2.226479947566986084e-01
-1.311477817681784008e-01,-1.393086382318381722e-01,-2.742943568610198835e-01,5.363561564046021891e-03,2.903504555470532312e-03,2.601471993194287829e-03,1.397184282541275024e-01
-1.460196613641276953e-01,-1.461195601812713130e-01,-2.850201235805470135e-01,8.676810987102247241e-03,2.159472664173100586e-03,1.822190578758343992e-03,1.398465782403945923e-01
-1.570219258709530108e-01,-1.445321118890676992e-01,-2.868954226958509990e-01,9.879012991923206283e-03,2.519127529495463445e-03,4.417303784833273052e-03,1.378969848155975342e-01
-1.455634926473295399e-01,-1.387133679778429773e-01,-2.869064941141538094e-01,2.556311695791915316e-03,5.360418855357997579e-04,9.356583279985897878e-04,1.449692249298095703e-01
-1.454500668769195260e-01,-1.454985931079893768e-01,-2.904858289136831306e-01,1.744847154499261149e-03,1.568333852011605679e-04,3.628115967867897923e-04,1.450446099042892456e-01
-1.435066182056663753e-01,-1.436213607355189270e-01,-2.891641610208898761e-01,1.380065901377058044e-03,-2.053823079727689705e-04,8.798587198747129926e-06,1.456202566623687744e-01
-1.463109399916852627e-01,-1.445754734111254214e-01,-2.882674264590124324e-01,9.120649031870492127e-04,-4.415741925287363593e-04,2.933936485261827627e-05,1.428429186344146729e-01
-1.408274037429303183e-01,-1.465722189984324797e-01,-2.846300811289113608e-01,6.224438857131626632e-03,3.040699449680691994e-04,-3.063636154136784398e-04,1.414315551519393921e-01
-1.517227267926108403e-01,-1.191504023630174935e-01,-2.688602688587900524e-01,-2.877720109648159753e-03,1.329262976874399623e-03,-1.025718327792657369e-02,1.376349329948425293e-01
-1.568786477529037771e-01,-1.330102427874766402e-01,-2.872554295031990446e-01,-4.636444864059140192e-03,1.249099858959326886e-03,-4.041278470139495621e-03,1.442146301269531250e-01
-1.844000151955267064e-01,-1.634581044646961356e-01,-3.255031263534668429e-01,-2.610954678841199625e-02,3.083684112543700478e-02,-4.187005979152717827e-02,1.829228848218917847e-01
-1.633640281420680185e-01,-1.476165954040769279e-01,-3.008267964282412832e-01,3.316555699365900372e-04,8.175037911164810230e-05,4.032432544678762562e-04,1.459777951240539551e-01
-1.507315793556872618e-01,-1.378056000445640195e-01,-2.866220055310382819e-01,-1.377154395770225628e-03,9.866692365237492851e-04,3.631493606240209361e-04,1.428244113922119141e-01
-1.515577780237052086e-01,-1.539980443571023205e-01,-2.912690227581009594e-01,-2.918452460220730214e-03,-6.935405461889318415e-04,-6.803111713914915606e-05,1.386047005653381348e-01
-1.353259889764130697e-01,-1.599411032522368992e-01,-2.910996683879269464e-01,-2.408613948055425980e-04,2.033068818134584239e-03,7.651900492159296281e-04,1.450906097888946533e-01
-1.620472756694264493e-01,-1.446672908293670234e-01,-2.938488440459000595e-01,8.559703079086164153e-04,5.503317814629611138e-04,-1.339140558471101127e-03,1.413255631923675537e-01
-1.628210322825971446e-01,-1.412448200176412982e-01,-2.971910811631354177e-01,-1.305301584366706693e-04,4.755476222417134966e-04,1.468753850657872589e-04,1.463585793972015381e-01
-1.616765724853773123e-01,-1.439354322408956666e-01,-2.932129231385534052e-01,-1.694422655591861730e-03,6.641675260936202863e-04,4.253691508458032821e-04,1.412821412086486816e-01
-1.589639853992892982e-01,-1.369041354446833281e-01,-2.964859313262047658e-01,-5.343747229129595759e-03,1.254981144306364720e-04,-5.001972081463765783e-03,1.503110378980636597e-01
-1.649226354957082363e-01,-1.515650147366940925e-01,-2.993030754787449066e-01,-3.749517265143992545e-04,-4.748401629298115972e-04,3.178022088409546335e-06,1.415366679430007935e-01
-2.068846223321303968e-01,-1.353654398186204255e-01,-3.313765046703754935e-01,-3.717083436340216929e-02,-9.094357319360150266e-03,-7.300865577992735056e-02,2.233846634626388550e-01
-1.461623608047313283e-01,-6.614093181762197016e-02,-2.965929463702891011e-01,-2.294559125818863149e-02,-5.177591497621729898e-03,2.209912855220256753e-02,2.102272510528564453e-01
-1.878481048080093141e-01,-1.627133192317812838e-01,-3.141544339877200276e-01,-4.123460624038411543e-02,-3.055655474496068308e-02,9.296377817579161429e-02,2.314919233322143555e-01
-1.556385617432615720e-01,-1.375441148541542147e-01,-2.779329304926118627e-01,-9.687591486446026426e-03,-3.591389431979227082e-03,8.556461901965404723e-03,1.342983692884445190e-01
-1.104564094110792316e-01,-5.866941958072953434e-02,-2.696407050725678212e-01,-4.158996360482507260e-02,1.629877366403698069e-02,-1.917508166940413289e-02,2.082171589136123657e-01
-1.537150060112981442e-01,-1.368795545827393711e-01,-2.892853910362414016e-01,-6.092071691999455252e-03,1.194203971587913223e-03,7.425904759096445956e-03,1.456921398639678955e-01
-8.823035066917725433e-02,-7.490263144793260497e-02,-1.501484718461486845e-01,-2.716876720177629351e-02,-4.528990114367343472e-02,7.384699266448248312e-02,1.719441562891006470e-01
-1.531425898245294959e-01,-1.287348854052184910e-01,-2.119101308736881517e-01,8.312982140264053854e-03,1.520652643487509746e-02,3.019439244603680517e-02,9.549804776906967163e-02
-1.448647830773139578e-01,-1.320849518346153273e-01,-2.016932007246288461e-01,-1.996237992216988097e-02,-4.166130523050408374e-02,6.070414732560347471e-02,1.468894630670547485e-01
-1.586807081301371269e-01,-1.433803257214837645e-01,-2.921624865901272794e-01,-1.127571992903396393e-03,2.461440215574392174e-04,-3.707503686093558608e-04,1.417681872844696045e-01
-1.504494052677509131e-01,-1.326064795879944858e-01,-2.209880067438358409e-01,-1.272383957569719892e-03,2.970957172619963661e-04,-1.533789023927620981e-02,8.522648364305496216e-02
-1.567889934456205836e-01,-1.467935854578163168e-01,-2.564764299302152439e-01,5.942113385794765661e-03,-7.385619052146985032e-03,-7.536098144797443756e-03,1.071160882711410522e-01
-1.481187143786953653e-01,-1.522514983204834027e-01,-1.571419694290430435e-01,9.358771151585378034e-03,-1.124506674201837531e-02,-3.704269737335388890e-02,6.942482292652130127e-02
-1.405547899893456187e-01,-1.579985243569431708e-01,-2.939847498846758223e-01,-2.206838754587847097e-03,3.506459539719073435e-04,-6.053420368466106479e-04,1.455497294664382935e-01
-1.497101737309215475e-01,-1.774789686821833523e-01,-2.185327088009874630e-01,-1.923462236697316349e-02,9.964138598950407488e-02,-1.357198774075375237e-02,1.872011125087738037e-01
-1.427965930398603089e-01,-1.337729542914525005e-01,-1.509404258960904965e-01,-1.910066040507244726e-04,6.282759743613463947e-03,-1.747369280097126748e-02,3.543661162257194519e-02
-1.824612890756120986e-01,-1.583628124280649918e-01,-3.009075723893935295e-01,2.030995755469806874e-02,-2.427901833110835891e-02,-5.024090757918039246e-02,1.674603670835494995e-01
-1.313918102844535141e-01,-1.073122171970768146e-01,-1.147661338977994105e-01,-2.394947875380066041e-04,-1.423614246117376446e-04,-6.377428248890369689e-02,1.125060468912124634e-01
-1.492789601954103984e-01,-1.420703199831497010e-01,-1.100212644669506523e-01,5.414218911526557298e-04,-3.734772339948200237e-02,-4.858221474794759825e-02,1.121439635753631592e-01
-1.418917998569042271e-01,-1.229541330593759557e-01,-1.316077595142640944e-01,1.294059954522642358e-02,-2.565017048564220345e-02,-7.908982258959428024e-02,1.466676890850067139e-01
-1.558688317718570915e-01,-1.207780853270458282e-01,-2.549008941341728840e-01,-1.297905738574769811e-02,1.986915269198699999e-02,-4.197336056479890332e-02,1.465906798839569092e-01
-1.278379930301947465e-01,-1.014424144950198392e-01,-2.202154452838248622e-01,-2.122925214187054710e-02,2.074456756111294972e-02,-4.691599662323457653e-02,1.446204185485839844e-01
-1.623445504199447220e-01,-2.270483858366517116e-01,-4.565077482365972328e-01,-4.510998444517801825e-02,1.811071813893374433e-02,-3.775689631588655115e-02,2.881849408149719238e-01
-1.478381612465757000e-01,-1.447270497131375455e-01,-2.869228552847238323e-01,-7.116843148366742804e-03,7.362070682311780932e-04,-2.031241192855000235e-03,1.412547081708908081e-01
-1.236427290808277679e-01,-1.372352861876376673e-01,-2.790187830853739781e-01,-1.798099146182558644e-02,1.344714058595113983e-02,-7.784059565200229791e-03,1.546244472265243530e-01
-1.488403843901038581e-01,-1.430854813053241692e-01,-2.869941222468825326e-01,2.271498070444620456e-03,-3.667827259355644948e-04,7.684780703581445055e-04,1.411817669868469238e-01
-2.130900804477505184e-01,-1.810670148309620475e-01,-4.773560653691703015e-01,-5.080543898208062653e-02,1.438717483047237226e-02,-2.872537018665963920e-02,3.002741932868957520e-01
-1.425511861798537394e-01,-1.481467082807560731e-01,-2.891637391963379766e-01,-6.992891676353264405e-03,7.660441609163310545e-04,-2.913030820864163147e-03,1.444994658231735229e-01
-1.459485902630931198e-01,-1.450845499116093229e-01,-2.866856704247628951e-01,1.176762591873697656e-03,-3.940230720324103828e-04,-3.156002994244980274e-04,1.411885023117065430e-01
-1.506173665481292945e-01,-1.582050210552163882e-01,-2.941809029117757324e-01,1.762316801917271619e-03,-9.208188678506206912e-04,4.809573238750879999e-04,1.399689465761184692e-01
-1.158683412538051294e-01,-1.364313630272555589e-01,-2.980624941283416263e-01,-2.878163060492129263e-02,3.297274971134075278e-02,-1.474115743263154123e-02,1.904461681842803955e-01
-1.660033010565669098e-01,-1.752967046830870290e-01,-2.267160705717429781e-01,-1.060024629404743290e-02,4.273557812943801909e-02,-2.083142802506050481e-02,1.016174629330635071e-01
-1.690892268582384894e-01,-1.551423650247137076e-01,-2.637230196087229084e-01,-1.137005296276262338e-02,1.051342420372416812e-02,-1.246510953467852741e-02,1.079605519771575928e-01
-1.868964579281574279e-01,-1.792536314155316612e-01,-2.128980865792495236e-01,-1.252047484950796243e-02,7.020580270435206049e-02,-7.621933239822285822e-02,1.833527535200119019e-01
-1.160981665095802834e-01,-7.616023519237978545e-02,-2.391567799510290748e-01,-2.332941393417971646e-02,2.637668332416007524e-02,-5.374313510033808250e-02,1.844942122697830200e-01
-1.624851857965985968e-01,-1.262636863066395887e-01,-2.798084486769532031e-01,-4.967944190203322369e-02,3.345296428981430620e-02,-3.775316264438301206e-02,1.853745281696319580e-01
-1.266830514873241165e-01,-1.605798730700914168e-01,-2.826940395802984285e-01,-2.522318085275053684e-04,1.158478190881047191e-03,5.255520967898949861e-04,1.421449631452560425e-01
-1.328556915678658079e-01,-1.597229290689333447e-01,-2.855605724802938172e-01,4.202370371283624048e-03,4.018708534245910707e-03,1.843199520890263223e-03,1.415962278842926025e-01
-1.244918261751225275e-01,-1.549324713622141636e-01,-2.795133005572221219e-01,2.061493690248736386e-03,2.558235626943606254e-03,1.922275934275724258e-03,1.424177139997482300e-01
-1.239555244639663767e-01,-1.568714389888837268e-01,-2.810112175309669169e-01,3.927950449562031847e-04,3.009845702412613025e-03,-2.669876986858839393e-04,1.435554623603820801e-01
-1.232606160909299198e-01,-1.547771877356914350e-01,-2.755282629850094867e-01,1.189373815249360937e-03,2.395354470436773884e-03,7.727989545631495493e-04,1.392947435379028320e-01
-1.235237584782072212e-01,-1.583167431772792288e-01,-2.816464567778890205e-01,4.302341775096591402e-04,3.477110106793396011e-03,3.908962427212503855e-04,1.440453529357910156e-01
-1.516883624319701473e-01,-1.469759219202096123e-01,-2.870221986700034478e-01,1.041522149451912021e-03,-7.790542796340615105e-04,-3.211224483241727819e-04,1.377700716257095337e-01
-1.488870499445431039e-01,-1.630490764505043988e-01,-2.972163087629295930e-01,-1.307740947713080916e-03,-3.839965069161041457e-04,1.253028434170802173e-03,1.418159753084182739e-01
-1.306459764669792301e-01,-1.514505941302301817e-01,-2.914731325371255899e-01,-9.814334835899969980e-03,-5.617321451228556028e-03,5.052846852529552322e-04,1.527633816003799438e-01
-1.262332951644180579e-01,-1.665317484987778318e-01,-2.926430832690752326e-01,-8.200263412075912625e-03,1.284313490143702483e-02,9.230137676154144630e-04,1.526736766099929810e-01
-1.351157952958031427e-01,-1.687639810463846535e-01,-2.985338714422471340e-01,-5.165847340947609008e-03,9.008702723248379965e-03,-1.800634236689600969e-05,1.505406051874160767e-01
-1.490577311671421046e-01,-1.625538523667827973e-01,-2.979477299624356257e-01,-1.476655216643521160e-03,-6.100234724308207113e-04,1.326358038132827545e-03,1.426670104265213013e-01
-1.434157710535940433e-01,-1.601286605233458726e-01,-2.937218650020276822e-01,-1.885001907288860225e-03,-9.503877103607631790e-04,1.513285033223288551e-03,1.427565515041351318e-01
-1.188359205004593244e-01,-1.237403007872871358e-01,-2.384043490223889394e-01,-2.482455007574453643e-02,2.900967448512239630e-02,-2.456411500037860088e-02,1.411307901144027710e-01
-1.396172888753819952e-01,-1.539442672948773405e-01,-2.894248352958547765e-01,-7.348177099874556549e-03,3.910456493900501748e-03,-2.780051419492425677e-04,1.439075022935867310e-01
-1.476314160437011691e-01,-1.470756126429786648e-01,-2.881116077799530384e-01,2.343668433387184516e-04,-4.206398823652975766e-04,-3.282773233350742381e-04,1.407625377178192139e-01
-1.444619097949556563e-01,-1.664148704615441288e-01,-2.972202722753483073e-01,-4.380682629228881673e-04,4.258513114201739223e-04,-8.600833780403415558e-05,1.430548578500747681e-01
-1.489498692056626938e-01,-1.646666487189616945e-01,-3.001109566487663582e-01,-4.238334780333882974e-04,2.225284872542109251e-05,-2.407727399820717572e-04,1.439501345157623291e-01
-1.496411368581455625e-01,-1.668239406610212971e-01,-3.009159104937941809e-01,-8.546559892641873680e-05,4.674540225270449136e-04,-7.285632191427369401e-04,1.434651613235473633e-01
-1.364429111739842437e-01,-1.612918985587548093e-01,-2.942202158953487467e-01,6.926376757236618826e-04,-2.848190041738805998e-03,2.805901705530844951e-05,1.470248997211456299e-01
-1.542911124928351141e-01,-1.707881145869656891e-01,-3.086935399462294449e-01,1.100073178686418116e-03,8.510131062749588500e-04,-1.327530958441598598e-04,1.468704789876937866e-01
-1.010612913990595052e-01,-1.814987607887461607e-01,-3.561729900562380369e-01,-2.149257056590108891e-02,-4.341629325132827233e-02,1.014433052638265796e-02,2.416217327117919922e-01
-1.434720737831243209e-01,-1.634220919109390102e-01,-2.968198350837554234e-01,-5.153249460710863277e-04,4.476779306560301082e-04,-4.998125494237440000e-04,1.444174349308013916e-01
-1.354405846164211669e-01,-1.631838389280260981e-01,-2.994743965271549069e-01,2.011051397732777080e-03,-2.232758705075708373e-03,-7.417767524801762130e-05,1.521612703800201416e-01
-1.446656754836099790e-01,-1.368197559084776971e-01,-2.855588676744841292e-01,-6.971501533516898802e-03,2.062608001766275123e-03,-2.844415876268650833e-03,1.456046998500823975e-01
-1.429109406445486230e-01,-1.428345077337573876e-01,-2.880801399061861390e-01,-1.504905832460516277e-03,7.019313513725975069e-05,1.607854338408209744e-04,1.452311426401138306e-01
-1.390978023981267186e-01,-1.393133739147896788e-01,-2.844178776385326013e-01,-3.756101941307407859e-03,1.258333806563100747e-03,-8.887653349377684035e-04,1.453825533390045166e-01
-1.427275421482164797e-01,-1.422279669388819001e-01,-2.877294758795068685e-01,-7.207073973027357510e-04,-2.397860757394226522e-04,1.444534598466802459e-04,1.452585458755493164e-01
-1.384646716132076905e-01,-1.429306509110749024e-01,-2.846058989652129334e-01,-3.132038576625680113e-03,3.461612873666343351e-04,-8.240726916106278378e-04,1.440706998109817505e-01
-1.321986970989385002e-01,-1.457296992255397994e-01,-2.809423689248541356e-01,-3.764694509069936232e-03,1.648896585542749442e-03,-3.071057342658394906e-04,1.426396667957305908e-01
-1.560441311997955438e-01,-1.428660385214778061e-01,-2.922162052597473414e-01,6.329422570901464470e-03,-1.071392856344191308e-03,-4.483963205432321859e-03,1.438573300838470459e-01
-1.680510815129778179e-01,-1.361347585374100833e-01,-2.970329181424057330e-01,5.577335326907259180e-03,-5.235685371396295133e-03,-1.176645468513211161e-02,1.495409607887268066e-01
-1.345277532772893858e-01,-1.456267872431414867e-01,-2.795137521980592954e-01,5.791641854514522660e-03,-3.818464940612722840e-03,-3.704539670737737236e-03,1.404295712709426880e-01
-1.980431297251091238e-01,-1.588924390624764371e-01,-2.560765500123961536e-01,4.197187093983241989e-03,-1.278027669584257814e-02,-4.364979295174097745e-02,1.158942282199859619e-01
-1.527901306089333999e-01,-8.663867838688639467e-02,-2.571592355198921709e-01,-6.271742969464814271e-03,1.345706790299038003e-02,-4.964165945478603986e-02,1.738598793745040894e-01
-1.493391439361513306e-01,-1.159785342724670154e-01,-2.638968461440561741e-01,1.571260657845239108e-03,-2.477149593763343285e-03,-1.455705724012309847e-02,1.368197798728942871e-01
-1.822604785132760918e-01,-1.455682940307463369e-01,-2.890818808479088120e-01,7.047649815428059725e-03,-8.655364935810734919e-03,-1.775341411538998090e-02,1.341489702463150024e-01
-1.614240924699575919e-01,-1.303732967470579429e-01,-2.204501700150044985e-01,6.923978969844555480e-04,2.087943594539890934e-03,-1.964575235202562983e-02,8.633319288492202759e-02
-1.682764490967494364e-01,-1.381911943961046663e-01,-2.986312431307638349e-01,-3.137139444926389620e-04,-2.414411935250334088e-04,-1.078190266063450489e-03,1.477268040180206299e-01
-1.571599904285348459e-01,-1.240119090754607939e-01,-2.798809372821726149e-01,5.179061242465180740e-04,-5.963384532893217359e-04,-2.878912582078909776e-03,1.423162817955017090e-01
-1.842448848842231646e-01,-1.049627802996240533e-01,-2.641932799912949936e-01,1.923306607353899439e-02,-5.512911933050223569e-03,-5.682135623098700378e-02,1.729242205619812012e-01
-1.617456938208605421e-01,-1.275213545291013495e-01,-2.893884877687912249e-01,2.578620504886981399e-03,-5.927232144432450318e-04,-1.468941858387809614e-02,1.500027179718017578e-01
-1.169297099283514441e-01,-1.321799607940364052e-01,-1.976711084741189506e-01,4.985673935912654162e-03,1.344026642290682347e-02,1.999302924549429855e-04,7.833919674158096313e-02
-1.489933324724191099e-01,-1.476458250754061896e-01,-2.046533706426513777e-01,7.043173916466922112e-03,1.100758664417646367e-02,1.492125777340578760e-02,6.599325686693191528e-02
-1.528061691948607581e-01,-1.514738343297188095e-01,-1.936345328168622149e-01,5.862815170160033803e-04,2.385597771605535531e-04,-5.835815746098642343e-03,4.273756593465805054e-02
-1.670478392180531346e-01,-1.638694414503858998e-01,-1.206021367679906003e-01,3.716525492802694088e-03,-6.173570762834135889e-03,6.569900291756247679e-02,1.229818537831306458e-01
-1.715119012264278431e-01,-1.461955602219369987e-01,-2.500289896273722445e-01,2.725331010318576396e-03,2.971780698495586712e-03,1.984030084297533358e-02,1.001164540648460388e-01
-1.364487603820190298e-01,-1.358313941400778879e-01,-2.451036208782087500e-01,1.045127690800596795e-02,8.404567473899884553e-03,7.407468602706322736e-03,1.121496707201004028e-01
-1.701520884092056207e-01,-1.579387794385291310e-01,-1.589668911626327674e-01,-5.484923096985347760e-03,6.216789788333779241e-04,3.726550686803480061e-02,6.629654765129089355e-02
-1.577835039217811985e-01,-1.677969272539018286e-01,-2.578313046462928915e-01,1.729884712158162585e-02,2.427970497701562730e-02,2.988762620956360999e-02,1.202251389622688293e-01
-1.355071092093259322e-01,-1.326048305881181444e-01,-8.403155897935163376e-02,-5.668624392878421347e-03,3.347922142513343191e-02,-2.059086970174236683e-02,8.508633822202682495e-02
-1.566639331553021930e-01,-1.590806077705366472e-01,-3.064288397313747470e-01,5.133766907410417316e-03,1.713753759897303219e-03,-1.771171728157308525e-03,1.488983631134033203e-01
-1.260316168562140016e-01,-1.604318756982429928e-01,-2.989765344515245005e-01,3.812389143208488266e-03,-9.639592832550605492e-03,5.655644737221955393e-04,1.595847755670547485e-01
-9.960156432437065888e-02,-1.307083179120810401e-01,-2.204540694091428332e-01,3.395398063541432698e-02,-5.659385091671702978e-02,-4.794607116545056280e-02,1.782619357109069824e-01
-1.194977627300952971e-01,-1.537875967257429088e-01,-2.640023569530829950e-01,6.340981876473547260e-03,-1.100117180231113476e-02,-7.510860490013622839e-03,1.332489103078842163e-01
-1.478499904113428354e-01,-1.568001354166713157e-01,-2.958271683633167393e-01,2.388188964171002876e-03,6.725538198206664278e-04,2.772547138505669271e-04,1.437763273715972900e-01
-1.278110003305142350e-01,-1.559700602752321086e-01,-2.826001223898404469e-01,8.851692831697536993e-04,-3.287263587731111512e-03,-1.208208021105664203e-03,1.429441720247268677e-01
-1.506413803984978095e-01,-1.503512193238364103e-01,-2.879831404837037701e-01,2.176489104171305193e-04,-2.877423461449903942e-04,-2.424705909937503853e-04,1.374891251325607300e-01
-1.597855622121763519e-01,-1.305882774045261374e-01,-2.738610400888438212e-01,1.092089236711919244e-02,-3.381230709897375085e-03,-1.689094786198445247e-02,1.358101516962051392e-01
-1.635895040415296930e-01,-1.878288979269175374e-01,-3.504213305604287898e-01,1.958710089988634911e-02,-2.396342554145475257e-02,-8.680096949265150852e-03,1.845663040876388550e-01
-1.294654832775447850e-01,-1.540967353501037918e-01,-2.837666144938142954e-01,1.156694313893648698e-03,-2.520465904372967084e-03,-1.002516713627886820e-05,1.436592489480972290e-01
-1.277524250451653742e-01,-1.589424337875473270e-01,-2.844002161709265897e-01,1.430302675330898240e-03,-3.429680251257510620e-04,-5.265978768071432345e-04,1.436413079500198364e-01
-1.405296642086534542e-01,-1.562006476127207333e-01,-2.908843518299254471e-01,2.656719265376832149e-03,-5.306852434531025451e-04,-8.161903461338951499e-04,1.432477682828903198e-01
-1.470098252878341560e-01,-1.806105288583640389e-01,-2.590877271400865434e-01,3.189058378068233661e-03,-2.463578989053734694e-02,8.045007694793673836e-03,1.094075441360473633e-01
-1.485818455475548805e-01,-1.396698030265932644e-01,-2.880034523468646968e-01,4.901496983440194709e-03,-7.291790245594526087e-04,2.763370682668459867e-04,1.443407088518142700e-01
-1.424089836129555642e-01,-1.411263326717503153e-01,-2.875550944066793679e-01,8.588451926307124956e-04,1.225020905647501170e-04,1.637110128055232485e-04,1.457996815443038940e-01
-1.462161267530052156e-01,-1.426052371125181017e-01,-2.893860249557856923e-01,5.922823719090091962e-04,-3.207318515618744442e-04,-4.481037565768152919e-04,1.450158357620239258e-01
-1.423953432628754512e-01,-1.389147617924391676e-01,-2.829952589941702179e-01,5.326658815788695017e-03,-9.087318634333657979e-06,-1.765047872488135182e-04,1.426710635423660278e-01
-1.444023458606704113e-01,-1.405588038013056984e-01,-2.870496370046797252e-01,3.561391558129355355e-03,-1.167315424978020562e-04,-9.068927891719865114e-04,1.447475403547286987e-01
-1.422153364999553526e-01,-1.463154313372720117e-01,-2.877933998447098074e-01,2.418457641650086955e-03,-6.024964717465352811e-04,-1.246888783123173763e-04,1.436369866132736206e-01
-1.406312993455135774e-01,-1.457230395722466099e-01,-2.889081541368148098e-01,1.173920522315722746e-03,-8.005987661243131267e-05,1.698228466506608223e-04,1.458122283220291138e-01
-1.419089085987988441e-01,-1.445276675924513365e-01,-2.881535768057509883e-01,2.105743368848964590e-03,-3.423288523203209081e-04,7.895745314529651043e-05,1.450001895427703857e-01
-1.566109969636000354e-01,-1.500371403186793740e-01,-2.935761955192680017e-01,-7.160582850796716687e-04,1.436838908830528807e-03,-8.644013574609049448e-04,1.404031515121459961e-01
-1.509840997943256435e-01,-1.287104148998211850e-01,-2.480330894685912613e-01,-5.648295469221006025e-03,-4.768957178261246793e-03,1.306088605486589553e-02,1.129245832562446594e-01
-1.540559038588851515e-01,-1.498075792998028455e-01,-2.991775919756592961e-01,-9.424905412970125893e-03,-6.266408603033232945e-03,3.676590424508004683e-03,1.487269997596740723e-01
-1.502436920943749366e-01,-1.318000939182208953e-01,-2.831213984373294745e-01,-5.882202351981246670e-03,-6.916157449440578538e-04,6.672811059754877108e-03,1.438270062208175659e-01
-1.460493121242199543e-01,-7.535984094433111069e-02,-3.261949809470685580e-01,-8.258188643744070190e-02,6.295454218184442542e-03,5.070508684914540494e-03,2.661563456058502197e-01
-9.863434829428409378e-02,-1.248581577540688048e-01,-2.604628405488896292e-01,-3.165522711264242423e-02,-3.953136322176994261e-02,2.656232132650937494e-02,1.801205277442932129e-01
-1.567558702725986297e-01,-1.343407932575723662e-01,-2.831336210770154516e-01,-2.927417693341520782e-03,5.329362960930580527e-06,-2.096860110526887371e-04,1.390409320592880249e-01
-1.520030652892577216e-01,-1.269092291792287275e-01,-2.784228180795400021e-01,-9.144854879843368955e-04,7.152498188255104294e-05,1.436577402042422979e-04,1.406648457050323486e-01
-1.580035960968595443e-01,-1.283090987721999809e-01,-2.822604480317060238e-01,-1.294353766912547180e-03,4.849578091831599838e-04,-7.871501398639724244e-04,1.414880305528640747e-01
-1.512951982333198553e-01,-1.345171065773664854e-01,-2.860428368883906058e-01,-2.492647045919326679e-03,1.869048786184454667e-03,1.110369928907590706e-04,1.439735889434814453e-01
-1.545720714665604900e-01,-1.314199540345028783e-01,-2.838891498683426828e-01,-1.297790126574250701e-03,5.994387463911920056e-04,-1.557589032798542160e-03,1.423597633838653564e-01
-1.508536277164854167e-01,-1.498773124355083919e-01,-2.889012329954935288e-01,5.573536317425123758e-04,1.576535820758585718e-04,-5.211912887298534257e-05,1.385420113801956177e-01
-1.545718643120138625e-01,-1.255423881196778280e-01,-2.804506478631154653e-01,-1.720064339230339880e-03,6.782934008708726894e-04,-1.789314829363474347e-03,1.426963061094284058e-01
-1.617078890224200594e-01,-1.272119944274767711e-01,-2.864255876256165956e-01,1.103930021407746029e-04,-2.600662932718343754e-04,-1.650428132252991986e-03,1.451038569211959839e-01
-1.441074994486268857e-01,-1.363535363183895066e-01,-2.855363767531939878e-01,-3.341831641474522774e-03,5.052239567220486545e-04,-1.366685091339597639e-03,1.455979347229003906e-01
-1.559183663824871835e-01,-1.481008094192197699e-01,-3.004690046353532540e-01,-8.316316999937319390e-03,-6.647696702725372931e-04,-4.261502622274595045e-03,1.494968980550765991e-01
-1.458049037239216306e-01,-1.442661833325725451e-01,-2.882550009782152700e-01,-1.300041198844900875e-03,2.007362587260698826e-05,-2.583086803647670826e-04,1.432440578937530518e-01
-1.413702456519886352e-01,-1.429990780124379968e-01,-2.867414643824467424e-01,-1.156831749327173536e-03,-6.070655573948089410e-05,1.401744525695571778e-04,1.445778161287307739e-01
-1.453110958850670209e-01,-1.461642714519006403e-01,-2.900007662217056748e-01,-1.825509978110330042e-03,2.828330117193220941e-04,-1.694755692031338042e-04,1.443007439374923706e-01
-1.232899653955749075e-01,-1.508615530880537126e-01,-2.395913027003750972e-01,-1.005241449699642055e-02,5.248887999848063368e-02,-3.095599921234174975e-03,1.402737647294998169e-01
-1.402678171988041567e-01,-1.385746592066081917e-01,-2.838586937950114408e-01,-3.236873275190651437e-03,5.440480194577191741e-04,-7.236546243316473691e-04,1.445621699094772339e-01
-1.534655816187352750e-01,-1.290411952417597763e-01,-2.768154608016253349e-01,-4.246009270168449486e-03,8.343203119495222518e-04,-1.953779871409967728e-03,1.374485939741134644e-01
-1.387402086862901673e-01,-1.421948201679495427e-01,-2.862072756848292321e-01,-5.248470078935352700e-04,5.055284159109021697e-04,-3.130376436989233246e-04,1.457769423723220825e-01
-1.444790830036755402e-01,-1.449405544761578901e-01,-2.887085577462257246e-01,-1.935922748107467110e-03,1.824258252662309791e-04,1.884717081690456266e-04,1.440390497446060181e-01
-1.785451167712436837e-01,-1.258978116119860435e-01,-3.038969634154980448e-01,-1.978839363060541298e-03,6.079506846639497371e-03,3.232098216381130984e-02,1.683473438024520874e-01
-1.562806011795744021e-01,-1.316516178478669974e-01,-2.870789330870159306e-01,2.176822174468574268e-03,1.455295202030181109e-03,1.973707493852733339e-03,1.448049545288085938e-01
-1.612819319718956090e-01,-1.268256797274469050e-01,-2.766706176519147520e-01,-5.001504233949933577e-03,-9.573407401237562196e-04,1.138265258971379694e-02,1.376376897096633911e-01
-1.590170741595370307e-01,-1.256422357032703219e-01,-2.838190254183855510e-01,4.030211841142657060e-04,5.732101234016324411e-04,1.702575923162236984e-03,1.444465965032577515e-01
-1.626031015747376740e-01,-1.311273996423798771e-01,-2.917157858081256827e-01,1.370573209100688084e-03,8.892856224282750393e-05,3.258017808000233766e-03,1.475202441215515137e-01
-1.642169695371070992e-01,-1.413045243736423817e-01,-2.989215611742329082e-01,-1.113176474235576274e-04,-5.223490852889124030e-04,5.384921955221314786e-04,1.475074440240859985e-01
-1.584208047200479641e-01,-1.657607204227359576e-01,-2.387984531402688737e-01,-4.413499734597836101e-03,-2.202920769116282693e-02,1.119645542104521878e-02,8.840165287256240845e-02
-1.328317246097032167e-01,-1.517169990932950296e-01,-2.866394604382285216e-01,-4.836899715450924606e-03,-5.489728586712074032e-03,7.317910797039499024e-04,1.458457261323928833e-01
-1.286231031416107951e-01,-1.601121525586547412e-01,-2.847003299972797885e-01,-2.093630171638106638e-04,-7.736798729574280789e-03,-1.999592510319851983e-04,1.435853838920593262e-01
-1.318590275123483480e-01,-1.522178074755158317e-01,-2.306412850970936401e-01,-7.002947489138751022e-03,-1.513235105561244786e-03,-1.495900398972428540e-03,9.122518450021743774e-02
-1.541919911264097165e-01,-1.725840389573739531e-01,-2.764038324635530453e-01,-9.328453098296947410e-03,-1.056594601275603722e-02,2.972329332129519316e-03,1.168278977274894714e-01
-1.367253604586661508e-01,-1.650405893306000071e-01,-2.940485519156569305e-01,-1.506354400594693381e-03,-2.337423699952172976e-03,-3.293717081685649823e-04,1.453314125537872314e-01
-1.455522180364287044e-01,-1.773017192046976720e-01,-2.092131763081256368e-01,9.744857703621538636e-03,-5.553058598931571305e-02,-1.022540740357024032e-02,1.135299354791641235e-01
-1.328111340618076675e-01,-1.509026086629220165e-01,-2.871190794165364157e-01,-3.777099630662217669e-03,1.969417942780242979e-03,-6.718012035332071889e-04,1.462955027818679810e-01
-1.366173475112949509e-01,-1.656319982369553190e-01,-3.005192521262180505e-01,-1.264554345932218183e-03,1.086971370030742970e-03,-2.629311512053077084e-03,1.515889465808868408e-01
-1.259886914845247396e-01,-1.581263687660948436e-01,-2.869592834797229375e-01,-9.498764818181331315e-04,4.964482428004107079e-03,-2.974061503475841813e-03,1.478997021913528442e-01
-1.339305574265916288e-01,-1.553220856626284230e-01,-2.873659947223274891e-01,-2.267751280087298982e-03,1.108415655138919858e-03,-1.136085836185347529e-03,1.440166532993316650e-01
-1.471531071731667362e-01,-1.582197501336917167e-01,-3.049241129131168293e-01,-1.232399420237640167e-02,-2.988972112797722448e-03,-4.929604233092367213e-03,1.543486714363098145e-01
-1.441986288280577566e-01,-1.449144978336452394e-01,-2.590762652288391976e-01,-1.250263175467978410e-02,9.777109323782456549e-03,-1.132025374196779857e-02,1.193956211209297180e-01
-1.685547806022824613e-01,-1.819725381576395851e-01,-4.470481135440630971e-01,8.029817117057520826e-02,1.837995651006274142e-02,-2.785692295363351861e-02,3.109448552131652832e-01
-1.488669773330388579e-01,-1.752641347113687575e-01,-3.416919048038119522e-01,2.880356028693182441e-02,-8.861330212719138039e-03,1.136950707401098489e-03,1.884585171937942505e-01
-2.341465134994865083e-01,-2.056848247915979422e-01,-4.279484972068017812e-01,6.156424319020098457e-02,-5.973976329444329048e-02,-7.558524491989043748e-02,2.882734537124633789e-01
-2.201689852656102953e-01,-1.644547470855381721e-01,-4.898910409169229263e-01,6.482806200035448607e-02,-2.633317765389217580e-02,1.930722183792886459e-02,3.266313970088958740e-01
-1.140327599476706061e-01,-1.243357821523425888e-01,-3.244101798398966174e-01,5.099299227399189949e-02,9.383551090759299773e-03,1.196963630036274907e-02,2.251490950584411621e-01
-6.168875894638883861e-02,-1.155970936601970894e-01,-3.025919450172708802e-01,5.350671605918803919e-02,-1.788703643023648038e-02,-6.932143473964965351e-03,2.400972098112106323e-01
-1.637910423755572498e-01,-1.492786434156571640e-01,-3.409466536964921302e-01,2.163790847857077759e-02,-8.353793988275206228e-04,-1.041341794989171857e-02,1.894668340682983398e-01
-1.225233178221023372e-01,-1.604881378232578537e-01,-2.900738959641975256e-01,-3.206473084249553997e-03,-1.067057437504808845e-02,1.848054239777756694e-03,1.534150242805480957e-01
-1.291453393475170963e-01,-1.547838470096297991e-01,-2.862607901560595414e-01,-7.070580159452535297e-03,-1.001099583952753079e-02,2.348548488286808717e-04,1.475303322076797485e-01
-1.311656819419329545e-01,-1.524868491051314390e-01,-2.612193455094507510e-01,7.401447791318013954e-03,6.042565995243311117e-03,7.346981618276456766e-04,1.219473406672477722e-01
-1.267327649200486461e-01,-1.570980404703948563e-01,-2.696635586695936837e-01,2.654290506087543088e-03,7.152570941146743459e-04,-2.672012450368117559e-04,1.305144131183624268e-01
-1.368619359696191529e-01,-1.560494716370775803e-01,-2.768585763904954922e-01,7.057570533694877343e-03,5.823208226003871073e-04,4.841853584175653076e-04,1.320309787988662720e-01
-1.689839997697022145e-01,-1.574433531133487274e-01,-3.291423798877896045e-01,1.661205265064477285e-02,-2.203853009294987064e-03,-3.661719896024323660e-03,1.688635498285293579e-01
-1.547079024314965134e-01,-1.258314065167736584e-01,-2.885100861004337158e-01,-9.688272600405056344e-04,-8.010398702556838398e-04,-3.315601411961788519e-03,1.504604071378707886e-01
-1.856791491839910047e-01,-1.595694278769366203e-01,-3.569756320850719922e-01,7.405125976527245383e-04,6.173950666256645438e-03,5.335836279969672497e-03,1.862743049860000610e-01
-1.390523403135307812e-01,-1.095512535428096318e-01,-2.968837043954217769e-01,2.928296129992285710e-02,-1.539748541518802354e-02,-1.733116214824089937e-02,1.860700994729995728e-01
-1.588672526883189717e-01,-1.351248021873274197e-01,-2.925809588889942692e-01,1.287188364664196933e-03,9.647197336502075921e-04,-8.140062058615572457e-03,1.477304846048355103e-01
-1.833744006297495788e-01,-1.476062010849829575e-01,-3.428128264120037239e-01,6.486094474545619354e-03,-3.325360918102617338e-04,-1.484301515843773449e-02,1.821820139884948730e-01
-1.141449967516583314e-01,-1.430534157347722046e-01,-2.284557430822215518e-01,-8.266867979425241222e-03,-2.327042315001908238e-02,8.408275569322248844e-03,1.124266833066940308e-01
-1.935128337480241101e-01,-5.368353604067180318e-02,-3.180717739594385307e-01,2.345747882907019827e-02,-4.639411884346940698e-03,8.648621281124959140e-05,2.328078746795654297e-01
-1.484376915293933175e-01,-9.640701972488052718e-02,-2.877691649306446942e-01,1.725284132003276558e-02,-1.294488255742652291e-02,-2.990828433502847397e-02,1.828911453485488892e-01
-7.761806008549883285e-02,-7.204452789042531391e-02,-1.225961636286767159e-01,-2.793412535850431366e-02,-5.912831800324921255e-02,5.025581066942901021e-02,1.507021635770797729e-01
-1.200350353457301927e-01,-1.893607591846501459e-01,-3.037056082276502478e-01,-2.844553378455403833e-02,-1.044123718528556372e-01,3.584286566669088719e-03,2.469405978918075562e-01
-1.432163542478915308e-01,-1.465023530384428618e-01,-2.846208227090980536e-01,-1.066882757035430770e-02,-2.699274572991903695e-03,6.512883627158030063e-03,1.415342688560485840e-01
-1.444209783291513782e-01,-1.486546009332365137e-01,-2.879616606688001901e-01,-4.828330472212984462e-03,-1.871905433770829465e-03,2.117913377387575530e-03,1.418028920888900757e-01
-1.597852052100305065e-01,-1.757024360937165242e-01,-3.286649918728428155e-01,-2.126590724934185328e-02,-1.316148459181663843e-02,1.247957384858730707e-02,1.686097681522369385e-01
-1.450051104919525269e-01,-1.564147309282997722e-01,-2.960911530567174044e-01,-5.461508963488843731e-03,-1.184603544812835689e-03,-2.987935871439202314e-04,1.460386961698532104e-01
-1.643912488389563387e-01,-2.074066658911283556e-01,-3.583407193519672074e-01,-1.310581280396545291e-02,-1.006276270950037799e-02,-3.376414084627397862e-03,1.788216233253479004e-01
-1.440918264384942749e-01,-1.424420261759079542e-01,-2.881010366144317603e-01,2.318409796794383953e-03,-2.130873922386324580e-04,-3.994043902312450090e-04,1.448989361524581909e-01
-1.462506671154690796e-01,-1.301982372895208462e-01,-2.818982599304617476e-01,3.346487124510012963e-03,2.081014644747148257e-04,-1.087087129672207469e-03,1.444738507270812988e-01
-1.498914299715875531e-01,-1.355649355514382259e-01,-2.869140236594283078e-01,1.090651787085720591e-03,1.271147885444156667e-04,-6.905700474411907838e-04,1.447361111640930176e-01
-1.492869253201614399e-01,-1.387212327831763847e-01,-2.878931711505844371e-01,1.512720048164530907e-03,-4.489935635606962807e-04,-1.096050884645612296e-04,1.442057639360427856e-01
-1.474512927014998420e-01,-1.345660424784143605e-01,-2.818276226709892085e-01,4.187613857403633087e-03,-5.236444363934493473e-04,-5.572387683020920248e-04,1.414526849985122681e-01
-1.428301469531662038e-01,-1.395065188777366294e-01,-2.822723407237167081e-01,5.772073148165051369e-03,-8.908022307599472293e-05,-5.113073108197222980e-04,1.414898782968521118e-01
-1.561115291711461517e-01,-1.281216445656682412e-01,-2.799630147075016784e-01,1.208820722221304236e-03,6.170287966809687424e-04,-4.068032651188552154e-04,1.399829834699630737e-01
-1.497685287286258382e-01,-1.298061980350945221e-01,-2.797679778614253765e-01,4.784091021403730215e-03,-7.853374402247470564e-04,-2.573423923766529446e-03,1.413641571998596191e-01
-1.495820556768674425e-01,-1.315953958618194530e-01,-2.834666149221766740e-01,2.817891028351017166e-03,-1.166874915633564014e-03,-1.338747907497374063e-03,1.438402384519577026e-01
-1.498302670034311057e-01,-1.367618538519657923e-01,-2.860333821776038232e-01,1.244726392305195960e-03,-5.749867096187965447e-04,-3.039380266954056680e-04,1.432059556245803833e-01
-1.468491689579219106e-01,-1.378211885190494534e-01,-2.861706775385216006e-01,1.581552438248648700e-03,-5.938500478838800627e-04,-3.544988835019825856e-05,1.440775692462921143e-01
-1.478896932448972024e-01,-1.284646379614281519e-01,-2.768694884673760237e-01,4.489230263609396768e-03,-2.861533342154035445e-04,-1.969399835272340592e-03,1.399675011634826660e-01
-1.388253635604610459e-01,-1.371828342365318809e-01,-2.771949841416416760e-01,6.839562088524211818e-03,-5.045437435493885583e-03,-2.968771357878844438e-03,1.400688290596008301e-01
-1.126034549851700206e-01,-1.383272100891144718e-01,-2.500818749305042665e-01,1.658081381057800383e-02,-2.500928733384107788e-02,-9.307113455079616890e-03,1.377918571233749390e-01
-1.459254934850848506e-01,-1.368203602456063983e-01,-2.836256689740514481e-01,2.151808239942282468e-03,-1.772212222860658970e-03,-5.905343251429388124e-04,1.425565779209136963e-01
-1.510004400885634757e-01,-1.388332290537164226e-01,-2.864753122692818010e-01,9.823812787975482515e-04,-4.426762597032372697e-05,-7.312960809076878704e-04,1.419659703969955444e-01
-1.727556049367725000e-01,-1.703392676070349110e-01,-1.917361923388339884e-01,-8.155920410652091963e-05,-5.898743530812123118e-03,-8.983006668622339329e-04,2.277698926627635956e-02
-1.582628195332878296e-01,-1.598098307792286676e-01,-2.249837288260079782e-01,-1.115295749145782216e-02,-2.955324996935301124e-02,1.000778592999689715e-02,8.743381500244140625e-02
-1.449614726176514934e-01,-1.460387173296902596e-01,-1.934701976384938238e-01,-1.023213111367505569e-02,-1.183014887445308500e-02,1.887117460960315365e-02,6.406489759683609009e-02
-1.680617007665738682e-01,-1.627190291876520756e-01,-1.863120607073794899e-01,-7.369592123028117538e-04,-6.248320399071754724e-03,1.692180730394078928e-03,2.421713806688785553e-02
-1.385296688881162419e-01,-1.417752261120635571e-01,-1.668777574592859303e-01,-5.947065190117849058e-03,-2.288294551495571871e-02,2.262568575466894147e-03,4.913746565580368042e-02
-1.429459328619481218e-01,-1.388956690973447705e-01,-1.708971748481849795e-01,-5.688993872120092984e-04,-1.380955903029483121e-03,2.646101855823517271e-02,5.493755638599395752e-02
-1.398729225970284928e-01,-1.642845906113076793e-01,-3.094748935358944131e-01,-6.278047709738071407e-03,-5.411469658193179127e-03,2.385318395977736265e-03,1.595106720924377441e-01
-1.239709259521093732e-01,-1.586124584196484943e-01,-2.781420670964895869e-01,-9.327093920561870932e-04,3.325496680000974634e-03,9.593008955522258630e-04,1.402376592159271240e-01
-1.439052030930834114e-01,-1.413137863307115938e-01,-2.882024060890663320e-01,-1.803589288789741443e-03,8.638880212792964333e-05,5.440190278976813135e-04,1.456468403339385986e-01
-1.441009723226369388e-01,-1.401870817911115563e-01,-2.858362509988910394e-01,-1.150521048494199160e-03,-2.972202919215551835e-04,6.919534416744855393e-04,1.437519341707229614e-01
-1.462883051366711817e-01,-1.373385136083385694e-01,-2.855886550909609856e-01,-1.442154098632361138e-03,6.590417258704288350e-04,-2.022578546162160230e-04,1.440106332302093506e-01
-1.388755737900249088e-01,-1.419734324181771423e-01,-2.867308862452918050e-01,-1.044154565423592324e-03,4.202007135946057777e-05,-3.599675979960770180e-04,1.463434994220733643e-01
-1.281868827632145491e-01,-1.565659962790067472e-01,-2.799471335984197728e-01,-2.896998200764840537e-03,3.739297513895941793e-03,-1.649477424672961181e-03,1.400179117918014526e-01
-1.422603440918653595e-01,-1.417857501439481471e-01,-2.871993110167294638e-01,-1.334670373104419145e-03,2.134226254180171024e-04,4.264860744506493223e-04,1.451976001262664795e-01
-1.552165124329654977e-01,-1.222446990584124121e-01,-1.819711064066406314e-01,-9.528296726059596461e-03,1.307314207086615089e-02,-4.455483336215813189e-02,9.708543866872787476e-02
-1.533061265433239007e-01,-1.341605562923798567e-01,-1.761165006960972723e-01,1.328547101288606209e-02,-1.663613831730532608e-02,-2.813932524617807074e-02,7.112554460763931274e-02
-1.621387961385954979e-01,-1.386103815056751454e-01,-2.234506051523063308e-01,1.542424134544599125e-03,2.975325935477506675e-03,-1.555371779777509761e-02,8.071395754814147949e-02
-1.770103849759100401e-01,-1.557857654806003855e-01,-2.753025158829678354e-01,1.270714931904681939e-02,-1.031588750677312795e-02,-2.379362207000118579e-02,1.212440431118011475e-01
-1.659207356656551002e-01,-1.664968914990912485e-01,-2.406752186409804872e-01,1.038333721088091979e-02,-1.901488623157230121e-02,-1.090133692895805737e-02,8.549942076206207275e-02
-1.680722341948462373e-01,-1.171245144918602321e-01,-2.085729032612578249e-01,-5.877017890705465118e-03,-1.365783361001451750e-02,-8.887352333407419480e-02,1.750946193933486938e-01
-1.272616650678271011e-01,-1.224152416661670045e-01,-9.674671129633954925e-02,6.575004470455890135e-03,-1.895979986872720416e-02,-4.470333003989201970e-02,8.949881792068481445e-02
-1.356505094631225428e-01,-1.588865542023969735e-01,-2.878495972586031515e-01,-5.088768175117310867e-03,-5.153597584958481172e-03,4.210522668867893001e-04,1.425688266754150391e-01
-1.295181799266018619e-01,-1.553017855323831353e-01,-2.714786680319635215e-01,-1.127099313578288015e-03,-1.967426773961966115e-03,4.429295750544840122e-04,1.310470700263977051e-01
-1.197813395371303685e-01,-1.479443146902479911e-01,-2.654472763657358403e-01,4.014664758228996336e-03,-8.707561289391657286e-03,-1.308732844811337807e-03,1.348713785409927368e-01
-1.365160614373706061e-01,-1.615653958008900770e-01,-2.940459346944283014e-01,-2.734571639782453021e-03,-6.366856983907712196e-04,6.382237867037024448e-04,1.467037200927734375e-01
-1.485832490457107968e-01,-1.509815329612614054e-01,-2.875463095439658723e-01,-1.757644018223098858e-03,-2.282952650059819435e-04,3.763292188185806677e-04,1.378153115510940552e-01
-1.513572002494167346e-01,-1.568765158991166642e-01,-2.930817840622822468e-01,-5.269533346413476536e-04,-1.144078097174648962e-05,-1.153672587141584384e-03,1.390644609928131104e-01
-1.502571185550724275e-01,-1.495592300893850701e-01,-2.888515456002119230e-01,-1.777548671881605362e-03,3.882574191112088250e-04,-5.292340820682736808e-04,1.389834433794021606e-01
-1.512593612240138996e-01,-1.521609563964684553e-01,-2.877524048783755561e-01,8.581305552490838787e-05,5.417937347700480464e-06,-3.261916034969775786e-04,1.360457390546798706e-01
-1.546877145157199152e-01,-1.533557897873868980e-01,-2.921607153082184105e-01,-2.074413395937950606e-03,4.359768631455521312e-04,-4.371944742214594259e-05,1.381925791501998901e-01
-1.522207176562319075e-01,-1.492136151863311389e-01,-2.877386211171847341e-01,-8.735934319553440887e-04,5.481337802361634163e-05,-3.079965226563275023e-04,1.370556205511093140e-01
-1.560042940454810512e-01,-1.239026939964807394e-01,-2.813562742820560625e-01,2.578472853803008384e-04,1.395251995138771864e-03,1.663164910678700380e-03,1.441595256328582764e-01
-1.602890334796438221e-01,-1.239404993125834825e-01,-2.923688313469284816e-01,3.588955074299261198e-03,2.142504685618734032e-03,1.180822791437629096e-02,1.550416499376296997e-01
-1.609569829536243724e-01,-1.292102157438062005e-01,-2.860030164215360826e-01,9.295565346450080637e-05,5.012076242063652400e-04,2.487300146915490638e-03,1.436437070369720459e-01
-1.618529783157133251e-01,-1.330381726280079890e-01,-2.885015400321528922e-01,1.581628700540835264e-03,4.778001520985839033e-04,2.679987306272154333e-03,1.433500647544860840e-01
-1.266992975242850483e-01,-1.492499407679905021e-01,-2.885324981631504082e-01,1.224663768512875006e-02,-3.410411612123044438e-03,-5.853303069415319868e-04,1.534110009670257568e-01
-1.508660352560497186e-01,-1.572342369094499315e-01,-2.946384772492148252e-01,2.350137859869754365e-03,1.079495110296985931e-03,-1.288240307000482175e-06,1.407677680253982544e-01
-1.703382971426205261e-01,-1.704764279128599680e-01,-3.377399116506193955e-01,1.866809289798481222e-02,-3.749983183885044046e-03,-2.225030524712709110e-02,1.748516708612442017e-01
-7.938246661676602589e-02,-7.984949275308082794e-02,-2.895881715711960958e-01,6.257581302881398688e-02,-2.290842367275695065e-03,-7.260476414161858537e-04,2.363324016332626343e-01
-2.101091290924176347e-01,-1.780635417509367768e-01,-4.051946144615120593e-01,6.187126458239894378e-02,-1.283611909761280846e-02,-5.453553505241170996e-02,2.573669254779815674e-01
-1.933055521334524351e-01,-1.395067026786788733e-01,-3.681013382575280546e-01,4.882827266318513770e-02,1.088309913363323753e-03,-2.536220345475013668e-02,2.278981655836105347e-01
-1.532671440414933584e-01,-1.509875467129835058e-01,-2.939110018883698272e-01,7.462330135131757004e-03,-2.998831925716425261e-04,-2.775267738397660389e-03,1.424673199653625488e-01
-1.331760208141398449e-01,-1.345622994648923154e-01,-3.406324815574648945e-01,5.422332617331574595e-02,-3.061038160493035828e-02,-4.999084885774323500e-02,2.487594485282897949e-01
-1.539896671351890234e-01,-1.540455845060288986e-01,-2.982284717912321304e-01,-8.147070831631778379e-03,-1.719591912743547108e-03,-1.300609022394799978e-04,1.449303776025772095e-01
-1.143789503770629989e-01,-1.483831079934298802e-01,-2.981101690800035953e-01,-4.175684878720015841e-02,-4.184668743061332324e-02,2.980488896780591687e-02,2.044875323772430420e-01
-1.449954814282711224e-01,-1.769823100197167043e-01,-3.137474032096226884e-01,6.600978837009422893e-04,-3.422120609891212036e-03,-3.956302582684040857e-03,1.555182486772537231e-01
-1.445433176448636392e-01,-1.624009526213924526e-01,-2.932870430734195732e-01,-2.841706996760473363e-04,-1.169298043392853152e-03,-3.237050698262042584e-04,1.406841725111007690e-01
-1.311462826001150994e-01,-1.591486739407039219e-01,-2.849426348160353784e-01,-3.888956879678320583e-05,-5.194860213556787634e-03,1.862235635403690229e-03,1.422046273946762085e-01
-1.240628077793450995e-01,-1.521622093857087910e-01,-2.925113526039093692e-01,-1.084104520654809861e-02,9.951291544694297608e-03,-3.951609565539577866e-03,1.585171967744827271e-01
-1.435172719209852066e-01,-1.601766306406462725e-01,-2.947786761621329354e-01,-1.686803643124102975e-03,1.795502934334551332e-04,-9.654196127956999197e-05,1.436881721019744873e-01
-1.460560784536479861e-01,-1.598301939689915074e-01,-2.957233351820309775e-01,-1.004382116889716717e-03,5.436765031875991083e-04,-2.839954966078233256e-04,1.432921290397644043e-01
-1.448586206434891166e-01,-1.672533170806259628e-01,-2.996547687845898533e-01,6.834019251521428022e-03,-5.865474114549583222e-03,-4.693414047001425024e-04,1.457420289516448975e-01
-1.474918240972467043e-01,-1.759499882926111036e-01,-3.276171374458405339e-01,1.132898477346030823e-02,-1.994393629901517959e-02,-8.947509496910276139e-03,1.730533242225646973e-01
-1.409959113920050688e-01,-1.560355303749032529e-01,-2.899331210720961227e-01,2.861486947914784751e-03,-1.563872718609751787e-03,-3.493213409656658968e-04,1.421294808387756348e-01
-1.450784283029823152e-01,-1.642969891489695633e-01,-2.976650313651263424e-01,1.322911751925908872e-03,9.157334191526709686e-04,-4.176040933244910065e-04,1.439715921878814697e-01
-1.434287741836727803e-01,-1.598919675979870170e-01,-2.949997052167854239e-01,1.876172609108668404e-03,5.770864144235478711e-04,-1.152932498156457883e-03,1.441006213426589966e-01
-1.391681096079566138e-01,-1.734339760672873876e-01,-3.075615391422375500e-01,-1.184942418882393208e-03,-1.288573003549048877e-02,-1.524392346938887623e-03,1.557872295379638672e-01
-1.362694112267087143e-01,-1.509627703485521832e-01,-2.891137001204348023e-01,1.065443103548264180e-02,-6.115525907859272262e-03,-6.667646337007695351e-03,1.480459272861480713e-01
-1.916750137486981920e-01,-1.609907122221058973e-01,-3.338938476278883183e-01,2.164337252088715038e-02,1.801315828862237040e-02,2.046381176089742335e-02,1.707824319601058960e-01
-1.970160580137912953e-01,-1.322059704637109923e-01,-2.994116501750671566e-01,-4.487390894572984221e-03,-2.755651997398613634e-02,9.006640613715628796e-02,2.190795242786407471e-01
-1.604641107853976567e-01,-8.226501789583016977e-02,-2.932690873673296506e-01,-1.789978397941282585e-03,2.840898703058282828e-04,3.094742033918821203e-02,1.924073100090026855e-01
-1.591048426486781631e-01,-1.290177773676468853e-01,-2.886838958913831021e-01,1.966132714718019352e-03,1.379909476157570097e-03,3.592391241110957489e-03,1.471415758132934570e-01
-1.417798922849081711e-01,-1.031756697899317843e-01,-2.564347233835487239e-01,-1.585749420135316740e-03,-3.010900070758500136e-03,1.970428426368672770e-02,1.423435807228088379e-01
-2.092279805429688722e-01,-1.226524517912601919e-01,-3.424662433932994521e-01,-1.269457013273222502e-02,2.495242643453976852e-02,4.496109749313958320e-02,2.125999927520751953e-01
-1.702466553480163070e-01,-1.275719761400120611e-01,-2.931761545928592283e-01,3.805217346826352855e-03,2.985028419986148103e-03,1.419728456173379241e-02,1.511741578578948975e-01
-1.065768289790856999e-01,-1.404958373739581823e-01,-1.137460344805767132e-01,-2.910922564560573453e-03,-7.119331334271011835e-02,2.750720801227991841e-03,1.273275613784790039e-01
-1.217634455805175486e-01,-1.589100365279263183e-01,-2.695094422179843408e-01,1.943145598757676921e-04,-1.089848153538558809e-02,2.752087238500875582e-03,1.345349550247192383e-01
-1.132395957569233697e-01,-1.482647705629914214e-01,-2.062016235169455425e-01,1.117928201346207739e-02,-3.974950106530933391e-02,-3.433479775682259094e-02,1.235488653182983398e-01
-1.458567031299337069e-01,-1.599729450633205208e-01,-1.761910030364114144e-01,1.146707417841808137e-02,-7.417814152079528489e-02,-3.025515747217230600e-02,1.426149606704711914e-01
-2.012194782933081627e-01,-2.084770592356415819e-01,-2.403835586545096936e-01,2.229720878557876762e-03,-9.190172755909657709e-02,-4.372218959621972101e-02,1.799717992544174194e-01
-1.522796724635910592e-01,-1.525244275819107598e-01,-2.882636527356486900e-01,-8.059817453655929436e-05,3.447542663237049645e-04,7.579997010176126157e-05,1.358632147312164307e-01
-1.511266586496191888e-01,-1.504937583713648330e-01,-2.881652485179059808e-01,1.231651452814482798e-03,2.961156369666163401e-04,2.268947690859189463e-04,1.373742222785949707e-01
-1.519874860425561303e-01,-1.500254308812804804e-01,-2.911620655988291784e-01,3.019052355002435802e-03,1.371303815776583424e-04,-1.708116878093888591e-04,1.402639299631118774e-01
-1.518243766813987261e-01,-1.550218240339203690e-01,-2.937926185720034500e-01,3.022518675409271560e-03,4.157753877009643328e-04,1.148037757558731864e-03,1.405103206634521484e-01
-1.481322534136591540e-01,-1.512138326492674656e-01,-2.867008788020747323e-01,1.049569880793093822e-03,-3.431028827212735948e-04,1.795410988540642515e-04,1.370675116777420044e-01
-1.464606632152787857e-01,-1.503598755309529800e-01,-2.862028133940202057e-01,1.423909248178760207e-03,1.382830249605862549e-04,-5.112639365034538606e-04,1.378590315580368042e-01
-1.507121368249487170e-01,-1.515381154578092360e-01,-2.868282497570938117e-01,-1.477688205569848529e-04,-8.373751543893995784e-05,1.141779321301876536e-04,1.357054710388183594e-01
-1.450518559492197657e-01,-1.440641108255110159e-01,-2.872538081795844578e-01,1.495722845716931275e-03,1.103819795737802443e-04,-1.927477459279569377e-04,1.427224278450012207e-01
-1.515965890606442990e-01,-1.524652081203002330e-01,-2.878105735485161354e-01,-1.158174121387957128e-04,1.053049130063943848e-04,3.166024071745884546e-04,1.357831358909606934e-01
-1.603837432360044890e-01,-1.466243122965946166e-01,-2.968285826875102229e-01,-1.220293216447574606e-03,-1.273816546101983610e-03,1.671012531404753628e-04,1.438517868518829346e-01
-1.446702729768928053e-01,-1.367634444571539099e-01,-2.839090679142432516e-01,-2.022413010706743900e-03,6.507145358585127723e-04,9.486932550375088173e-05,1.434031575918197632e-01
-1.608037654919351467e-01,-1.466958307337788425e-01,-3.055817371597810972e-01,-5.580163519934261407e-03,1.051441319419158839e-03,-2.638804544137684366e-03,1.527083367109298706e-01
-1.551135682959240425e-01,-1.490212942266309626e-01,-2.916317215490360493e-01,-8.735234778970913305e-04,-6.484653267759820120e-04,5.829299380377371553e-04,1.396803408861160278e-01
-1.856875712723405347e-01,-1.367063320792782366e-01,-3.052820588232336152e-01,-2.707807972548824469e-03,7.942008570402352488e-03,-1.496675583796657633e-02,1.531114727258682251e-01
-1.874514178006930765e-01,-1.789739405466117816e-01,-3.584557653797844079e-01,-1.714855981126207560e-02,5.390131417235684633e-03,-5.127082162878916771e-03,1.783599704504013062e-01
-1.527598355972171751e-01,-1.432764650768761361e-01,-2.896652267202394770e-01,-1.204337069538389789e-03,-1.386658687229387740e-04,5.975341328572046640e-04,1.419042795896530151e-01
-2.261770468703928061e-01,-1.312566255314698005e-01,-4.533516281111498736e-01,-3.363271981822204409e-02,-2.487510471053270070e-02,-1.484748941635773839e-02,2.968043386936187744e-01
-1.921946622211665734e-01,-1.411825103029198114e-01,-3.220875699175251849e-01,-1.098951519258823187e-02,1.834652577735973455e-02,-3.315845784636064358e-02,1.754168421030044556e-01
-1.428251983411182313e-01,-1.424950800820679042e-01,-2.887712108611972250e-01,3.443367608237319689e-04,4.189054726605987684e-08,8.771712814554540440e-05,1.461126506328582764e-01
-1.429020742730523486e-01,-1.428601051900840746e-01,-2.887050895894160973e-01,7.012936859305853907e-08,3.104026441828105424e-04,1.299029155598765202e-04,1.458251625299453735e-01
-1.423203158323486095e-01,-1.420393410338420537e-01,-2.879404656428513065e-01,3.319750804890533348e-04,1.912298995609207971e-04,3.392132581282563859e-06,1.457623541355133057e-01
-1.403816413494717308e-01,-1.422256481526402438e-01,-2.868573246195180171e-01,1.819908487510656482e-03,2.547500993652861666e-04,-1.694784724988711576e-05,1.455972343683242798e-01
-1.398016667387110001e-01,-1.419813445847998012e-01,-2.872340831577354647e-01,1.451956070769347970e-03,2.342675289575476291e-04,2.009196022308235377e-04,1.463773399591445923e-01
-1.436105402676086107e-01,-1.443564573719383348e-01,-2.891699922680663892e-01,2.472147609470592543e-03,5.844754483060642450e-04,2.449176118393685438e-04,1.452552080154418945e-01
-1.358465658897509143e-01,-1.483481559315116827e-01,-2.822752444965233032e-01,-2.442235894389641841e-03,3.204296795024723062e-04,-2.930776080739424215e-04,1.406610012054443359e-01
-9.782309678895773075e-02,-1.400648166082527346e-01,-2.478264920702370200e-01,-2.730440147444055440e-03,-2.144017599766283311e-02,3.668818883070877856e-05,1.391056925058364868e-01
-1.291474618459700907e-01,-1.478119490421213045e-01,-2.772806359439890511e-01,-4.682263251449004723e-03,-2.600635277414981624e-03,2.911637561479179463e-03,1.401372998952865601e-01
-1.309193762835375030e-01,-1.409844494987789465e-01,-2.608667380090631815e-01,-1.009976452594129465e-02,-3.497798791973498380e-03,5.623948914853898508e-03,1.269539296627044678e-01
-1.372258384456418456e-01,-1.439538293253816437e-01,-2.736173060591711170e-01,-7.988452334377157960e-03,-1.519121467089193942e-03,9.170012556787924532e-04,1.339072436094284058e-01
-1.409592381377948733e-01,-1.378193529471609391e-01,-2.745041824783586160e-01,-7.359992343443319887e-03,-8.010549212539023111e-04,3.189591365710816098e-03,1.358616203069686890e-01
-1.390527348951839381e-01,-1.205921285872104121e-01,-2.473814421698840582e-01,-1.064707304325313193e-02,-5.565889037539232219e-03,1.242476503073850977e-02,1.223595440387725830e-01
-1.337621131304520816e-01,-1.501550720679631912e-01,-2.830303913726336384e-01,-3.877097505278422757e-03,-2.424570059487651807e-03,6.109915252304505681e-04,1.420093327760696411e-01
-1.506682537485901086e-01,-1.562803379293566386e-01,-2.926392968979571463e-01,-6.367135916347904353e-04,-1.868642823162206857e-04,9.023472614295594907e-04,1.392633616924285889e-01
-1.473229270793864065e-01,-1.733422476442935678e-01,-3.272684600908906116e-01,-1.773059230616852791e-02,2.320254933677063074e-03,-1.690451227046574616e-03,1.712985187768936157e-01
-1.518013288525893179e-01,-1.617776650542641081e-01,-3.065041230551252549e-01,-3.851312184177951934e-03,9.977613254555268985e-04,4.420794333787439771e-04,1.501238942146301270e-01
-1.565333214343012647e-01,-1.472584308293063138e-01,-2.899718891101055740e-01,-4.190416668587246957e-03,-6.235386564331336316e-04,1.605274434069004115e-03,1.385318636894226074e-01
-1.262988290649218470e-01,-1.493425560437104116e-01,-2.701412559962003135e-01,-7.104234062470298101e-03,1.084566729348551348e-02,-5.077738906629782577e-03,1.359729319810867310e-01
-1.395861599341722548e-01,-1.523492956428194045e-01,-2.887227765560276826e-01,-6.108302401354739723e-03,4.433993135413873479e-03,-1.350538522590356274e-03,1.437969505786895752e-01
-1.268973327232782999e-01,-1.504037024423695579e-01,-2.685167496007161980e-01,-7.093824175257203157e-03,6.027906209190156926e-03,-4.990060750475570732e-03,1.327189803123474121e-01
-1.570371492978835104e-01,-9.589778244298820253e-02,-1.932172238593801716e-01,-3.209411929419642845e-02,4.531018303060689589e-02,-8.397490230332692318e-02,1.940709501504898071e-01
-1.493968881709233087e-01,-7.427953262262124157e-02,-2.329147885303473886e-01,2.700086808070539714e-03,2.140188790133883568e-03,-6.241647065232073383e-02,1.749701648950576782e-01
-1.277260409711398759e-01,-1.826950141722686327e-01,-2.794162544530180425e-01,2.930148104285538145e-03,4.172932178020608701e-02,-8.173636059583155866e-03,1.521296948194503784e-01
-8.028902957006878172e-02,-1.435397483540312991e-01,-1.888176922683660608e-01,-4.065844611307030051e-03,7.870128755719157931e-02,5.271859371008233734e-04,1.659720242023468018e-01
-1.877108952712051027e-01,-1.793757564068393096e-01,-2.061639734750073671e-01,-1.073630664617593149e-02,2.602293662154446172e-02,-3.134460238979085156e-02,7.673744857311248779e-02
-7.809442299715368963e-02,-1.172149742626289737e-01,-1.824964130578755617e-01,-1.900834919501149037e-02,6.691852145043701572e-02,-2.416862003436185888e-02,1.568965017795562744e-01
-1.397745949881746552e-01,-1.886981792904019462e-01,-3.326461590826221837e-01,6.303627738083024401e-03,1.650103340624761716e-02,3.924727221295336473e-03,1.764632016420364380e-01
-1.639634759730999036e-01,-1.825217610517166356e-01,-3.404341711239682877e-01,-1.168081069257461378e-02,-1.221822556082098957e-02,3.780931825617700470e-03,1.706205904483795166e-01
-1.434281545868971164e-01,-1.661357457389615044e-01,-2.998438614268327806e-01,-7.994372079750806893e-04,-2.333908979083061522e-04,-6.175180129799341363e-04,1.463998258113861084e-01
-1.076247878575247868e-01,-1.493294401643548985e-01,-2.750244438662517443e-01,-7.539446069999372613e-03,-1.639755822168075666e-02,4.382010125235199366e-03,1.543222367763519287e-01
-1.341790555215251479e-01,-1.508256190336781377e-01,-2.958271975640619500e-01,-1.426986923695993878e-02,-1.339312079451850969e-02,1.093310622687588413e-02,1.588205248117446899e-01
-9.517196009157430359e-02,-1.252153903294801474e-01,-2.700989547258775270e-01,-2.536372031065358551e-02,-3.753618750183353170e-02,2.204042005563903311e-02,1.840131729841232300e-01
-1.119328139741155581e-01,-2.199790461342490122e-01,-4.156974245096248799e-01,-9.571988254513452005e-03,-4.941269380139571427e-02,-2.332874572556546330e-02,2.834761142730712891e-01
-1.166573567610877660e-01,-1.887733181406059946e-01,-3.046229927333157228e-01,-4.014154128427356583e-02,-3.820287921012514853e-02,2.183262773861583891e-02,1.939558535814285278e-01
-1.457602423484924692e-01,-1.282937021394773003e-01,-1.648506301959690445e-01,5.930748945192851080e-04,-2.466759467344751232e-03,3.240781517097237469e-02,6.459934264421463013e-02
-1.884157850230365749e-01,-1.822088773325682143e-01,-2.236411433935126813e-01,-9.157015969961664059e-03,-3.428947064704962466e-02,4.041223746605854955e-02,1.008776277303695679e-01
-1.657454676692834972e-01,-1.521111070316147618e-01,-2.188663825342505309e-01,2.398443207281377495e-03,1.993057122628482357e-03,3.983136745489011636e-03,6.171521544456481934e-02
-1.645026289560683752e-01,-1.494189829769972666e-01,-2.375343133575639198e-01,-4.227587445194207552e-03,-1.683083187884113797e-03,1.167235872197859223e-02,8.446049690246582031e-02
-1.532032047142151965e-01,-1.322039182797123402e-01,-2.221412207618372325e-01,7.239785258741538929e-03,7.089512823473000363e-04,1.437850899781476822e-02,8.613968640565872192e-02
-1.308090845859185558e-01,-1.497071366966420403e-01,-2.821531265272818612e-01,2.977727928306988028e-03,1.103281906999007539e-04,-1.027743146871850445e-04,1.429290622472763062e-01
-1.387517186972107852e-01,-1.507165370659091230e-01,-2.863160523380252065e-01,1.337868233882085877e-03,1.055276669740509319e-03,5.938891163970043044e-05,1.419913023710250854e-01
-1.356134544680659137e-01,-1.501841509898415306e-01,-2.867577636932508445e-01,1.687675239862017427e-03,1.020210172188511867e-04,4.430082202613912635e-04,1.444430500268936157e-01
-1.304601377153119524e-01,-1.583770499563035838e-01,-2.877455217812874277e-01,1.308292135237205294e-03,1.414399612232084035e-03,6.163697752847749302e-04,1.453939527273178101e-01
-1.315578045592426526e-01,-1.411078797100601689e-01,-2.797455228893813706e-01,4.823102873480012397e-03,1.883217328872910856e-03,7.392063974582137580e-04,1.439363211393356323e-01
-1.289567621355347526e-01,-1.477216765631995943e-01,-2.791390383578392642e-01,2.249746545424195776e-03,7.678665977299489482e-04,-6.797701999263913112e-04,1.417992264032363892e-01
-1.374516920460644165e-01,-1.505122849032342058e-01,-2.873825850652639846e-01,1.482957896544370236e-03,6.737072149366694343e-04,4.192499439452226158e-04,1.438754796981811523e-01
-1.505272469116321343e-01,-1.517663632907161331e-01,-2.884685000090768114e-01,-3.237205248049508503e-04,1.031642987633360280e-04,-3.269431460197585169e-04,1.373283118009567261e-01
-1.505128594217298721e-01,-1.526307938027077205e-01,-2.901408627344814750e-01,-5.422788318311185136e-04,3.645184972676957522e-04,-8.541650306045466120e-04,1.385936886072158813e-01
-1.371792946205734331e-01,-9.404658145840530392e-02,-2.956028921044629443e-01,-3.141905263791075487e-02,2.051570527846314010e-02,-2.799505916410760173e-02,2.009154856204986572e-01
-1.454873526171988063e-01,-1.459190540170507699e-01,-2.871723841216623496e-01,-1.118550792375216929e-03,2.779532685390369274e-04,-1.128247257325523575e-04,1.414838880300521851e-01
-1.472204025532650729e-01,-1.374004632725329134e-01,-2.865873493854358411e-01,-5.457348443869499202e-03,-3.647618495395025064e-04,3.007304300348326211e-03,1.449311226606369019e-01
-1.505197235361012409e-01,-1.508645016712174824e-01,-2.881004372277977676e-01,-2.543866765581357411e-04,1.302658714491906010e-04,-4.219790245703399097e-04,1.374114900827407837e-01
-1.517961028107557842e-01,-1.461019257357576151e-01,-2.884668007655927235e-01,-3.313772876236739835e-03,5.698676251421309295e-04,9.532254280814795883e-04,1.397360861301422119e-01
-1.449323284561950809e-01,-1.567952832045301781e-01,-2.940869172681543908e-01,-1.117411361939597012e-03,2.940289465768701070e-04,-1.030051509963405632e-03,1.436161398887634277e-01
-1.505442527204888525e-01,-1.428452412307344432e-01,-2.963604519406832782e-01,-7.067518834471853660e-03,-1.723826351403704880e-03,2.222650366698001017e-03,1.503923684358596802e-01
-1.528459058083866950e-01,-1.485894568055345366e-01,-2.879100623415817295e-01,-5.757682695859352206e-04,1.285386990021348554e-04,3.784873053783572553e-04,1.372472643852233887e-01
-1.538564385512278809e-01,-1.488572058272057963e-01,-2.894358217345011641e-01,-7.197334530753500938e-04,8.777357627989609704e-04,-7.988259115370147567e-05,1.381609141826629639e-01
-1.512470980820350142e-01,-1.546401554380029686e-01,-2.922960783235555304e-01,-1.030302808956694901e-03,-6.957935006717634856e-04,9.352164994775448534e-05,1.394001543521881104e-01
-1.510998388527763359e-01,-1.480053766811858518e-01,-2.911952515835560806e-01,-2.304983591912740642e-03,-5.826546059188029199e-04,1.120043608173360017e-03,1.417411118745803833e-01
-1.490715678955666368e-01,-1.582799628940563530e-01,-3.001612393409157642e-01,-4.861880070035532776e-03,2.487646533916749829e-03,1.556340698138710711e-03,1.470317542552947998e-01
-1.574979942068513161e-01,-1.457047320970094872e-01,-2.927821327686532804e-01,-1.989781539958548721e-03,-9.496773528863844014e-04,7.900542749035225753e-04,1.416078209877014160e-01
-1.983232778196200030e-01,-1.672123880649831751e-01,-3.541579000015539491e-01,-2.915815366255176348e-03,-2.612145595264995027e-03,8.337861576582082006e-04,1.736333221197128296e-01
-1.336928508766862533e-01,-1.514928520427981651e-01,-2.821214452120819338e-01,3.823788593533801374e-03,6.665551653274593953e-04,-1.278063890541198419e-04,1.405386179685592651e-01
-2.218734283609835045e-01,-1.312969918539716452e-01,-4.308959274012829632e-01,-2.051145597277449426e-02,-2.676061244634823661e-03,4.917579219035594223e-02,2.817187011241912842e-01
-1.454481410712150369e-01,-1.559217053762950167e-01,-2.878793146478643150e-01,9.902895878511357511e-03,3.796876247559806666e-03,4.339056479451744788e-03,1.389190554618835449e-01
-1.364677849174561752e-01,-1.543499624752948107e-01,-2.871557368906685337e-01,3.743215303473753763e-03,1.425110884163559256e-03,8.868732478586075982e-04,1.427672505378723145e-01
-3.881094605150575694e-02,-3.436995952697538548e-02,-2.641179042297407964e-01,-7.837975922476855817e-02,4.613729703188646641e-03,5.736811530919230101e-03,2.652852833271026611e-01
-1.529896729167920244e-01,-1.427449987227837058e-01,-2.901613760062063951e-01,-1.164595704844117573e-03,1.773330726374417203e-04,-1.523793772558032695e-04,1.425852030515670776e-01
-1.585234139590340763e-01,-1.259080047743439679e-01,-2.805632585143695845e-01,3.147952063517513166e-04,9.023761648844457319e-05,6.400258814288283752e-04,1.412070095539093018e-01
-1.614672649757527556e-01,-1.494967726572472289e-01,-2.983841986488916520e-01,-8.887344514063913979e-04,-5.530405639444988235e-04,9.727108916185528637e-04,1.432990878820419312e-01
-1.589331143298075566e-01,-1.429105236419987990e-01,-2.913610575797093150e-01,-2.602608658326969072e-03,-5.676145693854837797e-04,1.455944991997759359e-03,1.412209868431091309e-01
-1.761855478316814716e-01,-1.542109679720480298e-01,-3.026977495989703892e-01,-2.418393885178010683e-02,-1.967717435980422674e-02,3.095709384329170533e-02,1.583018004894256592e-01
-1.550356413779669651e-01,-1.498756822773228969e-01,-2.907705633463338879e-01,-1.959685820427197172e-04,1.887693386111726922e-04,-1.593242171240723780e-04,1.383881419897079468e-01
-1.435980268619644895e-01,-1.530962395660696862e-01,-2.897493746724434383e-01,-3.237713094943152001e-03,-1.673906543925756394e-03,-2.285213193903303755e-04,1.417824625968933105e-01
-1.624566802145718247e-01,-1.878049228919630997e-01,-3.581048186443864245e-01,-1.663501774569378991e-02,-4.759374831117894585e-04,-1.004281901276774853e-04,1.865268647670745850e-01
-1.642968117612851331e-01,-1.882907052920874125e-01,-3.573273932301605504e-01,-1.370906788089435412e-02,-6.029219005556724076e-03,1.940108632095252509e-03,1.840899735689163208e-01
-1.510547942490269302e-01,-1.766704499884895196e-01,-3.417081339619127967e-01,-9.938449429723144463e-03,-1.057968232173859928e-02,-6.056960237254013866e-04,1.809816509485244751e-01
-1.772718274347248324e-01,-2.748975637431911867e-01,-4.909468170570936429e-01,-5.550804098746660309e-02,5.560490788299475573e-02,-1.660269048317275856e-02,3.108795881271362305e-01
-1.405414812120687751e-01,-2.087942753881519842e-01,-4.525678811411960600e-01,-4.059235217013502234e-02,-3.334809960823388597e-02,3.909605481711795477e-03,2.984084486961364746e-01
-1.595776201200962974e-01,-1.460056919134894160e-01,-3.193531707491678029e-01,-1.411113550198959607e-02,3.766882090113451900e-03,4.071485294957662149e-03,1.690282821655273438e-01
-1.330521264338926091e-01,-1.894506683907067890e-01,-3.857066182043321079e-01,-5.964078946180809832e-02,4.910646783850908942e-02,1.300940936125908297e-02,2.667936980724334717e-01
-1.429427587489392748e-01,-1.407433188663354540e-01,-2.876672144853202329e-01,1.446269892195986171e-03,1.467810479141001129e-04,-2.491876564443049448e-04,1.458589881658554077e-01
-1.422907038461258544e-01,-1.402129464634072897e-01,-2.868825613807932662e-01,1.467305046013324355e-03,3.021718402111499032e-06,-2.641130131316287159e-04,1.456647366285324097e-01
-1.484669777104914434e-01,-1.218211039884178337e-01,-2.579070214481149481e-01,6.570155588939315117e-03,-1.033113740548995607e-03,-1.290047956633257574e-02,1.274175047874450684e-01
-1.441033982312823203e-01,-1.464691147832811180e-01,-2.886420915641531026e-01,1.140791624504319509e-03,8.591623531107751649e-07,1.859839630442800896e-04,1.433844566345214844e-01
-1.576490892248665066e-01,-1.343743631769303559e-01,-2.901124127171986755e-01,2.684646521973762124e-03,-1.363557775774456443e-03,-1.980165100876841479e-03,1.456374078989028931e-01
-1.417196346453465372e-01,-1.392656997079668446e-01,-2.859224711358791526e-01,9.022969907994644141e-04,-2.900612668811823418e-04,-2.663102700882690951e-04,1.454553306102752686e-01
-1.425129271912923823e-01,-1.418920461177887449e-01,-2.881740684074308168e-01,6.534290519774751341e-04,-4.473368688013692270e-04,-2.110497921918521745e-04,1.459794789552688599e-01
-1.634420443723605954e-01,-1.421786382046706931e-01,-2.951994204464653548e-01,-2.899259986625455331e-03,2.073854206621713366e-04,-1.043493281480897990e-03,1.436744928359985352e-01
-1.575661375177008217e-01,-1.268331036298372960e-01,-2.846024780571316803e-01,-6.573825046754163412e-04,-1.779029029302128492e-04,-1.718431912562297728e-03,1.449041515588760376e-01
-1.554126304789729129e-01,-1.479044268062266743e-01,-2.925604389878887490e-01,1.307362172976339696e-03,1.271426095969362211e-03,-1.058976788181565580e-04,1.410873383283615112e-01
-1.557443648607217679e-01,-1.339550736752256888e-01,-2.818254687426455241e-01,1.125680028191834887e-02,-3.899703115945168420e-03,-1.641003184968298223e-02,1.426606923341751099e-01
-1.669169719527847651e-01,-1.434942079305230045e-01,-2.992501420292997816e-01,8.106302177577641953e-04,-3.847755032693062354e-05,1.291335009449216646e-04,1.454727798700332642e-01
-1.600117692543971126e-01,-1.275127452939948391e-01,-2.875818009753575710e-01,-7.691427650600290034e-04,1.696365286571901868e-03,-4.431383688057002543e-03,1.467839181423187256e-01
-1.602937219552984516e-01,-1.351138205908880563e-01,-2.909699171288446795e-01,-2.908225672428073685e-03,-7.127898394549757148e-04,-4.163033837356519204e-03,1.451881527900695801e-01
-1.573264242631046417e-01,-1.348819987277627142e-01,-2.884888918337062402e-01,-1.396708866330418188e-03,4.061409825288684163e-04,-2.708863348352875348e-03,1.438039392232894897e-01
-1.681501507463611655e-01,-1.316830030744829960e-01,-2.616565419965833916e-01,-2.164105904055670972e-03,6.723556037868770943e-03,-1.664637075254980433e-02,1.202671304345130920e-01
-1.642074267895849704e-01,-1.335085973511876967e-01,-2.940898810384355300e-01,-9.185129403476101264e-04,1.787083444540698163e-03,-2.540831757216721956e-03,1.477517783641815186e-01
-1.813252925534203364e-01,-1.731935012606604096e-01,-3.391007524125603245e-01,-2.959472246335673878e-02,2.203738798286291115e-02,-2.792744751212260929e-02,1.807388365268707275e-01
-1.916288518352027292e-01,-1.515118121379475657e-01,-3.373407411147785750e-01,-1.822606148022136441e-02,6.340384026159447996e-03,-2.923654020416645988e-02,1.799120754003524780e-01
-1.604073292571724929e-01,-1.410518042329632071e-01,-2.902162098950985536e-01,-5.632997451350022292e-03,6.655513384919603840e-04,-5.039960516235179183e-03,1.411035954952239990e-01
-1.472018898286900912e-01,-1.383572278020961388e-01,-2.880062480370643163e-01,-6.573943094548472844e-03,3.200003241481518251e-03,-2.396607410116451033e-03,1.460378915071487427e-01
-1.560889342351803877e-01,-1.418760174279452280e-01,-2.966219567101880950e-01,-9.109935079183027751e-03,3.565680058751112373e-03,-5.151782349416353206e-03,1.493842601776123047e-01
-1.444023265466862493e-01,-1.523271357769428180e-01,-2.825606668655522014e-01,-9.796052785776710597e-03,4.407129002299428090e-03,-5.101129881771517167e-03,1.359406858682632446e-01
-1.503921551536817613e-01,-1.536093833049524959e-01,-2.999954142413860936e-01,5.746281049501597050e-03,-9.654909349611439338e-04,7.690776828294690294e-04,1.483705043792724609e-01
-1.269825131149305841e-01,-1.089080623870987141e-01,-2.757185131734011252e-01,-3.919234026822476097e-02,3.229006941262720781e-02,-3.665913499170857931e-02,1.921071261167526245e-01
-1.074695589882327662e-01,-6.162029260984425161e-02,-1.397596143356917009e-01,-1.810009820185566609e-02,2.924387081230832297e-02,-9.298663893082471932e-02,1.846977919340133667e-01
-1.461397183837064573e-01,-1.666286802499296615e-01,-3.027236537161779317e-01,1.376689272250234460e-03,3.505670226568651329e-04,9.719508345532022232e-04,1.474414169788360596e-01
-1.485947368353362219e-01,-1.583986732712192036e-01,-2.907381206551040154e-01,2.560649254003889447e-03,6.176593767261234985e-04,4.439821045504532886e-05,1.375794857740402222e-01
-1.435365428716468550e-01,-1.516308157265616186e-01,-2.887401003461151361e-01,2.609435991580640740e-03,1.260667754224286145e-03,5.757396817504311986e-04,1.414229869842529297e-01
-1.537783441622825320e-01,-1.660045363991672351e-01,-3.023655336812691163e-01,1.886620194110501855e-03,-5.540593418710149792e-04,-6.804595387223587267e-04,1.429124325513839722e-01
-1.343793838601247403e-01,-1.577739824145818759e-01,-2.935896431132641315e-01,3.404029556367369966e-03,9.841101697378531760e-04,-1.683660160886581636e-03,1.490527540445327759e-01
-1.478976613392863904e-01,-1.602978735033053770e-01,-2.978202070319783679e-01,2.835000317370682532e-03,1.121439189137667016e-03,1.761955599273297380e-03,1.442520767450332642e-01
-1.396203698904295576e-01,-1.519770062559231971e-01,-2.964793527148854579e-01,1.170760896651737611e-02,-3.925587938226804754e-03,-7.051553333934254715e-03,1.530548483133316040e-01
-1.273756238924706186e-01,-1.554120141257634702e-01,-2.854491272537305613e-01,7.533267660844694680e-03,-8.741736611119885550e-03,-1.102658826307138665e-03,1.474605500698089600e-01
-5.484991755642959488e-02,-1.265792686127842348e-01,-2.798039545575986553e-01,3.138946000743703807e-02,3.352403918367340401e-03,3.074978308963730814e-03,2.064741849899291992e-01
-1.269707335378540691e-01,-1.870411814376848891e-01,-3.326795445601464785e-01,5.177646920649761619e-02,-1.100742380160949462e-02,-4.274283309654988705e-02,2.178400754928588867e-01
-1.471286844248897441e-01,-1.906460892292098364e-01,-3.319917905374921707e-01,5.758183958174412261e-03,-1.129896385287956079e-02,-2.732786345434117144e-03,1.689030677080154419e-01
-1.235540856019081979e-01,-1.978699514495299572e-01,-3.264402628906031278e-01,3.351846548297952172e-02,3.810714758822529580e-02,1.293425413647530595e-02,1.995915770530700684e-01
-1.352985743136579933e-01,-1.544435891821235307e-01,-2.904028882137190681e-01,-1.096034545136051128e-02,5.742341958880996938e-03,-6.576103713127921108e-03,1.484703719615936279e-01
-1.324569386667197590e-01,-1.552548463403962131e-01,-2.901315271237562277e-01,-4.787554299569662768e-03,2.672750880889459679e-03,8.065763504989917386e-04,1.479138731956481934e-01
-1.499064907451337914e-01,-1.572822065119821033e-01,-2.960846973122045478e-01,-2.305274529320775097e-03,-6.796753576156699603e-04,6.509528925985055229e-04,1.426986306905746460e-01
-1.470519774288527315e-01,-1.569758471901277208e-01,-2.961100416777395772e-01,-2.381549439979318335e-03,-9.867396989236866534e-04,8.135655803782833361e-04,1.444281041622161865e-01
-1.391116963840063059e-01,-1.517784226673407622e-01,-2.883457757967716195e-01,-6.543152087214789206e-03,4.001533136113663569e-03,-1.241851234708163040e-03,1.439515650272369385e-01
-1.488549249650953921e-01,-1.554714775935213678e-01,-2.923263393912165498e-01,-6.681027940905881609e-04,-1.047798908284021304e-03,1.269018592422583441e-03,1.403139382600784302e-01
-1.493659901406053647e-01,-1.574907834130594708e-01,-2.972784713084141162e-01,-5.348964693491611681e-03,9.115964781229740242e-04,7.017205105483613698e-04,1.443335115909576416e-01
-1.225456609678695213e-01,-1.570108255732668989e-01,-2.814386579497049068e-01,1.232184891309692169e-03,4.545379406335158662e-03,4.415425005626106951e-03,1.452018767595291138e-01
-1.302059484497773978e-01,-1.590441975368064031e-01,-2.876600486896748743e-01,-2.241181991520279585e-03,2.357244856640657808e-03,-1.679917047163376458e-03,1.453373432159423828e-01
-1.290509221071606261e-01,-1.546255858442103781e-01,-2.766955191505021117e-01,2.613750651368478874e-03,2.065548254337128131e-03,1.326841101821306206e-03,1.368049979209899902e-01
-1.504365505905509992e-01,-1.459358569254401439e-01,-2.879635783006698757e-01,2.076849714944622137e-03,5.206239405650244173e-04,-2.374672436948997310e-04,1.398814767599105835e-01
-1.184861231660984671e-01,-1.499540732680945676e-01,-2.469573403878174145e-01,-2.275218520542497420e-03,8.253121279566169241e-03,-1.497423261619657258e-04,1.169286072254180908e-01
-1.322008093763232806e-01,-1.662909632401974869e-01,-2.999027371360787342e-01,-4.362483442160856005e-03,9.008144881932996298e-03,6.529608249228734552e-04,1.545021086931228638e-01
-1.235417729880736448e-01,-1.565134903162243019e-01,-2.782449129063502280e-01,-4.364798626490538403e-04,2.011851512526352352e-03,5.874863362995939796e-06,1.411810219287872314e-01
-1.266077140309200266e-01,-1.561219522958549877e-01,-2.823227134330126287e-01,-1.635515244380322548e-03,1.579004006839449751e-03,-1.177091551874048748e-03,1.433251649141311646e-01
-1.136398445351764486e-01,-1.426914423712467017e-01,-2.431762628244032443e-01,-4.138259313373636103e-03,8.359858280604251166e-03,-2.426342157764657681e-04,1.188345625996589661e-01
-1.540026681602427172e-01,-1.437446065887110769e-01,-2.884126315986814681e-01,-2.532102546239175470e-03,-9.794689554299836586e-04,-9.069862844690183278e-06,1.399005502462387085e-01
-1.545307581200654201e-01,-1.483632741545833356e-01,-2.903012030387110975e-01,-1.120241409113216513e-03,-5.392151983043226224e-04,-1.769466739629840368e-04,1.389738917350769043e-01
-1.780236579845106137e-01,-1.736587692003760397e-01,-3.634591782245021330e-01,-2.822123113354502166e-02,6.625740717147867755e-03,1.320711469669338597e-03,1.942705214023590088e-01
-1.527952075408123278e-01,-1.402668769887873146e-01,-3.019205996352405386e-01,-1.611873783651072631e-02,1.945787732071200355e-03,-1.211568470887707839e-02,1.596709191799163818e-01
-1.278173874700336832e-01,-1.359086898720192615e-01,-2.849352703366846429e-01,-1.612097983085586730e-02,-7.420762613131293151e-03,4.900639389211488596e-03,1.565155535936355591e-01
-1.535931609822106525e-01,-1.493055192061114866e-01,-2.878920701730658394e-01,-4.225698668227430592e-04,-3.070478486623680445e-04,-1.107147162136071228e-04,1.364963799715042114e-01
-1.545603463360868401e-01,-1.506280424957334163e-01,-2.909349725433765244e-01,-7.188740878265977626e-04,-2.308523622178788152e-08,-3.240715868109156632e-04,1.383894234895706177e-01
-1.505560221155439748e-01,-1.532298250385605021e-01,-2.912344183919057250e-01,-1.373586434949277757e-03,4.441224794886318244e-04,-5.411778910821048042e-04,1.393863111734390259e-01
-1.560479048457129592e-01,-1.356693297023086886e-01,-2.913471746353721858e-01,-1.065700884245241245e-02,-8.105118133475450876e-03,6.811586777692492552e-03,1.488468050956726074e-01
-1.613574404662420358e-01,-1.524281779134290804e-01,-3.031948540057941566e-01,-5.419516535468400613e-03,-7.865567435265165015e-04,5.947384889931039672e-04,1.468166112899780273e-01
-1.639105769269711410e-01,-1.248213770408726636e-01,-2.921134798047381742e-01,1.327172611954305012e-02,6.121898133550767417e-03,1.458487759765227793e-02,1.557379364967346191e-01
-1.581530541739186446e-01,-1.525846080200831123e-01,-2.926254422331939220e-01,2.580936261068315224e-03,8.466005181138769211e-05,1.112829027621450124e-03,1.374276280403137207e-01
-1.524294528463085718e-01,-1.610463902173248640e-01,-3.173906918856448933e-01,2.724261370923762929e-02,2.063004255001552392e-02,2.455504557313902339e-02,1.765704602003097534e-01
-1.558003269304875094e-01,-1.433667008171531365e-01,-2.911659682307325414e-01,6.283803965303248924e-03,-1.691529823047648149e-04,3.501433973308654569e-03,1.425372362136840820e-01
-1.561500856499209167e-01,-1.386251945382810935e-01,-3.005056734580503486e-01,1.383923826420941500e-02,6.971253696864517435e-04,-9.946585890874265826e-03,1.566790044307708740e-01
-1.568478680690226224e-01,-1.457868643127388786e-01,-2.928156845953711063e-01,2.452012209355122156e-03,6.535609202154639115e-05,-6.643372303263103034e-04,1.418904811143875122e-01
-1.450422887933628391e-01,-1.718603879170936544e-01,-4.202995028032370239e-01,5.635813401370457637e-02,2.248580717119210912e-02,3.854159913078093053e-02,2.908707261085510254e-01
-1.564351120696804709e-01,-1.327636802623259893e-01,-2.910581016010309607e-01,3.116112675671436644e-03,1.626130026896979155e-03,3.392454096389094665e-03,1.481283009052276611e-01
-1.824049207482556501e-01,-1.562109960031314859e-01,-2.622861091516672793e-01,7.415069744267604838e-03,8.065095435645243394e-03,1.715690125719376846e-02,1.019935905933380127e-01
-1.279176417487151163e-01,-1.624167517474403577e-01,-2.381373347948271824e-01,9.201022333816913021e-03,5.414977375545942939e-02,1.165598988240688742e-02,1.378196030855178833e-01
-1.421643042126754519e-01,-1.743662404080067452e-01,-2.610342577657951413e-01,-1.159591966124945764e-02,3.391566317761537247e-02,-1.138195644406973100e-02,1.248280704021453857e-01
-1.100365341896625826e-01,-1.233232309607216332e-01,-8.474344011906706498e-02,2.846474012292460765e-03,6.012755643240774023e-02,-7.459368028933925643e-03,1.104062572121620178e-01
-1.778794240464302567e-01,-1.576635833372044826e-01,-2.400786946441212932e-01,1.712078621033136586e-02,3.168573335140632136e-02,3.487871948321285415e-02,1.143491864204406738e-01
-1.230224525246113448e-01,-1.320773824391076046e-01,-1.434308081958938219e-01,3.393597341397915513e-03,2.276803852446918422e-02,6.937372600501557143e-03,4.525238275527954102e-02
-1.543652516561842825e-01,-1.454297230068478664e-01,-2.879907074543899270e-01,2.403349031335066856e-03,1.942324788066336844e-04,2.757105183040287934e-04,1.383737325668334961e-01
-1.439075330254917517e-01,-1.345194790762795634e-01,-1.734743709812784362e-01,3.382645959335718708e-04,1.347730372507742642e-03,1.379404878295134758e-02,4.262074828147888184e-02
-1.913215403439316731e-01,-1.411557499193845655e-01,-3.451266196574093170e-01,1.928348953459433496e-02,-6.006359581718532029e-03,-2.412735866271842333e-02,1.919857710599899292e-01
-1.652643230451558143e-01,-1.436139734969756887e-01,-2.977697171238465890e-01,-1.369730460061324478e-04,2.054240978049377310e-03,1.141092215521395887e-03,1.446092277765274048e-01
-1.423613073915593330e-01,-1.069296975761213353e-01,-3.037796532913739078e-01,3.407853480038442601e-02,-1.569168707386674189e-02,-2.319486644780327511e-02,1.971479803323745728e-01
-1.698157408670457613e-01,-1.527120623440572089e-01,-3.080883087234451145e-01,-1.153520594760735780e-03,8.013976079399862736e-05,2.136631981954451129e-04,1.475837230682373047e-01
-1.533483129961147051e-01,-1.143251159806244754e-01,-2.869503036935770468e-01,1.663830196128758131e-04,2.611248818877231256e-03,1.966709194238953125e-03,1.569013148546218872e-01
-1.463407234260158396e-01,-1.229332832817181254e-01,-2.898311026791033918e-01,1.880686389307969358e-02,1.787422786257936679e-03,6.539368811560866517e-03,1.602969318628311157e-01
-1.662227941202250037e-01,-1.478166684722775071e-01,-3.010483191224898603e-01,-9.013994923054510647e-04,-1.183255510008597881e-03,-3.067560329251640266e-03,1.450282484292984009e-01
-1.675915094399214600e-01,-1.476173505978195521e-01,-2.994769190859291608e-01,-1.623242687967054419e-03,-1.235930582112511941e-03,-2.422022860773226805e-03,1.430283635854721069e-01
-1.614454556873350100e-01,-1.523747257592087678e-01,-3.015418289762601955e-01,-5.004065710950575570e-03,-4.907389963357168408e-04,5.011032490097241796e-05,1.451065093278884888e-01
-1.867627750746105597e-01,-1.248241754546710880e-01,-3.291240392506306067e-01,-4.964049820630169613e-03,4.451579383458895492e-03,-3.483340029222013290e-04,1.818090081214904785e-01
-1.662613260873838095e-01,-1.584074555040051457e-01,-3.111377309078966480e-01,4.462258993625823310e-03,1.645221355588540480e-03,1.729931941542621953e-03,1.492163836956024170e-01
-1.687385752699719910e-01,-1.503334518463677882e-01,-1.500510813564791823e-01,1.038343840485289604e-03,3.184099359832913163e-03,1.523644896695486133e-02,3.277382254600524902e-02
-1.519810268675391429e-01,-1.482119288286345427e-01,-2.894522572959634665e-01,2.724972027718567443e-03,6.621782353719587143e-04,-7.924592428963709006e-04,1.394853591918945312e-01
-1.559644432398554215e-01,-1.657725765136423557e-01,-2.300072109833381784e-01,-1.149226238205681896e-03,9.964511223413126222e-04,-2.820371210816877312e-03,6.987927854061126709e-02
-1.566291269963737964e-01,-1.591820780970513716e-01,-1.733275655961930006e-01,5.307381735530351157e-04,3.391536642844726786e-03,5.592395998184415554e-04,1.670377142727375031e-02
-1.636651176933696938e-01,-1.442938394945344760e-01,-2.955575690412950429e-01,6.643604193438044881e-04,4.852128693085479999e-04,1.016096606503886146e-03,1.425865292549133301e-01
-1.647870223962430714e-01,-1.522617258738429569e-01,-3.019569170328149088e-01,-1.576372490597731857e-03,-6.667406959982112089e-06,-1.741561231979328085e-03,1.438996493816375732e-01
-1.499018393540196004e-01,-1.257473294044695045e-01,-2.836554321445615146e-01,-4.579700724430270896e-03,8.344650016635212636e-04,-4.774074196829122124e-03,1.477755159139633179e-01
-1.544802723384913479e-01,-1.480191677391337057e-01,-2.901503006621224956e-01,1.001422998623816528e-03,-6.976909576754469430e-05,1.788801668328623528e-04,1.390244513750076294e-01
-1.686009990470239139e-01,-1.516048284153509729e-01,-3.066708565837071299e-01,-1.386103289890844043e-03,9.602222759603102091e-04,-5.757879210556452951e-04,1.473374962806701660e-01
-1.623357133577613687e-01,-1.381764212412931458e-01,-2.992127441567301593e-01,-4.720108815630955773e-03,7.853345179429522529e-04,-3.707641480814005599e-03,1.507838666439056396e-01
-1.423501982378611586e-01,-1.274959544611932172e-01,-2.869358233250487999e-01,-1.419819697611661088e-02,5.857183430892017560e-03,-6.146734582205420211e-03,1.552236974239349365e-01
-1.584963931654831404e-01,-1.508223079108304554e-01,-2.977380644810421195e-01,-2.012703386688681744e-03,-8.173729791826088225e-04,1.369406292715596649e-03,1.433020234107971191e-01
-1.909056943235332149e-01,-1.624484124273762320e-01,-3.446928661429222718e-01,-1.364052068184488931e-02,5.005384604092462343e-04,-5.916228925493737141e-03,1.717574596405029297e-01
-1.735081280015811911e-01,-6.755707370097688291e-02,-3.203565329962254071e-01,1.170970571653352950e-02,-6.603879517638586508e-03,6.461739172354918730e-03,2.213961780071258545e-01
-1.369696634751127184e-01,-1.451598768185355937e-01,-2.859755193223445513e-01,2.143083559291082251e-03,-3.054742597488558009e-06,-5.981886952680130157e-04,1.451354026794433594e-01
-1.337226162341705882e-01,-1.465465237139903232e-01,-2.844428948430808290e-01,3.792524728296072130e-03,1.249082386159069231e-03,1.366980600508913707e-03,1.449195295572280884e-01
-1.408748805490918354e-01,-1.424808264641932998e-01,-2.880775503200538878e-01,7.632796760526122833e-04,-5.971322231380074623e-05,2.825295936085179768e-04,1.464131325483322144e-01
-1.425200802426986879e-01,-1.459820672861336099e-01,-2.897565337878775238e-01,7.291356088776808093e-04,3.599510226960671495e-04,1.355249156157965187e-04,1.455433517694473267e-01
-1.921563599370954001e-01,-1.457971961133176508e-01,-3.093264370331853530e-01,-1.030242311239736551e-02,-5.483764822931111622e-03,3.714820658111229329e-02,1.608058065176010132e-01
-1.202117519198195872e-01,-5.676123343405614641e-02,-1.445395847357487940e-01,-3.424986061069483761e-03,-8.075401035526633131e-03,7.945749076143421297e-02,1.591625958681106567e-01
-2.213361538224900837e-01,-1.601227463524494965e-01,-3.277173674355831623e-01,8.112649924826450219e-04,-1.143879102024486939e-03,4.096879887843635909e-02,1.631478667259216309e-01
-1.163312057641552322e-01,-8.887632600851883002e-02,-1.105303185061755067e-01,2.890522427536268511e-03,1.499741764011673639e-02,6.795736787424765113e-02,1.232177019119262695e-01
-1.580435915308558426e-01,-1.369515936729044092e-01,-2.088111051850185529e-01,-2.015514159612590440e-03,-7.495496624595145499e-03,5.763144145820221081e-02,1.193226054310798645e-01
-7.671255641641133716e-02,-2.004750502764392761e-01,-3.291326810155641436e-01,-1.753144597878305427e-02,-3.625845570289713393e-03,1.276962076013044185e-02,2.219090163707733154e-01
-1.544312269284245365e-01,-1.896449861720558017e-01,-2.316121171718218408e-01,7.039400783412590352e-03,-6.759846492413472407e-02,-1.346740431283219470e-02,1.374063342809677124e-01
-1.405734505085280972e-01,-1.876753468856606211e-01,-3.412952431423050825e-01,-5.712146120663838707e-03,-5.339881943001116744e-03,6.790049559409281742e-04,1.823136359453201294e-01
-1.230255193631855787e-01,-1.626561584660463911e-01,-2.828024133055423994e-01,3.811261824103026954e-03,1.580701606329763462e-02,4.067960977602640138e-03,1.470033675432205200e-01
-1.642881671855102033e-01,-1.873904355276719835e-01,-2.375767758775460814e-01,7.298528340729115368e-03,-5.284551488748196607e-02,-2.605510295870135801e-02,1.215983480215072632e-01
-1.279670472009167281e-01,-1.766155513605557892e-01,-3.158772052773268224e-01,-3.072896558022700838e-03,-1.414130058917753736e-02,-6.287713136617148479e-03,1.711204797029495239e-01
-7.382550131702947382e-02,-1.431065675389233682e-01,-2.325051002354563690e-01,-1.458650140105098060e-02,4.052060207046320750e-02,-1.323562471438816980e-02,1.583514809608459473e-01
-1.545884264594594992e-01,-1.676686211284975081e-01,-3.063894903460144259e-01,9.805902402928957581e-04,-1.476258146749924970e-03,1.621925555614330558e-03,1.457613855600357056e-01
-2.195199279251440483e-01,-1.268683901712475970e-01,-4.517892773759305536e-01,2.181937634022896796e-02,1.573147235183834647e-02,3.428735165605711899e-02,2.995847761631011963e-01
-1.401737764366315642e-01,-4.859366867400646828e-02,-2.956198508914057443e-01,2.522850892121316496e-02,1.180312617191768901e-02,1.280540448007470161e-02,2.227228730916976929e-01
-1.521522822812410580e-01,-1.413769753887259562e-01,-2.888565017819220149e-01,5.786431863452910600e-03,1.139304357119836578e-03,3.358337217002871269e-03,1.428823173046112061e-01
-1.319614422202823045e-01,-9.942031185633128099e-02,-2.880501318704455915e-01,2.927789453475888176e-02,2.079526154285017692e-02,3.344251668471338174e-02,1.942318826913833618e-01
-1.422166826116828264e-01,-1.544236483993735032e-01,-2.325234636501262442e-01,7.166323258808047526e-03,-1.061754363277597236e-02,-4.913767612922861211e-03,8.812861889600753784e-02
-1.569469098486225844e-01,-1.478560180918226941e-01,-2.985767337551344380e-01,3.774395484990913582e-03,1.050794819449464524e-03,-1.112885500723806041e-03,1.465570181608200073e-01
-1.614537826016396727e-01,-1.332107446237563164e-01,-2.923805268031903770e-01,2.276384834207173611e-03,2.905361417523852699e-03,2.984920211599691609e-03,1.473256498575210571e-01
-1.608502219583424764e-01,-1.481793448298989735e-01,-3.003644859864088024e-01,1.418305860555310518e-03,-5.910397635874461118e-04,-8.465416789665986810e-04,1.462934762239456177e-01
-1.564771320026476509e-01,-1.398633575453521738e-01,-2.914768613157731614e-01,3.230941242692483926e-03,1.041977375903033881e-03,1.379617078061134029e-03,1.441668570041656494e-01
-1.302945554990912191e-01,-1.357474497314986317e-01,-2.771055251235411410e-01,-1.535615915135745031e-02,-1.295146763897514486e-02,1.311303760573311918e-02,1.500305384397506714e-01
-1.394553475263027309e-01,-1.468975125533459047e-01,-2.902039846599019368e-01,-3.575095814265533394e-03,-1.246054139418445016e-03,-6.968494085672696792e-04,1.473197191953659058e-01
-1.190910294405594372e-01,-1.086067717080660688e-01,-2.235712002130095799e-01,-1.732448670971819399e-02,-2.185424507455798609e-02,2.536948098981296057e-02,1.280058324337005615e-01
-1.538171182232450640e-01,-1.613293224411784521e-01,-2.775532018223129116e-01,-3.147295175925436672e-02,-3.204523716187771681e-02,8.472387531090021240e-02,2.049981951713562012e-01
-1.260468429352321895e-01,-1.310325072170967498e-01,-2.789728747634210859e-01,-2.861638812696884471e-02,-3.044442792120111499e-02,2.863716607576646117e-02,1.742019951343536377e-01
-1.314496573151514858e-01,-1.876896500333857520e-01,-2.934850519355645115e-01,-3.549312459542847131e-02,-4.857161628165807682e-02,6.505858874322502372e-02,2.094284743070602417e-01
-1.286083539253480290e-01,-1.544221783160281136e-01,-1.705348659190135396e-01,-8.209064091559945681e-03,-6.244926192462060821e-02,3.406941372975980098e-02,1.293289363384246826e-01
-1.482589051828061832e-01,-1.641482681448598602e-01,-2.305957285388564870e-01,9.407135463660599994e-03,-1.079938139248622433e-02,-2.135010136014200630e-02,8.778603374958038330e-02
-1.092697927312065720e-01,-8.828981973462482480e-02,-7.043952965073076167e-02,1.139519593181336811e-02,-4.720979702388221344e-02,-6.541756198104686781e-02,1.450776010751724243e-01
-1.455320284712137979e-01,-1.499163502987130303e-01,-2.215754475331468965e-01,6.837643131481081250e-03,-1.862770850272265841e-02,-1.248778332957094055e-02,8.436524122953414917e-02
-1.285895713646256766e-01,-1.426131269173576965e-01,-2.158613865963560086e-01,1.574552823174753952e-02,-4.849330385982560110e-02,-3.599912926636595484e-02,1.351870894432067871e-01
-1.435038935190849074e-01,-1.531285560610458896e-01,-2.901308758036143520e-01,-3.147746286425523368e-03,-7.724396693582547858e-04,4.854138089214403255e-04,1.421727538108825684e-01
-1.469962433317428263e-01,-1.621139849099982044e-01,-2.972416085306257005e-01,-4.263870926376637192e-03,6.712396422042175544e-04,-1.714329853269886935e-03,1.435115188360214233e-01
-1.501366979286938574e-01,-1.658469732407427677e-01,-3.017183490787424538e-01,-3.469765729529989025e-03,2.296115320104913544e-03,2.656915652160588698e-03,1.446220278739929199e-01
-1.598706873433602127e-01,-1.529618191175279585e-01,-1.816453980806213286e-01,-1.113345062218236078e-02,2.865824132050240336e-02,-1.745103626230515292e-02,6.649564206600189209e-02
-1.617148161869983725e-01,-1.776048826070121822e-01,-1.807178594664692328e-01,-7.047297563951913923e-03,3.552115272728609274e-02,-1.720783139184516031e-02,7.165353000164031982e-02
-1.207979979305064677e-01,-1.513338225867746356e-01,-2.480214165893461775e-01,9.367909179500554396e-04,7.392834366173668681e-03,1.387612383882356115e-03,1.157831326127052307e-01
-1.477861923820976420e-01,-1.830477359320063502e-01,-2.920834093662797448e-01,-9.879883499857718479e-03,4.848461893136954415e-02,-1.529086802493663695e-02,1.581880599260330200e-01
-1.486909215251443483e-01,-1.438202294271220816e-01,-2.558554308548455780e-01,-1.083118399588689149e-02,5.913375583975461966e-03,-4.619687253575479116e-03,1.120303198695182800e-01
-1.392045855643739838e-01,-1.818454212567258976e-01,-2.099490553312193253e-01,8.608461558899611898e-03,7.414539447121462623e-02,-1.079054101757695103e-02,1.444668173789978027e-01
-1.311916782510234025e-01,-1.566456003993582369e-01,-1.332991232976319940e-01,-4.927835161666603916e-03,6.107932285587119869e-02,5.554622593394909109e-03,1.093442440032958984e-01
-8.651359999226310160e-02,-1.331510975185909162e-01,-1.860917135396951139e-01,-7.808228879617486011e-03,6.947617800361972906e-02,-2.266411981261971451e-02,1.537904143333435059e-01
-1.154137339361307052e-01,-1.113688758905911624e-01,-1.010315030736747000e-01,-1.689253241027976332e-02,4.648691870734803638e-02,-3.352312973424945858e-02,1.042861938476562500e-01
-1.389700201257035861e-01,-1.410450961349321852e-01,-2.746338853806529201e-01,8.225842390459734560e-03,3.375477785390890335e-03,3.778275513903511101e-03,1.356741636991500854e-01
-1.419593520187072133e-01,-1.441492305744080937e-01,-2.870847493579062881e-01,2.764301806993557306e-03,4.642425682719012337e-04,1.237120428795437715e-04,1.441248953342437744e-01
-1.416264478127705617e-01,-1.400088791775015440e-01,-2.866611344193332189e-01,1.520502498225262443e-03,1.542739955644023390e-05,2.821412605326698410e-04,1.458747982978820801e-01
-1.447953304701423971e-01,-1.494203482543624284e-01,-2.900602171810958696e-01,4.231600232772633058e-03,6.050896368757178057e-04,5.917495821564732307e-04,1.432036757469177246e-01
-1.421780165993670464e-01,-1.431423295919103389e-01,-2.882579595934999794e-01,3.844772698709023571e-04,-8.129761224791033332e-05,2.275208655776327713e-06,1.456017792224884033e-01
-1.411770124110276192e-01,-1.398768480970525863e-01,-2.864719961913850255e-01,1.195050594292428221e-03,4.914697212614233283e-04,3.275023709633116328e-04,1.459676772356033325e-01
-1.427485755065208695e-01,-1.441047434938565186e-01,-2.878515455030417058e-01,1.393599625724028287e-03,-2.129983081484553974e-04,2.408722779065541268e-04,1.444509029388427734e-01
-1.390364553957544047e-01,-1.512003439653570591e-01,-2.868243308360526322e-01,1.387952203995374001e-03,7.348996933582384577e-04,3.063567526436901888e-04,1.421239674091339111e-01
-1.498364702420754702e-01,-1.628606166547658662e-01,-2.984517520104486565e-01,2.861437861260132751e-03,-8.849437781812587037e-04,-9.133397166503526591e-04,1.426532864570617676e-01
-1.533354412704793779e-01,-1.526565832290645575e-01,-2.922739682019226959e-01,3.099536985599875977e-03,-1.644090161193545669e-04,-5.332439966839285081e-04,1.393859684467315674e-01
-5.819168535373239748e-02,-4.037235743291137102e-02,-2.628859431834976723e-01,6.483253542899780619e-02,-3.896741282485404433e-03,5.303742459643012415e-04,2.419110387563705444e-01
-1.131349800995943844e-01,-1.853725808457880597e-01,-3.714222534576113732e-01,6.976566173262806203e-02,3.401070421354806909e-03,-3.207056264761439651e-02,2.664480209350585938e-01
-1.513755070186531271e-01,-1.326543506679633833e-01,-2.848840913966385058e-01,-6.009423131902692609e-03,2.033313376332900307e-03,-4.982632188328754361e-03,1.444634199142456055e-01
-1.537980058979038223e-01,-1.381758614382276318e-01,-2.893447890138372558e-01,-4.871913298929303471e-03,1.281719863183196102e-03,-2.015671597869273315e-03,1.443012058734893799e-01
-1.496448610528459122e-01,-1.305439113063286694e-01,-2.847737081575695273e-01,-2.109255265755604139e-03,1.286532580009490693e-03,-1.289063687394443030e-03,1.457018852233886719e-01
-1.410685530452836511e-01,-1.320825004581835938e-01,-2.814426451104576343e-01,-4.425816867701606698e-03,7.246551731050945421e-04,-2.470690578646900573e-03,1.453468054533004761e-01
-1.432527908450370868e-01,-1.373173400213415773e-01,-2.727144085386050687e-01,-7.816232763636628972e-03,7.703874481771615969e-04,-1.761712431799624615e-03,1.332603693008422852e-01
-1.415609108829180562e-01,-1.383919960591005471e-01,-2.747934890576313460e-01,-7.026717835849357642e-03,1.450114166379413245e-03,-2.774328431624591921e-03,1.355016231536865234e-01
-1.527113808039842480e-01,-1.302777783586069049e-01,-2.815637794056238818e-01,-5.054336198622380247e-03,1.090451350714959555e-03,-3.314542121925636436e-03,1.418097168207168579e-01
-1.527538588324470759e-01,-1.269299678989125046e-01,-2.533757793104238765e-01,-9.671463740495678599e-03,3.892331108730918542e-03,-7.383776655333596298e-03,1.178122088313102722e-01
-1.458686544402503782e-01,-1.380806640636313976e-01,-2.863710836875391075e-01,-2.102425893764853140e-03,-3.937941763357910119e-04,4.866720049760375451e-04,1.446037739515304565e-01
-1.333847171103647311e-01,-1.486478377267058670e-01,-2.828166886234886324e-01,-1.175422263794098079e-03,2.538773058754909061e-04,-9.526868985659529333e-05,1.424304842948913574e-01
-1.518903664393016772e-01,-1.494036010920608004e-01,-2.913879360940977437e-01,-1.592151219246935477e-03,7.123652403194327166e-04,-1.042535308990374986e-03,1.408014297485351562e-01
-1.592297569239536914e-01,-1.248722557553878787e-01,-2.902064195431928173e-01,-3.153960315815924551e-03,-2.670555486938143257e-04,1.132136519610947231e-02,1.524792760610580444e-01
-1.417209492093503276e-01,-1.614232356241188104e-01,-3.033247275936158949e-01,-1.079239684138632270e-02,4.760109650760489981e-03,-5.654588115377620107e-03,1.543804556131362915e-01
-1.477380697864038028e-01,-1.470386294744075451e-01,-2.897923033485589883e-01,-1.066847579322610174e-03,3.360101821217919345e-05,-6.544708952377684521e-04,1.424217522144317627e-01
-1.481263937009402731e-01,-1.506876059156874448e-01,-2.893055135340719675e-01,-2.024150383515118702e-03,-1.427703759427774953e-04,-1.077560475412940247e-04,1.399603635072708130e-01
-1.482746022174112333e-01,-1.487704679393887508e-01,-2.863186951102197897e-01,-9.805463818106858239e-04,1.889037491073643866e-04,-1.753761063455514880e-04,1.378080248832702637e-01
-1.483864678583111385e-01,-1.428979082231703890e-01,-2.868269093375801493e-01,-1.951083914101315415e-03,3.037829684089627747e-04,6.043175336605592597e-04,1.413099765777587891e-01
-1.647790542907720257e-01,-1.573570867544387408e-01,-2.003968933785734430e-01,3.253366678232722312e-04,5.242973301329455910e-03,2.205113199135076349e-02,5.594293028116226196e-02
-1.523141154891129723e-01,-1.524968905745593128e-01,-1.608488807348456007e-01,-3.475771944134571634e-03,-7.658817730196706974e-03,3.855702043394902689e-02,6.887280195951461792e-02
-1.450009408685060119e-01,-1.420983063223748288e-01,-1.769758257111313238e-01,-2.097065248049756036e-03,2.376555218933522383e-04,1.804327080116171003e-02,4.597467929124832153e-02
-1.621133801084857218e-01,-1.468034384700644679e-01,-2.203548514725762186e-01,-1.024839855638917186e-03,4.436756377409383834e-04,4.239080656146607638e-03,6.764456629753112793e-02
-1.670832580238995058e-01,-1.571921353818288292e-01,-2.020663637974495497e-01,-5.015744938322114384e-03,-6.807422634268069962e-03,1.214782265617343759e-02,4.821699857711791992e-02
-1.472965078146816209e-01,-1.573365179790620350e-01,-2.017184459256718965e-01,9.944696699427445913e-03,-1.196028576827635678e-02,-2.345479243094571956e-03,5.708320811390876770e-02
-1.366708499258415532e-01,-1.588150856926907051e-01,-2.512461249453016299e-01,1.061756095329900382e-02,-2.825747404447564656e-02,-8.241711077043393022e-03,1.183980926871299744e-01
-1.847866110185752697e-01,-1.866278249872999062e-01,-2.072949795421274166e-01,7.184700732811842051e-03,-3.108348715260111569e-02,-2.760480505956753802e-02,7.621062546968460083e-02
-1.420944468318123266e-01,-1.586328557450724097e-01,-2.279225710960676166e-01,4.865536111010303547e-03,-1.123304903337055821e-02,-3.530289375012103117e-04,8.167290687561035156e-02
