sxx,syy,szz,sxy,sxz,syz,smises
6.924365934661551314e-02,6.924365934661551314e-02,2.288026813067694509e-01,-4.450589439591092703e-38,-2.282990186944992371e-38,-2.282990186944873871e-38,1.595590263605117798e-01
