sxx,syy,szz,sxy,sxz,syz,smises
4.160242041429718096e-02,4.160242041429718096e-02,-3.832048408285922414e-01,1.166250582225047140e-84,0.000000000000000000e+00,0.000000000000000000e+00,4.248072504997253418e-01
