sxx,syy,szz,sxy,sxz,syz,smises
5.600107692024357264e-02,5.600107692024357264e-02,-4.737301538404855017e-01,1.950398947960198066e-51,9.183658129392140597e-52,9.183658129392140597e-52,5.297312140464782715e-01
