sxx,syy,szz,sxy,sxz,syz,smises
-4.311285536618930658e-02,-8.643147266156271380e-01,-6.742464851506255741e-01,-1.042031072697406913e-01,7.235488367102287099e-02,-3.026496163593153654e-02,7.781018614768981934e-01
-7.407130099383046895e-02,-7.053228412783068002e-01,-8.489968550125099878e-01,9.793058632287743315e-03,-9.528545251858255849e-02,1.989293386582237366e-02,7.338446974754333496e-01
2.659662802707518647e-03,-7.382888960706383008e-01,-7.608148069605705777e-01,-8.053582784692781341e-03,4.364584728241250461e-02,3.415479007878656839e-03,7.564041018486022949e-01
4.965855206972258351e-02,-1.003239476854650869e+00,-8.046160316260770884e-01,-6.005549756744538864e-02,2.383787521180624324e-03,1.515397339995873116e-01,1.009279489517211914e+00
6.083175333019169573e-02,-8.170630290013998209e-01,-6.554422532453069161e-01,1.079015688805556004e-02,1.150276518114940333e-01,-7.577245402526644469e-02,8.439207673072814941e-01
1.493441237985303482e-01,-1.116943233213419040e+00,-6.435208020987222000e-01,-6.942066607983082838e-02,9.588105737607274803e-02,-1.923164485080773312e-01,1.175209641456604004e+00
3.788768724011520317e-01,-7.254234788430160563e-01,-7.905106888894795070e-01,4.436965368673490701e-02,3.126354664658422683e-02,8.066377804734756185e-02,1.150630116462707520e+00
3.330189142408886971e-01,-6.902260326691707082e-01,-7.635813570374485604e-01,2.982109704654543197e-02,1.233013363284381561e-02,1.091735268210702742e-01,1.079977869987487793e+00
3.380958873340562665e-01,-6.745971537884069003e-01,-7.883970837711049562e-01,1.057733173432245585e-02,9.451107385851410109e-03,4.482492211592200432e-02,1.077206373214721680e+00
3.320008337735095849e-01,-6.991180052440293391e-01,-7.165830243345219230e-01,4.637519836457015300e-03,1.722768464307825043e-02,7.958901342152432945e-02,1.049513101577758789e+00
3.209505714291031597e-01,-6.963327010246338489e-01,-7.239102167958203493e-01,-7.374706965141763354e-03,2.565676851625336031e-03,7.229029017788485278e-02,1.039009332656860352e+00
3.364661942007403095e-01,-7.331154033816428273e-01,-7.232415043008957323e-01,2.247106050288755902e-02,6.821695313883890249e-03,3.800966042214607571e-02,1.067487716674804688e+00
3.110384237278880915e-01,-6.756289319012164230e-01,-7.336979783079460304e-01,1.819824822149227871e-03,9.747815982740539939e-03,3.309713631874239975e-02,1.018705368041992188e+00
3.427682479708690777e-01,-7.137314795957326874e-01,-7.928927295712908663e-01,-1.427074908214050718e-02,-2.408682969443004529e-02,3.043952422471088784e-02,1.100555896759033203e+00
3.747831871503432000e-01,-8.234953021908117954e-01,-7.623081300094971535e-01,-1.759273845027482666e-03,1.074668569501525950e-02,7.785462132965518742e-03,1.169116616249084473e+00
3.144594848166877288e-01,-7.250479455528828776e-01,-7.416791612716668869e-01,-4.045729567730055320e-02,-3.660010614858933559e-02,7.237550307848351905e-02,1.059615135192871094e+00
3.278380517022857488e-01,-6.842199959306878299e-01,-7.761717333462472279e-01,-6.547647336505363694e-03,-4.028554908817345848e-02,5.940952626400699405e-02,1.068345904350280762e+00
3.083387518948912942e-01,-7.512503703944779510e-01,-7.511620106391282414e-01,-7.308425149349730143e-02,-5.889983375444818314e-02,4.839859298009236560e-02,1.075218200683593750e+00
3.330825857378906241e-01,-7.116092790365878828e-01,-7.856561066714855546e-01,-1.667086061980092501e-02,-2.075815668720442861e-02,2.777599695695975521e-02,1.085661649703979492e+00
3.866348085940729540e-01,-7.039059427751992448e-01,-8.273415745343415395e-01,2.654223515984252199e-02,2.390945812227612821e-02,8.864810156864763591e-02,1.168987154960632324e+00
3.662363057663064470e-01,-7.781209155014404688e-01,-7.803411370346264864e-01,-2.868609095251054269e-03,1.164779252812168887e-03,-9.640063568648804190e-04,1.145482659339904785e+00
3.318525381714998446e-01,-7.383504981568468351e-01,-7.787914043792438790e-01,-3.858223306554263432e-02,-3.267382124892136142e-02,4.454252839147346266e-02,1.097210407257080078e+00
2.715871979665364089e-01,-7.343558941517440708e-01,-7.724171799437656860e-01,-7.285144088746645097e-02,4.303195929192662333e-02,9.048600913549009750e-02,1.047710895538330078e+00
3.460096939523327197e-01,-7.299383364297171717e-01,-7.905985860860428316e-01,-1.864006868591068511e-02,-2.509676216827942674e-02,2.035165190003612387e-02,1.109407782554626465e+00
3.526041626679127239e-01,-7.448514782555444302e-01,-7.366595665695112594e-01,-3.362602969957186050e-02,-3.484390232749659533e-02,9.937112927868392565e-02,1.110019803047180176e+00
3.277293814748072909e-01,-7.062624081063564319e-01,-7.869946409546455524e-01,-1.564346283125901335e-02,7.740749254404623563e-04,4.127088156852853906e-02,1.079341888427734375e+00
3.352814974375407653e-01,-7.343624268634976193e-01,-7.522031920057398180e-01,-1.810428832957640746e-02,-1.163896644587631909e-02,3.133965745181849227e-02,1.080683112144470215e+00
3.388650481768873957e-01,-7.101870634514283465e-01,-7.325883292523112100e-01,-3.569686515680303013e-02,-3.347560549937169533e-02,7.038771556105924421e-02,1.070775508880615234e+00
3.643710938079684492e-01,-6.989729132125268585e-01,-7.998759379158353333e-01,-4.500059153376252674e-02,-2.765468675846600999e-02,5.763011573287055850e-02,1.125393152236938477e+00
3.476271297558359286e-01,-8.098631579303883221e-01,-7.322268027322724748e-01,8.672079359764219356e-03,2.417577988733547040e-02,1.139690653657542824e-02,1.121747136116027832e+00
2.670807929899767785e-01,-8.423502639292463900e-01,-6.370966385797864895e-01,1.670184654905330912e-02,-1.865218828914388255e-02,-2.360585441327002140e-02,1.024111270904541016e+00
2.786787264198456460e-01,-7.980347327168345606e-01,-7.577350829539362120e-01,1.149071152934606809e-03,-2.724801333169797612e-02,-1.168765454866807843e-02,1.058388352394104004e+00
2.605515348642207241e-01,-7.617276961903791666e-01,-7.615620351159614332e-01,-9.616562166253971033e-03,4.362280160735382967e-03,4.225772175160166788e-03,1.022386193275451660e+00
2.334270831044257810e-01,-7.598304335372842999e-01,-7.666923006035540888e-01,4.240259761574641587e-03,4.642766822225571216e-02,5.271706703360413450e-03,1.000013589859008789e+00
2.550782514167683201e-01,-7.921982087966961128e-01,-7.619795660110648683e-01,-1.481578341390813944e-02,5.700768618176602076e-02,-1.001215495415600648e-02,1.037671804428100586e+00
3.167042440444140516e-01,-8.657810627307018780e-01,-6.209118126712297459e-01,-1.271052888857196472e-02,-7.609219865865331223e-02,2.937214143750103285e-02,1.090468287467956543e+00
1.867651176891576004e-01,-8.092920816798815364e-01,-7.309440187225086927e-01,-7.710797386994731537e-03,5.093953848104924853e-02,1.609711815859082157e-02,9.638305902481079102e-01
3.095319601062253012e-01,-8.532425224455437718e-01,-6.955391557203247643e-01,-1.387735399241210414e-02,4.149897085548009262e-02,3.237028804752976885e-02,1.096553325653076172e+00
3.056940028400592091e-01,-7.043684462142481006e-01,-6.940615151933520188e-01,-3.763508480328399061e-03,8.893522557190942750e-04,-4.731632631325365101e-02,1.008307099342346191e+00
3.153220899474169503e-01,-7.250388475414012435e-01,-7.036263939189729699e-01,-3.999518365083101420e-03,-3.286501532922710676e-04,-1.299434548379509516e-02,1.030091047286987305e+00
3.182828256467090666e-01,-7.487166177935984379e-01,-6.726159479018130050e-01,-8.216940497246111308e-03,9.997015429231981276e-03,-2.874559444778561693e-02,1.032502293586730957e+00
2.335414710895078461e-01,-7.522135413104172885e-01,-8.230888119046879670e-01,-6.749610422125898457e-02,-2.597560185712415384e-02,-2.543346046188489640e-02,1.031617164611816406e+00
3.042108276813451084e-01,-9.158404798973037719e-01,-4.222916168438751727e-01,5.704489928724423842e-03,-4.326936087275437548e-02,-4.269188042316762050e-02,1.068242907524108887e+00
3.519571024268040582e-01,-7.684257695045964009e-01,-9.279916662568150620e-01,-3.996421056999299726e-02,1.018482174538066880e-02,2.294258129100164301e-02,1.210857391357421875e+00
3.616252688301154761e-01,-7.805806390688141416e-01,-7.778333878062719808e-01,-3.483155728070400341e-03,-3.043292664770528514e-03,-1.876151983593882071e-03,1.140867471694946289e+00
9.291355832013503679e-02,-6.124675933099946734e-01,-1.045369906829256568e+00,-1.490221307293998834e-02,-1.206953946657701553e-02,8.198046163664529261e-04,9.957074522972106934e-01
1.262778755835432531e-01,-6.275627958620509927e-01,-8.426781652936654599e-01,-3.806198987478481149e-02,6.579751257270102793e-02,1.024669942617118107e-01,9.085954427719116211e-01
3.592896207168425060e-01,-5.713394694197588830e-01,-8.498361607750448687e-01,-5.947423763937096167e-03,4.994321248832711731e-03,1.658011486775215759e-01,1.133780837059020996e+00
3.069854213524318420e-01,-6.404719530162208407e-01,-7.433584052216228866e-01,2.155713236635470841e-03,2.210500590420653999e-03,1.131772840090845278e-01,1.021859884262084961e+00
3.518425949938311925e-01,-6.857167397676304788e-01,-7.583098974354937072e-01,-3.449881793805015251e-02,-3.527909007945982667e-02,1.617316573979256100e-01,1.114851832389831543e+00
3.411194383178395850e-01,-6.104671395124507960e-01,-8.195620479095679922e-01,4.818736491393370985e-03,5.678734195820971803e-03,1.017779889015059946e-01,1.086025953292846680e+00
3.658652579623392076e-01,-6.457040744307895874e-01,-8.338654494021753294e-01,-3.684773227143144786e-02,-1.467411715024785623e-02,7.778324101918648870e-02,1.127779006958007812e+00
3.434301008558014456e-01,-6.418354335639536723e-01,-7.870362094325420443e-01,-4.724060689323308221e-02,-3.416440427585837325e-02,9.628979531456292873e-02,1.083007216453552246e+00
3.292199470490935753e-01,-6.553116347122045493e-01,-7.467065727532377073e-01,3.479215257177352243e-03,3.959237875897982941e-04,1.157371827123554742e-01,1.052548646926879883e+00
3.294840229659001252e-01,-7.789827443980171795e-01,-6.601737366623434689e-01,-2.944196195332132032e-02,-2.329464752002616962e-02,6.426019347161497641e-02,1.061948657035827637e+00
3.410400538225372147e-01,-7.589240738456772828e-01,-6.760470657775428105e-01,-1.208258725069496532e-02,-1.007525123999149404e-02,8.076264911063538166e-02,1.070485115051269531e+00
3.607602027140119905e-01,-7.886792767738451948e-01,-6.996137897936349770e-01,-1.602129284591856384e-02,-1.101373417249336406e-02,1.225304711533208579e-01,1.128247976303100586e+00
3.181583856178451519e-01,-7.833353412910617486e-01,-5.378489109883413111e-01,-1.386018298327568871e-02,-2.136610985175291244e-02,2.204299308210549146e-01,1.072783350944519043e+00
3.227337327318802185e-01,-5.478973066852379503e-01,-8.636423130187941277e-01,-8.971992661904329772e-03,1.461553571268002678e-02,-4.420285540510753008e-02,1.067396283149719238e+00
3.491364469986540930e-01,-8.167389663075765860e-01,-6.773446329113947950e-01,-2.852783798859952202e-02,-2.585950614579822504e-02,1.000640440542596432e-01,1.118331789970397949e+00
3.209244452498560829e-01,-8.489200863099741756e-01,-5.658697917497718111e-01,-7.682236567775549939e-03,-3.961700572166089451e-02,1.141116206145808554e-01,1.077719211578369141e+00
3.480180919978557719e-01,-7.915468650711199317e-01,-7.746164167897684472e-01,2.921842061109936051e-02,-2.872729806326196345e-02,-1.029457783740335593e-02,1.133559226989746094e+00
3.238941305735496545e-01,-6.201360590703344222e-01,-8.122869430646884048e-01,-2.044961334237669487e-02,2.159725115706686432e-02,-8.593968251923819746e-02,1.065045475959777832e+00
3.639460730245565601e-01,-7.999732454410805049e-01,-7.509802994718759450e-01,1.565380702572894203e-02,4.931421046181474512e-03,-1.859943146104916026e-02,1.141021728515625000e+00
2.883839439915183434e-01,-8.146084609127000054e-01,-6.586628922891051285e-01,5.191938028203180178e-02,-3.861702964640331692e-02,-8.052076507243122183e-02,1.049245476722717285e+00
3.729113758285214075e-01,-7.441602028011629066e-01,-7.674710184350639341e-01,-2.012696265894455688e-02,2.887591163440089009e-02,-2.681549972175845120e-02,1.131506085395812988e+00
3.511057831304853494e-01,-7.836984858001161403e-01,-7.562490077802899169e-01,4.404180686708148579e-02,-3.748226686768384164e-02,-5.759382190566830068e-02,1.130207657814025879e+00
3.601207621080513843e-01,-7.781030634705843330e-01,-7.601199258651503143e-01,-6.269672438637534937e-04,1.063744374150923499e-03,-2.980524647594650148e-02,1.130520939826965332e+00
3.117634811318782950e-01,-7.836872492874094043e-01,-7.034029448448608779e-01,8.096943902676026483e-03,-4.350085820768753719e-02,-1.112911602528192101e-01,1.077748179435729980e+00
2.289979772647649514e-01,-6.906832700620528787e-01,-8.864249601848487314e-01,2.651297221457907249e-02,2.325615328318540037e-02,-3.765696347348975598e-02,1.035439014434814453e+00
3.287943288950561649e-01,-7.326349595155029482e-01,-8.394450015973495827e-01,2.971009532236034908e-02,1.194705875828894898e-02,-1.431767518945000102e-02,1.120313882827758789e+00
3.484661275761268828e-01,-7.529902914350654619e-01,-7.437210305045587333e-01,-2.962638000233382726e-04,1.378360252793398759e-03,3.637551762160716202e-03,1.096871972084045410e+00
3.967284349058499138e-01,-7.401890271199474958e-01,-8.556549554321921658e-01,-8.753955966442230827e-03,1.155598655938347777e-02,-6.288367409244917904e-03,1.199140548706054688e+00
3.625752205269934247e-01,-7.472733228890945378e-01,-8.151084069861365133e-01,1.014894604781612156e-02,-9.330992349320069157e-03,6.156907563205360479e-03,1.145572304725646973e+00
2.683039532318348130e-01,-7.222735795105664769e-01,-7.847843393094919850e-01,-4.097746835917366777e-03,1.392225719234389467e-03,-5.573764431450678285e-03,1.023338913917541504e+00
2.632047835579904849e-01,-7.191517566873316669e-01,-7.745190287467528245e-01,-5.246910375765716748e-03,-2.954502098553495406e-05,1.338940630656028103e-03,1.011221170425415039e+00
2.769917773448715703e-01,-7.881683858770074380e-01,-7.676510337782120885e-01,4.756666625872765786e-02,3.330674388138589025e-03,-3.070594229834681943e-03,1.058292150497436523e+00
2.831605813918722792e-01,-7.324291005624481432e-01,-8.077378846868870088e-01,7.041891188764073375e-04,-1.233478298817092473e-03,-2.874495632817354943e-02,1.056438088417053223e+00
3.520142238173611937e-01,-8.043337561455974338e-01,-6.623768428376189954e-01,1.404845189403940500e-02,-3.038986920369154618e-02,-8.192799209641977998e-02,1.103014111518859863e+00
3.146251241981068980e-01,-7.333902973273562775e-01,-6.754478705215019030e-01,1.972558888159997581e-02,-2.617183820622072735e-02,-6.125600804800904881e-02,1.027350068092346191e+00
3.207143445193158526e-01,-7.340709464412906726e-01,-6.829640506758987151e-01,1.705410081657084825e-02,-1.433614046628273533e-02,-7.638322084501207587e-02,1.039360046386718750e+00
3.348262316163631014e-01,-6.802919268083107429e-01,-7.036381717004376313e-01,3.745219841876842176e-02,-4.732294263990927119e-02,-1.736654392870161379e-01,1.075227618217468262e+00
3.492035600189516975e-01,-7.522695833201842319e-01,-7.188751895724562191e-01,2.059545678861273918e-02,-1.574649979809465694e-02,-4.952281887130807747e-02,1.089471936225891113e+00
3.480892108194361123e-01,-7.283599038100678769e-01,-7.553971628243454361e-01,1.225529230433647712e-02,-5.007753004474011643e-03,-7.767411909073239362e-02,1.098728179931640625e+00
3.641742877882685470e-01,-7.861028175151719699e-01,-7.793341319040369974e-01,-3.933242549341659823e-03,-2.484329216047970277e-03,-1.498447733444616646e-03,1.146939039230346680e+00
3.396480958052371379e-01,-7.071535940926578778e-01,-7.339379535640988550e-01,3.535537104117590645e-02,-2.171039665378934197e-02,-1.081365898333696285e-01,1.079256057739257812e+00
3.866930319041885777e-01,-9.547866490437872944e-01,-5.696190074302822648e-01,4.122430671432870952e-04,7.047951025679206893e-02,-5.268026845692041875e-03,1.202586054801940918e+00
3.344479076601166723e-01,-9.352464719493860379e-01,-4.979847391265230239e-01,1.050647610175487953e-02,7.372710861119564918e-02,-9.997097178070164791e-02,1.137872457504272461e+00
3.906864046213731068e-01,-8.628224661980581356e-01,-6.299777970522761894e-01,-2.451055604603202820e-02,1.481922035037372236e-02,-8.720471867271106792e-02,1.165720105171203613e+00
3.680827013484695986e-01,-7.683550038190654075e-01,-7.747896283087467584e-01,-1.572664099729756068e-04,-7.326938407040871348e-03,2.381868429672003365e-03,1.139746785163879395e+00
3.539013727529460862e-01,-8.502749789268966296e-01,-6.196429817927232575e-01,-1.005465614216696606e-02,1.206044241326050806e-03,-9.211477819421007296e-02,1.118603229522705078e+00
3.410090719829469430e-01,-8.232640682929576181e-01,-6.343939408880748809e-01,-9.092850249881271468e-03,3.485928511793047468e-02,-5.963259198490394181e-02,1.088976144790649414e+00
3.154013539352607531e-01,-8.862572454787773779e-01,-4.957375242795473147e-01,-7.586876653198161569e-03,6.198277381804531000e-02,-7.819249220046220472e-02,1.075759291648864746e+00
3.018672020918383159e-01,-8.573068316431187164e-01,-5.694048035116626716e-01,-1.113119663031248742e-02,-6.237766004855686136e-02,5.853986967895059845e-02,1.056015491485595703e+00
2.653816776433496893e-01,-8.291007491959050402e-01,-6.366910382048065475e-01,1.218646635130073673e-02,-2.182927043403326203e-02,1.561992903027376554e-02,1.013376116752624512e+00
3.781494923097460381e-01,-8.398653125558788179e-01,-7.698670749457470208e-01,-2.004749166986471293e-02,-1.943020416896413041e-02,3.460287065088245989e-02,1.187068343162536621e+00
3.984158493320126282e-01,-8.664063880863877021e-01,-7.001401866299217236e-01,-1.427913589002228860e-02,-4.410622644971743528e-02,3.108533951198944392e-02,1.194348812103271484e+00
3.801077786892251842e-01,-8.291343030034190598e-01,-7.659492626132625714e-01,-2.166656658226215337e-02,-1.045985598448651716e-02,-1.327895717525792198e-03,1.179658651351928711e+00
3.607943675246231274e-01,-7.813656417909495833e-01,-7.478459016448177898e-01,2.341938514162102830e-02,-3.428186473453653620e-03,-2.319417869469233770e-02,1.127236723899841309e+00
3.472407890222811155e-01,-7.754231165206596499e-01,-7.479492426962683904e-01,7.024862436936220485e-03,-1.090868485575217407e-02,-3.333092073688573298e-02,1.110910892486572266e+00
3.507438312776234302e-01,-7.734122613255897116e-01,-7.589772272031050093e-01,5.226876435255044771e-03,-1.329684910404643587e-02,-1.324277377313181139e-02,1.117518067359924316e+00
3.448696745608759162e-01,-7.896320549476136819e-01,-7.486859726964105732e-01,2.077803417972863553e-02,-1.751093719582683117e-02,-4.019114654351577977e-03,1.115607857704162598e+00
3.169134835481049461e-01,-5.869684451073919895e-01,-7.972361047254012956e-01,-5.623328846132523429e-02,1.136037653588313490e-02,-1.822800413420794241e-01,1.077415347099304199e+00
3.430408054161239728e-01,-7.986826077819693115e-01,-7.317494559169783752e-01,8.114143361745386127e-03,-4.267291371540279932e-02,-3.010182750533855339e-02,1.113540291786193848e+00
3.520873779844615470e-01,-8.083469787879735691e-01,-6.456665559113317077e-01,-4.785349760864961860e-02,-5.421893598852853963e-02,6.391832641294278861e-02,1.101016998291015625e+00
3.405125926005654891e-01,-7.696400678955719332e-01,-6.912674882515230657e-01,-3.075280303065987958e-02,-1.951588523150016991e-02,6.073316904634427221e-02,1.080102324485778809e+00
3.476371115926015221e-01,-7.497857613033633850e-01,-6.959073833213011984e-01,-1.794137231504492128e-02,-2.236672886456418305e-02,8.615560342850450692e-02,1.082980751991271973e+00
3.449646815441342884e-01,-8.159466821768008860e-01,-6.609867634652224488e-01,-2.906276733991111985e-02,-3.655213423645439080e-02,5.627526228914049578e-02,1.099034070968627930e+00
3.722833608486352253e-01,-8.207015366945930035e-01,-6.859332659623282868e-01,1.190938456783347324e-02,8.779196090971571817e-03,6.821329215240451438e-02,1.138074994087219238e+00
3.576325468612245873e-01,-7.919355980723616906e-01,-7.187393189308650676e-01,-1.055986192717996673e-02,-1.253153831808216656e-02,2.813684022503144463e-02,1.116199493408203125e+00
3.527946202480055637e-01,-8.163820313764811321e-01,-6.802169032972358309e-01,-2.316568789177489169e-04,-2.548005527930467806e-02,3.592390675401319761e-02,1.110015034675598145e+00
3.570389684174599676e-01,-8.190334505862008063e-01,-6.884537136123163314e-01,-2.189004972831953486e-02,-2.537246864506079516e-02,7.835801120923836793e-02,1.126239299774169922e+00
3.608319989662513994e-01,-7.764202065679695064e-01,-7.867065606911932685e-01,3.217162787807138075e-03,-3.936180526768075401e-03,7.698259397381218691e-04,1.142464876174926758e+00
2.547763394716517915e-01,-6.682335008404947096e-01,-8.351024452597864967e-01,1.516216021628155088e-02,4.970790309524953515e-03,-6.118387219840888853e-03,1.017197251319885254e+00
3.085250753220045716e-01,-6.890813324076567881e-01,-8.050573550131444600e-01,-1.694502200861267363e-02,3.874110591672560826e-03,-3.485626528051189929e-03,1.060806393623352051e+00
3.455290244677851619e-01,-7.478402525240923637e-01,-8.048477126943931470e-01,7.019313756495041204e-03,3.857682260597603257e-03,-2.820281977368417105e-03,1.123055100440979004e+00
3.332444114997010209e-01,-6.932565297264459137e-01,-8.143860977085336517e-01,-2.766575878480839398e-02,1.345527811749248209e-02,-3.221042139582441875e-03,1.093428850173950195e+00
3.211633948458744725e-01,-6.935385369326392269e-01,-8.187434795473563787e-01,-1.627307088021522422e-02,2.570681147039625275e-03,3.984106695246132646e-03,1.083145380020141602e+00
3.270949755718945973e-01,-7.457614313332110445e-01,-7.980123604109603530e-01,-1.561038867151869026e-03,-1.143386738332185550e-02,-1.417128344932859431e-04,1.100094676017761230e+00
3.380799348123976200e-01,-8.582853209121199534e-01,-6.009664605709403862e-01,1.636701803537483554e-02,3.534778916841145677e-03,7.659947955810204878e-02,1.099135637283325195e+00
3.411677850594058148e-01,-6.367412325826595776e-01,-8.317147326663885121e-01,-6.089369877512377724e-03,-1.010703791478804667e-02,-7.233194915362850703e-03,1.088835000991821289e+00
3.358652980145589440e-01,-8.035265403316402821e-01,-5.789985629564085023e-01,-3.531535585979872494e-02,3.673779711218797678e-02,-1.785280665850355886e-01,1.093713164329528809e+00
3.135957242754758290e-01,-7.187251964938863313e-01,-6.762013609358654698e-01,-1.317353264185516099e-02,1.146159900577899474e-02,-8.885703347097234639e-02,1.023815393447875977e+00
3.661107412748570433e-01,-7.612329202151331131e-01,-7.550627371132145882e-01,-1.938779996157782501e-02,1.390146571142812301e-02,-6.871556853576765711e-02,1.131308436393737793e+00
3.099319923667664956e-01,-7.263256399926842910e-01,-6.493487948666388787e-01,-1.663179010501267610e-02,1.175696336044062054e-02,-8.793669006908066965e-02,1.012141585350036621e+00
3.419757391194777618e-01,-7.726736641294615904e-01,-6.752267312632871388e-01,-1.766512956513962770e-02,1.908491561590264576e-02,-7.635752165438056127e-02,1.078350782394409180e+00
3.124450549158762636e-01,-7.292749471764203850e-01,-6.758336237737786467e-01,-7.151447547770739543e-02,5.819241608261225412e-02,-1.198308100716753283e-01,1.049259662628173828e+00
2.680856580249715293e-01,-9.224499483966428492e-01,-4.123606594074873399e-01,4.658803965341579145e-02,1.005379464306113135e-01,1.788531050895952879e-01,1.096853137016296387e+00
3.022961535670654620e-01,-7.019589181545317080e-01,-6.712173963562414469e-01,-2.155982841986567658e-02,5.170256265601861495e-03,-1.378456235946406427e-01,1.018371224403381348e+00
3.431365388386379833e-01,-7.975909638876588215e-01,-7.723909224966282183e-01,6.373934647157180645e-03,1.013861969362401779e-03,-6.011088969946309620e-04,1.128394365310668945e+00
3.334682709812014645e-01,-7.880305798441886722e-01,-7.716732771092643661e-01,1.303895142793152530e-02,1.293859516992656306e-02,1.372063424323607603e-02,1.114118337631225586e+00
4.613152828975354280e-01,-3.960783527662711800e-01,-1.209634098028393723e+00,5.377962886438427542e-02,-7.614555924262715256e-03,-2.183214423044958774e-01,1.498792052268981934e+00
3.682862596552877177e-01,-7.691179716020546397e-01,-7.770620977198550161e-01,-1.263573631894651227e-03,-3.863349043094272805e-03,4.947864314445028777e-03,1.141450881958007812e+00
3.668875327819573484e-01,-7.747942408295018790e-01,-7.810699044326818719e-01,-8.796888057004240841e-03,-7.909420241316578171e-03,-9.444298912506607227e-04,1.145017027854919434e+00
3.618780825847497384e-01,-7.704303342439240421e-01,-7.659378851869353966e-01,8.011148345466018693e-04,-5.179888501014692087e-03,9.229043963051703631e-03,1.130218386650085449e+00
4.093712324313747986e-01,-5.694100076335526506e-01,-6.175946977522148718e-01,1.002946785347856168e-01,4.310972947033173824e-02,4.449617839509802941e-01,1.279539823532104492e+00
3.620793577650995854e-01,-7.707346623285389331e-01,-7.442744811425883178e-01,-1.834153137928395266e-02,-1.761880011918707384e-02,1.904844889409065822e-02,1.121170043945312500e+00
3.517604777218726331e-01,-7.605534574593297847e-01,-7.420309655296315476e-01,-1.394616172930378435e-02,-1.276128913102274678e-02,1.340491408265359619e-02,1.103899240493774414e+00
3.633888513140483001e-01,-7.874870248087786351e-01,-7.723433673277543265e-01,-2.575756321337197962e-03,8.990198821913850807e-04,3.428861055103073424e-04,1.143389225006103516e+00
3.729586145590844670e-01,-7.758189505928843044e-01,-7.789322561133504852e-01,-1.150719611534642417e-02,-1.195344773177382629e-02,1.084243165646114199e-02,1.150849580764770508e+00
3.625248732283929964e-01,-7.518660071587346394e-01,-7.714384384627497315e-01,-6.203557230026770369e-03,-1.291385965086658955e-02,1.032470298469445429e-02,1.124720811843872070e+00
3.675282318388827796e-01,-7.772432888354801062e-01,-7.687189291370245536e-01,-1.851351653549810489e-02,-1.196469306564612763e-02,1.460875806727228443e-02,1.141452550888061523e+00
3.584156520058548456e-01,-7.760005883871597954e-01,-7.597575021043290189e-01,-5.362048889543376794e-03,-2.641127461444650560e-04,5.295116094935530676e-03,1.126458287239074707e+00
3.703544787098786428e-01,-7.826492020927287019e-01,-7.679423538848212383e-01,-6.969067210756002724e-03,-1.733073889623927598e-03,-1.250260675630303006e-03,1.145790576934814453e+00
3.638749061106923421e-01,-7.623331635717198740e-01,-7.695647322682909186e-01,2.573359277993667472e-03,-3.418996912889884013e-03,5.741753905955126504e-03,1.129909276962280273e+00
3.650713349226680782e-01,-7.694062629406164255e-01,-7.680148742509106397e-01,-7.221541209097988648e-03,-2.510979782445560589e-03,3.057096355060899117e-03,1.133872270584106445e+00
3.714507736811646366e-01,-7.771442291696154525e-01,-7.761616155321877653e-01,-5.635696519053290734e-03,-4.952714744639552698e-03,-3.487303710373305943e-03,1.148193478584289551e+00
3.612136569253258656e-01,-7.460729204331391085e-01,-7.275874822742339765e-01,-1.590202582995887655e-03,-2.254670177291208909e-03,1.143954586394585610e-01,1.115902543067932129e+00
3.555545617920422563e-01,-6.588194212205329414e-01,-8.539567354076170735e-01,-6.321941741819651038e-03,-1.715867338302020165e-02,-8.055967235172263596e-02,1.133776068687438965e+00
3.464210909440854080e-01,-7.171119729324135772e-01,-8.033326406152865307e-01,-8.269085577937962048e-03,-6.799255419750995823e-03,-2.347446029462397707e-02,1.110059499740600586e+00
3.546661017678837680e-01,-7.802148081438868843e-01,-7.735737390371264510e-01,-2.080828208193134798e-02,2.537367228803178668e-03,-2.737530170989308301e-02,1.133149743080139160e+00
3.634125441375362642e-01,-7.717801056387929570e-01,-8.310840936437521309e-01,-7.885469097702116348e-03,-3.790283114161797830e-03,-1.027628589657110167e-02,1.166210651397705078e+00
2.801573644599477664e-01,-6.458800117185758971e-01,-8.197905855309962631e-01,-1.284622148159542641e-02,3.686632102667063843e-02,-6.990363905750027196e-02,1.033474683761596680e+00
3.809253501150398069e-01,-7.871818959025258522e-01,-7.968064250608870580e-01,1.260826598241618704e-02,5.262351935309017049e-03,-2.947026241669730567e-02,1.174297690391540527e+00
3.646472232325738139e-01,-7.301772414012819290e-01,-8.061193019760337641e-01,-1.014468265144804517e-02,-7.329039761055613361e-03,-1.622680165379600942e-02,1.135258078575134277e+00
3.770345845930662132e-01,-7.524248080212141421e-01,-8.127888753042586956e-01,7.700454173151170291e-03,-4.146950960744157783e-03,-3.572078880078982666e-02,1.162565469741821289e+00
1.861429389214924179e-01,-7.182146570459364554e-01,-7.862584230448452782e-01,-1.708096318738763124e-03,4.677982233100888565e-02,-2.856598746879552772e-02,9.450134038925170898e-01
3.790890754573998933e-01,-7.408295719702863158e-01,-8.322464149406554323e-01,5.841438082704708545e-03,-1.238250687091712633e-02,-2.667525568169472686e-02,1.169466257095336914e+00
2.920607652773857810e-01,-7.884707562332944342e-01,-8.025550448671801007e-01,-1.257586453321051650e-02,-4.836832845524816071e-03,-6.291008562181689412e-02,1.093335747718811035e+00
3.367099230028184342e-01,-7.822092420726540762e-01,-7.886855842532822791e-01,1.183023907574214410e-03,1.769215131089794252e-02,-1.208059114277505904e-02,1.122786521911621094e+00
2.992436308456146721e-01,-5.163278128175843307e-01,-8.016100825510558137e-01,-6.271939525694643879e-03,2.244669785661162001e-02,2.978742680499427142e-01,1.116703867912292480e+00
2.299732103036013497e-01,-6.530923849918552904e-01,-8.131930494888698346e-01,-5.036826159651993989e-04,1.661243094216983268e-02,-3.079014503773322767e-02,9.749303460121154785e-01
3.908861777332832133e-01,-8.093905335220643593e-01,-6.387479996261424819e-01,1.031786987287818859e-04,-1.740137656286380730e-02,1.608725753557224969e-01,1.159100174903869629e+00
4.281621002646255891e-01,-8.583897310604413633e-01,-6.219167621270023094e-01,-3.505196144470955517e-03,1.693389574963811983e-02,1.786142233685015235e-01,1.226175546646118164e+00
3.459034123396078075e-01,-8.052276413403833821e-01,-6.392867972104925300e-01,-6.215173732805837764e-04,1.368907055197218260e-03,8.627217916737087156e-02,1.088096857070922852e+00
3.125900969155677167e-01,-7.654055629678669925e-01,-5.800474972177643851e-01,-6.680962957230845295e-03,-5.796827614698659217e-03,1.413395651170105682e-01,1.027999162673950195e+00
3.481085230313253343e-01,-8.044184828834961554e-01,-5.857417291899194023e-01,1.333592858055407220e-02,3.773627953680073598e-03,1.295505529694364333e-01,1.083989620208740234e+00
3.358519708614520760e-01,-7.928018322588976652e-01,-6.152128978018596150e-01,-5.207092194825965227e-03,-1.912887472646590536e-02,1.963291076440073224e-01,1.105339407920837402e+00
3.583145269979312597e-01,-8.002656590720502727e-01,-5.906249615145959808e-01,7.115811374835775797e-03,-1.192683986982442934e-02,1.241172416241514143e-01,1.090947151184082031e+00
3.844348621782712749e-01,-8.655053456929596711e-01,-6.036812868967272872e-01,-1.065780234425727294e-02,3.797532491705739224e-03,2.086949166355836216e-01,1.197782397270202637e+00
3.611453059560509882e-01,-7.548197209436948718e-01,-7.580363719536770128e-01,2.948272114133566185e-02,-3.157313598319058667e-02,-6.007059634028492218e-02,1.124900698661804199e+00
3.397054677611373585e-01,-7.062074287114430415e-01,-7.730972982693080642e-01,3.716864717969333570e-02,-5.008014925187628807e-02,-7.209618709540498160e-02,1.093449234962463379e+00
3.630503161929053424e-01,-7.707298621824696383e-01,-7.501394071888838333e-01,9.340879561860734870e-03,-7.832234218698153755e-03,-2.111257435387390094e-02,1.124419569969177246e+00
3.681842562849531597e-01,-7.689904917821988040e-01,-7.813867177706879108e-01,-1.624831485698070149e-02,1.594108529695290391e-02,-4.379549763212349164e-03,1.144127964973449707e+00
3.641618160437880558e-01,-7.552833868652722993e-01,-7.684950083108462726e-01,7.345620124912977285e-03,-9.883801431340160856e-03,-1.846211760300863966e-02,1.126765012741088867e+00
3.417546638498534239e-01,-7.874829198910429096e-01,-7.416496497947264732e-01,1.147250956558003472e-02,-3.317797436799002631e-02,-6.822714197431611893e-02,1.114981412887573242e+00
3.517208293459398449e-01,-7.846006333852522108e-01,-7.691244849471905454e-01,-3.884006198510834250e-03,5.930036304427599089e-03,-1.566704952053324558e-03,1.128733038902282715e+00
3.631314578038776775e-01,-7.855449572646050482e-01,-7.769647842178712960e-01,9.770835647512311414e-04,2.361138122909873724e-03,5.432948233565870581e-04,1.144419431686401367e+00
3.794843820677958335e-01,-7.721962424751660503e-01,-7.611425234164624909e-01,2.240422110182222620e-02,-2.407693643066237399e-02,-6.109842311274403526e-02,1.152477383613586426e+00
3.863111699606271987e-01,-8.155204459116461857e-01,-7.833234792184096129e-01,-1.498578014752099084e-02,1.462241726761891528e-02,-5.538649993842414271e-02,1.190486788749694824e+00
3.154609561791379968e-01,-7.969279889428173558e-01,-7.022885199730657391e-01,-1.978214886958108015e-02,5.171739784399110185e-04,-4.901662876691462167e-02,1.072134613990783691e+00
3.576877438221285344e-01,-8.046646859128425699e-01,-7.163907959475315224e-01,-2.482660229231589688e-02,1.284461172210429360e-02,-5.159452491693772985e-02,1.125424385070800781e+00
3.646885248505702393e-01,-8.110731750851862820e-01,-7.217371047144995888e-01,-8.387754272814611917e-03,2.717880025714066936e-02,-2.896830748930723232e-02,1.135915160179138184e+00
3.692450320015217557e-01,-7.986039549716983377e-01,-7.486225202672909251e-01,-1.047900850942755369e-02,1.403519481189893607e-02,-7.017508994231718214e-03,1.144144535064697266e+00
2.966333977784713638e-01,-8.082765734560823923e-01,-7.785834639049991068e-01,-1.402526810633463079e-02,-4.694566745924683149e-02,2.460761207537315136e-03,1.093672513961791992e+00
2.724864168399345199e-01,-7.977981115562526870e-01,-7.696332833845120902e-01,6.090115689803984010e-03,2.014085553273633165e-03,1.139041968673308765e-02,1.056726336479187012e+00
3.197450627221833930e-01,-9.313148049694014441e-01,-6.124522418727791351e-01,1.121571516387029300e-03,4.138960115947018514e-02,1.259839154950143925e-01,1.149202704429626465e+00
1.881325553243801685e-01,-8.543487039710653264e-01,-6.790653114180891237e-01,6.792439273455380677e-02,1.045358033412828111e-02,1.488311742435457011e-02,9.744718074798583984e-01
1.823829906487122177e-01,-7.880038470801830064e-01,-7.296998359222730546e-01,-2.280184878550728031e-02,-5.973511083313921138e-02,8.533535370775804235e-03,9.491868019104003906e-01
3.807794392925600291e-01,-8.514583234260494349e-01,-7.539981684309786658e-01,1.485678346558174344e-02,2.307427505011678658e-03,4.048296942065180044e-03,1.186819911003112793e+00
3.185229248266417956e-01,-8.697062877105102841e-01,-6.746903875328884581e-01,1.824383361405906845e-02,6.144363986750077389e-02,-1.696503112037324110e-02,1.109677553176879883e+00
3.793164542862395017e-01,-8.369798260407776969e-01,-7.495778942500259667e-01,6.963097192542395454e-05,-6.435981735882890555e-03,1.555059915199333634e-02,1.175397276878356934e+00
3.152398401814229811e-01,-9.046327436270584776e-01,-4.414064584043141393e-01,-5.316263890017057341e-03,-1.899673443550776650e-02,1.116048297939468970e-01,1.084492921829223633e+00
3.591605763265599549e-01,-7.232935807689833130e-01,-7.831322525620102448e-01,-3.168243384953787871e-03,1.988819930285466719e-02,5.508690270453807381e-02,1.118204236030578613e+00
3.600527236814982102e-01,-7.619659796088011916e-01,-7.352276463098685877e-01,5.541947916375790546e-03,-1.695320568577190481e-03,6.000133644065853977e-02,1.113795876502990723e+00
3.381599602369098068e-01,-7.769266892164296001e-01,-6.998376650375500718e-01,2.817102496038916340e-02,2.310138682677417843e-02,4.935084571733885928e-02,1.083830475807189941e+00
3.611608834242464594e-01,-8.025751957816497084e-01,-7.253787999659883079e-01,8.861972957872759488e-03,8.177778451769850826e-03,6.882268122388526810e-02,1.133600711822509766e+00
3.357295783341350814e-01,-7.736307981208927487e-01,-6.948915892707399067e-01,2.178320058305499921e-02,2.540958283364310247e-02,3.881855289839082623e-02,1.075830459594726562e+00
3.941892292937589914e-01,-5.554720152647946163e-01,-8.724657770665156242e-01,-5.493212458712144752e-02,-7.490670459786082092e-02,2.408066729662765582e-01,1.226061701774597168e+00
3.522192799454675893e-01,-7.028702669866410124e-01,-7.259040700618106801e-01,-2.592641486791544964e-02,-1.025319899655188771e-02,1.502107784842054428e-01,1.099121928215026855e+00
3.555376394809107166e-01,-6.336995709611661365e-01,-8.679862089854382123e-01,5.549344092268491783e-03,-1.384316274759623058e-02,-2.090745633956018340e-02,1.125710487365722656e+00
3.367403301257390069e-01,-7.024646643747666230e-01,-7.477544212728738371e-01,-7.960535789110795291e-03,-2.863343472503054876e-03,5.667441814531352234e-02,1.067199230194091797e+00
3.001731910307414153e-01,-6.013154790273067540e-01,-7.701988377392778862e-01,9.243603183165319259e-03,1.186894407660171909e-02,8.760499198572958834e-02,1.008539915084838867e+00
3.129045038083096419e-01,-6.052440913241527998e-01,-7.730843802334923520e-01,-6.746384616766876521e-03,1.255317006738044909e-02,9.028580225286790550e-02,1.024857759475708008e+00
3.206520025286631603e-01,-6.948065162425919317e-01,-7.201834279638912317e-01,2.190615501238432281e-02,2.235918069145362633e-02,8.411365746135932020e-02,1.040064454078674316e+00
3.108585139582360490e-01,-6.657407025365338349e-01,-6.608128160137004548e-01,2.289624546164361479e-02,1.313515712798282373e-02,2.163644638529299280e-01,1.044743418693542480e+00
3.461203937721670232e-01,-7.005097266661216571e-01,-7.320604352423145667e-01,3.314420036944454306e-02,1.680700550962032150e-02,1.324290250126588520e-01,1.089131474494934082e+00
3.203955032423393412e-01,-6.930329509586976577e-01,-7.299824314355960464e-01,3.163224669862585436e-02,2.937774999085076069e-02,6.854025586381197466e-02,1.041888833045959473e+00
3.813578561526830835e-01,-6.885873328847740282e-01,-8.503493927354739412e-01,5.109696156187559790e-03,1.782206627706366814e-02,8.908581152294899400e-03,1.159868717193603516e+00
3.270918981178684293e-01,-6.036061112274896390e-01,-7.867745021442895670e-01,3.919547335600300636e-02,-1.271621391995350907e-04,9.743560628898265130e-02,1.050387501716613770e+00
3.434939358843716040e-01,-7.126424273003757470e-01,-7.232734523345172306e-01,-1.108652217533153891e-02,9.444502411324604604e-04,1.402942799381622363e-01,1.089120626449584961e+00
3.568174886496238152e-01,-7.405558887406527013e-01,-7.209231462408453028e-01,6.340539107015976013e-03,2.084110514249612467e-02,9.660893971835891880e-02,1.101132512092590332e+00
3.594264238148227042e-01,-6.677071056151002715e-01,-7.996547754869607338e-01,1.926627406294100647e-02,-3.806914574870675499e-02,2.582311161682410705e-01,1.188887119293212891e+00
3.259088350730584560e-01,-6.770458385471865848e-01,-6.494495974077649780e-01,5.636238014888808080e-03,2.385725218768668804e-02,2.135817058051864559e-01,1.057192564010620117e+00
4.313522470323309932e-01,-6.589854327998641015e-01,-8.397793552735346445e-01,5.287022296920998454e-02,3.754029271904927439e-02,2.590060739298998271e-01,1.277699112892150879e+00
3.831975647846931898e-01,-6.658879828575400284e-01,-7.699790670955883876e-01,3.023892594425241567e-02,4.281982652820447155e-03,2.208396430694110624e-01,1.170352339744567871e+00
3.594421056675649595e-01,-7.676928258290764973e-01,-7.465053149493068307e-01,1.926011624996232935e-02,-1.645337394343847348e-02,-4.332280008658270787e-02,1.120069861412048340e+00
3.498115670619051376e-01,-8.236155803457341218e-01,-7.389521172495182588e-01,2.252184530648686581e-02,-3.269889557493427246e-02,-5.173169190021285890e-02,1.139083266258239746e+00
3.293473582558548163e-01,-7.439132220548967389e-01,-7.937001433040153930e-01,-1.468580558324926585e-03,4.529079483620865668e-03,5.807755043040616592e-03,1.099077105522155762e+00
3.560973015474606651e-01,-7.399131241826069072e-01,-7.662608210628039096e-01,3.677254443984569882e-02,-1.049162139735428795e-02,-4.507713537444504176e-02,1.114133358001708984e+00
3.666724796904159422e-01,-7.829935971457524513e-01,-7.726938867869802552e-01,9.145799074003729823e-03,-2.236048813754233297e-03,5.490648734544089932e-04,1.144667506217956543e+00
3.677567395313395826e-01,-7.788108693537012517e-01,-7.692334379368922503e-01,1.434224980502775242e-02,-1.007534577939317964e-02,-2.989501192611102726e-03,1.142224311828613281e+00
3.723120028763399758e-01,-5.745542979857238830e-01,-8.873619507523962113e-01,-6.198753987976563830e-03,-4.944284471025784528e-03,1.827415958589023032e-02,1.136565804481506348e+00
3.625429899021048730e-01,-7.771966942483532481e-01,-7.529902219984767608e-01,5.176002715421153602e-03,1.793931060661997634e-04,-1.313264529253225024e-02,1.128096342086791992e+00
3.648563499288122181e-01,-7.893072997329890761e-01,-7.745568785548713198e-01,-3.977991663027253925e-04,4.091898673829806252e-03,-2.041645291198998426e-03,1.146887183189392090e+00
3.226298038462551698e-01,-7.768470079619717028e-01,-6.670533694066861363e-01,7.140335739925088299e-02,-1.308606880511754833e-01,-1.489970995640902685e-01,1.110611319541931152e+00
3.232796219025981799e-01,-7.434402440569594095e-01,-6.841064562988674602e-01,1.847845109127889060e-02,-2.190319512470985733e-02,-6.756612829570123047e-02,1.046077609062194824e+00
3.398091339226497754e-01,-7.966554302819542910e-01,-6.572017391372165784e-01,2.308030805889236398e-02,-4.491776986640720615e-02,-7.682634304335234088e-02,1.085298418998718262e+00
3.319708198418876988e-01,-7.515037534262908325e-01,-6.595561353482322087e-01,1.619399731166286729e-02,-2.297642620052935472e-02,-7.599459070325369214e-02,1.049973607063293457e+00
3.310599931902523108e-01,-8.083930335922493438e-01,-6.156773811621822912e-01,-2.739691403990290376e-04,9.924226799294672951e-04,-7.891000129297426335e-02,1.065169334411621094e+00
3.217359924547856243e-01,-7.997134052050919317e-01,-6.043736588365704598e-01,2.734481887540216385e-02,-5.305097034829357738e-02,-8.464574039784712733e-02,1.053054571151733398e+00
1.802319959482667211e-01,-7.342364271912893425e-01,-8.183142796359017535e-01,2.192378301485237158e-02,-2.785815723145072115e-02,-2.723661286403884427e-02,9.623948335647583008e-01
8.764788913598919873e-02,-7.307523089758105606e-01,-7.221495162935596124e-01,-2.643816241690037649e-02,-4.176611238437715964e-03,9.272870546709503304e-04,8.154533505439758301e-01
3.056306215902343526e-02,-7.187040487930028698e-01,-7.297877450889160844e-01,-6.046139499896841874e-04,-6.622362652620804313e-02,-6.431273627040156281e-03,7.636168003082275391e-01
1.114539366945616061e-02,-7.636078012158251660e-01,-6.943937792963237321e-01,3.860038710951331498e-02,-1.227683581420777742e-01,-3.443806819157462645e-02,7.775946259498596191e-01
-4.366630002084809226e-02,-7.450469996241353421e-01,-6.078355648749167450e-01,-8.976002769791716117e-04,-6.796877648703254782e-02,8.235687621024019578e-02,6.698761582374572754e-01
2.463540176672301962e-02,-7.157901178238539330e-01,-7.310542731073579326e-01,-1.593502921424140920e-02,-6.993633404749176330e-02,1.193536527926166227e-02,7.587010860443115234e-01
3.460252610369586868e-01,-7.510671420246455288e-01,-7.696668077339534619e-01,1.360659591711631949e-02,-1.499034985870167230e-02,-1.854993165029125701e-02,1.107531070709228516e+00
3.827271326457932776e-01,-8.161859541982777744e-01,-8.103330212841408642e-01,1.207356215408128021e-02,-2.137242320230678741e-02,-1.213185558545925441e-02,1.196937322616577148e+00
3.382118574455972304e-01,-7.886986095120605000e-01,-7.737660823092264994e-01,2.760727249826071261e-02,-4.776658052028541664e-03,-1.397466890621330490e-02,1.120831608772277832e+00
4.231566066329398579e-01,-7.997329000632513729e-01,-6.699388662774408143e-01,-9.134777593914647498e-02,-7.269965076805258442e-02,2.394702733312206733e-01,1.251602411270141602e+00
4.194195385710106083e-01,-8.217348216986575249e-01,-6.998346005897331246e-01,-3.565332337407556285e-02,-1.169515207633943987e-03,2.039998626402247384e-01,1.238019466400146484e+00
3.958187012825001849e-01,-8.980573991811342527e-01,-5.851936057277019598e-01,-1.613593919509020980e-02,-5.472538517499991872e-02,1.218119394181667176e-01,1.192255139350891113e+00
3.599880868313366511e-01,-7.893182912508871496e-01,-7.729657206028370808e-01,-1.549281875603332470e-03,3.524197164266655146e-03,1.021656263834330378e-03,1.141238808631896973e+00
3.798379983101995983e-01,-8.748951600295347131e-01,-4.054776405421112173e-01,-4.915419860594752444e-03,-7.002507444488456634e-02,3.641277417232535729e-01,1.272110223770141602e+00
3.472238251562922429e-01,-5.045526025388837876e-01,-9.152503029936571721e-01,-1.521881600349434330e-02,9.039922840067902976e-03,3.293469599557632271e-02,1.117234230041503906e+00
3.050005212951554801e-01,-7.935815686359207755e-01,-7.327879938199742815e-01,-1.091935284701405287e-02,-4.296361020755390392e-02,1.650121948641094724e-02,1.072615504264831543e+00
3.444325614181480977e-01,-7.902028782039528521e-01,-7.507006798895483612e-01,-8.464789641209596177e-03,1.459954569284696926e-02,4.571759536218367344e-03,1.115820050239562988e+00
3.139437400183966442e-01,-7.896254658792978276e-01,-7.531082305562555312e-01,2.732899767488339293e-02,9.915022540806932988e-03,1.410377674359371107e-02,1.087212681770324707e+00
3.341119045038145607e-01,-7.921154448358114220e-01,-7.688267902522238906e-01,-1.526655410659368689e-02,-8.980351497587423654e-03,1.140262370120145429e-03,1.115189313888549805e+00
3.575528636691023276e-01,-7.999555202247646823e-01,-7.363556239426778394e-01,-1.758439144396109488e-02,-3.326060883993098988e-02,3.472349066546936980e-02,1.130538225173950195e+00
3.639616605218709555e-01,-7.673673483603562495e-01,-7.687692962848260425e-01,3.865896965871898697e-03,5.367765526979575465e-03,1.031867253858664325e-02,1.132229685783386230e+00
3.362455101506404143e-01,-7.866220898028584152e-01,-7.612273153431803330e-01,-5.610689640517602800e-03,2.328200815553570745e-03,1.316395557769238674e-02,1.110671877861022949e+00
3.597045432530472375e-01,-7.928671582438405752e-01,-7.526298363176713302e-01,-1.911390901489403923e-02,-9.064884083946083207e-03,6.618633512210894861e-03,1.133639335632324219e+00
3.677888642386836771e-01,-7.540993794737682610e-01,-7.927826016118386665e-01,6.709960492004537862e-03,-1.653113539253003167e-02,-4.970103184991891618e-03,1.142171978950500488e+00
3.540276103065065350e-01,-7.747810100434173730e-01,-7.871572413532827994e-01,-2.403617332440992523e-03,-1.368472483916408165e-03,-6.162066351673154471e-04,1.135057926177978516e+00
3.475309920776693540e-01,-7.733194170351348484e-01,-7.230056811345624279e-01,3.009047362082965978e-03,-7.004203465620027422e-03,-3.295368501228958247e-02,1.098123431205749512e+00
3.601039674221323539e-01,-7.706315914618204754e-01,-7.632985516839662088e-01,2.684509387444591888e-03,-1.602949433544157212e-02,-3.638976041525103511e-02,1.129198908805847168e+00
3.419608781458795543e-01,-7.436645916988338101e-01,-7.690854085562084386e-01,2.884413820038117526e-02,-1.367431030432492492e-02,-3.568979632944908192e-02,1.101682662963867188e+00
3.558369225675387937e-01,-7.590522085459201485e-01,-7.954171365062808752e-01,-8.826279224344535379e-03,-3.914997515556931269e-03,9.880597054782356246e-04,1.133633852005004883e+00
3.664186208751847862e-01,-7.570320024253845981e-01,-8.041075502767035532e-01,-2.537870723217436255e-03,2.944264335491711924e-03,7.250295393523438145e-03,1.147801160812377930e+00
3.444973702385271674e-01,-7.097535330533846221e-01,-8.038423338618463365e-01,-1.413330214010113765e-02,-5.494149604682885615e-03,6.427090861100330683e-03,1.104673981666564941e+00
3.434330428484866915e-01,-7.121373805645994093e-01,-7.991218403840929518e-01,-1.692084358211308481e-02,-4.696928408007487558e-03,1.640309754890976503e-03,1.102064728736877441e+00
3.547104348173307775e-01,-7.640268842184678721e-01,-7.756433693869148049e-01,-8.548317215557025076e-03,8.845711018414797056e-04,-2.991714226329244067e-02,1.125882148742675781e+00
3.296551326622842448e-01,-7.629549112860292137e-01,-7.926808881706257637e-01,-2.712077410483852702e-02,5.924228925330805862e-02,-9.153418417969051701e-02,1.124735713005065918e+00
3.235294592175346207e-01,-7.126669655363453426e-01,-7.966602541291781803e-01,-8.963941864263934300e-03,1.801235651403575513e-02,-2.253970903613485011e-02,1.081910371780395508e+00
3.460193189733238861e-01,-7.608060483601115642e-01,-7.629370755012983008e-01,-1.978669883784891365e-02,2.923149372272093247e-02,-4.192203291615627381e-02,1.111951470375061035e+00
3.350997846056213980e-01,-7.420985181169028611e-01,-7.210783057707359500e-01,3.352504231788759267e-03,-1.030077555105819026e-02,-9.983263413060604330e-02,1.080928683280944824e+00
3.538208262307401264e-01,-7.534105285179846234e-01,-7.669661594295715812e-01,-1.493687098244832678e-03,2.074138296922993681e-03,-2.044306060088422680e-02,1.114642381668090820e+00
3.475995526638699373e-01,-7.432602318510379558e-01,-7.598888815233956207e-01,-4.343021153080615232e-02,2.230952514617228974e-02,-3.201363151377805555e-02,1.103910088539123535e+00
3.503539951974193878e-01,-7.447285114861132982e-01,-7.696532163048086517e-01,1.188697876162251796e-02,1.316181410080144443e-02,1.658760652176501441e-02,1.108553409576416016e+00
3.702813777322300770e-01,-7.824943927413332556e-01,-7.783483280435373741e-01,3.602243515428154783e-03,1.414174950564306985e-03,-1.455866267308709560e-03,1.150730609893798828e+00
3.597566030918414315e-01,-7.794562859346807482e-01,-7.471436444571286639e-01,1.003618973679663157e-02,5.178946074307397285e-03,1.445987052040338672e-02,1.123854517936706543e+00
3.279016651285338035e-01,-7.477455021046039985e-01,-7.864247205910763761e-01,-4.081539130643867599e-04,5.246256208686215367e-03,2.539141933665446139e-03,1.095545768737792969e+00
3.662250282277609847e-01,-7.673503499341391976e-01,-7.786487857627992781e-01,9.283108173130159499e-03,7.781673921943817532e-03,7.354451665499197113e-03,1.139531016349792480e+00
3.642590032115735621e-01,-7.632431124080587548e-01,-7.801047817542434704e-01,2.110489606983576363e-03,6.025801729682141866e-03,4.900463868852400484e-03,1.136112332344055176e+00
3.705781222931265884e-01,-7.831566481369955923e-01,-7.737260570912241064e-01,4.548572806232522442e-03,8.570876938420624036e-03,-7.003860250555596226e-04,1.149172067642211914e+00
3.872442339579570958e-01,-6.149796588520354268e-01,-8.988766195651360924e-01,7.430755245955947275e-02,4.150852220920649410e-04,-3.372258722102051964e-02,1.178794145584106445e+00
3.939085901570559267e-01,-5.846950561074888419e-01,-9.527157377816592998e-01,6.600983486406028500e-02,-9.754040587467557519e-03,-1.594267310912722904e-02,1.211350679397583008e+00
3.748554969125091896e-01,-4.643361184952045084e-01,-9.376667948648326201e-01,7.929294583009759145e-02,1.760921235609704417e-03,-5.305506908287020706e-02,1.163105964660644531e+00
3.731149318254954883e-01,-5.496130402847586582e-01,-9.175347927723784824e-01,5.557265926013555540e-02,-6.692311850170789070e-03,-6.457987162296550954e-02,1.161118388175964355e+00
3.677367767603801352e-01,-9.375371621769370556e-01,-4.858438557416138170e-01,3.373907852341465410e-03,3.144269827898719082e-03,-7.245463540267189917e-02,1.154987573623657227e+00
3.445210362425276118e-01,-8.627731105282987478e-01,-6.457607799927096437e-01,1.966752003380528580e-02,1.765053945063499788e-02,-2.706993815928268252e-02,1.116668820381164551e+00
3.796613902113022410e-01,-9.705109236426394670e-01,-5.753530618296375243e-01,-5.865146047097515893e-03,-3.288415524749740276e-02,5.037904264881347405e-02,1.206874132156372070e+00
3.939600163301512636e-01,-9.271492365860540819e-01,-6.138152900944515711e-01,1.484402504911826442e-03,-4.482776034490300321e-02,-6.997321507689294173e-03,1.198224306106567383e+00
3.618530384986011761e-01,-8.755896486246503851e-01,-6.404196407941109559e-01,3.976708034874242709e-02,-7.286661573871762443e-02,2.395945418806333382e-03,1.147279381752014160e+00
3.017238685138413090e-01,-8.747371256789560068e-01,-4.769975622815680882e-01,2.530982461769660033e-02,-2.774171685390544942e-02,-9.827610760848617955e-02,1.052395939826965332e+00
3.402356291568870983e-01,-7.776469148046095681e-01,-7.585486669998846576e-01,-1.514193461163711174e-02,9.194555445072047362e-02,-1.225177369859767884e-01,1.140069365501403809e+00
3.383585473322503478e-01,-8.101315304313836396e-01,-7.211743742948995006e-01,-1.566354145752069452e-02,8.644893595195877675e-03,-1.377088263919582639e-02,1.107386827468872070e+00
3.294508549119448126e-01,-8.081798764106472577e-01,-6.984066041328707009e-01,-1.845033864491723435e-02,9.258101672165572685e-03,-3.538046629786204683e-02,1.089222669601440430e+00
3.176407704051149583e-01,-7.919812551148848190e-01,-6.957794159421449853e-01,-8.290060349358091205e-03,8.498617866686744918e-03,-2.533416129290905899e-02,1.065887689590454102e+00
3.057214956320504773e-01,-7.856861047807326415e-01,-6.178345563948650643e-01,-2.236787849445706286e-02,1.778473822485469175e-02,-9.460120429115698171e-02,1.032205581665039062e+00
3.686351068996277514e-01,-7.910349366800411008e-01,-7.730895745861416923e-01,-1.645195297134861324e-03,3.343221614320896623e-03,-1.037632463368896992e-03,1.150821805000305176e+00
3.363995268650112891e-01,-8.655725654838548611e-01,-5.827676863341578750e-01,-1.381694868423698555e-04,9.768798313391537091e-03,-6.590713815773600881e-02,1.094581842422485352e+00
3.364765827202992332e-01,-8.033020254334480859e-01,-7.454144134428397628e-01,-3.936337917254450168e-03,-7.055211759553578488e-03,-1.115737389081553760e-03,1.112055182456970215e+00
3.508414058260524993e-01,-8.029274509155772677e-01,-7.777038837808247784e-01,-4.584563275402407309e-03,-9.607790532929679286e-03,5.616288280016863525e-03,1.141556501388549805e+00
3.274643785850052113e-01,-8.245834860430663049e-01,-6.868808275773923278e-01,6.884485449127835700e-03,5.012910780563884991e-03,8.769426464418561204e-03,1.089946985244750977e+00
7.724047092869956721e-01,-5.631800849471362280e-01,-1.099758285763516863e+00,4.312851820278886666e-02,3.955208445926569095e-03,-4.567357999754589337e-01,1.849269747734069824e+00
3.254375710736599481e-01,-8.095628481627072937e-01,-6.655794206670604396e-01,1.756065733382486740e-02,2.601448383326984692e-02,1.736694630598581771e-02,1.072098970413208008e+00
3.371259286470296712e-01,-7.986959898593102292e-01,-7.495506703210828015e-01,3.998808079620377529e-03,-7.562464176249837286e-03,8.773533015414910693e-03,1.112266540527343750e+00
3.344219115588637492e-01,-7.832894178165688004e-01,-7.696572760915243450e-01,4.798845110868486634e-03,1.595543244248050913e-02,-6.125242701117927747e-04,1.111333250999450684e+00
3.453708273995131917e-01,-8.182085451941851773e-01,-6.148346761716140252e-01,-2.306887529298854225e-02,-5.685038249699290308e-02,7.017726475384081231e-02,1.088440775871276855e+00
3.495295061292857941e-01,-8.425221694623461488e-01,-5.793045150009390465e-01,-2.703774413793219589e-02,-3.541954179679240172e-02,6.499140274909995241e-02,1.093219995498657227e+00
3.867932007374685344e-01,-7.640855288535499668e-01,-7.916944666830196820e-01,-2.685519841981992908e-02,-2.207664560679067217e-02,6.382034305280054332e-02,1.171709656715393066e+00
3.592875064030388033e-01,-8.025636903737768391e-01,-7.224033921966998006e-01,-2.125606393984850323e-02,-1.592622746401448769e-02,2.421827686269755267e-02,1.125640034675598145e+00
3.647518763127082231e-01,-8.006163054890825803e-01,-7.239994198911487988e-01,-1.339260118557639677e-02,-1.546663323040865443e-02,2.497356877020025928e-02,1.130395054817199707e+00
3.539079339411392855e-01,-6.483152852144347111e-01,-8.438358758876687293e-01,-1.136280880409209701e-02,1.076893039803941687e-02,-5.302355694921272178e-02,1.117051839828491211e+00
3.843884556298985955e-01,-8.363388716185213845e-01,-7.214842928358495833e-01,-2.282427478296601697e-02,-1.786499483108862016e-02,7.009808949173029768e-02,1.174913644790649414e+00
3.464394334743529091e-01,-5.922880903150022913e-01,-8.631429245920526627e-01,-5.697650536170926344e-02,1.931113447076336295e-02,-6.287330890096197444e-02,1.109751105308532715e+00
3.510772083361382578e-01,-6.156538043694144147e-01,-8.780904061487643242e-01,-6.842981115656408819e-02,-1.900554969379808154e-02,1.330754647227179802e-03,1.127955794334411621e+00
3.418894358288085411e-01,-7.068519951380407562e-01,-8.228093896652087791e-01,-2.293870198755531414e-02,3.582465044203986346e-03,-4.165991102003906849e-02,1.114332914352416992e+00
3.254799347284543787e-01,-6.711843802706560780e-01,-8.534645690285029840e-01,-8.556988103009625923e-02,1.143403499621934404e-02,-2.769503554606647655e-02,1.110359311103820801e+00
3.885643324475320237e-01,-6.922620763595181970e-01,-8.677012318005947744e-01,-8.403065081118068352e-03,9.939054791700076275e-03,-3.551825101106784177e-03,1.178613543510437012e+00
3.755938915405107048e-01,-7.646125571528568088e-01,-8.525594528265287853e-01,-5.963317686264302427e-03,1.895656727599043202e-03,1.122365009604101189e-02,1.186835408210754395e+00
3.463278879802591526e-01,-6.893502327543875596e-01,-8.615522850146413170e-01,-3.137822539871721467e-02,-5.010795377593604133e-03,-9.416192255704381592e-03,1.133103609085083008e+00
4.159532036506425889e-01,-7.535216827865114375e-01,-7.711919433371674515e-01,1.985471463502971184e-02,7.842757419873020797e-04,-7.923172225154305470e-02,1.186872363090515137e+00
3.596380940428413608e-01,-7.418122048552043823e-01,-6.939769326464436672e-01,-4.510279890607331310e-02,-1.345483148775588646e-02,-1.670681701362677629e-01,1.119452595710754395e+00
2.637024626250113468e-01,-6.593754971903043050e-01,-7.722563220521402316e-01,-1.166261926579598568e-01,1.080713935871913112e-01,-1.247582598861304015e-01,1.044772624969482422e+00
3.625012506529104450e-01,-7.277104420844824340e-01,-7.280083151363526683e-01,-4.448648070060864240e-02,2.518892557082247352e-02,-1.226898934874793567e-01,1.114399075508117676e+00
3.566400102193017507e-01,-7.157657577479359379e-01,-7.885314866105550546e-01,2.658221757082266778e-03,1.917457469707251061e-02,-2.650603300212579783e-02,1.112032055854797363e+00
3.605033544282666980e-01,-7.033815082178680456e-01,-8.040629977086899416e-01,-1.294931982440777202e-02,2.975312204395953643e-03,-2.538609592610532525e-02,1.118733286857604980e+00
3.433084094632316563e-01,-6.428628130969937793e-01,-7.955021124720293990e-01,-2.736649792607225365e-02,2.002102403777308859e-02,-1.319441006428252738e-01,1.096374869346618652e+00
3.369172449208713283e-01,-7.059420074025403169e-01,-7.456799919446708280e-01,-4.011296866523585136e-02,2.707590264860216395e-02,-7.239453937633272274e-02,1.073929667472839355e+00
3.636051115713101467e-01,-7.053278888689746839e-01,-7.885334598266302564e-01,-3.701008954957202973e-02,1.482887118276323551e-02,-7.559686124458435408e-02,1.122673511505126953e+00
3.545209344770700044e-01,-7.518873704405663050e-01,-8.068048518029655725e-01,2.823980472619383973e-03,5.949723002993379493e-03,-1.735988855123422100e-03,1.134925365447998047e+00
3.528344929785059980e-01,-6.531844026657264157e-01,-8.558961754858438464e-01,-5.090713074615183659e-02,-1.372854728648409579e-02,-4.161166364100375714e-02,1.127223372459411621e+00
3.565071949149493102e-01,-7.804844760547342553e-01,-8.023459752453998561e-01,2.297712647316756118e-03,3.463038473968464183e-03,-1.378982108442770990e-03,1.148103594779968262e+00
3.732000156804111124e-01,-7.556289744862474400e-01,-8.477343468392602999e-01,5.434909093219617926e-04,-4.748625373287298015e-03,6.749758984207723800e-03,1.177673459053039551e+00
3.471602010443354813e-01,-7.847715542013238288e-01,-8.562997234143980840e-01,-4.770252036835944537e-02,4.530179112231081523e-02,3.769441850718258102e-02,1.176688909530639648e+00
2.189485234712343908e-01,-7.715728567843149754e-01,-7.847353155488812071e-01,4.308041358536486565e-02,-6.559517688225045481e-03,9.898182723343001976e-03,1.000167131423950195e+00
2.682591579377017199e-01,-7.561411857634731115e-01,-7.997120490689942907e-01,7.519482494498382075e-02,-1.148036644671223891e-02,-6.176198738066665875e-04,1.055124521255493164e+00
3.666608603615486572e-01,-8.230865175389630028e-01,-7.336753948880256893e-01,7.389246339469661071e-03,1.605865680161589273e-02,-7.316207153090259138e-03,1.148135304450988770e+00
3.642543594839323662e-01,-7.576581427355328913e-01,-8.881531319938242852e-01,3.695121232075758433e-02,-2.401473308383424154e-02,3.993530635010430346e-02,1.196967601776123047e+00
2.734607314544156287e-01,-7.398102214292656686e-01,-8.035562951649655172e-01,4.377263096655843039e-02,-2.192502409599992111e-02,1.594769432217183272e-03,1.050034046173095703e+00
3.297707821631257197e-01,-7.279058958188561190e-01,-7.145449792706377590e-01,-1.719688416298936068e-02,1.287019518728138232e-02,-1.180689363338783965e-01,1.071415781974792480e+00
3.149786508803441021e-01,-7.085539305686605616e-01,-6.514008182904331701e-01,1.223962937924463236e-03,-1.046110860022180650e-02,-1.682771402187089871e-01,1.038109660148620605e+00
3.007523371276397683e-01,-8.217273753114286983e-01,-5.578687444755304758e-01,1.907617446345236806e-02,6.682283682329370755e-02,-2.284567274410929660e-01,1.097483992576599121e+00
3.546875811627381858e-01,-9.822306435259562374e-01,-5.694490574985114906e-01,1.131734378834097811e-02,4.176090542005314599e-02,-3.350928450177877160e-02,1.189482450485229492e+00
3.465882831843120071e-01,-8.056448770172246476e-01,-6.417013767412895753e-01,-4.902195159630387544e-02,-1.386826955455647270e-02,-2.743023401671131345e-01,1.182847976684570312e+00
3.566754439568899371e-01,-7.372637369461393364e-01,-7.170390907440644668e-01,-1.107012666710275803e-02,2.271581206564345784e-02,-1.168453291036532921e-01,1.103567719459533691e+00
3.523650108966410732e-01,-7.733327118622552732e-01,-8.052677046064359301e-01,1.422699764472177414e-02,2.699793248492255663e-03,-1.195234043265936503e-03,1.142277479171752930e+00
3.559348222510913540e-01,-7.634074260333858497e-01,-7.903259744464827818e-01,8.137348591280495896e-03,-2.569000380923053620e-03,2.029811578460890913e-04,1.133137822151184082e+00
3.095972083545487363e-01,-6.771204512077851900e-01,-8.114402778642733072e-01,-1.374413014924455445e-02,-9.110058527704344503e-03,9.616507720726847827e-03,1.060793280601501465e+00
3.702506742094461845e-01,-7.520244450240421985e-01,-8.152493994110503461e-01,5.420231448753785181e-03,4.020535939837366346e-03,-5.110372594917427132e-03,1.155279040336608887e+00
3.685740256744373666e-01,-8.108962788010974920e-01,-7.583692535013470959e-01,-6.750838551353549946e-03,7.246419910642678056e-03,4.120245066727737729e-03,1.154253125190734863e+00
3.299398815300212395e-01,-6.846423013204945285e-01,-8.152104865116055477e-01,-2.481213472650761753e-02,1.141061865477818911e-02,-1.173277147582263598e-02,1.086990237236022949e+00
3.210086001103271691e-01,-7.158231636920688867e-01,-8.318433181391483577e-01,-7.247448263699043589e-03,1.779130237532148065e-02,-1.756822053509635856e-02,1.100366830825805664e+00
3.382469155472823674e-01,-7.833937073105395887e-01,-6.710522046430080767e-01,3.707360374799841679e-02,5.572354567806706016e-02,6.192842232223740723e-02,1.081496953964233398e+00
3.700008842149978272e-01,-8.259037115883007818e-01,-7.175860949231810393e-01,5.440257742989175818e-03,-1.872290862677256779e-02,-3.751038630615228598e-04,1.146090626716613770e+00
3.311377828707495197e-01,-8.218981093924757619e-01,-6.367501691448742562e-01,2.944524044965311782e-02,7.891388041051575208e-02,6.280581873074368715e-02,1.087844848632812500e+00
3.339872095899186766e-01,-8.001349756617407438e-01,-6.378600265864695640e-01,1.194947040537003985e-02,-1.511687142682291820e-03,8.745751749703881139e-02,1.073269963264465332e+00
3.347404498861443756e-01,-8.581404834222153832e-01,-5.756274798631333400e-01,1.549180286956872848e-02,1.312957673499193711e-03,5.875100731005986759e-02,1.084829211235046387e+00
3.689450351388371407e-01,-8.169898747789231530e-01,-7.244158471091665108e-01,7.181256097126846941e-03,-2.111704170636308914e-02,-1.152032910422858512e-03,1.143119096755981445e+00
3.287038534614298846e-01,-6.495951747900814421e-01,-7.851397167681390954e-01,-2.648871802037272658e-03,-3.232184094977231300e-03,-1.778459923788427641e-02,1.053112387657165527e+00
3.937690309576202807e-01,-8.739637298599538529e-01,-5.482259001562874712e-01,6.327281928288117085e-03,5.519764583584157308e-02,9.696183032742373975e-02,1.156619310379028320e+00
3.664864432309379305e-01,-8.151371182915243541e-01,-6.381781007426139407e-01,1.914893053994663405e-02,-1.987533471946728580e-02,7.909914092020317589e-02,1.113330602645874023e+00
3.475400382618959449e-01,-8.093108833047200079e-01,-7.523400971633176226e-01,1.561613574657834446e-03,-3.257761835359960969e-03,5.867921170383077339e-03,1.129506707191467285e+00
3.727838360335641865e-01,-7.786217310414680348e-01,-7.763189701947179611e-01,-6.454249321248898587e-03,-3.199635802943869532e-03,-1.305842017511546667e-03,1.150325775146484375e+00
2.733530392274731713e-01,-7.662870944635735704e-01,-7.693986550201601382e-01,-1.411405822265318459e-03,1.176398639767423440e-02,5.497079227052557079e-04,1.041402101516723633e+00
3.875147300720689358e-01,-8.383084848337561956e-01,-7.595448278916813178e-01,-1.740386706701157679e-02,8.608293789001582319e-03,1.385666625201821545e-02,1.189118623733520508e+00
2.435141657811021321e-01,-8.260353240655676776e-01,-6.454765267273313567e-01,1.255935000505762483e-02,1.501520153296364256e-02,1.281768011960926837e-02,9.925036430358886719e-01
3.055792126035102863e-01,-7.821173554696863039e-01,-8.017659000124797153e-01,3.094394151392715082e-03,-1.307424335525107610e-02,1.354680304319402263e-02,1.098150134086608887e+00
3.127324528996264230e-01,-7.755326214122477690e-01,-7.711409778750701882e-01,-1.661564412237740568e-02,-5.032824253914765711e-04,2.075468996598975324e-02,1.087052106857299805e+00
7.649926368743400484e-01,-1.197942860626077577e+00,-4.854420463542091224e-01,6.785679127288262585e-03,3.527408240659069168e-03,-3.797669854226422004e-01,1.842559218406677246e+00
3.817751888096133639e-01,-8.118667719205168165e-01,-7.755204677134126534e-01,7.561365548155036566e-03,4.278755631836559173e-03,2.530557781910799942e-02,1.176802992820739746e+00
2.945478091892577144e-01,-7.940802960155464163e-01,-7.538703348307180807e-01,1.205060462836831693e-02,2.657872802303125337e-03,2.619517130860454443e-02,1.070266127586364746e+00
2.883958892484562164e-01,-8.271281392365621432e-01,-7.755336486562538489e-01,6.839612616224785731e-03,3.666132997040209146e-02,5.386476980071468884e-02,1.096529841423034668e+00
2.871585437301472088e-01,-8.040949626136890682e-01,-6.646279913166324160e-01,1.907432458915274409e-02,1.194014227121027207e-02,6.714252118443644890e-02,1.035922288894653320e+00
3.483037518534879973e-01,-7.834393876603695794e-01,-8.034349246805245759e-01,1.811342221424341989e-04,-6.246527051387308453e-03,-1.765595495256633458e-03,1.141927599906921387e+00
3.301016415741025445e-01,-7.451930970544751176e-01,-8.050491718624468440e-01,2.175512435048468710e-03,-9.030949659381608263e-03,4.224324484557454712e-03,1.106578946113586426e+00
3.382565834923039194e-01,-7.582997974746614744e-01,-7.900671626187640850e-01,9.847550260728698830e-05,5.572305403792734112e-03,1.365283581805246983e-02,1.113073348999023438e+00
2.355567565581265788e-01,-8.087485552217901219e-01,-6.806172949446576137e-01,3.643229095121796723e-03,-2.195386960054345957e-02,-1.391268775528242858e-02,9.875472187995910645e-01
3.587597412914975692e-01,-7.989508493079496843e-01,-7.061343767417038730e-01,-1.840529477091254820e-02,3.996354259303945555e-02,-4.964379629309757791e-02,1.120113849639892578e+00
3.452509394269717702e-01,-8.059719420525415234e-01,-7.047141031867067973e-01,1.181763008991464862e-03,4.667102496948626576e-03,-3.544518277136403384e-02,1.105818986892700195e+00
3.689396111449111393e-01,-8.293548402995760682e-01,-7.027589086810289709e-01,-7.331062168782208864e-03,3.150373141547558459e-02,-4.202713794274565151e-02,1.143973112106323242e+00
2.896724079519834016e-01,-7.913806828004631422e-01,-7.456839258576221097e-01,-4.418997351468133272e-03,-2.091036108960320564e-02,-7.740927887290832698e-03,1.059676051139831543e+00
3.610724604157282691e-01,-8.054371076138312491e-01,-7.546344951695911352e-01,6.793973891779387340e-03,-6.514327666125375657e-03,-1.343370342147696440e-03,1.142074823379516602e+00
3.312553572517686895e-01,-7.996351272680951583e-01,-7.444715787082190062e-01,6.472400555678867184e-03,-7.556325744573745562e-03,-2.214473150021976835e-03,1.104483604431152344e+00
3.373450270747082591e-01,-7.967804737718086061e-01,-7.733870267694223921e-01,6.331770178125932860e-03,4.836812906418522934e-03,-1.647352997845865979e-03,1.122700095176696777e+00
3.500847290279400781e-01,-7.748816649396974565e-01,-6.767001592340787797e-01,-1.493323586208933698e-02,1.021593567433303797e-02,-1.144934726842967987e-01,1.097746133804321289e+00
3.208042800767852976e-01,-7.498182319320247924e-01,-6.683318933713141563e-01,-2.089842181003542625e-03,8.355489804458911176e-04,-3.094527334613244099e-02,1.033692121505737305e+00
3.152991130819722265e-01,-7.979968073094093617e-01,-5.940046141364249133e-01,-1.525953444157394229e-02,2.395721256570844046e-02,-8.383875067805401926e-02,1.038000106811523438e+00
3.081960945696333720e-01,-7.789592322648781764e-01,-7.684873771195250836e-01,-2.569959869080825667e-03,2.006714185335085887e-02,2.567302811327049853e-03,1.082533836364746094e+00
3.325333406825430327e-01,-7.287179611833765058e-01,-7.409580209305282050e-01,4.816004432586380160e-04,1.234190243135071781e-03,5.962535115336838748e-03,1.067476391792297363e+00
3.216848822360731108e-01,-8.034669748927589783e-01,-6.192862265568483959e-01,3.388210404595922744e-03,1.109296935024087216e-02,-4.442731481424203044e-02,1.048323869705200195e+00
3.195433513370862788e-01,-7.979251921864773944e-01,-6.195911679658412385e-01,-1.830355728699252157e-02,1.234428045152162479e-02,-4.542254113165075657e-02,1.043507575988769531e+00
3.306874565370759300e-01,-8.006381490564647985e-01,-6.284337301504965279e-01,1.173045676050974567e-02,8.301490043995140775e-03,7.098346185330492442e-02,1.063234806060791016e+00
3.224442568726126335e-01,-8.028350451612271677e-01,-6.159248971832377295e-01,3.121563590406673579e-03,1.133902284348558068e-02,4.747200616780616889e-02,1.047873377799987793e+00
2.865111282315645491e-01,-4.047916565903865171e-01,-9.438915280276122255e-01,1.072958980105982452e-01,6.488109187686549872e-02,1.797084564298240261e-01,1.133693456649780273e+00
3.349429111966163997e-01,-7.450292428104445808e-01,-6.845438427066108389e-01,1.627471731233337895e-02,3.576464498679460258e-02,9.444180396741548578e-02,1.065863728523254395e+00
3.144900550811299822e-01,-7.426005789605476526e-01,-6.730219429748075521e-01,1.333013411386595008e-02,1.890783540233908436e-03,2.971867164349457219e-02,1.025633573532104492e+00
3.306276304583120607e-01,-7.524034636991407954e-01,-6.960430324441899685e-01,2.404789898253708452e-03,-2.616508056503656816e-03,6.494452377693227252e-02,1.061971783638000488e+00
3.282181530662439117e-01,-7.429109781501817000e-01,-7.110480556233780280e-01,1.766139866354512686e-02,-5.640163575204279510e-04,-1.153028628869040909e-02,1.056190848350524902e+00
3.319739615680166733e-01,-6.781291548131194169e-01,-7.474175722953928513e-01,-1.080674002575252035e-02,-2.218536389984744270e-02,1.215712976429716569e-01,1.068299293518066406e+00
3.296028217753917411e-01,-7.316990363673230302e-01,-7.123139819488355506e-01,-1.656686375142426768e-02,-2.003250252068796908e-02,8.473200279377866850e-02,1.062887549400329590e+00
3.097166808940391425e-01,-6.762570317547341725e-01,-7.097804403753702474e-01,-2.760881362166294622e-02,-8.151394744589347818e-03,4.942875630698530948e-02,1.008036136627197266e+00
3.493341566480955840e-01,-7.311980379142795083e-01,-7.578017983822311621e-01,-8.251701850797987792e-03,-1.488324186914548319e-02,3.672246931721048768e-02,1.096320271492004395e+00
3.341257405702333094e-01,-7.506650850227668537e-01,-7.167730417548821009e-01,-1.020546804536367862e-02,-2.230232796295374478e-02,3.406866701718259255e-02,1.070719718933105469e+00
3.524487457003160351e-01,-8.057873935917325703e-01,-6.785485175411190006e-01,-1.068047740574776944e-02,-1.557510340991590664e-02,4.004016847656376860e-02,1.102818012237548828e+00
3.592628841798222172e-01,-7.508231955097735000e-01,-8.103078480593837174e-01,-1.384855969105300635e-02,-1.131093188670118099e-02,-6.622529568273987158e-03,1.141469836235046387e+00
1.602860478962118695e-01,-7.249926833136071114e-01,-7.847700349251751639e-01,-5.484668111371951210e-04,9.428061825043734454e-03,5.923927352393902959e-03,9.168338179588317871e-01
1.737611516152175462e-01,-7.174808161480343838e-01,-8.949400032418544093e-01,-1.149400498626240441e-01,2.451738646973668570e-02,-3.188219409972537638e-02,1.014124989509582520e+00
3.470491819572196768e-01,-7.884192954380011553e-01,-7.696600763343897089e-01,-4.267659932874361996e-04,9.376250314778372674e-03,2.996796572883923815e-03,1.126335382461547852e+00
2.552751022725295305e-01,-7.324219184525440074e-01,-7.700407400976496675e-01,-1.854176529721903582e-02,-4.158747367285016601e-03,-2.808856488899833144e-03,1.007583022117614746e+00
1.910752010276229318e-01,-7.687227262707849729e-01,-7.485983794671946523e-01,-6.671292665952810452e-02,9.080425472988037233e-03,8.759010347045105560e-03,9.571473598480224609e-01
2.271397017621072933e-01,-7.676746735067978555e-01,-8.143779548143650349e-01,-6.011201102632090371e-02,-2.051547857933280761e-03,-1.262439787781973084e-02,1.024514079093933105e+00
3.390044250314842578e-01,-7.073672364794942879e-01,-7.607175692026413305e-01,2.100206251521508777e-02,2.227887601211581484e-02,3.823022685127024090e-02,1.077386260032653809e+00
5.951099165023403526e-01,-5.304424670073947246e-01,-1.294681700920025769e+00,-8.845006882840966006e-03,6.774756853105691826e-03,-3.626030091652260867e-01,1.762366652488708496e+00
3.382915706324566285e-01,-7.152108805234651534e-01,-7.511601366174380789e-01,2.178763856650951444e-02,2.323072892520457872e-02,1.995642562563096703e-02,1.073904275894165039e+00
3.765747035649558150e-01,-7.155679231714564548e-01,-8.151166708608188483e-01,4.300870402494918338e-02,2.773494773089788326e-02,1.221811401187811348e-02,1.148787021636962891e+00
3.514344789433284655e-01,-7.509995117055842107e-01,-7.452305677307236031e-01,8.996307036907895405e-03,1.089246811719024079e-02,1.512648057770089871e-02,1.100145101547241211e+00
3.247218449212815328e-01,-7.834505140738392548e-01,-7.736009775750465334e-01,-4.194918509659792405e-03,-7.512038991785420679e-03,-6.037622442340020382e-04,1.103381752967834473e+00
3.075439514506600469e-01,-6.554450080810286794e-01,-7.233088629192492292e-01,9.940186206632790900e-03,1.856687566028058026e-02,9.565302523256356826e-02,1.012958288192749023e+00
3.203012928073076249e-01,-6.676477991590923367e-01,-7.463849048878661296e-01,1.313048608297994434e-02,1.353558258798608430e-02,7.013789704794651247e-02,1.037234783172607422e+00
3.180586095956495774e-01,-6.192885339641918119e-01,-7.880861274322273902e-01,6.765493108590140379e-03,-1.085063010012137300e-02,-1.321382766405447551e-01,1.057452797889709473e+00
3.153488588123385394e-01,-7.675307269778275376e-01,-7.209035859944952218e-01,3.589708447203369263e-02,-1.223877048312947691e-02,-7.023819789689395021e-02,1.069311022758483887e+00
3.407873467586216565e-01,-6.622997726958947950e-01,-7.435108281064432001e-01,4.515604425307005731e-02,-3.114022326842140129e-02,-8.625370555469960565e-02,1.060936450958251953e+00
3.228028202457687290e-01,-6.918493053168980333e-01,-7.375594433243553016e-01,1.298046768441962588e-02,-1.148265866032578165e-02,-6.616745735254896121e-02,1.044999361038208008e+00
3.617461039932244882e-01,-7.505458954035478802e-01,-7.973460283439143259e-01,6.815569755941872088e-03,-1.914538589537108501e-03,-3.828419743370967110e-04,1.136481404304504395e+00
3.877709115004080442e-01,-6.954483871940901896e-01,-7.661357693741435160e-01,6.026208351995940293e-02,-5.290843173934432764e-02,-2.148027067684636082e-01,1.188546895980834961e+00
3.655875988659010312e-01,-6.743120137214914100e-01,-7.276616684287079417e-01,6.572837873332054714e-02,-4.995501403444269073e-02,-1.508503543641373790e-01,1.108345746994018555e+00
3.256214948761058103e-01,-7.156157751823076785e-01,-7.456010375146732150e-01,4.284670559006588386e-02,-2.064946377432174199e-02,-1.348287026588554927e-01,1.085181593894958496e+00
3.306844682518380041e-01,-8.485516377104002084e-01,-5.647519110443640633e-01,5.288099604686959457e-03,-1.488086324604677782e-02,1.179214390977229715e-01,1.085788965225219727e+00
3.717372749392350850e-01,-8.915958964206589510e-01,-5.312492759517429830e-01,-3.554269757658379963e-02,-6.528804579529949581e-02,1.668464941422144743e-01,1.170774579048156738e+00
3.471162112042208703e-01,-9.031853059089660629e-01,-5.365200944806198802e-01,-9.645191115314304120e-04,2.189028484936858879e-02,4.862161736046424765e-02,1.117044210433959961e+00
3.717558762482154333e-01,-8.083081932451814389e-01,-7.428719180884040263e-01,1.545061476101069337e-02,1.051366804241538576e-03,-7.247935193860984178e-03,1.149126291275024414e+00
3.309009604067151833e-01,-8.427643164721827507e-01,-6.044950635435404340e-01,-2.016013363265839117e-02,-1.526018397586878864e-02,3.599273082893073017e-02,1.077227234840393066e+00
2.935469238579419549e-01,-8.593419208091024331e-01,-5.444206158906448323e-01,-6.338493345902842559e-03,-9.566522899870625110e-03,4.479071923429649854e-02,1.035216212272644043e+00
3.335432035592738043e-01,-8.015890353274741642e-01,-6.548734278712509127e-01,-1.550627657663021172e-02,-2.033767516542953763e-02,6.919328752041623010e-02,1.076956033706665039e+00
3.616187629948212634e-01,-9.035813452718344241e-01,-5.853205614531188372e-01,-1.103634378504140222e-02,-2.482334144855576075e-02,4.924801856252211674e-02,1.144048810005187988e+00
3.669597771581423751e-01,-8.878680926951456609e-01,-5.588935333087476920e-01,-2.957592519557648847e-02,-5.364762521875405393e-02,8.485192649081663152e-02,1.141432762145996094e+00
3.213140586119542785e-01,-7.989130030452897824e-01,-6.399211117469911780e-01,-7.805916107400568890e-03,-2.137201012492207300e-02,5.625458757068751287e-02,1.055048346519470215e+00
3.763326969696844659e-01,-8.260715854221978294e-01,-6.918059861745353700e-01,-2.070975769069769573e-02,7.598185628536109626e-02,-9.513976992144483613e-02,1.161086916923522949e+00
3.343992623982042778e-01,-6.369799189361402547e-01,-8.199707016680779503e-01,-6.891394909079611407e-03,-1.458471278181996088e-02,-9.830258627411315314e-03,1.075121879577636719e+00
3.337398721577677918e-01,-6.359376350142579293e-01,-8.200092153545327500e-01,6.156383263058550284e-03,1.162602667563966338e-02,-1.382829724741979453e-02,1.074122786521911621e+00
3.535451861522529993e-01,-8.209203000775547876e-01,-7.177303003993218411e-01,-5.318188155639306733e-03,1.628072536480320090e-02,-6.481649195470612357e-02,1.132390260696411133e+00
3.527478206898886914e-01,-8.085281831739790093e-01,-7.775657564744773431e-01,-2.713230514486699926e-02,2.419305484892231642e-02,-5.402747003870384673e-02,1.151644945144653320e+00
3.806807379005549552e-01,-7.799660806398608370e-01,-7.243170122548852063e-01,-7.072371086433007492e-02,3.040657681885393371e-02,-1.513036320739248874e-01,1.171352386474609375e+00
3.713208765160327385e-01,-7.655464627264805255e-01,-7.879631208647340790e-01,-9.017447391872222872e-04,1.114538073295730757e-02,-2.066144556038257765e-02,1.148960590362548828e+00
3.239938137971747345e-01,-7.516914211395895329e-01,-7.251159201496568674e-01,-3.003858196597092647e-02,3.062283321967502331e-02,-5.803826983873512646e-02,1.069973707199096680e+00
3.784009821634265469e-01,-7.410160287284137670e-01,-7.728875267005781424e-01,-2.105361944832582002e-02,2.876337042373122016e-02,-2.686239853478830653e-01,1.228851556777954102e+00
3.666923521646707762e-01,-7.887053394455992850e-01,-7.473797159113297894e-01,-1.486862840183327851e-02,6.050939975123330317e-02,-1.793369279500333924e-01,1.181963086128234863e+00
3.280896342279243649e-01,-7.439176032280543360e-01,-7.959782779671611408e-01,-2.026221177002425228e-03,-2.824210727770905781e-03,-1.386959758553023888e-03,1.098981976509094238e+00
3.194843327483211093e-01,-6.784750290252976601e-01,-8.124449576871963785e-01,2.786347618325409059e-02,-3.291367648978006655e-03,-2.616065334882664451e-03,1.072356939315795898e+00
3.610114885267602935e-01,-7.177884725247372089e-01,-8.671417586534153621e-01,-3.429788854454229180e-02,8.851833441156498408e-03,2.308220168309504244e-02,1.163013577461242676e+00
3.438306847297685764e-01,-7.754765839407733452e-01,-8.008902481888906522e-01,-2.003354374177735396e-03,1.033788532578402974e-02,1.173726638397846675e-03,1.132376790046691895e+00
3.303862965967036547e-01,-7.165154414838075247e-01,-7.354467256993131308e-01,6.283662245703111257e-03,-3.487561718893454014e-03,3.620739930771200293e-02,1.058427453041076660e+00
3.423097335121325080e-01,-7.610904906392252922e-01,-7.174362645653992177e-01,1.580564700520989060e-02,2.344156057357541303e-02,6.126376790002776088e-03,1.083392977714538574e+00
3.190871268663291183e-01,-7.817860150858957358e-01,-6.503084964090958264e-01,2.456716223513395053e-02,2.920565833707457551e-02,1.563345403917458520e-02,1.043825030326843262e+00
3.628819662713637095e-01,-8.105763887809350754e-01,-7.055299036717432859e-01,4.642921338216961236e-02,4.345612280088623908e-02,9.746250377649577634e-02,1.142541408538818359e+00
3.162160723345396884e-01,-7.851435822267480713e-01,-6.264260657700622126e-01,1.988395041570207092e-02,1.443268968336147012e-02,3.308404747965905390e-02,1.033670186996459961e+00
3.404654401509540906e-01,-7.851613419466558774e-01,-6.739180171258487562e-01,1.243335265284739935e-02,2.193513747663152630e-02,2.814045979935119943e-02,1.076324820518493652e+00
3.386426651212747774e-01,-7.132073172370594349e-01,-7.598871993589706442e-01,1.571666581654645881e-03,1.543975326524408762e-02,-6.890176930013183244e-03,1.076351523399353027e+00
3.620703483061947781e-01,-8.083401609789828690e-01,-7.532859838000197650e-01,-4.298503677488181400e-03,-7.605609636657979095e-03,-7.150618536699322866e-04,1.143978238105773926e+00
3.626293733195392610e-01,-8.375980375389967536e-01,-6.447870524519807578e-01,2.131941037898350474e-02,6.878085430895078400e-02,6.250797857197755436e-02,1.128531217575073242e+00
3.488139719479771417e-01,-8.063887158998384042e-01,-6.854499647089009606e-01,-1.340347134103870783e-04,-3.365775739436045483e-03,4.619221692177153532e-02,1.102653980255126953e+00
3.603037403752449297e-01,-8.087697518913955497e-01,-7.344967055141178314e-01,-7.363910094544855872e-03,1.479026307774766735e-02,-8.377357731607911612e-03,1.134217023849487305e+00
3.376488356801057300e-01,-7.926992639358558801e-01,-7.095547837189247753e-01,2.257579545616079236e-02,3.282851807538023775e-02,2.159480096258489107e-02,1.093973875045776367e+00
3.624484907550357682e-01,-8.039983889384332283e-01,-7.552392707007131722e-01,1.203447997035682684e-02,-4.880939644361723638e-03,8.284085752531497246e-03,1.143159031867980957e+00
3.475527037727687008e-01,-7.949866311711596412e-01,-6.946336428499089166e-01,1.072079239154015776e-02,5.417885515927308576e-03,4.464029189031585437e-02,1.098735928535461426e+00
3.508962229768176067e-01,-7.888473131898479096e-01,-7.505582450396535155e-01,2.246978944940771980e-02,3.214155513342430159e-02,2.970676482253306605e-02,1.124323368072509766e+00
3.077829712313365773e-01,-8.270039981319052824e-01,-7.866934517972112850e-01,-1.040780362838122745e-02,2.924677819140293622e-02,7.887713752437673642e-02,1.124801516532897949e+00
2.741223573678584491e-01,-7.710123866411875415e-01,-7.428012894327222781e-01,1.446707525137349085e-02,1.661326781664892657e-02,6.762543132434890511e-03,1.032090663909912109e+00
2.847271598682407645e-01,-7.752468332956737873e-01,-7.708877954071496896e-01,8.367938158260328566e-03,-8.864936647912338707e-03,-7.772463563182674395e-03,1.058097600936889648e+00
1.717087903780498137e-01,-7.566717230250632475e-01,-7.494966979103044880e-01,1.791752555663754173e-02,6.373148626833356756e-02,1.361101695684640428e-02,9.321935176849365234e-01
3.304310385669574357e-01,-7.878134558971554569e-01,-7.883442826633364486e-01,2.978332662490285054e-02,-3.312934749091206183e-03,6.489161650774346972e-03,1.119770050048828125e+00
2.971014867047300778e-01,-8.504064158015527397e-01,-7.680409981281610676e-01,-1.251593064477206016e-02,-1.600248934795698436e-02,2.514713372897970506e-02,1.110035538673400879e+00
1.748276112199185217e-01,-7.840010753019859280e-01,-6.939439222404315544e-01,2.113685630768917176e-02,4.156580487374694072e-02,3.138293075970764300e-03,9.206879734992980957e-01
2.944106827797311476e-01,-7.818016388422599494e-01,-7.919909877372542928e-01,-6.225834110494610218e-02,-2.058222563593314902e-02,1.159188705302614461e-02,1.087476372718811035e+00
3.514576724513167605e-01,-7.505308399558203725e-01,-8.440543547256971202e-01,2.131210852741636987e-03,-1.420009057655434795e-02,2.888077827849543783e-02,1.152956247329711914e+00
2.740897170425145024e-01,-6.732296358272578107e-01,-8.870498786094871413e-01,-9.008838189827460263e-02,-1.320911424175777102e-02,1.503539682069700333e-03,1.081927537918090820e+00
1.283814840084163134e-01,-7.497882081012046118e-01,-7.490429669752129982e-01,2.149944443316691503e-02,-2.885858625420967272e-02,3.357326719601462506e-02,8.819267153739929199e-01
1.320516352141423155e-01,-9.780241162243129560e-01,-2.643670813752688753e-01,3.998859500178354731e-02,4.711790217684477117e-02,-1.975157384964167928e-01,1.038198471069335938e+00
3.525137852722329823e-01,-9.963629323225475787e-01,-2.025304751527141345e-01,2.975927922347081089e-02,-9.182576011896284585e-02,-2.568753904087248477e-02,1.186923980712890625e+00
3.238243397624344100e-01,-9.533922911015892954e-01,-4.660080974463830517e-01,1.370978400775184651e-03,1.397126241440382714e-02,-9.128187052548475400e-03,1.116768360137939453e+00
3.615280726655781818e-01,-9.128536051020071929e-01,-5.830445062159645975e-01,-2.146666128733751722e-03,1.541524315933611236e-02,-2.899760690760376167e-02,1.147069931030273438e+00
3.858303226027420263e-01,-9.390802790055929883e-01,-5.549837720080290637e-01,6.473203929602653825e-03,3.110095282163851185e-02,-8.787673758870000185e-02,1.191729545593261719e+00
4.067183367432087859e-01,-9.922723283950142248e-01,-5.418665409006069300e-01,-2.521662299373338828e-02,1.390063831618059895e-02,-1.330235877213568618e-01,1.259166359901428223e+00
3.359350406031286207e-01,-5.984628717749718163e-01,-8.311297629681200227e-01,-5.800519570495684188e-03,-5.994068669756818547e-03,9.492467409180485594e-02,1.082533001899719238e+00
3.335133873011434935e-01,-6.152359060921539502e-01,-8.013999646057952120e-01,-3.401937760137103972e-02,-5.190943761309091409e-02,2.333555021009444397e-01,1.134162902832031250e+00
3.161973705190911921e-01,-5.991278576948343426e-01,-8.038551902958614992e-01,-1.129222384360272120e-02,2.744176410571106273e-03,1.029297611710609378e-01,1.048481941223144531e+00
3.471478383342839202e-01,-7.619376016109997707e-01,-7.864449610658335033e-01,-1.052455708500506411e-03,6.639730355355612929e-03,1.680287861368756630e-03,1.121604204177856445e+00
3.382656458902723595e-01,-5.845125306782485985e-01,-8.064686679520163270e-01,1.434782948087086688e-02,1.071290481250253973e-02,1.312854276965216282e-01,1.076229453086853027e+00
3.491112537388416093e-01,-7.162748675146566324e-01,-7.442944620121560995e-01,-3.291194787774853053e-02,-3.296478983294881537e-02,9.969665928093701668e-02,1.096363186836242676e+00
4.188012402910995524e-01,-7.041257301354683085e-01,-6.691313394818916294e-01,-1.712301786488536898e-02,-9.635770269513166397e-02,1.938689187704635275e-01,1.168068051338195801e+00
8.255809777365774593e-02,-8.035735298203638965e-01,-7.775673109044081155e-01,-3.992061957341003220e-02,1.422442970738324423e-02,7.137149985623792402e-03,8.765851259231567383e-01
1.232460501815647036e-01,-7.335636197400685621e-01,-7.376608512258135963e-01,1.495895650236186633e-02,2.943649920195181430e-02,-3.773878184224755718e-03,8.607924580574035645e-01
-1.804830590952971603e-02,-7.092048887523079159e-01,-7.013590449392663739e-01,-2.139568367820322142e-02,4.412590635491103405e-03,1.133261900430103299e-03,6.883108615875244141e-01
6.243377949616402134e-02,-7.087526058301482079e-01,-7.896713366942101908e-01,-3.981315508252162606e-03,1.873423880859260288e-02,3.036954892969163933e-02,8.170355558395385742e-01
3.157119310767785847e-01,-7.756207310832261559e-01,-6.294445637664094484e-01,-2.987482591704830603e-02,-3.976462367172982348e-02,1.435883380834143130e-01,1.059302449226379395e+00
3.791577645768530735e-01,-8.228805033474897446e-01,-7.446757507389858421e-01,4.463785001504722190e-03,-3.030842275852951850e-02,1.796220832487296221e-02,1.166529178619384766e+00
3.517501064438072200e-01,-7.931615189936375154e-01,-6.870174192370551713e-01,3.815441809033951956e-03,3.510060214939658696e-03,6.599010237412797353e-02,1.101684331893920898e+00
3.597959960534860002e-01,-9.703505502067437671e-01,-4.981853545952361073e-01,-1.850914466396019406e-02,-1.304698544141087192e-02,1.238471492576146277e-01,1.188163995742797852e+00
3.518500311154900140e-01,-9.132152165254676657e-01,-6.055845287472205740e-01,1.240478270734539715e-02,-6.036737740464401952e-02,5.508158233299438773e-03,1.147753953933715820e+00
3.562661083240254989e-01,-8.131123114743581404e-01,-7.670422796685330002e-01,-3.099363900808899748e-04,-2.253830120930284259e-02,7.327026990002165688e-03,1.147771835327148438e+00
3.292150981341959715e-01,-8.123889325672981609e-01,-6.965681796625100564e-01,-2.185998401460312324e-02,3.335561729737053678e-03,1.183433669676017775e-03,1.089001297950744629e+00
4.093093559749899080e-01,-4.838693655464448296e-01,-9.371786261187726730e-01,3.721723379302897816e-02,5.727958760156486029e-02,-4.909376708063172279e-01,1.464650630950927734e+00
3.361155262253537335e-01,-5.505530059961760703e-01,-6.540703512454996149e-01,-6.286165756972167395e-02,4.767574992426384939e-02,-4.135222246445174332e-01,1.191787719726562500e+00
3.860923746886712471e-01,-4.949482480706656751e-01,-8.739199279536309373e-01,5.294713220747739729e-02,-5.306049723563831255e-02,-2.811767113150421826e-01,1.227916598320007324e+00
4.202072642772913258e-01,-4.627760567496037591e-01,-8.160750839219501618e-01,-2.583125052204003624e-02,7.054507012632479923e-02,-3.798638822796153169e-01,1.290836215019226074e+00
3.363287900822622412e-01,-5.485434001597446763e-01,-8.185767534389755129e-01,-3.064800337803357672e-02,-5.776908902193412729e-03,-2.280432599944833272e-01,1.119728088378906250e+00
4.206995923427800377e-01,-6.632070532292488885e-01,-8.227079503007339589e-01,-8.257106792211312343e-03,-5.625755542314622541e-03,-2.255493340393786572e-01,1.235352277755737305e+00
4.329991743963785833e-01,-6.821284467500660087e-01,-7.991130895320426308e-01,-5.306171353671821148e-03,-5.914397332041707554e-03,-2.575653724496181352e-01,1.259705066680908203e+00
3.407569065168634670e-01,-7.330705496728054937e-01,-7.843365439373786163e-01,2.312496846997620648e-02,2.672764216508905985e-02,2.474868916287021464e-02,1.102891325950622559e+00
3.398854415794375083e-01,-7.625575184922295247e-01,-7.550949969295466246e-01,2.668255234614450369e-02,1.415354619229123798e-02,5.094674194491911889e-02,1.103509306907653809e+00
3.758233371833930025e-01,-7.711580703686113925e-01,-7.939918869782025546e-01,1.551437808357204913e-02,6.504457626264026696e-03,4.009894701808876922e-04,1.158933639526367188e+00
3.721366341016367763e-01,-7.738035849342899120e-01,-7.842066343726463717e-01,2.816976809852726987e-04,3.416011223689522508e-02,1.550723537871149735e-02,1.153009533882141113e+00
3.628971192523535172e-01,-7.609094681353385514e-01,-7.939191111564289915e-01,4.530990579647930713e-03,3.957213632719712351e-04,-5.843219927372839302e-04,1.140697360038757324e+00
3.561214784290606672e-01,-7.897277095578019157e-01,-7.709087982574412967e-01,-1.510926481802771400e-02,7.664518377234098498e-03,-1.355044599806075507e-02,1.137177586555480957e+00
3.635218084240613989e-01,-7.793838420374820108e-01,-7.668003741589038968e-01,-3.038110886919897016e-02,3.174127998988453270e-02,-5.270276427664962599e-02,1.142862319946289062e+00
3.768287052705889262e-01,-8.024590921946068711e-01,-7.798322741346552789e-01,-1.521268703187485553e-03,2.495080335609633007e-02,-2.254304193958506577e-02,1.169592738151550293e+00
3.594585980888132526e-01,-7.738097351222668063e-01,-7.543450427943854120e-01,-9.160171640151863748e-03,1.327457179253021743e-02,-6.410706680434326288e-02,1.129480719566345215e+00
3.286301361462938275e-01,-6.921121089218384981e-01,-7.402444312966076634e-01,-2.928712799761652025e-02,2.226491715328091786e-02,-1.255719871530226461e-01,1.069919347763061523e+00
3.629306292515818155e-01,-8.670888196171493423e-01,-6.423618101133801161e-01,-1.342047779764191963e-02,4.865796184566253957e-02,-1.576604365465052449e-01,1.170147418975830078e+00
3.838919881973828496e-01,-7.517872355115728933e-01,-7.352145490512326242e-01,-7.968077775391339823e-02,-4.329887862572320140e-03,-8.390558483553298141e-02,1.145183205604553223e+00
2.081963577314975833e-01,-7.193346700688099116e-01,-7.721940176117468857e-01,-1.241274152175734537e-02,-2.110871360056839480e-02,-3.026435601580225801e-02,9.574358463287353516e-01
2.065942440434180294e-01,-7.616180761692619150e-01,-7.950472396223245974e-01,-2.015124891731961965e-02,-8.132283076363698918e-03,-1.037353353643977356e-02,9.862345457077026367e-01
1.581187376354488139e-01,-7.419336526742422722e-01,-7.809322372596754214e-01,-1.270700057559609290e-02,4.036836073929949559e-02,6.319228615785408643e-04,9.230874180793762207e-01
2.111467812701978142e-01,-7.092576280746745176e-01,-8.636974079155892436e-01,1.441093291001933549e-03,4.219371939775505564e-02,-5.442772947405073725e-02,1.013596177101135254e+00
1.463062310553014389e-01,-7.198542975426903689e-01,-7.828028087004081925e-01,2.764279996912619858e-02,-3.426305487741541922e-02,-2.382414480708824975e-03,9.025250077247619629e-01
3.630631479726687538e-01,-7.532010406397057212e-01,-7.981620857750848508e-01,7.785035120513580985e-05,7.464973384593603239e-03,7.724005187691691332e-04,1.139484405517578125e+00
2.075576426960989429e-01,-7.349595560084616341e-01,-7.892697885587940387e-01,-4.499257741392401200e-02,1.020549993647062325e-04,-9.855390262957376690e-03,9.740847349166870117e-01
2.445877232417625891e-01,-7.427172217589617098e-01,-7.700884234810356777e-01,2.850522271791460990e-02,-4.335925551591604879e-03,-3.668650480357159294e-03,1.002535939216613770e+00
2.627818803261975367e-01,-1.128659421493521942e+00,-7.790099008719655327e-01,-6.690630814474384132e-03,1.720725995859953561e-02,1.050606170047143767e-01,1.267273664474487305e+00
3.296633485777762940e-01,-7.766845757007864171e-01,-7.767787150842049293e-01,-7.702080139067818063e-03,6.413061768571646712e-03,5.505511288470426624e-03,1.106572270393371582e+00
3.196280850037646060e-01,-7.715977443157084892e-01,-7.841524903668984914e-01,2.118605184687135778e-03,2.574567992850382032e-03,-1.590208689020789553e-04,1.097572326660156250e+00
3.452690498045234424e-01,-7.674586568205428172e-01,-7.988450531726918324e-01,-4.009987894018712806e-02,-1.799792528388885135e-02,1.099194197718295074e-02,1.131472826004028320e+00
3.650066728128454341e-01,-7.742354512128628574e-01,-8.005002561056835386e-01,-3.643710234191414616e-03,-1.874442424360086819e-03,-2.947779762213378549e-03,1.152632117271423340e+00
3.403905355811013278e-01,-7.477717593072616964e-01,-7.978805274714069196e-01,-3.668417215474667394e-03,-3.565339787389178432e-03,1.466558399571430381e-03,1.114100337028503418e+00
3.672777095227066635e-01,-7.548400091237090770e-01,-8.039922582524805517e-01,8.596431767231181229e-03,1.404260813915864884e-03,-2.438808839507734805e-03,1.147590637207031250e+00
3.394627118662834064e-01,-7.496544621478871129e-01,-7.987638857971348649e-01,-6.504880621162372617e-03,4.959556297938924781e-03,7.895312111906182054e-03,1.114657640457153320e+00
3.545078450048486651e-01,-7.799657509111487252e-01,-7.971006211306124190e-01,1.795694664267168204e-03,2.347525472798997481e-03,3.714264527448492541e-03,1.143166899681091309e+00
3.541403872726590629e-01,-7.827298046479082005e-01,-7.707484980023759924e-01,4.113494605936566205e-03,4.213298362226355551e-03,-2.833067630445680021e-04,1.130973219871520996e+00
4.019380089119541366e-01,-1.026212462599578989e+00,-5.543424583137400719e-01,-2.047869030818412830e-02,-1.351099896515027890e-02,2.532616482604252081e-02,1.261785864830017090e+00
3.303239471313046960e-01,-8.115873922025975684e-01,-5.412449599041524451e-01,-5.771707302030578551e-03,3.592342562975899684e-02,-1.467601488186765779e-01,1.066267490386962891e+00
3.619589093521561884e-01,-8.224989695494395736e-01,-6.219385956524086101e-01,-1.337671339465421397e-02,2.417914201043743633e-02,-1.221238803698545261e-01,1.119215369224548340e+00
3.267000243025084405e-01,-8.000012380246550592e-01,-6.356995330735799588e-01,1.435502970379137246e-02,-6.705507604743620939e-04,-1.122000420334156867e-01,1.072249054908752441e+00
3.267770709218075220e-01,-8.488458505868894388e-01,-5.703561189939290177e-01,-1.357104044285075556e-02,-1.200304497440092891e-02,-8.231969079911560794e-02,1.074039697647094727e+00
3.312701886573372612e-01,-8.595794748113436690e-01,-5.143844393985457231e-01,-2.344721102177767941e-02,5.738440686904636157e-02,-1.284339072226116929e-01,1.089596748352050781e+00
1.330649045966827426e-01,-8.598192341195012300e-01,-7.617603696764057020e-01,4.730062815002906984e-02,6.161586789481360987e-02,6.570320258594651575e-02,9.639116525650024414e-01
1.537541165429024415e-01,-7.466186447158215111e-01,-7.481605727640907588e-01,5.368195716844864629e-02,2.595074516881747465e-02,4.822665368197501419e-03,9.070816636085510254e-01
2.047101933545230623e-01,-7.823133412424334576e-01,-7.873335307781382797e-01,-2.312163465556000067e-02,3.233444188597414670e-02,-3.364839937533414815e-02,9.936462044715881348e-01
1.488101572454438304e-01,-7.653063203420094052e-01,-7.213059616238366445e-01,-1.780697090839790733e-02,7.475061668650584412e-02,1.034139971865028233e-03,9.027962088584899902e-01
8.557020008466020844e-02,-7.261829197001596903e-01,-7.311529741159683571e-01,-7.131214891462800583e-03,1.684435385518802050e-02,-1.789574841028642894e-05,8.148656487464904785e-01
3.658454051117885908e-01,-7.828267062360881878e-01,-7.736257621497120152e-01,-4.110401932781509657e-03,3.546949972855005951e-03,-1.406230692669193554e-03,1.144140601158142090e+00
2.064027858089166889e-01,-7.824302350718798094e-01,-7.997240726162420099e-01,1.871779630249068363e-02,1.286471092063694484e-02,2.104440008756866543e-02,9.990329146385192871e-01
3.742391367646362155e-01,-7.784324862336248207e-01,-7.779442321543896810e-01,7.818197976148689044e-04,9.033434834591044269e-07,1.923807891156055939e-04,1.152428388595581055e+00
4.233086805993563351e-01,-5.398326315550131538e-01,-9.979517597640662485e-01,-2.275739563342789318e-02,9.990663136022950169e-03,7.702006962151533576e-02,1.264277338981628418e+00
3.720744757769059441e-01,-7.082655649134974585e-01,-8.572847044831196639e-01,-6.220768334215075884e-02,1.563135373052745598e-03,1.675846267518372318e-02,1.167386770248413086e+00
3.692740772147043438e-01,-5.210272107710205436e-01,-9.184838919541418178e-01,-6.685304213834691867e-02,-1.052174195842551022e-02,2.856904272358420926e-03,1.148141503334045410e+00
3.635505441485791800e-01,-6.559528810415571343e-01,-8.629197552923144610e-01,-2.089676364411696566e-04,6.880701818475653923e-03,7.075478645298839686e-02,1.143847346305847168e+00
3.387854398747913720e-01,-7.734870349385023491e-01,-7.853111032687238868e-01,6.255256333179559300e-03,9.155925050913921170e-03,-2.130015853508660743e-03,1.118402361869812012e+00
3.446234900263520640e-01,-7.738089835993009480e-01,-7.746528143035587011e-01,-1.341034423293273109e-03,7.205661863734669215e-03,-8.836662692557520349e-03,1.119031310081481934e+00
3.564770752826895706e-01,-7.758093701380770479e-01,-7.705055494996819743e-01,2.853994869149560978e-02,-2.557424289368660439e-02,-3.079485884183321039e-03,1.131604790687561035e+00
3.437094583235201228e-01,-7.717185639159656052e-01,-7.743695119833489127e-01,-1.844493708377283742e-02,1.628992003883809533e-02,-9.907147158670534873e-03,1.117700695991516113e+00
3.147665525418668064e-01,-7.635292282864574176e-01,-7.835427345338190630e-01,-1.413301533238912368e-02,-2.089560419308356175e-04,-9.809681309093595120e-03,1.088848352432250977e+00
3.111092719636424642e-01,-7.635747045187223359e-01,-7.708814213010335425e-01,-1.579733425571341887e-02,-5.240671862566995826e-03,-5.642194055584998091e-03,1.078785419464111328e+00
3.658636123928379336e-01,-7.993489070903873062e-01,-7.535503536277938785e-01,-1.714540862645401583e-03,5.351810509967256171e-03,-5.255254820221750764e-03,1.143079280853271484e+00
3.513118902369552488e-01,-7.770551084073826775e-01,-7.669349493747301683e-01,-9.487607342609830595e-04,-1.559095795265379517e-02,-1.100741040436878718e-02,1.123828530311584473e+00
3.542917587933353540e-01,-7.904700464514757829e-01,-7.325851542829128205e-01,4.148384586274877356e-02,-1.775338478638011780e-02,-5.920922368097857047e-02,1.124362587928771973e+00
3.336660427311485821e-01,-9.772717065925506930e-01,-3.257315598263684775e-01,1.518387818967368436e-02,1.198629595701750372e-01,-1.956199691106780270e-02,1.154935002326965332e+00
3.437033547030296510e-01,-7.978892369573933330e-01,-7.132107944596384197e-01,2.258127591035144835e-02,-1.847405227254779805e-02,-2.106914050697807766e-02,1.103458762168884277e+00
3.484341854657071469e-01,-8.245313676007410830e-01,-7.248977469938570062e-01,-9.835791855927375829e-03,-1.216434762118782063e-02,-3.256032192863336783e-02,1.128194570541381836e+00
3.147886028277134263e-01,-7.930778070965737170e-01,-7.615464001131870830e-01,-1.271625482120024991e-02,4.886971859349161645e-03,-9.371035516070970461e-03,1.092817425727844238e+00
3.844708193696474985e-01,-6.750666899829592671e-01,-8.719431472940863959e-01,3.282179539487022849e-03,-6.776864861383752152e-03,-7.036057017850967307e-03,1.170596718788146973e+00
3.512121670580203303e-01,-8.982026527822504214e-01,-5.290815228608453102e-01,9.586420052911987953e-04,2.941022908003784742e-02,1.091247390135226605e-02,1.113129496574401855e+00
2.841840126986361903e-01,-6.081699912334422864e-01,-9.020642690549736109e-01,-4.935259701326151494e-02,-2.776199278078720148e-02,-8.222816493254743453e-02,1.083896160125732422e+00
3.505069117751500318e-01,-8.430374489617322720e-01,-6.973083611496742051e-01,-1.130966752377032640e-02,-2.494060918126378423e-02,3.699522266013703653e-02,1.130578041076660156e+00
3.746333575334850341e-01,-8.752068271301836067e-01,-6.138827129455666221e-01,5.634767172268767365e-05,-4.644387942003745662e-02,1.717697662229899364e-02,1.145047426223754883e+00
3.456158413395289952e-01,-8.128050385735831052e-01,-7.266268540628531003e-01,-6.421172709255815701e-03,6.408442873875336981e-03,2.608093202895272675e-02,1.118848800659179688e+00
3.651579962079246067e-01,-8.687716717096627406e-01,-7.307975376072448626e-01,1.077297759024828383e-02,1.721877192049824090e-02,-2.425099193030100155e-03,1.171590447425842285e+00
3.470771024547417150e-01,-8.693251485893667141e-01,-6.020526285390711552e-01,3.392396474426581654e-02,-6.447486103431403215e-02,-3.300517880173945567e-02,1.115862727165222168e+00
3.749607287820992951e-01,-9.460157129043303970e-01,-5.039470711549065562e-01,2.181279498794885113e-02,-5.980741025360637730e-02,-5.285745006244448735e-02,1.173448324203491211e+00
3.383548961930468724e-01,-9.614678638632609964e-01,-6.074021438630996528e-01,2.223391870085128161e-02,-6.530706041498958447e-02,-8.635064861103431202e-03,1.170120000839233398e+00
2.979209282677445225e-01,-7.775591959289600563e-01,-8.021056368466599196e-01,-7.829952823994356520e-03,-8.555885900877925263e-03,-6.406875951444709720e-03,1.088203072547912598e+00
3.554965581147067621e-01,-7.384332176386960711e-01,-8.335388129268156421e-01,2.153440516437600538e-03,9.022742915312622833e-03,2.321616510691243765e-02,1.145269155502319336e+00
3.207438994187950532e-01,-7.072218705877501010e-01,-8.210009086981095994e-01,4.382380852291813123e-02,-4.430947628268224608e-02,5.089107750306133549e-02,1.098199248313903809e+00
3.747316197097522172e-01,-7.727423630219597550e-01,-8.185698393301716891e-01,1.633014476129681855e-02,-8.998043746822090988e-03,5.686234265033773654e-03,1.171547055244445801e+00
3.120098751473431298e-01,-7.323017220501027991e-01,-7.754976897074959963e-01,2.507602338039091605e-02,8.488520079833302562e-03,2.455193967912375208e-02,1.068397641181945801e+00
3.213119950365367350e-01,-7.468716994822417465e-01,-7.757078546632365512e-01,1.476111552515962412e-02,2.437921341837898104e-02,3.417387348846653156e-02,1.085629105567932129e+00
3.357728226140551109e-01,-6.735465243193483609e-01,-8.556308827144005758e-01,-1.596052845356546804e-02,-8.000287523609988724e-03,-7.710161387449131470e-04,1.112033963203430176e+00
3.367351987197825802e-01,-7.770583949286892222e-01,-7.928416963470439338e-01,-3.638862243388237168e-03,-2.070816867674540353e-03,-3.412230452095417997e-03,1.121807575225830078e+00
3.306217246838227819e-01,-7.417634099472658615e-01,-8.050844840953226278e-01,-3.614675307510327451e-03,1.585050655817341059e-02,-7.730980172897816000e-03,1.105846405029296875e+00
3.764834412037558753e-01,-7.806227150166045181e-01,-7.777988639668449444e-01,1.061260365444356485e-03,-1.395542743981002505e-03,1.011190353121285386e-03,1.155702114105224609e+00
3.278114131118462504e-01,-7.487617108305875124e-01,-7.919696846772812382e-01,3.179485651870435792e-03,2.173761111265255005e-03,-3.716144642175323552e-03,1.098853588104248047e+00
3.343077042232787122e-01,-7.851221003054074110e-01,-6.809272547010986054e-01,1.153981250373173166e-02,-3.437534267768846928e-03,1.263837339026624776e-02,1.071566581726074219e+00
3.656183318265113225e-01,-6.936665173438034682e-01,-8.657186841209860706e-01,4.923015296802337598e-02,6.100529521945010497e-02,1.405018971834592345e-01,1.188106298446655273e+00
2.881391659009331363e-01,-8.052144678767756414e-01,-7.739779978190888254e-01,2.667155054078448190e-02,-3.593003932460935718e-02,5.275202837650478163e-03,1.080895900726318359e+00
2.837835052421830984e-01,-7.265387862065642022e-01,-8.000275433794352686e-01,-5.951917752003160061e-02,-1.165669748196766949e-02,4.213275171357685339e-02,1.056768536567687988e+00
3.758454451377731820e-01,-6.605148333082933032e-01,-8.764304392057364890e-01,7.425497128772899635e-02,2.546387695947626914e-02,4.903101307124847763e-02,1.170524358749389648e+00
3.698066872191585475e-01,-8.293824423373155064e-01,-7.364033649994419228e-01,-9.591321372091517194e-03,-1.394862408102773808e-02,-3.904782740865126497e-03,1.155900359153747559e+00
3.209664771827191454e-01,-7.813527704946439112e-01,-7.720525860354465753e-01,-5.703928513709728872e-03,1.338687946011202570e-02,4.149848504689549605e-02,1.100338101387023926e+00
3.078802115955449614e-01,-7.541546820147441155e-01,-7.870164679931703766e-01,-2.557381537512760580e-02,-2.108497043163961530e-03,1.311022990584218180e-02,1.079995155334472656e+00
3.683343292398530422e-01,-7.910110458697773295e-01,-7.936068286551243300e-01,-1.858470827700290165e-02,-3.928380099021868375e-03,5.515225551208435134e-02,1.165034651756286621e+00
3.611841337351462955e-01,-7.813823388235493494e-01,-7.758138246040713337e-01,-3.881941689547473671e-03,-1.869202447325726520e-03,-1.182514371247304994e-03,1.139818668365478516e+00
3.676481806595967572e-01,-7.790292224853020420e-01,-7.686142618869663545e-01,1.050298302315738966e-02,-2.684601294976449084e-03,2.157460998138747976e-02,1.142271399497985840e+00
3.577461810898083239e-01,-7.351809007762959425e-01,-7.721848575834342476e-01,9.916976407470783766e-03,1.936056992159803855e-02,3.347263867433779294e-02,1.114038705825805664e+00
3.590433931708009729e-01,-7.724000156878318979e-01,-7.744669474861065606e-01,9.297703008427230312e-03,-6.133383759773594797e-03,1.130235629628778202e-02,1.132811784744262695e+00
3.346160200982137845e-01,-7.176277195585268887e-01,-7.476219995059840695e-01,2.284720296205164369e-02,2.805027218698701377e-02,3.008057450925901918e-02,1.070662736892700195e+00
3.484401050744630468e-01,-7.759909882798414760e-01,-7.295510882566824673e-01,2.948627086479697207e-02,2.835014733854949662e-02,1.708505656039476656e-02,1.104616999626159668e+00
2.841069834090466095e-01,-1.018229563789705638e+00,-8.363328592877191658e-01,-1.293000261841808357e-02,-1.143046681059581987e-01,2.566872185592307121e-01,1.315157532691955566e+00
3.391943065809409075e-01,-7.710968742780426322e-01,-7.636064675836979898e-01,-7.169312908288070357e-03,-1.281851046332964025e-02,3.459883375789005872e-02,1.108478426933288574e+00
3.387415257665730706e-01,-8.572908665283474061e-01,-6.580805301507189897e-01,8.434267541561525292e-03,2.635300094170497237e-02,1.396080396093460352e-02,1.111214518547058105e+00
3.587873482153827731e-01,-8.460754172863508282e-01,-6.602006787980693181e-01,1.091014525508925311e-02,-6.229716721055370519e-03,3.041556945335646689e-02,1.124961733818054199e+00
3.822645123753491969e-01,-8.612254515433966917e-01,-6.528214911770229278e-01,2.711212005683085596e-02,5.426187206661223922e-02,8.203138681285998546e-02,1.166952013969421387e+00
3.450256558704189458e-01,-7.237163271357464067e-01,-7.345875545302326115e-01,2.372006051453199107e-02,-4.181046404007673911e-02,-1.246311881329329602e-01,1.098852634429931641e+00
3.072936016062192133e-01,-6.410925595006857769e-01,-7.343642863454196146e-01,-3.459235609502362384e-03,6.114942504941240677e-03,-9.252584042524676644e-02,1.011150240898132324e+00
2.981439250147148723e-01,-7.195524866860238955e-01,-6.274234739245679870e-01,-4.541526806785500976e-03,1.858752776507602983e-03,-1.112404028156707136e-01,9.937956929206848145e-01
3.479458299456522075e-01,-8.800839829340960652e-01,-5.651778380715921646e-01,-3.406146002756690362e-03,2.885742219359953981e-02,4.203104422270348937e-03,1.105936288833618164e+00
3.617406897915395048e-01,-7.645804073162907333e-01,-7.654032324210934268e-01,2.893820337243489717e-03,8.735686858199169166e-03,4.183050566374639685e-03,1.126868724822998047e+00
3.630614607908809743e-01,-7.062733690762084127e-01,-7.753278066465227880e-01,1.920663758647087743e-02,3.896912446595717644e-02,5.569142871255160915e-02,1.112229704856872559e+00
3.231363565715134056e-01,-6.348585261201935559e-01,-7.341648439767041179e-01,3.641826419852749186e-02,4.035949909561441923e-02,1.787412543805230181e-01,1.061820030212402344e+00
3.556194163454661772e-01,-8.755547258711295910e-01,-6.122305802802894270e-01,-3.640318550162066971e-03,-1.549750740909197622e-02,5.377340609400833166e-03,1.123289108276367188e+00
3.274047899966870401e-01,-7.169722361784409692e-01,-7.047030990340711343e-01,1.900076969168954313e-02,3.420551844245819234e-02,4.668696940699106068e-02,1.043643832206726074e+00
3.947288091857301673e-01,-5.428218791935517373e-01,-9.248558078426352136e-01,4.391062691521823574e-03,-1.129011552654511988e-02,-4.244575852869585803e-02,1.178546786308288574e+00
3.658480176035752707e-01,-5.689576697740765798e-01,-8.702940239828382829e-01,6.147486982220640162e-02,-2.619784875644331351e-02,-6.077437250739042146e-02,1.127312421798706055e+00
3.366678203203298803e-01,-4.799004989318802483e-01,-9.335110645724336020e-01,-2.346213272946592529e-02,-2.919023841544366241e-02,-9.843145032207610556e-02,1.129701018333435059e+00
3.690315573534170279e-01,-5.289149256095252438e-01,-9.655700308230625861e-01,-3.617568828036721480e-04,1.461549865833127078e-02,-1.603118740590271929e-01,1.211119055747985840e+00
3.461189008776148768e-01,-6.212420682880783751e-01,-8.428950801100805190e-01,6.705936496966208304e-02,-3.494585148531923618e-02,-3.997559581123984879e-02,1.105117440223693848e+00
3.300075419852694925e-01,-7.821414239802102486e-01,-7.768947328667459296e-01,-1.809258500977016385e-03,-1.671206311697152631e-03,-7.500992978449424510e-04,1.109543919563293457e+00
3.587213306118847700e-01,-7.989373842199385400e-01,-7.482045355232767037e-01,-1.864040380155607699e-03,9.338440615146634521e-04,9.369707394598653788e-03,1.133266329765319824e+00
3.577802101351804098e-01,-8.255791590516896594e-01,-7.498354881492108603e-01,-1.658260586781165960e-02,-1.786718614007126726e-02,5.485094939100672480e-03,1.148180007934570312e+00
3.368431297262714508e-01,-8.724931067155814457e-01,-5.586297292884290222e-01,-2.164784945293119975e-02,4.016028735733263161e-02,-2.455019169291940140e-02,1.090637683868408203e+00
3.752119098030313182e-01,-8.709009484473295704e-01,-5.496416596059772175e-01,-2.589647308252067404e-02,-3.301431097990966540e-02,7.468037586029893649e-02,1.130350708961486816e+00
4.037064223421281128e-01,-9.745847858012668397e-01,-4.593197408434900320e-01,-1.536777117323371092e-02,-3.354231828831662210e-02,5.541094394042703208e-02,1.211731910705566406e+00
3.953349179977586059e-01,-9.518368217428607725e-01,-5.218278027107743355e-01,-1.427969713764731807e-02,-5.131887604858564877e-02,1.292491761704805397e-01,1.216187477111816406e+00
3.517425274334085028e-01,-7.038381772811390658e-01,-7.925487452366226648e-01,8.792549307203649869e-03,-4.586043212787524297e-03,3.919692455784839352e-02,1.104837298393249512e+00
3.831924880287918556e-01,-7.855356983793568837e-01,-7.872601791327593634e-01,-7.808964706120578511e-03,-2.540817483435636043e-03,4.018864223769380226e-03,1.169698596000671387e+00
3.596219137075311045e-01,-7.462158752789069815e-01,-7.907512666502962695e-01,-6.017672075088717314e-03,-7.935203961575636872e-03,1.219742427912933955e-02,1.129094123840332031e+00
3.514197747115878068e-01,-7.430122868999780028e-01,-7.646250067510139692e-01,-7.317756948169604377e-03,-1.439477460425131125e-02,1.765506642212745503e-02,1.106173396110534668e+00
3.494318419694181777e-01,-7.422484421438714230e-01,-7.617587563800287676e-01,-7.919755369091221672e-03,-1.749413839137977864e-02,1.192711759426254466e-02,1.102260708808898926e+00
3.370525183711313155e-01,-7.065592860912124351e-01,-7.583358725348167129e-01,8.436026374435835751e-03,9.592995304876722820e-03,1.732499425466536846e-02,1.071088790893554688e+00
3.713757064456389423e-01,-7.776475737758751228e-01,-7.809095728996297003e-01,8.323316955275542354e-04,3.086687053203117110e-03,1.011918102316297901e-03,1.150672435760498047e+00
3.517340750472474631e-01,-7.580250513214366048e-01,-7.563529043467025481e-01,-3.937229082630412658e-02,-5.221347443828264906e-02,5.103499900667698985e-02,1.118192911148071289e+00
3.577292727621090851e-01,-7.641906446460067226e-01,-7.815670001845773651e-01,-2.413623349248108022e-02,-1.495976423710634710e-02,2.801272078808916127e-02,1.132817029953002930e+00
3.413330620998897280e-01,-5.364085957418609496e-01,-8.689705774548257544e-01,-2.381002155622835570e-02,-2.401144315009963448e-02,1.904333896620345745e-01,1.133647441864013672e+00
3.625942803931604397e-01,-6.569780899887271985e-01,-8.156939195379901975e-01,8.332368189602664885e-03,-3.501558211250439812e-02,6.096061378871055897e-02,1.114260315895080566e+00
3.380584166994128337e-01,-7.822289175927517046e-01,-7.172900188298169111e-01,2.474281497925159140e-02,1.993104463153207856e-02,3.390899076921767563e-02,1.092240095138549805e+00
3.428377854741807562e-01,-7.914102070171706860e-01,-6.914845540839343885e-01,5.811140273343077395e-02,-5.698046139225863838e-02,-1.080673314349990671e-01,1.112685918807983398e+00
3.569397583604774216e-01,-8.080043225271460461e-01,-7.012944494167810960e-01,3.264068453680417370e-02,-2.758380399512324124e-02,-2.665734872032238245e-02,1.118830323219299316e+00
3.287983236647452068e-01,-8.310119136942273332e-01,-6.067823249209208791e-01,5.790047510281525790e-03,2.693612577193028792e-03,-3.385142738010640806e-02,1.067209005355834961e+00
3.493967960567594955e-01,-8.057353388031389674e-01,-7.510836705874398556e-01,-2.925468218768764034e-03,1.038739608778027103e-02,-1.722644068257391664e-03,1.128957629203796387e+00
3.739852815577008327e-01,-8.495682487503160019e-01,-7.191633201835536671e-01,4.544760722485738889e-03,5.103255552934274873e-03,1.995999874688780817e-02,1.164416790008544922e+00
3.468846863621966592e-01,-8.241359258581528735e-01,-6.637272318849861685e-01,2.217798584111334639e-02,-3.434523652545105887e-02,-6.802636890036188599e-02,1.108185648918151855e+00
3.814186428007775298e-01,-8.282481788367975772e-01,-7.347412172854406176e-01,1.605333661353745486e-02,-1.622176846176908924e-02,-4.565944917457005064e-02,1.169077396392822266e+00
3.249625784685509777e-01,-7.988890969344980553e-01,-6.884579883096758612e-01,2.894392597056890011e-03,-1.503979737843768628e-02,-3.905351203427823159e-02,1.075364470481872559e+00
3.612017110268134212e-01,-8.668106741748349275e-01,-6.106388942947735821e-01,1.077646366271059475e-02,1.495006554729310169e-02,-4.780832314448255072e-02,1.125580787658691406e+00
3.329625181919772525e-01,-6.483095257536961586e-01,-7.341162166228505370e-01,-7.014994562219081277e-03,-9.386349316725023373e-03,-8.900921730571755008e-02,1.038574576377868652e+00
2.969530583505257115e-01,-7.201982764933074765e-01,-6.259987802074078456e-01,-1.741775633268386175e-03,-8.588075903309596313e-04,-1.113958721125675871e-01,9.924181103706359863e-01
3.306596075838700854e-01,-7.346114585202411229e-01,-7.230689638103608985e-01,-8.894991267748874816e-03,5.987493489042988379e-03,-1.376854633958846282e-02,1.059978008270263672e+00
3.187639178071808299e-01,-7.525871574425302413e-01,-6.549573959589476413e-01,-4.007886078730493913e-03,7.827368620517277664e-03,-2.751905788419263532e-02,1.027245283126831055e+00
3.747642073584474542e-01,-7.784387356584585582e-01,-7.771838417459353554e-01,-2.598085512746177092e-03,-2.275403624681537245e-04,-9.071379418460522384e-04,1.152585983276367188e+00
3.443676421061260817e-01,-7.604382522831886204e-01,-6.725650410000050261e-01,-1.785780538857991914e-02,1.844587999757531238e-02,-8.117381737562082145e-02,1.073769092559814453e+00
3.062523213262948740e-01,-6.486145027486367454e-01,-7.254312023494253747e-01,9.700313582084807776e-03,-2.509281398064327085e-03,-9.562148813966890593e-02,1.009332776069641113e+00
3.184942823149662372e-01,-6.969118488246057730e-01,-7.383560077689506063e-01,3.688425636667671658e-03,-5.163392642752297288e-04,-5.509491839906593968e-02,1.041152119636535645e+00
3.329925542124404503e-01,-7.544627258168783435e-01,-6.949758448144178757e-01,-5.342833483629031745e-03,1.317777255573859179e-03,-5.449235120907924140e-02,1.063206195831298828e+00
3.334965112654435515e-01,-7.477355895089404791e-01,-7.181119450052053654e-01,-9.085911172320477666e-03,4.692076274105206300e-03,-4.264663845725693431e-02,1.069429874420166016e+00
3.399327565428226228e-01,-8.953652951403006099e-01,-4.465942445683532824e-01,-2.406883975551884353e-02,5.205576996920482924e-02,-5.793563385781412556e-02,1.092212319374084473e+00
3.164122526932380275e-01,-9.029649495049210106e-01,-4.490364518830028406e-01,-4.998832284234899868e-04,2.832024135550216537e-02,-1.519125379910985819e-02,1.068887710571289062e+00
3.211998680808026974e-01,-9.212826545563213010e-01,-4.310173392564625727e-01,-3.369576892313962731e-03,-4.449533575080202169e-02,-4.952773894538690241e-02,1.090095996856689453e+00
3.309522882457097692e-01,-8.968819111333755645e-01,-5.390901097117829499e-01,2.543739429857974892e-03,5.275300483221557514e-03,-4.294373301122449832e-02,1.096320271492004395e+00
3.575920904636291642e-01,-7.764680897333345877e-01,-7.592821324715844922e-01,-1.144984376196203982e-02,-2.138168212800349143e-03,-2.344180369332499875e-02,1.126478314399719238e+00
3.592673749826955643e-01,-7.723498550062968260e-01,-7.857255201197881345e-01,-1.947717648259469176e-03,-2.412829476681606963e-03,-3.767863137637996579e-04,1.138376832008361816e+00
3.515952265228848850e-01,-7.478270378321776324e-01,-7.840225541791192576e-01,-5.586559955791711024e-03,1.583658454880652877e-02,-1.623693465582533302e-02,1.118691444396972656e+00
3.407792408638610770e-01,-7.171701780933751325e-01,-7.549748819425027291e-01,-2.287290677787940166e-02,2.574380467667471140e-02,-2.453172140920452382e-02,1.079835534095764160e+00
3.409250454672492769e-01,-7.220050910805357880e-01,-7.497896059533233348e-01,-2.404764057419597062e-02,2.826857596626156099e-02,-4.834807020793412818e-02,1.082252383232116699e+00
3.668346044891721003e-01,-7.610278124488807361e-01,-7.434064594419300676e-01,-4.096122468118090082e-02,5.113357646358699521e-02,-8.290551196786286048e-02,1.134022474288940430e+00
3.445209463659829052e-01,-7.615547193173131113e-01,-7.251845272506155515e-01,-8.589107325308303204e-03,1.288511978299567567e-02,-3.908015828316812462e-02,1.090779185295104980e+00
3.597481721359608864e-01,-7.602334917561242023e-01,-7.664754299278753180e-01,-7.982599258308320858e-03,1.314941073002939224e-03,-1.567521028922804578e-03,1.123206377029418945e+00
3.624195988122263512e-01,-7.662940514396261449e-01,-7.671985410258019833e-01,-7.710960449887186742e-03,4.225086444203366223e-03,-1.240543938446130035e-02,1.129473209381103516e+00
3.499179730288360379e-01,-7.768740237655116232e-01,-6.902885412918187136e-01,2.951778007550817304e-02,-4.534431582907837849e-02,-4.485788442667201781e-02,1.092891693115234375e+00
3.430563824233429093e-01,-7.922418865480513883e-01,-7.680660835485920712e-01,-1.595099367333302010e-03,-1.329698738834642936e-02,-2.467318187423152507e-05,1.123644948005676270e+00
3.511977717118286435e-01,-6.310844202447002393e-01,-8.133489722601827676e-01,4.955152707039865018e-03,4.647983497599512980e-04,-8.972312992495057316e-02,1.096065163612365723e+00
3.423294865256479858e-01,-7.574562112108649270e-01,-7.227765281095477334e-01,2.643502590027130630e-02,-2.645920346023472938e-02,-3.326897132583585270e-02,1.086327910423278809e+00
3.305708882569654561e-01,-7.167845410775597337e-01,-7.296587305473689611e-01,2.360886652142684186e-02,-2.601342717169303695e-02,-2.980847798362000478e-02,1.056868433952331543e+00
3.394162634028023984e-01,-7.192089359789443082e-01,-7.519215985607781150e-01,2.514473193768339970e-02,-2.524557274041390811e-02,-4.272432165446382601e-02,1.079663276672363281e+00
3.294514784729487555e-01,-7.181111362247646346e-01,-7.422489592173850959e-01,1.604484959670498005e-03,-7.864847263171770297e-03,-5.038487230989742438e-02,1.063515424728393555e+00
3.675966256614331407e-01,-7.778573372948902609e-01,-7.836251701290563032e-01,1.350072486095305405e-03,-4.198188961298760478e-03,7.915066111996181325e-04,1.148374915122985840e+00
3.205142249235811147e-01,-7.073637234165615073e-01,-7.093548198146018002e-01,1.262006948067504776e-02,-1.113270884912620842e-02,-3.952399670691892491e-02,1.031561732292175293e+00
3.408406992438208771e-01,-7.205913263367706989e-01,-7.034648833270719104e-01,9.243512889431339946e-03,-1.337372383057564354e-02,-1.288577077994161602e-01,1.076735138893127441e+00
3.029825582815297014e-01,-7.127107906720371311e-01,-6.512072348360973262e-01,1.141668527172546438e-02,-1.227503624496661602e-02,-9.697770949066011892e-02,1.001001477241516113e+00
3.201775119948863102e-01,-6.542564142107213376e-01,-9.067639423264700627e-01,-2.371190195859943298e-02,1.111624731672505341e-02,-1.696899859035670699e-02,1.123501062393188477e+00
2.481639828417135929e-01,-7.349501951449919357e-01,-7.915704552532177862e-01,3.279474501464378633e-02,-1.075707520299201345e-02,1.361893693748188021e-02,1.014649510383605957e+00
1.854048501476103783e-01,-7.113608353739327983e-01,-8.652920080032464600e-01,1.335399049609982576e-02,4.704935141332326418e-03,1.206827021101088485e-02,9.833422899246215820e-01
2.183762354558061447e-01,-7.615568768743050665e-01,-7.549423306069662498e-01,7.729215560822907428e-03,7.719641203521866203e-03,8.592896584741752022e-04,9.768270254135131836e-01
2.556346110252510351e-01,-7.662929944102983004e-01,-7.982784080448264152e-01,4.938931558030905909e-03,-2.146688274298412871e-02,-1.190897076614845507e-02,1.039195418357849121e+00
1.559166559620728254e-01,-7.133824733065037282e-01,-7.766408963675207611e-01,1.930717175196166799e-02,-9.565480690419203916e-03,-1.729602522452623053e-02,9.038602709770202637e-01
3.016101350762850353e-01,-7.742696620167944799e-01,-8.028867095297737011e-01,2.529357123988921433e-03,-1.047874500953440910e-02,3.997102865308336042e-03,1.090651750564575195e+00
3.341832749808917868e-01,-7.715222230173254259e-01,-7.958014431342455008e-01,7.754110913261292801e-03,-8.625826996129558680e-03,-5.452482185202527608e-03,1.118263244628906250e+00
3.655838363927089718e-01,-7.616478803614630255e-01,-8.099357004541440919e-01,-1.632983605604477681e-02,2.401224664669024053e-02,-1.448250654328600388e-02,1.153504967689514160e+00
2.895815453486094704e-01,-7.344975293295232799e-01,-7.970462931304738152e-01,5.739711880229370934e-03,1.200098733463417569e-02,-1.157717346922016582e-02,1.057184100151062012e+00
3.112109677946290343e-01,-8.391009572486669565e-01,-7.111652889385117193e-01,1.035813412019259000e-02,4.486733165676328578e-04,-7.233458436770952293e-02,1.099290013313293457e+00
3.329856301530133567e-01,-6.102243283907259341e-01,-8.357639948039667921e-01,-5.375803637531507799e-03,-7.766891971893417901e-03,-1.337836339487874504e-02,1.074266791343688965e+00
2.693423293453289236e-01,-7.809245428242357345e-01,-7.831617439175728723e-01,2.397899296980244427e-02,-3.443180223679391527e-02,-1.040704107333156880e-02,1.054050087928771973e+00
2.901298242171184150e-01,-7.489725019583693966e-01,-7.177995482981768260e-01,-2.398965210064969711e-02,7.518388414364423830e-03,-9.171914064899686081e-02,1.037037491798400879e+00
2.245428248090663437e-01,-7.210167075122928537e-01,-8.547216899067648921e-01,1.054614887936238671e-01,1.032159660563576747e-01,-2.617441655101246933e-01,1.144221544265747070e+00
3.587099154115694910e-01,-7.695576475632019964e-01,-7.527463034414572096e-01,8.875853419775370234e-03,5.874427324266654100e-03,4.043904009164450523e-03,1.120130181312561035e+00
9.493709076643064293e-02,-7.964956360253148127e-01,-7.085588852646714786e-01,-7.466858042177769439e-02,1.076406664683701025e-01,-1.415587887402153799e-01,9.141104221343994141e-01
-7.561971384158489018e-02,-7.679716518018252502e-01,-7.016639194721183692e-01,-8.890230242970244279e-02,4.987972528884430413e-03,-6.359910446187222455e-02,6.883020401000976562e-01
3.564316856559413549e-01,-7.563242890841339605e-01,-7.607025117661734281e-01,7.872724165575479974e-04,-1.233958291919119363e-03,5.383135290375869880e-03,1.114993453025817871e+00
1.609257461550562818e-01,-1.070723573100689219e+00,-6.305578730245862129e-01,-4.601157961980875677e-02,8.226465007354039072e-02,3.801978489081069695e-02,1.095247149467468262e+00
1.567310896440144985e-01,-8.487129439909992801e-01,-7.857961737982378514e-01,1.442453366681487881e-01,1.171136733878607589e-01,-1.553385751842252804e-01,1.061872959136962891e+00
1.329562460229485321e-01,-7.274603237721706250e-01,-7.986199733225469721e-01,1.190790344315717092e-01,-7.610282181893749526e-03,-1.149238165759439573e-01,9.428377151489257812e-01
3.586195346056542110e-01,-7.768392850859604515e-01,-7.305046985755848654e-01,3.559286497487072765e-02,-1.361579924972510132e-02,-7.086056642675653272e-02,1.121705412864685059e+00
3.413168211028500543e-01,-7.921828926630479772e-01,-6.753461954651409638e-01,3.224744083633717534e-02,-2.947708185897942798e-02,-1.261110784173934962e-01,1.104299068450927734e+00
3.517654913879675327e-01,-8.300960255146743183e-01,-6.869201789266095037e-01,-3.370507740825592728e-03,-2.103337974272694380e-02,-3.208902471252965405e-02,1.119165897369384766e+00
3.666487949959056358e-01,-7.941121321563697766e-01,-6.937553187501998009e-01,4.304983080469176882e-02,-4.114409144803016227e-02,-5.113697951756394217e-02,1.122243523597717285e+00
3.313618318935473428e-01,-8.265646207005339363e-01,-6.826357528904181127e-01,-1.018082787293907859e-02,-2.896830086454635356e-02,-3.259311117445893441e-02,1.095840096473693848e+00
3.737416259927473505e-01,-8.278812287278198845e-01,-7.712711425890241834e-01,-2.317693636091794351e-02,4.180080304981625104e-03,-1.385788760733741229e-02,1.175294995307922363e+00
4.000469361179628813e-01,-8.160486465847458515e-01,-7.208107638678207252e-01,2.375076583354023690e-02,-3.580808426919267207e-02,-1.041607174088486909e-01,1.187530040740966797e+00
3.290903988625033527e-01,-5.471866371118216943e-01,-8.344868195415668932e-01,-2.716444195612223445e-02,1.948691341647892233e-02,-1.752473011483569876e-01,1.094369769096374512e+00
3.843678053351378687e-01,-5.553796618045496736e-01,-8.624326019393471210e-01,-2.104089772190173221e-02,6.154408248751703364e-03,-1.761616889571135935e-01,1.166404604911804199e+00
3.071976090937432735e-01,-6.353844495585216912e-01,-7.481013151263402605e-01,-1.966259108958454127e-02,1.599258193578233581e-02,-8.752286090205420310e-02,1.016030907630920410e+00
3.676832787601407304e-01,-5.434302162184108109e-01,-8.603060705651903728e-01,1.314031045861851002e-02,-1.679317446604479402e-02,-2.346419491059238416e-01,1.177192687988281250e+00
3.484431148134197742e-01,-6.796874630284728269e-01,-6.779117995524059914e-01,-3.276689426496293134e-02,3.164199932069484966e-02,-1.932259918609434690e-01,1.083265185356140137e+00
3.224996023144689472e-01,-6.550368964154148488e-01,-7.516554192114259791e-01,4.226555627266826050e-03,-4.973393213276804635e-03,-1.365124798165528452e-01,1.056122899055480957e+00
3.722928712973821996e-01,-8.304337903408520738e-01,-6.811182905972783530e-01,-8.251569912799117806e-03,1.928579380680994770e-02,9.111865018724919774e-02,1.146947622299194336e+00
3.493793676012537097e-01,-7.983133064827756531e-01,-6.353823018249378229e-01,-1.909714733280909113e-02,-3.571095467407688073e-02,1.163189738153656699e-01,1.096476435661315918e+00
3.282806173517510695e-01,-8.998604008288366707e-01,-6.719355289223625238e-01,-4.567307469274745763e-02,-1.925127236715887605e-02,1.017786953760528718e-01,1.148391366004943848e+00
3.196954252746542213e-01,-8.487007644593829170e-01,-6.260614388458816126e-01,3.798306258891096052e-03,-7.084698001775145693e-02,3.153547023849897352e-02,1.082899570465087891e+00
3.765802242686853152e-01,-8.148364896740809549e-01,-7.127025499607806402e-01,-3.862042037458374502e-03,-2.557372559867599621e-02,3.436230620145112880e-02,1.146198153495788574e+00
3.343998687976393880e-01,-8.025256270340082043e-01,-6.439199137909072945e-01,-1.203839474796654894e-02,-3.693428673893561082e-02,5.407254567148826740e-02,1.072721362113952637e+00
3.607118804424079839e-01,-7.631601238445199220e-01,-7.607311920157336926e-01,3.313805876170727947e-03,5.033766011936423486e-03,-3.104763165938268519e-04,1.122708201408386230e+00
3.231815345522973670e-01,-5.273112701633766441e-01,-8.688178936337452862e-01,-1.924691124674620746e-03,5.163868123674169273e-03,3.458897426119958429e-02,1.064938545227050781e+00
3.274665896353973760e-01,-5.891841166711777600e-01,-8.055380697137415336e-01,2.223123641231373147e-03,1.033361727733278675e-02,7.109812635370012235e-02,1.049227595329284668e+00
3.133385575934569678e-01,-5.961396234689213536e-01,-8.081092132513683080e-01,-2.355793841652828284e-03,8.750008376868673513e-03,3.340981531570166863e-02,1.033662557601928711e+00
3.407364566149811980e-01,-7.390123648782094268e-01,-7.419432146570901221e-01,4.800592085437341457e-03,7.414462178100952525e-03,1.003904186453449159e-03,1.081326842308044434e+00
3.663731328774006979e-01,-7.719255104243603061e-01,-7.705520646574849364e-01,1.564293130968227863e-02,1.950564207999449726e-02,8.245161943478255574e-04,1.138437509536743164e+00
3.516294193620081998e-01,-7.498826438414402107e-01,-7.579024871292201482e-01,6.467060789817127668e-03,9.117927746910054268e-03,2.004658070898297437e-02,1.106258392333984375e+00
3.575729394037730491e-01,-7.603516111070423023e-01,-7.580941146138743258e-01,1.047999515221032830e-02,7.891804697644361211e-03,3.600205472334590262e-03,1.117046117782592773e+00
3.538647503288931406e-01,-7.697162804520423229e-01,-7.452423334731099747e-01,1.009395403071696069e-02,4.937773142466554514e-03,1.917226251215571262e-02,1.112212419509887695e+00
3.445123936837959366e-01,-7.672348381628508740e-01,-5.692450680911286254e-01,-1.670800317261298892e-02,1.635254790752287829e-02,2.863778054120500460e-01,1.141378045082092285e+00
3.246973894091309543e-01,-7.827936729014164374e-01,-6.530032340215412567e-01,2.390505627752101403e-02,1.445202477815018399e-02,2.015319397559926090e-02,1.050333142280578613e+00
3.253163798224752434e-01,-6.745806111335250765e-01,-7.365267928785075302e-01,-8.991091043547722386e-03,-5.451115679489158816e-03,7.641827379843472989e-02,1.040875673294067383e+00
3.557803455666328496e-01,-7.430510063155335576e-01,-7.702573223765094568e-01,4.261322708052333458e-03,5.307524171443884359e-03,8.793845299108609195e-03,1.112850666046142578e+00
3.245786480775614824e-01,-6.313373749266359969e-01,-7.081865508046476521e-01,8.738842711531195212e-03,2.262240433626482722e-02,2.280535877306297532e-01,1.072815179824829102e+00
4.068304609972411279e-01,-8.234148422026450476e-01,-6.762808487112825784e-01,-1.891341986557865812e-02,-1.183697631953971492e-02,1.792612832106829923e-01,1.205005526542663574e+00
3.520256507621556397e-01,-7.867245642579109299e-01,-6.531427737339072781e-01,2.178960878043801480e-02,1.199734849764931902e-02,2.031550594546405464e-01,1.134967803955078125e+00
3.674314828114939591e-01,-7.004661050424243474e-01,-6.841641195912607776e-01,-3.918667747323568290e-02,-6.696999001637743247e-03,1.530605680800918023e-01,1.094662547111511230e+00
3.504518252079431573e-01,-8.146090425054255402e-01,-6.852177543096464873e-01,-8.834429099371320614e-04,1.299487336484988348e-02,1.332673900169434322e-02,1.106526970863342285e+00
3.649391185724119024e-01,-7.758325063434480251e-01,-7.833595160183332018e-01,-4.925398674363470550e-03,-6.677428709224992437e-05,6.801243463385352878e-03,1.144646167755126953e+00
3.484841394572413265e-01,-8.084951569106519909e-01,-7.375359367149174616e-01,5.201848629108839911e-03,-3.687522708054082748e-02,5.615626847713005992e-02,1.129229426383972168e+00
3.404999619614629824e-01,-7.990868231195916715e-01,-7.235586135974765298e-01,-1.209190970751308769e-02,-8.220596052782625646e-03,1.974735509156699473e-02,1.104582667350769043e+00
2.729538823030124295e-01,-7.786658831087981403e-01,-7.493575236591578648e-01,-8.420381198431640263e-03,2.881901756226981637e-02,1.278140381585316475e-02,1.038814783096313477e+00
3.514327783441326680e-01,-7.920664011123099701e-01,-7.763619293970621671e-01,9.725582723469128332e-03,2.096406890095174527e-03,1.368706803605131573e-03,1.135861635208129883e+00
3.386644402403626852e-01,-7.911791860709020963e-01,-7.520766352392382892e-01,8.082509666679164873e-03,-9.505519370745781765e-03,8.177930859181127207e-03,1.111109137535095215e+00
3.705486791843645711e-01,-9.049875040466730525e-01,-7.357526529254564407e-01,-5.129601720948381849e-04,-4.298287285748775277e-02,5.950752272238127305e-02,1.206621170043945312e+00
2.189888095498279674e-01,-7.490504363701679935e-01,-8.159815958089936538e-01,8.338272882909890382e-02,-4.504040635673393911e-02,-2.365002508567310389e-03,1.016529679298400879e+00
1.823843702984353499e-01,-6.985374241999678935e-01,-7.875824350382036876e-01,3.406397010069953796e-02,-5.856359795865444945e-03,-2.964262275063987706e-02,9.319946169853210449e-01
2.315493988582342233e-01,-7.950084353101383172e-01,-7.837238166731268496e-01,-9.235024723327817011e-04,-1.850041758487008109e-02,-6.430611637983330367e-03,1.021527051925659180e+00
3.635493042082160731e-01,-7.882803200189154591e-01,-7.575605869542634263e-01,-1.197708433598244221e-02,1.219405974489764372e-02,-8.505673886042361062e-03,1.137261986732482910e+00
3.632542737541896716e-01,-7.770965251445620670e-01,-7.580748249271855865e-01,-1.376760503457146595e-02,4.000333558079034388e-03,-7.790145513065067050e-03,1.131312966346740723e+00
3.449176002733836399e-01,-8.649254231284677630e-01,-6.174313940567085490e-01,1.251701922374557187e-03,-2.332946549649970308e-02,1.450330461029935257e-02,1.108067274093627930e+00
3.623736097997746208e-01,-8.469318602684072772e-01,-6.538702417058708249e-01,-6.947636663348803927e-03,-2.764331277805540110e-02,4.696874514810905031e-03,1.126377105712890625e+00
3.428966594044623450e-01,-8.826382809181009259e-01,-5.364796917587235647e-01,9.986837306059041103e-03,-2.292748052744382134e-02,7.789932062859938021e-03,1.095258235931396484e+00
3.499962745105871242e-01,-9.016396744457726431e-01,-5.422470075782319654e-01,2.559467386990988465e-03,-1.822423608005461007e-02,2.131965103709648410e-02,1.117276310920715332e+00
3.233807670411465440e-01,-8.570010025012476662e-01,-5.540651221791996761e-01,-1.831158948336411227e-02,-3.923342804215271956e-02,1.879133955681400181e-02,1.064976215362548828e+00
3.392471925806972433e-01,-8.526660225223443579e-01,-5.803184729794452767e-01,-9.130158778516601209e-03,-4.242886586604523169e-02,2.391577923279341114e-02,1.085164666175842285e+00
3.387799077405906356e-01,-8.525588398011110236e-01,-6.017458161625137691e-01,-1.077501195915939701e-02,7.573191149294002458e-03,1.967645568270889184e-02,1.088610887527465820e+00
3.266359936270240016e-01,-8.741453150602118694e-01,-5.462492421670935849e-01,-9.172623837100596714e-03,-4.227305725254051905e-02,8.650558678818025260e-03,1.077728152275085449e+00
3.343105722004237612e-01,-5.753752638445511769e-01,-8.735765045030450260e-01,7.892144311317259020e-02,-1.067956590985861230e-02,3.183947912639288613e-02,1.099905014038085938e+00
2.378640898207124432e-01,-6.415542456329723642e-01,-8.202494017514079250e-01,3.534940511037800576e-02,-1.322557627856675577e-02,4.939689910394777506e-02,9.869397282600402832e-01
3.050326527349129790e-01,-6.543562086214825824e-01,-9.340506244277969605e-01,2.789680272026165420e-02,-1.983227207284602236e-02,-1.756458924738627490e-03,1.127171516418457031e+00
3.701543271085556697e-01,-6.585004132412251021e-01,-8.768637972010462356e-01,-1.320612115543647047e-02,1.241149578644648414e-02,5.855821829834663428e-02,1.158320426940917969e+00
4.260156672936663003e-01,-7.192900503460589734e-01,-9.651854531724017860e-01,3.356258346551044269e-02,-8.509337489172322938e-03,2.419344408634268098e-02,1.288086771965026855e+00
3.059522490112662751e-01,-7.762579253137387170e-01,-7.678584612002687937e-01,2.625730557603170832e-03,2.090661267892475125e-02,-2.524458094791103609e-03,1.078661441802978516e+00
2.969671467237931517e-01,-9.270320812504697638e-01,-6.511653205769843966e-01,1.361947102794664344e-03,1.998092674618070358e-02,3.276304845426867424e-02,1.114019513130187988e+00
3.046484906287224570e-01,-8.032071601286323581e-01,-7.441018257536488045e-01,-1.599485256119610385e-02,-3.767797380411953140e-02,2.418575007139300848e-02,1.082653522491455078e+00
2.605297081153121752e-01,-7.607657172347055408e-01,-7.730152640526299912e-01,-4.132465959292102448e-03,-9.867302876379711526e-03,-1.936224618267311324e-03,1.027647495269775391e+00
1.970551533612739381e-01,-7.776933094879976416e-01,-7.630457809036144123e-01,2.193260866849867929e-02,-3.522000491271336242e-02,2.074910377250829135e-02,9.708385467529296875e-01
1.682841923852815835e-01,-8.416536131822034417e-01,-6.982765691873242808e-01,1.093316896669815907e-02,-1.128328697255303248e-03,1.624196231744179722e-02,9.470391869544982910e-01
1.249664706875389109e-01,-8.028595057505474308e-01,-7.892073307764159162e-01,7.472777748163482447e-02,5.588966748262353887e-03,-6.242090949587639909e-02,9.364380240440368652e-01
1.441637573543668172e-01,-6.963279365949959221e-01,-7.584953310044324493e-01,1.649996730973101941e-02,-1.061149824860060410e-02,7.381179690769451920e-03,8.739910125732421875e-01
3.428793599789357605e-01,-7.631603283255496972e-01,-7.069777006817326015e-01,1.038760086070159884e-02,1.150815016721806576e-02,4.872129606657039230e-02,1.082673668861389160e+00
3.495762312208089972e-01,-7.596689819763131624e-01,-7.599995256440981173e-01,2.448005456966192983e-02,3.175865556289162589e-02,4.104725262563990035e-02,1.113853693008422852e+00
3.691610742859715022e-01,-8.187971783978094109e-01,-7.544279785013221495e-01,2.769401748610667360e-02,3.132633266477380385e-02,4.183947305567632668e-02,1.161643981933593750e+00
2.815454978696965704e-01,-7.325893793898275996e-01,-6.015557884117361809e-01,2.442091594598908011e-02,2.554171064969319380e-02,1.764441460421008745e-01,1.004936575889587402e+00
3.255145114363868220e-01,-7.763532978938589846e-01,-6.457082019689940333e-01,3.317010109150418662e-02,4.635562299211086479e-02,8.588412712921882075e-02,1.057876467704772949e+00
3.627315184755398048e-01,-7.999722964271533954e-01,-6.608484354350059320e-01,2.989328827125056418e-02,5.136741570578630400e-02,6.985147160869630001e-02,1.111175060272216797e+00
3.437381895971738932e-01,-8.213941019418029565e-01,-6.572033607739131700e-01,-1.243431681697450449e-02,-2.006777222066483471e-02,1.155225831172269207e-02,1.093279600143432617e+00
3.417275189594465301e-01,-7.757392757909166159e-01,-7.629886288418652462e-01,9.778193664429597406e-03,-1.263642939163807030e-02,-8.479294812533750419e-03,1.111588001251220703e+00
3.572013193507433959e-01,-7.793018062363110676e-01,-7.769106854872260826e-01,-7.856035136108097811e-03,-3.575887552319162443e-03,1.451250874123767793e-03,1.135410666465759277e+00
2.925589657259126675e-01,-7.687406871915671847e-01,-7.679034319099262706e-01,-8.762437837505795274e-03,8.892225981633578372e-03,2.375462162326324751e-03,1.061109542846679688e+00
3.282466271766018018e-01,-7.816051493028265407e-01,-7.688841401569534995e-01,1.795924543143325586e-02,1.393836853984347854e-02,-1.841287777730369734e-03,1.104253172874450684e+00
3.214367992500903881e-01,-7.708809622563109754e-01,-7.742443034765855714e-01,-2.346162432083328045e-03,8.991121690634313116e-03,1.171801327590543326e-03,1.094123601913452148e+00
2.902895282982147496e-01,-8.188498677589274299e-01,-6.622248208915237910e-01,-1.481132299029921592e-02,7.389044811072755826e-03,-8.440929660873228157e-02,1.050332903861999512e+00
3.504878466627263101e-01,-8.304113684681875274e-01,-6.511361594812474785e-01,-1.463137243429428469e-02,6.883979030869001071e-03,2.976374935173496314e-02,1.103810906410217285e+00
3.124061473914183651e-01,-7.973744803828364258e-01,-7.699897418407661842e-01,-1.279279085041297795e-02,3.494884230975867090e-02,2.448887802749254508e-03,1.098246335983276367e+00
3.673409995709029929e-01,-8.412246084041167249e-01,-7.840749280255758791e-01,-5.782681243442720428e-03,2.055258160893986760e-02,-2.232508368931825429e-02,1.182239651679992676e+00
2.033834900697314985e-01,-8.007336028529634664e-01,-6.943697398918533548e-01,-4.422053238632359107e-03,-5.936515253708865569e-02,7.103582636337210134e-03,9.610126614570617676e-01
3.722212154842892695e-01,-7.747677612975534256e-01,-7.741028198270842875e-01,-1.441103550054314653e-04,-6.927402029522574962e-04,6.748928693582759760e-04,1.146657943725585938e+00
3.168774345485614319e-01,-8.190975305373677795e-01,-7.509320268990010705e-01,-5.192543725372127800e-03,2.312222491523940535e-02,2.310352141066356730e-04,1.104235649108886719e+00
3.382887963073504256e-01,-7.966726242795350021e-01,-6.738588577065152130e-01,-1.558879817282895000e-02,-2.607413013849908812e-02,1.899498979434058321e-02,1.080593705177307129e+00
3.490531225658993764e-01,-7.556883167220767028e-01,-7.436791052490017151e-01,-1.723212916853083046e-02,1.638304239951891839e-02,-1.414017308575589091e-02,1.099830269813537598e+00
3.611399751552749060e-01,-7.798439286329139630e-01,-7.644590041618527509e-01,-9.639294861721794255e-03,3.716963255452032135e-03,-2.989866270842476362e-03,1.133522868156433105e+00
3.689693959410809687e-01,-7.717549512479177087e-01,-7.767427400492425971e-01,-5.468851452781557307e-03,1.569094158538423319e-03,-2.772947210793946966e-03,1.143278956413269043e+00
3.581755630194314866e-01,-7.650599462041949295e-01,-7.655172738633426732e-01,-2.664343798639875159e-03,1.800915223182096656e-03,-7.043608048347221873e-03,1.123544335365295410e+00
3.545889180410781716e-01,-7.692936101284678641e-01,-7.459581852839476390e-01,-1.903843362581163906e-02,1.560644436503802121e-02,-2.146385214603965461e-02,1.113835930824279785e+00
3.696391506184559805e-01,-7.706146314793731467e-01,-7.752874696745921668e-01,-3.407723642830422228e-03,4.385725067355598569e-03,-2.371574059843652865e-04,1.142637968063354492e+00
3.140957094858799481e-01,-6.517636605515628734e-01,-7.523671672996706805e-01,-6.338888720598377657e-02,4.960620965507094027e-02,-1.542918596047937463e-01,1.063498497009277344e+00
3.614661076263797068e-01,-7.704999226689145386e-01,-7.350553291794499344e-01,-2.556277050232508632e-02,2.164377181737612774e-02,-6.947125121777575352e-02,1.122642397880554199e+00
3.052253164600163826e-01,-7.274409073997554209e-01,-8.126084239687991762e-01,-6.132113233679840208e-02,-2.329920023479856595e-03,-7.564314666504655393e-02,1.090901255607604980e+00
3.355175072419280813e-01,-7.354673397494692066e-01,-7.654410308801444796e-01,-2.752913824439790283e-02,9.488652146633027099e-03,-3.096002265299228548e-02,1.088773369789123535e+00
3.373312552832816724e-01,-7.172810372033879833e-01,-7.819956181577971677e-01,-1.110301002591096431e-02,7.159089923048813156e-03,-7.667430328371918624e-02,1.096724390983581543e+00
3.700849467740687238e-01,-7.582921427911302192e-01,-7.968627411846134212e-01,5.394953189265636224e-04,1.630298079361804098e-02,-8.850171924234305834e-03,1.148598194122314453e+00
2.967894987244844573e-01,-7.748831406504488317e-01,-7.747109768904772986e-01,1.846023136151116878e-02,5.467065656504736977e-03,-2.890929582526689627e-03,1.072116971015930176e+00
3.586775864992852170e-01,-7.803382372729086303e-01,-7.746349623007358076e-01,-4.228198349740707601e-03,-1.627005647932671436e-03,-5.402722432700810071e-04,1.136202454566955566e+00
3.288276147897521984e-01,-6.821468501661334116e-01,-8.142000797070547691e-01,-1.504944868300625571e-02,1.360430983655494183e-02,-2.117914658082182752e-02,1.084246397018432617e+00
3.761841157685153481e-01,-7.458845733474657180e-01,-7.724792161320865880e-01,-9.063535883287857087e-02,-4.986245296962193985e-02,8.276978417795234633e-02,1.158551692962646484e+00
3.752164769148686463e-01,-7.081911441785362360e-01,-7.808536376265755585e-01,8.551997468831928559e-03,-2.316909582865771255e-02,7.031997084003924203e-02,1.128910779953002930e+00
3.220810997893519545e-01,-7.815913819328315082e-01,-5.883315440570474619e-01,1.235801888812113883e-03,5.823670261072577160e-03,1.186629707380154192e-01,1.041391253471374512e+00
3.806532314462026667e-01,-8.142695030534076173e-01,-7.453644079405241651e-01,-6.414682827583007008e-03,-2.886718327127178740e-02,6.762819114727887382e-02,1.169015049934387207e+00
4.010881314158004640e-01,-8.247464254711189824e-01,-7.433419172615742809e-01,-1.980253670820347409e-02,-1.400221249620625663e-02,6.521568215449509431e-02,1.193328261375427246e+00
3.484251420025841761e-01,-7.482546073166587153e-01,-7.540724215942711250e-01,-9.946744654930827004e-03,-8.723413776901906697e-03,3.186610839377528037e-02,1.101222991943359375e+00
3.815477059789633141e-01,-7.694897699775402611e-01,-7.157224828274352246e-01,-1.511475566135866457e-02,-4.910673496438254515e-02,1.621990939382866870e-01,1.163071513175964355e+00
3.412616648940732800e-01,-7.854754677193747092e-01,-6.787202300920391895e-01,-5.894181442132620519e-02,-2.683563441810121828e-03,2.205847471818616068e-01,1.147634506225585938e+00
3.085183401746176557e-01,-6.688020369614717797e-01,-6.838238540122396625e-01,-2.108845505162733336e-02,-8.573103757020519508e-03,1.884084656516637757e-01,1.038320660591125488e+00
3.338109232940701387e-01,-8.081740202945383311e-01,-6.508434194273013951e-01,-1.521261852510732461e-02,-2.791473878771204287e-02,5.372168694727569999e-02,1.077452301979064941e+00
1.996309093873134266e-01,-7.531121935818638757e-01,-7.408503592150044170e-01,1.265412269014435168e-02,2.659578389863829356e-02,7.993548282775805869e-03,9.481463432312011719e-01
1.279567480360620513e-01,-7.681721980820113149e-01,-7.316451775767868204e-01,1.686040219930214773e-02,1.088066451511216816e-02,-1.488490130957179861e-03,8.791263103485107422e-01
1.925241936575151636e-01,-7.506012868281382033e-01,-7.563024216119250687e-01,2.154689122495007103e-02,3.330817997377090445e-02,-3.691071414769147609e-03,9.485025405883789062e-01
8.885051737777582836e-02,-7.234973041707762897e-01,-7.393604098857573526e-01,8.792986211520695955e-03,2.058552997187700854e-03,3.228701162243928849e-03,8.205625414848327637e-01
9.223641294123574585e-02,-7.181971191793481424e-01,-7.297094344372574426e-01,8.275766632082870791e-03,-1.231986263837612366e-02,-1.014759658260842336e-02,8.168444037437438965e-01
2.035574956428136684e-01,-7.482686799222975083e-01,-7.661054701459963923e-01,3.181916434503455262e-03,7.417387557080734953e-03,2.020613500448074570e-03,9.609767794609069824e-01
4.130276275326783542e-01,-9.000508674379583685e-01,-6.126953597681206176e-01,4.007787244643228053e-02,-8.668416641090981312e-02,-2.113025880964494729e-02,1.207529902458190918e+00
2.711029483262045181e-01,-1.016867249598115031e+00,-3.209702119125285580e-01,-4.178899793758796000e-02,-2.811904142250317221e-02,6.026624086482388482e-02,1.124878764152526855e+00
2.489788145930184049e-01,-8.292036113703800115e-01,-6.064398714768354237e-01,1.580488620740171102e-02,-1.455871826431203060e-02,2.138865158943362155e-02,9.872581958770751953e-01
2.201577441750850461e-01,-1.131104429141471801e+00,-8.802705242855903833e-01,-3.026024855604523417e-02,-6.764298115637246492e-03,-3.637658707025630267e-02,1.247693419456481934e+00
3.621502989353668767e-01,-7.372926195233238111e-01,-7.872892981100553245e-01,8.953411078293704514e-03,-2.536072079600113285e-02,-9.817436820987021640e-02,1.139002799987792969e+00
3.943259991346029225e-01,-7.207086545806882238e-01,-8.047508699157721601e-01,4.375706182210623019e-02,-3.424433362506167089e-02,-1.040407845937472431e-01,1.177204728126525879e+00
3.387198896913591328e-01,-7.207510905072940233e-01,-7.192616226505302857e-01,1.493685390704040453e-02,-4.586710749161961032e-02,-1.461982556506658815e-01,1.091789960861206055e+00
3.354297957146397113e-01,-7.322363508346325656e-01,-6.889888304936020447e-01,-1.630005316919986083e-02,3.315485348372067265e-02,-1.580659596908943754e-01,1.083815813064575195e+00
3.260228039100566133e-01,-7.123159589629617372e-01,-8.349850312495499249e-01,7.614355801476890839e-02,-2.121302855902244475e-02,-1.417335876699125086e-01,1.139989376068115234e+00
3.736051541528214170e-01,-7.303014970648575854e-01,-8.118435404782848863e-01,3.864540525977058771e-02,-4.571490865371549694e-02,-6.668647706346284010e-02,1.157309412956237793e+00
3.048894784641850153e-01,-5.970307058336098427e-01,-7.711972857383069258e-01,5.009267800716765001e-02,-1.770154678848612217e-02,-1.762441352144608064e-01,1.050015330314636230e+00
1.071413338444233698e-01,-7.355117494240273057e-01,-7.373305258677003149e-01,-4.322103249678964365e-02,1.552216974065514718e-02,1.399179468167668656e-03,8.473092317581176758e-01
3.655251469460190639e-01,-7.114344666838011699e-01,-7.846435811690306572e-01,3.429913750722868304e-02,-1.814520600971293932e-02,-8.270101350724429201e-02,1.126534581184387207e+00
3.523881943643225045e-01,-7.726624966244364234e-01,-7.380225747610482667e-01,3.781071929394423659e-02,-4.844805417629707844e-02,-3.985948860585306064e-02,1.115376234054565430e+00
2.503265063051144379e-01,-7.545849352133000565e-01,-7.658552531587068390e-01,6.200763148743479100e-03,-8.079013041339899726e-03,5.313003419826682269e-03,1.010789513587951660e+00
3.393324929633930731e-01,-6.878801790946582617e-01,-7.624332908230000427e-01,3.364501798925722403e-02,-3.109906042957768027e-02,-5.948366193513533740e-02,1.074345469474792480e+00
3.464705849365607992e-01,-7.381287254017181443e-01,-7.519827679681603261e-01,1.711200071311112791e-02,-1.949724314921128313e-02,-1.876100504488212653e-02,1.092999815940856934e+00
7.267415860915410475e-02,-6.914327630659424795e-01,-8.335401190955852302e-01,-7.102385943292488513e-02,-4.811048840598949015e-03,3.298448613741818136e-02,8.550471663475036621e-01
3.406194162281263038e-01,-7.397841016935335912e-01,-7.317575365639836793e-01,1.147663727866228903e-02,-7.488895350722015419e-03,-2.384115940680758133e-02,1.077465891838073730e+00
3.042205099905167520e-01,-7.955333715597832089e-01,-8.021144497344798729e-01,4.224843864450272823e-02,-1.592688717137986931e-02,-1.929913773568751184e-02,1.106333017349243164e+00
3.262931031882067567e-01,-7.674192866813501768e-01,-8.169491119980631932e-01,1.881990853126757485e-02,2.573802439356788485e-02,1.071628858042890549e-02,1.120814800262451172e+00
3.737132532801244467e-01,-7.746884067172652433e-01,-7.753902713932329105e-01,7.858455111958287994e-04,2.719466152838299769e-04,1.168729219252979457e-04,1.148753643035888672e+00
3.396925158627632779e-01,-7.441999767734575055e-01,-8.054993451366754265e-01,-6.834423398537304781e-03,-3.778562233994056836e-03,5.282766567650365452e-03,1.115925192832946777e+00
3.342426187803509419e-01,-7.444566611108178744e-01,-7.892195903547754021e-01,-8.519086926555877529e-03,-2.975053523795752179e-04,3.917345268957897215e-04,1.101862072944641113e+00
3.399835930705840115e-01,-7.768452719776410831e-01,-7.947311192710656558e-01,2.629931165521496098e-03,7.076933493305326804e-03,-3.399073614245587405e-03,1.125969648361206055e+00
3.265635480551815073e-01,-6.758347237970359078e-01,-8.216591388400698026e-01,-1.940526981140867219e-02,5.982170861473606188e-03,-7.766128893358027058e-03,1.083355545997619629e+00
3.431481167104353247e-01,-7.738477753365405887e-01,-7.869736116390169123e-01,1.404796270041088965e-02,-7.281845874227066071e-04,-1.274378018141006765e-03,1.123882651329040527e+00
3.193547001196505586e-01,-7.054428574309437039e-01,-8.078496478413423887e-01,-2.410848779711859818e-02,-6.924688520579777226e-03,4.779071845348991515e-03,1.080555200576782227e+00
3.315890573381728434e-01,-7.891412993838035073e-01,-6.657674812721239288e-01,-2.380844599857789845e-02,1.435607661484020713e-02,-4.555132991125238062e-02,1.068425178527832031e+00
3.287648265966656158e-01,-7.246559203116575976e-01,-7.199132802666250441e-01,-5.336638067170646968e-03,9.544020409016308517e-04,-3.164422825766316505e-02,1.052527427673339844e+00
1.338690196887600825e-01,-7.362326090036324100e-01,-7.392717587710569971e-01,-8.736368260388604340e-03,1.599968211039836177e-02,-9.595528816743121355e-04,8.721984624862670898e-01
2.668257625177531955e-01,-7.698872310505024963e-01,-7.743076847104883864e-01,1.754402005299746277e-03,-6.457305668059260678e-03,-5.742661768063594963e-03,1.039042472839355469e+00
2.002216392378390886e-01,-7.561494947475999595e-01,-7.471703140250478548e-01,5.690798666021097164e-03,1.355573542573642286e-02,-6.393201041347078804e-04,9.522544741630554199e-01
1.406313013829996739e-01,-7.385639654226723305e-01,-7.427219741591457591e-01,2.958127033983334528e-02,5.031391262197049130e-02,-2.883891332659920849e-03,8.870748877525329590e-01
3.348837753899318592e-01,-7.035162940762664796e-01,-7.541291831508791788e-01,-1.871430046588989926e-02,1.910470527978406358e-02,-4.996838530693369779e-02,1.069125294685363770e+00
3.325029702399959763e-01,-7.308403819239163157e-01,-7.218407000516349203e-01,-2.333264375374030641e-02,1.427478428007344230e-02,-3.302407438980841520e-02,1.061473846435546875e+00
3.574923672845478073e-01,-7.463271593180044183e-01,-7.716904494908929379e-01,-1.802100148016103423e-02,2.078226828431062323e-02,-1.721987244257851268e-02,1.118130922317504883e+00
3.254228900897885302e-01,-7.136417315316998522e-01,-7.814147466264367292e-01,-2.242066383613509559e-02,2.648398236628807592e-02,-2.601116612951571982e-02,1.077177286148071289e+00
3.520047549718189894e-01,-7.346673603373851114e-01,-7.730088513072433942e-01,-5.501478603668727603e-03,1.192024515774551922e-02,-2.028778463164857687e-02,1.107132673263549805e+00
3.095288858269859000e-01,-7.812556519758230289e-01,-7.820856923287529128e-01,9.742010947337318566e-03,-5.024526173737428603e-02,1.299111886008646674e-02,1.095025897026062012e+00
3.076488985769588180e-01,-7.707784460418446448e-01,-7.586065492305261726e-01,2.592595856711514893e-02,-8.300504048797530468e-03,4.547626675256038337e-02,1.076315283775329590e+00
2.311326097052169293e-01,-7.643346602628862119e-01,-7.822217433368956474e-01,6.198910647611763358e-02,1.643811783309693034e-02,2.212854861547599097e-02,1.011379599571228027e+00
2.040152549699691953e-01,-7.616239461743815609e-01,-7.848317962742732412e-01,6.097065538928198719e-02,-1.109821020141343005e-02,-7.734463487853466407e-03,9.834171533584594727e-01
1.298833138767071516e-01,-7.311719606670312732e-01,-7.738636966949692386e-01,-1.179325068968674860e-02,-2.494948280034581245e-02,6.081106065771980061e-03,8.845305442810058594e-01
3.703111678120553085e-01,-7.701913123684165363e-01,-7.911153568898562360e-01,-1.551651981653774832e-02,-2.751201858357808783e-02,5.950355053426737047e-03,1.152452588081359863e+00
3.328425872063621727e-01,-6.463141272239585344e-01,-8.081318633410881080e-01,-1.100929761493164502e-02,-1.691468904604848285e-03,6.822254269358424272e-02,1.075970649719238281e+00
2.919089513462091445e-01,-7.475285834599458834e-01,-7.990522868291944913e-01,3.262943222097238610e-02,3.985372637613304042e-02,7.976820302939223103e-03,1.069948911666870117e+00
3.751184459866767629e-01,-7.815807375193988271e-01,-7.790582951547289081e-01,3.213838145690187456e-03,-2.172946588123199699e-03,1.200980987097684336e-03,1.155461430549621582e+00
3.155631941298874810e-01,-7.539267942307994463e-01,-7.786548713845549141e-01,9.259807272580153001e-03,-4.288785851869860062e-03,9.563279402737082449e-03,1.082337021827697754e+00
3.333052118764968652e-01,-7.072403110142844174e-01,-7.501513709963987253e-01,-8.536209513437557558e-03,-1.785770627631434737e-02,7.786886511580487502e-02,1.071724414825439453e+00
3.402025933873014663e-01,-7.540234932563609771e-01,-7.043148283757842965e-01,-1.421470627528997194e-02,-6.641214121362799469e-03,2.163912995399955991e-02,1.071238756179809570e+00
-4.583660884017815018e-02,-6.424026788547843037e-01,-8.023612886655997478e-01,-5.353111391853439954e-02,-7.124526502136237227e-02,-9.813170132739290619e-02,7.277483344078063965e-01
3.666125411928245481e-01,-7.935079072481889817e-01,-7.689561560703624954e-01,-1.591590035115950444e-02,-1.752778960153057730e-02,1.198848555249015790e-02,1.148961305618286133e+00
3.532832141102059120e-01,-8.081283469543764086e-01,-7.338983600638963045e-01,-2.755685104940636121e-02,-1.027392624149042755e-02,6.336388543590028288e-02,1.132614254951477051e+00
4.165911972377361328e-01,-8.664103153229824050e-01,-6.687302261759260347e-01,6.159471217025551740e-03,-6.659532598386830315e-02,1.637192811134111359e-01,1.235061526298522949e+00
3.631938323626993648e-01,-7.348109048762923035e-01,-7.704123354105683052e-01,-2.393462849256948813e-02,-2.197868476671919688e-02,3.271943135027746002e-02,1.119085311889648438e+00
3.673876452348323052e-01,-7.787669394209049134e-01,-7.734740376863092903e-01,-5.285875278201277762e-03,-1.875013968264804126e-02,1.068350972925248207e-02,1.144164681434631348e+00
3.371359042957759455e-01,-8.817412782024247608e-01,-6.005465815808288532e-01,-4.020095930847243648e-02,8.621321288438417441e-02,-8.363227944688726712e-02,1.126995921134948730e+00
2.984908725577061772e-01,-8.072674628671900887e-01,-7.420820431515461335e-01,-1.296176481981871961e-03,-1.097027700056094589e-02,-1.176638288446110320e-01,1.093970656394958496e+00
3.096822754106257070e-01,-7.769924221848032442e-01,-7.573260093615634680e-01,2.894174734048902270e-02,-4.285609345277774374e-02,-7.775795610104542510e-02,1.089054346084594727e+00
1.433279319285513109e-01,-9.362051563798612364e-01,-7.989925510591973090e-01,-1.058761304774600426e-02,-1.264275975516621908e-01,7.522879743251262297e-02,1.049456834793090820e+00
1.681819389876866300e-01,-7.671226120160350437e-01,-8.229586934594530501e-01,6.543327718595930154e-02,-2.290382785680063898e-02,8.937874077091299829e-02,9.841341376304626465e-01
1.981963110281357299e-01,-8.113701970876243674e-01,-1.098813800936908613e+00,-1.212719114137485316e-01,6.760017523832431707e-02,1.769762010011582953e-01,1.242510914802551270e+00
8.936559570930924234e-02,-8.774046459027342593e-01,-7.377745249013576423e-01,-7.876623684404604475e-02,-2.399599372727640595e-02,1.404307620916061539e-01,9.479731917381286621e-01
1.238144690556662875e-01,-1.017925725769176726e+00,-4.581584787574412565e-01,7.506895887194219019e-02,2.445137428188428122e-02,1.203613047453802459e-01,1.019785046577453613e+00
1.050878752534497029e-01,-7.659034575636525233e-01,-6.884166532449633724e-01,6.381413319534894046e-02,-7.073918720428422867e-03,1.279993746405901633e-01,8.710098266601562500e-01
5.227133855906207494e-02,-8.144523508693607416e-01,-6.595224865680684445e-01,-5.346227634365169172e-04,6.424165332242856574e-02,4.493747652572285117e-02,8.120170831680297852e-01
1.889706251547099702e-01,-7.916763804160178442e-01,-7.974411631427833491e-01,-8.712931566686094031e-03,-1.020005834054663885e-01,4.009716012921594741e-01,1.217016696929931641e+00
3.286801353854204577e-01,-7.245714163501978389e-01,-7.588300518500252778e-01,2.887779179063794388e-02,-3.132586841855597437e-02,-6.444305295744752471e-02,1.079119920730590820e+00
3.391198647091108742e-01,-7.376717547951926468e-01,-7.349810719629810141e-01,1.081566485270358050e-02,-4.037389799757533371e-03,-2.393226725765033869e-02,1.076433062553405762e+00
2.979014083156200643e-01,-7.136258878205166134e-01,-6.872046041397210647e-01,-3.192392347407923127e-04,-4.039977683485738991e-02,-1.594878629020449745e-01,1.038443803787231445e+00
3.575106633039984994e-01,-7.900805383467539578e-01,-6.982218977058177733e-01,1.536952693574451800e-02,-6.401137893507381250e-03,-4.650954774966364197e-02,1.107839584350585938e+00
3.073202798196372765e-01,-7.018121358479119110e-01,-6.999156012772196345e-01,7.031289109510422027e-03,-5.875472946149115291e-03,-4.603151753156088655e-02,1.011457681655883789e+00
3.212488335924462146e-01,-7.447481423491639774e-01,-6.974356690646860146e-01,3.290436487018879967e-03,-6.962074718942966312e-03,-5.369644194283358651e-02,1.047368526458740234e+00
3.716229801358771900e-01,-7.715156915264441695e-01,-7.786539121035380706e-01,-2.838768579257132905e-03,-2.969031865630929364e-03,-7.656432183081119183e-04,1.146747231483459473e+00
3.115592319661766307e-01,-6.844786376307649967e-01,-7.420596895667070925e-01,3.743818450401156100e-02,-2.402293586696077621e-02,-5.749590501055657638e-02,1.033737540245056152e+00
3.336069137548462460e-01,-7.000827004443697099e-01,-7.595172784685573220e-01,3.097917048271089761e-03,-1.329070341390612905e-02,-2.449345068966941874e-02,1.065758943557739258e+00
3.282375718310041601e-01,-6.976588673227717141e-01,-7.453547901069794701e-01,1.094520483247409144e-02,-1.269606355141327664e-02,-5.546377873511849910e-02,1.055339336395263672e+00
3.341435651033699550e-01,-7.343341418897683104e-01,-7.330677911448709727e-01,1.632016447717828805e-02,-1.244946603618235850e-02,-1.785437385752652872e-02,1.068884253501892090e+00
3.063462737582861029e-01,-8.510687585006626588e-01,-7.823997988822394278e-01,1.013510901188189803e-02,5.195507229609501801e-03,9.266513153362654701e-04,1.124828100204467773e+00
2.893659409319715992e-01,-7.276685649374945442e-01,-7.907423820664942760e-01,1.376285840054143270e-02,3.449226436638647142e-02,9.366277108442956981e-03,1.052086591720581055e+00
2.989445676549679076e-01,-7.810617360657812203e-01,-7.810331406998706205e-01,1.691371671403430138e-03,5.193170635276715338e-03,-1.286916863103113387e-02,1.080263376235961914e+00
2.470659029089989911e-01,-6.791397429714229883e-01,-7.968050605727075020e-01,3.655503913553990753e-03,7.058094757905929856e-03,1.120833548913002971e-02,9.905809760093688965e-01
3.694401832469115798e-01,-7.883956048855216281e-01,-7.783686764759982779e-01,-4.420344750234395971e-03,-4.428620249263634935e-05,-5.154983480237146191e-03,1.152915000915527344e+00
3.280151492853956574e-01,-7.747487032811630758e-01,-7.971852460110206984e-01,-1.386066248646577494e-02,1.929495994181503263e-02,-2.693542990290082387e-02,1.115886926651000977e+00
2.494177492136710472e-01,-7.439516627869668941e-01,-7.686087231791390861e-01,2.960319983759381046e-02,4.996787789016477951e-03,-2.271394697219983067e-03,1.007275462150573730e+00
3.907511808940925535e-01,-7.678868456961687183e-01,-8.281983642137193957e-01,-1.317751302663115916e-02,2.168208775017260899e-03,-2.899638119429810701e-02,1.191224694252014160e+00
3.537463497497651543e-01,-7.707395390398241730e-01,-7.489059861632328952e-01,-7.809077012397423571e-03,-2.324958057321139116e-04,-2.058585923176845661e-02,1.114382386207580566e+00
2.712953993270436626e-01,-7.110689716911724467e-01,-8.597599819611592142e-01,1.155461399787039226e-02,-1.202989824074357506e-02,-3.992341364455377281e-03,1.064941287040710449e+00
3.731040780340766916e-01,-7.813235376529101828e-01,-7.775037158747777344e-01,-2.675180713942423502e-03,7.090672999882667235e-04,3.059412677667919787e-04,1.152532577514648438e+00
3.846339199217547744e-01,-8.087903013132917707e-01,-7.687308550618857650e-01,-2.418482299529390450e-02,-4.145624970003456561e-03,1.025903518449030639e-02,1.174810767173767090e+00
2.970949231208877550e-01,-7.526921292662855922e-01,-8.395574403263406094e-01,-1.099206393860984073e-02,2.785667267646017246e-03,1.104968444158374863e-01,1.112565875053405762e+00
2.888808067776222899e-01,-8.009284634524087565e-01,-7.497012099634925431e-01,-5.682097905057906760e-03,2.869934499417710685e-02,1.222268785537581823e-02,1.066534876823425293e+00
2.392545697370740965e-01,-7.830448968858589875e-01,-6.622855731288250780e-01,5.956940947941556826e-03,-1.398895367255608389e-02,9.158651195131820022e-02,9.808591008186340332e-01
2.513467065021180447e-01,-8.463258798776018832e-01,-6.443343945615586099e-01,-3.605904206266589973e-02,-8.484464180600387664e-03,6.718841238257740323e-02,1.020600199699401855e+00
3.371416772189146371e-01,-8.200117187306948940e-01,-6.849336326216570736e-01,-2.318709474065352907e-03,-2.763532173432350220e-02,1.304845644155772089e-02,1.097160935401916504e+00
4.405297416881910899e-01,-9.332250194674480692e-01,-6.940943207949408222e-01,-1.877910790658993134e-02,-9.456327327122515322e-03,1.019500582485603213e-01,1.283895015716552734e+00
2.574267300082113685e-01,-8.558611149360138004e-01,-6.384124633948353722e-01,6.653460405255354378e-03,9.826398194988515689e-02,2.337180579440837486e-02,1.036990761756896973e+00
2.670709130803535225e-01,-4.174703998415938422e-01,-8.462565465183928826e-01,-3.264712423945912573e-02,-6.324017007938911861e-02,-2.671290654099922612e-01,1.084087371826171875e+00
3.608148978941692064e-01,-4.490003624995876907e-01,-1.011870585818402501e+00,1.352604692891145460e-02,1.223299250447392166e-03,-1.009867959544101107e-01,1.208136081695556641e+00
3.846792229131302254e-01,-4.778962803424482431e-01,-1.016827726321002379e+00,-5.722470997881604765e-02,3.831819568771190065e-02,-9.058884029349129063e-02,1.240242123603820801e+00
3.667450458289751025e-01,-6.299188283015391132e-01,-8.586102134092910010e-01,-3.954516449136101508e-02,7.940066596471541394e-03,-6.948328735063297179e-02,1.137071490287780762e+00
3.941737518952458941e-01,-5.373471389760392514e-01,-9.635350044951909165e-01,1.359408765440238247e-02,-2.295032819072122948e-02,-6.277630018870436479e-02,1.208440065383911133e+00
3.429548875061807500e-01,-4.627216830733881237e-01,-9.183479405494608949e-01,-8.196640184163254961e-02,4.355760278065256771e-03,-3.225633568640571408e-02,1.116750240325927734e+00
4.006860020163738878e-01,-5.409006505212670124e-01,-8.992023596933649277e-01,-1.257213077939826895e-02,5.541616930594632506e-02,-9.332348474110829795e-02,1.178198814392089844e+00
3.374888978584440480e-01,-5.485898419959971406e-01,-8.659120188720623723e-01,7.538741653577353541e-03,1.367462583172599465e-03,-5.515024471649738330e-02,1.084574580192565918e+00
3.379112455298829421e-01,-5.353294447116001553e-01,-8.303295468294602522e-01,1.283440792750267442e-02,-2.756183839940565261e-02,-1.034882125794683305e-01,1.068682789802551270e+00
3.347859960611183627e-01,-7.305867511259571678e-01,-7.205527285111186231e-01,1.771234255341952793e-02,1.200596920551208480e-02,1.210920501959017181e-01,1.081569790840148926e+00
2.970580290704617488e-01,-7.647894885831653111e-01,-7.744318060745557508e-01,1.156361839039828088e-02,-9.017951284593674760e-03,2.694184726600582294e-03,1.067013859748840332e+00
3.375900910077688222e-01,-7.789156048235877927e-01,-7.818664030001050147e-01,-9.817878193216783220e-03,-3.855158248263830523e-03,2.820675613819777043e-03,1.118143916130065918e+00
2.957420668378475392e-01,-7.659872218891903284e-01,-7.827964197361885201e-01,-1.430801527043092276e-02,-3.689275584805638483e-03,-1.132546663239308339e-02,1.070718526840209961e+00
2.509581225557664386e-01,-7.634462534939492340e-01,-7.634955190111245571e-01,1.889006152424171914e-02,-7.668602514423816970e-03,4.298087676118045146e-03,1.015070676803588867e+00
2.836394217681873497e-01,-7.707502368620890998e-01,-7.682345301020944150e-01,1.859426905844279235e-02,-1.360231943695634597e-02,4.351703261806075251e-03,1.053916692733764648e+00
3.437002474787630990e-01,-6.942490846396474069e-01,-8.138654517140784250e-01,-2.613508757492878642e-02,-2.514127681332533129e-02,9.224265604401934993e-02,1.115918517112731934e+00
3.714174909180928408e-01,-7.267774053936955081e-01,-8.141546136595999572e-01,3.263747640051697235e-02,-3.198717231534976141e-02,-6.931389009604137230e-02,1.153387308120727539e+00
3.350897441468732030e-01,-7.010279590217030066e-01,-8.118285851576849677e-01,2.209647038311664605e-02,-9.944098325946766279e-03,-1.203814259972854454e-02,1.096729397773742676e+00
3.711368560896465274e-01,-7.529649472157345924e-01,-8.329598965775957264e-01,-2.009326064001498019e-02,4.325300115962313883e-05,-1.140550583351134482e-02,1.166845321655273438e+00
3.863158638897804531e-01,-7.923235810113915534e-01,-8.067420111537617622e-01,-7.262955547847260371e-03,-1.359016600181096532e-02,-3.922004679548826700e-02,1.188158154487609863e+00
3.554439651420512880e-01,-7.066247988920627554e-01,-8.104143551254630040e-01,1.001295186567556506e-02,-1.216080955362891167e-02,-2.687958172223605183e-02,1.118885993957519531e+00
3.066977500410833501e-01,-5.783524566625588559e-01,-8.857432895824894903e-01,1.777425710358734867e-02,-5.497774151428008738e-02,-4.857559298940567621e-02,1.080256223678588867e+00
3.172198726025553528e-01,-8.611116201341817433e-01,-5.758305841203850139e-01,3.725349862528352235e-02,-3.786868363752195991e-03,-1.010971517439197137e-01,1.081001043319702148e+00
3.304412044586444441e-01,-8.750687623837820617e-01,-5.117636949144319658e-01,2.403301107886833543e-02,-5.081556001209976137e-02,-8.636642339631703247e-02,1.085879325866699219e+00
4.046040809709665065e-01,-8.849876119597703816e-01,-5.967458032384342914e-01,3.074499029018073343e-02,-9.517901068470144971e-03,-1.067477813654865992e-01,1.188153505325317383e+00
3.880688648523678563e-01,-8.568400226356953642e-01,-7.026293571502875146e-01,1.843848093120866241e-02,-3.770388211992020677e-02,-5.589935101378512572e-02,1.181634306907653809e+00
3.852459483968583842e-01,-8.891085452517948351e-01,-6.111389249645325927e-01,2.064044551062494542e-02,-5.902139757876183508e-03,-2.165229955465462416e-02,1.161810517311096191e+00
3.525959153797979528e-01,-7.617836872709035090e-01,-7.682702210913383567e-01,-1.339561523463234614e-02,-5.556152664437218752e-03,4.095240865227405686e-02,1.120167255401611328e+00
2.597626591447630973e-01,-8.402090879238177656e-01,-7.132375133448520810e-01,3.017194639672835313e-02,1.631003928992780586e-02,-7.670357254050313989e-02,1.052413344383239746e+00
3.367270698361742864e-01,-8.915929406221038134e-01,-5.791614775164404261e-01,1.492156417982184666e-02,-5.656395989192259527e-02,-1.878509385764288650e-02,1.110829710960388184e+00
3.315601796480088792e-01,-8.918327501687620673e-01,-6.067838896032187179e-01,1.163932424127370495e-03,2.007152023053531895e-02,4.653628482664524599e-03,1.109276294708251953e+00
2.986501455521726744e-01,-8.567114505711534989e-01,-4.571019396824531622e-01,1.101557901126558499e-02,1.141534459740353898e-03,1.455603602434408783e-01,1.047275543212890625e+00
3.523063226353803645e-01,-8.581601929895735781e-01,-5.879894643318605008e-01,1.348726057546551643e-02,4.739519768758826412e-02,1.047429095279945460e-01,1.118653893470764160e+00
2.862006020667497430e-01,-8.131523228658914526e-01,-6.264718193620397724e-01,2.794802154493632521e-02,3.348855639784781291e-02,8.293249301195393386e-02,1.031765341758728027e+00
2.445811525994145974e-01,-8.173655038559280994e-01,-6.846805369093464932e-01,9.242308679370177596e-03,-1.979763511697856318e-02,-1.990726750266309797e-02,1.003520131111145020e+00
3.638743792961321999e-01,-7.778451967266906131e-01,-7.845042303791279759e-01,-3.839498595700920232e-03,6.329976658597826628e-03,-9.092609843628496466e-04,1.145136475563049316e+00
3.507891776363959435e-01,-7.757259003277375831e-01,-7.639775491705785848e-01,-3.599136259137933509e-03,9.746936388964505885e-03,-8.237806640880722051e-03,1.120922446250915527e+00
3.461541388867962477e-01,-7.885563706276546014e-01,-7.735812260505281479e-01,1.574032190178543608e-02,-1.292325989517554077e-02,-2.413177171490226824e-03,1.127857089042663574e+00
2.410295907427448814e-01,-7.628720216987554537e-01,-7.674898341004925406e-01,2.043622814179144043e-02,-2.579678778770895173e-02,1.031215518677072555e-02,1.007990002632141113e+00
3.111266599110992237e-01,-8.243570189575770701e-01,-8.586094168343898492e-01,2.262326235830536270e-02,-9.812003133827554638e-03,-3.850080624867961016e-02,1.155707836151123047e+00
2.488945339533431000e-01,-8.531300006815789594e-01,-8.339398856941978577e-01,-3.952036136654363957e-02,-1.371982551054981223e-02,-3.788966104258075646e-02,1.096920967102050781e+00
2.028994655746501619e-01,-8.089093302342094116e-01,-8.222007548456800041e-01,-6.235770733742269922e-03,-8.623916825490711424e-02,-3.706963753395957351e-03,1.029490947723388672e+00
3.729482897461511293e-01,-8.495078722649705982e-01,-7.477188068408693322e-01,7.155183979889765756e-04,1.752712555527690709e-03,2.154029953134216011e-02,1.175470113754272461e+00
3.695324606627582442e-01,-8.639928636386078331e-01,-7.487584540667456823e-01,5.225701957697661756e-03,-4.520067563553967931e-04,2.238694888392940975e-04,1.180170297622680664e+00
2.620623432192826230e-01,-7.967456484894404056e-01,-7.598349301037496950e-01,1.392748974012686727e-02,4.980161000998209637e-03,-2.393797932553936442e-03,1.041167140007019043e+00
3.186113367915977546e-01,-8.997658935799872637e-01,-6.961101317503028962e-01,7.776156527441999144e-03,-2.261575247744336201e-02,1.068092163976939839e-02,1.131303310394287109e+00
1.981291085187845691e-01,-7.244147320565271775e-01,-8.208115042219645829e-01,-1.700268056423612228e-02,4.501242289161285111e-03,3.473774351752272060e-02,9.766564965248107910e-01
2.675301047515792896e-01,-8.023038345745169275e-01,-6.984651966627941633e-01,1.326895156533773254e-02,1.719744847332086921e-02,-5.811114215446978870e-02,1.027513146400451660e+00
2.945906301954490658e-01,-9.143053577360942263e-01,-6.670883941056866551e-01,4.574445920553422973e-02,1.427651016697431899e-02,-1.012849963309239154e-01,1.123098969459533691e+00
3.825627736130925993e-01,-8.667612463533053146e-01,-6.743212856567539770e-01,2.076162154826980896e-02,-6.823270496796218776e-02,-7.341331705715428702e-02,1.178495883941650391e+00
3.573195486750064265e-01,-7.283497634813161925e-01,-7.716140494620584711e-01,1.136238354101484771e-02,-3.857485192165893695e-02,-7.225130628624752693e-02,1.117153763771057129e+00
2.491899415426114262e-01,-8.234525126309665266e-01,-6.387978208077141895e-01,1.717831158012687182e-02,-2.691061864007588192e-02,-2.042630438989566366e-02,9.954397082328796387e-01
4.034871798415286537e-01,-9.552125097774089024e-01,-6.176733648961941769e-01,-2.731366997604753322e-02,-3.122345900454472425e-02,-2.264461052662861476e-02,1.228040814399719238e+00
3.643138640645250392e-01,-7.836368294801390189e-01,-7.812025722196087596e-01,-6.822323997947434687e-03,2.294949370369191166e-03,-1.666894564287321225e-03,1.146806955337524414e+00
3.481552916423198973e-01,-7.560893203437336618e-01,-7.889572695762520071e-01,-5.969798092228527017e-03,7.143690365787132637e-03,-5.355960515131754848e-03,1.121194362640380859e+00
3.435127418105219932e-01,-7.483951274721118985e-01,-7.571719680840353073e-01,-3.253483193501686965e-02,2.869739111262393366e-02,-4.972045307355503485e-02,1.102263927459716797e+00
3.681986732128809670e-01,-7.647754618510995694e-01,-7.852457326199581145e-01,-9.031699776992963696e-03,7.159456471938662435e-03,-5.426848151012760198e-03,1.143559575080871582e+00
3.107383998723506346e-01,-7.596022667712845067e-01,-7.749140675774500719e-01,1.359975966270732944e-02,6.484721584112161132e-03,-3.242181938485933727e-03,1.078408598899841309e+00
3.664324757992548087e-01,-8.102104690516758190e-01,-6.707812575118563547e-01,-2.649709457304570692e-02,1.823690332704773487e-02,-8.683772201782513633e-02,1.124987602233886719e+00
4.259655150351252528e-01,-8.525574887961417936e-01,-6.639335937324148951e-01,-6.763253334614445500e-02,2.361492877271503810e-02,-1.477561044834029280e-01,1.228792548179626465e+00
3.564189190786826167e-01,-8.301155330166385404e-01,-6.294944493157014209e-01,-1.995226253477189529e-02,6.614477345087563243e-02,-8.111033950576412854e-02,1.115403652191162109e+00
3.214858760682672845e-01,-8.189169610057718263e-01,-5.873956385411076564e-01,-5.800761803807626994e-03,2.312125045097511433e-02,-1.017559450853940117e-01,1.059651255607604980e+00
3.927307109401528828e-01,-9.107883955653132135e-01,-5.577104906435980114e-01,-3.871529155540361783e-02,-1.485764398107880871e-02,-2.942330100710702917e-02,1.171041607856750488e+00
3.894713790944533405e-01,-8.587146446595710358e-01,-7.060417668652865242e-01,-1.400929107100344628e-02,5.279887768812579346e-02,-3.015632270085845910e-03,1.183086037635803223e+00
3.200856710095296154e-01,-7.834211839982878622e-01,-7.014076629415100239e-01,1.145445819876544404e-03,-8.012233372111687499e-03,-5.954622074290576161e-02,1.069946169853210449e+00
3.894446732766213559e-01,-8.921763187588119814e-01,-6.794021326068706568e-01,-2.920543779196907441e-02,3.091005219681807262e-02,-3.362638347106670228e-02,1.193292379379272461e+00
3.207041403876961239e-01,-8.008406460259955839e-01,-6.366287980533906765e-01,-8.264486470137799579e-02,8.228775505955571168e-02,-1.528281529850621656e-01,1.100695729255676270e+00
3.959097161958143873e-01,-8.260015214119635907e-01,-6.810105884683637090e-01,-1.913691350735357080e-02,1.648861017074077992e-02,-9.822586254309363663e-02,1.169522404670715332e+00
3.724829123010661158e-01,-8.398089429415244167e-01,-7.285190550797453479e-01,-2.679883271880508303e-02,6.830713743189756326e-02,-5.526075340576096229e-02,1.171509504318237305e+00
3.648551963463565473e-01,-7.663774066983799482e-01,-7.701689451500806083e-01,1.108518764197909991e-03,9.129182334707245869e-03,-1.056062126367939523e-03,1.133246541023254395e+00
3.613544149297469033e-01,-8.688063990761167865e-01,-7.209619568451839378e-01,-5.093259309879998725e-02,5.120016871943655623e-02,-1.188184189889270881e-01,1.187973618507385254e+00
3.360703321904165986e-01,-7.844950282256835106e-01,-6.522842459255790981e-01,-5.673201468469315362e-02,6.918209971100290623e-02,-1.796944872294638507e-01,1.116189956665039062e+00
2.896658023396854742e-01,-5.834317220884910338e-01,-8.596450622604004943e-01,-4.672832426224267713e-03,-7.497923914147966613e-03,2.654950225974694530e-02,1.040241837501525879e+00
3.578869579928959932e-01,-6.411709309530473355e-01,-8.703990404179777762e-01,-3.330101983391084430e-02,-1.789454630616908390e-02,1.915983258378739507e-02,1.133606314659118652e+00
4.212542136641359014e-01,-5.560663821871658641e-01,-9.924296757299255756e-01,-8.656143921804164421e-02,-1.329845304769711363e-02,4.383680540180535240e-02,1.265231013298034668e+00
3.539278282764843908e-01,-6.217136634636756254e-01,-8.702582976132395842e-01,1.513193246024755259e-02,-1.408845814204399624e-02,3.644687741717360374e-02,1.123124480247497559e+00
3.469134156516381906e-01,-5.748092797091794992e-01,-8.749132126159344658e-01,-3.498189906271680083e-02,-1.334649126617528346e-02,3.342931715681704552e-02,1.106257557868957520e+00
2.971650831082398581e-01,-4.777091655875120857e-01,-8.705959854033775702e-01,-1.066242484059870370e-02,-5.425527410785821458e-03,5.934985293515397664e-02,1.034516572952270508e+00
3.782417849449274394e-01,-4.985605786964084074e-01,-9.904711175643179377e-01,3.284781990220670723e-03,-7.022046380218242845e-04,-2.203652238216811943e-02,1.201481342315673828e+00
3.155073459012372461e-01,-7.448552043113361165e-01,-6.612580933150160600e-01,-2.164629881098302164e-02,-3.492344169490571582e-02,7.032737974909591960e-02,1.030832886695861816e+00
3.174069636548599305e-01,-7.511489508587563257e-01,-6.496542702093663912e-01,1.255636053322377148e-02,3.292636184535865929e-02,7.315055492113471669e-02,1.031231641769409180e+00
3.416793455888741393e-01,-7.711389348012502865e-01,-7.151518552269233719e-01,-2.343389130401427045e-02,-2.652918801731582454e-02,3.189483112571561002e-02,1.089039206504821777e+00
3.352671735979497747e-01,-7.579137913420995742e-01,-7.975630662600867726e-01,6.886405462962018722e-04,-8.013092994058694171e-03,1.230356507130735133e-02,1.113826155662536621e+00
3.213740240947713378e-01,-7.128988712927276650e-01,-7.074150867775194085e-01,5.068429482777704609e-02,4.517898322175727815e-02,7.454670879115705973e-02,1.046221971511840820e+00
3.181831053288928790e-01,-6.945721206428439043e-01,-7.366750355782349935e-01,7.033736433090059760e-04,3.529976244761921008e-03,2.924624823184063596e-02,1.035707831382751465e+00
3.691908481352588201e-01,-7.739690588658496573e-01,-7.819542698625706612e-01,-6.411396806166517852e-03,-8.950824364552212656e-03,-1.330617615306308593e-03,1.147334218025207520e+00
3.035808874469683727e-01,-6.458889940948795427e-01,-7.262362038779668350e-01,1.512992632361354365e-03,6.338707796433977644e-03,1.009751220896029922e-01,1.007447957992553711e+00
2.883572988308711893e-01,-6.600918558341388742e-01,-6.491425667957901879e-01,2.156570488374892278e-02,2.665739074880112136e-02,1.837066742463980829e-01,9.970267415046691895e-01
3.199971393089913185e-01,-7.138119883432878510e-01,-7.150814550145505599e-01,-5.098584395611653435e-03,-6.771275318618839856e-03,3.837190661205968495e-02,1.036681294441223145e+00
3.457869144577793707e-01,-7.602395796539989092e-01,-7.830143460743410611e-01,-2.180183928929799002e-03,4.723133833610404682e-03,-3.970848703096650691e-04,1.117624521255493164e+00
3.370713613324796132e-01,-7.786583587556216157e-01,-7.735610804011028296e-01,5.225708558981602674e-04,-6.534194903966016087e-04,-1.409856884559842170e-03,1.113193511962890625e+00
3.085425186008318166e-01,-7.496909930499403574e-01,-7.771850984686439201e-01,-1.625376861536652687e-02,1.242405022206366678e-02,1.385722647803048525e-02,1.073098778724670410e+00
3.166976732811787598e-01,-6.791332075506681942e-01,-8.134114778845793481e-01,1.962816297150719175e-02,1.165898941557375230e-02,1.890015055862007826e-02,1.070543527603149414e+00
3.673421302717323478e-01,-7.711811233106922181e-01,-7.882644866618794266e-01,1.038895314549399124e-02,1.257061565591226053e-02,3.998483068573537740e-04,1.147508263587951660e+00
3.488791315382047120e-01,-6.285338687143524616e-01,-9.014040159114155015e-01,7.193801442578377781e-02,3.275783993900047153e-02,-3.727493511870777487e-02,1.148657441139221191e+00
3.423873057585922752e-01,-5.163211996734802245e-01,-1.022376757884934317e+00,-8.883377567322786605e-02,3.736864741218887120e-02,-2.486701104605748558e-02,1.207371234893798828e+00
2.692449141095041298e-01,-7.528548275872201101e-01,-8.055990718537173745e-01,6.845268229108482892e-03,-2.513646460121623551e-03,4.563636979242591783e-03,1.049572110176086426e+00
3.260489129415699017e-01,-7.552161252664076896e-01,-7.864122551517993553e-01,1.069728520339384079e-02,-7.729279258879351473e-03,1.223746234393194646e-02,1.097638487815856934e+00
3.408992810227713388e-01,-7.317632047227553560e-01,-7.673232362680698637e-01,-1.365364200623069534e-02,-6.126702905859615113e-03,3.020041428639222772e-02,1.092438220977783203e+00
2.647911456489580040e-01,-7.304971978894255757e-01,-7.900412187797952734e-01,-2.188044618199618679e-02,-3.808558885417054861e-03,-7.528933723427461838e-03,1.027160048484802246e+00
3.160561059591410205e-01,-8.239999992140655261e-01,-8.080367580574343567e-01,-2.845956686362654392e-03,-1.117846501879108398e-03,-9.559150796709351902e-03,1.132292389869689941e+00
3.637452482960046862e-01,-7.868298310918053762e-01,-7.774248276012911685e-01,-3.779297373662717559e-03,-2.955693058694771821e-03,-8.243056615922846487e-04,1.145932555198669434e+00
3.719312439125129210e-01,-8.628112333109629883e-01,-6.364506236458369326e-01,6.642006659563758422e-03,3.305860974414187581e-02,-1.066356482731952403e-02,1.140211939811706543e+00
3.384868933221100162e-01,-7.796102713607833135e-01,-7.648674048491170829e-01,4.120036823891919629e-03,5.054284970657911286e-04,4.031037827023212401e-03,1.110844373703002930e+00
3.698064186144958132e-01,-8.377347410690161311e-01,-7.134225929719311132e-01,-3.156826219740379441e-02,-1.038633514232366502e-02,-5.591368100467104807e-02,1.155936598777770996e+00
3.749560582605510062e-01,-8.569457724953442046e-01,-6.784262293545459954e-01,-4.134414344952432041e-02,8.100966874977147403e-02,-3.357066928420428947e-02,1.165216445922851562e+00
3.293222031051046272e-01,-9.063485918772387073e-01,-5.244398956513929289e-01,2.001439389934811866e-02,-2.214484045346612473e-02,-5.019383571687819484e-02,1.100479125976562500e+00
2.647465347797396951e-01,-8.931523705928678947e-01,-6.810027279661260424e-01,-2.034207553827893297e-02,-2.573850965709769192e-02,-6.839123735998901832e-02,1.075802206993103027e+00
3.658512498679841185e-01,-8.100588271206874413e-01,-7.648579618489252940e-01,-2.124802540177711876e-02,8.868935377989981862e-04,-3.667913232987764574e-03,1.154579043388366699e+00
3.693976763446761846e-01,-8.371556965396285133e-01,-7.105214479584067711e-01,-1.668930378151262106e-02,4.235554531532337297e-02,-3.158938954348044365e-02,1.152487516403198242e+00
8.054507564179447243e-01,-9.181679049290401018e-01,-7.996167063393886387e-01,-1.214607208791910857e-02,-4.599148955703091096e-02,5.800651574849390313e-01,1.948536276817321777e+00
4.205754791818946958e-01,-9.326416060798465857e-01,-5.999948014112425065e-01,-3.648249108873916069e-02,1.263970232289932279e-02,1.702903353843112089e-01,1.258243083953857422e+00
3.623997249783512675e-01,-8.054699821834072626e-01,-6.429735073111255694e-01,-1.095801160665532334e-02,-4.092955278526672763e-02,1.560755442647822067e-01,1.130935311317443848e+00
3.412909718014128235e-01,-7.241417851005493844e-01,-6.657397099114195083e-01,3.943810885374945084e-03,1.316376011720426370e-02,1.529754330673445128e-01,1.071030020713806152e+00
3.924845969578905636e-01,-7.756502751074381141e-01,-7.158350720013928470e-01,-1.792517234977783827e-02,7.854821200925600488e-03,2.263420688313086404e-01,1.205440163612365723e+00
3.281330897348448961e-01,-8.063382091419294406e-01,-5.516101534922541738e-01,-1.548949171883340879e-02,-4.101113630209117511e-02,1.236102699492755835e-01,1.055714845657348633e+00
1.586762522006775478e-01,-3.903097067787235086e-01,-9.118338032366839485e-01,9.523951529069106525e-02,2.569493608191759232e-02,2.582767764566168411e-02,9.438622593879699707e-01
1.995884769533081693e-01,-4.966366086386240219e-01,-1.218047496162993681e+00,-1.138311392630938224e-01,-2.284813840226613407e-02,1.333315618288654081e-01,1.265384554862976074e+00
4.667229674268524309e-01,-6.724221994219383713e-01,-9.564385480392543215e-01,-7.816926336079803306e-02,4.002466484168521604e-02,-1.514504679114621333e-01,1.339328885078430176e+00
3.618164735985884284e-01,-7.144251822200781143e-01,-9.095024550417443177e-01,-7.962338820121819816e-02,7.743468630160981435e-03,3.889534317251130274e-02,1.195842623710632324e+00
2.777610242932875839e-01,-7.577086885504293878e-01,-7.883284819518432407e-01,1.489304578804951859e-02,3.877064677019405325e-02,4.149234625024561529e-03,1.053597450256347656e+00
3.406157820179979145e-01,-7.862958489305892362e-01,-7.926048876957554334e-01,-1.489659422609787218e-02,-7.981860427633664934e-03,8.165324745337480816e-03,1.130546927452087402e+00
2.751528161373128500e-01,-6.749248644029710587e-01,-8.898129337168094732e-01,1.168533626895885275e-03,5.036614423350620207e-03,2.054354342169140146e-02,1.074398040771484375e+00
3.543996883797737030e-01,-8.314380503226537211e-01,-6.827126086304660113e-01,1.282582291501600802e-02,-4.040879805680627941e-03,5.183160231097757448e-02,1.122750282287597656e+00
3.432967349196967555e-01,-9.014809505615044571e-01,-5.297723087407568698e-01,1.518000377782049645e-02,3.071311324519296684e-02,9.634782188893102617e-02,1.120854139328002930e+00
3.075811075872689759e-01,-8.883558149781692892e-01,-4.693408703960058048e-01,7.829873662013795560e-03,7.925191003529868938e-03,4.455850862338951029e-02,1.054064512252807617e+00
3.478457980533373739e-01,-7.633956398694199397e-01,-7.089382188685660058e-01,4.242303178906567732e-03,8.028465180521884154e-03,4.818714595252494154e-02,1.088357090950012207e+00
3.626508485544822635e-01,-8.021180561454301916e-01,-7.671853146018423608e-01,-9.290618631877210765e-03,-1.210012606238237975e-02,4.426090400459227470e-02,1.150562286376953125e+00
3.224833549033795932e-01,-7.542533525123633620e-01,-6.556958949941946724e-01,-3.093884164815378229e-03,5.909049997659972416e-03,1.369870765052208228e-01,1.058009862899780273e+00
4.310713254034497788e-01,-9.498328143454652928e-01,-5.613914592182003283e-01,-2.731299588883862386e-02,1.752998722430841247e-02,6.146609416821376820e-02,1.239305019378662109e+00
6.716544138595437197e-02,-9.611785266943890793e-01,-7.976001160090153697e-01,1.276175191190129232e-01,1.630379337895228667e-03,-2.044268432405147440e-01,1.044160962104797363e+00
3.776019108510982325e-01,-5.473433733180977923e-01,-9.380782369525966224e-01,-2.250629815182410287e-02,3.934568734357917624e-02,-1.383533819449074831e-01,1.197161078453063965e+00
5.087765993252263419e-02,-5.910913401523819610e-01,-9.045883343602562077e-01,7.635794194873617158e-02,-9.457316766528533689e-03,-4.961742852150573951e-02,8.583737611770629883e-01
1.084346181921955199e-01,-7.483309370789614778e-01,-8.060366371299960697e-01,-5.818134710865003473e-02,7.336948903443185621e-02,-4.118420055787984368e-02,9.045497775077819824e-01
-5.570289688389845617e-02,-6.043166064183969066e-01,-8.717883455918556956e-01,-5.560498901301449970e-02,6.795544514717503926e-02,6.186998755996266086e-02,7.442244887351989746e-01
1.721594848274957124e-01,-7.625896797931486226e-01,-8.787323447311585767e-01,-6.244004222387285197e-02,-4.573079464144023942e-02,3.729047368127964401e-03,1.006886959075927734e+00
1.530466869170346578e-01,-8.050347794296254245e-01,-7.686238896910924101e-01,-6.746171415889107292e-02,-1.061397705741227125e-02,2.226473469807544597e-02,9.485987424850463867e-01
3.141215015010548339e-01,-4.639414018215898272e-01,-9.079689918492848122e-01,-7.332135065773731641e-02,1.652164795345083953e-02,-6.236390031973380876e-02,1.084729671478271484e+00
3.229396692597116814e-01,-6.393778516107333498e-01,-7.251092567325558846e-01,1.968148936413110974e-03,5.390041808536772186e-03,1.810873139451662506e-01,1.055643081665039062e+00
3.710230138457904503e-01,-8.449435476679887369e-01,-5.584627538901807409e-01,-1.677949460279526406e-02,2.532652286815620032e-02,2.572425482283194897e-01,1.188942790031433105e+00
3.522294850437535652e-01,-7.853909559449713251e-01,-6.777529313177926840e-01,3.268460875934429272e-02,4.081713120933481986e-02,1.034810194968515257e-01,1.106184005737304688e+00
4.169087019893880086e-02,-7.256093700486856424e-01,-7.228990067613695336e-01,3.535897404126985000e-02,3.608526810627783743e-02,1.205112687247980683e-03,7.709338068962097168e-01
-4.509971984879196372e-02,-7.016501286013380190e-01,-7.080189054836329987e-01,-2.474173226154284880e-02,-2.922692179779734500e-02,-5.712915135769535205e-03,6.631571650505065918e-01
-7.222906788801991551e-02,-6.977279786201835421e-01,-7.027062963571931720e-01,1.085623406866166769e-02,-2.353267095678460846e-02,-6.762043490441862169e-03,6.297140121459960938e-01
4.269012433133401174e-02,-8.460848921147128276e-01,-8.190540198989915144e-01,-4.454487954441464087e-02,2.868362740357511056e-02,-6.197291463529827626e-02,8.868879675865173340e-01
-5.735074600066364381e-02,-7.302044273711356670e-01,-6.890242903949950204e-01,-4.934514476526200531e-03,-2.587877905188144464e-02,-1.410504950182888372e-02,6.552852392196655273e-01
-7.409188492177304353e-02,-7.245367262192833335e-01,-7.070884915747538413e-01,-6.234984526726718157e-02,4.557700234549877383e-02,-2.910099866291453695e-03,6.557084321975708008e-01
2.692268306247491694e-02,-8.026538156890622444e-01,-8.120154969692898739e-01,-3.300390307222694775e-02,3.353080419850714561e-02,-2.411959202058397075e-02,8.393074870109558105e-01
3.547412660588814548e-01,-9.130430210905120525e-01,-8.280476420339826227e-01,2.183114424511187809e-03,-3.439003687663350680e-03,5.300905031018630920e-02,1.230944752693176270e+00
-2.650177556247540478e-02,-7.144761255107342501e-01,-8.153848242809411673e-01,5.259442940946707293e-03,2.188174853938648634e-02,-3.196157799999158056e-02,7.466578483581542969e-01
5.514110265188187920e-01,-3.793361320043880935e-01,-1.279017702916680710e+00,-1.881188389557778007e-02,3.872378363244176336e-02,4.980579264746336221e-02,1.589369535446166992e+00
3.570514666739039167e-01,-3.246075282780319093e-01,-1.073212729966499079e+00,6.656677950769029906e-02,4.141327448751468132e-02,4.257251532712616471e-02,1.248694539070129395e+00
3.754451034386062092e-01,-4.497102500014583115e-01,-9.658452286534777720e-01,4.250229071520594815e-02,-1.280653959199945166e-02,2.891285076418712713e-02,1.175409436225891113e+00
3.242060329444053091e-01,-2.961325163868954169e-01,-9.763834885914109973e-01,3.458877507788662292e-02,7.798881406083256994e-03,9.863936479790468004e-02,1.141274690628051758e+00
3.001627438547507243e-01,-2.858109684604331902e-01,-1.079877771984581347e+00,-8.328866848161320391e-02,1.057028152861728132e-01,2.065980909625184658e-01,1.273415923118591309e+00
4.308807767739505912e-01,-4.493071778146828787e-01,-9.660036935523148571e-01,-8.408326299750053592e-03,-4.345907008174589026e-02,1.059709172982178371e-01,1.239380478858947754e+00
5.185644732633343246e-01,-9.199838860255010742e-02,-1.404829114571753967e+00,8.697972656356930954e-02,3.826979251762127610e-02,1.307701761644844418e-01,1.725186944007873535e+00
6.674926794236560879e-01,-2.499564673403170123e-01,-1.227603361844165075e+00,7.673445640493941830e-03,-4.083555539580941557e-02,1.921834648762903294e-03,1.643057584762573242e+00
3.211610946889825180e-01,-7.885962551847141011e-01,-5.581476753694136761e-01,7.841996428782886316e-03,2.985315307607451854e-02,1.485268393509049656e-01,1.047838091850280762e+00
3.552707350232481298e-01,-8.354522591614319538e-01,-5.889802582904311024e-01,1.895826004334978318e-02,2.955773308866818661e-02,1.522946717188203292e-01,1.121770977973937988e+00
3.139448744705161110e-01,-8.062351950978482451e-01,-5.540594917353642845e-01,2.677419549269460797e-02,2.541777468999346576e-02,1.547215084166716215e-01,1.054428219795227051e+00
3.349571703994777550e-01,-8.585992894857858992e-01,-5.600513040549340849e-01,-4.869623637059592586e-03,-1.132334096219455612e-02,8.527883304383807039e-02,1.086115717887878418e+00
3.410190927701617913e-01,-8.734847154160600979e-01,-5.129221413180486966e-01,-1.846218387422227797e-02,-3.574254685251218588e-02,1.080161856700850159e-01,1.098625421524047852e+00
3.214873451559358553e-01,-7.894973806188445575e-01,-5.359334791637837547e-01,1.544196314519139315e-02,-1.216029830588087959e-02,2.233779160720641699e-01,1.080614686012268066e+00
3.722671176009865746e-01,-7.779847255421694641e-01,-7.810553330699874230e-01,1.794925173722362183e-03,3.291973118752862266e-03,-1.053604718181895333e-03,1.151809930801391602e+00
3.600376575525693346e-01,-6.736166830637233538e-01,-8.532535276534853885e-01,8.901213641669734975e-04,8.236968075484770238e-03,1.763863036707940743e-02,1.134694814682006836e+00
3.321382822914659694e-01,-7.779978681515118399e-01,-7.807182025789209945e-01,4.440427010302556814e-03,-9.164338204078656923e-04,1.178294962244347223e-03,1.111528396606445312e+00
3.302779000708155888e-01,-7.430037209107740459e-01,-8.029976004241823340e-01,-1.719718312331745607e-03,-7.925105262639028578e-03,1.465708183250982342e-03,1.104593515396118164e+00
3.567793023134921415e-01,-7.328209803157649249e-01,-7.821532141195119969e-01,1.923000828321064313e-03,-1.496709891674855887e-02,6.573265159448714659e-03,1.115449547767639160e+00
3.175566332597168917e-01,-7.129798356063921094e-01,-8.007593377258128697e-01,2.107332949852091034e-02,-6.564935608010163959e-03,-1.235563294890227280e-02,1.078002810478210449e+00
3.805202844803965423e-01,-7.706707722725807397e-01,-8.627495344852107451e-01,-3.783600579830609145e-05,3.752590954972941095e-03,-1.581162070017475690e-02,1.200213313102722168e+00
3.216277159234910976e-01,-6.883453708686984029e-01,-8.208483167128464153e-01,1.328403677598254291e-02,-4.446423667673075376e-03,-1.303188761395096540e-02,1.082832098007202148e+00
3.101962866112555339e-01,-6.902388914118617880e-01,-8.024467343269087172e-01,1.741453961433370168e-02,-6.322838496609110501e-03,-1.125640265359388777e-02,1.061662673950195312e+00
3.557403902071823998e-01,-8.690317008010328692e-01,-7.609868483726194288e-01,1.621295837270123052e-02,-4.309404710934680582e-02,1.571550524164600504e-01,1.208247900009155273e+00
3.078786744887239690e-01,-7.684913865190823312e-01,-7.695508133682860130e-01,-1.752597578719011090e-02,-1.218992130909176373e-02,1.209107880559560054e-02,1.077738285064697266e+00
3.239539842521351742e-01,-7.008721600567024979e-01,-7.484525145298022153e-01,4.812421497723946839e-02,3.885289882508570491e-02,1.263101788293287397e-01,1.077326893806457520e+00
2.524498572513103056e-01,-7.881063066339494272e-01,-7.203427081156172918e-01,3.551630652864830079e-04,-2.137504698094280786e-02,3.336242031508489941e-03,1.009079575538635254e+00
3.985740298219018762e-01,-7.677032438110729107e-01,-8.159722363010115664e-01,4.147128708991383757e-03,1.195670376414704333e-03,5.741231545944611853e-02,1.195312500000000000e+00
3.357001966204844479e-01,-6.768787379781189273e-01,-8.309741912878778614e-01,3.611722103346454854e-02,-1.453320239725426968e-02,-1.065180388190923449e-02,1.099992156028747559e+00
3.884450375522250920e-01,-5.762150866549582418e-01,-9.151632814671040173e-01,-1.091443403960213991e-02,1.664629805861411044e-02,-1.620218022770345337e-02,1.172348499298095703e+00
3.317302288979768754e-01,-6.548923621789610738e-01,-8.730815202689194976e-01,1.902201724114080394e-02,1.670236765020391076e-02,-4.749429485588260030e-03,1.112785339355468750e+00
3.489137013527543463e-01,-6.527199240241845501e-01,-8.666948785320006676e-01,2.292718699047740713e-03,-1.157855067861407114e-02,1.309147382008307541e-02,1.124416232109069824e+00
3.254963387456714097e-01,-6.775626061163555480e-01,-8.326056189611740210e-01,2.705002499017846243e-02,2.369345359902108941e-02,1.454657888078038017e-02,1.090961456298828125e+00
3.556748826975222322e-01,-5.836545403868165227e-01,-8.838249201988258585e-01,7.984662633109351759e-02,3.441427469863568133e-03,1.257143066287232450e-02,1.128732442855834961e+00
3.202128859651980353e-01,-5.646497840407123103e-01,-8.401010446150540822e-01,2.435419193740692365e-02,-2.942842818263443835e-02,-1.420260138449870313e-01,1.080501556396484375e+00
3.993302032658799794e-01,-4.228062642159181594e-01,-9.803563093389877636e-01,-1.165014386581026198e-02,-3.230581693327081588e-02,-1.193068580879644118e-02,1.203793048858642578e+00
3.563522068590378455e-01,-6.156762745214376942e-01,-8.743609243327681302e-01,4.459853970112542115e-03,-8.381861927580339794e-03,-5.712990379105709754e-02,1.128391742706298828e+00
4.005803054354400428e-01,-3.911552524762503258e-01,-1.012773687440163606e+00,-6.441859893449687624e-02,1.046756976047603233e-02,-1.775591895727962055e-01,1.269949555397033691e+00
4.011000185174050658e-01,-4.723383441599249277e-01,-9.635147254389345717e-01,1.976388163917268057e-02,-1.248657361472260523e-02,-8.824215778970126434e-02,1.207543253898620605e+00
4.424857114017354820e-01,-6.077626585893818323e-01,-8.752460760719398269e-01,-4.641754775734333212e-03,3.107664889975601114e-02,-2.079028294403357513e-01,1.260208606719970703e+00
3.830810130515718281e-01,-6.156941743958699309e-01,-8.048977357489091045e-01,3.655701842561997345e-02,-5.350957621084161120e-02,-1.996093840814551768e-01,1.163809418678283691e+00
3.639110304919747074e-01,-7.798856146589229210e-01,-7.670880339339819498e-01,-7.841867223749424132e-03,-4.276074677107622075e-03,1.806560147794991980e-03,1.137561321258544922e+00
3.792607609021145798e-01,-4.205545376617879638e-01,-9.564555002547608931e-01,-4.102688740777053755e-02,4.118824693265187020e-02,-2.324639496875926803e-01,1.236031413078308105e+00
3.667909685982906898e-01,-7.576705308833064922e-01,-7.909614974599028514e-01,6.835015882120558731e-03,7.064708833514645597e-03,1.158618760431134181e-02,1.141774535179138184e+00
3.064264665485793016e-01,-7.763217457533352350e-01,-7.910247547055060391e-01,6.649712391621871721e-02,4.818338790021550050e-03,3.339302452615258709e-02,1.097797870635986328e+00
3.516566716446676288e-01,-6.965395016093952618e-01,-7.637598969409391536e-01,1.088939650693104659e-02,-1.586608610804038366e-02,1.610854698696404796e-01,1.119218707084655762e+00
3.212627472152946861e-01,-7.627395974970871961e-01,-7.575305352997001584e-01,-9.556700534847181738e-03,-1.806606675652502880e-02,1.813949791910485568e-02,1.082442522048950195e+00
2.952319258744425801e-01,-7.601742235834407779e-01,-7.717111887605723197e-01,1.666796999074125069e-02,-1.374118699441689156e-02,8.549263544514305478e-04,1.061882019042968750e+00
2.926979568583625291e-01,-7.712475266693363807e-01,-7.797358761006102368e-01,2.462133371987251101e-02,2.539909823374163905e-02,-3.244035899606900406e-03,1.069985389709472656e+00
2.863412101620963490e-01,-7.739699717171810711e-01,-7.647304208915591817e-01,2.105233199827019619e-02,3.207463171252541989e-02,-2.816344589517948919e-03,1.057822346687316895e+00
3.322260723070923349e-01,-7.859824426158712463e-01,-7.840889291902131131e-01,1.572779693935049674e-03,1.218530052401221343e-02,-4.512277777805943219e-03,1.117492914199829102e+00
2.791626343942212318e-01,-7.732423894268414255e-01,-7.718166319357644412e-01,6.079051979698144904e-03,-1.592501509356528382e-03,-8.046764518069203509e-03,1.051841497421264648e+00
3.188652045153633208e-01,-9.065985593260919018e-01,-4.474291667274910567e-01,-6.892096299101928454e-03,3.095495399552489549e-02,-2.606307457823877141e-02,1.074689507484436035e+00
3.714253330076763837e-01,-9.660488011112013940e-01,-4.353509193192741100e-01,7.572446942219721554e-03,4.114133659025971668e-02,-9.996991783553645095e-02,1.181488275527954102e+00
3.348590775521853025e-01,-8.905573039347132180e-01,-5.303211383708552606e-01,-1.346870789789167411e-02,-8.813684558040418143e-03,-2.975497617962781158e-02,1.092432856559753418e+00
3.177939813106749334e-01,-8.908033673913438033e-01,-4.888682221294691210e-01,-2.796176829263559449e-04,-6.417406819432329781e-03,-3.730008058978964702e-02,1.068072676658630371e+00
3.661749975089373943e-01,-9.812649944720490680e-01,-3.817064693199594405e-01,1.075146198800303564e-02,7.239161760626246223e-02,1.437524353375522514e-02,1.176386117935180664e+00
3.985000640379340875e-01,-1.041430730935952953e+00,-3.859086696984752041e-01,1.421325431884644212e-02,4.080981621333684001e-02,7.840859127237777282e-02,1.258272409439086914e+00
4.310315289796677884e-01,-9.996695185864539202e-01,-4.111134867025407758e-01,-6.763950220771542884e-03,2.142438865798639014e-02,-2.872532195672952357e-04,1.246102094650268555e+00
3.580517306591252114e-01,-9.531203783177735200e-01,-4.719899309179878544e-01,-9.287504413308281942e-03,1.650396687017965242e-02,1.731859927647826439e-02,1.149691104888916016e+00
3.494523072642635175e-01,-9.658728469172117581e-01,-4.706422768026340409e-01,2.201398330694763483e-02,-1.247332567908893998e-02,2.693045001331230079e-02,1.152406454086303711e+00
3.365717470413549517e-01,-9.074891556860652519e-01,-5.066951603089273615e-01,-1.322387499719639321e-03,1.519443347898706206e-02,-5.349738260098929089e-03,1.100224971771240234e+00
5.151924650525119276e-01,-1.186812860328314345e+00,-2.152069400311180103e-01,2.501442502447463051e-02,-2.016606896531502463e-02,-1.909017449048001913e-02,1.480321645736694336e+00
3.607557564412577911e-01,-9.385947143925055247e-01,-5.451695518634831483e-01,-1.479536880644454280e-02,1.554697184375446704e-02,1.794001637808301242e-02,1.155095338821411133e+00
3.453041770678009215e-01,-8.878580571838122770e-01,-5.597879687398185089e-01,-3.999708544519539090e-03,-3.726187373712659678e-02,2.593654713862914019e-02,1.109047770500183105e+00
3.879077035592723433e-01,-9.844067074451381405e-01,-4.924237672494811147e-01,8.738528257211972128e-02,-3.166250878088839454e-02,-4.916243330029160946e-02,1.217910408973693848e+00
3.334705901334225620e-01,-8.997455121978934489e-01,-5.325582250382507876e-01,-1.164840512513409983e-02,-3.085729477151857858e-02,-1.012597817967719402e-02,1.098361730575561523e+00
3.145842748241007847e-01,-8.795332015801152759e-01,-5.289151188944046789e-01,-4.740578243008763135e-04,-3.424359539175586553e-02,2.647651618489117991e-03,1.064758181571960449e+00
3.613065537197069355e-01,-7.751965057171432694e-01,-7.450167165116117207e-01,1.882083328719234838e-02,-1.251847174233600146e-02,-1.701509869300736610e-02,1.122787594795227051e+00
3.446464445744258365e-01,-7.406433204376516866e-01,-7.481964558300733259e-01,6.361545429632440435e-03,-1.373904101827845906e-02,-1.996733714688363887e-02,1.089950442314147949e+00
3.480555533874111207e-01,-7.435205186238840191e-01,-7.560192429127285951e-01,4.961814749525258854e-03,-1.044915764952168702e-02,-2.837412495144902430e-02,1.099160790443420410e+00
5.629980381756900520e-01,-3.714256803529784046e-01,-1.139800176147788058e+00,-6.445408837139598654e-03,-1.869664133716462673e-01,1.305755092126519024e-01,1.528946757316589355e+00
4.677023159683970643e-01,-4.897931405394220228e-01,-1.060832698474193148e+00,-5.434176909223744495e-02,-5.896638289481318310e-03,-2.377199962492007948e-02,1.341756343841552734e+00
3.520559236231555200e-01,-7.868840610985148309e-01,-6.958065216942952436e-01,-1.377980131835186521e-02,-1.120581717191565171e-02,1.627505783342737822e-02,1.097036242485046387e+00
3.430314861582027253e-01,-5.214697783981312451e-01,-9.232739128636557879e-01,-1.932267503677320697e-02,2.609738497348516525e-02,-1.129556340119707881e-02,1.122370362281799316e+00
3.187245887635501429e-01,-5.579016097214132275e-01,-8.832127831096668880e-01,6.020442864944339223e-03,-7.197752442943581956e-03,5.858941964602162183e-02,1.081683635711669922e+00
3.701611691903219925e-01,-5.610550484407904603e-01,-8.973995034539281601e-01,-9.076740074233377586e-02,-2.851050074512832041e-03,5.067047898341203727e-02,1.151496291160583496e+00
3.253838914146793826e-01,-5.452308580530410564e-01,-9.099555623947704897e-01,-7.815145825618965980e-02,3.089593651431634183e-02,-2.808247795736724603e-02,1.109991550445556641e+00
1.967382370710321071e-01,-3.073117467918367041e-01,-9.898492483563376965e-01,1.911299394696759635e-02,-5.139864213872797488e-02,1.329760304819364303e-01,1.061143755912780762e+00
4.252720212608005479e-01,-5.891735874843941900e-01,-9.848414810745170778e-01,-9.767848714670360200e-02,1.084681067876747292e-02,3.335779221365836600e-02,1.272537231445312500e+00
3.648520670669582189e-01,-7.889330078275580416e-01,-7.589341553583287547e-01,-8.361472308337456263e-03,3.377299158410621699e-03,-6.152152342406189914e-04,1.139189481735229492e+00
2.168738605052419888e-01,-7.675996646191012296e-01,-7.567187924151126399e-01,1.019436280461529995e-02,5.150993739011691663e-03,1.730797841161661223e-04,9.792783260345458984e-01
2.520715241221714864e-01,-7.620577721563421836e-01,-8.190523339691735405e-01,-1.371298739899945787e-02,1.150576069890210489e-02,7.227897978011231517e-02,1.051732182502746582e+00
3.566690977771789783e-01,-7.808951510494055448e-01,-7.413075105069018012e-01,-1.482329219961595577e-02,-9.844390777796868316e-03,5.377264081479284780e-03,1.118759512901306152e+00
2.998854893226779450e-01,-7.704837684113761131e-01,-7.749897594062602479e-01,3.611778580880119910e-02,-8.856296019024587074e-03,-1.936265769379216101e-02,1.075084805488586426e+00
3.644432946022688191e-01,-7.714888014073997269e-01,-7.579586320584612569e-01,1.229583786752217259e-02,-4.793422518839033676e-03,-1.597361707881339923e-02,1.129797935485839844e+00
3.680578087691310785e-01,-7.912279767423633370e-01,-7.576060561026104478e-01,1.264258914350846474e-02,9.166977885658734700e-04,-5.010468845392117981e-03,1.143089652061462402e+00
3.487607457058372606e-01,-7.648145153524138484e-01,-7.730776993838837097e-01,6.487227749313758535e-03,-3.990820447197041345e-05,-7.154248493623904109e-03,1.117854952812194824e+00
3.573131219839063011e-01,-7.763456723665689285e-01,-7.649506347909321713e-01,2.086008036115270456e-02,-2.017625209962512281e-02,-1.669190974875215186e-02,1.129493951797485352e+00
3.682154248222546666e-01,-7.829077937062265402e-01,-7.794932795821079008e-01,7.653626281528509885e-03,-9.090337803944694220e-03,2.360704261814458062e-03,1.149611353874206543e+00
3.653843601718238521e-01,-7.870403772159823008e-01,-7.694628470379075713e-01,9.841328465911793402e-03,-8.179884812069819489e-03,3.394986256822414474e-03,1.143967151641845703e+00
3.017689274147187795e-01,-8.661267261526972572e-01,-5.705952075674229906e-01,-1.262280142891663431e-02,3.812029622166828585e-02,-5.470649154650527798e-03,1.054085612297058105e+00
3.048757688768082286e-01,-7.720594049751110521e-01,-7.706532243246413394e-01,6.047600885639567089e-03,5.798394794110254234e-03,-4.069193400329991842e-03,1.076353669166564941e+00
3.925018959134067842e-01,-8.710985055353897000e-01,-6.759639629013914908e-01,1.546653223698556123e-02,3.223625163953487693e-02,2.112308097056123449e-02,1.180408835411071777e+00
3.242793484900324263e-01,-8.736077147792205011e-01,-5.533023641143217652e-01,-7.104385756861579873e-03,-1.145898294449782494e-02,5.829910289536231749e-02,1.079157590866088867e+00
3.562198761217116871e-01,-7.748097872342960546e-01,-7.490122807221804013e-01,-7.982853286517372152e-03,-7.759497004721181528e-03,5.992692127319809194e-03,1.118568420410156250e+00
3.259700809069454031e-01,-9.767493465261491981e-01,-5.497034719489619636e-01,2.850883954205175874e-02,3.665194399919054907e-02,1.908863815950140666e-02,1.153553962707519531e+00
3.652481247998334291e-01,-8.966481111178401520e-01,-6.036904969206167149e-01,-1.835638592882486014e-02,3.535017782918426638e-02,-3.229074717963151958e-02,1.147349953651428223e+00
3.705950482981509864e-01,-8.543977979095505049e-01,-7.422768053686532586e-01,-5.204893618289456458e-03,-1.636212808752211464e-02,-5.304380108048358487e-03,1.173371195793151855e+00
3.605877419277691565e-01,-7.599831025171939203e-01,-7.625689798262220709e-01,-8.037940607122519288e-03,-2.898557309359253448e-03,4.985972388789984555e-03,1.121996879577636719e+00
3.905963453262957796e-01,-7.265904366594406749e-01,-8.275650920970643032e-01,-2.184721581858496686e-02,6.957478913510512473e-03,-3.941947838086282824e-02,1.173604965209960938e+00
2.290259366484447834e-01,-7.660158778217887043e-01,-7.610047458862621017e-01,6.743587269225075065e-02,-1.445347506092601285e-02,-2.469827132122738925e-02,1.000623106956481934e+00
2.095253186745293927e-01,-7.560119724646277017e-01,-7.517275364268215521e-01,1.127156680300779720e-03,1.561587141987590003e-03,3.515510017805131837e-03,9.634272456169128418e-01
3.569145940399040540e-01,-7.488680485880099269e-01,-9.202410806386798203e-01,-6.138325084704106954e-02,2.759897424722848602e-02,-5.188119762497374853e-03,1.206356048583984375e+00
3.252885110811613023e-01,-6.674772499852275054e-01,-7.564188922401612336e-01,2.020131103390146107e-02,-1.817184427450947368e-02,-2.333768044007392822e-02,1.041941285133361816e+00
2.782806294042006745e-01,-7.629922902090492398e-01,-7.697575888081110707e-01,-2.055637813589495516e-02,1.025915296891173091e-02,2.227161207324831853e-03,1.045436739921569824e+00
2.730232563129364465e-01,-7.641937494066954883e-01,-7.908116163770569917e-01,-1.772371767170725226e-02,3.245001754859577064e-02,-9.110623323157989936e-03,1.052846908569335938e+00
2.608586389908454373e-01,-7.222073325413715938e-01,-7.823948356927679093e-01,1.299326890584402358e-02,1.764310308434895863e-02,-3.524679289560098128e-02,1.017043232917785645e+00
3.498258303399977009e-01,-7.615245382137711960e-01,-7.904339023395532404e-01,-5.059928707820836660e-03,3.359950016160509999e-03,-1.369113403469691828e-03,1.126134991645812988e+00
3.076173868375588483e-01,-8.866031686684181512e-01,-4.802089701547418432e-01,-1.545018158026920324e-03,6.136931836253138768e-03,6.603439032356163765e-03,1.051782131195068359e+00
6.658153656580484414e-02,-7.523470180080082947e-01,-7.828567240502590785e-01,9.188251358815518674e-03,8.447456956851324625e-03,5.499220432303521949e-03,8.349360227584838867e-01
4.327728775568495667e-02,-9.186533953000675101e-01,-9.309522685258366792e-01,6.879051825965666611e-02,-2.372568405353481930e-02,-1.719268689787145088e-01,1.020712614059448242e+00
5.037925197225812113e-02,-6.746548350715417808e-01,-1.114070721863666957e+00,-7.865871206079184941e-02,-7.052196278941455163e-03,-1.044319112506423286e-01,1.043446779251098633e+00
-2.289082756381674022e-01,-6.921408679291336519e-01,-7.330411927270157335e-01,2.415735334090382547e-02,6.958844463026973848e-02,4.035848476393615394e-03,5.015285611152648926e-01
-9.830006707241328856e-02,-7.086195623465031401e-01,-7.353038628086672190e-01,-1.067864506755112075e-01,-2.161632005516810409e-02,3.480918852923365128e-03,6.520245671272277832e-01
3.348431823974440946e-01,-7.047954217638887631e-01,-7.571841646188021135e-01,6.693871591273184603e-03,-1.003533300175459345e-02,-2.045761937372584174e-02,1.067590951919555664e+00
1.036440430423575809e-01,-7.918526290820161462e-01,-7.549217026457220037e-01,-8.500280550046775130e-02,5.526634924127601239e-02,-2.126347405446700478e-02,8.957692980766296387e-01
-2.332761854187037631e-02,-8.003552017245321171e-01,-6.860769703532652031e-01,9.612819375900311103e-02,-1.113900245552230071e-02,-2.867767571888138467e-02,7.473924160003662109e-01
1.529884313846635591e-02,-8.456862180302748833e-01,-6.583072335550123055e-01,-8.702013974684467967e-02,8.256431372374496702e-02,-3.943671400063258718e-03,8.113510012626647949e-01
1.129433618453451471e-01,-8.036924861068019954e-01,-7.522991348490459806e-01,-4.859188372546400375e-03,4.330790034879536399e-02,-2.894315626063964988e-02,8.966405391693115234e-01
-9.770288426194545517e-02,-7.661824538210562086e-01,-7.636688187908252656e-01,-4.731503412441190326e-02,-1.435075422655755217e-01,-3.727887409859836909e-02,7.196245193481445312e-01
2.325350798567582533e-02,-8.619800184547565802e-01,-8.798647986777448082e-01,7.898781478447274018e-02,-8.145615726122916456e-02,1.361546860077091636e-01,9.455301761627197266e-01
3.292806439364156512e-01,-7.848484818152511311e-01,-7.470506369085623266e-01,-6.351833261130185489e-03,2.193201937472694617e-03,-2.390088487436938750e-03,1.095788955688476562e+00
2.610278516767006729e-01,-8.018001409410258074e-01,-7.295326248869282715e-01,2.329524001713458026e-02,-9.859746084987039069e-03,-1.143274104792222148e-02,1.029723167419433594e+00
3.354301917370272612e-01,-7.940908950813165834e-01,-7.476975137820280892e-01,-5.190025167583176523e-03,2.451088658005135760e-03,-4.871765553091481592e-03,1.107130527496337891e+00
3.180179806483647842e-01,-7.600730503398427373e-01,-6.921929273729565679e-01,2.781375610078403240e-02,6.071383438523643428e-02,1.131629539931763434e-01,1.070282220840454102e+00
3.586317915544631196e-01,-7.428291791084273843e-01,-7.728602007137657104e-01,-1.726333526422513254e-03,-2.250207187201088560e-03,1.854988289971280790e-02,1.117252230644226074e+00
3.505976656424963922e-01,-7.717755328080769806e-01,-7.634568116124402781e-01,9.020687886487268464e-03,1.592444829729910971e-02,7.316721059801941165e-03,1.118758082389831543e+00
3.321182374598142251e-01,-7.096582248515236335e-01,-7.979615815716956106e-01,3.349938658913814704e-02,1.605649023103420531e-02,3.362143394851392630e-02,1.092071056365966797e+00
3.374930908875973801e-01,-6.962292729474166553e-01,-7.758915661499050653e-01,3.534754746311161155e-02,1.271701456765487494e-02,5.492131780837911786e-02,1.081923842430114746e+00
3.588113664923043844e-01,-7.548171847118729794e-01,-7.774755292432760090e-01,3.079365643741664715e-02,1.409102142935706771e-02,8.331021083434783647e-02,1.135859608650207520e+00
3.332458863111655289e-01,-7.024390945900466088e-01,-7.727369242083091949e-01,2.662143297038296538e-02,1.932484405271087807e-02,5.874126514754550443e-02,1.078883528709411621e+00
3.337856477447846415e-01,-7.825602644374316519e-01,-7.598596034109488251e-01,-4.179023721757096389e-03,1.916795116301692539e-02,1.940988213851919941e-02,1.106203675270080566e+00
3.468334981272334083e-01,-7.866477379811105397e-01,-7.713468839012210809e-01,2.122475034174886414e-03,4.962004428131929108e-03,-3.755749510369210935e-03,1.125966429710388184e+00
3.417752231709074162e-01,-7.868895701502591766e-01,-7.713570450744001716e-01,-1.182022393887940514e-03,9.238351639104178115e-03,1.567151235570791740e-03,1.121098637580871582e+00
3.606300230583232014e-01,-7.984092266803937132e-01,-7.690868862310522580e-01,5.368892278512837901e-03,7.236435865982874648e-04,1.804817676349502239e-03,1.144702553749084473e+00
3.673420249842952456e-01,-8.196990498850633688e-01,-7.448975558700210442e-01,1.838262975413059363e-03,7.837061257720486646e-03,4.538072329985074621e-03,1.151575207710266113e+00
2.956481118790337814e-01,-7.771529619766499586e-01,-7.698189060139795092e-01,-2.670075175312064831e-03,2.814092999614656310e-02,-1.591710707135339520e-03,1.070276856422424316e+00
3.135484415317585927e-01,-7.875961629073351400e-01,-7.278784313497194125e-01,4.921674669324102233e-03,1.742898730789918592e-04,3.190645489368783543e-04,1.072567462921142578e+00
3.825281192699144794e-01,-9.625431076569630484e-01,-5.368717042356068170e-01,2.597647169399769623e-03,-7.127952451522900912e-02,-1.395395371535373963e-02,1.197372555732727051e+00
3.154897060066751413e-01,-8.963252703126585175e-01,-4.521585859858261447e-01,-4.745072424306973589e-03,-5.344889819949123072e-02,7.868367093453244865e-02,1.074589729309082031e+00
3.588656340827958147e-01,-7.842281771410981595e-01,-7.419969345748984590e-01,-1.164469235328064768e-02,9.501078390031145876e-03,-4.383116448679084606e-03,1.122901558876037598e+00
3.470317088049537646e-01,-6.842237140637386084e-01,-7.989094367810678499e-01,-2.073780936039001585e-02,1.424381067597813542e-02,-1.819283079147356041e-02,1.094441652297973633e+00
4.425979010598125596e-01,-1.023497306194269818e+00,-5.036730739406245494e-01,-2.198449761979529016e-02,-4.834397732600993758e-02,1.410637721942775979e-01,1.313658595085144043e+00
4.892953744224642909e-01,-1.380644734937551465e+00,-1.655743278066091617e-01,6.550939794859716656e-03,5.326548991701247210e-02,7.334153328664731741e-02,1.650981664657592773e+00
3.397976165361141776e-01,-9.547121946682992633e-01,-4.493823521450515113e-01,4.183473087261389139e-03,-5.906995376114734797e-02,5.360944802173896878e-02,1.138464570045471191e+00
3.793790230154837628e-01,-9.144958727914106467e-01,-5.282601673043569868e-01,-9.580409910571860768e-03,-8.932670434426162598e-02,6.194961089364259960e-02,1.165879964828491211e+00
4.549046933465137332e-01,-1.049053572239646570e+00,-4.583191051470247857e-01,-3.701617902203888782e-03,-3.355281847697350744e-02,5.649240635748681294e-02,1.317349791526794434e+00
3.361099731144555069e-01,-1.022563023850136199e+00,-3.644724477423251230e-01,8.093282531447925851e-03,-2.305591673208471498e-02,-1.288783276238782138e-02,1.177809476852416992e+00
3.447304366626542937e-01,-1.033729272345173200e+00,-3.737046159269552525e-01,-1.160386277068805195e-03,-3.028278497737909095e-02,6.576386289128835494e-02,1.200706481933593750e+00
2.090813086235266960e-01,-7.867339206669052842e-01,-7.168603124738011090e-01,2.113206903495047639e-02,1.125551265940770429e-02,-1.702195149278060496e-02,9.641255736351013184e-01
3.610971337309012985e-01,-8.264476092932293572e-01,-7.509013524462778699e-01,1.414487252681665558e-02,-4.347025361654750786e-02,2.763291363360564478e-03,1.154360175132751465e+00
3.940379239920155374e-01,-9.091653395009193783e-01,-6.674999912683700076e-01,3.723632384567567011e-02,-5.843616097801945797e-02,-1.027888866870641134e-02,1.206864833831787109e+00
3.562376282677958139e-01,-7.817123227774287475e-01,-7.809916267769052567e-01,1.354113261502271764e-02,1.133069669401549819e-03,-2.681377194353394035e-03,1.137842655181884766e+00
3.873531330416052909e-01,-7.647787913229029400e-01,-7.556877241408294088e-01,1.022240102901701350e-02,-1.226095165034300945e-02,-7.464043518504846764e-02,1.155203223228454590e+00
3.370198139088028122e-01,-7.881387175709224646e-01,-7.773837705915452867e-01,2.141234870061181628e-03,-1.122506774100620781e-02,-5.919838696195544106e-03,1.120041608810424805e+00
3.689729440472169220e-01,-7.562073806520734909e-01,-7.567328438551568226e-01,-3.215478926203903937e-02,2.664807763239623178e-02,-8.555249458560761078e-02,1.137458682060241699e+00
3.241855000107676243e-01,-7.721469158544997935e-01,-7.096554764221731926e-01,-2.767617185875475422e-02,5.176566431082335260e-03,-8.623569538368303089e-02,1.077973365783691406e+00
3.489753383400968079e-01,-8.148209705585427454e-01,-6.685016833776975531e-01,-1.571761570430178431e-02,2.114126090344898082e-02,-5.565940424926937857e-02,1.103141546249389648e+00
3.814932948131735113e-01,-8.947635191391842824e-01,-5.759194029179151020e-01,-2.422193028067873982e-02,6.955260804548873965e-02,-1.961764186320876513e-01,1.206355810165405273e+00
3.426470201898959567e-01,-8.926855658028101104e-01,-5.648226765534820615e-01,-1.577348631709274071e-02,-7.196091537624705117e-03,-5.433613789944547606e-02,1.112780332565307617e+00
3.315412711788736089e-01,-8.501353928013067884e-01,-5.673360920924598316e-01,1.862358125556798946e-04,-1.044900153156082083e-02,-6.456397925353812850e-02,1.074705123901367188e+00
3.731239337799747702e-01,-9.158575444279839495e-01,-6.267557196281881016e-01,-1.124648815489659968e-02,9.702193789547544980e-03,-1.338357481559213080e-01,1.194489002227783203e+00
3.484005968253637286e-01,-6.899830507072584052e-01,-7.898822050042748621e-01,4.096326301577973839e-02,-2.326100179780458965e-02,-8.590377690668535293e-02,1.104875445365905762e+00
2.940384752568792615e-01,-8.027257464801484943e-01,-7.586848775823344937e-01,-5.859965384082485400e-03,4.663966758364194304e-02,4.011691446650514706e-03,1.078520298004150391e+00
3.361713611545240066e-01,-8.119256061017805504e-01,-7.691664732311445096e-01,4.585186881908145246e-03,-1.158092810789596028e-02,1.524616908941357199e-03,1.127535223960876465e+00
3.279120322283164413e-01,-7.828359466663454835e-01,-7.739211275386244093e-01,-1.133224529735142420e-03,-1.211373603010260785e-02,4.646172225084076006e-05,1.106518149375915527e+00
3.811077182605721592e-01,-8.565136154293929716e-01,-6.889701683981213076e-01,-1.914142546130819314e-02,-2.797356981552101551e-02,-3.013079077652382025e-03,1.164429426193237305e+00
3.388505763529710002e-01,-7.974331428886383133e-01,-7.191486357254341932e-01,-2.719599911213753038e-02,-2.159694537357759875e-02,2.367046954263015215e-02,1.101641893386840820e+00
3.637200959909993037e-01,-7.848110020931504671e-01,-7.753784031474280081e-01,-9.357914306269362464e-03,-2.281373990505114469e-02,3.989675707168184940e-03,1.144661903381347656e+00
3.595385805422390835e-01,-7.784949643368035410e-01,-7.650650565132566250e-01,-5.893392365036963232e-03,-4.594509669279310017e-03,1.490610168031671068e-02,1.131746888160705566e+00
3.538056498923249915e-01,-7.687075234629997533e-01,-7.276158937700064611e-01,-1.413250900600208568e-02,-1.745654352603094941e-02,3.153156749195233644e-02,1.104578852653503418e+00
1.720588432211089813e-01,-8.505764502733360599e-01,-1.194834780453521095e+00,-1.988624049167624780e-02,2.116544275170728368e-03,-1.060492412555048142e-01,1.245506525039672852e+00
3.631967244444228582e-01,-6.846299341565906804e-01,-8.191079374586611728e-01,3.592589918927481182e-03,-2.145209056429548539e-02,-5.811923193519600433e-02,1.126271486282348633e+00
3.245445882288721662e-01,-7.070615690403406761e-01,-7.901459464288718149e-01,-2.129880843958706707e-02,-2.120837796677645104e-02,2.264150982379479343e-02,1.077530860900878906e+00
3.653632560066620849e-01,-7.817300327319081088e-01,-7.765265197206743242e-01,-2.853553979987931942e-03,-7.489184101012908400e-03,4.089448803358769566e-04,1.144584774971008301e+00
3.260046782311529778e-01,-7.138402285916091161e-01,-7.901660986905645334e-01,-2.473086073283338460e-02,-1.726010710979276538e-02,2.972082914101572756e-02,1.082519650459289551e+00
3.333697503242952220e-01,-7.513267330492452434e-01,-7.714995869348479918e-01,-2.703911321610655283e-02,-1.283803490824017221e-02,2.488746003490652225e-02,1.096996307373046875e+00
3.770126868102137152e-01,-8.471310358248893557e-01,-7.568295225438566032e-01,1.345208666450476917e-02,-2.336848609886303663e-02,2.414353658251297552e-02,1.183245539665222168e+00
3.461109657624558134e-01,-7.745036471823398827e-01,-7.679685629973225236e-01,-1.200579575524112429e-04,4.276805024444487943e-03,6.967957221720281341e-03,1.117451190948486328e+00
3.503092233528717347e-01,-7.728856276358504473e-01,-8.032807872926678305e-01,1.622432774079657358e-02,7.263875841521601900e-03,-5.275264569608625886e-03,1.139149546623229980e+00
3.447470171994662658e-01,-7.655931138307718875e-01,-7.733685345115396403e-01,2.487728427375809469e-03,2.040375891573789277e-03,6.699615051566292813e-03,1.114322543144226074e+00
3.613037640141499862e-01,-7.941220128369842479e-01,-8.071790049636855535e-01,9.948659375902078883e-03,1.589422717378314795e-02,9.373184743754963549e-03,1.162576436996459961e+00
3.086869469438814351e-01,-5.930743427019679048e-01,-7.954221059176798114e-01,3.727290361239602324e-03,2.423642499355352364e-03,8.623419906650164890e-02,1.029055714607238770e+00
3.074758231047451384e-01,-6.082430465677400866e-01,-7.980722437057377050e-01,-2.873632172443104163e-02,-1.122231788545716494e-02,1.121335123731783540e-01,1.043543577194213867e+00
2.893840505584731049e-01,-6.570001583645219689e-01,-6.400728666800588051e-01,3.220838941556349727e-02,4.428033438904313557e-02,2.136813316669438911e-01,1.012858986854553223e+00
3.102926036800452980e-01,-6.862499185758262898e-01,-6.391248924894452621e-01,5.543192128009786362e-02,5.927134232361324501e-02,2.091843973899176201e-01,1.048516750335693359e+00
3.445982228261056934e-01,-6.884693608870886550e-01,-7.923054334717423153e-01,8.581574681951564462e-03,-1.331733161000080677e-02,-1.778160415566778021e-02,1.089486956596374512e+00
3.169260913138416957e-01,-6.562493968290454838e-01,-7.299065753720295202e-01,-8.502207616913365351e-03,-3.481719541133578358e-03,9.568065985509791038e-02,1.025619268417358398e+00
3.068893239133700934e-01,-7.371912462955414469e-01,-6.420293274069790446e-01,2.210058474119036987e-03,-6.459319293471503000e-03,9.164769090810903629e-02,1.012492537498474121e+00
4.737644986897142640e-01,-9.770993988804945740e-01,-6.089897191104696184e-01,-4.579923251941912798e-02,-5.365694068814564135e-03,1.148282327231780198e-01,1.323770880699157715e+00
3.575368186307757989e-01,-7.997436238263898600e-01,-7.546267785115854387e-01,5.898794584402813207e-03,1.190514867832468369e-03,1.211302812721877335e-02,1.135636210441589355e+00
4.277491766760680436e-01,-8.770435888146115300e-01,-6.928979727170649916e-01,2.459127606991116932e-02,3.788680240489369216e-02,1.087959778628738716e-01,1.240061283111572266e+00
3.880484367601552687e-01,-8.638947126114769892e-01,-6.919834210454236523e-01,-7.932747339452204602e-03,4.981987801470627066e-03,2.422072926434410203e-02,1.176314234733581543e+00
3.630971654967319884e-01,-7.790214164772792937e-01,-7.824039213747877586e-01,3.913762788316111491e-03,4.479475932953705733e-03,-2.257176461780167551e-03,1.143866658210754395e+00
3.466143937018053567e-01,-9.114411150799169858e-01,-5.868527226244577566e-01,-2.202655183644591438e-02,3.257160420575907350e-02,6.573395602228765400e-02,1.138996124267578125e+00
3.471290804627724103e-01,-8.498856696068465277e-01,-6.166914610048062073e-01,4.215588760321926920e-02,5.703483530592216855e-02,5.579675550308753340e-02,1.110187888145446777e+00
1.949242910962738495e-01,-7.030008570462193962e-01,-7.720422345159126953e-01,1.478443901938710989e-02,-1.965185349847820787e-03,-4.056698287340100573e-02,9.373551011085510254e-01
2.606020980139656107e-01,-7.125288973537660109e-01,-8.599208463162206773e-01,-1.016189994539602563e-02,-4.328513459005720043e-02,-7.248489828609815111e-02,1.064815878868103027e+00
3.757819192843668832e-01,-8.579192450655614977e-01,-7.853407502941537333e-01,6.673931795551248103e-02,-5.379080196194889474e-02,-9.343769023718276334e-02,1.219008088111877441e+00
3.208958396485412923e-01,-8.054694527106651680e-01,-7.756180220125492575e-01,-1.557393938531434485e-02,-3.983775103290961885e-03,-3.884274391434412721e-03,1.112109184265136719e+00
3.561484530616595423e-01,-7.177441079194419871e-01,-8.398653254243011457e-01,1.339430172593296040e-02,-5.148981024619832952e-02,-1.131567769590777900e-01,1.160262465476989746e+00
2.660566745198438277e-01,-7.693353314129445231e-01,-7.623412737684991392e-01,-1.024695622725681730e-03,2.958460310969995496e-02,-1.452647841561557213e-02,1.033492088317871094e+00
3.210768394384296842e-01,-7.961709687384599388e-01,-7.740934849240347360e-01,-2.388159946883430113e-02,8.632274841082310246e-03,-2.453060753326446325e-02,1.108063101768493652e+00
3.740220575485601606e-01,-7.826711914895723154e-01,-7.777461689225564356e-01,-2.403480071576435473e-04,-3.121870099022997381e-03,2.162319509547913632e-03,1.154257416725158691e+00
3.442164483780486006e-01,-7.811607490306651247e-01,-7.698792675078408587e-01,5.887873089051982867e-03,6.343988147113188009e-03,1.238171862874661087e-04,1.119879484176635742e+00
3.117191747109744338e-01,-7.203034002337818098e-01,-7.012229993344875068e-01,2.356612632861830332e-03,-1.567930862795129544e-04,1.434696488319096332e-02,1.022925972938537598e+00
3.708521388908697647e-01,-7.814212289944150180e-01,-7.786936901136896072e-01,7.319961325001122197e-03,5.690409277651783081e-04,1.837497822745329116e-03,1.150986671447753906e+00
3.465537693873803615e-01,-7.765428061149939332e-01,-7.710192258528453246e-01,-1.367277651796017408e-03,7.153359120233911128e-03,-1.094343154422402608e-03,1.120417594909667969e+00
3.688687447590452417e-01,-5.860662890235044387e-01,-9.081032335449927828e-01,6.723785733003152798e-02,9.530966833529214491e-03,-2.347441311573767592e-02,1.156988143920898438e+00
4.409151270334940587e-01,-5.844549171889870109e-01,-1.008318964440535481e+00,5.815706761880653358e-02,-3.333467927498067612e-02,-6.467267915343646867e-02,1.300649762153625488e+00
3.619739204647828279e-01,-6.923827821053929465e-01,-7.895702142135989643e-01,2.837344646599590514e-02,-1.373760919986936023e-02,-8.908759900685302158e-02,1.118201613426208496e+00
3.076329041319354474e-01,-5.485269960812115819e-01,-8.829464635525554606e-01,-2.459580490269961187e-02,-4.128526492415782873e-02,-6.862409156605163429e-02,1.073414564132690430e+00
3.450666719921925418e-01,-5.462713966717238634e-01,-8.933532357143929570e-01,2.275955066886034550e-02,-6.377369094516524735e-03,2.137548450828509472e-03,1.107251644134521484e+00
3.598654447384059263e-01,-7.640920600164184950e-01,-7.801024169728196789e-01,-7.097195555132812701e-03,8.826575582879464879e-03,-5.626380169877796128e-03,1.132259488105773926e+00
4.049720777571528263e-01,-9.742828094359496927e-01,-5.325634266477488055e-01,-1.026439158785015168e-03,-4.161240869850901455e-03,9.963123009801833074e-02,1.232092022895812988e+00
3.472588138565170235e-01,-7.569178523317022789e-01,-7.818497894728014819e-01,-1.640597160935935300e-02,1.737921203831196970e-02,-1.464174989712515099e-02,1.117905974388122559e+00
3.220224910849738831e-01,-7.800105787387008327e-01,-7.359635638018504622e-01,-4.983472978116653546e-02,3.604245886940438820e-02,-6.504625879656772414e-02,1.091749310493469238e+00
3.357608532179037764e-01,-7.227576230864589668e-01,-7.893815335841658509e-01,-9.576380321398111906e-03,3.288805549748999302e-02,-7.744912556554169047e-02,1.103149056434631348e+00
3.635701763131180542e-01,-7.783182537365029852e-01,-7.789480077344484998e-01,-1.206442877269396641e-02,1.150881151226198183e-02,6.927026637844424604e-04,1.142569065093994141e+00
3.525597893357977353e-01,-6.545247775011671099e-01,-7.858649625269411576e-01,4.204944145955711449e-02,-4.499243977938552352e-02,-8.437814578693640655e-02,1.093835711479187012e+00
3.652997821587187222e-01,-8.207747076525788721e-01,-5.771925407662277241e-01,1.320869481687769048e-02,6.226397234137441908e-03,-2.034991101402998659e-01,1.141084432601928711e+00
4.279353294801329088e-01,-9.177796622598842768e-01,-5.719739626699882340e-01,6.940040160921347179e-03,-1.222228874829757103e-02,-2.187585554422828427e-01,1.268594861030578613e+00
2.996931962959840656e-01,-7.187267248022859434e-01,-6.398726759678001752e-01,2.940617224812517097e-03,-2.125257263046935116e-03,-9.718902560097662791e-02,9.957244396209716797e-01
3.651411512154630890e-01,-7.270795072459723674e-01,-7.315534289020222403e-01,1.095656523400012627e-02,-1.023791002940557630e-02,-1.291850781327026909e-01,1.117404818534851074e+00
3.692170966111607555e-01,-6.782045485623978687e-01,-6.865511399144449411e-01,2.026174431181571728e-02,2.031906489531415047e-02,-2.447786674749439784e-01,1.134955525398254395e+00
3.237872351695285089e-01,-7.396202444507055107e-01,-6.294534745115428764e-01,-2.264041088155324677e-03,-7.115188176078198401e-04,-1.915460931569975545e-01,1.065789222717285156e+00
3.637463947582458279e-01,-8.395317175893455275e-01,-6.133314161256628871e-01,-4.476506370093222276e-02,-2.394176526670195940e-02,-2.018813797302882740e-01,1.164844393730163574e+00
3.468770125715364139e-01,-7.378739257964325171e-01,-7.935406298112150925e-01,3.339350866980966837e-02,-5.210267825708584516e-02,-4.857037685181090497e-02,1.121933460235595703e+00
3.925164550822707321e-01,-7.561230286689246682e-01,-8.126900384834542246e-01,6.969183486506683178e-02,-2.851213699806138396e-02,-7.887399242187617676e-02,1.192988038063049316e+00
3.669953815534871544e-01,-7.784125810139876922e-01,-7.678127198993622837e-01,-1.790960883266553769e-02,1.171038146406614897e-02,-1.229524746194644719e-01,1.160455107688903809e+00
3.299605009226138086e-01,-7.937681247830921105e-01,-7.557727639393228003e-01,-3.759142894373579402e-02,4.825710815867328973e-02,-1.680720562263234713e-02,1.110669255256652832e+00
3.665993173074874600e-01,-7.280350763035861039e-01,-7.920528556197568015e-01,5.099219952063500233e-02,-4.114237318622587097e-02,-1.685667317777952146e-01,1.170692801475524902e+00
3.558136066395177211e-01,-7.791071594151770530e-01,-7.738623216301292462e-01,8.700796976298994997e-03,-1.581830564428510439e-03,-2.224086223673983533e-03,1.132417559623718262e+00
3.729856810353995855e-01,-8.113199442207090772e-01,-7.079024629408561253e-01,-4.358056152696804242e-02,-7.818823899804137889e-02,9.114681143316756551e-02,1.157479286193847656e+00
3.513118245091196301e-01,-8.113014014719558409e-01,-6.678294447422595814e-01,-2.152935803702568998e-02,2.174509146688314090e-02,-5.889448035044228535e-02,1.103932142257690430e+00
2.504147233278414819e-01,-7.500258373171786452e-01,-7.743431841515704406e-01,-2.696811288633151754e-02,3.031999881258866381e-02,-8.713190424865275771e-03,1.015366077423095703e+00
3.687781008211672429e-01,-7.542194810373734626e-01,-7.972899773744664964e-01,-3.423210204972449051e-03,-8.067386666498952558e-03,9.203006547346383182e-03,1.145352005958557129e+00
2.245886927197269234e-01,-7.471582332351555111e-01,-7.535860073756311950e-01,-2.884124012837030807e-02,3.021856754908019971e-02,-6.968491271524974648e-03,9.777321815490722656e-01
3.399086756290282119e-01,-7.593192856504790145e-01,-8.237257146682634978e-01,-4.497804944043675909e-03,-8.606620150568834032e-03,-4.378775614686311948e-03,1.132955431938171387e+00
2.605824027324822323e-01,-7.514386048958692221e-01,-7.723643530748919295e-01,-2.425722755212358570e-02,-6.984176198842903874e-03,-3.740785993651216373e-03,1.023599147796630859e+00
3.755931795855728117e-01,-7.534253488309732294e-01,-8.123743490889725472e-01,-4.067303155245872125e-03,-6.879369355921334701e-03,1.214745429214136169e-03,1.159701824188232422e+00
3.353304499086992574e-01,-7.689597677581663238e-01,-7.993713417293224488e-01,-7.817573136492318719e-03,2.886991427596242044e-03,2.362209266769145499e-03,1.119906306266784668e+00
3.188668005329339805e-01,-7.965433698653601180e-01,-7.719802560010593506e-01,-1.344920894063379724e-02,4.093526232143819034e-03,7.405463107836848108e-03,1.103676915168762207e+00
3.145169337672937271e-01,-7.699273067198426634e-01,-7.914690176272847211e-01,-1.093985781191056036e-02,1.296870146953716003e-02,1.624784701524941560e-02,1.096129417419433594e+00
2.803149387942527326e-01,-7.764364046934568719e-01,-7.400315397333058209e-01,3.200881347592941122e-04,-3.912368551649234028e-02,-5.910826922325216476e-02,1.046255946159362793e+00
3.145901217222317192e-01,-7.971661502798017551e-01,-7.617879994429934687e-01,-1.816595367135774575e-02,2.973737038969193492e-03,-7.066078665868232890e-03,1.095028758049011230e+00
3.484696135667539330e-01,-1.045076299353070226e+00,-2.326974235748565656e-01,5.027172246893312976e-03,-4.332008938119921021e-02,2.002233641718210722e-01,1.263256192207336426e+00
3.540506447522422384e-01,-7.993343513272569423e-01,-7.652389836845778781e-01,1.574537081013039144e-02,-2.596274115457863560e-02,-1.450757558681135644e-02,1.138214230537414551e+00
1.918036520942395518e-01,-7.362062211632232067e-01,-7.927918413822334642e-01,-7.481364260015162249e-02,2.148154169725512846e-02,-1.408582617999018733e-03,9.670045971870422363e-01
2.553504466845791798e-01,-7.530330679718975073e-01,-7.845479621022121153e-01,-4.308070464294915664e-02,-4.462559656432587424e-02,-5.117284714751873728e-04,1.030122637748718262e+00
3.535263613662302795e-01,-7.741526460923837671e-01,-8.021590624035106476e-01,-1.050480999362213806e-02,1.880231068779484281e-03,-6.380316772811732602e-04,1.142089962959289551e+00
2.691519366005214464e-01,-6.814330825283849702e-01,-7.839685919190779728e-01,2.643706718401038144e-02,-1.762619215965277944e-02,-5.267308915624775018e-02,1.011408090591430664e+00
3.469810530238701674e-01,-7.633919415825995980e-01,-8.196255307236710586e-01,-1.562819171945092022e-04,1.056014726745042268e-03,1.061403604978313799e-03,1.139533877372741699e+00
2.661197203461745930e-01,-7.612354488608876757e-01,-7.982135362549497293e-01,-9.243838191878853833e-03,7.644645371970673273e-03,-5.786553750876419037e-03,1.046588659286499023e+00
3.007864342558547177e-01,-7.800126110078566821e-01,-7.691332372355221825e-01,-1.338628372811496818e-02,-2.324841573050516474e-02,-4.019659485577101177e-03,1.076426506042480469e+00
2.532317926720948909e-01,-7.744930559956209049e-01,-7.421656734601249639e-01,1.692052709423282064e-02,-7.058460071687982715e-03,-9.253449201259467821e-03,1.012573480606079102e+00
3.242512712851109424e-01,-7.799585241046032014e-01,-7.728891008528731010e-01,2.690387363480544088e-03,6.429440717697553105e-03,-8.446902924728333026e-03,1.100855588912963867e+00
3.475262012162207426e-01,-7.867972280488411130e-01,-7.725540518385334288e-01,-3.835006730715930217e-03,-1.039769654604723141e-02,3.701984496517492229e-03,1.127450942993164062e+00
2.691866167200380744e-01,-7.818214007946056032e-01,-7.489137361875082277e-01,-1.221807299573846733e-02,-7.917447512503884366e-04,3.134757914578909546e-05,1.035163879394531250e+00
3.567135211188161570e-01,-7.861462875880333989e-01,-7.787597118965650100e-01,1.090896168665250006e-03,5.705720468782951756e-04,-6.276999845432669088e-04,1.139186978340148926e+00
3.712369917658815410e-01,-7.885288480431664748e-01,-7.848760593103110139e-01,-8.887822786082659118e-03,1.597627909473877403e-03,-2.491070635843114014e-03,1.158057451248168945e+00
3.614221393607726651e-01,-8.647366473539879195e-01,-6.511903458489918251e-01,1.061880522808560405e-03,-1.280645605914804185e-03,3.699496459689798067e-02,1.136371374130249023e+00
3.561009021591175494e-01,-8.198204581115497991e-01,-7.177361188773714318e-01,-1.367565247067109449e-03,-1.714155629915430079e-02,1.153363041724203043e-02,1.128917694091796875e+00
3.290312534618483054e-01,-8.031908861692720336e-01,-7.458847651331756978e-01,9.866637106094084189e-03,1.034273967095536515e-03,-2.597959436152797418e-03,1.104827284812927246e+00
3.348962190415925022e-01,-7.929988856749756732e-01,-7.453462542803079849e-01,-5.471490217460521673e-03,-2.001027941455651125e-03,3.352958493427910143e-03,1.104901194572448730e+00
3.401546675011353771e-01,-7.976683333968701550e-01,-7.763544486561042568e-01,5.695982117753770752e-03,4.903560092456927047e-04,-8.087879406862286125e-03,1.127447724342346191e+00
2.685014724917123008e-01,-8.708149687189503663e-01,-5.499104788621652640e-01,6.205683313937830625e-03,4.348506377114164795e-02,-5.450230494355082916e-02,1.024748682975769043e+00
3.147877317464557456e-01,-8.232742903523115885e-01,-6.751421959559207320e-01,-3.697430612761051782e-03,1.931958322736410799e-02,6.967091573268020636e-03,1.072311162948608398e+00
3.536022167905782387e-01,-8.948749772733045615e-01,-5.715606136460493758e-01,-2.444283849797650654e-04,8.221658939008583133e-02,-2.811014445337445267e-02,1.132354259490966797e+00
3.962979660648497382e-01,-9.348810930962789811e-01,-5.771631895791977662e-01,7.199813123488461863e-02,1.329245832899453653e-02,2.697466381583532580e-02,1.200865268707275391e+00
3.327977453880446301e-01,-8.437702604588132038e-01,-6.849808321238414210e-01,1.914690419508222746e-02,2.521901623337045178e-02,-1.133239990895625916e-02,1.107290744781494141e+00
3.134255598905314466e-01,-6.169444938411070556e-01,-7.834216745095715639e-01,5.519388195282219287e-03,-2.013411698395027247e-02,-1.262223647722074682e-01,1.047517180442810059e+00
3.364832858798537107e-01,-6.281232450977631832e-01,-7.952447115430560931e-01,-1.069892174360150341e-02,-1.806190208182613041e-02,-1.386037228357595019e-01,1.085613608360290527e+00
3.452489277162467673e-01,-5.128364980159229036e-01,-9.406097640290154160e-01,4.236952456539133313e-03,-2.987072642867127925e-02,-1.173348737811125975e-01,1.153429508209228516e+00
3.751068732755415969e-01,-5.586622706658330717e-01,-8.721663656488758409e-01,4.556941101702807750e-02,-5.579026198741925645e-03,-6.151755256220442503e-02,1.131647706031799316e+00
4.229118653753772272e-01,-5.357549600442796933e-01,-9.649232960553897342e-01,1.014666502359480409e-02,5.139425858299394648e-03,-1.120507402264938890e-01,1.246078372001647949e+00
3.952951451305634079e-01,-5.371280993860626518e-01,-8.896425302742215768e-01,1.131633491267165781e-02,2.193902229931227882e-02,-7.425707818770169166e-02,1.157904386520385742e+00
3.223460338198916864e-01,-6.766976454474018521e-01,-7.546944732126660282e-01,-3.860996306786242029e-03,-1.717032683997377030e-03,5.704285225116600272e-02,1.044944643974304199e+00
3.373112479955606147e-01,-7.865309646617457684e-01,-6.516319901725916575e-01,-2.016640083362523928e-02,-2.546600673632035128e-02,9.316465935046372437e-02,1.076484322547912598e+00
3.264509039425270154e-01,-6.122804702918309694e-01,-7.840294088915542581e-01,-2.108062725975522710e-03,1.505507864576569564e-02,1.893628836402813653e-01,1.086374044418334961e+00
3.516418105300149755e-01,-7.228780586669381059e-01,-7.720936035021301880e-01,-9.884193706629027312e-03,-1.381009204775765671e-02,7.594566034774133390e-02,1.108181715011596680e+00
3.706460859004052644e-01,-7.484616267081236618e-01,-7.409487054503081094e-01,-3.644088458931916963e-02,-5.014918575406037554e-02,1.023565302164853585e-01,1.134464621543884277e+00
4.280175997708707825e-01,-7.875251576987712943e-01,-6.788656060935618353e-01,-6.190763475785358155e-02,-5.709075637978233697e-02,2.872758739583940457e-01,1.275197505950927734e+00
3.296057080713311049e-01,-7.540024712150819042e-01,-7.066837287198690642e-01,-4.549672269208844717e-03,-1.590226968253417416e-04,4.336910041781274344e-02,1.063426375389099121e+00
3.620673393704784693e-01,-7.933833574843274228e-01,-7.731812238732921339e-01,-1.195238187456258358e-03,3.941067596982038811e-03,-4.489506760123664628e-04,1.145505666732788086e+00
3.196817283435648416e-01,-6.970026897112973074e-01,-7.090924890828530502e-01,6.986240044823449971e-03,-9.487102745477619600e-03,5.029714932764849100e-02,1.026689171791076660e+00
3.954754952000977264e-01,-6.163817476541100238e-01,-9.626957638417346086e-01,-7.632437490638629973e-02,-5.962545879025133583e-02,1.354691241605994190e-01,1.255948305130004883e+00
4.461685047348570854e-01,-6.121204217504971901e-01,-9.442388402090067245e-01,4.522578312019033195e-03,2.215609501177326314e-04,1.408037947713589866e-01,1.281129956245422363e+00
3.745406132141327338e-01,-7.864963026485587427e-01,-7.809459280368555856e-01,-1.941210694527632438e-02,-1.390288227696041823e-02,2.243970488813817193e-02,1.159661293029785156e+00
3.720049037316289775e-01,-7.014320714143338353e-01,-8.331782656338360127e-01,-5.522533802750851512e-02,-9.596301491515382004e-03,3.936613532893264156e-02,1.151138663291931152e+00
3.780079790850620070e-01,-6.555910498269219566e-01,-8.770037332004354536e-01,-3.324913213803273870e-02,-1.874437496134823480e-02,8.366053420455312958e-03,1.162231922149658203e+00
3.603855653555873562e-01,-6.853159335943607156e-01,-8.252654256876792438e-01,-3.885136429092781243e-03,-7.914102463245158495e-03,2.757045427297392937e-02,1.123359441757202148e+00
3.476659440072626395e-01,-5.749542733756110025e-01,-8.884216195374265990e-01,-5.652610669828938422e-02,-8.720624698425927940e-03,5.112983143095332916e-02,1.120873570442199707e+00
3.368817709969879615e-01,-5.367661138356327744e-01,-8.806344355489768017e-01,-4.744037731851183382e-02,-5.354970086124483108e-03,8.933039235841470915e-02,1.101228117942810059e+00
3.535562092665639478e-01,-6.192065973965337200e-01,-8.456620950980328066e-01,-1.032610806841973566e-02,-1.935213930381050190e-02,6.070521178010889612e-02,1.109205007553100586e+00
3.704719283185461398e-01,-7.828329967335918571e-01,-7.681124362217623958e-01,-6.902246517769678597e-03,-3.208312378215125507e-03,1.824368918196801401e-03,1.146095752716064453e+00
3.724383666280131622e-01,-7.787714179746482168e-01,-7.773687682657719478e-01,-6.204071817665544018e-03,-4.662570647463462614e-03,-7.296627847274364141e-04,1.150588274002075195e+00
3.606152699212821777e-01,-7.778052016632779342e-01,-7.497858055486652518e-01,-1.764085365730424376e-02,-1.528794407131263411e-02,1.096782903509526882e-02,1.125559449195861816e+00
3.588192887093376027e-01,-7.583657668319633283e-01,-7.679724314782103711e-01,-8.451258724662258706e-03,-1.243374825303643696e-02,6.810574328030664926e-03,1.122383356094360352e+00
3.523251312006552838e-01,-7.797115979188358192e-01,-7.303265005604654414e-01,-1.635686398097090793e-02,3.075050843990447913e-05,1.339596884284637197e-02,1.108774662017822266e+00
3.748087275805280782e-01,-7.462753198456628656e-01,-7.710119987283501342e-01,-2.990270067270621446e-02,-1.897035967513799673e-02,1.437714537919631275e-01,1.162302017211914062e+00
3.622150767597802634e-01,-7.814659513095767451e-01,-7.794390573022531576e-01,-1.382881361176946204e-02,4.684658952379162911e-03,2.223821425519623401e-03,1.142955183982849121e+00
3.563460766850944927e-01,-7.868624495623719461e-01,-7.721989391491690391e-01,2.788723423061847603e-03,-3.046638925657161549e-03,9.937361817657665557e-04,1.135971546173095703e+00
3.234903989167252081e-01,-7.774684915246319328e-01,-7.682992391309242386e-01,9.207153130176724473e-03,-6.996461248378240544e-03,7.080360690201186087e-04,1.096586585044860840e+00
3.676624934687994783e-01,-7.812317976881389958e-01,-7.754093681248958037e-01,3.022654437132482174e-03,-4.945738335521025764e-03,-4.824433893534682376e-04,1.146038413047790527e+00
3.421502607388464123e-01,-7.759191584716815804e-01,-7.724750990974292852e-01,-2.165197644819159654e-03,-8.097121925707898016e-03,-4.485960374209676908e-04,1.116446018218994141e+00
3.802219337552437683e-01,-8.253158007842382737e-01,-7.184008608704408605e-01,1.311822964410895923e-02,-5.385245855484951938e-02,-6.010632234055503231e-02,1.164438486099243164e+00
3.539993234264056099e-01,-8.649125470263974158e-01,-5.886438234886680609e-01,1.306780621224771718e-02,8.368482939400916434e-03,-3.549952604379124493e-02,1.108975410461425781e+00
3.895337176390755163e-01,-8.845934542388065314e-01,-5.173790859509714846e-01,-5.340150305440679798e-03,6.648704625637526233e-03,-1.203719680450641843e-01,1.155012965202331543e+00
4.546160997255166425e-01,-9.857638720546968436e-01,-5.148468936260147677e-01,-7.457309222135962909e-03,-1.149115975873662293e-03,-1.231891826557139219e-01,1.289905190467834473e+00
3.287437858355299891e-01,-8.377561589780568863e-01,-5.220261695362706789e-01,2.682278445342874823e-02,-4.249533461465761219e-02,-1.301872563944806716e-01,1.072627902030944824e+00
3.305501559668991285e-01,-7.809786926509285632e-01,-7.891970616882171274e-01,8.966192864918728217e-03,-5.781695789219629643e-03,-8.457482473677073800e-03,1.115909934043884277e+00
3.526192683782293225e-01,-7.684242350193719595e-01,-8.050240153474245153e-01,2.830979809919638261e-03,1.115718655419700375e-02,1.629446940567954574e-03,1.139962077140808105e+00
2.560918855429216157e-01,-2.925242781030691352e-01,-9.962665125276767286e-01,1.066922312131251549e-01,9.237490088426740867e-03,1.582312519164109227e-02,1.103392004966735840e+00
1.211500547818533668e-02,-3.594047192257984191e-01,-9.113092962162476773e-01,8.079996839439376743e-02,2.052494953703643335e-02,-1.928461896400968101e-02,8.183119297027587891e-01
1.069591087465685542e-01,-7.413694323413124732e-01,-8.860265026827152113e-01,5.633664787156143078e-02,-1.477623623424594856e-01,8.723698597663177845e-02,9.803862571716308594e-01
3.791016183785885785e-01,-3.777205091816589477e-01,-1.018304419909999092e+00,-4.119974549513514411e-02,-5.405496798539536490e-02,-9.386880748517267489e-03,1.217398047447204590e+00
3.836300859692912124e-01,-6.996082197640625111e-01,-8.736047165149880556e-01,3.519736538424200756e-02,-1.586264132112252118e-02,-3.086866627402077082e-02,1.183000326156616211e+00
4.456927627647953027e-01,-6.429899150246149997e-01,-9.639807699200022562e-01,3.425982081804615498e-02,-1.227576447252263538e-02,6.617335497064300021e-02,1.286402821540832520e+00
2.245314698178297874e-01,-7.605452070301707002e-01,-7.658772347524958057e-01,-3.365101887791355738e-03,2.693515253654404570e-02,2.583316508027688925e-03,9.888819456100463867e-01
3.296997477776819618e-01,-7.830471731542396618e-01,-7.742204319931235146e-01,4.294574435026141633e-03,-3.778836691896577185e-03,-4.250147079164306421e-04,1.108404397964477539e+00
2.825291971983298622e-01,-7.722394308262938711e-01,-7.696214107339652832e-01,1.112263056127647809e-02,2.538133143798021463e-02,-6.009094255076639912e-03,1.054606318473815918e+00
2.805381714734454524e-01,-7.710845076012908805e-01,-7.735774326318218819e-01,3.782334534719611514e-03,2.237634113311948170e-02,-2.423223026915321057e-04,1.053604841232299805e+00
3.054993641558634287e-01,-7.782450603190539384e-01,-7.672887630253908409e-01,4.396251184041335448e-03,1.521423087426409214e-02,-1.446082009150780620e-03,1.078659772872924805e+00
3.716754336103015310e-01,-7.764509929999288129e-01,-7.773048654780174704e-01,-2.633246459343384620e-04,-4.628256179361645191e-04,1.823587149667260459e-04,1.148553967475891113e+00
3.278057655854502150e-01,-7.827414846700012641e-01,-7.710091011035540287e-01,4.516024041389092233e-03,1.193671174939915300e-02,-2.447622243652619340e-03,1.104957103729248047e+00
3.107633213667810868e-01,-7.788858366532894761e-01,-7.717277469219538943e-01,1.358348410501573596e-03,-9.517324690682704355e-03,-5.887602339120893286e-03,1.086263298988342285e+00
3.263207609666468612e-01,-6.964704221778899029e-01,-7.548984023593439119e-01,-3.185108633076908034e-03,-9.748859585026340216e-03,5.416627971128928909e-02,1.057540893554687500e+00
3.236775157217762211e-01,-6.337449324082626845e-01,-7.724958507177955847e-01,-3.267408227018959305e-02,-3.694180136613197524e-02,1.028220399392811291e-01,1.052505016326904297e+00
3.609541626477241749e-01,-7.692743960536669867e-01,-7.294127650129342832e-01,-1.031708560944737986e-02,-1.407382711784738866e-02,3.039610737951586178e-02,1.112491846084594727e+00
3.419822085400459621e-01,-7.256524086376929805e-01,-7.567875275372057953e-01,-2.911603382463980039e-02,-2.090541464847449002e-02,4.668335659268373072e-02,1.088322758674621582e+00
3.166019356820971020e-01,-6.395501830341798755e-01,-7.477529469441156484e-01,-3.057186663981214733e-02,-2.922816496705887140e-02,9.127728543038102216e-02,1.029443740844726562e+00
3.148264863965444804e-01,-6.638060370657341558e-01,-7.152752908263889653e-01,4.285519637961449080e-03,8.593286350810679444e-03,1.023038952233312898e-01,1.020987272262573242e+00
3.648580065883134105e-01,-7.847900223542181308e-01,-7.621078996558916518e-01,-1.090582501609801969e-02,3.658495315385004894e-03,-4.270040655318637149e-04,1.138651013374328613e+00
3.767249353009965995e-01,-7.691393338700451832e-01,-7.327806095057090019e-01,3.379233220638482027e-02,1.555645559504724613e-02,6.548213210062658884e-02,1.135640859603881836e+00
3.216157862862183414e-01,-7.089145249660431247e-01,-7.239263996421754221e-01,4.893391627888432627e-03,1.057914003569558614e-02,4.095479422564474864e-02,1.040734291076660156e+00
3.395617862258888953e-01,-7.530179080188006413e-01,-7.226986357694249463e-01,9.296369988962112363e-03,3.682633425935004541e-03,3.666142520825744350e-02,1.079747915267944336e+00
3.115767690162946080e-01,-7.358523105863925551e-01,-6.219326428548013208e-01,4.731106655551520213e-02,4.993264982259178891e-02,1.709008975097205396e-01,1.045264959335327148e+00
3.885578627574805544e-01,-7.616800331109194744e-01,-7.802845226480992213e-01,2.673816825225291266e-02,3.117489616886391299e-02,8.277221961010605700e-02,1.170643925666809082e+00
3.407916089941835369e-01,-8.493483930163223672e-01,-6.309448146062690554e-01,2.527985680649143946e-02,-2.411694967083477179e-02,1.102791348510639008e-01,1.115503907203674316e+00
3.902894446805780237e-01,-8.203948380825678566e-01,-7.799652829372334395e-01,7.895876267583328348e-03,-8.049828064025718729e-04,3.367141477752650519e-02,1.192490577697753906e+00
2.389617325102830758e-01,-7.769405881398068203e-01,-7.763110823822276796e-01,-3.905627787056600853e-02,-1.280825053681463222e-04,3.317511313262758599e-03,1.017854452133178711e+00
2.935119759245489734e-01,-7.835251438970718407e-01,-7.713444419330170998e-01,7.403361055785550454e-03,-1.000054000638889579e-01,-2.822672244342686954e-04,1.084991335868835449e+00
3.201581298909472184e-01,-7.481251139913696058e-01,-7.400898691986050881e-01,3.486107868222817346e-02,3.810813706771695730e-02,6.531408462588396413e-02,1.074015855789184570e+00
2.913968918546223086e-01,-7.854430826923293196e-01,-7.457753379234899338e-01,3.549834227104396722e-02,-4.206945667744455344e-03,-9.307700589094059255e-04,1.059376239776611328e+00
3.490973943009285096e-01,-8.209127676769714110e-01,-7.472755579614853705e-01,2.477392041359681440e-02,4.242885567536756886e-02,9.921469496948888411e-02,1.151070117950439453e+00
1.964252289278538566e-01,-8.132269966369038983e-01,-5.101501703095672191e-01,4.911790350657473103e-02,-1.103981443127211304e-01,-2.293542765374350645e-01,1.003425240516662598e+00
3.379618195428236160e-01,-9.241351041808978373e-01,-6.611866777903067094e-01,1.861966612947006661e-02,3.809478150882743969e-02,-1.289087802421536866e-01,1.177034497261047363e+00
3.539894778716645152e-01,-8.499477796465851887e-01,-7.102127873933562485e-01,1.487842985527247641e-02,-1.652589796961563898e-02,-2.992087181854237096e-02,1.142334342002868652e+00
3.541523135921416099e-01,-8.127630703705083226e-01,-7.831219747287891941e-01,-5.727771531839362038e-03,2.251773949873915950e-02,-1.174418153704541792e-02,1.153262734413146973e+00
1.434634912949085961e-01,-1.164315532185310476e+00,-3.949719004161074132e-01,-1.174480023268800188e-01,8.384114000861189395e-03,2.925140529009617185e-01,1.262668013572692871e+00
3.907887252711044201e-01,-9.721401891448072652e-01,-6.152112192504874955e-01,-3.608772391533564966e-02,1.172137770352102148e-01,-1.502934335795367837e-01,1.269406676292419434e+00
3.759137224315279302e-01,-7.690582637034051317e-01,-7.809415995926798360e-01,-4.429970629955665845e-03,1.080619049973642306e-03,-6.210595080330945199e-03,1.151036977767944336e+00
3.779930109069798427e-01,-7.736177453677239857e-01,-7.883325175913757921e-01,-1.031690911503236989e-02,2.736492945018715109e-02,-1.480537119905485366e-02,1.160427927970886230e+00
3.605827452499516528e-01,-7.808102569730188680e-01,-7.860711950522086822e-01,-1.003205842812954392e-02,1.253019258710887963e-02,3.197131050765095878e-03,1.144383668899536133e+00
3.490253549625346174e-01,-7.756469301352294510e-01,-7.812714892751991824e-01,2.992548619613195210e-03,2.684198602437066865e-03,-2.760373782250584505e-04,1.127516746520996094e+00
3.339529172801379286e-01,-7.703192216777241530e-01,-7.740004638102893075e-01,1.056391679397216884e-02,1.347085763524667051e-02,-1.333104092640946189e-02,1.106755614280700684e+00
3.641277181620264369e-01,-7.615383773392736533e-01,-7.667974793740994777e-01,1.401163179048158652e-03,2.002962080487913986e-05,-3.051853836744542782e-03,1.128319859504699707e+00
1.632205434257880117e-01,-7.449022250944752344e-01,-7.495370550187505643e-01,-4.981732735107248511e-03,-2.346539936997886835e-02,5.641902077802079737e-03,9.114490151405334473e-01
3.412751584564963636e-01,-8.154759316955729753e-01,-7.851098813883891081e-01,-2.044871873890853967e-02,1.261988723878755200e-02,-1.687255786034722038e-02,1.143002867698669434e+00
1.885065392339292933e-01,-7.998856420253094290e-01,-7.538100465438570819e-01,2.581335604568420553e-02,-1.219487925901296434e-02,-6.321456883679975325e-02,9.736194014549255371e-01
1.939904059626748611e-01,-7.345739749563907628e-01,-7.575100606580433826e-01,5.100769512257537913e-02,-6.438331342247255451e-02,-3.065933500601725550e-02,9.524266123771667480e-01
3.466134179922596981e-01,-7.884579366910371423e-01,-6.815797271036625471e-01,3.190425352811180650e-03,-2.743995214493588197e-03,-6.249230838354272177e-02,1.090992450714111328e+00
3.683626328051120002e-01,-7.696237893185762236e-01,-7.817116164846547033e-01,-1.158603824181366794e-02,1.293838016855928391e-02,-2.414689060936406340e-02,1.145237565040588379e+00
3.259492970946574197e-01,-8.718009208581476432e-01,-5.116895333644120303e-01,-4.625334529807243258e-03,4.467217849575479301e-03,-2.097441618227328664e-01,1.124750733375549316e+00
3.787975540900686555e-01,-8.072985311241082096e-01,-7.329795747625040825e-01,-1.676862566101872815e-02,1.906911459317574276e-02,-7.080869275236796601e-02,1.158090591430664062e+00
2.688387978964780212e-01,-7.701267819781869584e-01,-7.780588253291600420e-01,7.290044999711213633e-04,9.368241801890481179e-05,7.835648848421869830e-03,1.043043255805969238e+00
3.659269815610086685e-01,-7.677367377157440220e-01,-7.704082816716306681e-01,-7.065202890499151442e-03,2.899791504477092593e-05,7.693655215657101316e-03,1.135146021842956543e+00
3.697135178827708479e-01,-7.813015972405592535e-01,-7.816951112706855831e-01,-8.346359221574530668e-03,-1.494570495278656902e-02,-1.344332028020168383e-03,1.151596069335937500e+00
3.562135525845481210e-01,-7.495916960615225388e-01,-7.673956170492394202e-01,-4.323502985762073432e-03,-9.239219537683435873e-03,2.178118990977381472e-02,1.115591883659362793e+00
3.678233648919819188e-01,-7.604321355984822173e-01,-7.797091168257189731e-01,-9.416213535643893490e-03,-1.214913474661749593e-02,8.544649527431110586e-03,1.138424038887023926e+00
2.476661342654091769e-01,-7.552161174720390946e-01,-7.628470616135600846e-01,-6.382091353921869785e-04,2.363630951670956694e-03,-1.173309458758990849e-03,1.006730437278747559e+00
2.267714850093340839e-01,-7.624876361036196926e-01,-7.515445350415301817e-01,3.775873173130461780e-02,-4.005243434692021265e-02,2.844147639815601536e-03,9.884542822837829590e-01
2.290175061336247597e-01,-7.589691287750532922e-01,-7.636758525961454547e-01,1.867421971390433380e-02,-2.324774768333424946e-02,8.477980358125032645e-03,9.918029308319091797e-01
1.408297222688035810e-01,-7.308833031204715613e-01,-7.529237683736312858e-01,-4.635378432366255540e-03,-5.012462215225814421e-02,4.446870641567047221e-03,8.872674703598022461e-01
2.311951322315935475e-01,-7.533833101766749252e-01,-7.615731560336154171e-01,2.015551830282954690e-02,-1.981515452687578061e-02,2.995317547543933749e-03,9.899236559867858887e-01
2.207749464254860072e-01,-7.489041008836055946e-01,-7.578063873865107380e-01,-7.191624666861175415e-03,1.183329129666698884e-02,2.339047847451931731e-04,9.744560122489929199e-01
1.561128252348693013e-01,-7.415247411526685317e-01,-7.538833408791131285e-01,-3.710691331009595417e-02,3.326858093287907853e-02,2.032453228281748143e-03,9.079994559288024902e-01
1.156272209733988920e-01,-7.377506663173962753e-01,-7.412194649583293549e-01,-2.135556886627974771e-02,1.169601463798974200e-02,-8.090748097511991574e-03,8.562715649604797363e-01
2.060702095134432366e-01,-7.542556656410852600e-01,-7.524252155363624350e-01,-1.280512550515660805e-02,9.041714644590016087e-03,3.695368163182312371e-03,9.598174095153808594e-01
2.376391697085631916e-01,-7.612277593503329332e-01,-7.602996477803012354e-01,-1.592595686724735532e-02,2.546238341361851606e-02,5.435224817511177461e-03,9.998016953468322754e-01
1.448825531925412302e-01,-7.471075438957726078e-01,-7.436497659469571975e-01,-1.232710998660260966e-02,6.059191496744160965e-02,4.699113543777723792e-03,8.967219591140747070e-01
1.688551800444270667e-01,-7.432736013924656771e-01,-7.430070549107112843e-01,5.994802935017536083e-03,-7.402719377001772995e-03,-1.480021427738992430e-03,9.121483564376831055e-01
1.102023048471763023e-01,-7.216755649733663791e-01,-7.342456072374791143e-01,2.337687437511031061e-03,4.437460145653089605e-02,3.738875100915473471e-03,8.417845368385314941e-01
3.643687030569411345e-01,-7.898448046989061666e-01,-7.556325693124239518e-01,-4.160607518930572318e-03,7.056141910069241470e-03,4.908357240989451829e-03,1.137613534927368164e+00
3.652472314291281830e-01,-7.835359202423748393e-01,-7.782646280783911408e-01,-3.028680641406887846e-03,-2.038138082693144101e-03,4.606098917156678171e-03,1.146201848983764648e+00
3.341531140302883562e-01,-7.965717712291017216e-01,-7.384309868025318302e-01,6.631367729480709336e-03,7.566062844193336030e-03,7.664683638829482629e-03,1.103022098541259766e+00
3.758057905787361985e-01,-8.032649202189706683e-01,-7.698822520562662586e-01,-7.467474166640580661e-03,-4.696482277906420186e-03,-1.889521480698820501e-03,1.162843823432922363e+00
3.723851190903316177e-01,-7.975742056532507673e-01,-7.634964905763267362e-01,-1.249563820668475600e-02,-1.005979777073154682e-02,-7.909550918007716069e-04,1.153633594512939453e+00
3.634629114600483324e-01,-8.023275226617292422e-01,-7.283536986288700055e-01,-9.465111282157366926e-03,-2.084686381474773129e-02,-8.431286217295634253e-03,1.131409406661987305e+00
3.503496428938543406e-01,-7.718265865280407034e-01,-7.836594718926856995e-01,2.628908407669933514e-03,4.079455971329351213e-03,-1.094802274351223189e-04,1.128170490264892578e+00
3.455209014395695943e-01,-7.172468042308342007e-01,-7.677260627155738648e-01,6.130686033570571444e-03,-7.563763443453106090e-03,-3.888541124010898298e-02,1.091096520423889160e+00
3.617364998058515413e-01,-7.869451262499734812e-01,-7.407029884729456892e-01,1.288176126650297793e-02,2.202549837151758852e-02,1.176039563673125093e-02,1.127323627471923828e+00
3.161913987042028196e-01,-7.727131304359513564e-01,-6.278723326601924892e-01,1.830869346429370853e-02,2.157599108956883942e-03,-1.443361315758191765e-01,1.054747581481933594e+00
3.368477364378931194e-01,-7.947979909991392811e-01,-6.705103358571138372e-01,1.916101749659558651e-02,-3.012951235721804399e-02,-6.435089956991314752e-02,1.082436084747314453e+00
3.701897698786896784e-01,-7.772513534805882696e-01,-7.829002843555141755e-01,1.630642567857474093e-02,-9.661363284790940031e-03,-2.312914272910872315e-02,1.151441454887390137e+00
3.760518943513784240e-01,-5.890208014556919114e-01,-8.783226588547237146e-01,6.233589793884314334e-02,-2.389087939177290260e-02,-8.421398175279376508e-02,1.152780890464782715e+00
3.285968914601647417e-01,-7.049155285359312018e-01,-7.927825837918610619e-01,2.946135079994658193e-02,-1.151804555801325992e-02,-1.540926214272319607e-02,1.081847667694091797e+00
3.549899742478134224e-01,-7.393754927588509496e-01,-7.696967312056706145e-01,1.698436563509408970e-02,-1.965139549491696710e-02,-2.494451972106509832e-02,1.111588239669799805e+00
3.154734724975754578e-01,-6.845315116275902945e-01,-6.567654154111276510e-01,-4.100345215655224612e-03,-4.754850439680618872e-03,-1.940227531212773693e-01,1.042145609855651855e+00
3.231066148168107444e-01,-7.625644377972380372e-01,-6.191797017697022731e-01,2.377441704210926654e-02,-2.058037082258811629e-02,-1.673418522665151564e-01,1.063272476196289062e+00
3.413788346041434218e-01,-7.543734662022292259e-01,-7.220413124372566660e-01,2.241723012775628104e-02,-1.915315214186845416e-02,-4.238868167592389075e-02,1.083646178245544434e+00
3.848517548467981775e-01,-8.318895216675120663e-01,-7.437625814455508522e-01,1.179379481785262918e-02,-2.065143653615306510e-02,-5.547631712593056874e-02,1.179799795150756836e+00
3.932867333317455194e-01,-6.514283955956250427e-01,-8.509890734394389700e-01,4.274457200720744449e-03,-1.860642703543442800e-02,-9.320630064671159287e-02,1.169142365455627441e+00
3.142296664834917652e-01,-6.123010808748283740e-01,-7.314318202053027296e-01,4.655143453074627596e-02,-3.446394349252882711e-02,-1.997976388981594076e-01,1.054917693138122559e+00
4.223865645676817548e-01,-7.705028973636767198e-01,-7.748193392506748101e-01,5.730163306401751117e-03,3.426167062984444150e-02,-2.205787360014057896e-01,1.256080389022827148e+00
3.528190531208970637e-01,-7.817255813855019664e-01,-7.873021315336339310e-01,-5.460143132663478061e-03,-7.050021352813134676e-03,5.277261241976013983e-03,1.137484788894653320e+00
3.456731430351477896e-01,-7.785293103990151842e-01,-7.795007717056668950e-01,-5.855406764979506455e-03,-7.914182058846506301e-03,-2.309430964629127780e-03,1.124824881553649902e+00
3.572967807392793405e-01,-6.172292675478896484e-01,-8.726722930341583861e-01,5.412101321784626440e-02,-1.730976625355228754e-02,-3.122618843074463288e-02,1.129822731018066406e+00
3.345172750691263741e-01,-7.437307709633413921e-01,-7.287404476980995360e-01,-8.303233506626013852e-04,-2.703105964479649709e-04,-6.380040657472036032e-03,1.070889711380004883e+00
3.623475588252002555e-01,-7.541007131752979209e-01,-7.966573821316185189e-01,-2.784508945817586352e-03,-4.481093571089694860e-03,-3.183568582968475912e-03,1.138373374938964844e+00
3.646770835993459747e-01,-7.522659627403316396e-01,-7.976123358780480288e-01,-5.352562402995231314e-04,-3.356813254601012739e-03,4.813717527823141440e-03,1.140338301658630371e+00
3.519845705200642660e-01,-7.846244133180121372e-01,-7.815189128054529366e-01,-4.137413950274136665e-03,6.252800593344371230e-03,1.257900957523177665e-03,1.135135769844055176e+00
4.163308272080497030e-01,-8.766470464395232920e-01,-7.135376183229029667e-01,1.872395971568544329e-02,-5.930830041970974222e-03,1.852028702812295868e-01,1.261569380760192871e+00
3.203390788417477264e-01,-6.767224479820670435e-01,-8.224728590403344031e-01,-8.883890205542636920e-03,-4.208183209099910019e-03,8.776699317027973971e-03,1.077598214149475098e+00
2.350184785547802524e-01,-7.435372465197187530e-01,-7.669928281600704167e-01,2.947136048421314033e-02,-2.553474918679230366e-03,5.527749284533924404e-03,9.918623566627502441e-01
3.443921891555786763e-01,-7.811073179228678054e-01,-7.844036529477775854e-01,-2.929696774857203870e-03,-6.558011830983296805e-03,-1.352632510436249137e-03,1.127222418785095215e+00
3.424398555591330329e-01,-7.535099634653108502e-01,-7.334502988658047062e-01,-6.006474847103455451e-03,5.340612324073758070e-03,-1.230444347338369507e-02,1.086357235908508301e+00
3.525797131682283370e-01,-7.544831897457748848e-01,-7.547956317076076616e-01,-9.836108766799264366e-03,1.518505036087000951e-02,-5.645535861901244956e-03,1.107705712318420410e+00
3.436917786593015611e-01,-7.248161841660454296e-01,-7.594305426003356008e-01,-9.514841476279243052e-03,1.481705809398382173e-02,-7.288177769792190779e-03,1.086730241775512695e+00
3.430400230686892482e-01,-7.658457440632178148e-01,-7.210544130781648686e-01,-1.507212114798419864e-02,8.272585027091314269e-03,-5.469883354607477967e-03,1.087631344795227051e+00
3.327358377783822818e-01,-7.489819170588531971e-01,-7.030085410039059735e-01,-1.867701463098754913e-02,1.589283667596906244e-02,-5.316543408810458365e-02,1.064321637153625488e+00
3.796382421130964357e-01,-6.949978952397111165e-01,-6.633769071549312502e-01,-5.582951070366799079e-02,1.823548442729192032e-02,-1.869242840014414542e-01,1.112219452857971191e+00
3.440310632047788864e-01,-7.660127365952542622e-01,-7.134075206113290601e-01,-1.632938090331583630e-02,1.633743552398770824e-02,-3.672902461888134795e-02,1.087298631668090820e+00
3.339104710201208914e-01,-7.333640849297435871e-01,-7.336765065499509797e-01,-1.214108241933019132e-02,8.956092558306375656e-03,-1.826609407639568153e-02,1.068219184875488281e+00
3.246085373404235530e-01,-7.101598663048318549e-01,-7.328629402522225389e-01,-9.720163664321657127e-03,1.152316922876542304e-02,-1.193866204606738174e-02,1.046834707260131836e+00
2.814254120355518252e-01,-7.299338762469052000e-01,-6.831873145182563167e-01,-1.690348430331108445e-02,-2.323603465352159364e-02,1.384209050651173112e-01,1.018682122230529785e+00
3.500830031148324806e-01,-7.807457591663475860e-01,-7.796509720493449702e-01,2.260572268619168764e-03,-7.652358449902977450e-03,-2.678712627848665612e-03,1.130375742912292480e+00
3.694631577825533975e-01,-7.708660849196657949e-01,-7.738860963791649450e-01,-3.854267179615703583e-03,7.436216211968362400e-04,-5.566790396953959783e-04,1.141862869262695312e+00
3.390047365919051092e-01,-7.465615168255956835e-01,-6.731378401778457254e-01,-1.381732757986710129e-02,4.546875933662529803e-03,-1.390874506530735966e-01,1.078336477279663086e+00
3.841377725671450416e-01,-7.170875392187852082e-01,-7.152220547852762289e-01,-3.604671355312966119e-02,-1.978688117150466386e-02,-2.871996218840401904e-01,1.209615588188171387e+00
3.250355639081130565e-01,-7.489326712338384429e-01,-6.855019782744902201e-01,7.426025150987725304e-04,9.077610882635347034e-04,-5.115674453449487596e-02,1.047455906867980957e+00
3.359441955239042543e-01,-7.567407958778415988e-01,-7.073775697256341477e-01,-2.395671894085203701e-02,2.452634296681769147e-02,-4.459340963707917466e-02,1.073289752006530762e+00
3.278549518822456155e-01,-7.746166411082890946e-01,-6.506483497498166679e-01,-8.846908767124654280e-03,1.204895519406403229e-02,-1.115025720390904335e-01,1.064006090164184570e+00
3.230362518193291566e-01,-7.044313649359572604e-01,-7.239713141020633902e-01,-1.015232915745287873e-02,1.665537891741280738e-02,-4.429056747081869250e-02,1.040756702423095703e+00
3.184898669175281194e-01,-7.486013415074967980e-01,-6.854843578924766367e-01,5.597133759765829039e-03,-3.192274094741242782e-03,-4.933222524398642173e-02,1.040548563003540039e+00
3.024396097379298265e-01,-6.948220096909231147e-01,-6.963639068637252905e-01,-2.109980029193850911e-03,1.521945939414683004e-03,-5.035644820826427198e-02,1.001847505569458008e+00
3.688172128071377509e-01,-7.590206244630297583e-01,-7.910213492865152407e-01,-8.278565969324025442e-03,-8.216792261934734859e-03,9.034373994131612157e-03,1.144459247589111328e+00
3.599370566562856699e-01,-7.475347117848423206e-01,-7.914166007988161500e-01,1.039016547848314528e-02,-1.752140312095775993e-03,6.731103736123147246e-03,1.130259394645690918e+00
3.588643147919886589e-01,-7.789105854978026766e-01,-7.887627572358117956e-01,1.172357000632527277e-02,-9.004587647732147093e-03,-5.745136069053467451e-03,1.143062949180603027e+00
3.200568740597629636e-01,-6.793100904162767684e-01,-8.124548762028336313e-01,-1.401885518337689374e-02,-1.614913615138975286e-02,2.648812081231930599e-02,1.073778033256530762e+00
3.651072950709003950e-01,-7.812441428902813234e-01,-7.875994253694336145e-01,-1.070776354594952726e-02,-4.055820957405645126e-03,3.619276795875191102e-03,1.149730443954467773e+00
3.661714313349470618e-01,-7.593353238866853427e-01,-7.834152548124424520e-01,-8.360994192349233828e-03,-7.943951032606682422e-03,7.246361789953331689e-03,1.137982368469238281e+00
3.663572205702017026e-01,-7.727872068790334614e-01,-7.666059430068751235e-01,-2.942263278553295964e-03,-4.559275437428947884e-03,8.903117061625056075e-03,1.136209964752197266e+00
3.622142978727417306e-01,-7.629018133012479552e-01,-7.655632691071108109e-01,-8.194302256182377925e-03,-3.814880750790396527e-03,2.691144268339886684e-03,1.126567602157592773e+00
3.355017522159393639e-01,-6.811373922453360930e-01,-8.242957586243551127e-01,2.016024646492718328e-02,-1.269833516576345661e-02,7.082688058816287435e-02,1.102879047393798828e+00
3.656167260671543406e-01,-7.868164409388780367e-01,-7.799644527757294554e-01,-9.054576826205848472e-03,-1.036885129974973903e-02,-3.037314794896032403e-03,1.149281859397888184e+00
3.585487022921010070e-01,-7.781404684776850322e-01,-7.406855655159427787e-01,-1.030818520916168372e-02,-1.448396487507494154e-02,1.559290280218017348e-02,1.119181871414184570e+00
3.349646532931964682e-01,-7.702519935987746091e-01,-7.666346387309816990e-01,2.791599421280116337e-03,1.809824530692119397e-03,1.283162723571574203e-02,1.103651285171508789e+00
3.322922921083984460e-01,-7.862649874829112928e-01,-7.134193311230807577e-01,-2.385921965935155695e-02,-1.127014263337579314e-02,2.750736072435254476e-02,1.085980534553527832e+00
3.668230670602868893e-01,-7.930360459464510514e-01,-7.544507620620156674e-01,-1.163313981517279626e-02,-5.574048972783713675e-03,8.886056152054913615e-03,1.141378402709960938e+00
3.447571648892369112e-01,-8.019855278309483415e-01,-6.968768932120932291e-01,-2.226403923922569764e-02,5.558231659842887556e-02,-9.884883719581888384e-02,1.116065621376037598e+00
3.481985551014297187e-01,-8.171477760613198305e-01,-6.767464533843612351e-01,-1.183307199586891047e-03,4.598366476729168900e-02,-1.021664682016901332e-01,1.118834257125854492e+00
3.535230977394843710e-01,-7.729099884716595925e-01,-7.218993361051786462e-01,-8.051044658665127904e-03,3.373554660191204185e-03,-3.103880704001428167e-02,1.103228092193603516e+00
3.094385714129110898e-01,-7.706248028653456261e-01,-7.543118752604971444e-01,-2.601988932016234546e-03,8.874946667943688083e-04,-1.911016220466946886e-02,1.072521448135375977e+00
3.867014151620078444e-01,-8.633803610050090338e-01,-6.128199247274054295e-01,-4.331882971455135872e-02,2.872105151058253203e-02,-1.691773844923029901e-01,1.185846209526062012e+00
2.920326739961696116e-01,-9.084834875559869571e-01,-5.589168517848854822e-01,2.535676485253545234e-02,5.037475567822839728e-02,-7.734333133723925169e-02,1.082249164581298828e+00
3.380509599956080802e-01,-8.031044426275850689e-01,-6.699092329632070353e-01,-4.035844903899800384e-02,3.643722014810683169e-02,-5.731098956679404888e-02,1.089359045028686523e+00
3.505835480005328741e-01,-8.533860537391855239e-01,-6.213865605874946407e-01,-1.610761903812371609e-02,4.522924563436310497e-02,-5.623196330534860343e-02,1.113753914833068848e+00
3.642852963771561203e-01,-8.436903189904083611e-01,-6.585972325860980359e-01,-2.353431298088951018e-02,3.557414213332749792e-02,-4.388756398753733412e-02,1.131862640380859375e+00
3.048523811933175343e-01,-7.672502655141384409e-01,-7.782911517269524015e-01,-1.861588420334801125e-02,-5.840445995706449248e-03,-1.410058459473557133e-03,1.078197956085205078e+00
3.364075629304142945e-01,-7.733244032401436208e-01,-7.970450670749391620e-01,4.047889485766779059e-03,-3.391197498201964367e-03,-1.243984304745162760e-03,1.121819734573364258e+00
3.405560469661672029e-01,-7.513283034551988537e-01,-7.934549271309447871e-01,9.517314500337934954e-03,-3.225135088994551379e-03,4.341107246811225402e-03,1.113706827163696289e+00
3.549943875496800461e-01,-7.120747697738072368e-01,-8.212778468920772790e-01,3.868945286228332031e-02,3.396919827047176904e-02,3.025312469097816287e-02,1.130392551422119141e+00
2.820095579564783073e-01,-6.600321716060915112e-01,-8.513698283426317515e-01,4.478983433928596103e-02,4.635775657970083764e-03,7.216866833716296947e-02,1.061135530471801758e+00
3.297349740173503019e-01,-6.869734237340683336e-01,-8.093689404873612991e-01,2.579876559365545594e-02,1.970860609290696341e-02,2.562975849438086859e-02,1.085472226142883301e+00
3.723337936564942718e-01,-4.802243249182513996e-01,-9.622981422308949373e-01,1.471156408032358621e-02,-6.703040167802135421e-03,3.559064136558064834e-02,1.172531723976135254e+00
4.729196235209731647e-01,-4.232002113279030864e-01,-1.074945488063002941e+00,-2.628028741356833869e-02,9.151780392421800334e-04,5.563448437289714860e-02,1.350260972976684570e+00
3.760062417448453154e-01,-1.328079142460757700e-01,-1.054205295734126580e+00,8.879588054176743017e-02,-4.359760388530162234e-02,5.392420140825988917e-02,1.270733952522277832e+00
4.503409951674158807e-01,-3.459701617048553945e-01,-9.854811300830056409e-01,-7.925545304083859988e-02,-6.711551799940609908e-02,2.001088958376399662e-01,1.305689096450805664e+00
3.475510498405732229e-01,-6.315814583952625849e-01,-8.550497333550661772e-01,-8.320013052331196035e-02,3.235197809487497245e-02,-4.286193230004542443e-02,1.121098518371582031e+00
3.620272508414550394e-01,-5.146534478199640272e-01,-8.749674955203284865e-01,-4.917491375237025703e-02,2.171070068386218854e-02,-7.198243832792090846e-02,1.112874031066894531e+00
3.004004504148895527e-01,-4.790617475468559872e-01,-8.585578813802747788e-01,-2.641219727221983879e-02,1.837578301511051324e-02,-8.809335550405626714e-02,1.036228060722351074e+00
4.300811654927575445e-01,-5.481588541139376103e-01,-9.685218996441012917e-01,1.286317877537109097e-03,2.611603163312843298e-02,-1.298082085443221789e-01,1.263913035392761230e+00
3.821211326182791801e-01,-5.963523412117193168e-01,-8.516310274300675776e-01,-5.724227550921646979e-02,2.359647108275070987e-02,-1.178117085966237515e-01,1.151303648948669434e+00
3.550172193318467118e-01,-5.899081586932476418e-01,-8.491047424261037868e-01,-4.914166737225205556e-02,1.257598590171311349e-02,-1.148620448745267530e-01,1.119056463241577148e+00
3.542574001144981333e-01,-7.983541242761420520e-01,-6.442776239247864911e-01,-2.916812151345667126e-02,4.131376872533779748e-02,-7.669269992422872440e-02,1.095436334609985352e+00
3.598751357965659925e-01,-8.146983241702612233e-01,-6.398572649674557633e-01,3.428769231185033271e-03,9.056963591199446509e-03,-1.121795467039506528e-01,1.114837527275085449e+00
4.000587452905913777e-01,-6.772366830824901873e-01,-7.421630563012779902e-01,3.508734406385707882e-02,-1.798243392568117660e-02,-3.296258409736737005e-01,1.251139044761657715e+00
4.313166711635037509e-01,-7.607909251417266372e-01,-6.625613531843470572e-01,-3.235454917239226347e-02,-2.229009313140811743e-02,-1.982500284021973813e-01,1.198419570922851562e+00
2.854351469886867720e-01,-8.000436740672611791e-01,-7.473945474623440166e-01,8.456460600196929328e-03,3.068251693758428100e-02,-4.857997633616228245e-03,1.061600804328918457e+00
3.517141313375044542e-01,-7.700980676669768599e-01,-7.813097525480539041e-01,3.842615405674465554e-03,-2.883784782953549564e-03,-6.369519109613550360e-04,1.127491116523742676e+00
2.687366790730219557e-01,-7.731705389276564144e-01,-7.405590558429607784e-01,4.549439460872704323e-03,2.338306943515131367e-02,3.827399578713420059e-03,1.026840925216674805e+00
3.329390188955707042e-01,-8.041029215373303174e-01,-7.472224500601236663e-01,1.311643349488779853e-03,2.406743072841861265e-03,3.312885861315839620e-03,1.109720587730407715e+00
2.657889314116782531e-01,-7.897179600952282108e-01,-7.406217394685679078e-01,-5.305396341247929637e-03,-3.837649206085393810e-02,1.526188123194831010e-03,1.034018158912658691e+00
3.114046366000187693e-01,-8.516034683498108215e-01,-7.404091038081763720e-01,1.319614100878755900e-02,-2.768871863038424239e-02,-3.868334918252144209e-03,1.112878918647766113e+00
3.261332181842094835e-01,-7.911297435532396172e-01,-7.512055857834641914e-01,-2.521724757704285093e-03,7.801681626095756383e-03,-1.169106256819962266e-03,1.097939133644104004e+00
3.483108881541196467e-01,-6.106876135946902595e-01,-8.630067549630976442e-01,-5.423324905698686388e-02,2.768738737450953183e-02,-3.509043394721250708e-02,1.113613128662109375e+00
3.345294014652798742e-01,-6.581992784852939149e-01,-8.048539785545921754e-01,5.009302244255909101e-03,1.002896803447864658e-02,-3.540852236687278692e-02,1.075520515441894531e+00
3.371982645912554588e-01,-6.538520911076521891e-01,-8.170042493147966489e-01,8.883987096016177955e-04,1.290289479995875010e-02,-2.697853785450051237e-02,1.083132863044738770e+00
3.240890719558772171e-01,-7.292145474095480528e-01,-7.221844383504784082e-01,3.313552321960744514e-03,-2.859703698212250067e-03,-1.809904896146306841e-02,1.050301551818847656e+00
4.195339093417805310e-01,-1.018129546913708827e+00,-4.053246940364154116e-01,-1.578916358340530859e-02,2.696553108310809944e-03,7.832350053824732594e-02,1.257208108901977539e+00
4.496095870461976896e-01,-1.040503454739480915e+00,-4.345146540082227005e-01,-1.102572013291831451e-02,-4.607965330962872363e-02,4.340336235647443593e-03,1.300560951232910156e+00
3.847213608425357201e-01,-1.062893805864939090e+00,-2.284674714583675714e-01,-2.196283244455037725e-02,-5.174948319039721772e-02,1.715841242993566829e-01,1.296816587448120117e+00
4.686995008170065646e-01,-1.278011616687078744e+00,-2.033726618630235794e-01,-6.699877577440271903e-02,-6.278797122321733148e-02,8.681402889808353951e-02,1.541644692420959473e+00
3.573314517510041144e-01,-1.054181000612051333e+00,-2.515790391237727186e-01,-1.408960107338005745e-02,3.204792523831064693e-02,1.597012985926274942e-01,1.258509039878845215e+00
4.129992368911772349e-01,-1.110099904067120002e+00,-1.935073321459205575e-01,-8.711483833430582260e-03,6.143296846958201662e-02,-6.813876547170133469e-02,1.337680816650390625e+00
3.710255696022206062e-01,-7.774983482673422097e-01,-7.730895210649824101e-01,-4.570722626195097664e-03,3.922997607874074109e-03,-1.256195338323836926e-03,1.146375417709350586e+00
8.604480945244175061e-01,-1.441544662627510798e+00,-3.309559263312691901e-01,9.336598809465015622e-03,7.699409381061506075e-02,1.633314326126071581e-01,2.018436908721923828e+00
3.975567401069352580e-01,-7.482539265579417620e-01,-8.326722228615111021e-01,-2.542367572704961817e-03,-2.613969693244228010e-02,-1.011826580885753640e-01,1.203959703445434570e+00
3.664616743863134407e-01,-7.194384381188829725e-01,-8.337109241394455861e-01,-5.869095455207928858e-02,2.755670347623419975e-02,-3.299724824818284913e-02,1.154211521148681641e+00
3.332676468162829031e-01,-7.424188533500311049e-01,-7.876106375312890151e-01,2.689311565348818239e-02,-1.381994728496246418e-02,-1.561794708694914935e-02,1.100559115409851074e+00
3.707460861987239009e-01,-7.665286018871280138e-01,-8.299128551257968223e-01,-2.595990781396913596e-03,-1.172432084517681036e-02,-6.140995388501178931e-03,1.170488119125366211e+00
3.406771021291042922e-01,-7.584950150383430456e-01,-8.126484876275533731e-01,3.149883780296747204e-02,-2.435457711374810347e-02,-8.374471500687689918e-02,1.138609409332275391e+00
3.187614376049505704e-01,-7.623842548261638985e-01,-7.760640529247033736e-01,-2.385149317926525420e-03,-2.056303843858815067e-02,-1.555016705741207525e-02,1.088973879814147949e+00
2.887264181238510807e-01,-7.599536696727435814e-01,-7.722130657542336518e-01,-1.854718778709096502e-02,2.863949126838117882e-03,-2.592616099538649303e-03,1.055373430252075195e+00
3.399251321819551919e-01,-6.814812813529037561e-01,-8.652875305010888640e-01,1.947716519262402204e-02,3.834847941705351020e-03,-8.260420264242229749e-03,1.125248193740844727e+00
3.357777097421570378e-01,-6.832997208179870663e-01,-8.419675733407153695e-01,2.552787128435063044e-02,6.750167408727274958e-04,2.531096443999989939e-02,1.108723282814025879e+00
1.900008047569293756e-01,-7.614800136992285751e-01,-7.512620513628048835e-01,-3.028754665670676388e-02,3.277478642132485107e-03,-3.148525826032879532e-02,9.494504332542419434e-01
2.591527586754553969e-01,-7.370832697226403774e-01,-7.922331639917754575e-01,-3.329287214203847933e-02,8.373564325263690988e-03,2.680534429886902853e-02,1.027697086334228516e+00
3.451698454289445772e-01,-7.778779946080012220e-01,-8.012057541511153902e-01,4.417903799224692546e-04,-5.472309650549766688e-03,-3.859784949842320900e-03,1.134951114654541016e+00
1.469147221768566380e-01,-8.109365608925267477e-01,-8.408415374955151567e-01,6.046387411998829786e-02,1.470797324813876220e-02,-1.877444209570368339e-02,9.796386957168579102e-01
3.673378284490371737e-01,-7.794671400254391536e-01,-7.837784972264894012e-01,3.397913880498274787e-03,3.164652773590952151e-03,-1.924406585881271699e-03,1.148999691009521484e+00
3.680418458723861419e-01,-7.760886534340178944e-01,-7.720883590081444314e-01,-1.921230944762034347e-03,4.995646006963158636e-03,-2.681568070193470887e-03,1.142182707786560059e+00
-1.354578883909970388e-01,-7.418780992796653040e-01,-6.937217535378389366e-01,-9.624035724340876397e-02,8.569568233763333320e-02,-1.534799932843777283e-02,6.256085634231567383e-01
3.563677551848844494e-01,-7.813263057813037982e-01,-7.790087319311256309e-01,-5.587587065370372072e-03,5.436660143543643395e-03,2.255397529134282094e-03,1.136623978614807129e+00
2.068174734436224460e-01,-7.499899139142273130e-01,-7.494719980799335879e-01,-9.753007209073759343e-03,-5.992393700802223916e-03,-5.289761925465816424e-03,9.567978382110595703e-01
3.552881442072398643e-01,-7.789768866037545259e-01,-7.554183626366173243e-01,-8.551405988117514664e-03,-5.614657285766050908e-03,8.169933558485964822e-03,1.122900128364562988e+00
-1.441879116596304633e-01,-8.037154011567563261e-01,-7.777582954751535160e-01,-1.188004086088394751e-01,-1.467404727251698897e-02,-4.582677386707239425e-02,6.839720010757446289e-01
6.334638696982719530e-01,-4.094376701233709004e-01,-1.091229165973550908e+00,5.288585173082797214e-02,-8.322518185679539382e-02,2.255366992444283458e-01,1.563743948936462402e+00
3.644789675337167245e-01,-7.832386396812547336e-01,-7.743267470542161135e-01,-4.768092104013538050e-03,-9.713392697850250406e-04,-1.285851637817481304e-03,1.143320918083190918e+00
3.430412840474221792e-01,-7.781558591642430134e-01,-7.758180410171766628e-01,4.530109153772329117e-03,-4.932613735665278450e-03,3.376808282491634491e-03,1.120105385780334473e+00
-1.468219704440392737e-01,-6.362061502322544637e-01,-7.913090570882042041e-01,-1.263023206905964368e-01,2.071449847448545573e-02,4.721499540245065879e-02,6.287213563919067383e-01
3.131724528159567367e-01,-8.887919099371091036e-01,-4.945433090069245585e-01,-3.868551286750469744e-03,2.251248948337024759e-03,5.929731940438900950e-03,1.061340212821960449e+00
3.677566674505087230e-01,-7.809504320800807475e-01,-7.751465341673885456e-01,-8.967243851647505731e-03,-3.733129712312568266e-03,-1.185242354859262018e-04,1.145939707756042480e+00
1.974861081008028041e-01,-1.131641374903989083e+00,-8.570862136928891761e-01,-6.197008167817189125e-04,-1.286536526979297455e-02,-8.400322415986299224e-03,1.215627789497375488e+00
3.335970127766808568e-01,-6.996412011346816451e-01,-7.572241514512334515e-01,-8.399783654528409846e-03,9.263328555840916190e-03,-5.124054339275935233e-02,1.067117452621459961e+00
3.470877954107687846e-01,-6.939135386814121453e-01,-7.574556441837079213e-01,-2.887179119818601702e-02,2.668742246648644900e-02,-6.238476880365839000e-02,1.081749439239501953e+00
3.495664301188831646e-01,-7.989761541240880671e-01,-6.375791903329484089e-01,-2.446756790766239573e-02,3.259542415805372073e-02,-1.168702210525937868e-01,1.098083376884460449e+00
3.140853950906435377e-01,-7.285231834165217801e-01,-6.651055697642166420e-01,-2.606105199886292467e-03,-1.489265995818630714e-03,-8.614363305651241698e-02,1.023339629173278809e+00
3.112758903800489363e-01,-7.192604037525933691e-01,-6.700989302146360682e-01,-1.674680995427495905e-02,1.409481378205294962e-02,-8.868114340979461885e-02,1.019210338592529297e+00
3.477318443199297060e-01,-7.533359841520002043e-01,-7.388390899116279442e-01,-2.033434659198666075e-02,2.328434452130983406e-02,-1.821581510383112404e-02,1.095655441284179688e+00
3.505608918999579826e-01,-7.512697921225314213e-01,-7.477517800587827335e-01,-4.468038375134161279e-03,9.736135885526625913e-03,-1.219316625115235940e-02,1.100435018539428711e+00
4.415421031593200207e-01,-8.365501391702773182e-01,-6.681650942466419441e-01,-2.391067601525452904e-02,3.327994205934840799e-02,-2.369442917902120360e-01,1.272842168807983398e+00
3.707770203070624992e-01,-7.783389142570134034e-01,-7.751412720757062669e-01,6.056922542264963141e-04,-1.138422708142885304e-03,7.263492699242212608e-04,1.147523283958435059e+00
3.187587006723152649e-01,-8.211062858074110737e-01,-4.926955520847430270e-01,-2.079102009984713437e-02,5.601809841179297700e-02,-2.182808515948732042e-01,1.089243888854980469e+00
3.381146424247660764e-01,-7.823228607843506488e-01,-7.826273541133210720e-01,2.895144556636540783e-03,2.105610077961484437e-03,4.961987378764370731e-03,1.120639920234680176e+00
3.058733266357025471e-01,-8.315311953717186011e-01,-5.563435833149217302e-01,5.223626228604361446e-03,-6.384449347027170828e-04,-2.185701521568841899e-02,1.028559088706970215e+00
1.945546241664318776e-01,-1.111878245121633801e+00,-9.644437221247511571e-01,-1.960651034625158096e-03,-1.550049828032110111e-01,-3.364992934456685625e-02,1.269400835037231445e+00
3.478237831003717084e-01,-7.137128436713415791e-01,-8.095854010978986715e-01,3.754881940101120058e-02,-2.641584614558277477e-02,-5.403933011388398211e-02,1.119333624839782715e+00
2.633518874957958000e-01,-7.628132285674766866e-01,-7.713921500518123864e-01,3.129427709543480558e-03,-1.871552186660156020e-02,1.574059942349071220e-03,1.031008958816528320e+00
3.676309748984947778e-01,-7.604512513347156943e-01,-7.944950720938422917e-01,4.724179113398070456e-04,-1.471464105802773245e-03,-7.020437809362115554e-03,1.145551323890686035e+00
3.328581507542531237e-01,-8.472332473507875328e-01,-5.973282986028998209e-01,6.839405871430259340e-03,1.511910806390853214e-02,-2.443636662186083643e-03,1.077497839927673340e+00
3.560397392315872711e-01,-7.823951977247878276e-01,-7.770324238538579564e-01,-5.586021447391773843e-03,5.434659003049667828e-03,2.773192450906977833e-03,1.135853409767150879e+00
3.664469461455896471e-01,-7.911848713753908413e-01,-7.661742653756953292e-01,-4.858666847701127375e-03,5.215353636193667888e-03,-6.110576751076184912e-04,1.145398378372192383e+00
3.272777657310834698e-01,-6.092762344460892487e-01,-8.333279344097086483e-01,-5.119456218459751684e-03,-2.132062314888243104e-02,-1.322676337416024521e-02,1.067303299903869629e+00
3.695512800908359874e-01,-7.921692910613218341e-01,-8.031744140527800058e-01,6.181198798586031232e-03,-1.459160904297114592e-02,-2.876806859737972288e-02,1.168647408485412598e+00
3.626992245535977100e-01,-7.071842717273186807e-01,-8.168896742139597489e-01,1.300460412572396023e-02,-1.277995612014879573e-02,1.488944687766505497e-03,1.129186391830444336e+00
2.613002027381371439e-01,-7.676237122291378334e-01,-7.733821108010280332e-01,-1.669759604101969316e-02,-6.292861643895336209e-04,6.717318511255293209e-03,1.032286524772644043e+00
1.676211456221871066e-01,-7.710965991975683442e-01,-8.317566924749282276e-01,-2.938127719850035929e-02,-5.891515012568339371e-02,-1.450289509099066676e-01,1.008918404579162598e+00
1.860378947498291802e-01,-7.496069425875474534e-01,-7.429833096783609037e-01,1.112384449137050410e-02,-4.309528054234670544e-03,6.483036508150758631e-03,9.326471686363220215e-01
8.944821697934318694e-02,-7.731145732582442864e-01,-6.243635553348870770e-01,-2.009014734467085700e-02,-7.458995399043250041e-02,-2.054297823010506896e-01,8.845000863075256348e-01
3.180275693530481007e-01,-7.139270698823372285e-01,-7.247205127436866512e-01,-6.605859886168070081e-05,3.107523311169676453e-03,-2.875400030475580571e-03,1.037419438362121582e+00
3.293265101289747920e-01,-8.397707781327912180e-01,-7.747223918643461049e-01,5.719264013289200588e-02,-3.596284817340415080e-02,-9.964684781440089067e-02,1.156915426254272461e+00
3.657630158497695017e-01,-7.909782099037203640e-01,-7.584920592703796594e-01,-8.515089713982132089e-03,-3.698581226503691501e-03,2.857558534353150329e-03,1.140969157218933105e+00
3.658922174435016994e-01,-7.805622673179345439e-01,-7.744070481972105124e-01,-1.258211909579892964e-05,-3.691709718678972936e-04,-1.083548244699969638e-03,1.143391013145446777e+00
3.542136452662151824e-01,-7.957063178952863414e-01,-7.778849362158875014e-01,-1.523797807582138661e-03,5.966207631151175875e-03,4.113127047223258566e-03,1.141185760498046875e+00
3.597881899674974515e-01,-8.013888564948750126e-01,-7.468092880258999644e-01,-1.166055309837080379e-04,9.406935961358159912e-04,8.490704434609650311e-03,1.134968519210815430e+00
2.701566365455062568e-01,-8.545599250927640167e-01,-5.639714835988286490e-01,1.030019936218687284e-03,4.420974340350274090e-02,2.896450277194098991e-02,1.015373229980468750e+00
2.448488596872629985e-01,-8.371276783457681780e-01,-6.305007796654200636e-01,1.550331450002654515e-02,-6.187471375985508296e-03,3.148533697752711746e-02,9.968010783195495605e-01
3.524841760437060767e-01,-7.752158936725884741e-01,-7.552198820840545501e-01,-6.864773286645938118e-03,1.997632110067670309e-03,-8.491272683337318383e-03,1.118001580238342285e+00
3.647279899590509245e-01,-8.995208112547370405e-01,-7.456936824976514444e-01,-1.456296804901593880e-03,-2.817681314324243375e-02,6.998462197314538058e-02,1.201912522315979004e+00
3.161322909075595655e-01,-9.058872871632330792e-01,-6.530483916676099732e-01,-1.626558857402534211e-02,7.876465184503226094e-03,6.809993425316314408e-02,1.123911857604980469e+00
2.892949608711137266e-01,-7.869176489848841438e-01,-7.299639796948802495e-01,5.322759054889885863e-03,-1.773033054534888311e-02,1.410983465031535704e-02,1.049670577049255371e+00
3.263528122223385286e-01,-8.011848524531860471e-01,-6.933236735240952964e-01,8.190914257018637804e-03,3.189491729072130299e-02,1.429502825527976910e-02,1.079455375671386719e+00
2.965100682625337880e-01,-7.796296560779094609e-01,-7.809115166750477677e-01,-1.553527923200481199e-02,-3.566248952376755311e-03,-8.473313675709904375e-03,1.077235102653503418e+00
3.669311146006796753e-01,-7.839864656852058022e-01,-7.616364982987668952e-01,-7.071727447354250740e-03,1.975637527275095687e-03,6.451955826422794667e-04,1.139978408813476562e+00
3.673054599178587343e-01,-7.822160524864607556e-01,-7.764571013666476951e-01,-5.869474242729402075e-03,1.265252215136401012e-03,1.095422155415174195e-03,1.146701574325561523e+00
3.654799572136754326e-01,-6.858074264774793871e-01,-8.418285233241522558e-01,-1.440804224657972997e-02,1.334705050073912123e-02,3.622290512797794737e-02,1.139589548110961914e+00
3.643693250655347660e-01,-7.871535904882245305e-01,-7.695281463372564135e-01,5.288698711291549628e-03,2.832853726352668310e-03,-1.240685700364473065e-03,1.142861366271972656e+00
3.864906485220583332e-01,-7.852081825655069514e-01,-7.879858546812114062e-01,1.215244361115350863e-02,3.879486303421809078e-03,2.687724376965660786e-02,1.174221396446228027e+00
3.343057150219952423e-01,-7.819668097742453750e-01,-7.570550513499172407e-01,-3.879531111081039197e-03,-5.226649740548513882e-03,-3.044950083879045463e-03,1.104097604751586914e+00
3.527342532493530913e-01,-7.798445793767576628e-01,-7.851531772522473140e-01,3.618212950913479459e-03,8.078602361108666238e-03,-1.757534342400201123e-03,1.135349988937377930e+00
3.613741491112809623e-01,-7.595455042759879927e-01,-7.702938729058416145e-01,1.645880767004495463e-03,-7.730978244567771746e-03,9.697171051834802382e-04,1.126416802406311035e+00
3.461607426297754198e-01,-7.644374389654975399e-01,-7.955920221927392788e-01,8.450834423418320321e-03,-1.835898669688098769e-02,-1.312461999855100688e-04,1.127042412757873535e+00
3.360865844070265451e-01,-6.724517547937736150e-01,-8.647321729908361565e-01,7.174177826108799061e-02,-7.281585827527481403e-02,-6.864296144285000900e-02,1.137332916259765625e+00
2.678524753721533980e-01,-6.992696630948846970e-01,-7.976051119546558876e-01,1.128681741064858045e-02,2.331211748773151689e-03,-1.871502481717283832e-03,1.020052194595336914e+00
3.576247450651962589e-01,-7.122548242397118701e-01,-8.048457338672765360e-01,7.811123205357669783e-03,-1.427788195146243236e-02,3.335627068169604373e-03,1.119421482086181641e+00
3.631486529743156444e-01,-7.644414378054258385e-01,-7.949426341196683676e-01,1.051881992775590725e-02,5.272197643006496740e-04,9.984876674136399649e-03,1.143422245979309082e+00
3.400430783491301123e-01,-7.780745984692614137e-01,-7.865621027254374731e-01,2.391996530331823995e-03,-7.654943611088197396e-03,9.521603508961225606e-03,1.122592568397521973e+00
3.645364695052664139e-01,-7.494523797179465374e-01,-8.101551782204421404e-01,-8.391217121501185275e-03,7.352865396426643343e-03,-3.158302907770070035e-03,1.145723223686218262e+00
3.643759792810083997e-01,-8.379114621441559052e-01,-7.511994158703075852e-01,8.556024703664294115e-03,-6.587604932526570228e-03,-9.496432890917737984e-03,1.161628842353820801e+00
3.341190390035120306e-01,-6.066673321733105917e-01,-8.431645902424609318e-01,-9.950518136962502314e-03,8.550958667256768064e-03,4.985906146154890292e-03,1.078932046890258789e+00
2.748275400674856650e-01,-8.012130539133561768e-01,-7.714260300629360856e-01,2.178539826059424506e-02,-2.675651679319200529e-03,4.068173136451816766e-04,1.062141418457031250e+00
2.163453229633190977e-01,-7.651656474601202795e-01,-6.973324083847318722e-01,-3.136079729755514214e-03,-1.086698416575015286e-02,-5.279684347118588500e-02,9.540085792541503906e-01
2.853747562636910207e-01,-8.013053184142993057e-01,-6.701628163904820301e-01,6.396761106176901412e-03,1.522344572338559660e-02,-4.551871173241331392e-02,1.030822873115539551e+00
3.206355323188304629e-01,-7.473358824651605836e-01,-6.700235856867140516e-01,-7.162260337260991858e-03,7.604517683224434367e-03,-7.043764766462490279e-02,1.038838148117065430e+00
3.561786741623852448e-01,-7.897284887193517511e-01,-7.614245609818437455e-01,-7.746487103510498601e-03,-6.196027197033513421e-03,1.626409914408437959e-03,1.132154464721679688e+00
2.307450985833237600e-01,-7.679477617954209023e-01,-7.598733644363289130e-01,3.470143019723997968e-02,-6.588296032952319081e-02,-2.531574194935491684e-02,1.003965020179748535e+00
3.596489550619132447e-01,-7.909573592383876139e-01,-7.731574519277115698e-01,9.638499684593993119e-05,-3.653610880287535851e-03,1.479609009541050244e-03,1.141830801963806152e+00
2.385152788858176387e-01,-7.747648310764262414e-01,-7.635824235472550292e-01,-2.967664238265044913e-02,-6.188202081099983959e-02,-2.394523454136008277e-03,1.014730572700500488e+00
3.600119651459349757e-01,-7.674743507470977999e-01,-7.839594033343365576e-01,-8.309493732289147117e-03,-8.851978749708803648e-03,2.253748527964124105e-03,1.136019945144653320e+00
3.328962658184236312e-01,-7.591531511669720178e-01,-7.101922615372839864e-01,-1.713796301849459386e-02,5.555115282445463728e-04,4.060250122871848603e-03,1.068846583366394043e+00
1.988542445564372985e-01,-7.499440554532015302e-01,-7.669519419644504898e-01,-1.219291165975709690e-03,2.094244443565001709e-02,2.649490978477060123e-04,9.581049084663391113e-01
2.905131386589466236e-01,-7.857812510247020876e-01,-7.526980801255109821e-01,-6.832307563280464076e-03,-2.043804899019068672e-02,-3.473344064656803086e-03,1.060813903808593750e+00
3.582138671504516703e-01,-7.626360433729069133e-01,-7.901647923501309290e-01,8.495828883508372772e-03,-7.555444096297475771e-03,-3.032038414679444783e-03,1.135047674179077148e+00
3.112816870191489338e-01,-7.722368608268688206e-01,-8.044078783352074380e-01,-1.817262916824770660e-02,-7.324527813894325147e-03,5.165428499925167789e-03,1.100516676902770996e+00
2.734300186598444538e-01,-7.655389350481205391e-01,-7.620394739738446388e-01,-8.955341067321018894e-03,4.496621041242317846e-03,1.073078668030256642e-03,1.037370562553405762e+00
3.771251229055456178e-01,-7.666800405192821799e-01,-8.342980138249819211e-01,-1.040131372466057344e-02,3.151467211428523804e-03,2.107788184322554118e-02,1.179784536361694336e+00
3.775245877285296481e-01,-7.148453665529546086e-01,-8.434098194169419305e-01,-4.357623544262936160e-02,5.278479225158195370e-02,7.322631693913620593e-03,1.168099761009216309e+00
2.591221234661490458e-01,-7.622566763986480254e-01,-7.638591225576423227e-01,-9.920236813321060484e-04,-6.973435090290788785e-03,-2.570917887003598429e-03,1.022263407707214355e+00
3.231852756098433921e-01,-7.145559798025444831e-01,-7.024817674577719107e-01,-2.304253056157059502e-03,-7.328385547902696931e-03,6.074915770378178093e-02,1.037193894386291504e+00
3.325445030972669080e-01,-7.349172454506720520e-01,-7.317597247627767310e-01,-6.159958634855201495e-03,1.216743606003179226e-02,-1.745352357499900531e-02,1.066576719284057617e+00
3.524856727607759699e-01,-7.862322289806954467e-01,-7.761909736913104041e-01,9.305104604231266606e-04,-2.310956418628684096e-03,2.629331195087451561e-04,1.133738875389099121e+00
3.093284314652106626e-01,-7.483326205539717613e-01,-6.575400269840261380e-01,-6.463442916407604981e-03,-2.119433211278711480e-04,-2.662006709900264709e-02,1.016422033309936523e+00
8.197642022987066124e-01,-1.457683205899215517e+00,-2.703449265990948147e-01,-3.999628349575180299e-03,-6.490703432738664791e-03,6.087044556427306102e-02,1.975785493850708008e+00
3.678768294644634840e-01,-7.785701582498081308e-01,-7.836836691464222904e-01,1.458057407375532846e-03,-4.183367895844712983e-03,3.526096783940143968e-04,1.149038076400756836e+00
3.132048917546861322e-01,-7.940194702000010762e-01,-7.785593633406602265e-01,3.710413331738362987e-03,1.414302246968654605e-03,2.701757031791204161e-02,1.100592613220214844e+00
2.005775696259591845e-01,-6.764621281374268991e-01,-8.088456099546919020e-01,9.651223051789139390e-04,-1.880149973252968204e-02,1.056681126452249132e-02,9.509089589118957520e-01
2.886642372924035360e-01,-7.665080285791063819e-01,-7.913597909974993128e-01,9.861825268584983525e-03,2.750395430359256488e-02,-4.863375928784015485e-03,1.069046854972839355e+00
3.243523498050375764e-01,-7.955628961020654311e-01,-6.287745347865700829e-01,1.049919256400288353e-02,9.492440098159410714e-03,7.999649556463699074e-02,1.055954098701477051e+00
3.516567492940100292e-01,-7.479725503672989273e-01,-7.568582126104170804e-01,1.520324905484827941e-03,7.557669015451683701e-03,-3.775452639027454971e-03,1.104199051856994629e+00
3.494006719120942850e-01,-9.376631316111232461e-01,-4.455497143939579630e-01,7.027593440776747080e-03,-2.068346507736604570e-02,1.565281911955319905e-01,1.157696962356567383e+00
3.455213679487192935e-01,-9.179647030108437633e-01,-4.978678416993765898e-01,-5.166846547124179408e-03,-1.080491896640062809e-02,9.111463550796870814e-02,1.125800967216491699e+00
4.659075889179899455e-01,-6.976621705212062707e-01,-8.586784315724246275e-01,4.520728403004192764e-02,-5.698433739427922334e-02,-2.239303028838866283e-01,1.316617488861083984e+00
3.405028905630076985e-01,-5.395816831172765005e-01,-8.743143278775986627e-01,-2.357693512646088368e-02,1.802809729786012186e-02,-7.532965659898707700e-02,1.095834970474243164e+00
4.510669715296651838e-01,-6.023196740012775052e-01,-9.390960142727300397e-01,4.382290204169488057e-02,-1.958287852822866715e-02,-1.738829956395364362e-01,1.294378280639648438e+00
3.537873265662843658e-01,-7.754868311841855988e-01,-7.863075987913046294e-01,2.531097298429800784e-03,-1.882567311155362681e-03,8.070352595435038769e-04,1.134737253189086914e+00
3.830464359047089373e-01,-6.295940513506387282e-01,-8.059820107114038512e-01,8.088636502065489620e-02,-6.858965408873030078e-02,-1.265231917844179543e-01,1.147578716278076172e+00
3.709459140014264023e-01,-7.783513474846299740e-01,-7.726194510605666199e-01,2.831751442130664952e-03,-2.719050402633469733e-03,-8.683794384991625056e-04,1.146463155746459961e+00
5.253126318244537574e-01,-4.390327848285490164e-01,-9.025068205310960989e-01,9.934148742167343490e-03,-7.362100499714244184e-02,-2.380538410242728775e-01,1.333523273468017578e+00
3.025463316725659491e-01,-3.590006732424405045e-01,-8.085108777387757240e-01,-4.383377426000970023e-02,4.581983316726065403e-02,-2.990791181235076257e-01,1.103396415710449219e+00
2.406406873077576725e-01,-2.563448962031005252e-01,-1.018893833185323228e+00,-4.836789689311184887e-02,-7.502021014901613660e-02,-1.385179251776070819e-01,1.135304093360900879e+00
3.163069395971792042e-01,-5.062022633467142541e-01,-8.667356885747081741e-01,7.139301911175899296e-03,-1.468193616202989084e-02,-7.300826617122339879e-02,1.058223962783813477e+00
3.473001096644143804e-01,-4.860749763877024732e-01,-9.064894440367213813e-01,3.558342256190988317e-02,-2.004727902489255795e-02,-8.371384992096018995e-02,1.116984128952026367e+00
3.449778877130373345e-01,-4.286668433935449940e-01,-9.586185060560956650e-01,-5.104171783390478584e-02,4.964221743973640071e-03,-9.015315144392943569e-02,1.149626731872558594e+00
3.687027196178590538e-01,-7.778182174443765140e-01,-7.697825066118914039e-01,-8.210826517343674039e-03,-5.087746371878326505e-03,3.229458950119543093e-03,1.142660498619079590e+00
3.741018396278210090e-01,-7.798901466004082295e-01,-7.804757296530406840e-01,1.142318748861944483e-03,-2.712503275595643318e-03,4.081509179540470582e-04,1.154296398162841797e+00
3.504514534838241158e-01,-7.763646397206409588e-01,-6.406517561241327208e-01,-4.058311306862112666e-02,-4.860671998287378892e-02,1.689684624432869486e-01,1.110355257987976074e+00
3.853615223365585707e-01,-7.633700401571614780e-01,-7.962544416961185867e-01,-2.528669269511432671e-02,-3.068798676655519822e-02,6.525733856520149478e-02,1.173013210296630859e+00
3.632174340974600457e-01,-7.883113819349216733e-01,-7.575916946318521639e-01,-1.329747517715791985e-02,-7.523941370854920260e-04,4.061379625672479482e-03,1.136736273765563965e+00
3.736279514182381245e-01,-7.797065987091142958e-01,-7.793567882027415683e-01,1.141950408320861364e-03,-2.711578690072704353e-03,1.147699234100488849e-03,1.153172612190246582e+00
3.684930333697727378e-01,-8.001999396505145024e-01,-7.562320549674970138e-01,5.113025955384938037e-03,1.996857174149647659e-04,6.085604636163837421e-03,1.147423744201660156e+00
3.321070192683563960e-01,-7.779805993298247735e-01,-7.732788381545109280e-01,6.307699174556322466e-03,-8.270414768440599584e-03,4.616800916432029986e-03,1.107919573783874512e+00
3.492042374120732928e-01,-8.130969605101547870e-01,-7.106981333351092278e-01,-2.009534197399553187e-03,-1.830185377115102138e-02,-1.569193145812791234e-04,1.115091204643249512e+00
3.318730015770731123e-01,-7.080471950900384392e-01,-7.563376389978971881e-01,-1.539976536310356777e-03,-6.966861417091972479e-03,-1.057753065392639732e-02,1.065116167068481445e+00
3.596008681867799983e-01,-7.688927260136375619e-01,-7.104845739839518171e-01,-2.372657382603936965e-02,-8.535829463667968589e-03,4.432978088466173194e-02,1.103992223739624023e+00
3.129309191290355341e-01,-6.719361283670044482e-01,-7.346065400406251999e-01,-4.943611415986684000e-03,-1.058581319802058378e-02,7.893007458602036008e-02,1.026991724967956543e+00
3.422868372312787288e-01,-8.115670953380536012e-01,-6.718864349404529701e-01,-2.517403750799031628e-02,-1.309368017333474750e-02,3.732904230290613051e-02,1.093761563301086426e+00
3.289636876915689179e-01,-7.282189359054318523e-01,-7.098540389270815432e-01,-2.453604285029467591e-02,-2.729198450187636515e-02,3.528094978774572871e-02,1.051823258399963379e+00
3.682783300492908918e-01,-7.798719013155744895e-01,-7.794526710685296678e-01,3.292587979586408982e-03,-4.219162921485538308e-03,1.194966730192365770e-03,1.147979974746704102e+00
3.685684299748552828e-01,-7.841863791050505128e-01,-7.775444242926723426e-01,4.301671700630849311e-03,-2.277936992896185779e-03,1.622950898199265572e-03,1.149482607841491699e+00
3.530315173832643261e-01,-8.261751356497359922e-01,-5.930915450165205050e-01,1.321870395522894287e-02,2.921851378923965431e-02,1.213601073507653560e-01,1.103300809860229492e+00
3.752646291285631208e-01,-7.823282670389335447e-01,-7.758600869003247080e-01,2.887623059764674732e-03,6.945296272094581350e-04,5.703502272643619104e-04,1.154384255409240723e+00
3.213121650601881707e-01,-7.987563669904597097e-01,-5.212119067111817827e-01,6.418696972172525635e-04,-9.087178314140046884e-03,1.901883437544980571e-01,1.062769651412963867e+00
3.523472491229046044e-01,-8.165964081625809445e-01,-6.363479989855178598e-01,8.672707351358112382e-02,5.434204887910878273e-02,2.489084509388519717e-01,1.185541510581970215e+00
3.795084268267342464e-01,-7.819562195588994902e-01,-6.356468404740094336e-01,1.668567889465016538e-02,7.889147584151245951e-02,1.627129799792023102e-01,1.139915227890014648e+00
3.965836114155628089e-01,-7.413212673583466916e-01,-7.709315189338329377e-01,5.171204838864249323e-03,-8.430309641894602989e-04,1.160839937404887362e-01,1.170430183410644531e+00
3.719793036455862900e-01,-6.815963501598227836e-01,-6.433709737795691996e-01,-9.280953890687893221e-04,-4.777769333895223736e-02,2.063380894492307660e-01,1.098083019256591797e+00
3.673218545093588916e-01,-7.292596495824547054e-01,-7.776197877733601604e-01,3.507738067935618070e-02,4.038539031371447818e-02,1.137021993203242987e-01,1.142466306686401367e+00
3.601902233743524140e-01,-7.631210316227274859e-01,-7.589829243679899751e-01,8.534054663951344544e-03,8.596382200816824609e-03,5.349944291190517759e-02,1.125266075134277344e+00
3.725386445811700309e-01,-7.855786970036608974e-01,-7.755734973748622529e-01,4.511476834854786372e-03,2.903598340947451551e-03,9.368334909147191204e-04,1.153185844421386719e+00
-1.286345952951347682e-01,-6.879372543170159116e-01,-7.710904146351177380e-01,4.643197035907814518e-02,7.310579685486197528e-03,5.047061327852256883e-03,6.106932163238525391e-01
3.333393334582345768e-01,-8.741490703480332414e-01,-5.536676380104207373e-01,-1.448964614567674163e-02,-2.206371499711639109e-02,-2.182097259340327888e-02,1.085024237632751465e+00
2.584630728035509084e-01,-7.588757637827168168e-01,-7.653430453478851092e-01,1.056436933497543513e-04,-7.379699905355512762e-03,-1.460942892637651308e-03,1.020671010017395020e+00
3.410216476049750534e-01,-7.169287132304180687e-01,-7.556465298427289534e-01,2.757258525580397190e-02,2.490972344057875570e-02,4.404203249210722482e-02,1.082442045211791992e+00
3.605542559076977960e-01,-7.191963778992507272e-01,-7.826781302046723621e-01,-2.490068187488860690e-02,-2.348772088193099711e-02,4.969291667402725432e-02,1.117747306823730469e+00
2.958843981101603182e-01,-7.049062512629515886e-01,-6.876181080564367498e-01,-2.498052588665156115e-02,-4.425037938111722052e-02,1.491991907897610159e-01,1.029129028320312500e+00
3.238592856019201216e-01,-6.566290308209210558e-01,-7.833780740170587231e-01,-5.326862357336255120e-03,-1.811410093571330995e-02,6.612041516539798880e-02,1.056354045867919922e+00
4.220532105976359527e-01,-5.876988578220120329e-01,-9.504773574894289645e-01,-2.747498017804700723e-02,3.563588543076304325e-03,1.077723690336249845e-01,1.246864557266235352e+00
3.574577077372618206e-01,-7.894080634599816015e-01,-7.781221315486448464e-01,1.206573219226937665e-03,-3.292441591664687847e-03,2.668518458984034305e-04,1.141280889511108398e+00
3.416195261845407782e-01,-8.756269631319011371e-01,-5.566858991167895621e-01,1.952086671881793703e-02,-2.637357864836451307e-02,-1.659915335361727973e-02,1.095097661018371582e+00
3.276336224096375038e-01,-5.243342251358702466e-01,-8.640878294158369499e-01,-4.660040121236123239e-02,-2.069709501986110103e-02,6.469621555313970207e-02,1.072892189025878906e+00
3.699085775066369708e-01,-6.230512138163599722e-01,-8.438310480955453219e-01,-7.401555109592461434e-02,-4.300252077331215977e-02,7.664188001575586440e-02,1.137340307235717773e+00
3.453711070045404896e-01,-8.635688163873640466e-01,-6.229243364257294191e-01,4.643337748626737843e-03,-2.517078289707236696e-02,3.671143019875122357e-03,1.109291076660156250e+00
3.494743415506845197e-01,-6.992051759172506209e-01,-8.266699833619003401e-01,-3.995782125972902055e-02,-4.018769097975849816e-03,1.803144885694731581e-01,1.162765622138977051e+00
3.819528253854374555e-01,-6.734930103061467221e-01,-8.210698981383872663e-01,-6.493120464163919248e-02,-3.378245682030491664e-02,1.381417553846937818e-01,1.168257474899291992e+00
3.603207359585032798e-01,-7.831133380463268789e-01,-7.817787867758573261e-01,-4.494122250734117197e-03,-4.524393365310546387e-03,-6.054858184923680303e-03,1.142868876457214355e+00
3.250154690388989409e-01,-7.461539809744013318e-01,-7.009913514675142343e-01,-7.685681034847981034e-03,-5.085746279210967644e-04,9.998612829804078353e-03,1.049545049667358398e+00
3.091307013529934200e-01,-8.114446757982667346e-01,-6.722844842602885285e-01,-1.754581067260411282e-03,1.861616926073987946e-02,-3.610267230325912868e-04,1.058378219604492188e+00
3.424665983207015318e-01,-8.578835089486838150e-01,-6.210860271062605964e-01,4.969236836387117690e-03,-2.343553809881198866e-02,-5.119962948207046338e-03,1.102031707763671875e+00
3.341479908378195418e-01,-8.184850308299022048e-01,-6.991838025903314158e-01,-1.026757797414429470e-02,1.274141291243875013e-02,-1.426232941847889284e-02,1.098498344421386719e+00
3.618867169234779579e-01,-7.893263518100441800e-01,-7.735498963496403313e-01,3.171361120950295931e-03,4.080071789928653089e-03,6.257242307167976917e-04,1.143442034721374512e+00
3.825315056959785465e-01,-9.545417089259304877e-01,-7.317437304403229259e-01,6.619036438450144264e-03,4.661564042588509788e-02,-7.523325010368822618e-02,1.250254869461059570e+00
3.606470285660086650e-01,-8.182205138416510648e-01,-7.012425001764501786e-01,1.308590428453124122e-02,8.515427714871324355e-03,1.406068443960826119e-03,1.125276923179626465e+00
3.991730037067123260e-01,-9.020180609823476026e-01,-6.619980029853556047e-01,6.088456899136829997e-03,2.502050277831297919e-03,1.994110258989647069e-02,1.199882864952087402e+00
2.666040738582509118e-01,-7.940141076185253111e-01,-7.267904909137224978e-01,6.250251316894158554e-03,-2.725784287531536620e-02,5.787301795306671985e-03,1.029843688011169434e+00
3.041793318781527145e-01,-7.691860244731565377e-01,-7.763810555563557259e-01,2.470660865645767784e-02,-7.375543208028312488e-03,-6.320529968034738818e-04,1.077906966209411621e+00
3.470664080793606776e-01,-7.552899573077553885e-01,-7.929084543262820972e-01,-1.167532687868425012e-02,2.177119416039517436e-03,-7.606486828194303912e-03,1.121904850006103516e+00
3.535050652395496096e-01,-7.655152852565333399e-01,-7.759621434619782265e-01,-1.082884892685252384e-02,-2.827157921849976410e-03,-7.386710000777847729e-03,1.124520063400268555e+00
3.751331549264250720e-01,-7.596802653303074138e-01,-7.993167079016358922e-01,-1.978651735690600127e-03,7.918857564265587012e-03,-7.135862102549257041e-03,1.155294418334960938e+00
3.313885276046173445e-01,-7.117034641860151556e-01,-7.836647418603477355e-01,-1.584207036721004686e-02,2.032134825695492905e-02,-3.339138113182121143e-02,1.083336591720581055e+00
3.182654027422220921e-01,-7.095219286795395597e-01,-6.758342227091200805e-01,-4.984405213523664113e-02,3.225191585999259702e-02,-1.527079832876506171e-01,1.050424098968505859e+00
-5.105883964410051767e-02,-8.613539672195802410e-01,-8.222198574450956254e-01,8.066484033978060797e-02,-8.748125104237617494e-03,1.361007911658208003e-01,8.376871943473815918e-01
3.756084675442027399e-01,-7.783183953263961286e-01,-7.787231807786513249e-01,-1.605084142434770470e-03,-9.456403725904660544e-04,2.534263118627196314e-04,1.154133915901184082e+00
4.756608473250101277e-03,-7.742630244348446267e-01,-9.000263616290924418e-01,-2.724415208970403304e-02,1.872467727989504949e-01,3.118624162665286498e-02,9.115858078002929688e-01
3.197504038622021039e-01,-7.752415848542644206e-01,-7.736403760140255770e-01,-2.650684036499929321e-03,-7.578237503202742316e-03,-4.204305231148652931e-04,1.094280838966369629e+00
3.416829018994967382e-01,-7.791562663849223025e-01,-7.781301787598743358e-01,-5.565589540137064542e-03,-7.074222951380894873e-03,-4.259872510392440602e-03,1.120459198951721191e+00
4.501557833184210988e-02,-6.937102426183152648e-01,-1.206082039189689370e+00,1.282349691276588877e-01,6.744369547611743509e-02,4.969244874170829739e-03,1.117942571640014648e+00
2.705222704106480247e-02,-9.598495536199392886e-01,-9.325451801263962004e-01,7.503129341755132575e-02,1.645941401181255925e-01,-1.124843469714826988e-01,1.041102766990661621e+00
3.386003170470314738e-01,-9.707342876086484385e-01,-4.934206564562426678e-01,-3.014554081667288749e-02,-5.318948378122009130e-02,-9.445704136813187768e-02,1.164131522178649902e+00
2.550617031953926195e-01,-5.658038979012515179e-01,-6.718472171512226421e-01,-4.495385997872711897e-02,-7.298969206810416999e-02,3.703112187801718691e-01,1.097975015640258789e+00
3.463991755656289362e-01,-5.379716127181594088e-01,-9.868885751188415378e-01,-5.970313494257206699e-02,6.136570527119798724e-02,4.493182917541123089e-01,1.417144536972045898e+00
3.127403284071907374e-01,-5.682078877948189000e-01,-7.676254408265004159e-01,4.804802318141282447e-02,2.931540266311012319e-02,1.615282369376918326e-01,1.038889646530151367e+00
3.596750465991700452e-01,-7.569612026961837215e-01,-7.624152453142876151e-01,-6.102781123222790309e-03,-3.818791680145765428e-03,2.428538613370112998e-03,1.119450569152832031e+00
4.265899810249655921e-01,-6.502249790727783196e-01,-8.446633311598495952e-01,5.150113608058827508e-02,4.152282931562000651e-02,1.739961492145522537e-01,1.229090929031372070e+00
2.376640235122065570e-01,-8.233399756822723514e-01,-7.619955679016600092e-01,2.265986909150315143e-02,7.855249788068842734e-03,3.603353161892629969e-02,1.034420967102050781e+00
4.949544377517772764e-01,-4.884935500221724847e-01,-8.991986832516568606e-01,-6.354840808210636405e-02,-2.419055314329866813e-02,4.431721006952720199e-01,1.463841199874877930e+00
3.213289926211274627e-01,-7.757837284213009443e-01,-7.817396754111612944e-01,-6.073491205162298047e-03,7.444210337687762885e-03,1.297064368174163582e-03,1.100230932235717773e+00
3.386461934628962056e-01,-8.459964197732188218e-01,-6.082316413109305486e-01,-6.454019578767704844e-03,1.007819531432926387e-02,2.871979080017040067e-02,1.086806416511535645e+00
7.907190630754773464e-02,-6.946919185057292001e-01,-8.045765939086911844e-01,-8.883877230479043929e-02,5.450628885218690434e-02,3.366699994918742351e-03,8.534832596778869629e-01
3.680852902951151639e-01,-7.744401537516116818e-01,-7.658754199738370128e-01,-6.457498365116542786e-03,2.731409557011808969e-05,-2.851082848242453283e-03,1.138332962989807129e+00
2.628881025980830954e-01,-6.719774772101257954e-01,-8.580154279220919555e-01,-3.490360751499912983e-02,-1.388546645336739306e-02,-5.109492360282528317e-02,1.046216726303100586e+00
3.648767985419594795e-01,-7.839674554706762555e-01,-7.678567755889871282e-01,-7.249854809496956466e-03,-4.216302810476041212e-03,1.252809353819672690e-03,1.140968799591064453e+00
3.543767020270297552e-01,-8.032581056958429944e-01,-7.079747784619572215e-01,-7.142997604646782184e-03,6.378517320620815702e-03,7.419161096363655408e-03,1.113253831863403320e+00
9.152907359329703896e-02,-7.927481946249375078e-01,-7.588850895726466650e-01,6.273613068435652911e-03,8.087384722513914562e-03,-3.436162135025614263e-04,8.680226206779479980e-01
2.530588744100483733e-01,-7.670765858707567775e-01,-7.619924534220177126e-01,1.234940555115816505e-02,-2.701374107142115368e-03,8.482636838037998584e-04,1.017839550971984863e+00
3.557501689960035351e-01,-7.553715993418355090e-01,-7.567979661127124391e-01,9.973467589816701305e-04,-7.668670667885021421e-03,-9.783426220454408649e-04,1.111917614936828613e+00
2.994548126494112616e-01,-6.730658593117939681e-01,-9.292091429171780437e-01,-8.509463921403814801e-02,1.745883467428604660e-02,-4.082888854011534896e-03,1.132783412933349609e+00
2.599172825541570253e-01,-7.786427718570779755e-01,-8.093412912982769214e-01,3.745309944655183382e-02,-2.679809661891657813e-02,-6.246743120878506944e-02,1.062779784202575684e+00
3.549654860631397124e-01,-8.279575096798346134e-01,-6.844784358573406946e-01,-1.033005946591390202e-02,1.293015368081922023e-02,-2.296678778566148965e-03,1.118483781814575195e+00
3.652723436150075442e-01,-6.371511200326551716e-01,-8.292443152244102222e-01,-2.628807138066851373e-02,-2.102749113119922741e-02,9.089499156327646157e-02,1.123608827590942383e+00
3.622550085844882806e-01,-8.178638166734089054e-01,-4.114429248410249595e-01,3.516694896112662616e-02,3.385128245778844247e-02,3.865950501584359267e-01,1.238445997238159180e+00
3.519362639790765135e-01,-4.349001133489683868e-01,-8.443085213667016475e-01,-6.872063703519426178e-03,-2.034569105273499254e-02,3.676467971327599393e-01,1.231153964996337891e+00
5.263758179723909691e-01,-8.569281817888327879e-01,-6.058372247346086592e-01,1.706944496034654493e-03,-1.071779564091852877e-01,5.122628002942490877e-01,1.565551400184631348e+00
3.498957026272106474e-01,-7.576976600896949687e-01,-7.400615543905411098e-01,-7.108107027301726645e-03,1.018095001269552283e-03,4.016873437051917892e-03,1.098973870277404785e+00
4.590287644268827849e-01,-6.063534314903085143e-01,-8.487518973396833699e-01,-8.299056270840925176e-02,-6.412151728691295460e-02,5.084277863523384289e-01,1.503508090972900391e+00
3.804850848635397687e-01,-8.753951876302041857e-01,-5.705358454549200875e-01,1.082797100175891640e-02,2.439166912875765855e-02,1.533756676086524828e-01,1.166197419166564941e+00
3.748349566481375961e-01,-7.824828581299243524e-01,-7.789500170632710496e-01,-3.162468949373637307e-03,-6.533953359717316377e-04,-1.779995616610578930e-03,1.155573129653930664e+00
3.377838526589866386e-01,-7.576762652347288629e-01,-7.198934818706970162e-01,5.355209454534001247e-03,2.232033737517577845e-03,3.963183346064352158e-02,1.079297900199890137e+00
3.331488612099163249e-01,-7.574540629744468401e-01,-6.923984389541750772e-01,5.537672616349160505e-03,5.498322365095437321e-03,5.641216770720504370e-02,1.064155459403991699e+00
3.694946410615173038e-01,-6.897059229107417311e-01,-7.370313027306553133e-01,5.145434454807445990e-02,6.005610043936744635e-02,1.881993981567152696e-01,1.139865159988403320e+00
3.480579410398778606e-01,-8.556685568522333085e-01,-6.572089310544040330e-01,5.374597531926512961e-02,-1.004810133338490848e-02,1.560318011242930458e-01,1.153888702392578125e+00
4.236820187661128889e-01,-7.669327660894025289e-01,-6.693121192488459270e-01,-2.439719013119715993e-02,-8.071145424035763155e-03,2.797189293862553661e-01,1.244015216827392578e+00
3.287047245650900340e-01,-7.582730040074272537e-01,-7.224489835858526332e-01,1.971101825925976325e-02,2.430693657060622667e-02,3.516831018333768655e-02,1.072619438171386719e+00
3.359724335602971013e-01,-7.406072303278705693e-01,-7.982341985272576323e-01,-8.064438600386678035e-03,-2.032667353135520112e-03,-7.499030954889440151e-04,1.106613636016845703e+00
2.572391444431607610e-01,-6.956430424893675912e-01,-7.665732473953725812e-01,-1.590112981455029523e-02,-1.177249674164646161e-02,6.818069774346094403e-02,9.978595972061157227e-01
2.945250577472642850e-01,-5.902870636542334459e-01,-8.080601520653691860e-01,-2.946214798761772821e-02,-2.901621982181282894e-02,9.908578942567451697e-02,1.028391838073730469e+00
3.327567467817468816e-01,-6.551663302307664249e-01,-8.881433825973416019e-01,-4.034113742625947824e-02,-8.905402518103150422e-03,3.503738238363744012e-02,1.126604080200195312e+00
2.911089727899709989e-01,-5.869434949347861474e-01,-9.497640988087030500e-01,-4.129522890868492918e-02,6.503271838938710914e-02,-4.942349157407561339e-03,1.113134026527404785e+00
3.444576119428143235e-01,-7.067365819489929146e-01,-8.119600288597413895e-01,-1.424444794929509081e-02,-1.979614331374390107e-02,1.945635936523361365e-02,1.108878493309020996e+00
3.251116440135923269e-01,-7.249504399442392444e-01,-8.090541998436613369e-01,-1.186742516338644762e-02,-7.883222879121669358e-02,1.136266536621821782e-01,1.120632410049438477e+00
3.190387129420602097e-01,-6.736250252782735037e-01,-8.079289088919172634e-01,-5.687034692079859233e-02,-4.061624945634221412e-02,8.021713826127113700e-02,1.081985950469970703e+00
2.978199505731648489e-01,-7.515163464778684688e-01,-7.904483345109187820e-01,1.246279309067864841e-02,-9.887760251286988392e-03,9.062618685996379209e-03,1.069804072380065918e+00
3.310931070789017161e-01,-6.838174209569654050e-01,-8.349514641590569664e-01,-1.221161977597878812e-02,4.759805446523656357e-03,2.597202228947635347e-02,1.099459528923034668e+00
4.381189598662743601e-02,-7.561936526850228102e-01,-7.282762464561931548e-01,5.363595838511436148e-03,-6.572203329658524162e-02,8.446840097271325273e-03,7.948035597801208496e-01
2.383276298873378551e-01,-8.114265094399701894e-01,-8.437524111387960657e-01,3.319277971300225311e-02,-7.017932113096897462e-02,1.934977599569177170e-02,1.075252056121826172e+00
-4.012892954492519593e-02,-7.293049588814559669e-01,-7.478267154421205376e-01,4.768424100175461255e-02,1.069185931706150006e-02,-1.620300024033723878e-03,7.037354707717895508e-01
1.650738648874181536e-01,-1.160410371004098273e+00,-4.817916598394859640e-01,-1.253578302364462621e-05,6.251780549895322170e-02,6.111463242354040620e-02,1.157956719398498535e+00
3.753039348440122547e-01,-7.744360802731052873e-01,-7.778958824785848769e-01,1.164555847840002475e-03,-6.391169540932914710e-04,-1.739968506875384270e-03,1.151480078697204590e+00
1.356426765336717910e-01,-8.134866651840675367e-01,-8.173521331368123199e-01,2.595492041791125359e-02,4.288099839535765984e-02,1.138985684414491051e-01,9.751852154731750488e-01
3.975326353879143904e-02,-8.445787372770037216e-01,-4.957695482107681850e-01,2.114079075448612594e-02,4.994911965009352084e-02,1.589769646393342506e-01,8.245570659637451172e-01
7.268985301961072842e-02,-7.979184039232154468e-01,-7.888016425298034484e-01,3.022855863130789744e-02,7.167189676409863042e-02,-3.893582535478609663e-02,8.790930509567260742e-01
2.947249987031508867e-01,-9.102169949113299019e-01,-7.097842904933524544e-01,7.515655330292231318e-02,1.997058157859096100e-02,4.256127352667710140e-02,1.128771543502807617e+00
1.449392491916315362e-01,-7.438838518708816849e-01,-7.384886584094980666e-01,-2.826132319020998283e-03,-1.032373456429238993e-02,-8.717504893767937316e-03,8.864603638648986816e-01
9.398604205084998275e-02,-7.980218860235090972e-01,-7.556482202786947155e-01,3.367508566727646369e-02,-6.001458341622992881e-02,4.465756610909749416e-03,8.797403573989868164e-01
6.096862826031851368e-02,-7.320611108300826286e-01,-7.586286795807366534e-01,-7.708792270254048729e-02,-1.468023799547675534e-02,1.732471187880023702e-02,8.185630440711975098e-01
3.640625669557108757e-01,-7.826260542744929438e-01,-7.639615913847925821e-01,6.679233166291077828e-03,3.415048334100094334e-03,-4.203225429386405984e-04,1.137545704841613770e+00
1.933220179578608588e-01,-7.690288061058174751e-01,-7.825900656592400528e-01,-4.703483855683081999e-02,-3.120141508077497322e-02,6.045003029875917894e-03,9.741769433021545410e-01
2.536407871303830164e-01,-7.916286904504237221e-01,-7.706060838811541469e-01,-3.445265643335530120e-02,-1.258933565682938092e-02,-6.829646387091064044e-03,1.036934137344360352e+00
2.438061596694536259e-01,-7.744582608773890042e-01,-7.531992325010286038e-01,-2.580117286674878455e-02,-2.850395322548283147e-03,2.026626906903781361e-02,1.009415984153747559e+00
2.585788265147927478e-01,-7.644731614795730046e-01,-7.665642110551627031e-01,-4.738993210689160934e-02,2.640761275411031977e-02,1.119736129809343478e-02,1.028583765029907227e+00
3.612309780657708136e-01,-8.715210390514365191e-01,-6.025670571279511112e-01,-7.120525180753068490e-04,-1.556487684980395816e-02,-5.126700957542373871e-02,1.126531600952148438e+00
2.087509752601943713e-01,-7.562652926945150345e-01,-7.705174418431378625e-01,-3.873590661949750241e-02,3.936379414729380966e-02,9.075607531028426211e-02,9.894812107086181641e-01
2.418272821166889130e-01,-8.096587893033144745e-01,-7.472085716429258673e-01,-7.970907467869511528e-03,1.246365007086632989e-02,5.643579897837437687e-02,1.026678681373596191e+00
3.416575255989564019e-01,-7.787977480609500347e-01,-7.816788926456629261e-01,7.459192542242159933e-03,-7.711725666802367665e-03,4.112907061143701928e-03,1.122075080871582031e+00
2.831658230815017885e-01,-7.720011272563260807e-01,-7.962012530089378481e-01,8.697087810855504749e-04,-2.481872081205543923e-02,2.657853706368840108e-02,1.069330453872680664e+00
3.541877644101455447e-01,-7.550126930740912456e-01,-7.921951987045068311e-01,-2.725260970724014374e-03,6.771106079872787680e-04,-7.272970175548518559e-03,1.128332138061523438e+00
3.548174243263477190e-01,-7.807516332496302613e-01,-7.783385245046856582e-01,4.855110568687635332e-03,-4.479523303693153102e-03,2.767158217134713452e-03,1.134432196617126465e+00
1.846820540165191593e-01,-8.402105471208252130e-01,-7.358718890226798592e-01,6.589403597145530866e-02,5.745560124299289861e-02,1.112967449858480277e-02,9.887651801109313965e-01
1.520287956166676557e-01,-8.135927857583842293e-01,-7.299386354496641971e-01,-8.070756419547049643e-02,-1.538056164300628803e-02,-3.194968446078726848e-02,9.391261935234069824e-01
3.261808202214449559e-01,-8.015461921157791547e-01,-6.219777032057725030e-01,2.133582893821648133e-02,-3.569246522412263499e-03,-1.361643054635155448e-01,1.076352596282958984e+00
-7.684889026241814580e-03,-7.206235887989476119e-01,-6.160256220571107555e-01,-5.554478252630963564e-02,1.394180041659936475e-01,-1.946749190527942708e-01,7.911467552185058594e-01
4.406452012670658558e-02,-9.521964999884093839e-01,-7.319032725498669789e-01,1.855746456442831926e-01,-3.441740250764122738e-02,3.097291781944574302e-02,9.650601148605346680e-01
6.430363795776267155e-02,-7.265612111034029930e-01,-7.918681233065798519e-01,7.413417755930215396e-03,-6.753221103366980130e-03,-1.774225215272619977e-02,8.262125849723815918e-01
9.180765107542832038e-02,-7.958447441586129489e-01,-7.357403452771118513e-01,-5.795382505784629074e-02,5.094102160860168593e-02,-3.330680763528300059e-02,8.714220523834228516e-01
3.601213815169486132e-01,-7.552784812470287878e-01,-7.695743424422814005e-01,2.597699147955255441e-03,-6.616694226851071135e-03,-3.121699366456461011e-03,1.122696638107299805e+00
3.764864300392849472e-01,-5.671922539227883808e-01,-9.484142904353666248e-01,-1.258613333960379756e-02,4.699308933482441997e-02,-1.107286959757822348e-01,1.199789047241210938e+00
9.749008830659150471e-02,-8.210895175702050963e-01,-6.881621860571816018e-01,6.873235662862607620e-02,2.687989445119258122e-02,-1.691277050784450141e-03,8.693114519119262695e-01
3.452677881441396646e-01,-7.846429646130741453e-01,-7.738059958120950821e-01,2.325431418768292378e-03,7.896342064750620435e-03,9.766011581846211192e-04,1.124623060226440430e+00
1.331550621761183884e-01,-7.467527989369441288e-01,-7.471181012175298619e-01,-6.359865032157842324e-02,3.133501820630343188e-02,-2.795387936661411499e-03,8.886297941207885742e-01
4.029857127293995922e-01,-5.278031554177267104e-01,-8.378342469018353889e-01,4.468145064902211139e-02,-3.247052847612862808e-02,-3.190535305169553415e-01,1.251238822937011719e+00
5.821160279467992860e-01,-4.541222476409699782e-01,-1.025768726447608969e+00,-8.772499718851337058e-02,1.131282556335525338e-02,-3.052352425305905337e-01,1.515225410461425781e+00
6.178230405523021940e-01,-7.263816780958822772e-01,-8.991071199967446415e-01,-9.685861914165555531e-02,-3.146429366313095721e-02,-5.051759662159847064e-01,1.692814707756042480e+00
7.373006037261248258e-01,-6.882589279526702963e-01,-8.704595533975704180e-01,7.664553132059553908e-02,1.031111652307172694e-01,-4.097357253696138901e-01,1.696562528610229492e+00
4.185122277788825285e-01,-5.596693990693061282e-01,-8.476096474844778683e-01,9.938176574324170121e-02,-2.982340380855875300e-02,-4.114550714750708771e-01,1.364401340484619141e+00
3.487257293530414692e-01,-7.999275480406693450e-01,-7.211847698313975652e-01,-1.120330232980364799e-02,-2.783502617238130944e-02,1.503691142922885908e-02,1.112895250320434570e+00
3.610801381392250708e-01,-8.132549038172358635e-01,-7.373549729503137140e-01,-7.764479564505461385e-04,1.103880262211148766e-02,1.140647108281203290e-03,1.138447642326354980e+00
3.189114488392532643e-01,-5.702554667070132144e-01,-6.839510875344257945e-01,4.584626991273589580e-02,-5.895775816739319553e-02,-3.526405030896730963e-01,1.137733936309814453e+00
3.467517696881252665e-01,-8.461760145012044987e-01,-6.337623035793531479e-01,-5.689712802438221320e-03,-2.759195501059485273e-02,5.378227201554650755e-03,1.103299498558044434e+00
3.893556827369270001e-01,-8.124170127070005076e-01,-7.393377628716532035e-01,5.161582893940350886e-02,1.223584982515247589e-02,1.443055635529122971e-01,1.196949243545532227e+00
3.148518016271221187e-01,-7.246176335421901094e-01,-6.790394364695595542e-01,1.115344061720375396e-02,1.199351031327495522e-02,9.329460631434578766e-02,1.030588865280151367e+00
3.321407595971393456e-01,-7.580294453033133983e-01,-7.338064618053169452e-01,1.903582744893108497e-02,2.777659633333108904e-02,3.811278628941201785e-02,1.081854939460754395e+00
3.657796752024449760e-01,-7.665091023315084851e-01,-7.737101226680901389e-01,6.821418030391754317e-03,1.117228648363804977e-02,1.941320233087100253e-03,1.136137604713439941e+00
3.624809449140624085e-01,-7.801922600100333893e-01,-7.829961745907987325e-01,-4.277937042183789333e-03,-4.450664148982971802e-03,-2.809483729424706172e-03,1.144138097763061523e+00
3.470442984340760262e-01,-7.490420398492989573e-01,-7.442661937086390012e-01,6.785342819398324128e-03,1.038097986014423386e-02,1.409069507572658850e-02,1.094189405441284180e+00
3.595822442717285239e-01,-7.224359396936566036e-01,-7.377454658568538548e-01,1.642802300501612156e-03,-5.252527832955220313e-03,-1.295454230902936543e-01,1.112654447555541992e+00
3.960652749025477259e-01,-6.976492882756699654e-01,-6.843408557848431606e-01,8.593192421332133610e-03,7.272636667430192568e-03,-1.934053539565533109e-01,1.137730240821838379e+00
3.497658298429008328e-01,-7.179138184921015631e-01,-7.263432657511856849e-01,1.562024880212994037e-02,-1.705185362506252350e-03,-1.099085041677967806e-01,1.089032173156738281e+00
3.256351364081944144e-01,-6.220391977456307675e-01,-8.042658946303142820e-01,1.303715156232145055e-03,1.354803298803275609e-02,-9.268790095936486895e-02,1.063162088394165039e+00
1.426257360079885017e-01,-8.419930920840967836e-01,-6.265893232992386652e-01,-1.034474144822436666e-02,5.734872108824037862e-02,1.238184515348985104e-01,9.273419380187988281e-01
3.675425750194429297e-01,-7.722718124524374783e-01,-7.906337911115537409e-01,9.456112115789370521e-04,1.205519128404738965e-04,-6.033372817124004915e-04,1.149107098579406738e+00
3.548677300521886346e-01,-6.260296145464243622e-01,-8.130196529932347538e-01,-2.288570238523947743e-03,-1.423284930390550374e-02,-7.372544507688011395e-02,1.094290971755981445e+00
3.348617191832809481e-01,-6.948843447751953395e-01,-7.321966277701017489e-01,2.570543048252651314e-02,-2.257286770283957467e-02,-9.078475520660421461e-02,1.062274813652038574e+00
3.640489708652994150e-01,-7.742887282854036268e-01,-7.790818478495398214e-01,1.474647933194543278e-04,2.091433893546789692e-03,-1.693329770620094629e-04,1.140747666358947754e+00
2.574252948274232677e-01,-1.006628054127528316e+00,-9.090416985113176640e-01,-8.207221007945292301e-02,-6.513260374340663905e-02,2.340308519422945321e-01,1.296628355979919434e+00
3.703954365388625325e-01,-7.134995011400895315e-01,-7.898250654362770629e-01,1.611552082398946817e-02,-1.323471331117849481e-02,-1.125024819399269710e-01,1.141340374946594238e+00
3.470467435289705249e-01,-5.521236300345327974e-01,-8.246143467067792443e-01,4.843943241573064884e-02,-2.482329517760654969e-02,-1.927741714405078188e-01,1.117205262184143066e+00
4.435717793709016421e-01,-4.975397315956024968e-01,-9.386986756316909597e-01,3.953470850394533165e-02,-3.371973193929414091e-03,-2.596590429773371067e-01,1.304792523384094238e+00
3.319638514954276753e-01,-6.879393273496030581e-01,-8.481164112388388521e-01,-2.190040699794743376e-02,-1.547824408701677210e-04,6.959277520889109447e-03,1.109418153762817383e+00
2.941279906232279195e-01,-4.454042785016937289e-01,-1.005007307938148742e+00,-4.398396392432559615e-02,-6.046006676977900424e-02,-1.295695519256668399e-02,1.136301755905151367e+00
3.376339806617141837e-01,-7.192936218697835171e-01,-7.576820893426798875e-01,3.507516445740572184e-04,-1.584164077974583792e-02,3.736057774871521641e-03,1.077004432678222656e+00
3.182796308268201479e-01,-7.522233370071402803e-01,-7.877328762073378954e-01,8.232083948529539050e-03,-4.513267924980828537e-03,3.032296476638125533e-03,1.088826298713684082e+00
3.187049865082333677e-01,-7.483935457269783598e-01,-8.884046834192916853e-01,6.039340717730911495e-02,-1.243691572068528076e-03,4.925202807109499946e-03,1.148358702659606934e+00
2.157535124003027160e-01,-3.594955378546781932e-01,-9.789044291356067129e-01,-3.975851716199127472e-02,-5.131021754887100939e-02,9.357891003685012143e-02,1.053472638130187988e+00
3.199171088666097340e-01,-6.898798227695729368e-01,-8.053896918776338731e-01,-2.501380806946010282e-02,-1.417554451761775247e-02,1.712748738003825114e-02,1.073794126510620117e+00
5.048035315465289052e-01,-7.611251970867395356e-01,-8.155939654060979649e-01,-5.177908701383896611e-02,4.194075191518989443e-02,-2.692674762865350235e-01,1.380337357521057129e+00
3.306900389689214625e-01,-7.763428836853989434e-01,-7.783361744109646985e-01,4.972480679768873611e-03,-1.797536347354601811e-04,3.496327668056520722e-03,1.108080983161926270e+00
3.547172616384720034e-01,-8.492792694177462298e-01,-5.700165391919549407e-01,-2.647778703267616301e-02,2.843690478315043582e-02,-1.990098327809401990e-01,1.146607160568237305e+00
3.120797129676123882e-01,-7.836287031302830997e-01,-6.260265638496103069e-01,5.554930800412827621e-03,1.555231524174083713e-03,1.735469333296444858e-02,1.026514887809753418e+00
3.516135230140248202e-01,-7.931302740520939087e-01,-7.430649483988520654e-01,-1.835114684583819683e-02,7.050924612598871016e-03,-1.495357375259916306e-02,1.121366620063781738e+00
3.603488224089149150e-01,-8.485184745099293435e-01,-6.662190544808859194e-01,-1.339353973981684612e-02,3.304218204268129146e-03,-1.034030538228032127e-02,1.129207253456115723e+00
3.436118709228330736e-01,-8.012865301375452498e-01,-7.704788907645606644e-01,5.923272759892324671e-04,-3.669390073130978942e-03,3.061886123663832421e-03,1.129840493202209473e+00
3.522799802733933006e-01,-7.058042218017659408e-01,-7.862134143869343728e-01,-6.346375012041191588e-02,1.002040717480792188e-02,-7.652975373205082865e-02,1.114020705223083496e+00
4.014660063996575157e-01,-6.109518781277480937e-01,-8.149275461450593561e-01,5.299379132726486641e-02,5.392220056618214977e-03,-1.514343080833087662e-01,1.162073135375976562e+00
1.139013567336244481e-02,-7.250811708028489511e-01,-7.111889176490613362e-01,1.927570389773534260e-02,1.903879236522969254e-02,-1.206268718985527115e-02,7.314303517341613770e-01
2.814414428283237291e-01,-7.662697643185067964e-01,-7.705115616236570819e-01,5.554097771525432110e-03,-1.007155533341951015e-02,4.907454015643109534e-03,1.050061941146850586e+00
3.614237860666954516e-01,-7.821570605891738914e-01,-7.815026047246251828e-01,2.839875999548324269e-03,-4.693087441580921435e-03,2.783197359929887819e-03,1.143303394317626953e+00
3.622492636506675079e-01,-6.438560832318289684e-01,-8.282994847866603783e-01,-1.247930492373038568e-02,1.436177279351199924e-02,-7.045767295324813217e-02,1.117056727409362793e+00
3.432220305140475380e-01,-7.966585750577865888e-01,-6.678026628647060203e-01,-1.173554431272225834e-02,6.642946409338493924e-03,-6.383505755009716287e-02,1.087116122245788574e+00
1.548814304213324555e-01,-7.306152617868297838e-01,-7.421198941891942180e-01,2.115182460974949358e-03,-6.427846277401073546e-03,4.055615486763456193e-03,8.914094567298889160e-01
3.378301880520893641e-01,-6.500827229536064733e-01,-8.101079330256666378e-01,-4.350408874908618523e-02,4.842244539048162072e-02,-1.092688800930344400e-01,1.099182486534118652e+00
3.460574126731303379e-01,-7.600324140715544186e-01,-7.369150661592224205e-01,-8.295150918855206598e-03,2.929626648208841048e-03,-2.853121496306417620e-02,1.095934987068176270e+00
3.489714090219572795e-01,-7.140757894672851158e-01,-7.852340958252219671e-01,-3.301109773216617110e-02,1.397841504938240019e-02,-9.963874833527354424e-02,1.115534186363220215e+00
3.528192641341540425e-01,-7.223304881195402594e-01,-7.870460396370180245e-01,-5.082233253612678837e-03,-1.197513161277691598e-02,-6.691637525725523290e-03,1.109214186668395996e+00
3.407655615268130322e-01,-7.787430339409178170e-01,-7.792559007109619573e-01,7.450638098078493990e-03,-7.749532791987774789e-03,5.530679306863897290e-03,1.119960904121398926e+00
3.310466947674297611e-01,-7.700722033959658264e-01,-6.933214759802809324e-01,5.208426074353972313e-02,3.167611344501313625e-02,5.875892278739051205e-02,1.074871182441711426e+00
3.621851974325517864e-01,-8.419715986784483963e-01,-6.905159662239366281e-01,-9.986550478757830543e-03,1.263515737394453782e-02,8.820952207687447061e-03,1.136471629142761230e+00
3.114697551373427076e-01,-7.104681927604612479e-01,-7.039193347441885518e-01,-5.735077860381002438e-03,-8.406424572739913670e-03,1.948349962223077866e-02,1.019390463829040527e+00
3.187017563016832367e-01,-8.052821201511293214e-01,-5.685905275577084472e-01,-7.931797111321879645e-03,-7.332711027054017450e-03,1.123340482416493730e-01,1.044764041900634766e+00
2.971957628597244883e-01,-7.720602934406981532e-01,-7.710251704097506043e-01,9.664034846664271844e-03,-7.286212579518096082e-03,4.158810205491149034e-03,1.068968653678894043e+00
2.811065487319290290e-01,-7.668726199232971386e-01,-7.689538754377986951e-01,5.751542144126695934e-03,-1.069064059922145669e-02,5.461541113000600509e-03,1.049274682998657227e+00
3.164208400227019324e-01,-7.394316692649799405e-01,-6.885488667425823106e-01,-4.915244047959234711e-03,-1.085456193169715214e-02,1.218751135217572071e-02,1.031775355339050293e+00
3.180080561769684788e-01,-7.069998539488293599e-01,-7.230484159588124182e-01,4.164849395162819115e-03,9.335025680507711213e-03,3.962804862774775561e-02,1.035554528236389160e+00
3.450127416132754976e-01,-7.231056413145016126e-01,-7.640127113468417885e-01,2.805989914757805320e-02,2.966569174076398932e-02,4.385759356694516470e-02,1.094082474708557129e+00
2.588668457624162533e-01,-7.591448261022426536e-01,-7.662352382059123279e-01,-2.192823127955399309e-03,-6.927068541697362081e-03,2.309521242243665375e-03,1.021660685539245605e+00
3.606177588179589333e-01,-6.957817536103707567e-01,-7.703413208970762982e-01,2.990449050450270235e-02,1.411785635788533923e-02,1.093627234101803847e-01,1.113312721252441406e+00
3.105715461919564824e-01,-7.126213689180873612e-01,-6.979138237617589224e-01,-1.008098678201614683e-03,-3.423152794730073469e-03,3.441123960115257535e-02,1.017684578895568848e+00
3.123240532372270062e-01,-7.591495064047657504e-01,-6.558300743221165963e-01,-1.197521237641655661e-02,9.538950487928058233e-03,3.150364205773158177e-02,1.025527715682983398e+00
3.689983536975043332e-01,-7.699319232592651829e-01,-7.774165356554457729e-01,-6.056928936903202207e-03,-6.918248054999123417e-03,1.874098097980732725e-03,1.142806529998779297e+00
2.831467457741412286e-01,-7.652713984032222250e-01,-7.680448488652842354e-01,-6.504931886860076083e-03,-1.191028769805595536e-02,-3.486724689675002077e-03,1.050088047981262207e+00
3.188111980352014707e-01,-7.107098805746271397e-01,-7.277408482883940266e-01,-3.982547455721225857e-03,-1.519473478646667791e-02,2.909636207964140520e-02,1.039719939231872559e+00
3.749355626385612039e-01,-7.715112455130994640e-01,-8.241103483110214789e-01,-2.816117960993845884e-02,-6.675654699167690373e-03,2.851923350599234325e-02,1.175738930702209473e+00
3.520749017861121155e-01,-7.574693793817304233e-01,-7.747287370961928321e-01,-5.046779254459956079e-03,-6.024118434725832770e-03,8.990730722152505058e-03,1.118465065956115723e+00
4.722071218450585306e-03,-7.522841850625168192e-01,-6.984035421369537699e-01,9.075589926860833101e-03,1.053982814257900524e-02,-6.063870309794916567e-04,7.319529056549072266e-01
7.331907801757736598e-02,-7.272919949058984646e-01,-7.166490331214125931e-01,1.702458360687865782e-02,-5.173035447033322992e-03,3.517861615537350422e-03,7.959631681442260742e-01
5.330270753544869011e-02,-7.435296007099874149e-01,-7.581447172801079049e-01,1.028924790164589126e-02,-8.078194483383557920e-04,4.525488210871009970e-02,8.082479238510131836e-01
1.076213016076177365e-01,-7.337567127353050722e-01,-7.245463230923934184e-01,-1.318539831473946634e-02,-1.267903562887280969e-02,2.288769550425226950e-04,8.374105095863342285e-01
1.151096366651943592e-01,-7.378648787327466430e-01,-7.383688140077657724e-01,1.010552458001458438e-02,1.558849403458325601e-02,-3.171398675992997225e-04,8.538333177566528320e-01
3.576944005990829734e-01,-7.103413633941575434e-01,-8.255627318419577199e-01,-1.487300423862093074e-02,2.044880213457725675e-03,6.083114029054152456e-04,1.130360245704650879e+00
3.431003923409349787e-01,-7.811924916711807665e-01,-7.800251901256871623e-01,-4.984218396833390262e-03,-6.529705179913052569e-03,-6.514904321829224909e-03,1.123856425285339355e+00
1.841799586813663847e-01,-7.535307395876102987e-01,-7.570454742500072332e-01,-1.413439658679516327e-02,3.284780484918205928e-02,2.373179266229877987e-03,9.415214657783508301e-01
1.265193133952063897e-01,-7.374235868891279022e-01,-7.377421677713438264e-01,-2.311392418899487801e-03,1.820242654741298372e-02,-2.253465206004293120e-03,8.646952509880065918e-01
1.351719936700526148e-01,-7.370626491447165307e-01,-7.429102004851645402e-01,-6.177083529734813186e-03,1.266166508284446643e-02,1.529624544929607559e-03,8.755171895027160645e-01
3.359841623044516057e-01,-7.781420462995966014e-01,-7.778286099041651358e-01,-7.496060533460228818e-03,8.052604058516833405e-03,5.917958665452343475e-03,1.114179611206054688e+00
9.410416562065504475e-02,-7.315817504307963182e-01,-7.185287873075416609e-01,-7.395969211188626984e-03,2.469951814673144661e-03,1.796181227463661831e-03,8.193546533584594727e-01
4.210258212494499830e-02,-7.393848780346836680e-01,-7.950516359437411751e-01,9.024470986410747936e-03,-1.631334800690406941e-02,-1.625865294011417852e-03,8.114030957221984863e-01
3.361957864278699026e-01,-7.973864576702673901e-01,-7.446560379676822050e-01,1.434351987484861401e-03,-1.005540606307048918e-03,4.510423031593784396e-03,1.108190059661865234e+00
3.383795575247272591e-01,-7.852554731596791404e-01,-7.755828251100439497e-01,1.931914069398617262e-02,5.564865693100874006e-03,1.801127774712960473e-03,1.119376182556152344e+00
2.828473747981553599e-01,-7.716919972146425444e-01,-7.814070271222236519e-01,1.884246217557856507e-03,-5.400068810198925366e-03,1.104932567819670933e-02,1.059649467468261719e+00
2.606490177940821718e-01,-7.273041864185345595e-01,-7.699784309402407656e-01,-3.521028998713705838e-02,-8.774502040010518332e-04,2.740561258864747645e-03,1.011818647384643555e+00
3.695961426048318677e-01,-7.685011046801917267e-01,-7.784372345924508441e-01,-2.354340902321755847e-03,-8.158658066183911706e-03,2.240578861431902821e-03,1.143198847770690918e+00
2.566138771131734053e-01,-7.603354565561681877e-01,-7.705704985428422082e-01,-9.302482679899219328e-03,3.897727656841974610e-03,-1.197768351590516520e-02,1.022465109825134277e+00
3.535999357279971944e-01,-7.925902703154558138e-01,-7.795126764724131796e-01,6.671696491461393680e-03,6.792163056996549340e-03,-4.143353922928482563e-03,1.139849543571472168e+00
2.924037544383275011e-01,-8.933753860313969897e-01,-6.565299347850143130e-01,-2.270758058872916416e-03,-1.396898065786197907e-02,-2.718376213947426567e-02,1.088181614875793457e+00
3.408961314204630999e-01,-7.629946657585493508e-01,-8.064083559946879642e-01,-2.278879925210597346e-02,-1.100362729552245566e-02,2.569142192279490894e-02,1.127956151962280273e+00
3.305058597849935276e-01,-7.619336254165145483e-01,-7.323301451707942000e-01,-1.682042132978017399e-02,-1.430050117191620368e-02,3.670661589350793924e-02,1.080492854118347168e+00
3.602483448691720103e-01,-7.669504897344887606e-01,-7.838878284524544160e-01,-2.512310127757512099e-02,-4.999933130384093087e-03,3.822861451959617962e-02,1.138555526733398438e+00
3.703880263499841896e-01,-8.556856713722624797e-01,-6.819598995420895760e-01,-2.478252467289596139e-02,2.017937159154101212e-02,4.048765206826946544e-02,1.152570486068725586e+00
3.588271817790317231e-01,-7.759968067140717851e-01,-7.847698528233504334e-01,1.931154139408638309e-03,3.352056225188373550e-03,-5.091590795952505516e-04,1.139255881309509277e+00
3.662663147823422283e-01,-7.640821183490942303e-01,-7.495020098747280368e-01,-2.279264979943136302e-02,-2.699714947668548082e-02,5.360778090104517668e-02,1.128621220588684082e+00
7.675944716311478011e-01,-9.147565804343545937e-01,-7.451625937502848185e-01,-2.714846137748714791e-02,-1.016053851377275580e-01,5.852245111561714674e-01,1.906409144401550293e+00
3.671430428484332986e-01,-7.212558968417220884e-01,-8.087623519863917920e-01,1.534633954881206097e-03,-3.025467203054444873e-02,8.860155309997687356e-02,1.146217823028564453e+00
3.461986695024881211e-01,-7.784277202110999605e-01,-7.818390561860627530e-01,7.216512910522126026e-03,-3.782871826552492833e-03,3.482555759506026673e-03,1.126440525054931641e+00
3.393725245978398419e-01,-9.044344348815489543e-01,-5.369446107058253315e-01,-3.075495596691378303e-03,-8.696313477513470391e-03,-1.106264542103527898e-02,1.107086539268493652e+00
2.861815767088095042e-01,-7.712127145306805209e-01,-7.689456410564012856e-01,-8.692482888026646648e-03,1.053393864145644142e-02,-7.751022169878949439e-04,1.056528329849243164e+00
1.573588921714315081e-01,-7.392502254281869689e-01,-7.409710377728380148e-01,9.892021242700112802e-05,-6.356182185701352884e-03,-4.414722561728254020e-04,8.975386023521423340e-01
3.435576892058868070e-01,-9.125068316016127223e-01,-4.780532449290335051e-01,-7.821195865734426392e-03,-1.847836166911130326e-02,4.026465468079690885e-02,1.107618093490600586e+00
3.314729878116660644e-01,-8.721828518933927299e-01,-5.586996581448681054e-01,9.030819293761189678e-03,2.772731461739703571e-02,5.303527236243311960e-03,1.082759737968444824e+00
3.508429530901838178e-01,-6.865253311804543346e-01,-8.177562077991515910e-01,-1.310292334037302733e-02,-2.355366791197499240e-03,4.247934440542736056e-03,1.109087467193603516e+00
3.315134684774167506e-01,-8.853410455298669213e-01,-5.493877934217838988e-01,8.557470663785392284e-03,-8.809960106539607358e-03,3.615709354596056968e-02,1.090489745140075684e+00
3.471334336728592040e-01,-9.098540318366017399e-01,-5.232110595070434966e-01,-1.409573716745666193e-03,1.402208074462223814e-02,2.689241320865694285e-02,1.116364836692810059e+00
3.396151098081337527e-01,-7.853192574284152405e-01,-7.143014363825389568e-01,1.700719410550006680e-02,-2.119448619041662887e-02,-1.789863646468082062e-02,1.092614769935607910e+00
2.484088525210259579e-01,-7.631218101096681750e-01,-7.601187904479379531e-01,7.726454292112378344e-03,-9.099245050744123042e-03,5.385061009592153475e-03,1.010287165641784668e+00
7.799948806859096084e-01,-4.215086029184823002e-01,-1.261141835064689687e+00,-2.840208153051639040e-02,-8.318241554039351379e-03,-3.750072962144113120e-01,1.892600297927856445e+00
3.604389247330132551e-01,-8.373419661116531243e-01,-7.164749896416886532e-01,1.913735576574318933e-02,-2.154990009018164978e-03,-4.978689941201591695e-02,1.145890355110168457e+00
2.967358338802029705e-01,-7.735683372723238804e-01,-7.719092570367598327e-01,-7.746069837637641065e-03,-1.558864940160570789e-03,4.575675925785060993e-03,1.069592475891113281e+00
3.173392191930613504e-01,-7.201946873135696148e-01,-7.171101896943687937e-01,4.037594640876791016e-04,-2.152272969440264389e-03,2.606007841561180233e-02,1.036984920501708984e+00
2.945287462243691423e-01,-7.739436999931859074e-01,-7.718706563063134629e-01,-1.239368751564113268e-02,-4.003573036670507630e-03,-4.320841562683794268e-03,1.067702054977416992e+00
2.659551337319112085e-01,-7.787868999233993339e-01,-7.699024356015404802e-01,1.677604449511580376e-03,1.976033373992096276e-03,5.849820236569206432e-03,1.040387272834777832e+00
1.637397966710985031e-01,-7.421183668162335545e-01,-8.024988252555615986e-01,1.020184067189461828e-03,-5.667617152954119650e-03,-2.269018296047881338e-03,9.375691413879394531e-01
1.769119206710567660e-01,-7.381636930398338681e-01,-7.457089152042959412e-01,-4.551430448510603195e-03,-6.871797345254834939e-03,-2.028563819742291996e-03,9.189890623092651367e-01
3.685064681874692938e-01,-8.285232526680244014e-01,-7.691363530422756778e-01,-6.535236556122688521e-03,3.818386690927398630e-03,-1.878108601291048063e-02,1.168994903564453125e+00
9.444995825260749100e-02,-7.210152684914969967e-01,-7.201522232926417244e-01,-5.960346512893207119e-03,-3.126188069454881747e-03,-1.045229649706516184e-03,8.151194453239440918e-01
3.701280348573539603e-01,-6.169841716008552801e-01,-7.801960198691475501e-01,7.673476541733778751e-03,3.558865523652403329e-02,1.607012033395973372e-01,1.115162730216979980e+00
2.700142803572832539e-01,-7.693243597107188858e-01,-7.484799673282958032e-01,2.987962444338962582e-03,3.066180893299147101e-02,-4.868031010358642857e-03,1.030491709709167480e+00
2.384554288495702168e-01,-8.169124427586533788e-01,-7.532627996092199352e-01,-3.379362146441664688e-02,5.531398985442787658e-02,-3.882403135103888042e-02,1.033346891403198242e+00
3.276647641031446567e-01,-7.607580776664881750e-01,-7.049121207505589792e-01,2.116112281468000150e-02,6.892846150941395189e-02,1.176573593665023176e-01,1.088175296783447266e+00
-1.238328370664204536e-01,-7.307962837338533024e-01,-7.185562296448315678e-01,-4.516729036042122121e-03,-3.540411011045347528e-02,5.376779734054313795e-03,6.041799783706665039e-01
3.561961050332676515e-01,-7.509732908106163674e-01,-7.624423935348829673e-01,2.384460414724946418e-05,-9.129154930887740590e-03,-2.382910361238624726e-05,1.113060593605041504e+00
3.627500487710082488e-01,-7.540865504211158310e-01,-7.858370024830161338e-01,2.398358079627834448e-03,-9.351819276099852113e-03,1.027230500436592409e-03,1.133170247077941895e+00
3.344189599388907586e-01,-7.748006474151861722e-01,-7.820188483843930616e-01,-4.950978393881573167e-03,-2.006444179529324589e-03,-2.286131720503487008e-03,1.112891793251037598e+00
3.329847467228302937e-01,-7.907987619595224782e-01,-7.322808819955803905e-01,-5.313666137521218941e-02,-9.407916434174105197e-03,7.791533552822726971e-02,1.107926368713378906e+00
2.124542374203551298e-01,-7.747736753912957131e-01,-6.840903943870750847e-01,-2.405528584764660138e-02,-3.329565878377083871e-02,8.150131080077196999e-02,9.582831263542175293e-01
3.484510524206027027e-01,-7.767839026635957600e-01,-7.831210022213709321e-01,-6.300852380046750162e-03,-5.057892712567501996e-03,-2.515501292310605257e-03,1.128512024879455566e+00
3.307110760812637107e-01,-7.781843621441275616e-01,-7.510851865658940696e-01,8.375781159696962797e-03,-8.150543379999951321e-03,6.750266761712292625e-03,1.095846652984619141e+00
3.306670340352761417e-01,-7.718941721773766584e-01,-7.792222084891246014e-01,7.789707681058135984e-03,1.189555319566473236e-02,5.290268889719184492e-03,1.106555461883544922e+00
3.565122769420362436e-01,-7.529617087162934208e-01,-7.613388819279618414e-01,8.402585452810072816e-04,-7.368797448654912548e-03,-1.997264937635975270e-03,1.113765716552734375e+00
3.395376978216304575e-01,-7.397900412969554695e-01,-7.906505276057805842e-01,-1.133656688748209754e-03,8.749799526575610317e-03,4.275408296393230084e-02,1.108218193054199219e+00
3.674968733033760482e-01,-7.692574548194615058e-01,-7.824844579728751359e-01,1.443212371365302366e-04,-6.827717788742835442e-03,6.324252301556546052e-03,1.143538832664489746e+00
3.633278386821362504e-01,-7.762560500938318064e-01,-7.758680530696997479e-01,7.223352295584209611e-03,-1.166120975294945806e-03,-1.525511331852166363e-04,1.139460444450378418e+00
3.483166677673603662e-01,-8.094095419791935697e-01,-7.422075466668165422e-01,3.136996061699568166e-03,-2.403727687508918753e-03,6.829519019765179985e-03,1.125713706016540527e+00
3.257622111296412659e-01,-7.792312813108059899e-01,-7.611518323648207573e-01,1.714690149973455147e-02,7.483422206552033280e-03,2.752996214193457851e-03,1.096554875373840332e+00
3.609798740106511805e-01,-8.283252589924858800e-01,-7.597959167923313828e-01,8.150319551113805253e-03,-1.106185380466637863e-02,3.564533341658031318e-02,1.158455371856689453e+00
3.644862109729277155e-01,-7.678256634872384634e-01,-7.723952834271405887e-01,8.850454076451234886e-03,9.672876717105739763e-03,6.099565352888984895e-03,1.134879946708679199e+00
3.454034855213833355e-01,-7.725581176254410209e-01,-7.780224111673039733e-01,-1.235985077466094728e-03,-1.153307377851284753e-02,-1.928547814586498588e-03,1.120888829231262207e+00
3.613294420899807458e-01,-7.933279406359401431e-01,-7.560214034613081946e-01,5.869688874946642557e-03,-5.356877993530448356e-03,5.912546099963969688e-03,1.136592984199523926e+00
4.586314057680935252e-01,-1.022654439890210654e+00,-5.205306186046460004e-01,6.133468560325575775e-02,5.934889177493430507e-02,1.101541027346912699e-01,1.326951980590820312e+00
3.820449347438308330e-01,-9.399225472456521624e-01,-4.957023453904416677e-01,9.071826073644848748e-03,-1.182730227227885011e-02,2.646078023258651227e-02,1.166384220123291016e+00
1.608928888294343662e-01,-9.640154014320869713e-01,-2.924488474206881072e-01,9.973738691872792786e-03,-1.630079266818108830e-02,7.857597876771382772e-02,9.902462363243103027e-01
3.949348168507734735e-01,-1.100506010000158463e+00,-1.716859364564408685e-01,1.414319009033251223e-02,-4.430861041781510717e-02,9.383629536358956483e-03,1.310270428657531738e+00
3.484987752088117841e-01,-9.595593376438694699e-01,-4.841602348624893248e-01,7.201791412816658817e-04,2.741284973789018253e-02,-5.826816731040632830e-02,1.152220487594604492e+00
4.219896638615872053e-01,-1.026755887234107600e+00,-4.793863294243922990e-01,2.953703040124180945e-02,-2.097088346723359475e-02,-2.848544733748766683e-02,1.269586086273193359e+00
3.619117770894665354e-01,-6.971693042751594405e-01,-8.306421867070681309e-01,2.668587100301858875e-02,-6.508088941234124042e-03,-1.240103376121381301e-02,1.132939219474792480e+00
3.698538460024142216e-01,-6.759745513352846125e-01,-8.423257046151453320e-01,6.739995261991357789e-02,-3.101282595287641053e-02,-9.356390492236638101e-02,1.156797647476196289e+00
3.069885330948486368e-01,-5.604999707002479292e-01,-8.433825237954988285e-01,6.563531761302310308e-02,-1.189199204735100560e-02,-5.759683429894537493e-02,1.049407720565795898e+00
3.969314259286127466e-02,-7.130770619498764118e-01,-7.383382521675224686e-01,1.824330826332188835e-02,4.439075525167771735e-02,2.633273356566306856e-04,7.702124714851379395e-01
2.366220619166059524e-02,-8.199044061461713273e-01,-9.732096085613649583e-01,6.519155853345529050e-02,5.307319849394181999e-02,9.019190640850589802e-02,9.539570808410644531e-01
2.687021807543324980e-01,-7.652222176325671477e-01,-7.631669514959267264e-01,9.325244335754302727e-03,3.442330039356394835e-03,-4.230844600970020374e-03,1.033067822456359863e+00
4.296935618465613782e-02,-1.137360266887847526e+00,-6.672122460782348163e-01,-7.550788917565531833e-02,-8.147721311377296993e-02,-8.732933242223760162e-02,1.057916164398193359e+00
-1.037144384355303539e-01,-8.014284598132933590e-01,-6.608029989923429603e-01,1.226197768604457838e-01,-1.918115975888615328e-03,-5.842389679304561129e-02,6.810447573661804199e-01
5.912630863171930429e-02,-8.395409315680787410e-01,-6.479973783642407614e-01,-7.281507466422105362e-03,-1.202863287035298295e-01,-8.111731105029289235e-02,8.575915694236755371e-01
2.707348374968709392e-01,-7.655053345892597338e-01,-7.656408446805453849e-01,1.125838265210679125e-02,-3.063876858301923991e-03,2.397388281028340652e-03,1.036513328552246094e+00
3.367314696523389106e-01,-7.769672530131052079e-01,-7.818934483631406751e-01,6.686963444013559188e-03,2.686659335717791770e-03,-2.741883817676587978e-03,1.116249918937683105e+00
2.506086122724691112e-01,-8.520561253990933670e-01,-7.239977642862225338e-01,6.691937501253419907e-02,8.580037803589206369e-02,7.537755019005828745e-05,1.061406016349792480e+00
2.839877022047940791e-01,-7.414561867877396129e-01,-8.009677930852431293e-01,9.692212371093911205e-03,5.873909006335417508e-03,2.805566480785744859e-02,1.057756781578063965e+00
1.823236873685837311e-01,-8.602318446866445978e-01,-7.873856927075240097e-01,8.157296462801169601e-02,-2.551807758121905564e-02,-9.840430050900259018e-02,1.033077239990234375e+00
1.293791575241685088e-01,-8.484089647612536034e-01,-6.731397517060413449e-01,6.650173408632777117e-02,-5.991328845045065798e-02,-4.564685795224246445e-02,9.196194410324096680e-01
3.482277777438150812e-01,-7.797330128166767294e-01,-7.819653339474296194e-01,3.284086278519488152e-03,4.013542112801746393e-03,-3.911326569390604670e-03,1.129134654998779297e+00
1.988588282810386243e-01,-7.515408630849519378e-01,-7.467835728637461923e-01,8.541774822776836487e-03,-2.827578681970184180e-03,1.328807501939454835e-03,9.481608867645263672e-01
5.952672927060540520e-01,-6.447001910394507540e-01,-8.460741349481798457e-01,1.133147039083398644e-02,-9.535180717886364288e-02,-4.303036890364419498e-01,1.552711486816406250e+00
3.759164913994338386e-01,-4.977614802993020615e-01,-7.978243064334042955e-01,1.790255417107219568e-02,-2.512694762371361565e-02,-3.572209646854312970e-01,1.225228667259216309e+00
3.538790523252256515e-01,-7.230392263156919519e-01,-7.840296039217800050e-01,-4.913515539445063515e-03,-1.523514392434683826e-02,-6.923627329550752912e-03,1.109083890914916992e+00
6.092319628246667396e-01,-3.089345875528946017e-01,-1.376982505125865286e+00,-5.160050422200709863e-02,-5.979878066355548416e-02,9.280003421779929595e-02,1.734633445739746094e+00
3.793063479792143644e-01,-6.152273924793786319e-01,-8.772716308639592064e-01,7.168301323819292747e-02,-2.777400531234691661e-02,-2.245296810182697417e-02,1.156554460525512695e+00
2.933385743397913803e-01,-7.735727647937353790e-01,-7.647186784560389139e-01,1.426352676065585114e-02,-1.422545994664461792e-02,9.359462655693324973e-03,1.063208341598510742e+00
4.034661350781912348e-01,-5.675668582402697560e-01,-9.204460524180080316e-01,6.605342391041181538e-02,-4.976735208886609585e-02,-1.134972656408009956e-01,1.212126493453979492e+00
4.193265929680381476e-01,-6.120010188321794997e-01,-8.039291387498300745e-01,-5.998302920084910665e-03,-1.863132714123839559e-02,-1.868102622997019346e-01,1.185013651847839355e+00
3.629728474273415384e-01,-5.553768295713054082e-01,-8.489262761136764368e-01,3.658168950369002081e-02,-2.969062920689399462e-02,-1.181150484659556493e-01,1.116974115371704102e+00
6.976883209692263943e-01,-4.433628709384478395e-01,-1.034358910826335576e+00,-2.848468319051403186e-02,-5.641740435845282037e-02,-3.451938583581601883e-01,1.641672968864440918e+00
1.719113909559312203e-01,-7.828325722296800571e-01,-6.971484552181163030e-01,-1.100564874413249503e-02,4.339290131711379811e-02,7.312756868034175038e-03,9.182832241058349609e-01
3.402108648159025139e-01,-8.274839894335812573e-01,-6.908887043575888676e-01,-1.165944154363240601e-02,-4.131007559504978194e-02,-7.973020246794510976e-03,1.108325839042663574e+00
6.897119708027316110e-02,-7.147431322473538629e-01,-7.183584137287564175e-01,4.508407015709190216e-04,-2.171032334427570962e-03,-2.010552271457946485e-03,7.855452895164489746e-01
2.935645941798697978e-01,-8.001982599409931396e-01,-7.537840653760151666e-01,-1.357993333666475053e-02,3.603997410071010238e-02,8.711054425900666490e-03,1.073490977287292480e+00
3.548277414871312541e-01,-8.036317307317843994e-01,-7.473036828137336052e-01,1.562194466433804510e-02,-1.429211624889230835e-02,-7.219397793609362915e-03,1.132010936737060547e+00
-2.400316988026152121e-02,-5.418703260216047868e-01,-1.079332954304845771e+00,1.429492840579677827e-02,-4.164615061080494118e-02,1.723572767127335703e-01,9.645330905914306641e-01
3.466654879066086159e-01,-8.393331616572604625e-01,-6.422025585584311136e-01,-7.356526944418661715e-03,3.099914370128402374e-02,-2.083016427152701439e-02,1.102725505828857422e+00
3.736336048844284274e-01,-7.969329793933875861e-01,-7.831616123838176513e-01,2.939241551031518147e-03,2.964160296970580477e-03,-8.330019421092435799e-04,1.163765311241149902e+00
1.033235221523312042e-01,-7.258154481510912248e-01,-7.181313332210462752e-01,-1.874998536005668785e-03,1.784229512937595200e-03,1.287778228564493777e-03,8.253389596939086914e-01
3.007596370469658442e-01,-8.419243452761410174e-01,-7.241674551695367335e-01,1.276721568862112730e-02,-2.728055254796536364e-02,-3.669608618375547193e-02,1.091694116592407227e+00
3.191663617945236786e-01,-7.845273721740735340e-01,-7.443057838101609924e-01,-1.603198802949568286e-03,-5.646284247246298633e-03,3.507767873746161103e-03,1.084207296371459961e+00
2.241637343776661795e-01,-7.575546044397600820e-01,-7.530663466148735941e-01,-4.213458284944380378e-03,6.251749005352686198e-03,6.046481668358718448e-03,9.796249270439147949e-01
3.070984102535920801e-01,-7.916355155121177489e-01,-7.317037109085020585e-01,-6.705562193393767995e-03,-9.681642448779243654e-03,-8.464696042901896297e-03,1.070322394371032715e+00
2.775045234104852598e-01,-7.863591750852736428e-01,-7.465370303352852899e-01,-2.827210143689938213e-02,5.377675395362794750e-03,-2.982856840605060955e-02,1.046986341476440430e+00
3.699769112021858430e-01,-8.651462495487030058e-01,-6.808143866583635795e-01,-9.786363489375103988e-03,-2.056618701297295571e-02,-1.332505883518809477e-02,1.154956221580505371e+00
2.518239642006884216e-01,-7.624803206520112120e-01,-7.611917982487560463e-01,-1.055086115357379076e-02,-1.525913187884034338e-04,1.524145666397860692e-03,1.013828873634338379e+00
3.611353352200564193e-01,-7.748732411044707558e-01,-7.896942742823758188e-01,-4.226008520671674026e-03,-3.629119468828082354e-03,-1.257374877563560136e-03,1.143533945083618164e+00
4.903281621909271193e-01,-8.621111669825871626e-01,-8.662095777886792414e-01,-3.274663670682635697e-02,-5.153567986770068998e-02,4.041799760640021333e-01,1.528372049331665039e+00
3.580256326462840089e-01,-7.774736510907853670e-01,-7.851398324975525922e-01,-3.526381810187270011e-03,3.536501805106346229e-03,1.728597600081553741e-04,1.139384627342224121e+00
3.243317843412961698e-01,-7.382266390601555095e-01,-7.396337960529191236e-01,3.793369798013670764e-04,1.847794622594765878e-04,5.316990117418660122e-02,1.067243695259094238e+00
3.305488771222889754e-01,-7.816282361063546791e-01,-6.665750051832080025e-01,-4.136098941952677695e-03,1.997750934012040847e-03,1.287620330993706833e-02,1.059611439704895020e+00
3.623716627820623426e-01,-8.501033076990265336e-01,-7.326123201479437519e-01,-1.390449013664865965e-02,2.162442094438978696e-02,-5.749508494713860551e-03,1.159106016159057617e+00
3.637065084959775763e-01,-7.726574128461410895e-01,-7.907898565325262030e-01,4.645029198947143653e-03,5.845674168867538798e-04,5.451964867275105797e-04,1.145566821098327637e+00
3.540226143337924514e-01,-7.767566745865245315e-01,-7.865115612225495045e-01,-4.030260442695322159e-03,1.522648557402388279e-03,-3.754792955148951211e-04,1.135712862014770508e+00
3.231594954277908771e-01,-7.540381744520032736e-01,-6.911059736859821445e-01,-3.783054555943262016e-03,3.875144202403563599e-03,4.327246371794772617e-02,1.049871563911437988e+00
3.128485148288188689e-01,-7.190431192502235724e-01,-7.027005637628509493e-01,-4.268513039587853650e-03,-5.048126583858684926e-04,1.323753815952547971e-02,1.024101972579956055e+00
2.975842647552234266e-01,-7.830687313953894613e-01,-7.436629343075918941e-01,-2.180447611804684979e-02,-3.635810895499030221e-02,1.560872388867482093e-02,1.064378976821899414e+00
3.655209074111098189e-01,-8.001810297672025118e-01,-7.484360596703308888e-01,-8.398224409660582507e-03,9.315422701194628688e-03,1.133778492005442897e-03,1.140918493270874023e+00
2.285554161765936398e-01,-7.557988518638927289e-01,-7.630894342609712000e-01,-3.506101343772294321e-02,-1.403127682781247186e-02,-2.964420218508347429e-03,9.901958703994750977e-01
3.282216927602674694e-01,-7.561854868671735730e-01,-6.694645956867841807e-01,-1.130103553254580180e-02,-2.048709484895295044e-03,7.755322770368480723e-02,1.052548289299011230e+00
3.100129766596214642e-01,-7.964380310474741265e-01,-7.524069168494607052e-01,1.607265506447105863e-02,2.952180837904381724e-03,1.531768478742543196e-02,1.085798978805541992e+00
3.447667762653502943e-01,-7.783909924587162354e-01,-7.813488655354240420e-01,-7.787434393621517521e-03,4.861333598764163051e-03,9.404290607736839414e-04,1.124753236770629883e+00
3.122034697398847758e-01,-7.837224330615366608e-01,-7.828422623454605045e-01,2.041448846765544708e-02,-5.897524270859540001e-03,-9.472263684232195072e-03,1.096226930618286133e+00
3.623207119460528647e-01,-7.586217715267352668e-01,-7.672298774798582688e-01,1.470961640481245527e-03,-5.732652080061310419e-03,8.446299596729408068e-03,1.125413060188293457e+00
3.894385863474576492e-01,-6.924436744907762620e-01,-7.648443635937345331e-01,-4.392137909708644650e-02,-5.360883559088459177e-02,1.643333166820565849e-01,1.161664962768554688e+00
3.678449906593295737e-01,-7.776045225422099083e-01,-7.683622768042364104e-01,-9.887979507339179214e-03,-6.839392314925727768e-04,-3.657814349959876083e-04,1.140985846519470215e+00
3.447103716029388254e-01,-7.278835469620748011e-01,-8.864605344897944494e-01,7.460836692939850669e-03,-2.332705749358356812e-02,8.048983198802912853e-02,1.169157147407531738e+00
3.717867058184000650e-01,-7.886448193838440091e-01,-7.861297680799924636e-01,-4.882179979868842695e-03,4.278894279685367306e-04,-2.070103067475053381e-04,1.159207224845886230e+00
3.547628135146347894e-01,-7.769657627876875861e-01,-7.862390953710785002e-01,3.496389537294765457e-03,1.034203209068936891e-03,-9.943559920273490910e-04,1.136412501335144043e+00
3.688252632337906678e-01,-7.503545818112116184e-01,-8.111389954086063447e-01,6.428718808723645275e-03,-1.001058498387920846e-02,1.185903153872470278e-02,1.151144385337829590e+00
3.842084502320535222e-01,-7.885540596751876574e-01,-8.192841377404579406e-01,-7.052115516139679033e-03,-1.305055660634617427e-02,3.214967418141487926e-02,1.190006852149963379e+00
3.008393009742382218e-01,-7.576646805387634576e-01,-7.590770060537181951e-01,-2.479264944745591340e-03,5.637093168861293142e-03,1.888413546406841892e-02,1.059769392013549805e+00
4.508930127820736655e-01,-6.881818794583215437e-01,-8.719662915630648214e-01,3.957468845340401942e-02,5.027903117382749587e-02,2.138635093664404130e-01,1.300041437149047852e+00
4.061064223999695799e-01,-7.835992658225960916e-01,-7.240096033050745783e-01,4.321434187532188081e-02,4.914510394190038656e-02,2.548523778669649076e-01,1.247298598289489746e+00
3.544796446880301710e-01,-7.778476356738439623e-01,-6.735315409363656913e-01,-8.397807633842454406e-03,1.702403592337930560e-03,1.401729944111404502e-01,1.110897183418273926e+00
3.283133481437224277e-01,-7.506296248072195088e-01,-6.956878170059090927e-01,1.596260653461055792e-02,-7.229213538834315233e-04,5.915820394577667868e-03,1.052961707115173340e+00
3.442903930474553453e-01,-7.629247824916450815e-01,-7.180997860273687916e-01,8.410849984124493459e-03,7.162828442356466117e-03,4.232804266788724179e-02,1.088138341903686523e+00
2.973305313539983952e-01,-7.469744847138175547e-01,-7.686068957349215802e-01,-1.591621428148000394e-02,1.258610092412460434e-02,1.728342219805041255e-02,1.056296944618225098e+00
3.627141707858598796e-01,-8.223954700580344834e-01,-6.550842427280023639e-01,1.156668403253345058e-02,3.298355085328278508e-02,1.015757114035805014e-01,1.126416325569152832e+00
3.146325853875253098e-01,-8.407234250940054388e-01,-5.619725276670384240e-01,-5.418526888645170368e-03,4.028465360221650422e-03,1.588158423486228307e-02,1.044694423675537109e+00
3.383769432045852232e-01,-7.773741493879966491e-01,-7.778972129748752407e-01,6.815333222493048966e-03,7.275597349578354078e-03,-4.251892923509636990e-03,1.116170525550842285e+00
3.732646168145327126e-01,-7.777990271626440411e-01,-7.806786785378128091e-01,8.835465073646550909e-04,2.949300907432890299e-03,8.324802325822555909e-05,1.152518510818481445e+00
3.121915688426347701e-01,-7.031495956762503496e-01,-7.222951941053645797e-01,-8.189494343918047106e-03,3.887259802378161423e-03,2.430127345898970906e-02,1.026032090187072754e+00
3.696965219779561052e-01,-7.834355803338091118e-01,-7.789959671121339246e-01,3.499607797263439360e-03,9.993848108961187783e-04,-1.046729883654644614e-03,1.150937438011169434e+00
2.122355113425672402e-01,-7.512825565682905715e-01,-7.620210430549700931e-01,-3.039122942956354323e-02,-8.245204481858723830e-03,-2.646835125264094288e-04,9.704659581184387207e-01
3.638240218491395894e-01,-6.500427584744535858e-01,-8.215288239090114963e-01,3.177679751998504359e-02,3.717441294805817059e-02,2.472275489665146375e-01,1.192366123199462891e+00
3.597521478983348731e-01,-6.600596493905810380e-01,-8.211973110476986637e-01,3.738736654931117814e-02,1.588491804015400646e-02,9.978875047092383710e-02,1.124782323837280273e+00
2.878065515305278654e-01,-7.374633662208074369e-01,-7.547555369753566890e-01,-2.973167865617802608e-02,8.166094483441743712e-03,-7.472741789314885086e-02,1.043461084365844727e+00
3.139108755739349887e-01,-4.109927298091723968e-01,-9.172063286612746058e-01,2.118222184097564784e-02,8.740185294637596580e-03,-2.369262967472365519e-02,1.073290586471557617e+00
3.642572912488548087e-01,-9.351775775310133820e-01,-5.897656885096114188e-01,-3.017884395364239108e-02,-4.578880387336029673e-02,-1.077773957986722791e-01,1.184428215026855469e+00
3.622290793918620522e-01,-8.686031921302868053e-01,-6.052913660226285630e-01,1.980567439996210044e-02,-3.883829839895193425e-02,-1.783915513415632037e-01,1.166773796081542969e+00
3.628224309987148621e-01,-8.210691202616873241e-01,-6.685153671619251670e-01,7.328055594073364272e-03,-2.977454967894454727e-02,-6.874276241669771692e-02,1.123059272766113281e+00
2.401384934576426544e-01,-7.299893772791091751e-01,-7.445204006216847858e-01,-1.139613211459233888e-02,7.623806837816389514e-03,-7.405874508801305045e-02,9.861410856246948242e-01
3.773400453408448652e-01,-6.874591403648337984e-01,-8.207994889517590265e-01,-2.429755863495398210e-02,2.264074699361768792e-02,-6.290835716331870386e-02,1.144001245498657227e+00
3.261392429263837434e-01,-6.114426103166026305e-01,-8.122941413260000854e-01,-3.082010450424766540e-02,3.339365632463578426e-02,-3.690033736572111839e-02,1.057353138923645020e+00
3.465955261552018940e-01,-6.065016653113909362e-01,-8.625804064999966769e-01,-2.468263059410073096e-02,1.344775544108466753e-02,-3.521243293530966489e-02,1.106403350830078125e+00
3.197733411976160234e-01,-5.289963773369370514e-01,-8.705482262608048583e-01,-5.779258240138964060e-03,2.083495497428549531e-02,-2.154524995922720357e-02,1.062902450561523438e+00
3.597363981168341662e-01,-6.525701271982528029e-01,-8.490004722616613098e-01,-3.448983205325105439e-02,7.457001535806358043e-03,-2.323404309597533121e-02,1.125856161117553711e+00
3.633944479124113780e-01,-6.468959866361252420e-01,-8.585274430254380418e-01,-1.278153386666618443e-02,1.431812821548324524e-02,-3.442468315509033400e-02,1.133112549781799316e+00
3.154506550258195929e-01,-7.824471792408973503e-01,-6.409941150354181438e-01,-7.262069187705045420e-03,-5.705100180876393349e-04,-1.889718439930378538e-02,1.035045027732849121e+00
3.534035835250572966e-01,-6.192708753789620824e-01,-8.707687274550228729e-01,-1.408175709683688950e-02,1.066165488261316095e-02,9.740325409244340871e-03,1.120353937149047852e+00
9.690490453543998406e-02,-7.320391879909811106e-01,-7.192064453761619625e-01,3.809125044651887060e-02,2.198768712381099673e-03,-4.981969329697185506e-03,8.252982497215270996e-01
2.455147398905255796e-01,-7.605360471267951228e-01,-7.581862337832385723e-01,7.770972132592404193e-03,-6.774747442222412569e-03,6.569535275118500509e-03,1.005100965499877930e+00
3.289550692641567964e-01,-7.847589574445860139e-01,-6.555045468654435714e-01,-2.790352836409399490e-03,4.065498595790442010e-03,-2.088185749398865573e-02,1.055696129798889160e+00
1.712239741476153654e-01,-7.396560763772911384e-01,-7.466033345677192123e-01,3.143660497916004812e-04,2.905637658253449988e-03,2.298913251870441689e-03,9.143961668014526367e-01
3.245551248670794364e-01,-7.230691071437699291e-01,-6.773253966785650615e-01,2.280473657434075804e-02,-3.886327337570295165e-02,-9.271943541521011911e-02,1.040946006774902344e+00
3.184758592249311571e-01,-6.994876847757840466e-01,-7.240029240749483730e-01,1.488375948954537460e-02,-1.924200879060786878e-02,-4.199640844401487938e-02,1.033863067626953125e+00
3.058321734382264956e-01,-7.727682926545467179e-01,-7.726427123114654183e-01,5.583869521653622194e-03,-5.820287878542457043e-03,5.271749878392570539e-03,1.078666806221008301e+00
4.736936267166395598e-01,-1.276933547409439207e+00,-4.661227337669586190e-01,-1.921413577038282028e-02,4.006339401347613904e-02,3.592220756272062610e-01,1.641866803169250488e+00
3.311069302523468871e-01,-6.984691783157745970e-01,-7.505278276912523694e-01,2.645470341868186998e-03,3.837308399153482614e-03,-5.287291826063195838e-02,1.060559868812561035e+00
3.305493893162476104e-01,-7.359856421024895123e-01,-6.368306932796090614e-01,-6.160250855223130088e-03,3.848263824055844773e-02,-8.962640027339779936e-02,1.034520030021667480e+00
1.707539471667615105e-01,-7.424029295268830264e-01,-7.462947262246439895e-01,6.941999502771850107e-03,-2.725269137077929518e-02,-3.775969871483824888e-03,9.164277911186218262e-01
3.328323043108369905e-01,-7.142625341699554431e-01,-7.346295954622453772e-01,-3.759900184136370695e-03,7.354001403615450724e-03,-1.306335222898950266e-01,1.081456780433654785e+00
3.152420240558426734e-01,-6.477319794854248247e-01,-6.753516585250267656e-01,2.039312754954645396e-02,-2.374654902845070928e-02,-2.072596273266409661e-01,1.042347311973571777e+00
3.057993016310790457e-01,-5.459522043544695613e-01,-8.382819164931518685e-01,2.980294712071409301e-03,6.579660995249993725e-03,-2.068293120871779814e-02,1.030227899551391602e+00
3.392183410830396095e-01,-8.060345042884282662e-01,-6.594230098295341680e-01,-3.027978090559817637e-03,-1.503251585947413572e-03,-8.989639983775360443e-02,1.090628385543823242e+00
3.616262678155179877e-01,-7.545564400432628327e-01,-7.917765635222304699e-01,7.086259948783251751e-03,-3.869216238934680176e-03,1.604375102454291043e-03,1.135339975357055664e+00
1.414763443173260304e-01,-7.426497881897945463e-01,-7.405409019874689136e-01,2.286288118872725934e-03,1.161367043487180652e-02,-5.946508326669001400e-03,8.833715915679931641e-01
3.133802905965155094e-01,-5.135020926440849731e-01,-8.778480699834643186e-01,3.150629467924943427e-03,3.270916048856555014e-02,-7.769171364253879553e-02,1.067286849021911621e+00
3.637761991340496270e-01,-7.520018704430285750e-01,-7.937878082027299831e-01,5.597464109414644791e-03,1.098121295237904256e-02,-1.171891979394007021e-04,1.137447357177734375e+00
3.212845552408222782e-01,-6.209436927234593950e-01,-7.998478886920061814e-01,-9.016357247428713820e-03,3.112954223299421383e-02,-1.059102480771566684e-01,1.060740947723388672e+00
3.303406059431701625e-01,-7.619481184692563636e-01,-7.247348237836088725e-01,-1.912254300884123209e-02,2.483423156014966104e-02,-3.507021157259338634e-02,1.077250599861145020e+00
3.268484312441333750e-01,-6.727735513583144034e-01,-7.341245659560182713e-01,-9.414537343169361583e-03,-1.737509973043039301e-03,-1.452417444010530578e-01,1.062024593353271484e+00
1.648682566836350283e-01,-1.159492795517867547e+00,-4.815452894532787909e-01,1.129447802325990319e-01,4.595931309258068087e-03,-2.445179644221189830e-01,1.238304376602172852e+00
4.402716881088988288e-01,-6.685558897599066519e-01,-9.232713083207898519e-01,-4.726043933697569865e-02,2.760598255621280177e-03,-1.259342309313014885e-01,1.277151465415954590e+00
3.412941389163854367e-01,-7.118495963602580190e-01,-7.870235701937600137e-01,-2.695027407898353128e-02,2.622480928365407762e-02,-3.553756994518438711e-02,1.096340656280517578e+00
3.298319975838935325e-01,-6.384084429237961711e-01,-8.050626121864967732e-01,-1.443959310702548800e-02,1.995128337996364756e-02,-8.705749874561982682e-02,1.072931051254272461e+00
3.475844456713966801e-01,-7.209847863869172091e-01,-7.660972689770693123e-01,-1.458532556019334452e-02,2.200165593646873433e-02,-3.760508795408380733e-02,1.094720959663391113e+00
3.199497514339139093e-01,-7.134606374624914427e-01,-7.020844754328507964e-01,-1.771447298662972084e-02,1.559593520785436567e-02,-3.980425466342772667e-02,1.030890107154846191e+00
3.568626766678474893e-01,-8.103175944350524684e-01,-7.862455452826618840e-01,-1.815638390815439316e-03,-4.338436306342703143e-03,2.402837205599174519e-02,1.156110405921936035e+00
1.936030492507192502e-01,-9.641034592651360757e-01,-1.051444054375231030e+00,-3.730016767259211607e-02,7.221102461219681967e-02,9.398799886423558902e-02,1.222843408584594727e+00
3.605415303288266871e-01,-7.526359449481581088e-01,-7.841995808655717326e-01,5.806612470315373510e-03,5.834973307372979742e-03,-3.365431375845335756e-04,1.129380345344543457e+00
3.608126938410798901e-01,-7.991581064818424895e-01,-7.618980435935118756e-01,-1.338140235850814562e-02,4.621553799375108240e-03,-3.566985408497623695e-03,1.142076849937438965e+00
2.663063278793807998e-01,-7.710671380223563798e-01,-7.411104344547165823e-01,-3.147934575904181350e-03,-2.095372711793605514e-02,-2.361592129617021574e-03,1.023390650749206543e+00
3.198469863018446602e-01,-7.873994800775674374e-01,-6.957790772861023321e-01,-1.442666423722509250e-02,2.113030882733663018e-02,-3.585517863405181249e-02,1.067128539085388184e+00
3.598371637932793465e-01,-7.769863916975534579e-01,-7.908405610059108248e-01,-1.754522660556954300e-03,2.324271985591305333e-03,-4.775173741503600696e-05,1.143824696540832520e+00
2.120965902994747521e-01,-7.670573998035696839e-01,-7.628876580394039486e-01,1.936988546307797168e-02,-5.315914475562350666e-02,-1.380477548734889218e-02,9.822688698768615723e-01
3.388334602684522356e-01,-8.036634620905034332e-01,-7.169432139041866936e-01,-7.201813417851203776e-03,2.350657328006784674e-02,-2.854593058184059368e-02,1.103630304336547852e+00
3.685443800189820984e-01,-7.923249159103233907e-01,-7.644460223843752011e-01,-3.726632461482558018e-03,2.529358058229172132e-03,-2.713257032565798751e-03,1.147220134735107422e+00
5.914062331803563444e-01,-2.785386017355114263e-01,-1.391313798561093940e+00,-2.889932991450353331e-02,-1.882581078244921838e-02,-2.317506365391377304e-02,1.722877144813537598e+00
3.329035240691122777e-01,-7.829576498412227359e-01,-7.619188181821758832e-01,-1.277265571148496898e-02,-4.774464000177205437e-03,-5.042641370699852375e-03,1.105778694152832031e+00
3.603756605188109252e-01,-7.830574175200338827e-01,-7.737948787232028502e-01,-4.613517247495087931e-03,-2.463750855548967403e-03,9.165249548404059022e-04,1.138867139816284180e+00
3.413886427233416843e-01,-7.698914951354052238e-01,-7.802558878935532682e-01,6.013627639470883919e-03,7.712401060568727790e-03,-6.725585708309961101e-03,1.116687655448913574e+00
3.335536851458724694e-01,-7.765390540328434010e-01,-7.810048446630761809e-01,-5.658265423191780226e-03,2.635878818728357165e-03,1.660606018076194422e-03,1.112388610839843750e+00
3.468556263434736109e-01,-7.694615377727065386e-01,-7.286493059503598158e-01,-1.085584877483350766e-02,1.929748381835389923e-02,-3.204419796503513163e-02,1.098554253578186035e+00
3.679666966748746937e-01,-7.518272696264206578e-01,-8.126023497954308894e-01,-6.223582657638894802e-03,5.427228584381619571e-03,5.187032096312202412e-03,1.151509046554565430e+00
3.622486974457104214e-01,-7.640797860070638325e-01,-7.950161437776902540e-01,-2.624451794340844704e-03,1.312404323908792671e-02,7.200299131404669546e-03,1.142414212226867676e+00
3.594838033629038643e-01,-7.719431341728447693e-01,-7.695539971723077688e-01,-1.085790696815954436e-03,7.810470739753184836e-03,-1.051640813784695747e-02,1.130463600158691406e+00
2.661911538149725476e-01,-7.640522535608869070e-01,-7.656023238222752214e-01,1.178631932993078925e-02,1.091068311136274629e-02,-5.998460859616357860e-03,1.031446933746337891e+00
3.615553719229458451e-01,-7.525456441063881341e-01,-7.974027920825371707e-01,-6.583285075940113057e-03,-2.493665530168970301e-03,1.221313952102967126e-03,1.137260675430297852e+00
3.712364418110328246e-01,-7.764195064969925397e-01,-7.870969165329333439e-01,-2.288608607380290295e-03,6.814202461356556363e-03,-5.897058142964862982e-04,1.153099417686462402e+00
3.200876657381629964e-01,-6.452422865530900165e-01,-7.804156775771087240e-01,-1.649585301847454599e-04,-9.767493865133460018e-03,2.011840109108946340e-02,1.040250539779663086e+00
3.111362017334284857e-01,-8.832175362525557238e-01,-4.485270128145846802e-01,2.467986662703177195e-03,1.312534721656566025e-02,7.975426902815706265e-02,1.056352138519287109e+00
3.316253796688388711e-01,-7.166573022029395501e-01,-7.817115765841300412e-01,1.689265401537821260e-02,2.759516266957076289e-02,3.636575166300225204e-02,1.085556030273437500e+00
2.664320472349918090e-01,-7.647655996828673919e-01,-7.655792609021965234e-01,1.150099817055896291e-02,1.089961128202980752e-02,-6.402806106781953541e-03,1.032029271125793457e+00
3.721796411770958990e-01,-7.625204221234896940e-01,-7.867448927406752723e-01,5.383683053113156236e-04,1.085041040900792085e-02,-4.533126154754522734e-03,1.147185325622558594e+00
3.217960449198957185e-01,-7.690205815852718674e-01,-7.754682765841832692e-01,-1.039647837439562281e-02,6.314184095867921270e-04,1.780134979085793183e-03,1.094207763671875000e+00
3.718326568958719713e-01,-7.799004419533044352e-01,-7.803283823202556979e-01,1.908998372966709024e-03,2.551408620926782448e-03,-9.894390724606543907e-04,1.151961684226989746e+00
3.847642847461226756e-01,-6.810764801290838388e-01,-8.424114668355795477e-01,3.565933591956284981e-02,-3.866312969875815297e-02,-6.376838376732592295e-02,1.163830518722534180e+00
3.498271998871503863e-01,-7.293871110207710284e-01,-7.996594951993364342e-01,2.378976687098142279e-02,-1.706278888053874149e-02,-2.132294874976345400e-02,1.117772817611694336e+00
3.610041639236760136e-01,-6.963996010065920395e-01,-8.103334297836695121e-01,4.535866228626755231e-02,-3.217733357632317215e-02,-7.089545299981241111e-02,1.129563927650451660e+00
3.500915784125389063e-01,-7.461210712749837271e-01,-7.652269123195044598e-01,2.731617252349343578e-02,-3.330252604052126586e-03,-3.629556514755608032e-02,1.108699798583984375e+00
3.497170142750021249e-01,-7.920407858561940850e-01,-6.679671044999586638e-01,1.797227551744561003e-02,-2.531110631248817411e-02,-1.170174444366453570e-01,1.105130434036254883e+00
3.723628866578770347e-01,-7.843370646418528214e-01,-7.780794098151885274e-01,-3.707927051240609705e-04,9.192926078622686369e-07,-6.821966250012357280e-05,1.153584003448486328e+00
3.595402586034816550e-01,-7.586348580609187930e-01,-7.813148150040613027e-01,5.561349165604414016e-03,2.941690516012977850e-03,-7.120389434298757952e-03,1.129805684089660645e+00
3.335557999748719471e-01,-7.669886054732123482e-01,-7.696301875628190903e-01,-3.034609383191591916e-03,-5.878885269153965101e-03,-8.118235597417899560e-03,1.102016806602478027e+00
3.599945237021978661e-01,-7.849483824518463937e-01,-7.775887395590922457e-01,3.850404132046654840e-03,2.753154921851775315e-03,-5.970402753285970147e-04,1.141310811042785645e+00
3.183833863038981749e-01,-7.816737655469945256e-01,-6.456355569680198858e-01,-4.961814224916147494e-03,3.217701831417288209e-03,1.386680883021633795e-02,1.039068818092346191e+00
3.419183634117557991e-01,-6.873356561859702563e-01,-7.908281462111188542e-01,-1.827051174247838056e-02,2.331089252857357352e-02,-1.950056996111189725e-02,1.086447000503540039e+00
3.251019028275369260e-01,-7.233180095770423979e-01,-7.275574567885079169e-01,-1.604645363403225077e-03,-3.331838853128169832e-03,2.141252256892513944e-03,1.050572156906127930e+00
3.350603436152505554e-01,-7.119803864100151536e-01,-7.507396245228863396e-01,-2.155232312184070242e-02,2.149143762251774434e-02,-1.967282377903292051e-02,1.068793416023254395e+00
3.333537219753009984e-01,-7.708345253835192645e-01,-7.741335368786785853e-01,-1.296369129476612758e-02,2.421164346566519882e-02,-3.566811390364926782e-02,1.108586788177490234e+00
2.896701686890346128e-01,-7.709621663437444816e-01,-7.760722678467046887e-01,1.156612649968279637e-02,-4.844842699299072887e-03,-5.622682920902523016e-03,1.063462972640991211e+00
3.368285128038880916e-01,-7.838780968066336730e-01,-7.672096594718142981e-01,-7.257285395660190630e-04,-3.949523454598462963e-03,2.281759494448018944e-03,1.112494826316833496e+00
3.423876673314513175e-01,-7.405807645601261147e-01,-7.399777703743284363e-01,-5.874016302894240205e-03,1.026588179544265719e-02,-2.350678085306333667e-02,1.083626031875610352e+00
3.108910427866592441e-01,-7.539641668057728285e-01,-7.590782674372709149e-01,-2.460387095304903196e-02,3.545304112656983558e-03,-3.739201058482812673e-02,1.070250749588012695e+00
3.623856208895350761e-01,-7.670393129581096758e-01,-7.684608681041340539e-01,-1.209356794207183672e-02,3.487233118288354979e-03,-2.834515791958172257e-02,1.131412267684936523e+00
3.736789642053571225e-01,-7.786620155202126359e-01,-7.809547856019852796e-01,9.517299342770925473e-04,2.975671800442907314e-03,-5.637688031098833652e-04,1.153502225875854492e+00
2.786030205419946504e-01,-7.665228541550219710e-01,-7.678511338383424700e-01,3.828312858192633224e-03,1.173617767891538613e-02,-4.667577657669132705e-03,1.046040415763854980e+00
3.387365618889765506e-01,-7.428383073687621074e-01,-7.954380526157307507e-01,4.944689507154244323e-03,-4.234153564508217130e-03,-7.759640185517880512e-03,1.108949661254882812e+00
3.133471421786949707e-01,-7.277580981141498206e-01,-8.106105880814518105e-01,-2.142151753850251553e-04,-2.363920123519775221e-02,-3.083569554998428705e-02,1.086992144584655762e+00
3.654034234522229863e-01,-7.773811067777220973e-01,-7.613708281018320978e-01,-6.729735221560932505e-03,-3.062047050639392885e-03,-2.659128982752837845e-04,1.134936451911926270e+00
3.187758456189108136e-01,-7.824295718899577645e-01,-6.456331718242616091e-01,-1.660331128025323288e-02,1.042809493633577817e-03,1.491018183379975645e-02,1.040299415588378906e+00
3.740123253188586960e-01,-7.510621821715511848e-01,-8.258755728229809634e-01,-6.895052889815296571e-03,1.962853206050328356e-03,-2.355925924947611591e-03,1.164358735084533691e+00
3.628809825958674296e-01,-7.306379152343123184e-01,-8.104034808820677060e-01,4.107441470070968131e-02,-2.225325399264337783e-02,-4.404901257266175679e-02,1.140937805175781250e+00
3.578257587953372898e-01,-7.841561460049274457e-01,-7.887317462986683791e-01,-3.336697018376748054e-03,3.877478290921657599e-03,-4.407836618234636274e-03,1.144336342811584473e+00
3.605569694263597857e-01,-7.868081133625499657e-01,-7.756885339112138400e-01,-3.507838730267241745e-03,2.243092067332666702e-03,1.665058755973502190e-03,1.141872286796569824e+00
3.395930225483729248e-01,-7.803892109070835748e-01,-7.777539078626087843e-01,5.487178605982241924e-04,-9.694945578606055381e-03,-4.818403461632311444e-04,1.118793606758117676e+00
3.120831092905436699e-01,-6.581021113714033977e-01,-8.743938050970760933e-01,-2.606176563061089052e-02,5.675698949547218486e-03,-3.702484514653626990e-02,1.097329139709472656e+00
3.513340640537900850e-01,-6.950559446755475435e-01,-8.140768666304192269e-01,4.106919045964312759e-02,-2.362015796749622129e-02,-2.064618182251280396e-02,1.114294767379760742e+00
3.185486535755758242e-01,-4.148415143424248885e-01,-9.413108389223298067e-01,-1.779880770973957596e-02,7.259761459839537967e-04,-1.146854460375748737e-02,1.096578836441040039e+00
3.134476344847536011e-01,-7.734337003265128185e-01,-7.731057624103687687e-01,-9.180772011918150732e-03,-8.269895024625271637e-03,3.969356995521844053e-03,1.086949825286865234e+00
3.289373533680223227e-01,-4.800389312490436211e-01,-9.302129271909019836e-01,-1.390863523575965911e-02,-1.297940056102554057e-03,8.047544544080883003e-03,1.105467796325683594e+00
3.211509860898840163e-01,-7.274748282800274080e-01,-7.124026173428226194e-01,-2.302240662799947841e-03,-4.755872682644286115e-03,8.027864293946855578e-03,1.041304588317871094e+00
3.386897224221331881e-01,-4.880734844370495651e-01,-9.325032930027505884e-01,7.693928077638371478e-03,2.610684597907861077e-03,4.181886611952301443e-03,1.117472171783447266e+00
3.277441954232793719e-01,-5.055442677305437282e-01,-8.915274195218744202e-01,-3.078050944267815905e-02,-1.404755890993666413e-02,3.489803261353739000e-02,1.082624554634094238e+00
3.454851946200853674e-01,-5.380368988730241941e-01,-8.952291101020191100e-01,-2.863790536149004445e-02,-2.502204819443532187e-03,1.118873649974952596e-02,1.107537627220153809e+00
3.626922032414582886e-01,-7.817474360582801207e-01,-7.806199917148450851e-01,-3.250246834001113434e-03,-4.147898092156586738e-03,-1.664344012369523050e-03,1.143916368484497070e+00
3.235260109889203095e-01,-4.998392845537403262e-01,-8.910090599045177306e-01,-1.218917422396480210e-02,-1.250042860829229246e-02,1.514283121728204548e-02,1.074533462524414062e+00
3.462951650483859778e-01,-9.038773008662408515e-01,-5.541456623040015295e-01,-5.481689142868111098e-03,2.842560276219587359e-02,-1.415089344003002056e-02,1.118540763854980469e+00
3.503728361054248563e-01,-8.599798502774489428e-01,-6.252160602799120559e-01,-1.218971594976636132e-02,-1.176814795535649147e-02,-3.335044158833928851e-02,1.113606214523315430e+00
3.707488898313991976e-01,-8.009728900153594289e-01,-7.781570503341765921e-01,-1.285199820757811258e-02,-2.241930413021618954e-02,1.581756581659147717e-02,1.161668062210083008e+00
3.267782386575590614e-01,-8.071223177093713730e-01,-7.005497300740101130e-01,7.989011690047715872e-03,-2.361783994731469702e-02,-1.493325735420376540e-02,1.085716009140014648e+00
3.565762259712128013e-01,-9.479097920264865085e-01,-6.969370349758294836e-01,-2.026796015205825641e-02,4.639251104513881369e-02,4.478425688288661596e-03,1.202093958854675293e+00
3.381218202605837386e-01,-7.766272761294292781e-01,-7.779346115725226385e-01,6.942202265753576879e-03,7.276539907783915150e-03,-3.844628765637404712e-03,1.115559220314025879e+00
3.503062433842677459e-01,-8.558718648637939630e-01,-6.904680657853297099e-01,-2.485274993986508110e-03,-3.575557135690415889e-02,-2.781423814380591490e-03,1.134281635284423828e+00
3.667480787249569052e-01,-7.767006088906803773e-01,-7.829146811304137366e-01,1.603528402545785448e-03,3.845397596491106039e-03,-9.293845270595250160e-05,1.146591067314147949e+00
3.354306069617620789e-01,-9.328717267835597848e-01,-5.086217283901555142e-01,-7.497813172096371749e-03,-6.085975526671608127e-02,8.457797419462975697e-02,1.132802844047546387e+00
3.610051893366132414e-01,-7.767708079055961612e-01,-7.809439612543571663e-01,-2.768229263107703682e-03,-3.995354150052070168e-03,-8.452947969672885108e-04,1.139900326728820801e+00
2.822611186875346179e-01,-7.880454400923057046e-01,-7.421474955171531995e-01,1.364784751718457192e-03,2.347828140047758527e-02,3.737832747719557129e-04,1.048902988433837891e+00
3.059265183659655163e-01,-7.950980888956308279e-01,-7.767015703270698790e-01,5.619815525255332511e-03,-2.116458002447234310e-02,-8.768113869475500834e-04,1.092602133750915527e+00
3.449678744854059453e-01,-7.248968007822462756e-01,-7.566839572765875488e-01,1.072794893577669155e-02,7.991503924095364961e-03,3.901686263538814425e-02,1.088454246520996094e+00
3.531565386671120521e-01,-7.739737684538552376e-01,-7.696712828073348778e-01,1.554697240217626456e-03,8.241285305977490844e-03,1.134917585107287664e-02,1.125250697135925293e+00
3.392428792572485530e-01,-9.160709202496664094e-01,-4.934301510203521479e-01,-7.894116827472878045e-03,1.735536327636126933e-02,-1.119047897711067559e-02,1.106958627700805664e+00
3.344140747718407081e-01,-7.737808899990723521e-01,-7.767473085597560445e-01,-8.882425067807566202e-03,-1.998470128523716050e-04,2.137659167317750833e-04,1.109787940979003906e+00
2.206396141148033729e-01,-7.668994889572622320e-01,-7.921922462352466443e-01,-7.837380467235040282e-02,-8.828494038147935430e-03,4.249586930041153107e-03,1.009735703468322754e+00
3.083838077525279386e-01,-7.912320625605611113e-01,-5.956399152551917764e-01,2.046997027714198697e-02,-2.161680622184341399e-03,6.028749900935394257e-02,1.022012710571289062e+00
3.654440960662428406e-01,-7.747878792719335994e-01,-7.788900649458169179e-01,1.838815351503155296e-03,3.300660263990550739e-03,1.669318587544956628e-03,1.142310976982116699e+00
3.597382330115049265e-01,-7.892122362375018074e-01,-7.190651264076795002e-01,1.504596986430458035e-02,1.056695117503001109e-02,3.554929496700842684e-02,1.117684006690979004e+00
3.627584314277628175e-01,-8.119829346170006623e-01,-7.183554010657662303e-01,-1.251266958006547539e-02,9.834705784282042965e-03,5.523092340451130240e-03,1.131214618682861328e+00
3.420393038364311633e-01,-7.459638233269216823e-01,-7.368850822356141084e-01,9.745339685558754295e-03,1.108914859362942346e-02,1.037289457935469845e-02,1.083942890167236328e+00
3.498747622240459543e-01,-8.236218263808883222e-01,-7.051293159303060332e-01,1.582152399314848412e-02,1.372573683198171843e-02,3.409125734482233716e-02,1.121109724044799805e+00
3.272102531082806132e-01,-7.716503904991041107e-01,-7.753663281964182641e-01,4.231800754583997688e-03,-1.227176486514554299e-02,-1.228779599680447220e-04,1.100952982902526855e+00
3.646147552108197076e-01,-7.674021308797618346e-01,-7.644102278784103977e-01,4.929973502403977616e-03,-1.851431698545626028e-03,3.717191327630235340e-03,1.130578994750976562e+00
3.571203206621260118e-01,-5.590692573942389609e-01,-9.531106141388472341e-01,7.053198801358279146e-02,-2.514067783198858930e-02,-3.237542637838068671e-02,1.172882556915283203e+00
3.071625378424139852e-01,-7.726420677185403818e-01,-7.737353713848234005e-01,-6.984114957523183606e-03,1.053889649394000594e-02,6.432757499859944120e-03,1.080631017684936523e+00
3.185964361956891699e-01,-7.440505845633202942e-01,-7.841998180134199803e-01,-4.070352027321121231e-03,-1.203881915256547162e-03,5.786415134039982747e-05,1.083304762840270996e+00
4.516498772216287483e-01,-7.093666163675248493e-01,-9.145980930247000762e-01,1.879028650027878000e-02,4.118775193996037504e-02,-5.787838570413407491e-02,1.282401919364929199e+00
3.306582761147663918e-01,-6.735027312383379261e-01,-7.899874185394426540e-01,2.230544815455239721e-02,-8.092504801817312562e-03,-3.465209532842752210e-02,1.069658279418945312e+00
3.009241009817467671e-01,-7.826336576357992847e-01,-7.745282083703257658e-01,-9.106939786403971115e-03,1.583270175716645564e-02,-7.409307211455856690e-03,1.080067515373229980e+00
3.550873908654828548e-01,-7.179127721438919307e-01,-7.995400461779732515e-01,2.165470574136663107e-02,-1.251773743758135236e-02,-6.018187670764767183e-02,1.121749043464660645e+00
2.837558519598796791e-01,-6.706364318505941835e-01,-8.040173183777388211e-01,7.617163331752538347e-04,-3.093640346254167978e-02,-5.931419651408357391e-02,1.034108400344848633e+00
3.775954077383878449e-01,-7.658085076430055649e-01,-7.996636885744643486e-01,1.042868262995331205e-03,-2.830292536330710970e-02,-1.246244777487531263e-01,1.181621313095092773e+00
3.522396413054544317e-01,-7.612999170193431864e-01,-7.719629177398994457e-01,-8.595151283151452465e-03,-1.042803045174580528e-02,1.082085579292201699e-02,1.119310855865478516e+00
1.864873668052552946e-01,-7.395136123966155051e-01,-7.501874470451541654e-01,4.829916456074763095e-03,1.166295425805522097e-02,-3.172568192179918856e-03,9.316565990447998047e-01
3.203116948038776668e-01,-7.462305274077056794e-01,-6.923245838841947108e-01,-5.907660863216750158e-03,9.591416246171038593e-03,-5.176536568922384535e-02,1.044674515724182129e+00
3.509060826548500156e-01,-7.760937695166416628e-01,-7.616618966841731675e-01,-7.438434664272220408e-03,-7.536590841071303878e-03,6.873500925406549403e-03,1.120067119598388672e+00
3.559475999875638674e-01,-7.797987925793491426e-01,-7.827865457842020369e-01,-3.258724247586454112e-03,4.721500095558948777e-03,-1.656290134811721181e-03,1.137290239334106445e+00
3.024310132245229266e-01,-7.706987232146806921e-01,-7.785112854571694108e-01,-1.409521742079951172e-02,-1.419540767481731851e-02,-7.757521189910273132e-03,1.077698230743408203e+00
3.220907378518456099e-01,-7.713779209920179625e-01,-7.773745155153263253e-01,6.548619679681837169e-03,-4.299349295056244247e-03,-2.451351368840078756e-03,1.096571445465087891e+00
2.255343699771089616e-01,-8.006269381022181886e-01,-6.743494583852491786e-01,3.051139138919484184e-02,5.552169320122728874e-02,2.940771161582408921e-02,9.767329096794128418e-01
3.225448546404288686e-01,-8.716442378759752252e-01,-5.247746092931193651e-01,1.853999137997562954e-02,2.294299865322611473e-02,3.542904491953911827e-02,1.067030549049377441e+00
3.621009195240286194e-01,-7.804382289914768567e-01,-7.802987554985267860e-01,-3.721750205747077593e-03,-4.001369242645552368e-03,-2.592756463453650337e-03,1.142517447471618652e+00
3.905763695032347660e-01,-1.207051575909588559e+00,-5.663952401425713656e-01,-8.785740585482289255e-02,-7.056168212085438263e-02,-2.028874865665067084e-01,1.449451208114624023e+00
1.105172457258529750e-01,-8.048785232124806566e-01,-7.250782337610200967e-01,-4.407074371276169938e-02,2.217283173370532962e-02,1.242340261193240064e-02,8.826286196708679199e-01
3.478218697398791637e-01,-8.639799539847476950e-01,-5.668075094304219075e-01,-1.032888375486581099e-02,-1.035895775938066449e-02,2.952226491255259891e-02,1.095407485961914062e+00
3.423632684462389886e-01,-8.737636988137764682e-01,-5.617260019277721117e-01,6.050099472172801914e-04,6.849513487454073415e-03,1.193501982547794105e-02,1.094268679618835449e+00
3.262207091466169384e-01,-8.922748096126825734e-01,-5.253098385977383877e-01,-4.195153657692017243e-03,-7.712427124551449881e-03,2.626952449916606031e-04,1.082811594009399414e+00
3.489493521218454686e-01,-9.174951944138403093e-01,-5.190834384372322585e-01,1.395109610872572944e-02,2.028044612714693593e-02,2.542674734219678781e-02,1.123300790786743164e+00
3.233254197199393332e-01,-8.887423886619731928e-01,-4.907974406768490505e-01,-2.152762341232661064e-04,2.428280037410385922e-02,6.302582006918102525e-03,1.070990443229675293e+00
3.622247428717940698e-01,-7.585780646731442589e-01,-7.684985278400955355e-01,-7.918341042587630219e-03,7.008762857607587354e-03,-1.787843949211093955e-03,1.125949025154113770e+00
3.586288471934810373e-01,-8.150601345234262940e-01,-7.072440926228197311e-01,-1.458837941642098825e-02,-6.865135856079273950e-03,-4.288991934645288925e-03,1.124038577079772949e+00
3.687909723847387911e-01,-7.639579679851787875e-01,-7.897330618223501464e-01,-4.834460141146548068e-03,6.167975981822260666e-03,6.575231795454857106e-04,1.145934939384460449e+00
-1.825284866817500351e-02,-1.014547559347573014e+00,-8.154819942804434341e-01,1.545387772005032273e-02,-6.989140256129790230e-02,-4.343417721863201617e-03,9.215908646583557129e-01
3.273698914393197712e-01,-8.677931176542073022e-01,-5.447153480482236354e-01,5.055159436949608481e-03,-8.055325431880197085e-04,-7.715676496558820929e-02,1.079167008399963379e+00
4.272718536462941086e-01,-4.351798192054198711e-01,-1.059510854555789860e+00,8.655941014931993471e-02,2.633615046848027108e-02,1.236222579337127071e-02,1.302721858024597168e+00
3.453916260484530820e-01,-6.512515284235811386e-01,-8.306199342604846381e-01,6.687800439029190427e-03,-1.756701496606312071e-02,1.070524998848163857e-02,1.098016738891601562e+00
3.526731722432339122e-01,-7.902727907670576979e-01,-7.208725043380479480e-01,2.049543642648817346e-02,3.084567054521982279e-03,-3.745802719671532943e-02,1.112348437309265137e+00
3.483819382530943254e-01,-8.066184584351316911e-01,-6.688337462965634472e-01,1.498781479050072252e-02,-1.587021979462864205e-02,-5.139810535659941615e-02,1.096915602684020996e+00
3.132701774563197428e-01,-7.611310773196148238e-01,-5.757399662671911500e-01,-3.547197206437702199e-03,-2.292879123590637561e-03,-2.039600612220212605e-01,1.055640101432800293e+00
3.280957706374685312e-01,-5.973798815284994124e-01,-8.190565975834855905e-01,5.174598859213523638e-02,-2.232061991965917161e-02,-9.622690764375961547e-02,1.071498274803161621e+00
3.044880369211689919e-01,-6.004607935670109864e-01,-6.984359881495361133e-01,-2.151589134796801084e-03,7.147188076614764511e-03,-2.332598304593708483e-01,1.039515137672424316e+00
3.707619745544011858e-01,-7.767660338172719392e-01,-7.775683840246333522e-01,1.840603966813685217e-03,-1.482432501595803628e-03,-2.867984079577122632e-04,1.147936820983886719e+00
3.176311568834385146e-01,-7.408485633198111930e-01,-6.908809906536477197e-01,7.978862065360813743e-03,1.157334207333271959e-03,1.394518242018662202e-02,1.034777641296386719e+00
3.494527470260601620e-01,-7.504650608845739868e-01,-7.496098087603982885e-01,1.061306634316925082e-02,1.420753895660295529e-02,1.025302903424637514e-02,1.100062727928161621e+00
3.325589428168579387e-01,-7.277468801677944299e-01,-6.868059347467245779e-01,4.209963344279840647e-02,-6.423765092594423132e-02,-1.282135832134525533e-01,1.072160124778747559e+00
3.442538525890008194e-01,-8.281043603491431426e-01,-6.494975431344754968e-01,-2.293585968612854749e-03,4.562474574788124605e-03,2.001359085689098649e-02,1.094629049301147461e+00
3.721614726900343562e-01,-8.786944178781959103e-01,-6.014730734982873805e-01,1.451096558494488833e-02,-3.265348303025944476e-02,-6.253673845682457266e-02,1.144679546356201172e+00
3.216883108214509956e-01,-7.203759499006786582e-01,-7.252385240922190057e-01,3.271587536103566334e-03,4.442315874534461841e-03,3.242072556760304449e-03,1.044562816619873047e+00
2.676290363104945058e-01,-8.414559720494234618e-01,-5.752055927467115692e-01,1.462298712163150050e-02,4.074625295054524338e-02,4.910928350087679500e-02,1.009218454360961914e+00
3.611796089967493351e-01,-7.908040258729239769e-01,-7.444235684589615154e-01,7.319224136905624900e-03,3.480748614417943695e-03,-9.777808837072581201e-04,1.129596352577209473e+00
3.731766524610403146e-01,-8.322737107930451295e-01,-7.575365257820221299e-01,3.191495211505292369e-03,5.624362280936398215e-03,2.745986170520115302e-02,1.170893669128417969e+00
2.046979497281329330e-01,-7.815731544180652968e-01,-8.027486606946151459e-01,-1.285523974861652128e-03,8.005446165900116651e-02,4.885136501323256164e-02,1.010175466537475586e+00
3.326142094123209492e-01,-8.240938173830278934e-01,-6.213550293270706515e-01,7.363803153954155342e-03,-6.748192317045903499e-03,8.838906997373074947e-02,1.080881118774414062e+00
3.251864095371239660e-01,-7.423529939894343288e-01,-7.059146023596047925e-01,-4.818951724924125206e-03,-5.832468355654975463e-03,7.447683619091855986e-03,1.049955606460571289e+00
3.507427090866400143e-01,-7.812427759389960480e-01,-7.644701498903213599e-01,7.053378569915213885e-03,1.052320109992852838e-02,2.428540858874954095e-03,1.123915195465087891e+00
3.746165167988608213e-01,-7.806202114987677021e-01,-7.784303606829424682e-01,1.953371579951026626e-03,3.720528312318333595e-04,-1.732772811714980866e-04,1.154148578643798828e+00
3.556202840095408213e-01,-7.922111340300993509e-01,-7.609454492869389686e-01,1.667780673662890359e-02,1.658725694060571992e-02,3.042425978278162982e-03,1.133267164230346680e+00
3.256823868377103359e-01,-7.436491140113024034e-01,-7.943665769045917813e-01,-6.257663939803799133e-03,-2.139454707490453644e-03,-1.074024400428832265e-03,1.095632553100585938e+00
3.377114792586013992e-01,-7.818771029291339270e-01,-7.766653523323776565e-01,2.287680753944503452e-03,6.991540310770746891e-03,-2.615768541590677339e-03,1.117073655128479004e+00
2.999812348834586251e-01,-7.696007127902456668e-01,-8.412926021496435203e-01,-3.835333836612798974e-02,-4.485152585245409662e-02,2.939718798993532292e-02,1.113043665885925293e+00
3.427498078512025703e-01,-7.822330173492966221e-01,-7.755856072736939666e-01,-2.961449807814325094e-03,7.141558651184960228e-03,3.919910077664598251e-03,1.121774315834045410e+00
3.552075993748279314e-01,-7.403180847621675387e-01,-8.034082427288813388e-01,-3.267442142403547897e-03,1.471219850656964138e-02,1.176726358890215970e-02,1.128880262374877930e+00
3.258043269287198562e-01,-5.828569475086187168e-01,-8.753701818361705467e-01,2.575166360306913732e-02,5.141721073902031508e-02,4.134941212839892549e-02,1.091821789741516113e+00
3.592108030659805218e-01,-7.877932159308708160e-01,-7.772133698668413082e-01,-1.194315911604167417e-03,4.411438737254596947e-03,1.856515640214574485e-03,1.141782879829406738e+00
3.595624016333883177e-01,-7.676444877289746449e-01,-7.869290574017789863e-01,6.983974473204011997e-03,2.019194693259760559e-03,7.089307469979471994e-04,1.137042284011840820e+00
3.576049225389669184e-01,-6.798088125999013354e-01,-8.270747438164984811e-01,-7.387323152470396878e-03,5.372801400895107007e-03,4.228814414720763470e-02,1.120850324630737305e+00
3.489288424450585069e-01,-5.536176957771374862e-01,-9.660611723435430509e-01,2.362208017680099068e-02,3.844140708150965008e-02,1.037470277998948920e-01,1.181248068809509277e+00
3.518741497721827871e-01,-7.449118181222296187e-01,-7.592030555413457060e-01,6.899500390855322750e-04,1.477545512460214615e-02,-5.081118100435875681e-03,1.104333281517028809e+00
3.303165507956408731e-01,-5.601216997016690291e-01,-8.771534238583766907e-01,7.371742212936056859e-02,6.801145779596384604e-03,2.842959207166213375e-03,1.091857314109802246e+00
3.674858592184180872e-01,-6.204613196413328868e-01,-8.914660976045101215e-01,3.496379905726423876e-02,-2.108880183140373135e-03,1.780197648036646041e-01,1.189947724342346191e+00
3.676595261530002379e-01,-6.324331940877973013e-01,-8.027952119210729487e-01,2.080384467227060219e-02,3.183543589386898798e-02,2.219220072829061474e-01,1.162614941596984863e+00
3.168559838652238447e-01,-5.325683213082813561e-01,-7.860342788035243888e-01,4.570665439201709174e-02,2.363421334469153340e-02,1.707141055267672736e-01,1.047110199928283691e+00
3.397651073969526481e-01,-7.546186603039248819e-01,-7.591328681650632015e-01,3.252212377707553587e-02,3.771208182944130877e-02,4.145561502877544158e-02,1.102375507354736328e+00
3.643384656922400433e-01,-6.661335180484205809e-01,-8.089776837341537963e-01,3.692618358243105608e-02,3.954966125627747825e-02,4.645445824955415914e-02,1.115675210952758789e+00
3.239325725584352167e-01,-6.768116084771613750e-01,-7.094569303923394799e-01,5.934980427357926247e-02,5.675127324430383896e-02,1.679847135700522909e-01,1.067759394645690918e+00
3.928581309921609366e-01,-7.027042213362542089e-01,-7.668179271534840691e-01,1.220401308612894045e-02,3.092587512145362344e-02,1.274071716326745096e-01,1.151790738105773926e+00
3.738828827958246559e-01,-7.787894273141384716e-01,-7.815720036044929708e-01,-2.155520216186149890e-03,3.133999884367181209e-03,9.312471791896834465e-05,1.154084920883178711e+00
2.901693923911154438e-01,-7.780389171278268012e-01,-7.679286405240794977e-01,-1.848000720380198539e-02,-2.113584120880992318e-02,-6.502678022133956577e-03,1.064360260963439941e+00
3.640200296511043043e-01,-7.434147523330625340e-01,-7.719440316107689659e-01,8.247093138222553674e-03,5.816167725019135565e-03,2.054452322971977996e-02,1.122671723365783691e+00
3.752689853380516971e-01,-8.362974475717841472e-01,-7.530904046205102453e-01,7.318941265945055896e-02,2.476584030473207021e-02,1.897211073680694637e-01,1.224703311920166016e+00
3.604789244563131878e-01,-7.866775369690042208e-01,-7.736042138088594644e-01,-3.033760654794173239e-03,-5.048915825124132388e-04,2.335090492679554820e-04,1.140688538551330566e+00
2.925785557293649197e-01,-7.175212398018644411e-01,-7.498341005743882626e-01,-9.805316754044295438e-03,-4.666157879538897213e-02,1.529318448046514123e-01,1.063470602035522461e+00
3.678897558438759541e-01,-7.796567980955186883e-01,-7.802962825615806786e-01,-3.852008643969010142e-03,3.333393557320879150e-03,1.482083632800192813e-03,1.147903203964233398e+00
3.443778412851122295e-01,-8.528687391395650685e-01,-6.160501136619637164e-01,-3.135535881067009773e-03,7.144764089529123327e-03,9.604380450013468018e-02,1.110769152641296387e+00
-5.857171345310829835e-03,-8.054282947232529466e-01,-7.368787531384161094e-01,-5.465545988677463635e-02,-2.654148358737669702e-02,2.376734525931837802e-02,7.758688330650329590e-01
4.693660441461354194e-01,-5.766821051637142093e-01,-9.624123897570837638e-01,-2.457130827244675617e-02,-3.902266154821366906e-02,-5.847915643071379677e-01,1.636710166931152344e+00
3.541069205342498583e-01,-8.041218302946662178e-01,-6.429692483515094814e-01,9.832598406986556988e-03,2.685161608340764193e-03,7.318175769917061035e-02,1.094162106513977051e+00
2.836510848157003384e-01,-7.973882662720533920e-01,-6.655494031968240964e-01,1.883202802231226380e-02,6.006785902765914009e-02,1.012005609739556888e-01,1.042169690132141113e+00
3.252088022400250189e-01,-6.996172963780860066e-01,-7.473789743814156505e-01,-8.845951832625575592e-03,1.153357688230958328e-02,-7.731365655027777270e-03,1.049909591674804688e+00
3.172213157701970210e-01,-5.060268357619845947e-01,-8.854748261963056866e-01,-2.123594068586853734e-02,5.995937472048053218e-03,-3.151323654983568395e-02,1.067023038864135742e+00
3.707762821614183912e-01,-8.398402810735583479e-01,-7.699550106201087374e-01,2.292084576091727582e-02,-1.281302798634562133e-03,2.330157578301696522e-02,1.178593277931213379e+00
5.207377987585098955e-02,-7.305452666491154545e-01,-7.818254394198156376e-01,-4.611021294028990261e-03,1.570759162750100593e-02,-1.769483377286182324e-02,8.105543255805969238e-01
3.545779974537633383e-01,-6.204542381847144572e-01,-8.792148694969690315e-01,-3.319171541456723828e-02,-1.755125255651787675e-02,-1.231435608144750699e-02,1.128994703292846680e+00
1.010120636543758166e-01,-7.323267140087346139e-01,-7.669491126593870334e-01,-1.938954865698533023e-02,2.879418135460453873e-02,3.917961696390927923e-02,8.559933900833129883e-01
8.811333195491288794e-02,-8.028048564866270276e-01,-7.522835083424468383e-01,5.212751182789213816e-02,4.635948129068364482e-02,2.590750264288602459e-02,8.762934803962707520e-01
2.892344277378819384e-01,-7.718184824306029146e-01,-7.592347908013165059e-01,8.647409314413443196e-03,2.578504411884325123e-02,-1.487965447084448403e-03,1.055871844291687012e+00
-1.027685675990308578e-02,-7.261890007283583470e-01,-7.104967600143453632e-01,6.080531844196954139e-02,-1.940535583899699254e-02,2.007920762591538719e-02,7.176163792610168457e-01
1.121720395722926589e-01,-7.404658607421692462e-01,-7.356330765428453766e-01,1.116232665274080431e-02,2.603005017187679654e-02,-9.902202935036705754e-04,8.516475558280944824e-01
4.059182724952976606e-01,-4.860811102116107119e-01,-9.218497821699678241e-01,-4.404332938386485569e-02,-1.081827636080679410e-02,-6.350915192824407862e-02,1.180056571960449219e+00
3.204624984507165597e-01,-7.797166491153690870e-01,-7.724834184995841291e-01,4.105714541030301180e-03,1.596220177972069564e-03,-2.096237220268624447e-03,1.096612930297851562e+00
3.702431852642932286e-01,-7.266871243188230967e-01,-7.793825558920544072e-01,-1.746874683663220259e-03,3.283363400519582337e-02,-6.722153492114119056e-02,1.131651759147644043e+00
3.286080099471975213e-01,-6.434748429651184765e-01,-8.321729396431731818e-01,2.240546171288854138e-02,1.950965456388352448e-02,-5.296169762726871816e-02,1.083994865417480469e+00
3.046580636392306474e-01,-4.841166130289721314e-01,-8.693693743672578078e-01,-3.492744126933442633e-02,1.284389896655504376e-02,-6.617825328583651356e-02,1.044871330261230469e+00
2.834877573969424858e-01,-6.535514616179194380e-01,-8.198650801776325991e-01,-2.174318811224103601e-02,2.373987545488626463e-02,-4.814040641690456312e-02,1.035184383392333984e+00
3.296271848631002754e-01,-8.155130045788923088e-01,-7.537028515097886627e-01,-1.032623314342496872e-02,4.292312517735315941e-03,-3.706731441822998935e-02,1.117534041404724121e+00
3.355894942291328675e-01,-7.153418728320619646e-01,-7.596149415407580374e-01,2.817634340966844128e-04,6.798921464125409417e-03,-7.711748117048090878e-03,1.073900461196899414e+00
3.529048888244115112e-01,-7.781135201156625936e-01,-7.813915718795420018e-01,-5.678531278089280453e-03,1.958312606761326759e-03,-1.388380378782243024e-03,1.132711291313171387e+00
3.295685769293871248e-01,-8.167324670841921153e-01,-6.208468685615322613e-01,3.598247080396101832e-03,3.453958648694385562e-03,-2.139044955241437354e-02,1.062676191329956055e+00
3.290297926564908493e-01,-7.699308250297101086e-01,-6.716836434004607170e-01,-2.815155336768885436e-02,3.810171891458959820e-02,-5.013012679815750938e-02,1.060032606124877930e+00
2.474829618030021661e-01,-7.788082271614245045e-01,-7.675668051010415827e-01,2.276353753002176294e-02,-2.816971103840944929e-02,1.683738785649201847e-02,1.023058414459228516e+00
3.682132462648549098e-01,-7.884986317593303262e-01,-7.756713540446071864e-01,-4.227606310085787848e-03,1.528648844732206566e-03,1.269694750703843304e-03,1.150380373001098633e+00
3.601546541197397366e-01,-7.469451010213244979e-01,-7.997398957471555381e-01,1.428697285072682774e-02,1.035575484136475391e-02,4.130509646324688304e-03,1.134853124618530273e+00
3.535786217145744925e-01,-7.655407232704620757e-01,-7.946068835672099873e-01,-5.362587580935298387e-03,6.566329354043425742e-03,4.072134660349195287e-03,1.134048819541931152e+00
3.563034633207722846e-01,-7.864958483520521071e-01,-7.273064757561366056e-01,1.058466899835381128e-02,-4.993172534675207469e-03,6.134626708040200917e-03,1.114619135856628418e+00
3.092698061972926626e-01,-7.702889818869602667e-01,-8.018421540156988048e-01,3.463537005691897513e-02,-1.065826633108947312e-02,-8.760643046760596686e-02,1.107912659645080566e+00
2.454519571942300749e-01,-7.160461192016425169e-01,-7.746601462330611199e-01,2.466998841470176285e-02,-3.257713419207297623e-02,-4.907744575473794307e-02,9.982519149780273438e-01
3.007676968470573975e-01,-7.970960444575432291e-01,-7.698510927657371550e-01,3.105046625284042187e-03,6.532619972093767387e-03,-7.582078138545333967e-03,1.084649801254272461e+00
3.562635613737531459e-01,-7.873289216185365147e-01,-7.763333349070731249e-01,1.108895108216661259e-03,5.282014198911993454e-04,8.311380135447594270e-05,1.138136506080627441e+00
4.020424428130499050e-01,-7.407847827893724313e-01,-8.706795963121074511e-01,-1.400189235773449149e-02,3.406933194246771629e-02,-1.318201578302258536e-01,1.235950708389282227e+00
3.747618579534182093e-01,-8.075502378519703317e-01,-7.649373395369574169e-01,-4.902028762054321670e-03,2.813835934275934168e-03,-8.482801321964394264e-03,1.161726236343383789e+00
3.593212729892730217e-01,-7.802738019086026267e-01,-7.821416336900762767e-01,1.046965933407694241e-02,-4.185653288722351699e-03,2.076532647575025144e-03,1.140702962875366211e+00
3.323000325483744799e-01,-8.240549286123231010e-01,-7.079170945353433497e-01,3.523837831197243996e-03,-1.334139048562071710e-03,-3.964974791474092444e-03,1.102922439575195312e+00
1.881149950180392993e-01,-7.442829439885374487e-01,-7.502586349178884673e-01,3.721404824042356691e-03,1.156423095525208056e-02,-6.064038610900329349e-03,9.356957077980041504e-01
3.052328187587214359e-01,-7.868981671382735410e-01,-7.507935048350418139e-01,2.061085796745633705e-02,-1.937679537091744481e-02,-1.016661925608021086e-02,1.075794339179992676e+00
3.714668239664419280e-01,-7.392411109852843332e-01,-8.254098293934311048e-01,9.589253651096802181e-03,2.639420026737239119e-02,-2.876205291557741919e-02,1.158297419548034668e+00
3.922730461885247100e-01,-7.446000307710760602e-01,-8.266347650917078571e-01,1.503149037034175531e-02,3.543487078110200278e-03,-3.832554543564637567e-02,1.182199358940124512e+00
2.776844500709854668e-01,-7.744168722106608005e-01,-7.783566823598710993e-01,4.746607864631307433e-03,9.456307581472081156e-03,-8.360158160501621888e-03,1.054335474967956543e+00
4.325668920375024262e-01,-5.310815311898317015e-01,-1.012983602312785614e+00,-5.453500258472847306e-02,-1.415379181047238255e-02,-8.509516404347189367e-03,1.278660416603088379e+00
3.655277002759652061e-01,-7.839674479122420436e-01,-7.760669260198247432e-01,-4.539287507690183653e-03,2.543657652041075162e-03,1.056678033858510527e-03,1.145602226257324219e+00
3.303840265572865476e-01,-6.139902714038018017e-01,-8.275580602264303032e-01,-7.090675289133617498e-02,-5.484605997924823367e-02,7.471981694752971581e-02,1.086277484893798828e+00
3.364319935308789367e-01,-5.638033894837755078e-01,-9.666527023775476346e-01,-1.710313746155439282e-02,1.900502841779161400e-02,2.471878394626214615e-02,1.157222867012023926e+00
3.075465091424524067e-01,-7.685623119276709936e-01,-7.850946620143101073e-01,-1.125214984482362200e-02,1.197880832260650279e-02,1.106599355323482775e-01,1.101644754409790039e+00
3.277192784857190788e-01,-7.488285982080061798e-01,-6.436593733684559115e-01,-5.128584646462219961e-03,3.350809924659237365e-03,7.135449365884265205e-02,1.035462737083435059e+00
3.564724208243169601e-01,-7.864247055149946597e-01,-7.197338704208966487e-01,-3.356861609374715838e-02,-3.263986086443819434e-02,1.855690049573272549e-01,1.159450292587280273e+00
3.492798678952960256e-01,-6.918642009633518830e-01,-8.061459025784466492e-01,-4.260533637621322089e-02,-9.285142710827589199e-03,6.207578289419873885e-02,1.110535621643066406e+00
3.454285250877672242e-01,-7.708523881437796543e-01,-7.792783984280176046e-01,-1.568648723071845719e-02,-7.074749121724041405e-03,1.110037584434720153e-03,1.120915651321411133e+00
4.330707247777858537e-01,-3.613243783775456075e-01,-1.059821221766698240e+00,-4.787876007679787299e-02,-3.280368665128308853e-02,2.305172003161898298e-01,1.357705354690551758e+00
2.552512151605971780e-01,-5.934882029302995798e-01,-7.094779623100766486e-01,-1.346682721875805573e-02,-6.548577817743544971e-02,3.878749299399129602e-01,1.138862371444702148e+00
3.410403294785241957e-01,-4.592522222770266671e-01,-8.533747607340025354e-01,-1.070994583661267208e-01,-1.424663340653529661e-02,3.021095139101707128e-01,1.191656112670898438e+00
4.359991184999292835e-01,-5.120566106961301767e-01,-9.905563967714423601e-01,-1.805697323420299427e-03,1.293863532912938041e-01,2.616188517379852141e-01,1.355352997779846191e+00
3.955170118770170440e-01,-6.072323522984495181e-01,-8.710498593578707149e-01,3.376827753910354585e-02,-5.396016038120030056e-02,3.328445280445408438e-01,1.297752380371093750e+00
3.249828954588634966e-01,-8.687109941779811439e-01,-5.189016685360716696e-01,-9.599158797566847631e-03,2.521525347872583759e-03,5.927376573735936710e-02,1.067961692810058594e+00
3.621680346663064820e-01,-7.790492515604582335e-01,-7.790032906960731029e-01,3.108354583371248248e-03,3.835785268545624516e-03,5.664991223438075414e-04,1.141226768493652344e+00
3.757194091608827557e-01,-7.786654837759665604e-01,-7.781388891793390439e-01,-1.553671923229713774e-03,1.690517549001966605e-03,2.241635374975065606e-04,1.154128551483154297e+00
3.448313227998487940e-01,-8.853315865841939747e-01,-5.778645324497246882e-01,-7.748441835993801971e-03,-1.181343314061794950e-02,1.085405177863832810e-01,1.124963998794555664e+00
2.710979612962009511e-01,-7.872105532759151592e-01,-7.688273065110422522e-01,-1.611000037597150325e-02,3.728008843242161530e-02,1.751831983511109711e-03,1.051597356796264648e+00
3.793072131010575831e-01,-9.144669638698930125e-01,-5.895526392951757622e-01,-1.332327241441750437e-02,-4.434999980987759660e-02,3.587166396842363797e-02,1.170191764831542969e+00
3.738838154224960464e-01,-7.789642993905205870e-01,-7.748096695392490130e-01,-2.674833372085857076e-03,5.920214889886631212e-04,1.104551719984279068e-03,1.150787830352783203e+00
3.645160130128275999e-01,-7.733987467764285029e-01,-7.825449597188817163e-01,4.950746033262119414e-03,-2.079675021827389789e-04,3.018707424306370777e-04,1.142547726631164551e+00
3.433904331105763763e-01,-9.035237115003930120e-01,-5.430668424790617843e-01,-9.237741897530106494e-03,-1.085511822943990845e-02,6.136402559727088118e-02,1.116768240928649902e+00
3.685903790459753027e-01,-8.733199575762681244e-01,-6.471056111676266598e-01,-3.185960431604850217e-03,8.952391904285667695e-03,2.163091870366097916e-02,1.146407842636108398e+00
3.713172900124526721e-01,-8.263033039300766713e-01,-7.185526389101759559e-01,1.822951188251864573e-03,-2.262222052994425012e-02,-5.718126208468508540e-03,1.148261427879333496e+00
4.325222852256485617e-01,-1.016082458316423187e+00,-5.726591012577219031e-01,-1.455838519992566464e-02,-2.573363144680130069e-02,4.326859874899910419e-02,1.288787722587585449e+00
3.641328778399372523e-01,-7.777494121736542310e-01,-7.876829540857940293e-01,3.741282164159772002e-03,4.670761348342564699e-03,-6.161424909383520073e-04,1.146928668022155762e+00
3.122138144073753896e-01,-7.644702182268203750e-01,-7.772890613834841922e-01,1.413555041179004323e-02,3.332393502604256725e-03,-2.439560100274651422e-02,1.084266066551208496e+00
3.840490354287475760e-01,-7.782696330815028762e-01,-7.980735018270764813e-01,2.165410579363677077e-02,8.714483303150765206e-03,-2.466959136973278371e-02,1.173820972442626953e+00
4.108431595208197895e-01,-7.657712295039795780e-01,-8.793108909855598121e-01,5.560136464984902216e-02,-6.010396255311431513e-02,-1.871040039772788044e-01,1.286872506141662598e+00
3.602728079001832340e-01,-7.753078738168942552e-01,-7.857758995555570447e-01,-2.397475873495067550e-03,-2.895800833884958504e-03,-3.737362326140322038e-04,1.140869498252868652e+00
3.512825554655049087e-01,-7.650986723348935925e-01,-7.117596192201838257e-01,2.266169667032270560e-02,-1.051382055598932587e-02,-8.837215020307258306e-02,1.102228045463562012e+00
3.608698577386846296e-01,-7.765860967624779176e-01,-7.861444476914156709e-01,-2.483709264904915889e-03,-2.926483327542914355e-03,-1.312600848824021192e-03,1.142286777496337891e+00
5.528550648158980785e-01,-6.457930125148119149e-01,-1.037409870210836971e+00,-9.560203477090944632e-03,5.216218580141045169e-02,-4.797787310882001277e-01,1.660882711410522461e+00
3.620470247110972872e-01,-7.714639100285232143e-01,-7.951009000969795348e-01,3.935315208806736652e-03,-1.392455323966892066e-03,-2.287530963264293329e-04,1.145535230636596680e+00
3.684174600441304515e-01,-7.775204170365141998e-01,-7.679311727801171328e-01,-9.986450701352988721e-03,1.713417312094284265e-05,-1.113910740277436863e-03,1.141306161880493164e+00
3.264758027041275157e-01,-7.771067478686990437e-01,-7.753863524889629266e-01,1.296474151376698566e-02,-1.203993184600135949e-02,9.306177962270534851e-04,1.103150248527526855e+00
3.624705555392199186e-01,-7.770922550273755558e-01,-7.893989761030499874e-01,7.284050134562040682e-07,1.969590587977020600e-03,-3.501321227995853047e-03,1.145786881446838379e+00
1.461073246900372324e-01,-7.429226964977420078e-01,-7.312427461232301473e-01,-3.078388040429379593e-02,3.137163111216639821e-02,-1.394963075255422312e-02,8.868518471717834473e-01
3.749766627928937668e-01,-7.763986270312499549e-01,-7.784384260628415264e-01,1.043177532580544936e-03,-1.442547171203531790e-03,-8.732489832817624071e-04,1.152401685714721680e+00
2.728931209358787524e-01,-8.098796673799806278e-01,-6.985336561488656448e-01,3.244817549804934753e-02,-2.303266383482655000e-02,-1.928271313508219190e-02,1.034455418586730957e+00
3.631186115864899477e-01,-7.700532434741724774e-01,-7.582746766354886425e-01,-5.572391246832254612e-03,-4.341075243091328979e-03,-1.444542118235047235e-03,1.127397894859313965e+00
3.579415864784352697e-01,-7.921242165358012288e-01,-7.478054272019434290e-01,-7.282450206813108513e-03,8.683248239333014526e-03,1.899812067915779192e-03,1.128734707832336426e+00
3.541240012231514078e-01,-7.612622954362274763e-01,-7.850177127726648552e-01,7.040329653669537453e-03,-8.967665611324735289e-03,-8.045475777950856361e-03,1.127710700035095215e+00
3.622400217306956938e-01,-7.634551570531260545e-01,-7.774017445636340895e-01,3.086842342455281378e-03,-2.135215948173346898e-03,-4.246086273221107675e-03,1.132775425910949707e+00
3.575967357411581893e-01,-7.713640751887018698e-01,-7.885196925821429392e-01,3.180534289628477503e-03,8.037790594961704855e-04,1.550966685915694879e-03,1.137652993202209473e+00
3.655047278450960224e-01,-7.711451468492236394e-01,-7.889787216551256144e-01,-2.584449149190714851e-03,4.696723642669806999e-03,-6.529645550633529378e-04,1.145708918571472168e+00
3.687294153128857221e-01,-7.828468685346385847e-01,-7.777387754225558725e-01,9.591047348929787955e-03,-3.988094474319707830e-03,1.388735835818201642e-03,1.149174094200134277e+00
3.641549625066480278e-01,-7.685093206043192016e-01,-7.878920246915156467e-01,-1.083227176952697261e-03,2.508905017319677452e-03,-3.225019903513345713e-03,1.142502427101135254e+00
3.612937077698568089e-01,-7.586923838227555006e-01,-7.664813797856764310e-01,1.371779652933141636e-03,-4.806547728620607848e-03,5.319417218673793378e-03,1.123971939086914062e+00
3.612676377783751724e-01,-7.791089505847361707e-01,-7.798600857969432143e-01,5.469091080832116751e-03,-1.433080403191141702e-02,2.048883889679455582e-03,1.141067147254943848e+00
2.996732003530069854e-01,-7.968453421270467185e-01,-6.932383330194965554e-01,-2.552252227191522185e-02,1.410032769327177783e-02,-8.593969919155777792e-02,1.060277223587036133e+00
3.222830755991173968e-01,-6.453564302435079725e-01,-7.914644362078677720e-01,5.071828056302123827e-02,-3.452807029308428005e-02,-5.999507259705430529e-02,1.058841586112976074e+00
3.426747808485891555e-01,-7.125380785770283332e-01,-7.624020326055341856e-01,-1.401793256407592170e-02,-1.351655759701979667e-02,1.500253645518454318e-02,1.081845879554748535e+00
3.668202106320382350e-01,-7.935267839407906809e-01,-7.406113607753395112e-01,9.915648355994278323e-03,3.822518547288708286e-03,-1.521661943597682302e-02,1.135270118713378906e+00
3.357081480057758638e-01,-7.140229933567669995e-01,-7.607063019790605285e-01,7.599725394971780588e-05,5.829577921089382567e-03,7.566361013758044797e-03,1.073961615562438965e+00
3.432333500721809205e-01,-7.336870094497305317e-01,-7.660953564511232550e-01,1.682800031628624987e-02,-1.706639298018300735e-02,-5.744062325110789458e-02,1.098785996437072754e+00
3.641837904040835516e-01,-7.647591589710360793e-01,-7.922037350570469982e-01,3.358961505225470986e-03,-4.822670387384745956e-04,2.448297618199578763e-04,1.142927646636962891e+00
3.272866224229898924e-01,-6.807382807724760010e-01,-7.596869595852626666e-01,1.291643248915916135e-02,-1.324809641104812523e-02,-3.093821801357387810e-02,1.051583528518676758e+00
3.345439465245996780e-01,-7.293295568828424003e-01,-7.432256401320211925e-01,-1.047179603503657120e-04,-9.064767890897405811e-03,2.653036112356138825e-03,1.071014165878295898e+00
3.149040404483966493e-01,-6.053106987050878018e-01,-7.970946032731922593e-01,1.001546765887713006e-02,-1.098361895440497400e-02,-8.971625464104143743e-02,1.041570186614990234e+00
3.591817598183907334e-01,-6.645210269603921693e-01,-7.737250777177772099e-01,1.907671904731204210e-02,-4.177152841887689372e-02,-2.629477992048314117e-01,1.177045583724975586e+00
3.679430518745457346e-01,-7.774754192515855866e-01,-7.836533906117049142e-01,-1.167233270044086427e-03,-3.480973595966854045e-03,-8.287596340378303606e-04,1.148538470268249512e+00
3.617434943290316895e-01,-7.792606868616858140e-01,-7.818956838290626044e-01,-4.504679182828401005e-03,-4.713135927614170613e-03,-1.650800276471703397e-03,1.142383337020874023e+00
4.108949619401200959e-01,-7.987250186455767675e-01,-6.434208826956150373e-01,3.473752818053153779e-02,-2.368347893165423379e-02,-1.520676497580865094e-01,1.172227501869201660e+00
3.462569999606227578e-01,-8.458727637401419752e-01,-6.109782253279587572e-01,7.784644245832914207e-03,-5.726043379327915538e-03,-6.167613834285290420e-02,1.099097847938537598e+00
3.392722910871683317e-01,-8.490413305639492592e-01,-5.990562284965625928e-01,2.730665719558397417e-03,1.201386580732933564e-02,9.662337432067491169e-03,1.085475325584411621e+00
3.349824540387591476e-01,-7.890951128674537074e-01,-6.170317818471486859e-01,-1.848293723538262101e-02,-7.514645686303246357e-03,-5.712126287226002019e-02,1.053910017013549805e+00
2.938680354648676718e-01,-8.006722855670513894e-01,-7.519476856195134173e-01,5.046183600229235330e-03,2.460494650873735339e-02,4.392597065935639582e-03,1.071919798851013184e+00
3.671892814672726990e-01,-7.505297694982525636e-01,-8.110831264704758681e-01,7.241165214745743685e-03,-7.859582272036865630e-03,7.071879381847224729e-04,1.149342536926269531e+00
3.451138297706842772e-01,-6.793453172338327350e-01,-8.005841964140452127e-01,-2.461375798924551189e-02,-1.749341244506234794e-02,1.412248073450426793e-02,1.091674685478210449e+00
4.319113504076240173e-01,-7.444660730527450365e-01,-7.870481810627215635e-01,1.050911495029382622e-02,-2.954905081213113002e-02,-2.362789833432187570e-01,1.267360925674438477e+00
5.166166819500146445e-01,-6.052750697324933427e-01,-9.848696690606091320e-01,3.990606088314177513e-02,-2.113149073366594674e-02,-1.631012405878910498e-01,1.383661985397338867e+00
3.178193645030399916e-01,-7.125383914380216677e-01,-7.258586573657410668e-01,-2.585171134549554372e-04,-3.330698660283400864e-03,2.291103189664525034e-03,1.037105798721313477e+00
3.529385750009841893e-01,-6.107813467974153587e-01,-8.675383458087051469e-01,8.811918401258467606e-03,-8.419118689446413763e-04,-2.293104023791534517e-03,1.114617824554443359e+00
3.273778436698140948e-01,-7.302027249992817381e-01,-7.255386224654898353e-01,3.250534089480275747e-04,2.663268529931387936e-04,-1.991106424094546672e-03,1.055262088775634766e+00
-1.163729650157269147e-02,-7.150432520971192751e-01,-7.947098058949694233e-01,4.163990941330027867e-02,1.020499003407575739e-01,-8.398203104676699171e-02,7.840712666511535645e-01
3.203131628233245043e-01,-8.192952493030214445e-01,-6.038096006734179344e-01,2.034549656952074070e-02,-6.638468165466811927e-03,-9.819321792868274112e-02,1.062954306602478027e+00
3.385382179883735798e-01,-7.949029779973991738e-01,-6.665149575568243279e-01,1.661666244633059134e-02,-4.525987747080244955e-02,-8.632441780734793901e-02,1.088568568229675293e+00
3.364844427852171638e-01,-7.838292439223676356e-01,-6.780360553678683733e-01,2.007509272414658916e-02,-1.334852540565000314e-02,-5.609793726568362837e-02,1.076549053192138672e+00
3.687495775753715788e-01,-8.446442441341746044e-01,-6.431891177532439441e-01,1.158617970108867350e-02,-1.323252502980201174e-02,-5.574898417059211825e-02,1.130803346633911133e+00
3.602648393088802026e-01,-7.546433143842321556e-01,-7.693087515084799932e-01,8.868104271880950396e-04,-1.479837183492199032e-02,2.897525332322389412e-03,1.122617602348327637e+00
4.409188834953318148e-01,-9.132289171931473604e-01,-6.322551793133168729e-01,-6.477784290413660453e-03,-1.954559897634223706e-02,-1.544087446937700281e-01,1.266878366470336914e+00
3.450563414537524687e-01,-5.234773025289136683e-01,-6.535697225647494335e-01,-2.646028807187153845e-02,-1.360456474504665413e-02,4.197539210220571082e-01,1.189747929573059082e+00
2.960744131298373438e-01,-7.912937791625145323e-01,-5.021424906676393851e-01,3.519336534696503038e-02,-2.627482357924931788e-02,-1.772504280071866556e-01,1.025477528572082520e+00
4.610107408744089086e-01,-1.149400793109647934e+00,-3.344916164288050386e-01,-1.845488600018878322e-02,2.111502275500082293e-02,-2.741986978569871738e-02,1.396344542503356934e+00
3.749548531832759268e-01,-1.076255773403886451e+00,-1.720374983216365894e-01,2.610083980431887173e-03,5.104616387774300185e-02,-6.195812459810323691e-02,1.277014374732971191e+00
3.637845421929185030e-01,-7.650836345059803811e-01,-7.900450053774386028e-01,-6.082386113426353769e-03,-2.693630553051930450e-03,8.079180120195044498e-04,1.141612529754638672e+00
3.649092464284102721e-01,-7.546689339448308109e-01,-7.911987216312579285e-01,5.780849077631411946e-03,-5.783808956123025029e-03,-2.210427481848939706e-03,1.138377308845520020e+00
3.569043120910095346e-01,-7.304267996860063228e-01,-7.872712724973920384e-01,-3.949153406522461912e-03,1.253721144732888523e-02,3.915190356218370589e-03,1.117091417312622070e+00
3.562923086200552869e-01,-7.814113507159341498e-01,-7.592432634967694050e-01,-1.132291937396178588e-02,-9.685696002327614379e-03,4.102007458625564137e-03,1.127101063728332520e+00
3.150625968744393823e-01,-6.627672583618695601e-01,-7.560804572035779714e-01,1.095483881344184660e-03,-5.332959684654708758e-03,2.154909675313398942e-02,1.028389573097229004e+00
3.485040200494546880e-01,-7.782276898618455396e-01,-7.818248602747935871e-01,-5.901398620777002259e-03,-5.411086908011140950e-03,-2.600156521422692518e-03,1.128628730773925781e+00
6.568550224710176799e-01,-1.147935869409736798e+00,-2.944554880712226819e-01,-2.956949052141970812e-03,1.013426710082795390e-01,-1.066201322820005126e-01,1.584388256072998047e+00
3.226105225546313515e-01,-5.981996710842669707e-01,-7.836339926064698203e-01,-6.668949718293773823e-03,-1.209366904821216650e-02,1.237810597474089253e-01,1.048601269721984863e+00
3.578827489343475721e-01,-7.769388081612615959e-01,-7.866812595858415635e-01,-4.157457270102517428e-03,5.975413960731921700e-03,-2.432875176653725210e-03,1.139801502227783203e+00
3.149100927333374211e-01,-7.114210901898034844e-01,-7.197139143751414281e-01,1.019134169427663757e-04,2.757541114729815130e-03,5.145922624737355421e-03,1.030552268028259277e+00
3.307774983351153830e-01,-7.588318257162437463e-01,-7.004804282962451278e-01,-1.388326979594570534e-02,-4.070030955278290716e-06,6.746660520395784434e-03,1.061973571777343750e+00
3.143438972110623175e-01,-7.126658893135198181e-01,-7.194070207647225157e-01,-3.873163784383736995e-04,-5.953753657763514659e-04,2.780045536708771695e-03,1.030408859252929688e+00
3.522657123041587068e-01,-7.161582774560607545e-01,-7.876236642075937766e-01,4.708608558054665390e-03,-1.246116639246678051e-02,7.135307265975814744e-03,1.106199622154235840e+00
3.232871121395738401e-01,-8.066026619238941819e-01,-6.240026903328047547e-01,-1.526363553604971612e-02,2.960119290711338454e-03,9.349901010545572100e-02,1.063309550285339355e+00
3.480589682756582981e-01,-7.630220291960729817e-01,-7.533173141277130780e-01,-4.767730563279768720e-03,-1.247584477819557031e-02,3.051947910473968087e-02,1.107764363288879395e+00
4.290535337996555509e-01,-8.321894390156059362e-01,-6.216902356036626554e-01,-2.640936928506789488e-02,-2.903812335936939784e-02,2.796325562727140501e-01,1.268368363380432129e+00
3.284106735074804329e-01,-7.282315098825851152e-01,-7.256837812837553248e-01,2.087106121836967195e-05,8.662165833973084483e-03,4.265221154520259898e-03,1.055503129959106445e+00
3.146968177624487328e-01,-8.339847303327261319e-01,-4.882838646589744425e-01,1.469481986993720866e-02,8.155252779058807036e-03,2.023982103525804044e-01,1.079639077186584473e+00
3.410511699836387134e-01,-8.050850487528830035e-01,-6.347398276897635583e-01,-7.521861943426018236e-07,-4.892184626745764604e-03,7.945719038706038073e-02,1.080008864402770996e+00
3.140530595807662362e-01,-7.880036366919508373e-01,-5.879345260698027875e-01,-1.071968734405433742e-02,-1.185597179784776689e-02,1.018605022855015446e-01,1.032454490661621094e+00
3.498800490211947944e-01,-7.575632312059097373e-01,-7.414089217287176403e-01,7.906640988318380629e-04,9.938472925117158505e-03,4.453405609790586639e-03,1.099617838859558105e+00
3.517775477936570527e-01,-7.384256230768766471e-01,-8.451545097453938560e-01,2.758720176779883362e-03,-4.592216884779116298e-02,-5.180732361603745950e-02,1.153555989265441895e+00
3.521155579074694009e-01,-7.805653262071718945e-01,-7.820396677802308183e-01,-3.259270654140967180e-04,-1.797972575076140140e-04,3.764891237539870397e-03,1.133437752723693848e+00
3.191218299920738355e-01,-6.344274797107990471e-01,-7.842748499201472878e-01,-6.777874535578823400e-04,1.205264852265774261e-02,2.252817532224420105e-02,1.037572741508483887e+00
3.565794611418303117e-01,-7.043307748045111172e-01,-8.055546023917699028e-01,8.025101176737981651e-03,-6.306205190998460594e-03,6.524607143304145436e-03,1.115171074867248535e+00
3.310012552557267118e-01,-7.776432527581818022e-01,-7.802266666915655957e-01,-6.043745954470574298e-03,1.457095773846996296e-03,2.851145881789328429e-03,1.110001683235168457e+00
3.505581786512506071e-01,-6.985944844798768205e-01,-8.144171927957272183e-01,-2.821114893417546801e-02,1.833709671369612021e-02,-2.136172259061493162e-02,1.113740205764770508e+00
3.667457754091935640e-01,-7.593645250215639297e-01,-8.009865106440470228e-01,-2.770411355434350756e-03,-1.542805125964268704e-03,-3.312473022537489042e-03,1.147515058517456055e+00
1.438779705545694676e-01,-7.285472318454437879e-01,-7.681550136428529907e-01,-1.865662182478059969e-02,-3.014491942753616538e-02,-4.461169271406725118e-02,8.983263969421386719e-01
3.459740464809775706e-01,-7.750300836175960661e-01,-8.285033301228403868e-01,1.864501195140365677e-02,3.326792682467435286e-03,-3.099437636953510794e-03,1.149155497550964355e+00
3.112203580599169905e-01,-7.680457648137413162e-01,-7.763306746429100569e-01,-4.964619592525756735e-03,-1.223944711659983621e-02,-2.129998565569991148e-03,1.083680152893066406e+00
3.449580744630643681e-01,-7.675521871033640364e-01,-7.676058821910194396e-01,-1.429189509772754545e-02,-9.544254773292425165e-03,1.847205600097595254e-02,1.113395094871520996e+00
3.157139368636583954e-01,-7.179286272996037166e-01,-7.154164109595129162e-01,5.376145988999068114e-03,2.325639017112472577e-04,8.893495269073457485e-03,1.032545685768127441e+00
2.943024517945225238e-01,-7.549990721190917853e-01,-7.551954377145488895e-01,-7.695117706205663408e-04,1.189442933739660434e-03,1.613017287657687523e-02,1.049774408340454102e+00
2.501294018804817720e-01,-7.597798288996886473e-01,-7.611832440907957409e-01,1.905812182076178224e-02,5.866974007378580012e-03,2.949655115561668553e-03,1.011214613914489746e+00
3.638844884358191090e-01,-7.840410428078439242e-01,-7.705113813004991208e-01,1.700258843949000050e-04,-6.653036771863852106e-04,2.826332725760748350e-03,1.141232013702392578e+00
3.666930813679983858e-01,-7.713680792846286938e-01,-7.717764934987438874e-01,-5.570518408027984661e-03,-4.505173619933799944e-03,6.360554628108221718e-03,1.138386368751525879e+00
3.656830028301709112e-01,-7.748359340411989926e-01,-7.829647676720208338e-01,-7.071308300175290331e-04,-4.455253058090386832e-03,-1.107853394814867654e-03,1.144633293151855469e+00
3.286270392476703939e-01,-7.289532406020395872e-01,-7.258584094515094787e-01,7.884422081952183192e-03,1.152205807409502000e-04,4.485947528023503071e-03,1.056153178215026855e+00
3.400741701793080773e-01,-6.299725305283373489e-01,-8.268006449979321548e-01,-6.404621222882518616e-02,-4.374027585375923899e-02,1.148131561024303138e-01,1.108267068862915039e+00
3.488493415313542179e-01,-7.433994940503618754e-01,-7.550838766913536837e-01,9.382040730749330315e-03,-5.078532348592423558e-04,4.951645524374154519e-03,1.098291754722595215e+00
3.147391125997295869e-01,-7.556253179056791058e-01,-7.368488414376550555e-01,-9.142573626309730833e-03,-3.223417445582982960e-02,5.034589524814368777e-02,1.066258311271667480e+00
2.835414341763530799e-01,-8.063973563935060707e-01,-7.118166072612526207e-01,-5.918784900940169541e-03,3.028763152095950706e-02,6.975996493942643317e-02,1.054173350334167480e+00
3.608356615079438279e-01,-7.796527336608628511e-01,-7.460194451316982667e-01,1.078386675234940806e-02,8.600028350363784005e-03,1.582638063530054581e-02,1.124637126922607422e+00
3.292371255128508922e-01,-7.540471928961753889e-01,-6.783418248559272001e-01,-3.234489830707997643e-02,-3.855991284442937539e-02,6.482844922161834500e-02,1.057087063789367676e+00
3.783414233228114543e-01,-9.041172162165242998e-01,-6.104765244822845105e-01,1.359762101345566611e-02,7.509748457698466051e-02,4.488374698741515179e-02,1.173822879791259766e+00
3.453128160998704121e-01,-7.892017911629118920e-01,-6.195028671236914031e-01,-1.292006196184467687e-02,-1.031481136961399578e-02,1.486670252355355992e-01,1.091109871864318848e+00
3.325014005670062778e-01,-7.952953772058877213e-01,-6.952923698779800432e-01,-1.365113058399461052e-02,-2.885458525547366856e-02,4.999892566300263852e-02,1.086139798164367676e+00
3.468318122891508315e-01,-7.880554584752355041e-01,-7.501339096305934540e-01,4.255971632141902945e-03,1.871964337144226345e-02,8.093817593828704637e-03,1.116992712020874023e+00
3.803863113136858320e-01,-8.864417956828504197e-01,-6.477446087318732282e-01,-2.634860371792981104e-02,-6.625060070549168567e-02,9.435102642096376835e-02,1.183806538581848145e+00
3.680713682236058659e-01,-7.663059521768945670e-01,-7.735172421465958958e-01,-3.206542484693398532e-04,-7.521173757381814087e-04,3.292341273027370521e-03,1.138015270233154297e+00
3.629622104189741405e-01,-7.669421126930600074e-01,-7.607176001013445932e-01,-9.890298267873788422e-05,6.136473553904440471e-03,2.401784751197723995e-04,1.126855134963989258e+00
3.555397321462069327e-01,-7.713620355353705271e-01,-7.742222592041853035e-01,-1.058402332651011551e-02,-4.752534973382408628e-03,1.262295695890172133e-02,1.128725290298461914e+00
3.343222448707389161e-01,-8.252263697341150062e-01,-6.621685315925072146e-01,-1.898588093456372861e-02,-1.663526986457114498e-02,2.763816891652727536e-02,1.089160442352294922e+00
3.639857458609344065e-01,-7.138672385010869093e-01,-8.140350477732725132e-01,-7.175238322720606764e-03,1.055248661994075826e-02,1.435817021132317290e-03,1.131486415863037109e+00
3.741305843800219466e-01,-7.763173326587081702e-01,-7.812285987151083022e-01,-1.634172101793504323e-03,2.585781524133653683e-03,-9.767030529943589721e-05,1.152923583984375000e+00
3.754436888134239925e-01,-8.415145283295777379e-01,-7.456867048078135163e-01,-1.562389832299347463e-02,-4.146700264884537607e-03,4.173468815548740662e-02,1.174547195434570312e+00
3.566512309110383971e-01,-7.565261466169912463e-01,-7.882280008230166946e-01,-5.282147717229162404e-03,-2.766472139727030148e-03,9.066717090771487728e-03,1.129518508911132812e+00
3.653352650965069337e-01,-7.685059434512836463e-01,-7.692188425663896156e-01,-5.567670389093077460e-04,8.337490098663951493e-03,2.733982603546494285e-03,1.134299993515014648e+00
2.901564881022930531e-01,-7.969908440311335163e-01,-7.732570836005323578e-01,1.529947049718767983e-03,1.809785577628434945e-04,5.432798040928984128e-04,1.075480580329895020e+00
3.728727506382953361e-01,-7.765919929899691709e-01,-7.774942367813669764e-01,-5.836368407272725291e-04,1.230356161674524187e-03,-1.609058967700389888e-03,1.149921894073486328e+00
3.150365264401772114e-01,-6.029792746193619601e-01,-7.930686481360365025e-01,3.935678570993727740e-03,2.478048685719045144e-02,7.688280051415349869e-02,1.035863757133483887e+00
3.715852770118218129e-01,-7.399553579453155283e-01,-7.951943166931506601e-01,2.972644300995858860e-03,2.051991078312302014e-02,2.177338253369984905e-02,1.141352772712707520e+00
3.555175528842424715e-01,-7.306548174252991412e-01,-7.835317558072305566e-01,-3.984472542480968320e-03,1.458577800084985901e-02,4.792166198100114051e-03,1.113891601562500000e+00
3.731322751176376906e-01,-7.763172747744558899e-01,-7.851281050046736709e-01,-7.069641360635287464e-04,-7.227001540461272565e-04,-1.107845238687799223e-03,1.153883099555969238e+00
3.598009375160862722e-01,-7.637022560077515454e-01,-7.600399239093631465e-01,3.736242316322651528e-03,5.476922598772247450e-03,-5.313574555987838159e-06,1.121735334396362305e+00
3.575213884197727121e-01,-7.283308331495722543e-01,-8.012533838401110220e-01,1.393947656744580141e-02,1.172270268380619547e-02,4.772667219457283477e-03,1.124561905860900879e+00
3.583368258435979392e-01,-7.783322439233280043e-01,-7.813836539914766899e-01,-4.862145855143516771e-03,1.049168741931871471e-03,2.677849375742941043e-04,1.138230562210083008e+00
3.569295219489125315e-01,-7.685904473516005364e-01,-7.876744423454171695e-01,3.993999389731910619e-03,6.476975923609909307e-03,5.611153407702046403e-04,1.135259151458740234e+00
3.544550750472168499e-01,-7.631015125537394805e-01,-7.840360469266287602e-01,2.078756247328440460e-03,2.117163584149848749e-03,7.171939408314511330e-04,1.128181934356689453e+00
3.736793942692201997e-01,-7.780798327808595705e-01,-7.780315993635009697e-01,1.360174781932064255e-03,1.388017628886266484e-03,-4.014791715182175393e-04,1.151740193367004395e+00
3.426128946090929439e-01,-7.739100412132071671e-01,-7.894171513817431762e-01,-5.185737227312651500e-03,-9.984864735572067211e-04,5.471117059337071882e-03,1.124433875083923340e+00
3.709311374889152635e-01,-7.751313950940931230e-01,-7.802653565572053029e-01,-7.691570601054693434e-04,-4.826078765209794973e-03,-1.591842590225061964e-03,1.148672580718994141e+00
3.636779196990280738e-01,-7.759526312455718999e-01,-7.882256532643724389e-01,3.459866457840789829e-03,4.601618191926011570e-03,-1.330980787416620459e-03,1.145862102508544922e+00
3.494460201219448114e-01,-7.928981481129204756e-01,-7.573689559163373497e-01,-5.609427841201184827e-04,2.096933977323062800e-03,6.590731952492879121e-04,1.125007271766662598e+00
3.492644407255991457e-01,-7.777715341410698091e-01,-7.751523033886629221e-01,5.799351060265233240e-03,-4.612592682142835159e-04,-5.359922969784330568e-04,1.125774145126342773e+00
3.651798760139499667e-01,-8.004971234339326447e-01,-7.751402664907351969e-01,5.212115273591785098e-04,2.244097261111598996e-04,-1.570581518078595579e-03,1.153211355209350586e+00
3.563141018234049495e-01,-1.755343437706365362e-01,-1.066425497166173297e+00,4.111278443181910769e-02,2.283556567302415241e-02,1.177921982934079376e-01,1.264369010925292969e+00
3.480743585405397522e-01,-7.891236449923528795e-01,-7.588667272876725711e-01,-5.644749036219716583e-04,3.197295931312177288e-03,8.465662176513524383e-04,1.122390508651733398e+00
3.156450342717961877e-01,-7.110699123118517928e-01,-7.139272870408968075e-01,1.814315414497261886e-02,1.276980629009801319e-02,1.594562941392434902e-02,1.029235124588012695e+00
3.622069548764191849e-01,-7.906942746421183887e-01,-7.740215044033852410e-01,1.658803960577171768e-03,-1.756955823070131730e-03,-2.599785735960144679e-03,1.144672393798828125e+00
3.308123069097047009e-01,-7.199826167029896862e-01,-7.418879037406616028e-01,3.492388276500432600e-04,-7.790542494534179359e-03,3.721149552698066985e-03,1.062022447586059570e+00
3.414683747651983126e-01,-7.838707283163117712e-01,-7.692904001444353934e-01,1.156340398533865907e-03,-3.238166992938559287e-03,-5.606865076746934268e-04,1.118136525154113770e+00
3.146876147337294150e-01,-6.933202771144193477e-01,-7.359116949620667647e-01,1.376483584144655350e-03,-3.772709482780719874e-03,8.693821536789979668e-03,1.030097842216491699e+00
1.816102463638889497e-01,-7.469566220166714565e-01,-7.452654763727779574e-01,-5.857278056033923645e-03,3.978352660320112928e-03,2.955154807483549410e-03,9.278176426887512207e-01
3.471485340079403792e-01,-7.870184963036868098e-01,-7.701473576813195887e-01,7.351152461942918933e-04,-3.810653000038658963e-03,-6.846878514025082408e-05,1.125846385955810547e+00
3.488079047910439545e-01,-7.848449682076541478e-01,-7.697999601829846883e-01,-2.995105564816848750e-03,-6.080289999687410116e-03,2.410656858877404697e-03,1.126274704933166504e+00
3.681710697194126025e-01,-7.974934979669286994e-01,-7.742046744036901185e-01,-2.105069015803417813e-03,7.627856313520508082e-04,-1.242250072199569972e-03,1.154204964637756348e+00
3.550282655384121022e-01,-7.858219178053567067e-01,-7.713335032753381171e-01,1.226950428629072212e-03,-5.519355475559225774e-03,2.016508964430246791e-03,1.133723139762878418e+00
3.650607469086132872e-01,-7.874273152276174415e-01,-7.740491823807111871e-01,-5.333791355459481347e-03,-2.324727500018562536e-04,2.148679125023340332e-03,1.145900964736938477e+00
3.654052353072625992e-01,-7.791872906738991356e-01,-7.692236362799196314e-01,8.058584132476162565e-03,4.539456259665838292e-04,5.990818616415096234e-03,1.139776349067687988e+00
3.712763887312676148e-01,-7.676920378321152594e-01,-7.864395509832055042e-01,-2.047432556616686841e-03,9.166182071016416855e-03,1.512727256720266850e-04,1.148572206497192383e+00
3.664385357231033646e-01,-7.772653382127043820e-01,-7.838521899339302434e-01,4.397017745783749453e-03,5.249200288877983039e-03,-3.866091754562704956e-04,1.147073030471801758e+00
3.515851590022407991e-01,-7.801126582192512426e-01,-7.814831631646199650e-01,3.663910822497076347e-03,5.990509595210536872e-03,-3.438807263504509333e-03,1.132464647293090820e+00
3.290031599004836771e-01,-7.741459951843735476e-01,-7.769575296677343479e-01,-9.790121255688493535e-03,-2.955785076782875467e-03,-3.012314733100116080e-03,1.104711890220642090e+00
3.172184174125218803e-01,-6.955636071801607478e-01,-7.361534942203196152e-01,-3.594342593930251813e-04,1.097521387761889872e-02,1.839102014347373387e-02,1.034340381622314453e+00
3.528405737905341288e-01,-7.786039590910625030e-01,-7.820283416975846169e-01,4.302059157844086330e-03,-3.156447825522906703e-03,-3.199949609544711256e-03,1.133211851119995117e+00
3.212643971122153830e-01,-6.937522875029588088e-01,-7.433972146097288514e-01,1.346085422207539883e-03,-5.069105606934146135e-03,8.751993057660764630e-03,1.040877580642700195e+00
3.563746733819520007e-01,-7.756371343707406663e-01,-7.770774110947682445e-01,4.433501240774053755e-04,8.035206053832936839e-04,5.548834041116906639e-04,1.132734179496765137e+00
3.590421322708156615e-01,-7.766414160351569063e-01,-7.775675253767131423e-01,1.411735444171160342e-02,1.226744805787819380e-02,3.799099916290488372e-04,1.136608839035034180e+00
3.552838827966927071e-01,-7.730957514506238137e-01,-7.834285469712320982e-01,-2.878242407286965478e-03,-3.798279210588450649e-03,-2.014710526163197065e-03,1.133616805076599121e+00
3.402832239802171532e-01,-6.929109679343378181e-01,-7.852683878362312075e-01,-5.413465901804664915e-03,1.150494641419673100e-02,1.242425898412149489e-02,1.082770228385925293e+00
3.154058710665524345e-01,-5.560133695418494337e-01,-8.365135114825510421e-01,3.873503762601582939e-03,-4.490706612646810578e-03,2.253483923851982290e-02,1.041207909584045410e+00
3.538016241810628681e-01,-7.492037229066572657e-01,-7.599203824222581227e-01,-7.296661146256527364e-04,1.347620833662088041e-02,4.946905363769126505e-03,1.108682155609130859e+00
3.720339085429325565e-01,-7.777340306699650485e-01,-7.806929356430853950e-01,6.101541809174070995e-05,2.588761358774845089e-03,-1.059208062910768893e-03,1.151260495185852051e+00
3.713003997385200816e-01,-7.756377851566025328e-01,-7.816057252703914049e-01,-1.461009404037722642e-03,1.359675118589136417e-03,-1.475502450361761402e-03,1.149941802024841309e+00
3.357658709779497985e-01,-7.156359616630163512e-01,-7.499375113011578220e-01,1.164915107016856188e-03,1.468904293454556358e-02,1.060526402574265246e-02,1.069427847862243652e+00
3.345244711001189586e-01,-7.759546678237041473e-01,-7.811594189692903090e-01,-4.628426691169710595e-03,-2.236412539158417687e-03,-2.455597098424297693e-03,1.113134384155273438e+00
3.711612394912762181e-01,-7.742429005490727434e-01,-7.723570425605087442e-01,-2.504314250918977108e-03,-2.454387461045175276e-03,1.403529865892787524e-03,1.144481062889099121e+00
3.663711613389223354e-01,-7.710861675093356737e-01,-7.649685332370754764e-01,-5.396177227798659541e-03,-3.912836756825696996e-03,1.976262313549421133e-03,1.134474754333496094e+00
3.593405825671452392e-01,-7.617822020573141728e-01,-7.572164260893272658e-01,-4.797821224237199846e-03,-4.413313968541049750e-03,2.595867599752672839e-03,1.118912935256958008e+00
3.083666002857402555e-01,-7.011786512251947379e-01,-7.010474808118557499e-01,-4.116584828926062728e-03,3.329059285456339654e-03,4.332835945237848568e-02,1.012306928634643555e+00
3.669303752613728431e-01,-7.709360822728724694e-01,-7.798147355083453469e-01,-1.597799431339403005e-03,9.416835426379980287e-04,8.466402799796905396e-04,1.142337083816528320e+00
3.539774753047080225e-01,-7.853724517647115988e-01,-7.774823294858214107e-01,2.111230219424130305e-03,1.625858124691798978e-03,-6.039369099051771639e-05,1.135434865951538086e+00
3.655649659697768339e-01,-7.682693487023795065e-01,-7.729449314330034682e-01,7.741333854228754120e-03,-1.787983196908881712e-03,2.401709080253631567e-03,1.136270284652709961e+00
3.670670720693236522e-01,-7.695803250419633867e-01,-7.679174038846451333e-01,-5.324645281086816395e-03,1.120119805528726337e-03,-1.355270246370264466e-03,1.135858416557312012e+00
3.211762840582577661e-01,-5.843605575398151952e-01,-8.341904425146373647e-01,2.562956725000738525e-02,-2.351113239929156912e-02,-1.888228098271844610e-02,1.055149555206298828e+00
3.294500408669191471e-01,-5.529842402301996529e-01,-8.638342015524691497e-01,4.187275692794714677e-02,-8.223904701358338357e-03,-3.306174687792898248e-02,1.076273560523986816e+00
3.441491189647087334e-01,-6.745092958171610142e-01,-8.031143901455626288e-01,2.023593118302815033e-02,-1.772962069836207452e-02,-2.303900401063605288e-02,1.090400338172912598e+00
3.346738148995785367e-01,-6.539377112437025907e-01,-8.041048214247918935e-01,-5.478174806606657919e-03,-1.157765152886582743e-02,-2.438278547003104590e-02,1.072676777839660645e+00
3.583751805820533098e-01,-6.823150508972680717e-01,-8.367366274484733246e-01,5.913432938317345414e-03,-6.669747694037728505e-03,-2.347711505855717279e-02,1.126711606979370117e+00
3.451204587577070826e-01,-6.634422950541705166e-01,-8.169752041217888117e-01,2.029547164286508651e-02,-1.445694856826060942e-02,-7.506756282376575960e-03,1.094372153282165527e+00
3.588534411391381962e-01,-7.753453450846647943e-01,-7.897135772274896937e-01,-1.418924873464523593e-03,5.002209591717231719e-04,3.054855485475442816e-03,1.141466021537780762e+00
3.608576193007618227e-01,-7.724864508339933655e-01,-7.901835549715784390e-01,-2.522645749433369538e-03,3.123575113740522660e-05,1.291708282080010744e-03,1.142305970191955566e+00
3.709788492336317800e-01,-7.776782563518677138e-01,-7.819736563562544873e-01,-1.445514191324259561e-03,2.846974236831816257e-04,-5.449081981919159847e-04,1.150814056396484375e+00
3.643227064918053149e-01,-7.790157445935392833e-01,-7.741281191086841762e-01,4.662846487998729972e-03,-2.953252185571338638e-03,-6.444577739375871670e-04,1.140943050384521484e+00
3.590839566864513221e-01,-7.718327220126051103e-01,-7.914156392479040347e-01,-3.089789256044374408e-03,-2.502847458534319990e-04,-1.436551818906830254e-03,1.140849590301513672e+00
3.581565149437874740e-01,-7.642252756126981517e-01,-7.942736037717248454e-01,7.305864929795124162e-03,-3.841432301288726266e-03,-1.886622980653847531e-03,1.137798070907592773e+00
3.671980565494393223e-01,-7.703563422305768071e-01,-7.833745893733163879e-01,3.435167896008020638e-03,-7.769369706017817921e-03,4.323118769480078106e-04,1.144213914871215820e+00
3.517965788715729514e-01,-7.264923470413306994e-01,-7.894710317735800231e-01,1.437139997499769714e-02,-1.049752857757822559e-02,-4.905475306992750952e-03,1.111577630043029785e+00
3.140135863548996209e-01,-6.318506698848244119e-01,-7.834827363464428318e-01,2.249637128549242943e-03,-6.634371600387245146e-03,1.553701897125293885e-02,1.030507802963256836e+00
3.080016187733582433e-01,-7.645028553537349669e-01,-6.189654427478600285e-01,-5.521425451874432781e-03,-1.405321166798607435e-03,6.319305538370659225e-02,1.013624668121337891e+00
3.654236728808778478e-01,-7.663522245052010184e-01,-7.870007705385455576e-01,4.133437790251845087e-03,-3.148171344841518577e-03,-3.475735487043509018e-03,1.142291426658630371e+00
3.554213631831296127e-01,-7.471188058643006835e-01,-7.731618881885662375e-01,1.290790299823456680e-02,-1.505335944537071480e-02,-1.417237184464727705e-02,1.116587996482849121e+00
3.661321611936928511e-01,-7.670021648127296476e-01,-7.870690592540960928e-01,1.060189331360458787e-02,-1.036544329301201071e-02,-7.620021578110927445e-03,1.143664360046386719e+00
3.121070288919531865e-01,-6.329519801989615946e-01,-7.831412498523675492e-01,3.328197322681169515e-04,7.858346257819615044e-03,2.257215187542319090e-02,1.029244899749755859e+00
3.571860677900433600e-01,-7.031873143248094093e-01,-8.141201026334871083e-01,7.989802411058516060e-03,-1.294488517053882237e-02,6.352913114652972842e-03,1.120331764221191406e+00
3.353753519565639274e-01,-7.324644183310962120e-01,-7.342928154703172172e-01,-7.291042385652302810e-03,-6.956679555160770120e-03,1.125769954671170317e-02,1.069075465202331543e+00
3.449468663551523706e-01,-6.530718969265756346e-01,-8.181620142866093959e-01,7.295166624988711455e-03,-7.726836653484211136e-03,1.260855530480960163e-02,1.090355396270751953e+00
2.211600466180160818e-01,-5.501806086880385305e-01,-8.472499909609318980e-01,1.529902078821325784e-01,5.460393190512166650e-02,2.246981709801540716e-01,1.069106578826904297e+00
2.606629823291340409e-01,-7.626975909786689600e-01,-7.609143720842190817e-01,-9.053288325336078871e-03,3.895220359329048740e-03,3.457850575959419206e-03,1.022630214691162109e+00
3.414892056158735922e-01,-6.992280985565614282e-01,-7.823530000131653228e-01,-2.381835609181416277e-02,2.558071531584421229e-02,-1.214320252616955809e-02,1.086562991142272949e+00
2.250993380528122922e-01,-7.555712382335380006e-01,-7.577835628284317337e-01,-4.405700767571439809e-03,6.798371598292119074e-03,4.435442724306150157e-03,9.819089174270629883e-01
1.869887264349381351e-01,-7.608776694112971972e-01,-7.481691765751516954e-01,6.931267328530903160e-02,1.121976242034485732e-02,-1.220886090845513250e-02,9.496335387229919434e-01
3.314356435560125158e-01,-7.234467858245955396e-01,-7.397568395820447451e-01,2.229928382154848943e-03,-7.907568891318526166e-03,1.082865315820537300e-02,1.063391923904418945e+00
1.797054675901679777e-01,-7.496846895083711937e-01,-7.368476745195389199e-01,-5.910295973494169262e-03,4.226350202917640402e-03,6.350153308194804620e-03,9.231899380683898926e-01
3.267631797489740086e-01,-7.323924896128291007e-01,-7.202436499150572935e-01,-8.157005542703836889e-03,8.861523489544886455e-04,1.504188233024960838e-02,1.053551912307739258e+00
3.401564120260747170e-01,-7.387880154604012928e-01,-7.412953188933852910e-01,-7.786474232441687252e-03,-8.352175327975918870e-03,1.173263671561204993e-03,1.080383181571960449e+00
5.652242732000704040e-01,-6.067714964521133680e-01,-1.091783120330662271e+00,2.676174721251485533e-02,-3.253479373258696961e-02,-3.793274854756860659e-01,1.616859316825866699e+00
3.421071518836247827e-01,-8.642685580653235444e-01,-4.811585156027403665e-01,-2.778782226888290227e-02,7.506518480637228152e-02,-8.640879459888986536e-02,1.086996436119079590e+00
1.578935705912395959e-01,-7.455263208127469454e-01,-7.424835631112817191e-01,-1.709732698027875003e-02,-2.476073707798157053e-02,-4.680216612633636593e-03,9.034433364868164062e-01
3.364668601338079990e-01,-7.772254961710067800e-01,-7.800891020892573025e-01,-7.485437013325064309e-03,8.017558686469373683e-03,5.147757099282375057e-03,1.115324378013610840e+00
3.681233357658171834e-01,-7.671876373255550607e-01,-7.846874723677468300e-01,-3.203690575930661158e-03,8.276443276962362414e-03,6.089681719116972133e-04,1.144265055656433105e+00
3.266278377990924908e-01,-8.569262426047390413e-01,-5.565434529488552107e-01,-1.717398557604049233e-02,-2.709692176468685154e-02,3.522299100102394692e-02,1.068793892860412598e+00
2.996029646496692345e-01,-8.596058196013922625e-01,-5.264706721225932418e-01,4.474997510128640374e-03,-1.622566811147420698e-02,-4.312303973082129427e-02,1.036821842193603516e+00
4.163506712682113475e-01,-6.348189127790717645e-01,-8.686444368574073316e-01,2.963307941065795176e-02,1.081887700727931535e-02,2.020616544886974786e-01,1.237293124198913574e+00
3.448902110248612263e-01,-8.161492297506109939e-01,-6.596352234959445004e-01,-2.069421359992198312e-02,6.959058532626610089e-03,-1.498295315429365275e-02,1.092196822166442871e+00
2.562407565481639171e-01,-6.795031978428893726e-01,-8.270132282245261646e-01,1.066403343404787388e-02,-6.155817328043123975e-03,2.374409987819337681e-02,1.018603801727294922e+00
3.135728394856239776e-01,-7.488624430993970904e-01,-7.773475299234570146e-01,1.148127141238868866e-02,-5.776257207971457683e-03,6.249817541518810221e-03,1.077244877815246582e+00
3.380026809859210113e-01,-7.648312164961309501e-01,-7.243610687995511999e-01,-4.616389732213337961e-03,-1.170455576734325334e-02,3.058357989774255353e-02,1.084679484367370605e+00
3.680101962336974619e-01,-7.756005725019288199e-01,-7.814197004893449483e-01,-4.048009850438684734e-03,-1.035428332502588006e-02,-3.688147532537023828e-04,1.146693229675292969e+00
3.643782685238958763e-01,-7.669591982029186905e-01,-7.843737950911242596e-01,-8.483758412695019749e-03,-7.897060292376825025e-03,2.176672396223660808e-03,1.140327453613281250e+00
3.578721652465998715e-01,-7.336734739812653672e-01,-7.898425442220695647e-01,-1.330891941148085872e-02,-1.423125049611920385e-02,6.456670517550439428e-03,1.121250152587890625e+00
3.546939728204863695e-01,-7.523131702004129950e-01,-8.398895650286370973e-01,1.766006686701918071e-02,2.017742825864098435e-02,8.529750110218604214e-03,1.154321193695068359e+00
3.531607266984029270e-01,-5.767899073652912323e-01,-8.981546491989758074e-01,4.071265226494202860e-02,-8.843857579576973327e-03,7.633964578904615939e-02,1.135617613792419434e+00
3.760168864027716995e-01,-7.460827288495921472e-01,-8.143057430727229651e-01,7.330672878803268754e-03,1.945462849817379200e-02,3.711292611849277556e-02,1.160061955451965332e+00
2.604319220429457404e-01,-7.585060007698467555e-01,-7.660642520581313342e-01,3.380654442327022530e-03,8.276211352070373187e-03,-4.793161469001364430e-03,1.022888898849487305e+00
3.619092711626362147e-01,-7.657125864003697657e-01,-7.844849764128050129e-01,-1.893018328846897413e-03,1.447782291369435195e-03,3.553305862768977447e-04,1.137131929397583008e+00
3.240799879164438235e-01,-6.479986029878703757e-01,-8.065554623769415343e-01,8.021057375369314291e-02,2.814191815224672405e-02,7.969267134504888495e-02,1.079322338104248047e+00
2.989494475581859212e-01,-7.127990990834123242e-01,-8.579156207998637207e-01,1.177645334321807298e-02,6.820567237643830605e-02,1.251073682874627724e-01,1.119304656982421875e+00
3.413075000193138697e-01,-6.468947041138535248e-01,-8.219525011010192506e-01,-2.576209336291945817e-02,1.747123491517125343e-02,-1.923400697429343206e-02,1.088208556175231934e+00
3.656548361920756163e-01,-7.765651992280722116e-01,-7.873069280969822170e-01,3.686177885739788922e-03,1.718427064783803124e-03,-1.680675838621870912e-03,1.147653937339782715e+00
3.424465288088815451e-01,-6.385717077395793861e-01,-8.056815200480891281e-01,3.695805727611676389e-02,-9.850247968594924228e-03,1.113626087590741387e-01,1.093551039695739746e+00
3.506377105671910632e-01,-8.077536282083750407e-01,-6.891778936948573797e-01,1.492694326781822921e-02,-8.330854878109032052e-03,1.816700493113353621e-03,1.104291677474975586e+00
3.541551817454959838e-01,-7.802850947949602212e-01,-7.790327779234396122e-01,1.405669761209415308e-02,-4.725784529048422493e-03,-8.483011269949698599e-04,1.134106516838073730e+00
3.659847206750426740e-01,-7.743896800441754102e-01,-7.864742321956106341e-01,2.746262445910606365e-03,-2.305421978729636171e-03,-1.851995995454345416e-03,1.146485805511474609e+00
4.078046350052525471e-01,-6.270883617574758429e-01,-8.723921861050010218e-01,-8.639533039457596500e-03,-2.126587689872825628e-03,8.088912150499563691e-02,1.185287833213806152e+00
3.369917760391061834e-01,-6.078192314734406354e-01,-8.550112384036687718e-01,5.202727088901727866e-03,6.904334488445903334e-03,-4.500090110298474166e-02,1.092529535293579102e+00
3.793791215104219683e-01,-7.297382270586671993e-01,-8.202786178161460828e-01,-2.186125139694218220e-02,4.414845485465751507e-03,-8.804385428655726875e-03,1.157792568206787109e+00
3.661433190202040833e-01,-7.559983478600058593e-01,-7.981267630091625209e-01,-6.357493930935266893e-03,7.676887582327436566e-03,-1.302107155402476091e-03,1.143920421600341797e+00
3.554883688855521862e-01,-7.610479472263931289e-01,-7.893618878175634457e-01,-4.454883983212970001e-03,-3.774466263110895243e-03,1.668906159946040085e-03,1.131008028984069824e+00
2.653766180324172996e-01,-6.739349938637990700e-01,-8.164781918054162535e-01,-1.166024826504139314e-02,-4.392248862154631006e-02,6.177261697683462255e-02,1.026723146438598633e+00
3.350243789718886367e-01,-5.768651626701256641e-01,-8.551079551415536883e-01,-2.628032453664996479e-02,9.874379030709095825e-03,-1.070889051083471696e-02,1.079535484313964844e+00
3.662102755385691077e-01,-7.805859813648845513e-01,-7.860423728109819930e-01,-6.477525647354371967e-03,-4.650684051270418881e-03,-5.841896630696486424e-03,1.149661660194396973e+00
3.618188618551289037e-01,-7.799556904821202119e-01,-7.477030615341816455e-01,-1.772018476666202894e-02,-1.310416818352522217e-02,1.008517463264987750e-02,1.126777052879333496e+00
3.641215705470080000e-01,-7.516702263817740537e-01,-7.984720539043118626e-01,7.433690889286343959e-03,3.939810723534780345e-04,2.673096067362009873e-03,1.139995813369750977e+00
3.524371427184658234e-01,-7.582546586606084826e-01,-7.900468003648051241e-01,-8.775014995783101193e-03,-3.299452412169808294e-03,-1.305358106693456756e-03,1.127043485641479492e+00
2.915033686983166672e-01,-5.221531359866167232e-01,-8.006190274456690403e-01,5.085501615090499451e-03,6.860330308050782352e-03,-1.575058392936712071e-01,1.020195484161376953e+00
3.471915996062743259e-01,-8.015436931650833374e-01,-7.135191022603938338e-01,1.418304365089479574e-02,-1.242505954080510601e-02,-1.985122076585246753e-02,1.108365058898925781e+00
3.240637443283542196e-01,-5.950146294346000397e-01,-8.166181952518061227e-01,-1.152060224046628882e-02,-1.552111144346812396e-03,-4.403600003640665422e-02,1.050574660301208496e+00
3.409204127023950370e-01,-5.950815604177843721e-01,-8.489554509619430256e-01,1.497810189221372365e-02,2.218782703646272197e-03,1.208921602144569056e-02,1.085957765579223633e+00
3.179029939789851933e-01,-5.349882224757577243e-01,-7.987094919466475318e-01,5.639941714134383451e-03,-9.857484819992937825e-03,-1.535150139283716075e-01,1.045459389686584473e+00
3.615776344797882458e-01,-7.563326738698459284e-01,-7.943836185228119184e-01,1.046001883295031437e-02,6.557971389034401161e-03,1.802295338650868181e-03,1.137618541717529297e+00
3.768632326519778530e-01,-6.187172759066503769e-01,-8.087405491188355278e-01,-4.220093862003432283e-02,9.325254884349360937e-03,-1.439315799167603938e-01,1.133236646652221680e+00
6.695251451669341769e-01,-5.253673680248552857e-01,-1.128530413924399456e+00,3.684316321474017525e-02,-3.514528663610208548e-02,-4.154739024193118135e-01,1.742963671684265137e+00
3.733987769383830813e-01,-7.776297980928670306e-01,-7.814008316068509208e-01,-1.979009880116245831e-03,3.169658493744939576e-03,8.490242443268107174e-04,1.152937769889831543e+00
3.658878002379223338e-01,-7.835718597695422449e-01,-7.774553530119390210e-01,-4.540416435107956852e-03,2.544312288250153310e-03,4.913769569593097204e-04,1.146449446678161621e+00
3.660563745048022732e-01,-7.594707334193503412e-01,-7.784755340077280650e-01,2.421691526594572756e-03,-4.403675188564433289e-03,3.664053183308406229e-03,1.135199904441833496e+00
3.410994560770236883e-01,-5.101608625725859714e-01,-9.176162670618934758e-01,2.260423051627121621e-02,-2.915867820064542773e-02,-2.490355074550741621e-02,1.115104794502258301e+00
3.390743140168097636e-01,-6.508728619808960003e-01,-8.168793045974916955e-01,-3.398488867420159428e-03,1.569205729642183383e-02,8.028688532983897438e-03,1.082985639572143555e+00
3.707439117977114340e-01,-7.762300408964188936e-01,-7.778859869365950530e-01,1.653580405507801797e-03,-3.126315813196630430e-03,-6.623834153768913069e-04,1.147819757461547852e+00
3.160759394459684568e-01,-5.595683646502194186e-01,-8.406598929660854536e-01,-3.069004044316978215e-03,6.183498688628996653e-03,2.416398701145384964e-02,1.045847177505493164e+00
3.675203531362530862e-01,-7.793814790736612874e-01,-7.754597058222110206e-01,3.829651769909631163e-03,9.412666018761024073e-04,6.033805227190489669e-04,1.144966840744018555e+00
3.145606706194346014e-01,-7.729462784584916202e-01,-7.727378888790729095e-01,7.506957539067086842e-03,6.572685131606944946e-03,3.031259762680863033e-03,1.087552785873413086e+00
3.665715405391654080e-01,-7.585360138803198815e-01,-7.857021548939777666e-01,1.608699336096281992e-03,-8.528210086560376532e-03,5.072098116203463446e-04,1.139033198356628418e+00
3.732659226637068950e-01,-7.782247938596643655e-01,-7.763352602475470654e-01,1.552458104235332221e-03,5.713710188335292204e-05,2.146263935841661794e-03,1.150556206703186035e+00
3.569830747044026031e-01,-7.178735027378838618e-01,-7.955143987198383115e-01,-1.339353174527949802e-02,-1.570721360022002411e-02,3.205245784948508592e-02,1.117657423019409180e+00
3.034741066653247055e-01,-6.373754681634972163e-01,-7.291118491547029512e-01,-6.690884808251047061e-03,-5.755577532729354989e-03,1.008701965515738791e-01,1.005326628684997559e+00
3.528563276756151446e-01,-6.960623399779473086e-01,-8.153823163264090068e-01,1.324168184446142087e-02,1.720534810721946299e-03,5.260536117078174097e-03,1.113661766052246094e+00
3.897418111278982966e-01,-6.962706382999432897e-01,-6.699540864316555489e-01,-2.901321207161887579e-03,1.572181006134053954e-02,2.251269800364113782e-01,1.142080903053283691e+00
3.436412305018733404e-01,-6.502790165734937400e-01,-8.276187667491193833e-01,-3.118166208178470896e-03,1.038357167958339940e-02,5.592810537706850542e-03,1.093633770942687988e+00
3.197976293507920342e-01,-6.344103762169601701e-01,-7.844294100152393590e-01,2.861594275511183927e-04,-1.210809088589874342e-02,2.027295258381774101e-02,1.038191199302673340e+00
3.052341741264408270e-01,-4.829493940369525284e-01,-8.863455853691044606e-01,2.982541580438671531e-03,2.564715047865769905e-03,-8.461460965767029357e-03,1.049844384193420410e+00
3.663246609368661089e-01,-6.942637070851135350e-01,-8.413284422331731571e-01,1.122556636969551311e-02,1.121746926148438350e-02,-8.701663340224850135e-03,1.141680121421813965e+00
4.605933531774516476e-01,-6.929275813163040532e-01,-8.251451159506555388e-01,-2.086996165484124657e-02,-4.205727222230903201e-03,2.281913930439015414e-01,1.287703871726989746e+00
2.866508007385395462e-01,-6.165866439033000912e-01,-8.701090341816263285e-01,-1.521219932869003755e-01,-6.764699647275004835e-02,1.729841250347045889e-01,1.132265210151672363e+00
3.146942814799127963e-01,-6.494611895258590728e-01,-7.575669334870598348e-01,-1.021368993069439804e-02,-1.831315396085227837e-02,3.270951861043457781e-02,1.024715662002563477e+00
3.565228697854136986e-01,-7.137366129526925285e-01,-8.030587576752191703e-01,-8.177320668178115343e-03,1.403809225191711592e-02,3.764761144317600120e-03,1.117974042892456055e+00
3.560141436952142246e-01,-7.569746843490507970e-01,-7.568382207250387017e-01,4.147878555729286182e-03,-6.196216204352195805e-03,-4.348023493001752608e-03,1.113021016120910645e+00
3.673737039071404142e-01,-7.707773255310765848e-01,-7.691028929690441052e-01,4.588312021182665637e-03,8.749256305261599595e-04,1.527598194669837345e-03,1.137346625328063965e+00
3.587135170195151490e-01,-7.605049163668560208e-01,-7.599944246001069104e-01,5.359279216690254061e-03,-6.587414953233691403e-03,-1.260881939407677724e-04,1.119059920310974121e+00
1.990044167472471148e-01,-7.957233303099039423e-01,-8.263018559030119725e-01,8.050353925372334685e-02,-8.021590804305220312e-02,-2.478845763325581916e-02,1.030254960060119629e+00
2.556130815536100664e-01,-8.225908338718592727e-01,-6.030687799758823742e-01,-3.403592985085973719e-03,-1.098743580686279558e-02,-8.632128187903120864e-02,9.983862638473510742e-01
1.345954162491657113e-01,-7.407340107108628668e-01,-7.379029109114580987e-01,-2.088120595515653016e-02,-7.052589488200160586e-03,7.531541244891841284e-03,8.748479485511779785e-01
2.755801701974153195e-02,-7.343981656198115271e-01,-7.161648439070484873e-01,-1.250135764307420440e-02,8.053608390393695096e-03,4.143958848911151981e-03,7.534796595573425293e-01
7.135348392782492333e-02,-8.172927554332558575e-01,-7.991545891410651858e-01,-2.498084259724611331e-02,-8.724712178014842889e-02,2.413490316551634984e-02,8.946275711059570312e-01
3.601113302090935275e-01,-7.696386520058657865e-01,-7.903335824675721266e-01,-3.339166610824373035e-03,-4.555503259989328595e-04,-9.518753661248858643e-04,1.140254497528076172e+00
4.467586357275327158e-02,-8.065337118776452208e-01,-5.300372560783055409e-01,8.516554744117713072e-02,3.773250770384038028e-02,1.667209128955671193e-01,8.216263651847839355e-01
3.301844711269988908e-01,-7.766490729666176707e-01,-7.729920798339484644e-01,-5.450349407665644463e-03,-1.316714957974112268e-02,-2.852829461420544437e-03,1.105296254158020020e+00
3.624002409330883134e-01,-7.866921469625349772e-01,-7.774175762615835872e-01,4.439187961576573395e-03,1.666080237778135844e-03,-1.729537332795495330e-03,1.144516706466674805e+00
1.568023039642660321e-01,-7.355568286069109618e-01,-7.918739170510791237e-01,1.248987881677680184e-02,-4.017071412330892877e-02,1.916411166167126395e-02,9.252796173095703125e-01
-5.402254364799979891e-02,-8.844760043739091637e-01,-6.428879675377338065e-01,1.072754264336845120e-01,8.523852357548315772e-03,-9.789993000280240547e-04,7.629777193069458008e-01
-8.782149536663946821e-02,-7.879259062551703385e-01,-7.819987031040369629e-01,-1.083696727487940964e-01,9.877149155711628659e-02,6.730756103793532341e-02,7.510805130004882812e-01
3.698469864771805060e-01,-7.394423231007264397e-01,-8.035571804524955786e-01,-6.694256112717833322e-03,7.666885937179522374e-03,-2.529549501192722709e-04,1.142832636833190918e+00
3.071961494709927742e-01,-5.387599332613162151e-01,-8.279320914305008383e-01,-3.505126218713252445e-02,6.918501311192504222e-02,-2.787393978618888934e-01,1.137990117073059082e+00
4.791243561587708033e-01,-4.544098260916569765e-01,-1.107442573542237962e+00,3.928378471503474884e-03,-9.955118587696087928e-02,-4.000172166417662045e-01,1.554794192314147949e+00
3.664408008111511017e-01,-8.106647556223010032e-01,-7.519506212677374846e-01,-1.090240345053015156e-03,-8.057308281635056427e-03,1.950928839241291039e-03,1.148965597152709961e+00
3.610178305666431609e-01,-7.729131244839870796e-01,-7.895641576341028145e-01,-4.531270835821915588e-03,3.134823019632504079e-03,-1.622665604994137168e-03,1.142390847206115723e+00
3.399827739072545651e-01,-7.894811328926076843e-01,-7.382637833860324905e-01,1.419009143858412925e-02,-1.377491002242019549e-02,-9.675964911959777232e-03,1.105404019355773926e+00
3.216568985557961557e-01,-7.702209725404363105e-01,-7.721018795300167437e-01,1.364141241474250803e-02,-3.864945457979768531e-03,-2.692913496225605215e-03,1.093105435371398926e+00
3.820959944902937444e-01,-6.761748203672348634e-01,-8.648807618234386485e-01,2.517180772552890088e-03,-1.940052078238897618e-03,-1.669883752383481343e-02,1.164523839950561523e+00
3.458875029677397905e-01,-6.632155125992705846e-01,-8.191549856457288614e-01,-2.887371179902489468e-02,2.055482203148777109e-02,-1.040916227113377820e-02,1.097295999526977539e+00
4.255425258971237690e-01,-6.148676627771325620e-01,-9.121759025909639274e-01,-4.394717263204107882e-02,2.924893940277938087e-02,-1.570622772212219576e-01,1.250013709068298340e+00
3.377377727594982337e-01,-6.802173347582096685e-01,-8.163216239900235038e-01,-1.364817523793508333e-02,-3.896706615228695460e-03,-5.651691901344984420e-02,1.097037792205810547e+00
3.401531096132917598e-01,-5.421427207457069075e-01,-9.508516196253506969e-01,-5.700979634924167871e-02,-3.721279812070728884e-03,-5.967836989348113824e-02,1.151767134666442871e+00
3.656825071119053638e-01,-7.742283765936146533e-01,-7.862373771977200221e-01,-1.522598656988172205e-03,-1.154634238073280576e-03,8.972086686175052535e-04,1.145968437194824219e+00
3.217976271707942426e-01,-7.733117673933989078e-01,-7.783354274779480386e-01,-9.331805739723801618e-03,1.383101830777553817e-03,-4.967993676045612912e-04,1.097751855850219727e+00
3.707637320388612601e-01,-7.773966147966462348e-01,-7.806017215097504902e-01,-9.843641093145365315e-04,-1.854460024411497395e-03,2.429570886973748175e-03,1.149779677391052246e+00
3.699684871579598244e-01,-7.798094029902349344e-01,-7.861349626529643420e-01,3.352060405836265224e-03,-3.135230364766250759e-03,-2.688091571918487053e-03,1.152990460395812988e+00
3.436258081521018082e-01,-7.824093150878700387e-01,-7.778424278213926790e-01,-3.060507272573683313e-03,6.476945534130235278e-03,2.527486862977359940e-03,1.123835682868957520e+00
3.365426304656343182e-01,-8.091644089724341349e-01,-5.955543100509469445e-01,1.128064540301521382e-02,-3.196890058723907829e-02,-8.853135876213547029e-02,1.067942142486572266e+00
3.730893053317507202e-01,-7.803657057194614000e-01,-7.784211958280651267e-01,-2.875604042102041392e-03,9.000503927450480756e-04,3.286907988883178296e-04,1.152495980262756348e+00
3.638142632084709893e-01,-7.775211268630635164e-01,-7.827622142184280651e-01,-3.639074871487985897e-03,-3.907723966904590347e-03,1.361587799795853718e-03,1.144004702568054199e+00
3.678048816950099664e-01,-8.854096013087218164e-01,-3.754312472379386367e-01,-2.468144939527833551e-02,-2.932829449227717863e-02,3.430378936716574345e-01,1.244566202163696289e+00
2.742874037209742655e-01,-8.848159401400538249e-01,-3.888829839146448197e-01,2.953588502131104798e-02,-8.422553222288453600e-02,3.294745976172351876e-01,1.167986273765563965e+00
3.971927449427417600e-01,-1.015959098351326473e+00,-4.524091817674619764e-01,2.671048667812618571e-02,-2.987268393942395586e-03,1.257966763142655264e-01,1.252136826515197754e+00
3.354151155513314664e-01,-6.275904718260028048e-01,-8.333152328697650546e-01,1.306325668890510362e-02,-5.906409401682454711e-04,-3.686169011395463990e-02,1.082776904106140137e+00
4.617994315871023492e-01,-9.636300257104523093e-01,-4.570035897260202873e-01,3.852026287717501968e-02,2.644470135060731850e-02,1.677209129990561987e-01,1.287361502647399902e+00
3.738176049419906222e-01,-6.475803040015877254e-01,-8.566906767576405457e-01,2.363863135486436728e-02,-7.108075190120071753e-03,-3.795256635295431863e-02,1.143116235733032227e+00
3.141338677757167241e-01,-7.195447461277525436e-01,-7.116180067765143225e-01,-2.192728016049527284e-04,-1.717894566000378702e-03,2.512326545253273577e-03,1.029751658439636230e+00
3.647278171310654460e-01,-7.784398564099243023e-01,-7.841052389422488167e-01,-1.865157137744305645e-03,-2.321093488915500734e-03,-5.896334450213841071e-04,1.146022915840148926e+00
3.710502431896429143e-01,-7.742391242669179885e-01,-7.727648133196673985e-01,3.374298218619408568e-03,3.544899904879394298e-03,5.622809609222625135e-04,1.144584774971008301e+00
3.754455379123811665e-01,-7.785074731115297908e-01,-7.779576363942444228e-01,1.604094207070768004e-03,-4.287816363020550861e-04,-1.949288355012939594e-03,1.153686761856079102e+00
3.737627867671665660e-01,-7.770852465114008734e-01,-7.827191764299004095e-01,8.529698691507281395e-04,4.443142265833397581e-03,-1.714149829440227753e-04,1.153702020645141602e+00
3.714842105262668448e-01,-7.726543614821623773e-01,-7.759007330798277646e-01,2.875427435060621054e-03,1.608537642857321790e-03,1.364078419893433296e-03,1.145781874656677246e+00
3.758641671116800809e-01,-7.783453124216881402e-01,-7.792043718136569819e-01,4.821822483596568411e-04,1.182925565968305677e-03,9.034735879237750768e-08,1.154641389846801758e+00
3.080336960715689409e-01,-7.740064697055459852e-01,-7.748247724548404936e-01,-6.863439422891829886e-03,1.064850203961072335e-02,5.016444342220902769e-03,1.082706809043884277e+00
3.113784415505750913e-01,-7.174728485677390744e-01,-7.058062402521225742e-01,-1.283427517581008396e-03,1.399692483153276842e-03,4.918814601708941005e-03,1.023108601570129395e+00
3.140036782032052942e-01,-8.763040619546836885e-01,-5.216908501723619418e-01,-9.440402209640047157e-03,-5.157103080675742857e-02,3.094833750599597626e-03,1.062430739402770996e+00
3.759221695315412837e-01,-7.786810422582417512e-01,-7.790280606480903813e-01,6.018696125002522251e-04,1.125808081396690230e-03,-9.039256292314089237e-05,1.154778838157653809e+00
3.175669793296637122e-01,-5.023944058506844001e-01,-8.893668883287564331e-01,-5.588449057454571156e-03,8.096192577369435784e-04,5.998534292104152309e-03,1.067516088485717773e+00
1.703432366646452367e-01,-7.426990644510886863e-01,-7.408370004700202127e-01,-6.644984762345920379e-03,-9.575649444540190562e-04,-2.383213194017286957e-03,9.121961593627929688e-01
3.665901840922333732e-01,-7.759688941044081689e-01,-7.948736390494576254e-01,-3.237909377678339744e-03,-4.331706159096409929e-03,1.459089946573569529e-03,1.152168631553649902e+00
3.606045521760325445e-01,-7.724301583036276009e-01,-7.892295564653191153e-01,2.716125135490253788e-03,-7.935714760408473347e-04,-6.090962029141307535e-04,1.141538143157958984e+00
3.585909174518362996e-01,-7.752457360665601094e-01,-7.842567630302758053e-01,6.321602915893590954e-03,3.058838214927128100e-03,-1.811237019045412646e-03,1.138438224792480469e+00
4.581668336531162788e-01,-6.959859421322623918e-01,-8.432047352072065127e-01,1.405403408678325937e-02,-1.748193992219559262e-02,-2.306507373500746305e-01,1.297984480857849121e+00
3.628905539610384201e-01,-7.760444369530234976e-01,-7.844628298365065033e-01,-2.769577722595409786e-03,-6.305664512615982535e-03,-1.275759734154822012e-03,1.143231749534606934e+00
3.505492094093209943e-01,-7.733399200468055179e-01,-7.838459993933785119e-01,7.949685179362753554e-03,-3.298421072468559097e-03,-1.651135069530012796e-03,1.129280805587768555e+00
3.407531669710182065e-01,-7.528257480945250713e-01,-7.227272533885360506e-01,2.671339613698402518e-02,-2.080816290437340760e-02,-3.336252896231570175e-02,1.081981778144836426e+00
3.493419303906450946e-01,-6.061131171417648567e-01,-8.691907061839201365e-01,-7.989935093143175557e-03,-1.189919603132261585e-03,-1.206044721307525294e-03,1.110703825950622559e+00
3.380249572036718164e-01,-7.413138407453834233e-01,-7.896903656119238502e-01,1.646427050716658741e-03,-8.867586462014015805e-03,-3.388487727095588087e-03,1.104448080062866211e+00
3.613299367767575654e-01,-7.559535667804007097e-01,-7.949982785862926837e-01,-7.756469625105417293e-03,2.302430018142190716e-03,-1.018454852168004148e-03,1.137396335601806641e+00
3.333083546879399561e-01,-7.072326512987882063e-01,-8.189918543984511246e-01,1.018633058019612070e-01,3.366910603789980121e-03,-1.000108886016267684e-01,1.128128886222839355e+00
3.495036144201267292e-01,-5.980788164642605320e-01,-8.623965766738176386e-01,2.017159636618984925e-02,-6.070109646062396905e-03,-4.802195296521463708e-02,1.107469558715820312e+00
3.431288104484617185e-01,-6.749987457170649741e-01,-8.000095663664634760e-01,2.514901897747342033e-02,-1.565931155146986498e-02,-1.936363221759244968e-02,1.087771296501159668e+00
3.470966606486098338e-01,-7.003433565761552071e-01,-7.856432735522631550e-01,2.107346277639124410e-02,-2.039298107660739157e-02,-9.513625390134882245e-03,1.093894243240356445e+00
3.196799651806953579e-01,-6.195443536614599900e-01,-7.978443401453769734e-01,9.882544678203351168e-03,-1.106722562656878468e-02,-4.019721149552903799e-02,1.042547225952148438e+00
1.690562278738070856e-01,-7.373984766870895768e-01,-7.438048577362237346e-01,-1.209421850627933562e-03,4.530037858701258316e-03,-2.549547991924744697e-03,9.097217917442321777e-01
3.644138396723605178e-01,-7.699724014932782801e-01,-7.653954809065101061e-01,-1.287372729779464675e-03,-4.760961668008904454e-03,4.697348156020473946e-03,1.132166147232055664e+00
3.594742410725788595e-01,-6.961691818658463093e-01,-8.189345128476320790e-01,-1.157587946480280461e-02,9.409478785736925810e-03,-5.572402928389404153e-03,1.122413277626037598e+00
3.731433795262594222e-01,-7.768866164193575230e-01,-7.781234019661167345e-01,-5.469702042456944108e-03,-2.549259859685890951e-03,-5.985323880759245126e-04,1.150696873664855957e+00
3.719418649956333089e-01,-7.756166658566641114e-01,-7.825594893651092177e-01,9.930299092419242468e-04,-2.420194594085555567e-03,-2.964045539673139298e-03,1.151066064834594727e+00
3.733873240601308097e-01,-7.779643995883054330e-01,-7.774729523154380040e-01,-1.356004785325589344e-03,-2.464344045018305963e-04,1.433765810874843412e-05,1.151108503341674805e+00
3.718313731576307624e-01,-7.761194220645708519e-01,-7.807828736721860174e-01,-7.503689755324781038e-04,-2.888986792310389243e-03,-6.321782840115946827e-04,1.150301694869995117e+00
3.562035824912965221e-01,-7.597071441633005406e-01,-7.542528238343461089e-01,-6.736613932265012386e-03,7.302860529702475669e-04,-3.649723685450085046e-04,1.113255620002746582e+00
3.556858151915101574e-01,-7.842350609582433574e-01,-7.411649926037540137e-01,-1.201394844467651088e-02,-7.932205718722424789e-03,4.877846356654131493e-03,1.119317293167114258e+00
3.675302394416026242e-01,-7.798104946807060678e-01,-7.759191033042411867e-01,-8.180807699895972784e-03,-3.356353903814112381e-03,-1.066218142981776446e-03,1.145503878593444824e+00
3.608722374428588453e-01,-7.569929212737189772e-01,-7.827316876152781155e-01,1.985279801076475503e-03,5.952385897102240725e-03,-3.090606743954356535e-03,1.131019115447998047e+00
3.637306652925223482e-01,-7.803276419567493072e-01,-7.738050777435916405e-01,-2.344401572151356159e-04,1.416983424697732679e-04,-1.001807019232691488e-04,1.140811085700988770e+00
2.951977830263946001e-01,-7.686177511553233810e-01,-7.706127369850759301e-01,2.361584959243711451e-02,9.488171094675933214e-04,2.801742656133432170e-03,1.065612077713012695e+00
3.691672333380134341e-01,-7.876120949326960163e-01,-7.753926553939607391e-01,-4.194668076679773996e-03,-4.360621807006315361e-03,6.790529120261184484e-04,1.150766611099243164e+00
3.324573125385831274e-01,-7.294429258234055302e-01,-7.341583952199656204e-01,3.531576522895061264e-03,-6.579873223714164353e-03,-1.794268908510934443e-02,1.064797997474670410e+00
3.504389280764363956e-01,-7.563010382427246547e-01,-7.457686687680111781e-01,1.136123154436916027e-02,1.242515735340537835e-03,-4.942884605230602434e-03,1.101722717285156250e+00
8.096814670052052687e-01,-5.640060007777987217e-01,-1.134093488270291106e+00,-4.144103305457906561e-02,-2.400507299562331526e-02,4.344950032481029734e-01,1.889014959335327148e+00
3.395779130154694125e-01,-8.750986956622266444e-01,-5.807045475518517463e-01,-1.484229261984413434e-02,9.961682844241313492e-03,7.597328653731797408e-03,1.098018765449523926e+00
3.421725864500068104e-01,-7.437591509678277424e-01,-7.410420890728635079e-01,4.656446910315041945e-03,-4.808516806317230524e-03,-1.392136353059768034e-03,1.084640383720397949e+00
3.252772623707115285e-01,-7.295562589545133703e-01,-7.177188674206400609e-01,9.689610487714706705e-03,2.145853915859814883e-04,-1.030200827509414330e-02,1.049250960350036621e+00
3.565251535740986411e-01,-8.419025077528494716e-01,-6.773353310104408553e-01,-6.196199026013681117e-03,1.188972948047756391e-02,-2.188621958681514351e-03,1.125452399253845215e+00
3.730986860606420596e-01,-7.807557602505115213e-01,-7.758423165498768981e-01,-1.918037649571788326e-03,-3.038447382616720534e-03,9.252561939790638831e-04,1.151423573493957520e+00
7.244704724137359664e-01,-1.000576667381224194e+00,-6.745710312980390810e-01,-5.167295695944154220e-04,-4.319068604652636506e-02,-5.202029081198538130e-01,1.826779246330261230e+00
3.438112099857631998e-01,-7.774915413548884047e-01,-7.795969466897153533e-01,-7.557872447315320402e-03,5.256634589567434415e-03,2.457161133539107097e-03,1.122478246688842773e+00
3.738003178940666471e-01,-7.768258260948738281e-01,-7.785039539280760312e-01,-6.080710724277494121e-04,-7.565064527369214087e-04,-4.731338150638759007e-05,1.151467323303222656e+00
3.651726232636388070e-01,-7.775807876434320809e-01,-7.743645088144699429e-01,-2.228959961113811342e-03,-2.597240148911562126e-03,1.254149735258937044e-03,1.141166090965270996e+00
3.190791625329619796e-01,-5.203451145420905366e-01,-8.766046046635701527e-01,-7.896786111935995668e-04,6.186827723256409239e-05,-8.987431396686800314e-03,1.063414812088012695e+00
3.261007175753166121e-01,-8.617388362521443135e-01,-5.504880043931889011e-01,7.903238161814289328e-03,-7.996428399588318900e-03,-4.221118300346800994e-02,1.069508433341979980e+00
3.723249810010520466e-01,-7.823628749044133635e-01,-7.756110102130238104e-01,-3.642433383034243254e-03,-4.236793891445476880e-04,-1.079456822152471225e-03,1.151345849037170410e+00
3.688367744039103835e-01,-7.807288046511977608e-01,-7.745220118848867852e-01,-2.950865154970358159e-03,-2.116850384998661405e-03,-1.458933529649698000e-04,1.146492123603820801e+00
3.248487161997110073e-01,-7.269483236713765173e-01,-7.232445776264220250e-01,-2.501050676550856458e-03,-2.470986493186478738e-03,1.829677759693372485e-03,1.049972534179687500e+00
3.619952184521964544e-01,-7.840202232489150713e-01,-7.763738037803442626e-01,5.928816493413137552e-04,-2.025948932942622533e-03,-2.874933674581769982e-04,1.142217397689819336e+00
3.685762892404688129e-01,-7.965805439820405898e-01,-7.762989721627909789e-01,-3.539065295703210708e-03,-1.348212188609969114e-03,1.512183791382630061e-03,1.155171155929565430e+00
3.364071698593206206e-01,-8.502117976706555780e-01,-5.840278249701008617e-01,2.718936240023630668e-03,1.127674932853628582e-02,1.364841864511876987e-02,1.078898549079895020e+00
3.563489473536174956e-01,-7.881056319155739232e-01,-7.762281736979734781e-01,1.159829291065497684e-03,-2.675868843883260663e-03,-1.036711010775985629e-03,1.138574957847595215e+00
3.592618565562452071e-01,-8.697362538135187116e-01,-6.219527848843154905e-01,-4.361026554436544037e-03,-2.703360949422126472e-02,1.218424458574620013e-02,1.126943826675415039e+00
3.664913343114580280e-01,-7.675257608861657532e-01,-7.712138721878634140e-01,-1.141402830647048235e-03,-5.211807503478240594e-03,2.659593014408759152e-04,1.135903358459472656e+00
3.627613381378057555e-01,-7.911828973613199700e-01,-7.650277329127340709e-01,-6.014085885021018887e-03,-7.453433924992610045e-03,1.424060522208669749e-03,1.141214728355407715e+00
3.361396769374003224e-01,-7.761667943043198958e-01,-7.812039237475982834e-01,1.068766910355054868e-02,3.306998948778484826e-03,-2.410234961886963123e-03,1.115009784698486328e+00
2.990414598991859019e-01,-7.782332810736747319e-01,-7.639437207198784829e-01,1.276803844108977994e-02,-9.476910938227528503e-03,2.300271527795557693e-03,1.070563197135925293e+00
3.352965030972991367e-01,-6.109029299000164892e-01,-8.349569454463532381e-01,-5.128433330190928369e-03,-5.442939687289139600e-03,-1.326327617883626617e-02,1.076191782951354980e+00
3.392701185939243080e-01,-7.806198821699877888e-01,-7.769205042626752267e-01,-6.122337621114988700e-03,4.695294818783341505e-03,6.021762847885793858e-04,1.118125200271606445e+00
2.782042621074933830e-01,-7.660445413932768233e-01,-7.716834239286138875e-01,-6.964205787599351410e-03,-1.786752821515430120e-02,6.492417738098865340e-03,1.047666668891906738e+00
2.950899804470564769e-01,-7.720118228836190255e-01,-7.750126640176624448e-01,9.252444776402376711e-03,-1.225656282693649707e-02,5.624461918342510414e-03,1.068980813026428223e+00
3.158745607070920780e-01,-7.737493251927699545e-01,-7.797847576109291357e-01,7.396428338930726397e-03,-1.938276864277508477e-02,3.209004917942406658e-03,1.093258976936340332e+00
3.221016131986884079e-01,-5.195821869379787517e-01,-8.852963138014111610e-01,-7.917921165362835911e-04,-4.567342901295234903e-03,-9.009707702853544942e-03,1.072521328926086426e+00
3.664795812795646479e-01,-7.988712905765921191e-01,-7.644384890229509733e-01,-1.169145719113989399e-03,-1.194184683669812430e-03,-8.912767603750074066e-04,1.148526310920715332e+00
3.448478025701259275e-01,-5.974337324013196948e-01,-8.722915036514100606e-01,-1.416891182035204082e-02,-1.468600078856902719e-02,-1.244157174282554609e-02,1.106412410736083984e+00
3.328834259806386364e-01,-6.120145481386536357e-01,-8.244963316559273947e-01,-1.038064742054446883e-02,-1.013237030675286782e-02,-1.880786057386694618e-02,1.067916989326477051e+00
2.133775386682897346e-01,-7.664838455027835895e-01,-7.599515073121183573e-01,-2.258572617626906573e-02,-5.688621657534456005e-02,-1.284483413208089599e-02,9.826004505157470703e-01
3.651998903977760058e-01,-8.032008305855896646e-01,-7.461431201857073869e-01,6.761303656682256073e-03,2.086367767034763392e-03,5.786221323934254666e-03,1.141052246093750000e+00
2.291580209461411277e-01,-7.531183505139675827e-01,-7.636014113685652971e-01,8.608811168187202947e-03,4.861747030515174706e-02,1.065954376345612173e-02,9.914273619651794434e-01
3.710541794304481611e-01,-7.847650366861481652e-01,-7.755233035970914290e-01,4.624909073244112996e-03,2.050525937418132359e-03,9.473388370185627932e-04,1.151260733604431152e+00
3.206047237279378570e-01,-9.201384884647856310e-01,-5.105052571519899107e-01,5.642162186745889457e-02,2.268755601185931323e-02,-2.452402710103910866e-01,1.179201483726501465e+00
3.454565548059737590e-01,-8.713444756726305140e-01,-6.240949812351813675e-01,-1.161901393472116080e-02,3.269947911910495858e-02,5.723973729451709361e-03,1.115614056587219238e+00
3.502158551690772725e-01,-8.054574530996327919e-01,-7.787781321048374839e-01,-3.680191286851071299e-03,-8.799222347777476945e-04,6.308124963106957056e-03,1.142638325691223145e+00
3.571934610127781018e-01,-7.995092239444869797e-01,-7.447396338769172175e-01,3.747583486941319375e-02,-3.554465212487971804e-03,-2.328367152614312444e-02,1.132910490036010742e+00
1.043444891037628719e-01,-7.019274803893722492e-01,-6.475951229121541530e-01,3.826564565483091956e-02,-1.009917519231812305e-01,-2.287787129066470859e-01,8.951143622398376465e-01
3.576340123857127962e-01,-8.234530585259467461e-01,-7.157082001107402114e-01,-2.107165724583784285e-03,1.632106039588859109e-02,-7.613639258193771221e-03,1.131506085395812988e+00
3.742324753290302564e-01,-7.523464569086311116e-01,-8.169233618576732248e-01,-2.022260284486928055e-03,3.426600382649549765e-03,1.052174580652903875e-02,1.160379648208618164e+00
3.613275512358342656e-01,-7.074776689362209936e-01,-8.263052426154782193e-01,6.354688597041081334e-03,-1.242910406963520240e-03,4.065203673167678416e-02,1.135143876075744629e+00
3.569087984095998256e-01,-7.876326459304998640e-01,-7.727857157888906592e-01,-2.200578421574378451e-04,2.952980046890142825e-03,8.872876575670377713e-04,1.137203216552734375e+00
3.575169650874747695e-01,-7.723973517470124062e-01,-7.879336071731726232e-01,-2.167684310309181146e-03,-3.018559805517521440e-06,3.623756580120058169e-05,1.137768149375915527e+00
3.598446788937758600e-01,-7.755300705631150704e-01,-7.905993165701017400e-01,-3.093074143029417647e-04,2.533326523111223850e-03,-6.158641529658680919e-04,1.142992973327636719e+00
3.610617189111894887e-01,-7.506140160097823921e-01,-7.986671610578779390e-01,7.291525897176901437e-03,4.914721627015822443e-03,1.834326948891670589e-03,1.136571049690246582e+00
3.514665911900846651e-01,-7.686432022599931635e-01,-7.865472252905698625e-01,-6.610621973112347331e-03,-2.605418206429526654e-03,-9.924852959311851811e-03,1.129366159439086914e+00
3.553876600313605194e-01,-7.759596777615317409e-01,-7.900725943652373573e-01,-3.463120043822146086e-03,-8.589180928942312257e-04,3.074571098875179430e-04,1.138486266136169434e+00
3.580067457830157784e-01,-7.763648935770769421e-01,-7.884607508497323280e-01,-3.241302139366921808e-03,-1.009258122194860424e-03,7.225090774560789623e-04,1.140483498573303223e+00
3.588856401061742418e-01,-7.777066594209758321e-01,-7.834125495731774080e-01,-4.907737845063090375e-03,4.436047056182501613e-03,3.749385011356688637e-03,1.139532089233398438e+00
3.569299275505772306e-01,-7.604934977197669310e-01,-7.947552703426431497e-01,-9.444211596815747095e-03,2.924585578434365347e-04,6.364135946752694836e-04,1.135060787200927734e+00
3.160762691668247415e-01,-8.178720157203480667e-01,-5.639624717811972943e-01,4.610148285188484484e-03,2.092425514384787556e-03,-7.418589951213826195e-02,1.038737654685974121e+00
3.732917940815351776e-01,-7.779841107479511519e-01,-7.772088038316360414e-01,-3.343483848961834818e-03,-2.924782120427071429e-03,1.430444270960247737e-04,1.150914192199707031e+00
3.708668186641616016e-01,-7.773548571928889928e-01,-7.766184263502852181e-01,-6.959838888767311792e-04,-9.735592616555452470e-04,2.745913691211355947e-04,1.147855639457702637e+00
3.729542039270500875e-01,-7.774814181813349823e-01,-7.789404873195981960e-01,-3.575561694692509459e-04,-1.886157354287944319e-03,-1.269168573029245896e-04,1.151170730590820312e+00
3.207506016391002412e-01,-6.899686067016183033e-01,-7.455077506957252798e-01,-9.699465999734296212e-04,-4.429269946930560441e-03,-1.007653534131844678e-02,1.039778232574462891e+00
3.736349011008371912e-01,-7.780597467770387077e-01,-7.760950110902262722e-01,-7.341314486026791555e-04,1.009781435090425237e-03,-4.694272354308897527e-04,1.150715827941894531e+00
1.009625597744272518e-01,-7.572753116010959573e-01,-8.827409504271279683e-01,-2.880419939939611249e-02,4.211801209580028765e-02,-1.604677926617835426e-01,9.721387624740600586e-01
3.715020917848322335e-01,-7.783437152312457918e-01,-7.719572089324114872e-01,-3.312161496780840087e-03,-3.128227859363559397e-03,5.541473246101502343e-04,1.146693468093872070e+00
3.610530594443130958e-01,-7.892943390275567461e-01,-7.774373786880942605e-01,-1.080057537583256925e-03,2.840685583210175377e-03,4.287164086328986703e-04,1.144477367401123047e+00
3.537360829574140997e-01,-7.882735805073846080e-01,-7.768646835273276263e-01,1.679636897209075619e-04,-2.896248426238067549e-03,-4.870520150162848446e-04,1.136359572410583496e+00
3.559740169934658138e-01,-7.973166575733667827e-01,-7.640751516935327947e-01,-2.773973900411882965e-03,-7.712653685804523283e-03,-2.009954923702917100e-03,1.137128353118896484e+00
3.611468555412516435e-01,-7.862064122487422146e-01,-7.779181745387266922e-01,-3.572365781904650057e-03,2.547438850631796297e-03,7.366751311344422841e-04,1.143257617950439453e+00
3.576509593596658432e-01,-7.886074376719184320e-01,-7.770876198001972490e-01,-1.077708453859206649e-03,-2.607428251767710588e-03,5.419478574235985727e-04,1.140552997589111328e+00
3.722462839123871214e-01,-7.747732822318498247e-01,-7.741074679714550211e-01,-1.498641423326992430e-04,1.727566568400191972e-03,-2.089941492993397352e-04,1.146690845489501953e+00
3.258257102951436224e-01,-6.464693738251192645e-01,-7.871650293559835365e-01,3.520566259757980463e-03,1.358234272343411368e-02,-1.476427223081031026e-02,1.050330996513366699e+00
3.545677577739496655e-01,-7.928899251183261221e-01,-7.650323395470253196e-01,-2.410765983749006073e-04,-5.106343204446033186e-03,-1.275677955165847692e-04,1.133820176124572754e+00
3.698881215594973515e-01,-1.066052771412279832e+00,-2.801339182020860519e-01,-4.346344188883492429e-03,1.539211444609477897e-01,1.649689969139792878e-01,1.305311441421508789e+00
4.281312197506584871e-01,-9.908091355309960324e-01,-4.818441773447059706e-01,-1.268956211447436720e-02,-3.509416503878404897e-02,-8.800564492982028766e-03,1.246858596801757812e+00
3.399984803129202371e-01,-8.407125540470260505e-01,-6.430201458921611657e-01,-1.913656799112604771e-03,8.029265998145521804e-03,-8.926790010953483331e-03,1.095530271530151367e+00
3.748761499700828392e-01,-8.669431360073502901e-01,-6.357289730453996590e-01,-1.189519639714894939e-02,2.995440167677581450e-02,1.212111191537354297e-02,1.145428299903869629e+00
3.438474297163637838e-01,-8.225426251226464203e-01,-6.538536542562169984e-01,-2.186794809346243387e-02,4.524183079233985716e-02,-7.449868941966883082e-03,1.095402240753173828e+00
3.189832826821637490e-01,-7.154783076156284727e-01,-7.272626988685753080e-01,-6.322092298304102416e-04,3.536577286198507118e-04,6.072023774314134689e-03,1.040457725524902344e+00
4.356980208244298769e-01,-4.595990468008931407e-01,-1.033650335467350967e+00,-2.295867374458676786e-03,1.521370186678971947e-02,9.436699739023168831e-02,1.293237686157226562e+00
3.468031866941066466e-01,-7.565770882831006627e-01,-7.352809700741259613e-01,-7.490443549194389025e-03,-6.561423353606224852e-04,-5.145370582668385567e-03,1.093001723289489746e+00
3.574548739014661303e-01,-8.482819550582463286e-01,-6.446314219091905384e-01,-1.654651091094924698e-02,3.088810158852010532e-02,-6.701985993388380816e-03,1.119617938995361328e+00
-6.762435928429033627e-02,-7.043249120444715627e-01,-7.279221894808980409e-01,-4.818785127481539990e-03,1.043617674416385220e-02,1.437279284937059004e-02,6.496036648750305176e-01
3.502329092467921234e-01,-9.048891302094930200e-01,-5.461803886943250586e-01,9.129141100654842439e-03,4.543331272236068863e-02,8.449106768801332989e-03,1.122691750526428223e+00
3.562685520768589242e-01,-1.015506826418418385e+00,-3.687053162549332463e-01,-2.129084267853753945e-02,2.746041387793404093e-02,-2.448663107500733543e-02,1.190913319587707520e+00
3.579601404136807385e-01,-7.464255146740561564e-01,-7.924466445486072486e-01,-6.182718633715745052e-03,-5.483081702043328745e-03,-4.603580521622217120e-03,1.128219485282897949e+00
3.354587097959455533e-01,-9.220563447860621320e-01,-4.715843061458188656e-01,2.314081841909106183e-03,1.201381495688651560e-02,-3.344137689642280413e-03,1.103755593299865723e+00
2.168459624185482548e-01,-7.635706964612525294e-01,-7.540312847476383640e-01,-3.061147556712070714e-02,1.140458132964941064e-02,-5.496075315459423780e-03,9.773675203323364258e-01
3.308013222340967507e-01,-8.957155499386336706e-01,-5.082689984732291499e-01,2.008398358298288389e-03,1.220447337861855705e-02,-7.083625005577839917e-03,1.086212754249572754e+00
3.488285853104211021e-01,-9.139523267867653011e-01,-5.086449946600666294e-01,-3.862674333397258120e-03,1.535645279442978371e-02,-4.647730832255519799e-03,1.117091059684753418e+00
3.192597076176597604e-01,-5.135792688844431630e-01,-8.882773529441199134e-01,3.023298464402325407e-03,-5.405904828869598396e-03,8.952469390184071910e-03,1.070718526840209961e+00
3.614373674636399691e-01,-7.910409217436622509e-01,-7.738626802563322027e-01,-1.521077433579703789e-04,3.246507977087327752e-03,-9.403163310259233208e-04,1.144000887870788574e+00
3.627401203575375543e-01,-7.915463119482053500e-01,-7.753644260651069153e-01,8.324545857578762812e-04,5.176959210240223742e-03,-2.306116959290870246e-03,1.146324038505554199e+00
3.593298043501795269e-01,-7.875354275860635411e-01,-7.779484697943711557e-01,5.721864406984591978e-04,-2.901845028762596590e-03,-1.222594364610985959e-03,1.142115354537963867e+00
3.582050098375982872e-01,-7.919683775350130350e-01,-7.647956974227233529e-01,1.461234232624813350e-03,-2.150880262225172979e-03,-9.682303958914494427e-04,1.136840820312500000e+00
3.530043621366135698e-01,-7.859707283008112721e-01,-7.573240651289944170e-01,-8.266447037907501474e-03,-6.720224809585056448e-03,5.398268112509359805e-03,1.125115513801574707e+00
3.551885528907703926e-01,-7.440176327620121599e-01,-7.710578607303959497e-01,-1.166915015116657718e-02,-1.231032675114808808e-02,3.751577116016983644e-03,1.113379359245300293e+00
3.694875508872950132e-01,-7.812220021750074794e-01,-7.784513181639208801e-01,-4.242670344842029099e-04,-2.129699712256836498e-03,-1.067174975613734275e-03,1.149334311485290527e+00
3.599622628354708365e-01,-7.820887536486811342e-01,-7.726376176873058776e-01,-4.589648690279652873e-03,4.689631000417537193e-04,6.539315507493385340e-05,1.137382984161376953e+00
3.153127751141320267e-01,-7.145078977738709147e-01,-7.183325222746974603e-01,-3.063755735256746041e-04,-2.225011071465083843e-05,-2.481240084915307433e-03,1.031747341156005859e+00
3.576314464681170091e-01,-7.841298031707173433e-01,-7.716118742389475038e-01,-8.738805314475492185e-04,-3.374784561934988806e-04,3.599570628088757181e-04,1.135555386543273926e+00
3.091596264537012084e-01,-7.473593861978916619e-01,-6.596253007714181216e-01,5.556637725037618172e-03,-3.150520487645758812e-03,-2.155278269020945506e-02,1.016244530677795410e+00
3.127061965852110936e-01,-7.980188605169642457e-01,-5.986647735115144808e-01,2.886080691217651761e-03,-2.985941269227174611e-03,-3.661575432855065232e-02,1.027666568756103516e+00
3.632735910031384408e-01,-7.727945511840254023e-01,-7.827373614930899226e-01,4.141224295479751551e-04,-4.519505090642862190e-03,8.888300678928824639e-04,1.141100168228149414e+00
3.656740290867764309e-01,-7.963428996420739425e-01,-7.596290928313448321e-01,7.663861976477205629e-03,8.702141820414446491e-03,3.468147253714345957e-03,1.144293904304504395e+00
3.382598166549349306e-01,-7.381202577434958778e-01,-7.337717198361113358e-01,9.010158017506195161e-03,-1.355465435311759524e-02,-7.893922217543513850e-03,1.074669241905212402e+00
3.232028341465120191e-01,-7.258139739032190008e-01,-7.205683348442688541e-01,5.443387132299713771e-03,-4.893544149874863927e-03,-1.985660815564132490e-03,1.046486258506774902e+00
3.406550521244460228e-01,-7.423374732047612889e-01,-7.378746612765156865e-01,6.571609608013821539e-03,-6.090258348378336031e-03,-1.303109502594812768e-03,1.080881834030151367e+00
3.279205399628004614e-01,-7.206773704582416507e-01,-7.316610698866728990e-01,-2.687652472305267605e-04,-8.626528145921762147e-03,-1.484160842454741724e-02,1.054552078247070312e+00
3.147013795346549347e-01,-7.198479065174510083e-01,-7.104082873560465528e-01,3.182229886109771890e-03,2.388881777280111348e-04,4.063334437982063854e-03,1.029900789260864258e+00
3.241788007190840593e-01,-7.231060830911012483e-01,-7.223879392238281572e-01,6.226478587257271158e-03,-8.564598825634974974e-03,-2.223527264873013595e-02,1.047794699668884277e+00
3.195401620903057238e-01,-7.244478747963474241e-01,-7.112624078825021678e-01,4.320204615618434066e-03,-4.262670722543738903e-03,-1.345127003022742948e-02,1.037773013114929199e+00
3.479966981358856293e-01,-7.441798546847901985e-01,-7.508403704019075420e-01,1.362928600151203703e-03,-2.248689361621009400e-04,2.415703342292032773e-03,1.095532655715942383e+00
3.584710413466744572e-01,-7.346160152345365679e-01,-7.813473177819934001e-01,2.410495079651413415e-03,1.590647362260021180e-02,-5.687378534436926016e-03,1.117576837539672852e+00
3.575208499543035545e-01,-7.336631664780002282e-01,-7.861764233935216728e-01,3.077302185709778794e-03,1.122623141488012649e-02,-4.488849850192044855e-03,1.118574380874633789e+00
3.148531964469912237e-01,-7.187328083013417857e-01,-7.123358005242650393e-01,9.301978712587296704e-04,-4.989033192042527419e-04,-2.674758750825955399e-03,1.030414462089538574e+00
3.134605942810064216e-01,-7.031749086806340365e-01,-7.209825572471739719e-01,4.293279626756621318e-04,-4.743750176832127637e-03,-1.844777068821804034e-02,1.026185989379882812e+00
3.349368825873768607e-01,-7.479905826985793205e-01,-7.909836139064931881e-01,8.037116686126422787e-04,-6.049950782084998445e-03,-2.774860447923613652e-03,1.105112433433532715e+00
3.619700041394555146e-01,-7.638950595530564769e-01,-7.951547826979197264e-01,6.506702459509866414e-03,-3.519512026221331778e-03,-3.163089351054567257e-04,1.141887903213500977e+00
3.176985282437703728e-01,-6.448021553261500394e-01,-7.855550708888305866e-01,1.931241566318793283e-03,2.370355546140620346e-03,-1.827232655592729918e-02,1.040539979934692383e+00
3.658693260102249267e-01,-8.236038299808019492e-01,-6.564330288125748147e-01,-2.539153019225640767e-02,6.240556685946542503e-02,-8.965286488879202487e-02,1.132112026214599609e+00
3.431844623155066998e-01,-7.798637203160500020e-01,-7.806687085904155943e-01,6.418339643556335294e-03,-5.845583142229720738e-03,-2.834838725935892459e-04,1.123551607131958008e+00
2.979262889591631769e-01,-7.383477110349034866e-01,-7.806689618441065015e-01,7.657224810554180867e-04,-1.059968463914971563e-02,-1.610259000716925126e-02,1.058597207069396973e+00
3.621439200599885777e-01,-7.748846926642530830e-01,-7.859803476984968951e-01,2.845382059238539887e-03,-3.332125637372061831e-03,-8.672823445921786119e-04,1.142643094062805176e+00
3.366415594088510987e-01,-7.042734652749635949e-01,-5.545741851995489302e-01,6.792043332204233952e-02,6.174395222829287544e-02,4.341337886469108787e-01,1.241282701492309570e+00
2.606235443870371649e-01,-6.824346561492613539e-01,-5.411397500281375228e-01,-1.666917999085446717e-02,8.691865700608109035e-02,4.353122758431250960e-01,1.169641852378845215e+00
3.074892036366210779e-01,-5.187182876883855709e-01,-7.808661328461218298e-01,-2.030731307707446878e-02,-2.054406562397261687e-02,1.805393765396496319e-01,1.033545136451721191e+00
4.605619190206767799e-01,-8.176680931570508015e-01,-7.572805667258888374e-01,-5.679382300285584079e-02,-3.966630824581816872e-02,2.062431882934729621e-01,1.304735660552978516e+00
2.596116097061714201e-01,-7.633236345011511492e-01,-7.678063731985005358e-01,-1.536703366962851626e-02,-2.659031139074724895e-03,-1.374856114279139792e-03,1.025542497634887695e+00
3.376803335850592225e-01,-6.849665409100362812e-01,-7.888001351448490350e-01,-5.536991624401500778e-03,-1.894119866775779981e-02,-1.309648854501328612e-02,1.079099655151367188e+00
3.540825360571349112e-01,-7.388137808148432795e-01,-7.707264097754398247e-01,-1.773661950540185136e-03,-1.442664898656583969e-02,-1.810873579200230699e-04,1.109482765197753906e+00
3.606141730678829593e-01,-7.301654823314147613e-01,-7.861696253479714125e-01,-5.737192236944465250e-03,-1.129188002150206642e-02,-6.050925255418543487e-03,1.120096445083618164e+00
8.636843406633976095e-02,-7.247307124526598532e-01,-7.675201661479774673e-01,-6.232804114503113363e-02,-6.363806191856494210e-02,-1.568310348543491221e-03,8.474847674369812012e-01
3.554664630816185000e-01,-7.440049877262799871e-01,-7.711607093096520815e-01,8.081110025656377269e-04,7.563206636947457720e-03,-1.894766498085905405e-03,1.113380551338195801e+00
3.111715552160316256e-01,-7.195758441592370325e-01,-7.029969954213003414e-01,-6.626317335194004717e-05,1.887269385642883308e-03,8.937378850056519261e-03,1.022681117057800293e+00
3.616893873576570995e-01,-7.678325334026481208e-01,-7.666289307194622538e-01,8.082413343347995965e-03,5.791899980842186643e-03,7.143700393927182764e-03,1.129119753837585449e+00
3.603578549083495952e-01,-7.620532141060560871e-01,-7.612458361405968210e-01,3.208086517582715586e-03,5.386428164424785815e-03,-4.480920419272461583e-04,1.122060418128967285e+00
3.564542649254731632e-01,-7.290495773293840243e-01,-7.870337538293474822e-01,-5.759570403046370898e-03,-1.508530189563453416e-02,-6.061360710674384804e-03,1.116026520729064941e+00
3.606938658169351886e-01,-7.480956557599303114e-01,-7.856454105531582854e-01,-8.005956639938709499e-03,-8.513347770671583076e-03,1.037194637412139310e-03,1.128216266632080078e+00
3.360306043015225952e-01,-5.823847674016311426e-01,-8.526771263527468392e-01,1.202305577445622331e-01,3.567211617353744507e-02,1.101852553868275936e-01,1.117314338684082031e+00
3.648945640442264327e-01,-7.849940950759828340e-01,-7.668724088297895758e-01,-7.373879664819619345e-03,6.318940758070294358e-03,-2.374373858380570117e-03,1.141067147254943848e+00
3.589741614893443566e-01,-6.962479664152505521e-01,-8.175883480309249496e-01,-1.256263723719193426e-02,4.683415960834304281e-03,-3.263028995681058176e-04,1.121069908142089844e+00
3.702742183228250328e-01,-7.732743281647442846e-01,-7.730356563277565041e-01,4.154542827860095364e-03,3.025870852720842236e-03,8.323319812991805146e-05,1.143463850021362305e+00
3.661970807185934706e-01,-7.676021947225554198e-01,-7.690423512661719307e-01,-5.901733322865465202e-04,5.133811357743320487e-03,-3.246143089173856612e-03,1.134569287300109863e+00
3.666855619701344104e-01,-7.678354605031461055e-01,-7.690604383723751436e-01,-9.870385757134196233e-04,-5.033224628457944744e-03,2.845162282470203516e-03,1.135179519653320312e+00
3.592673851613952807e-01,-7.609644718370792704e-01,-7.609417038590458038e-01,5.052631359779546569e-03,-5.408884998715278968e-03,4.099200425808832422e-04,1.120294094085693359e+00
3.160739433051412695e-01,-6.893444164484019421e-01,-7.423700129492027955e-01,1.548281941966004531e-04,-5.300586756415491367e-03,-1.069677935956917826e-02,1.033159375190734863e+00
3.530303992247635358e-01,-7.122009433637264131e-01,-7.909804178519774798e-01,1.002940051000304061e-02,-1.252338982149562435e-02,-3.228768126157045837e-02,1.108486413955688477e+00
3.361865222749174653e-01,-6.856395953721927672e-01,-7.818922553248091045e-01,-5.452857260238830675e-03,-1.434752742036663441e-02,-1.249550259393911525e-02,1.073742032051086426e+00
3.345223856510385896e-01,-7.134582033872161055e-01,-7.441339835803078007e-01,-1.736737683722293021e-02,1.776216230836384982e-02,-5.194071870540601515e-02,1.068314909934997559e+00
3.375501776117391106e-01,-7.304755269674292339e-01,-7.446010893951225951e-01,2.043748708331286773e-02,-2.422219117084362799e-02,-7.376647342833332621e-02,1.084113717079162598e+00
5.204423408692226971e-02,-8.094446862762552097e-01,-9.489646566485483437e-01,-2.596643257672786101e-02,-1.075806912050359943e-01,1.496978997695589952e-01,9.928725361824035645e-01
2.960933150415174242e-01,-1.168461512990296713e-01,-1.077780308802807063e+00,4.055979068279190469e-02,-1.369987600687654072e-02,-5.609557107699585099e-02,1.227053165435791016e+00
3.655879432098510518e-01,-2.376237944708949612e-01,-1.034669555783096273e+00,-8.417654737754716151e-04,1.144590030409568283e-02,-2.047866553265189071e-01,1.267336368560791016e+00
1.184209695221988823e-01,-7.859699322607087701e-01,-8.264251902925068283e-01,1.075811982085862761e-02,-1.262593347351078504e-02,-7.215289461220943980e-03,9.258123636245727539e-01
3.261942366284182881e-01,-2.944060397124899087e-01,-8.896799532061719917e-01,-3.402618170872762776e-02,1.283080304425692104e-02,-3.581579424662976741e-01,1.223814249038696289e+00
3.579210516892021299e-01,-7.672363337384795479e-01,-7.831888012761070161e-01,1.251778018921314087e-02,1.133845158459890860e-02,9.430106458173751491e-04,1.133596539497375488e+00
2.700576804507114348e-01,-7.475993539093979123e-01,-7.841474775399382979e-01,-3.258038582544860173e-02,2.328756371095469426e-03,-5.552143385306756822e-03,1.038002014160156250e+00
3.220644396004989085e-01,-7.680647714049222419e-01,-7.786576758123782138e-01,-1.497810534650873687e-02,6.630011434683807936e-03,-2.194423652139243681e-03,1.095837950706481934e+00
3.395216043874053624e-01,-7.766961960704272805e-01,-7.853927839595568061e-01,8.100528313672071892e-03,6.754333593202415525e-04,-2.239317669391754483e-03,1.120686531066894531e+00
3.585404386698363699e-01,-7.721482756494666422e-01,-7.910031223363491737e-01,-2.195763151822693621e-03,3.782980890189396015e-05,1.043707010034641358e-03,1.140240788459777832e+00
3.729654769220109856e-01,-7.748400200510837665e-01,-7.847401595368954652e-01,-9.955714439151914976e-04,1.016290526365186452e-03,8.834705278458485425e-04,1.152791142463684082e+00
3.107248559921884645e-01,-5.869423495392950274e-01,-8.016549635871011992e-01,-9.706301939333391096e-03,-1.351276006121340280e-02,5.357598102774348281e-02,1.026688814163208008e+00
3.291685025483028770e-01,-5.616176833147000780e-01,-8.433171359480959861e-01,1.316209293176359967e-03,-9.874667461647222352e-03,2.235711949293717193e-02,1.060936331748962402e+00
3.390604641750291637e-01,-4.991480562993834136e-01,-9.408379001293314392e-01,-2.176807332811774368e-02,1.669359335002549086e-02,1.654168177329061740e-01,1.162865996360778809e+00
3.329353602263679934e-01,-7.166259388205949987e-01,-7.467419418648675311e-01,-1.731030084212322438e-04,1.537418182039640424e-02,-1.108272987963201950e-02,1.065444588661193848e+00
3.606391625645843924e-01,-7.688331664033454249e-01,-7.408060952764516927e-01,-2.317606545613975014e-02,1.999238557220874707e-02,-2.346973082623789522e-02,1.117721080780029297e+00
3.680340572720216530e-01,-7.772423692501023718e-01,-7.681475932404722151e-01,-1.984202978036918395e-03,1.883563847328995370e-03,-3.774522475550505431e-03,1.140784859657287598e+00
4.350345538820662994e-01,-5.536259885919531110e-01,-9.572462787010342922e-01,-6.045971233221235364e-02,-3.561750814100259760e-02,1.381614434433582617e-01,1.269425153732299805e+00
3.739735443871174403e-01,-4.468496239610362797e-01,-9.454118790546162110e-01,-4.979335095595410765e-02,-1.126656544614029927e-02,6.774272086117988367e-02,1.163242340087890625e+00
3.690805415950239587e-01,-7.705157207546000642e-01,-7.788294951079790529e-01,-5.096105494949747065e-03,5.767633338192502089e-03,-1.917810638914479960e-03,1.143858313560485840e+00
3.244100854133068479e-01,-5.150549573458834685e-01,-8.750005057181489132e-01,-8.845548362939964493e-03,-4.931452357315802178e-03,5.081024740294411146e-02,1.069802165031433105e+00
4.096951551114556556e-01,-8.468577262357204205e-01,-7.621900446947296182e-01,2.702011634588459554e-02,4.533465067376227925e-02,-1.005037297478482278e-01,1.232218861579895020e+00
3.189178794993450805e-01,-6.918370840120270371e-01,-7.426658253086875217e-01,-1.022426454098524298e-03,5.069326570694329334e-03,-1.336293404578060492e-02,1.037400841712951660e+00
3.099807981606942375e-01,-7.878441796256833163e-01,-7.667083060951223050e-01,1.733673416448945626e-02,-9.920467386613250615e-03,-2.270234488640248890e-02,1.088671684265136719e+00
3.454059583468822026e-01,-8.235073311494078840e-01,-7.224718404440005903e-01,2.545524402525150068e-02,-1.034828230293241731e-02,-6.595166247461102527e-02,1.128618121147155762e+00
3.636956144448040829e-01,-8.421758303478352747e-01,-6.923646816176700636e-01,-1.208853173092739111e-02,-1.292072756424192913e-02,-9.153014670209529483e-03,1.138906002044677734e+00
3.174111187119000865e-01,-6.908703509523697051e-01,-7.468184596493699923e-01,-2.398107663150573859e-04,5.772302190905403887e-04,-1.223783728913454064e-02,1.037604808807373047e+00
3.512405012586776731e-01,-7.888023122274924193e-01,-7.565629393537682823e-01,-7.827146886891138758e-03,8.756147203672362545e-03,-7.206766409598041982e-03,1.124523162841796875e+00
3.617298838243286352e-01,-8.210041429796652857e-01,-7.010016686783687723e-01,-6.173008275247664732e-03,-1.111919994562344562e-02,-4.354331913155151369e-05,1.127747535705566406e+00
3.570990963612047375e-01,-8.172836854158724851e-01,-7.136969665423734677e-01,-4.864956166347924292e-03,1.181192094371184657e-02,-8.532976565949557460e-03,1.126482486724853516e+00
3.363556279015715855e-01,-7.100125217087359664e-01,-7.582728509774553372e-01,-1.453940460625384543e-03,-1.488911331854520133e-02,-4.370114786080278590e-03,1.071653962135314941e+00
9.248161864872167515e-02,-7.191845067702188343e-01,-7.240754911812148364e-01,9.808721432009772853e-03,-2.510657292129837587e-03,1.403310635091482286e-03,8.143151402473449707e-01
3.173439815475500025e-01,-8.349091341277878886e-01,-5.635613948065461010e-01,1.124051402870503060e-03,2.838786590984785675e-03,1.437585100082482657e-02,1.043696999549865723e+00
3.547328966257233818e-01,-7.936843428317552629e-01,-7.283707751419725707e-01,-1.135866721878858211e-02,1.382703385502451546e-02,-3.709101393404203115e-03,1.117641568183898926e+00
3.483379037397311695e-01,-7.394569778917490233e-01,-7.569060685790393039e-01,-1.418446637384949797e-03,-7.156505775112288227e-03,-3.785807812904640711e-03,1.096715927124023438e+00
3.281535278321525695e-01,-7.295317617190807402e-01,-7.242044575484077873e-01,-2.182933878594638848e-04,9.596822689539669798e-03,-4.475175156601835305e-03,1.055191159248352051e+00
3.507743732990263319e-01,-7.888664492175281318e-01,-7.593132088610259345e-01,3.930104272102898609e-03,-1.010804409239634064e-02,-8.300704848603498130e-04,1.125313043594360352e+00
3.578722643666900627e-01,-7.896015188603688895e-01,-7.744102857077614921e-01,5.227919212515986722e-03,-4.819963162717309270e-03,2.246082684554802974e-03,1.140027284622192383e+00
3.627574928167400237e-01,-8.075230462340461379e-01,-7.281012728484724805e-01,1.365747581044847621e-02,-1.338904680370354809e-02,-3.163402228840650476e-03,1.133157491683959961e+00
3.589403926738881090e-01,-7.880724449772736895e-01,-7.779429547445342319e-01,4.332119269433941031e-03,-3.750673898945535573e-03,1.132630368011494680e-03,1.142026543617248535e+00
3.442659398444274932e-01,-7.713438510959977901e-01,-7.877291878855977592e-01,6.440337076140730845e-03,-1.389551922466893661e-04,-6.536791902731467127e-05,1.123947381973266602e+00
3.593286667406033197e-01,-7.631347165360554685e-01,-8.011389645351072453e-01,-7.892833873412547288e-03,-2.989243694743218618e-03,-4.729131513159825530e-03,1.142062902450561523e+00
3.442695741474325888e-01,-7.569402100763467089e-01,-7.299792342982421856e-01,1.231561973640656407e-02,-8.703009172416235201e-03,-5.030201702512419534e-03,1.088328242301940918e+00
3.424404019866062465e-01,-7.714407425270994878e-01,-7.844502877912100658e-01,7.855487293272121405e-03,-1.479810397012822814e-03,-1.326611885679148404e-03,1.120530486106872559e+00
3.287583667789086284e-01,-7.102422500075646905e-01,-7.444917101525905245e-01,-5.002664304930139281e-04,-9.103579111105382371e-03,-7.839433946682534265e-03,1.056747078895568848e+00
3.713519178895849926e-01,-7.750539714294676363e-01,-7.800994803998509974e-01,-3.367150237880741216e-04,-4.494583158675668003e-03,6.955975838633828272e-04,1.148964047431945801e+00
3.584745233941680764e-01,-7.710822335334326372e-01,-7.912210164827772063e-01,3.169931631905794148e-03,7.916150035830903835e-04,6.259502543428890442e-05,1.139773607254028320e+00
3.347844959103895013e-01,-8.759870134586527080e-01,-7.689971998100654238e-01,1.224148486792516442e-02,-5.699699207434679588e-03,3.675378754622816470e-03,1.161232829093933105e+00
3.280827129879158033e-01,-7.296837293323356066e-01,-7.259707196271292240e-01,-2.345889107810255334e-04,7.178422098322266836e-04,1.070571777483797157e-03,1.055917263031005859e+00
3.688003104723376335e-01,-7.771246917834531143e-01,-7.710697264565122833e-01,4.728759414163231402e-03,-2.384155703241641784e-03,-7.626778531444139636e-04,1.142947077751159668e+00
1.745020535559156372e-01,-1.019978037536378945e+00,-7.340030886302738589e-01,-1.995321562614875074e-02,-5.861310716722190756e-02,1.815124207818632207e-01,1.130183219909667969e+00
1.140831292124744323e-01,-7.386198108385586547e-01,-7.247928091186176536e-01,-1.590099129522101751e-02,-4.302455927497625746e-03,7.755137600358344256e-05,8.463552594184875488e-01
1.202901049000269507e-01,-8.641359995942825556e-01,-5.527947172814521304e-01,-7.843607742969192775e-02,1.989457567709767075e-02,2.454308756337312825e-01,9.797390699386596680e-01
3.130064825613784740e-01,-7.867840651812053610e-01,-7.597613995291818689e-01,-2.334959890202268837e-02,-3.621512085951015397e-02,1.537921008609390017e-02,1.089417219161987305e+00
3.609124572883390392e-01,-9.058487108303259205e-01,-7.335053992946345414e-01,2.902182892933763761e-02,2.176949619523061222e-02,4.755160707388137592e-02,1.194487452507019043e+00
2.066961120493036042e-01,-7.565251895447231423e-01,-7.529005728504146733e-01,4.511494979649904175e-03,-7.846318618859930705e-02,-1.229109296477124726e-02,9.712367057800292969e-01
4.454749580615006144e-01,-8.071979268263156371e-01,-6.942695414307770152e-01,-1.365989136971192163e-03,-1.053286550275729476e-02,-2.611279297697767232e-01,1.282724261283874512e+00
3.419854379530836153e-01,-8.257173035778071490e-01,-6.145436604188418972e-01,-5.017938508228127550e-03,1.452367200583308537e-02,-9.221637523320409813e-02,1.089842081069946289e+00
3.194824458884912843e-01,-7.473745806039153727e-01,-6.705279583642428376e-01,-7.753141949537508803e-04,-5.743346345327502572e-03,-3.350199794672727854e-02,1.032265901565551758e+00
3.284212360383215179e-01,-7.903595301910367743e-01,-6.542783372137097597e-01,6.580489095745213970e-03,-1.137730051654152821e-02,-2.047551757254712640e-02,1.058167934417724609e+00
3.068510307202493292e-01,-7.446259550234344271e-01,-6.541637154266743970e-01,-3.698843395620729155e-03,4.356370008891235004e-03,-2.753631335877173777e-02,1.010465741157531738e+00
3.112245806536245718e-01,-7.862304915697434504e-01,-5.978879238678878050e-01,-7.172700427053810019e-04,2.409171053335899381e-03,-4.526419528752484434e-02,1.019484400749206543e+00
3.174688409249623033e-01,-8.050018402033576326e-01,-6.072754151007997425e-01,8.475632221030671501e-03,-1.018289762001015758e-02,-5.067833322343225089e-02,1.041789531707763672e+00
3.309045275914344053e-01,-8.008154959082567359e-01,-6.216450010786604974e-01,-5.285259907879515974e-03,8.667404457240214521e-03,-4.249501484389104494e-02,1.056337118148803711e+00
3.483225713006091739e-01,-7.924458033492229880e-01,-7.211381971825266968e-01,-2.444441074906081313e-02,1.973938572624265794e-02,-2.600501909455181157e-02,1.109090685844421387e+00
4.495387599984251858e-01,-8.663957639906773034e-01,-6.161038300824868141e-01,-8.264103499289597587e-03,-2.758583607901898826e-02,-1.921430831482087709e-01,1.256266951560974121e+00
3.559564366146806269e-01,-7.852771035819814394e-01,-7.661329298623384965e-01,-2.508323062501897210e-02,2.107472010727013539e-02,-1.459848053852556837e-02,1.133486628532409668e+00
3.287002875771510291e-01,-8.508523057849132210e-01,-5.658185557552032341e-01,-1.649988077954992263e-02,5.501996667843164768e-03,-7.981351237884409811e-02,1.075357794761657715e+00
3.227928267068164714e-01,-8.485280068305782741e-01,-5.566278122714242160e-01,-1.813342321606065122e-02,2.604707969428539729e-02,-4.406686259099624331e-02,1.060253262519836426e+00
3.100371294863933369e-01,-7.993850209308470678e-01,-5.958385905248065884e-01,-7.434964979102612857e-03,1.003586998296744393e-04,-3.973003019430589727e-02,1.025344371795654297e+00
3.521808392238952590e-01,-8.673546014596271725e-01,-5.787607041390459006e-01,1.376506696290668262e-02,3.067501284988045571e-03,-9.267016586796827937e-02,1.115778923034667969e+00
3.553829170262273740e-01,-7.858910492222326294e-01,-7.276433941793654103e-01,-1.412038030930836720e-02,-3.549548069490468527e-03,-3.373563985667966079e-03,1.113594412803649902e+00
3.257655847404192784e-01,-8.458152754380920957e-01,-5.554531070935305737e-01,-5.918794650516421771e-03,1.059054703061355560e-02,-4.755569754301688240e-02,1.060167551040649414e+00
3.664752642405564309e-01,-7.678355812111992140e-01,-7.699804066083775211e-01,-2.644937847446141889e-03,5.480090650095780338e-04,-5.045629989276031145e-03,1.135428071022033691e+00
3.209062037938829048e-01,-7.338729041728115909e-01,-7.114035493308328295e-01,3.045640342065541756e-03,5.101894306851160847e-03,9.595694351891692966e-03,1.043908953666687012e+00
3.150860046836387318e-01,-7.124884057726525999e-01,-7.185678902672774093e-01,-3.352190282413947814e-04,3.206166248510279940e-03,-5.511987023760682100e-03,1.030686974525451660e+00
3.388819573561961951e-01,-7.830540776333295705e-01,-6.933575386609278635e-01,1.207324282925869956e-02,-2.590558709875289594e-04,7.963879306693915153e-03,1.080175876617431641e+00
3.143897532011762364e-01,-7.178321639011605582e-01,-7.140108230821360369e-01,-8.281305201189039476e-04,4.041670101479495191e-04,3.220904828829959654e-03,1.030332922935485840e+00
3.155762253086885072e-01,-7.118412617462803738e-01,-7.238368443099814087e-01,-5.621994595309984201e-04,-7.530787502721261262e-04,-6.434076332069159007e-03,1.033528804779052734e+00
3.230955876194975263e-01,-7.282778485678799152e-01,-7.216369165235021477e-01,5.207396866694337378e-03,2.688483883039872319e-03,3.263910481344700718e-03,1.048133134841918945e+00
3.100365796466613699e-01,-7.008457238344492080e-01,-7.160400035112624018e-01,-1.015137520247586054e-03,1.632392269001154122e-03,1.333698640847343075e-02,1.018831849098205566e+00
3.301494512199670273e-01,-7.340025180567736340e-01,-7.308896693947457557e-01,6.465144327431688459e-03,1.234387858219730162e-02,1.854841777919486595e-02,1.063358426094055176e+00
3.190049396982607699e-01,-7.142461363043861589e-01,-7.260796158026179281e-01,-7.861527181526803941e-05,-3.666229054917779975e-03,-3.724451034837977272e-03,1.039257764816284180e+00
3.377337655827090113e-01,-7.358724123873792156e-01,-7.343305241589099808e-01,1.297125144189018899e-02,1.179116643821245293e-02,2.173374590112250523e-02,1.073925614356994629e+00
3.280055100350559028e-01,-7.348886581842524190e-01,-7.181102136715590278e-01,6.603676949295621441e-03,-4.862670596949357060e-04,1.158115097982962728e-02,1.054858207702636719e+00
3.415964551830913409e-01,-7.438692013952572513e-01,-7.400741409309395946e-01,6.010887900294769638e-03,7.110210197016132196e-03,2.076774855415658861e-03,1.083699107170104980e+00
3.735146349934749810e-01,-7.786093521121395522e-01,-7.802563814120673236e-01,2.821912480908570550e-03,-6.674519012363603102e-05,3.098636885993095395e-03,1.152971267700195312e+00
3.350380566419152162e-01,-7.287034367074809449e-01,-7.440565113606176784e-01,-6.907744747353119987e-05,-9.098134835933325074e-03,-1.364017994219916385e-03,1.071619033813476562e+00
3.677571699486940071e-01,-7.819898980941315525e-01,-7.696677867380212756e-01,7.302297638944741862e-03,-5.135155616265655448e-03,1.824023223442103987e-04,1.143740415573120117e+00
3.543675587551226580e-01,-7.518209941335416424e-01,-7.615053424501567747e-01,-2.993406517084580228e-04,-9.065063207645411222e-03,1.062382904375197730e-03,1.111174941062927246e+00
3.702194392970329373e-01,-7.793982740067781911e-01,-7.703514858138726940e-01,4.543955680192887821e-03,-5.957264792501768512e-03,-6.205606157701974539e-04,1.145195126533508301e+00
3.711066162274609392e-01,-7.817679601267091272e-01,-7.754487017449440689e-01,1.608881796163580532e-03,1.015745740840824857e-03,2.561621615834962489e-03,1.149741291999816895e+00
4.119165531392124380e-01,-1.721731697636872394e-01,-1.278443772934936495e+00,1.608052142002045631e-02,1.266125502733870256e-01,-1.736652693835963324e-01,1.533135175704956055e+00
3.671877203612124996e-01,-7.929915327341023890e-01,-7.595155151019501449e-01,9.657586797242490029e-03,6.997402700606997553e-03,1.031608617675656763e-03,1.143996596336364746e+00
3.724798538364327283e-01,-7.765765087698741631e-01,-7.841836950636202896e-01,3.592486764994996481e-04,2.274413075953987326e-03,3.679395901669720026e-03,1.152903318405151367e+00
3.723258426249076436e-01,-7.758158705996791582e-01,-7.832350920523076798e-01,1.066421987067747539e-03,7.488957861503416427e-03,6.449534746225506557e-04,1.151944279670715332e+00
3.748283090204221901e-01,-7.776998024842189938e-01,-7.789579902318066740e-01,1.302253984604676831e-03,-1.286956137709114201e-03,-2.655588802059110267e-07,1.153162121772766113e+00
3.674215547342777333e-01,-7.698443332276447837e-01,-7.769265806234799676e-01,-4.319420044808145939e-03,6.221377908777126625e-03,-6.703259798640608114e-04,1.140899538993835449e+00
3.753190071427298102e-01,-7.781512927836657934e-01,-7.825338704261587397e-01,-2.245239676144668902e-03,3.923823203358823598e-03,6.150379233977494586e-04,1.155694842338562012e+00
3.697350129091965254e-01,-7.775544502742882669e-01,-7.761019532437449797e-01,-2.601814035166645240e-03,6.376722747060714104e-03,-5.518283899867925096e-04,1.146626353263854980e+00
3.720816563701475066e-01,-7.862738573011873733e-01,-7.781807601956178821e-01,5.345402970415560374e-03,6.005010237714006761e-04,1.436932818702067868e-03,1.154370546340942383e+00
3.657472354575929119e-01,-7.851688420475972929e-01,-7.733681056057664094e-01,6.748268873011005475e-04,2.545984471989650756e-03,1.432515989804937755e-03,1.145073056221008301e+00
3.690643776444341717e-01,-7.868336706819828441e-01,-7.694047114499185103e-01,5.309448590664759757e-03,-5.367180159539033935e-03,-2.162158543102955365e-04,1.147357463836669922e+00
3.701904799691294046e-01,-7.792283768892449558e-01,-7.705130386742509163e-01,2.806375053597529902e-03,-4.225808271680717154e-03,-6.140996984479697111e-04,1.145120263099670410e+00
3.643686876823633014e-01,-7.798981305758729832e-01,-7.767545209455770649e-01,8.941848027726871000e-05,4.814921433516312042e-03,1.190259499691966776e-03,1.142730593681335449e+00
3.632993005499889350e-01,-7.838765999518688687e-01,-7.777299897284259966e-01,-4.330898218474312010e-04,-2.891824024911622115e-03,3.729456112333340897e-04,1.144126415252685547e+00
2.212909194625546916e-01,-7.628076768532257024e-01,-7.632381128094418710e-01,5.983693582529022587e-02,2.818997477829176743e-02,1.370647451989937329e-02,9.912430644035339355e-01
4.001894731990778831e-01,-6.304092150968266806e-01,-8.555419683091685101e-01,2.175313367641589987e-02,-1.496612510826355203e-04,2.075827326340822787e-01,1.214714527130126953e+00
3.169872435841701308e-01,-7.809667497029979533e-01,-7.736550818235643501e-01,-1.514006986001941585e-02,-7.654562385017198850e-03,1.217047424330323880e-03,1.094712972640991211e+00
3.670657307145813730e-01,-7.544192692395117472e-01,-7.890876827050365971e-01,5.131186907093313260e-04,-1.401782123182835661e-02,5.369683081833402996e-03,1.139511942863464355e+00
2.352161677554453489e-01,-7.614553583562722050e-01,-7.603717709944930458e-01,3.099868273465722357e-02,-2.246818812799466440e-03,-1.347487326493928975e-03,9.975864291191101074e-01
2.978373939064813958e-01,-7.745671032836212166e-01,-7.729791504309108108e-01,-1.192992221012820729e-02,4.069519097285474556e-03,-2.403857459175361058e-03,1.071841835975646973e+00
3.006288541417967974e-01,-7.653388845703896770e-01,-7.746076023685349865e-01,5.658912781038914416e-03,7.541744839838515103e-03,1.325683622826923152e-05,1.070756793022155762e+00
3.133242557770760661e-01,-7.225939984594220711e-01,-7.009472744852993653e-01,-3.322726941666869719e-03,-9.049893678101262467e-04,1.060342614455853788e-02,1.025448083877563477e+00
2.990898094586371125e-01,-7.588950195331845006e-01,-7.774125952784124438e-01,1.120711780702472217e-02,2.016993737195914467e-03,-1.875946205339291441e-03,1.067551255226135254e+00
3.241111631907876989e-01,-7.703660690594595906e-01,-7.755369630583623941e-01,1.056555792177141240e-02,3.844839650353583122e-03,-8.630727966210892908e-04,1.097245693206787109e+00
4.954979765689616622e-01,-7.785556573811578396e-01,-7.834568321923556233e-01,-3.252902735988702498e-02,2.207245348583665445e-02,-2.702618735721586396e-01,1.361338138580322266e+00
3.106069465801107876e-01,-5.196814097220006090e-01,-8.388045375860866404e-01,3.745937877602515363e-03,8.761909829478137235e-03,-1.408662266163663579e-01,1.056401848793029785e+00
1.913442164420248726e-01,-7.492062218974716581e-01,-7.503427874541493958e-01,1.179870602489052449e-02,3.976981544318482741e-03,8.280866715101581474e-04,9.413673877716064453e-01
3.262785811251059931e-01,-6.198108271097131361e-01,-8.096635707040880092e-01,6.666699594134150621e-03,-3.541719055993116424e-03,-8.930086418711227769e-02,1.065289497375488281e+00
4.176057007550247890e-01,-6.096972455377168698e-01,-8.117042588911165257e-01,-7.356155130110549056e-02,6.640625421044457632e-02,-1.961321397704116898e-01,1.203556060791015625e+00
3.448082777828813117e-01,-6.693951456318483206e-01,-7.517765659618185214e-01,1.213269342291930716e-02,4.260963974783689955e-03,-1.328245064471448855e-01,1.082760334014892578e+00
3.451446115052353991e-01,-8.453130690873540409e-01,-6.168360568342412531e-01,1.008389459943570196e-02,-1.767975620850143967e-02,-4.244817630543899767e-02,1.097290873527526855e+00
3.742977832444099318e-01,-8.926195572906294728e-01,-5.799404886578357621e-01,5.031074054817275681e-02,-1.730465656582094724e-02,-1.959417480687165314e-01,1.195985198020935059e+00
3.356764379578933144e-01,-8.281099529607263143e-01,-6.528397720299387030e-01,3.786042246100206066e-02,-3.662460325122263508e-03,-8.577432859897962669e-02,1.098887443542480469e+00
3.232171675260713251e-01,-8.062177215037060751e-01,-6.233821663777848743e-01,1.603178564656897523e-02,-1.244993984977600145e-02,-2.591934138794142056e-02,1.051571488380432129e+00
3.726563125426991530e-01,-7.810688130249234806e-01,-7.783458589407358241e-01,-3.372200496189651110e-03,-2.306389286929830425e-03,-8.866680343708170263e-04,1.152388811111450195e+00
3.161767364527642843e-01,-7.104261996551277658e-01,-7.174580581953262648e-01,-6.525854906829327111e-03,5.047808460897197126e-03,-1.477759961001250816e-02,1.030553936958312988e+00
3.607810367623838776e-01,-7.727335721977602878e-01,-7.894067419419291687e-01,3.733179536662089865e-03,5.601022488674233446e-04,-9.118210393890199827e-04,1.141962289810180664e+00
3.227796734794889932e-01,-7.261646454086302382e-01,-7.207543934832112420e-01,-5.616899170457968771e-03,4.253215352238557193e-03,-2.621488527102109733e-03,1.046330690383911133e+00
3.224334531646007029e-01,-7.211234625454884251e-01,-7.247096600451212733e-01,-4.996281325473148419e-03,4.688297098696250949e-03,-1.901260514893817572e-03,1.045427203178405762e+00
3.644132788280509683e-01,-7.615806217374923026e-01,-7.693183271074107710e-01,1.759839879151404475e-03,-2.300202433480176231e-04,-2.994214667991837008e-03,1.129898667335510254e+00
3.727525443927226512e-01,-7.763209799168271363e-01,-7.742746217861125047e-01,6.482799415286564495e-04,-1.788792662062361517e-03,-4.091683818578386808e-05,1.148056387901306152e+00
3.155830857847307103e-01,-7.127858429605913315e-01,-7.194028784775958751e-01,-1.159269895862963771e-03,1.048330098530745724e-03,-2.606934992098983248e-03,1.031706809997558594e+00
3.637740621349911385e-01,-7.997676295404256841e-01,-7.744266118391399667e-01,2.798034375067927695e-03,1.288560239711119453e-03,2.346265670071797250e-03,1.151099920272827148e+00
3.563766441613581137e-01,-7.879280324982755879e-01,-7.738512919109243882e-01,4.977304225343947598e-03,1.625140883054305855e-03,-7.756257774396295478e-04,1.137368559837341309e+00
3.398168598612153479e-01,-7.831171230864050203e-01,-7.696847803292936607e-01,1.677011024536824782e-03,-6.712397914225839285e-03,-6.375535657558823680e-04,1.116343259811401367e+00
3.601264615795549684e-01,-7.890451216481981778e-01,-7.751750834238937404e-01,2.386230288572429930e-04,-1.673806675693355556e-03,-1.083011460704118561e-03,1.142305016517639160e+00
3.643773510496175483e-01,-7.738255537658134120e-01,-7.802743341437414770e-01,4.124973603738464265e-03,-1.245229592635225873e-03,-2.888430806634527826e-03,1.141476273536682129e+00
3.733293069530055908e-01,-7.769733003033222341e-01,-7.832512711230652513e-01,2.237830525585617677e-03,-4.711496674649227889e-03,1.082206023484130546e-04,1.153489828109741211e+00
3.562011568774161585e-01,-7.542592679400740296e-01,-7.631925600946274368e-01,-9.200412915904451067e-03,-1.611244594496951191e-02,1.706252685109153205e-02,1.115808367729187012e+00
3.624584953563427803e-01,-7.765092802919952852e-01,-7.849313865119553757e-01,2.413106217708140509e-03,6.000998959856154421e-04,9.010036544830973219e-04,1.143211245536804199e+00
3.191177838347070139e-01,-7.106434174164656392e-01,-7.274275567838730527e-01,2.579142516485048719e-03,3.422660935410750272e-03,1.351820473161116989e-02,1.038545489311218262e+00
3.655606573018902461e-01,-7.755062451872678508e-01,-7.814168466736263197e-01,-2.060936735624183287e-03,7.158273435784160863e-04,1.413880661406788396e-04,1.144039869308471680e+00
3.623706384071490594e-01,-7.748350109414716691e-01,-7.828696419592739986e-01,-6.202050923530635397e-04,-3.859043384831942290e-03,1.176438901077130365e-03,1.141266107559204102e+00
3.743664640987486303e-01,-7.772151083327243359e-01,-7.773128210314147468e-01,-1.152131548949088691e-03,6.232270446732182103e-04,-5.720738675940384779e-04,1.151633143424987793e+00
3.501389940675079804e-01,-7.436308620030523953e-01,-7.556843303494771291e-01,1.182065429424447979e-03,-1.000575328065231659e-04,-6.098310776024852900e-03,1.099898815155029297e+00
3.711930081617677013e-01,-7.721027910288706941e-01,-7.745427268229312379e-01,-2.725969650955307414e-03,-2.365503631074098931e-03,8.366321562507453291e-04,1.144535660743713379e+00
3.750954394375958234e-01,-7.769860194491599037e-01,-7.747729289722209423e-01,1.038209457567518495e-04,8.302907085990471900e-04,-1.140099055096173821e-03,1.150979161262512207e+00
3.757707701802450173e-01,-7.784056820724349901e-01,-7.790819730071383287e-01,-1.631055385690473010e-03,-1.031125659460708621e-03,2.664028630490915540e-07,1.154519557952880859e+00
3.712329263957145353e-01,-7.794605817121986746e-01,-7.711584790460759287e-01,-6.069335610691614820e-03,-2.748707555757244451e-03,1.480743162188527225e-03,1.146625995635986328e+00
3.707089202540844730e-01,-7.709944024004733443e-01,-7.751053023798514241e-01,-1.887017982556426577e-03,-1.137297024216096363e-03,1.242568857094683956e-03,1.143772721290588379e+00
2.731222928952865558e-01,-7.450257973659617505e-01,-7.983933367502888956e-01,1.541686250103472405e-02,-1.778097012877816532e-02,1.898623179510645909e-02,1.047164082527160645e+00
3.611669339960192349e-01,-7.700860460536251839e-01,-7.529865403387288048e-01,-1.344287611261941323e-02,9.330928530878796921e-04,2.684545913464776463e-03,1.123053073883056641e+00
3.375737531755065302e-01,-6.357452547469863990e-01,-8.257691036020278208e-01,-1.372253367874862184e-02,-1.656304046626315418e-02,2.739970148835093808e-02,1.082613945007324219e+00
3.711487426188175842e-01,-7.763652529993971818e-01,-7.761802733465834603e-01,-7.061131857136600199e-04,-2.406379230208333835e-04,-6.686272336071189806e-04,1.147422790527343750e+00
3.634356540682140424e-01,-7.744722013391629467e-01,-7.846540129794444818e-01,7.912883270985415426e-03,-5.995810081120685545e-03,1.363377645920313365e-03,1.143164515495300293e+00
3.174958838280293461e-01,-8.732833540369229208e-01,-5.226723362738014966e-01,5.616486065046493760e-03,-2.427435509792425644e-03,6.334927778150921049e-03,1.060007333755493164e+00
3.614550014898917363e-01,-7.737546009750987386e-01,-7.902866882197711051e-01,3.674005345386871599e-03,-5.162685942516892848e-03,9.892887041629658436e-04,1.143619179725646973e+00
3.515858228323381907e-01,-7.737454584973404437e-01,-7.839485823857554880e-01,-3.388165571255273394e-03,-3.560568042443591676e-03,1.303785373656203431e-03,1.130501627922058105e+00
3.581735246279673102e-01,-7.763661019506492567e-01,-7.892802502368877482e-01,2.950508626547570026e-03,-6.191709669719479845e-04,6.618099949238809851e-04,1.141064047813415527e+00
3.233591021145409972e-01,-4.949710468115953166e-01,-8.787630404547137619e-01,7.631832136494851732e-03,1.082205696631747573e-02,7.993400561337224430e-02,1.072717785835266113e+00
3.692240625113794583e-01,-7.835454605082283752e-01,-7.775863015115875854e-01,3.499410940234299813e-03,9.302024448461864532e-04,-3.074035832099480925e-04,1.149818778038024902e+00
3.604373947471131712e-01,-7.690188536964666088e-01,-7.560178964168919880e-01,9.213175813397447150e-03,-6.820366083841602513e-03,-4.426417417575773637e-03,1.123213887214660645e+00
3.512211665531389526e-01,-7.551447082748075079e-01,-7.514129633987871593e-01,1.247300952871360606e-02,-7.931395989777031974e-03,-4.568076292859786676e-03,1.104829788208007812e+00
3.162473988886890797e-01,-7.195021870830456967e-01,-7.153138197587377567e-01,4.380055685038348199e-04,-7.517324254371113941e-04,1.774773592492673953e-03,1.033667445182800293e+00
3.502705621747568832e-01,-7.816081603878153317e-01,-7.797383822061226821e-01,4.279897332930036359e-03,3.517119310816726064e-03,-2.974415662037167493e-03,1.130997419357299805e+00
3.441537552543904033e-01,-7.383374897491152833e-01,-7.511429751533533761e-01,5.408557271632014225e-03,-5.350127470222076215e-03,-9.326895644541335212e-03,1.089149951934814453e+00
3.369686202983866452e-01,-7.790511992122602924e-01,-7.774269347978723932e-01,3.103076979731291506e-03,6.820375130018905413e-03,-1.431273868125959190e-03,1.115286827087402344e+00
3.675690196068731042e-01,-7.782839833062716872e-01,-7.835912591828497753e-01,1.900747254870994692e-03,3.989089422600469725e-03,-1.378770232813534159e-03,1.148543834686279297e+00
1.625103388045239239e-01,-7.238064089269976575e-01,-7.845406634077931596e-01,3.122101256002595901e-02,-1.373275965928818024e-02,4.282341000415106590e-03,9.201200008392333984e-01
3.598038525962489742e-01,-7.857465197179589467e-01,-7.762635756591855785e-01,4.059307771480408916e-03,2.377604811713813094e-03,-2.962809991481657901e-04,1.140867710113525391e+00
3.514725074232363800e-01,-7.559802765038791117e-01,-7.485187544508550284e-01,7.854684024401479767e-03,1.354801516366647886e-03,-9.050261464621548683e-04,1.103828430175781250e+00
3.132859580384412812e-01,-7.718159679188130173e-01,-7.747456218843156162e-01,4.679316982701232225e-03,4.070482947408009949e-03,-3.690009583507608722e-03,1.086641669273376465e+00
2.705923630220406495e-01,-7.597315595875440142e-01,-7.680558859961938989e-01,-2.438106490473570826e-03,1.145501396530275266e-02,5.152891024584255360e-03,1.034748554229736328e+00
3.480164015390507792e-01,-7.872100354040595382e-01,-7.737394182647610030e-01,2.672073789651556886e-03,8.449090441253210432e-03,-2.599611250994561442e-03,1.128664731979370117e+00
3.579102124248039751e-01,-7.888105989958753561e-01,-7.739776604662067516e-01,-1.110532802798737872e-03,-1.330356888519638493e-03,-1.201907617075756267e-03,1.139382600784301758e+00
3.499291935504886819e-01,-7.824693879136794816e-01,-7.779322223091522659e-01,4.111630331219476991e-03,3.911040670527024705e-03,-2.433805466949951184e-03,1.130187392234802246e+00
3.609603385033150480e-01,-7.959457751211707066e-01,-7.753577086062193313e-01,-3.104295996411464593e-03,1.862819430571520428e-03,-6.654521071661976530e-04,1.146768450736999512e+00
3.414317469347350475e-01,-7.834421189611991965e-01,-7.733411476381421013e-01,-8.595100992164431825e-04,1.140431669003513608e-02,-2.565113283827147057e-03,1.120041489601135254e+00
3.469283092330672225e-01,-7.316846849247140572e-01,-7.583070707076700057e-01,-8.759973209872404937e-03,-1.172329157161064450e-02,8.093596721710593841e-03,1.092551589012145996e+00
3.396033573158556695e-01,-7.332377361859887532e-01,-7.410219310069064980e-01,-6.498817265226225146e-03,-7.002892895657189185e-03,9.182286645877115253e-03,1.076998829841613770e+00
3.422273395855658373e-01,-7.440949946158792461e-01,-7.376371470056073409e-01,-7.369927190673819691e-03,-7.785296263555421120e-03,3.233759648512688975e-03,1.083281517028808594e+00
3.622282095211051822e-01,-7.815967155791110343e-01,-7.792415846539241242e-01,4.541155922877180770e-03,4.399499258149613089e-03,-2.119124108635719785e-03,1.142707586288452148e+00
3.631390561808742201e-01,-7.821815621939607333e-01,-7.811662807449659685e-01,4.328974250316604440e-03,3.807114145452489360e-03,-3.550179982900599548e-03,1.144873380661010742e+00
3.149342442355250737e-01,-7.242912079061708530e-01,-7.098201825925152253e-01,-2.878247175293194358e-04,5.849301101517525182e-04,5.262600063070780460e-03,1.032106876373291016e+00
3.062304231770762164e-01,-7.730623376159064808e-01,-7.734664882272884734e-01,5.725842839040842965e-03,5.019555453261816298e-03,-6.278883870472548936e-03,1.079630255699157715e+00
3.506944264964016456e-01,-7.530291717962477316e-01,-7.469802064461843472e-01,-7.397291844492042551e-03,1.177238868951459337e-03,9.363811066471527597e-03,1.100907564163208008e+00
3.653011456928278444e-01,-7.719218636187625826e-01,-7.996260072627918714e-01,-5.816980175256537388e-04,4.399521240305125504e-04,1.508688469226181564e-04,1.151325821876525879e+00
3.562249947744962064e-01,-7.758237552304915186e-01,-7.895388915694223630e-01,2.481442549695336928e-03,3.574768056687901096e-04,8.095918689323114339e-04,1.138977408409118652e+00
3.629708463882123093e-01,-7.721704030316509648e-01,-7.943141797435058216e-01,-4.102745326277107310e-04,5.598370074467331039e-04,-1.435862023387246230e-04,1.146374225616455078e+00
3.402795031338704534e-01,-7.681468242888715992e-01,-7.838058360379536182e-01,-7.665868746380775922e-03,1.449376999367271712e-03,-7.935364105775395910e-04,1.116420865058898926e+00
3.432065429962464775e-01,-7.864086231714531028e-01,-7.719704777076150659e-01,1.260418457251038810e-03,-6.824956179476472824e-03,4.974301823238379792e-04,1.122530460357666016e+00
3.474583801670825256e-01,-7.866121000808893315e-01,-7.729268969384777144e-01,7.080341926309338457e-04,-8.043463355172969856e-03,1.685389963361869797e-04,1.127376914024353027e+00
2.982919326725895770e-01,-7.748141061235030991e-01,-7.651008196521154048e-01,1.965371720521546985e-03,-1.637360800817743919e-02,5.480403300752134362e-04,1.068664789199829102e+00
2.819086570950010695e-01,-8.948819623698358594e-01,-7.115874723714714634e-01,-3.918432742017619735e-02,-7.765716234243097774e-03,3.192877954549355139e-03,1.098886489868164062e+00
3.210302416273754789e-01,-7.833698632962267094e-01,-7.494372520628782564e-01,-3.414167701096915402e-03,6.993779519465149162e-03,2.889236576286054788e-03,1.087925791740417480e+00
3.679116265696719124e-01,-7.810899195436862286e-01,-7.654604221166397826e-01,2.694088631734955445e-03,-4.019595574336499305e-03,-9.006592340661164972e-03,1.141404509544372559e+00
2.975190221015566738e-01,-8.215636749450538900e-01,-7.739266354128625514e-01,9.151587952987837171e-03,1.580266085501662483e-03,1.445338915703558991e-02,1.096444725990295410e+00
6.378264108002781319e-01,-1.031022511217698279e+00,-4.383107305874939241e-01,-1.459595491157019906e-02,9.439286239160088465e-02,2.591614408794667979e-01,1.541454076766967773e+00
2.085695383918923507e-01,-7.485478772048690388e-01,-7.528832531964810837e-01,-2.306538303585274879e-03,3.110973861232652418e-02,-2.178681465869279372e-03,9.608203172683715820e-01
2.933574604306980471e-01,-7.744519268069501861e-01,-7.650656755675444565e-01,-1.756764937919203743e-03,1.452434235601954456e-02,1.219800796111937492e-03,1.063451409339904785e+00
2.783048105343933765e-01,-7.623357026606158993e-01,-7.711867725892032066e-01,4.937246689857046657e-03,1.088288799187869110e-02,-4.169702024212872116e-03,1.045324087142944336e+00
3.753965089118586618e-01,-7.781708103308978552e-01,-7.753653061039197381e-01,5.275609782379095652e-04,-1.056125147425296135e-03,-1.353313376671090021e-03,1.152171373367309570e+00
2.130035118785054138e-01,-7.595184568247621559e-01,-7.517443340484115666e-01,-4.125202227195147475e-04,2.954327058477107873e-02,-1.215467208201767725e-04,9.700092077255249023e-01
3.560460855129833346e-01,-7.698905788946024398e-01,-7.415082696759323078e-01,-1.669973956294630926e-02,2.435367297740417478e-02,-2.648696536823970382e-02,1.114137768745422363e+00
3.625641680571243253e-01,-7.658197673749034262e-01,-7.681125085862896551e-01,-2.227994135465644412e-03,8.490819219440105120e-03,-4.364522737565710783e-03,1.129659652709960938e+00
3.580724616095133372e-01,-7.778051562803054431e-01,-7.444715618041901628e-01,-1.384149537808481573e-02,1.224520379827417557e-02,-4.628300118744388576e-03,1.120069265365600586e+00
3.596333683095039313e-01,-7.517497902522487507e-01,-7.710400305845832580e-01,-7.405247240661070283e-03,9.209493324202877237e-03,-1.172632384423568774e-03,1.121341466903686523e+00
3.701122415421561618e-01,-7.814870590584294119e-01,-7.807866181552328699e-01,9.943170325322491800e-05,5.088670229229104447e-03,1.264870345780965029e-03,1.151285052299499512e+00
3.619562818771590029e-01,-7.570321383620973732e-01,-7.704190405489659277e-01,-8.715210055907859216e-03,1.024155632578781921e-02,-4.645602144248492035e-03,1.126011252403259277e+00
3.637242052198726427e-01,-7.608027124405183361e-01,-7.685359240687130722e-01,6.717761042441579809e-03,-6.513478589389792243e-04,3.015362397253406983e-03,1.128486037254333496e+00
3.625188399022296060e-01,-7.694882914307279442e-01,-7.619243267249735663e-01,8.827846275022525890e-03,-1.969757474607708100e-03,2.664587611384789095e-03,1.128362417221069336e+00
3.163024656394790579e-01,-7.163967645075584034e-01,-7.166317389040403052e-01,-7.279014074385738555e-04,-6.387618490225763050e-03,7.324768424064569648e-03,1.032954692840576172e+00
3.643179132647786922e-01,-7.141604902806115707e-01,-8.148145992453486031e-01,-1.190130115595625787e-02,-1.224729212898654877e-02,-1.798098029538495492e-03,1.132556796073913574e+00
3.565532222370024207e-01,-7.741445295005224825e-01,-7.888708014676972802e-01,-3.153346599052748393e-03,-1.491892589325287009e-03,5.207536911616507998e-04,1.138148784637451172e+00
3.520308635009111731e-01,-7.615885730411036114e-01,-7.913075653269205922e-01,5.151179856545345589e-03,-2.063629981085193538e-03,7.471908208337529715e-04,1.128814101219177246e+00
3.451782179095468917e-01,-7.705559912411019674e-01,-7.860393558983580498e-01,-4.722163813937569829e-03,3.339836158503766209e-03,6.274094369223082255e-04,1.123601078987121582e+00
3.567866107918102325e-01,-7.735683170684400922e-01,-7.894034572074888345e-01,-3.894529582199793023e-03,7.117903243338943365e-05,-1.836174262952911820e-04,1.138375163078308105e+00
3.257440394786394466e-01,-7.243749400383237003e-01,-7.256073031267868956e-01,2.286937963679793199e-04,-8.525320594189615339e-04,7.739095943772414691e-04,1.050737619400024414e+00
3.528414954954073313e-01,-7.614601490097701042e-01,-7.460992086961096836e-01,-1.171049812172718363e-03,-4.512483243181679296e-04,6.218550916073666349e-03,1.106755733489990234e+00
3.523533917541736282e-01,-7.607589787848605400e-01,-7.921418954438377291e-01,3.993597533534754343e-03,-2.209734726474011030e-04,1.279417246880888758e-04,1.129152297973632812e+00
3.563377649898160082e-01,-7.892076586097616087e-01,-7.744256170797798600e-01,-5.766990557699844039e-04,2.071082071305986420e-03,4.591301990521966855e-04,1.138232707977294922e+00
3.562518613802558853e-01,-7.899202056411163131e-01,-7.639958131721338308e-01,-5.439940197980880701e-03,6.655379107043043162e-03,-1.642179629888663593e-04,1.133530020713806152e+00
3.562696285393135986e-01,-7.279967387485202224e-01,-7.834085718850912761e-01,-4.744489233634734994e-03,1.218294286940766608e-02,4.829292226376460766e-03,1.113269090652465820e+00
3.561438393965474236e-01,-7.897579792051931946e-01,-7.737200889433717421e-01,-9.855658793648540330e-04,1.723342415435266586e-03,3.163640628141879555e-04,1.137972950935363770e+00
3.568876188892219359e-01,-7.884285367739973793e-01,-7.759705585384484294e-01,9.930661589826162653e-04,2.929444014899068756e-03,5.853421757013285752e-04,1.139151334762573242e+00
3.523877759974550217e-01,-7.708166214709000208e-01,-7.359532484256441354e-01,6.641186803178983702e-03,-1.012259014760397927e-03,5.594630164871158134e-03,1.106288433074951172e+00
3.188348578663339206e-01,-6.341396118845192831e-01,-7.870113966858361954e-01,-2.152583882228373702e-03,9.012774642734356495e-03,1.563000575205457376e-02,1.038365840911865234e+00
3.525203708182094164e-01,-7.937467175254508955e-01,-7.606220364478526452e-01,-1.580453144717609750e-03,6.987265206443034858e-03,4.900892440576289002e-04,1.130137324333190918e+00
3.715221239494611027e-01,-7.729301775225703164e-01,-7.751933842765439397e-01,3.809352391852192845e-03,3.432710793412038601e-03,1.393940149600248618e-03,1.145622611045837402e+00
3.525190663899316901e-01,-7.529944331279747605e-01,-7.558483132619282507e-01,1.029707707589750179e-02,1.392371671715175035e-02,5.468253086630811208e-03,1.107390046119689941e+00
3.441431583168420572e-01,-7.526067328110221943e-01,-7.372312246363335042e-01,5.398761285987556738e-03,6.997334281533384298e-03,1.238228111201109330e-02,1.089462280273437500e+00
3.592469288713318054e-01,-7.571414073354360008e-01,-7.658993432103491372e-01,6.023974867281560452e-03,8.738748711128863436e-03,2.927340911641641581e-03,1.120955228805541992e+00
3.330307930493306978e-01,-7.281319078322430194e-01,-7.417680224800391464e-01,-3.767465492632594013e-04,-1.265490394463170002e-03,-7.430304091053154154e-03,1.068126082420349121e+00
3.713562693066314035e-01,-7.782163251328280129e-01,-7.712455996467528774e-01,2.051085922944649326e-03,1.667741810910805663e-03,3.887306454540546789e-04,1.146112442016601562e+00
3.490745032353259614e-01,-7.522841066504202256e-01,-7.468350076422423101e-01,7.756339232601853692e-03,-2.052015365277396353e-03,5.068075908609750817e-03,1.098767161369323730e+00
1.220586284517683473e-01,-7.949848421784120323e-01,-7.706824324536953874e-01,-1.334235985112581790e-01,-3.143567085567293418e-02,1.452634654792520075e-01,9.689930677413940430e-01
3.420251720233524750e-01,-7.955777712541347579e-01,-6.682601602500432003e-01,-1.660787029829188452e-02,7.140755976149072530e-03,-7.602643749613706425e-02,1.088041305541992188e+00
3.160736365928600855e-01,-7.834349323872935589e-01,-6.153006125087771006e-01,-1.419721912017254777e-02,1.528286510289435934e-02,-4.504725063460936901e-02,1.029425263404846191e+00
3.738229925979827950e-01,-7.741694167838011342e-01,-7.778309182828337942e-01,1.819401110845464539e-03,-3.214766832003443440e-04,-3.720359875146741981e-04,1.149832129478454590e+00
3.389792473931760308e-01,-7.559103677968682655e-01,-7.251949977122076341e-01,-1.625942693776697215e-02,1.212080762338000640e-02,-6.723361650682213586e-03,1.080493450164794922e+00
3.267560723382636478e-01,-7.441514989421906812e-01,-7.011057821159132342e-01,-9.727517835344494726e-03,6.556553985196944545e-03,-6.756015660611743891e-03,1.050308346748352051e+00
3.157929229465072929e-02,-8.462886471232371477e-01,-8.807189037082421290e-01,6.229919497707753911e-02,-9.422249510013842866e-02,2.372932506089574511e-01,1.004621386528015137e+00
3.730006705067809847e-01,-7.774404949615180138e-01,-7.804292600608363495e-01,-1.211304523044677301e-03,-2.816182507970274758e-03,1.951331356279961151e-04,1.151950716972351074e+00
3.750353321074933466e-01,-7.808106145280163668e-01,-7.793906449527128188e-01,1.948149569805923079e-03,3.496960606073713698e-04,-8.267218950197861372e-04,1.155142545700073242e+00
3.764769005229386400e-01,-7.786957483266390145e-01,-7.778125619561495618e-01,-3.718021738617515759e-08,-5.400611621277594514e-04,3.550845138932002144e-04,1.154731869697570801e+00
3.712051881999317016e-01,-7.811900591732725552e-01,-7.697546064772406993e-01,-1.853205631658622673e-03,-1.685581583174531467e-03,1.457885241594873140e-03,1.146731257438659668e+00
3.645952265732003150e-01,-7.669775678025988475e-01,-7.818226405595822825e-01,-7.048352695142453064e-03,-1.031089337517620587e-02,6.934240371608213971e-04,1.139273881912231445e+00
3.652603831626317632e-01,-7.735944144640967135e-01,-7.811408730276337975e-01,3.253391325349008593e-03,-1.988254333421272588e-04,6.847573544524884412e-04,1.142661333084106445e+00
3.735240879207206155e-01,-7.784581803495567165e-01,-7.808507353312896804e-01,-1.380943107344534447e-03,-2.895898408403588340e-03,-6.222900510429410937e-04,1.153194308280944824e+00
3.738359165275864648e-01,-7.745522816167814684e-01,-7.768444745045575139e-01,8.072034579041432491e-04,6.943359966122896821e-05,-1.041942539460775441e-03,1.149538278579711914e+00
7.403916418569234104e-02,-7.154748888144023544e-01,-7.178568995604437397e-01,-2.364334769037389379e-03,1.649684563384649916e-03,-1.190994105287597991e-03,7.907261848449707031e-01
6.847244671513386116e-02,-6.392833976901836079e-01,-1.006529554149717454e+00,6.872595424967374578e-02,1.040266639369203244e-01,-3.125870151765255262e-02,9.722522497177124023e-01
3.640074623325493253e-01,-7.803530408721888190e-01,-7.781704647960643317e-01,-4.326797729594156205e-03,1.479542267864589374e-03,-1.279618737963845575e-03,1.143300414085388184e+00
3.644013519832621784e-01,-7.841202154777864308e-01,-7.659573832406115779e-01,-5.632429797175737309e-03,-4.964306286597401988e-03,2.547848320463671785e-03,1.139631509780883789e+00
5.582475070977652720e-01,-1.269252879422062996e+00,-4.412539122705478323e-01,-5.861739228728854792e-03,-3.504346826363338024e-02,3.078151536998223747e-01,1.673382520675659180e+00
3.543706891651364765e-01,-7.490296719146284365e-01,-7.572312227265742823e-01,3.195090538365495669e-03,5.313928313218730347e-03,8.696044111844403526e-03,1.107678413391113281e+00
3.728427066709463222e-01,-7.789494708485878993e-01,-7.769018472384628948e-01,-2.117245551475421123e-03,-5.517383416941290140e-04,-6.179226233768140598e-04,1.150776505470275879e+00
3.636977618788548861e-01,-7.616648593725989791e-01,-7.687909040660397819e-01,-9.144188710864892483e-04,-2.053287302422688015e-03,3.486411487543463524e-03,1.128965377807617188e+00
3.623508759097917586e-01,-7.661166341634595423e-01,-7.629996213239198521e-01,-4.383127340032275457e-03,1.448814519169273202e-03,8.742011219102514830e-03,1.127042293548583984e+00
3.220049057391447533e-01,-7.431216522337090735e-01,-6.952625040799391698e-01,-2.880137255038450923e-03,6.305721806313447676e-04,9.192660232709853191e-03,1.042155742645263672e+00
3.709526985246645592e-01,-7.710417449101958365e-01,-7.776601850692268503e-01,-3.766285570456362128e-03,-2.927462049712519290e-03,2.173943666413989217e-04,1.145347833633422852e+00
3.640215905187473289e-01,-7.847631382480293460e-01,-7.608250975410657535e-01,-9.884204843765828641e-03,1.876692108342211405e-03,6.048102956855361733e-04,1.137138724327087402e+00
3.590058603566889106e-01,-7.670370886096805618e-01,-7.816550582936293567e-01,-2.215991489758719311e-03,1.500880333744036973e-03,7.842996848061814866e-03,1.133513569831848145e+00
3.672116740243936972e-01,-7.726660278228111300e-01,-7.809993735215746691e-01,1.058432748854865697e-03,-4.990531356532150464e-03,1.282043221059539452e-03,1.144103407859802246e+00
3.664324913448326893e-01,-7.804831926880129167e-01,-7.720576010995623406e-01,-4.792523341776106470e-03,1.140831185313282651e-03,1.711931135789813074e-03,1.142761945724487305e+00
3.286272264347112615e-01,-8.349337910658731765e-01,-6.024171991086756384e-01,2.049804472781028078e-02,2.494583841264398638e-02,1.616840535411480026e-02,1.068317651748657227e+00
3.702600564813712247e-01,-7.818251819468937658e-01,-7.752970213018031131e-01,-2.391588895220107293e-03,1.124640908328746304e-03,-2.842210635068047157e-03,1.148854732513427734e+00
3.583831851618765607e-01,-7.885429861947762520e-01,-7.719867405546163575e-01,-2.240952008559909123e-04,-5.339906679678024098e-04,-2.513558477015583980e-04,1.138738870620727539e+00
5.411634335306414467e-01,-1.301001333591541353e+00,-2.255951016971769196e-01,-2.441543248151879786e-02,4.832715849314089991e-03,7.965441224675806620e-02,1.609312534332275391e+00
3.728120483423411624e-01,-7.804787890910345194e-01,-7.793641019110335577e-01,-3.526938425313818314e-03,-2.595059902886616421e-03,-6.431704817344323843e-04,1.152759432792663574e+00
3.549846592228033115e-01,-7.499694481820612380e-01,-7.610203243932212036e-01,-7.157036748263937006e-04,9.341290211683237268e-03,-2.857462722311965297e-03,1.110650420188903809e+00
3.357517956703546247e-01,-7.839788199287129888e-01,-7.762345038902528360e-01,-3.874749747908312787e-03,-7.338703881522920004e-03,7.719510914373216856e-04,1.115972042083740234e+00
3.423773146768721021e-01,-7.641204124704418232e-01,-7.122545720447479578e-01,-2.106880336808303680e-02,-2.935528230093977994e-02,5.033374515948842859e-02,1.086809635162353516e+00
1.543402237951285172e-01,-8.335931747370040057e-01,-7.797373123595605637e-01,-6.382775295443836316e-02,-5.787913513894006601e-02,-5.459566446424237753e-03,9.736879467964172363e-01
3.642949909420742927e-01,-7.811443192796537760e-01,-7.835790295748470413e-01,3.269745006738731651e-03,4.097332031026197641e-03,-4.137444966695089099e-03,1.146716952323913574e+00
2.160782584640827952e-01,-7.483918031173015795e-01,-7.756304407388293631e-01,-4.350897487625646730e-03,-4.620226341422775662e-02,8.817468438106347388e-04,9.816712141036987305e-01
2.870410696347586721e-01,-7.855769035441222403e-01,-7.264031559536280325e-01,-8.467015460625114485e-04,1.362862076103841732e-02,1.908146760239511075e-02,1.045079708099365234e+00
3.187101062796957041e-01,-6.478556046466807938e-01,-7.811668442684502889e-01,-2.984241890369690193e-03,-7.299352658034180368e-03,-1.771034168761199609e-02,1.040193557739257812e+00
2.792406279926333279e-01,-7.699622661044349670e-01,-7.619996754486437762e-01,8.270511191116923858e-03,-7.583270291431049026e-03,-5.099048612571468499e-03,1.045462369918823242e+00
2.186205360324758318e-01,-7.568032807476937629e-01,-7.682811071741100228e-01,3.309905642433959576e-04,-4.105141721459125426e-02,5.887748669683326962e-03,9.838389754295349121e-01
3.225853987562678493e-01,-8.349790028785515350e-01,-5.915453172432463269e-01,5.457346012074806504e-03,-5.440789936109836911e-03,1.886106244497828474e-02,1.057672262191772461e+00
3.667497383811494371e-01,-7.621389437566004066e-01,-7.810164228933900166e-01,6.243417490743813011e-03,1.444695176902024113e-02,4.598364711998866733e-03,1.138798952102661133e+00
3.598657012212136963e-01,-7.913288775275996167e-01,-7.776218035268708251e-01,3.324728942374739760e-03,-3.772885993555715693e-03,7.196591528103315431e-04,1.144436478614807129e+00
3.682377876761123714e-01,-7.993720052941933885e-01,-7.740985451788316984e-01,3.868003830459207544e-03,1.085548184322375920e-03,-2.470710507957271391e-03,1.155209302902221680e+00
3.589883753847494807e-01,-7.883406331804588829e-01,-7.784120749772855952e-01,5.875198515304609409e-04,-3.852633061023896712e-03,9.351593979836389601e-04,1.142418146133422852e+00
3.568310509907114403e-01,-7.874130714689084876e-01,-7.782667683524848723e-01,2.410283844261871394e-03,-3.660366459522352862e-03,-6.973547977443264807e-05,1.139723777770996094e+00
3.223117128604863213e-01,-8.844227017187180628e-01,-5.219225578326889270e-01,3.755485210861561748e-04,-2.510586117888397809e-03,6.897965348599166720e-03,1.072536706924438477e+00
3.411622722721766587e-01,-7.875586885975502938e-01,-7.723737652697415523e-01,-3.172582440744962842e-03,7.116878696381626068e-03,2.583278931759453497e-04,1.121286988258361816e+00
3.624419646610097523e-01,-7.947864612534536466e-01,-7.728733431427491363e-01,-9.861337382922794569e-04,4.086013969599460068e-03,6.268030755933595840e-04,1.146452546119689941e+00
2.134031582321609388e-01,-7.549999156436676406e-01,-7.591523065684866456e-01,8.958912988401280392e-03,1.610765011086605705e-02,4.287551931255893269e-03,9.710392355918884277e-01
3.630173256914623336e-01,-7.774439082353352681e-01,-7.751892634628421153e-01,-1.920270735373238178e-03,1.419539044736663636e-03,-2.032131653043245032e-04,1.139343142509460449e+00
3.653978491685808128e-01,-7.676260773285019656e-01,-7.745741877613692150e-01,-5.926905696859608753e-03,-5.638117931513550105e-03,7.889925880423492681e-04,1.136602997779846191e+00
3.738148098587960044e-01,-7.759112831552064105e-01,-7.776093914608718238e-01,1.178065003589737290e-03,-7.526588431651557668e-04,-7.349697457438439862e-04,1.150579333305358887e+00
3.503449542337224720e-01,-7.601454791709376657e-01,-7.370407712709174941e-01,1.392947942104655161e-02,-1.059342918482337505e-03,5.262215158164784863e-03,1.099424362182617188e+00
3.676535647369633675e-01,-7.798955815650931989e-01,-7.670844334051447611e-01,6.389164714936994283e-03,-2.536571067010790631e-03,4.246272725394233116e-03,1.141283273696899414e+00
3.622915747145386001e-01,-7.662539675189417032e-01,-7.645002597988687087e-01,1.180328933415881673e-02,5.232903475861426339e-03,1.155540516092479555e-02,1.128069043159484863e+00
3.660215501715681219e-01,-7.822907568968102687e-01,-7.759840656116658852e-01,7.844209944601818196e-04,-2.883583171985994349e-03,-8.309999827530797781e-04,1.145184636116027832e+00
3.468506923051040691e-01,-7.494582303297743220e-01,-7.417514113130452280e-01,7.441509360760803840e-03,-1.433917458853327777e-03,4.533845608395876102e-03,1.092582941055297852e+00
3.597517755160261066e-01,-7.532424846815568564e-01,-7.712559091982854609e-01,7.272797174593453526e-03,1.099994944228429965e-02,2.025631183041505523e-03,1.122347354888916016e+00
3.144642486345953225e-01,-7.742649958754455053e-01,-7.756041592714353339e-01,4.003510883803109745e-03,3.794631077397921104e-03,-5.600750324945054197e-03,1.089484572410583496e+00
3.492241240175557038e-01,-7.668224980847009320e-01,-7.426012633761722714e-01,1.475923604700828985e-02,1.051405217282118387e-02,2.252789755940461450e-02,1.105270266532897949e+00
3.625345106158713304e-01,-7.804941028250318436e-01,-7.721491675617760952e-01,-5.519444504162278336e-05,-5.115690067588620459e-03,1.307588990024436933e-03,1.138915777206420898e+00
3.710843457021474889e-01,-7.799708692444718983e-01,-7.782906325923160118e-01,3.662573007908941861e-03,2.657050123199333324e-03,-5.334411398566673212e-04,1.150243043899536133e+00
3.408135930480404863e-01,-7.660686104456781997e-01,-7.831352900372809955e-01,7.680919611817119835e-05,4.618005608015881137e-04,1.187511389087016894e-02,1.115703344345092773e+00
3.493637104801710636e-01,-7.341319142767315231e-01,-7.611735526593295109e-01,2.630234143376286495e-03,-1.439873773184518861e-02,6.649390468690350451e-04,1.097559809684753418e+00
3.706837763871290714e-01,-7.825018619551442622e-01,-7.778225685672466305e-01,1.026887605003865998e-03,2.303687612197118963e-03,-1.368855941560759683e-03,1.150863885879516602e+00
2.693546215975473057e-01,-7.745923920599850909e-01,-7.404625579665542467e-01,-6.738798893680127133e-03,2.040235144025314210e-02,3.664140465999758504e-03,1.028000831604003906e+00
4.017274278398776932e-01,-8.318872855040939651e-01,-8.237885077769466768e-01,-1.958030195594379162e-03,-7.019119811763907535e-02,1.280140044620527162e-01,1.255322575569152832e+00
3.688762487511020316e-01,-7.744417371770819791e-01,-7.740258190644769831e-01,2.165550690408332528e-03,1.888329799867442035e-03,3.405100121565830633e-03,1.143136143684387207e+00
2.629292683857703539e-01,-7.562678907903295222e-01,-7.759792760247630206e-01,-9.947861277486095416e-03,1.890294114394550085e-02,-9.100709561873409140e-03,1.029979825019836426e+00
3.558843883584105194e-01,-7.883427166678608211e-01,-7.608393619368083449e-01,-7.240734206646003666e-03,-6.766470127921437455e-03,1.739413857587106347e-03,1.130860567092895508e+00
3.573027307966139543e-01,-7.680737779734061466e-01,-7.840694481640457791e-01,1.695216314602402980e-03,9.769775529818705475e-04,3.196381544881852187e-03,1.133477568626403809e+00
2.898443522861425814e-01,-7.690283454928286133e-01,-7.682183882961503008e-01,-5.439306441595529763e-03,-9.636154722454279634e-03,-6.019584409117282285e-03,1.058692812919616699e+00
1.683300636963272479e-01,-7.407793716520523208e-01,-7.420226614954005262e-01,-3.200353343072586797e-03,-9.077226918688858365e-03,-3.685357517489942607e-03,9.099068641662597656e-01
3.737162978761081056e-01,-7.858824792162113493e-01,-8.717659782361746323e-01,3.118048832954668781e-02,1.449022687837645245e-03,7.350363849713120734e-02,1.212751865386962891e+00
2.219094591298932939e-01,-7.682299132471535064e-01,-7.552766842280100867e-01,1.818132194653310219e-02,2.730599207050115121e-02,2.172737523578422477e-03,9.853734970092773438e-01
3.649986042834168498e-01,-7.851815060174265337e-01,-7.738096139222591097e-01,-1.370824732607795263e-03,2.346852598252174328e-03,-2.067731510896987212e-03,1.144551873207092285e+00
3.685860214490681575e-01,-7.776116485856358063e-01,-7.803188720872376027e-01,-1.555550623893077987e-03,-1.882633585286136815e-04,-1.274245258380975979e-04,1.147556900978088379e+00
3.742998545518445019e-01,-7.772071806698737095e-01,-7.784288989985345131e-01,5.745528839182486918e-04,1.822652865933333845e-03,1.414122615347385321e-03,1.152125716209411621e+00
3.491554665828940363e-01,-7.978734609060664784e-01,-6.390527415320248483e-01,9.860195278967563443e-04,7.721691082775726522e-03,8.693036341894863628e-02,1.087005019187927246e+00
3.144069013265201606e-01,-7.821559559695211439e-01,-6.395606771798174606e-01,4.207318218775984997e-03,-2.668582756379112193e-03,1.912782861548633501e-02,1.033242940902709961e+00
3.679244742789810618e-01,-7.703585793723739528e-01,-7.774928865615799989e-01,-2.532525767532363501e-03,4.385110653197234372e-03,-2.495900994787637363e-03,1.141908764839172363e+00
2.782566727264825235e-01,-7.464760346459737850e-01,-7.731691847456769739e-01,6.387895330752967754e-03,1.004646139875108035e-02,-8.364359805096992576e-03,1.038642406463623047e+00
2.114829594228496146e-01,-7.565983127346276316e-01,-7.555871200268317045e-01,3.605908719982604815e-02,-9.597236568772888471e-03,1.338361229395072533e-03,9.697349667549133301e-01
1.628637068083164663e-01,-7.482010137889877344e-01,-7.427493509086801060e-01,7.571254516109933441e-02,-7.112117645299315116e-03,5.141299845606190320e-03,9.178943634033203125e-01
3.428057036576344085e-01,-7.302742406494993066e-01,-7.510006934147883673e-01,1.045184799699001160e-02,1.411289833225844691e-02,1.070064982665146908e-02,1.084177136421203613e+00
3.235308483105608368e-01,-5.738878031594668583e-01,-8.328159852761605197e-01,4.734088971902655762e-02,-3.126704091210228548e-02,-8.493713592148402491e-02,1.065865993499755859e+00
7.531389646663845250e-01,-9.777503442937580669e-01,-7.222368185383469807e-01,-3.889514335487925800e-02,1.399941617066180477e-02,5.472338856967549070e-01,1.876837968826293945e+00
4.777409405589783664e-01,-6.273564203873207568e-01,-8.427351402463809649e-01,-5.271671051137022390e-02,-5.966556245218258142e-02,3.951912709666105528e-01,1.411803126335144043e+00
3.448783264013728922e-01,-8.298335946330224200e-01,-6.503615874349577552e-01,-1.510342418246403071e-02,-8.954036529025989968e-03,-1.344142372843246808e-02,1.096721172332763672e+00
2.780535400995674533e-01,-7.672157373011716519e-01,-7.681563591324258589e-01,4.266170011018038596e-03,-8.259153175411199435e-03,3.332225026959179104e-03,1.045879721641540527e+00
5.889910971482829050e-01,-1.221619874362530389e+00,-4.142195393958022498e-01,-2.084030801083575773e-02,-1.496662499571020932e-01,-4.181108998499907803e-01,1.749649286270141602e+00
3.352031170673386851e-01,-7.653080641233687142e-01,-8.606016583826020527e-01,-3.960544732159097976e-03,-2.394198922819045991e-02,-5.123995020756957897e-02,1.155301094055175781e+00
3.691229354637738380e-01,-7.603932684187043600e-01,-7.846666460173763458e-01,8.524071133767144315e-03,1.317265865692915719e-02,3.408140382558217350e-03,1.142184972763061523e+00
3.086637730164385474e-01,-5.029922694876549638e-01,-8.735728348557448841e-01,-4.932966288483915142e-03,6.703706604832758778e-03,3.966013206790991452e-03,1.047451376914978027e+00
3.023596653513881405e-01,-8.891490573081292093e-01,-5.001965228891752657e-01,-8.377131043684111350e-03,-2.798935231988709457e-02,-6.284076679320252379e-02,1.059218764305114746e+00
-2.402352911831134863e-02,-6.147714160108076475e-01,-8.415969077076219662e-01,-7.306829494515264256e-02,-2.423537742915053000e-02,7.752341594275488634e-02,7.551411390304565430e-01
3.546760562389080773e-01,-9.213099798683971331e-01,-5.090907917494237322e-01,-1.193851391361014022e-03,-2.899582055066822484e-02,-1.295907930856659562e-01,1.151080727577209473e+00
3.312110041627882584e-01,-8.636055704351627282e-01,-5.289027998536115494e-01,6.226895920179548530e-03,9.394376284510431996e-03,4.619635385924267257e-02,1.070741653442382812e+00
3.177535315331638799e-01,-7.473541278535918986e-01,-6.905844698956953298e-01,2.846345384966197066e-03,-6.948822163018985795e-03,6.307937007604702551e-02,1.043703794479370117e+00
3.501281878372027312e-01,-7.893381130849117522e-01,-7.564833122303060708e-01,1.027258402945368382e-02,6.652419220746465071e-03,6.860083743592045903e-03,1.123662114143371582e+00
3.043009897122591068e-01,-8.803259152171347690e-01,-4.805153713092383261e-01,9.355273132036010918e-04,6.149293177365344754e-03,6.512583310900620093e-03,1.043937921524047852e+00
3.306374987083421924e-01,-8.865860449712488212e-01,-5.351193242019494090e-01,-1.534292763259177900e-03,2.951359356950231279e-03,-3.226402743367743492e-02,1.086510300636291504e+00
3.563731203576635531e-01,-7.822903809331118730e-01,-7.279535842015592007e-01,1.409470548882821826e-02,-4.843790700694797051e-03,6.509086871303024387e-03,1.112847328186035156e+00
1.379820001105356297e-01,-7.632236094724702546e-01,-5.357122505911461330e-01,-3.848901753258976433e-02,-2.012499152632124880e-02,1.979050797873535272e-01,8.843398690223693848e-01
2.805799633902366641e-01,-8.229931713280871364e-01,-5.181691226938701655e-01,3.673651356453479146e-03,4.495895579948112723e-03,-1.086696226081277500e-01,1.004949808120727539e+00
3.622141586607587338e-01,-8.171343446879717476e-01,-7.128622352862072908e-01,5.929943687138269914e-03,-7.424492255350736633e-03,5.575146696169125393e-04,1.130943894386291504e+00
3.394770117271463938e-01,-8.206082543637261972e-01,-6.489023616584694842e-01,1.273772829342303958e-02,-5.039370203045337102e-03,1.147408614127577026e-02,1.084917068481445312e+00
3.293037808093518537e-01,-8.400058435956068159e-01,-5.923324689529163578e-01,6.338424824891378782e-03,-3.340015453220900477e-03,1.750946107080810984e-02,1.067751884460449219e+00
3.165300238341575700e-01,-8.352202540852355916e-01,-5.463740677450448224e-01,8.699219089649306430e-03,1.600139712336802814e-02,-1.921059258868177896e-02,1.038934230804443359e+00
3.369695619803190212e-01,-8.485320415611933287e-01,-6.097322539787372042e-01,2.957851084042003101e-02,-2.602902780079735176e-02,-5.853520501094153922e-02,1.092830300331115723e+00
2.683873874488792444e-01,-7.665740053256935305e-01,-7.568251649630485245e-01,1.072180439753385103e-02,-1.162609771832349981e-02,-1.261792038441911842e-03,1.030488014221191406e+00
3.603145275513731649e-01,-7.889346508169854388e-01,-7.816707022484575829e-01,-1.163458760546216657e-02,1.137286276076158661e-02,-2.665284028327002171e-03,1.145990252494812012e+00
3.778374333441612554e-01,-8.358706858720266197e-01,-6.823334249462134071e-01,1.108449867458890029e-02,-8.044828309987544709e-03,3.588707482243120011e-03,1.144951105117797852e+00
3.707573395993764565e-01,-8.260342337093919962e-01,-7.070070760839461954e-01,-1.092767971647477451e-02,1.165907272063945906e-02,-1.425715034886298853e-02,1.142542243003845215e+00
3.641533501908311155e-01,-7.833952214528916436e-01,-7.621140409864215481e-01,6.635614070508256100e-03,-5.064441182992526769e-03,1.517633921166570868e-04,1.137149333953857422e+00
2.767649183352940967e-01,-7.656176127421986388e-01,-7.585525991096111476e-01,-1.241809607357988524e-02,-1.740860464750491540e-02,1.658953175410279467e-04,1.039528131484985352e+00
3.623724246170257901e-01,-7.931530417824287360e-01,-7.473470451727213248e-01,8.970811093138008133e-03,-8.877466653127760732e-03,-1.322591670958637089e-03,1.133530020713806152e+00
3.614924283843458097e-01,-7.983590970385181507e-01,-7.463532594521569141e-01,6.572103867623779391e-03,-6.521049348702208717e-03,1.455959265039962576e-03,1.134858846664428711e+00
3.142886073943541025e-01,-5.650025694001573617e-01,-8.410999165666629418e-01,-2.438274519208371433e-03,8.898632224101359067e-03,1.814171930004377514e-02,1.045655488967895508e+00
3.226234674026997595e-01,-7.751751965503757003e-01,-7.716501903332150247e-01,-3.586625762104178562e-04,-1.386540610329459709e-02,-1.843181347519581847e-03,1.096308350563049316e+00
3.622132850959209338e-01,-7.796756918499357925e-01,-7.840167659610906004e-01,6.894721297738776698e-03,9.765746912849771963e-03,-2.696384327315703641e-03,1.144262552261352539e+00
2.956511710374357116e-01,-7.735540903089750397e-01,-7.655772405031084915e-01,-1.150460168685418783e-02,-8.778412671282974714e-03,2.092894412612509789e-03,1.065540194511413574e+00
3.717209189667994296e-01,-7.771374817106453392e-01,-7.784114608121323053e-01,-1.013617415179858235e-03,-1.062338775040425846e-03,-8.112058173561006178e-04,1.149499535560607910e+00
3.449787331999515372e-01,-7.575943084398675254e-01,-7.329592607786566960e-01,-1.319886335350092289e-02,-8.240151114144625422e-03,8.941480722419471380e-03,1.090907216072082520e+00
3.682015264619233896e-01,-7.668486741638349535e-01,-7.745562361923092887e-01,1.001570648114699733e-03,5.313731064764582075e-04,2.981272555001193963e-03,1.138936996459960938e+00
3.953787539230037007e-01,-8.516105629512726871e-01,-7.312453565941663403e-01,3.960782809842921387e-03,1.632973908749195749e-02,2.765600010354145669e-02,1.192693471908569336e+00
3.608377836074428968e-01,-7.768312519993014753e-01,-7.452707616462799223e-01,-8.584307066279489931e-03,3.758450097026432013e-03,7.500466183291927547e-03,1.122414231300354004e+00
3.373035127919440934e-01,-7.321679765727624467e-01,-7.400380232882087794e-01,-7.315554563886241674e-03,-7.139556493885522784e-03,1.221944337287181673e-02,1.073782801628112793e+00
3.592480604996198257e-01,-7.868117036169602896e-01,-7.719948240525986716e-01,-3.154224432478973383e-03,2.278874997928637201e-04,8.099785503453382402e-06,1.138736844062805176e+00
3.410577180219804272e-01,-7.439289904902842698e-01,-7.388000592331562810e-01,-8.633434004375923829e-03,-7.634514648008973101e-03,2.665384857585154608e-03,1.082625269889831543e+00
3.224885192881837837e-01,-7.727791820886815710e-01,-7.766614107693967650e-01,-1.886514031665431287e-02,-5.244387936965683519e-03,4.038353749081496219e-03,1.097760319709777832e+00
3.562629089254534254e-01,-7.550634659075499133e-01,-7.614506600628672128e-01,-9.005814314858372291e-05,1.131029111598120911e-03,3.614793099549761489e-03,1.114552974700927734e+00
3.475659736680149492e-01,-7.296321769687315051e-01,-7.642634245920602032e-01,-1.020682432348046613e-02,-1.643429492261373748e-02,1.057285614160411412e-02,1.095590233802795410e+00
3.453087325469724189e-01,-7.697402315757432278e-01,-7.871729650099342779e-01,-7.209572374589049912e-03,8.588876942834543140e-04,4.532862032194427486e-04,1.123937368392944336e+00
3.668028214490332006e-01,-7.738074640065246701e-01,-7.870688464116848415e-01,1.350398556341962566e-03,-3.498742790644574331e-04,-1.374478713954814914e-03,1.147303462028503418e+00
3.365531140186768244e-01,-8.299044931851569107e-01,-6.336085168741798501e-01,-1.899927476319944117e-02,9.537216318389361153e-03,1.571113820605251482e-02,1.082719206809997559e+00
3.655144523112091592e-01,-7.765202823861687698e-01,-7.861460543488711927e-01,-1.800520035329297979e-03,1.482279820909989483e-03,3.208769087975717519e-04,1.146885156631469727e+00
3.564779809936668431e-01,-7.712203925559091289e-01,-7.844979530842215443e-01,4.729770698964802164e-03,1.827161866692800533e-03,1.674787584217205926e-03,1.134433150291442871e+00
3.651497171050621660e-01,-7.928186950545312861e-01,-7.576731728736061378e-01,-5.732355034026385618e-03,4.017111719208221049e-03,1.530661064452995893e-03,1.140869259834289551e+00
3.438992570845138541e-01,-7.688895162177200593e-01,-7.866448269521137959e-01,4.601028313365292978e-03,4.049514671424738442e-03,-1.713429861619672348e-03,1.121825933456420898e+00
4.309314453200788209e-01,-1.102745987542699924e+00,-2.696413059768686393e-01,-2.289482473278615926e-02,4.582751269444576558e-02,2.486333921691393500e-01,1.400658726692199707e+00
3.792553910317957300e-01,-7.523150025946574448e-01,-6.500110668184543306e-01,1.054709481670182587e-02,4.946848455266730782e-02,1.898412849052901474e-01,1.136198878288269043e+00
3.880107332891091221e-01,-7.758357320859332606e-01,-6.292060911108389165e-01,5.153792250135015574e-02,8.182408276444490952e-03,2.055491882416195237e-01,1.157715559005737305e+00
3.702010223122927934e-01,-7.743429466192903732e-01,-7.722592618392397634e-01,-4.394667183345054955e-03,-3.623735444736792422e-03,1.554056552259166840e-03,1.143549323081970215e+00
3.556616122403297164e-01,-8.029935244741217559e-01,-7.179982571159606586e-01,-1.027808728361960001e-02,1.002501545749393333e-02,5.156009729960548196e-03,1.118894100189208984e+00
3.198256340149785437e-01,-6.459015210365079973e-01,-7.816771237154745977e-01,9.147627855609676830e-04,7.044435095608969459e-03,-1.943469990241507642e-02,1.040898919105529785e+00
3.440560696361630866e-01,-8.444268486060494405e-01,-6.212459886086829641e-01,1.002796831261413765e-02,-1.482010644288815973e-02,7.001174119228850516e-03,1.094606041908264160e+00
4.698698198876109511e-01,-8.870769577118668980e-01,-6.226358478426066156e-01,-2.921745858671092461e-02,-3.906095060874682778e-02,2.427041936040826020e-01,1.317670464515686035e+00
4.062578984119385450e-01,-8.703274823202351573e-01,-5.304527825454933287e-01,1.553223910715057898e-03,7.442671500556372055e-02,2.851977209909424271e-01,1.253772139549255371e+00
3.584543724595394831e-01,-8.182685471753365913e-01,-6.936592638986293080e-01,1.062308477748013895e-02,1.085304571985426514e-02,-4.989444351816792710e-03,1.119973301887512207e+00
3.694730492828152135e-01,-7.714758128732455145e-01,-7.779164834075736890e-01,3.277640687842555550e-03,3.696323515408962528e-03,1.716395732700329562e-03,1.144218683242797852e+00
3.498759743953055446e-01,-8.334693907994377149e-01,-6.493731355720164800e-01,9.992889581995002130e-03,-2.441286646624829179e-03,7.383159262985355964e-03,1.103099822998046875e+00
4.017496366073406988e-01,-9.698233985346857988e-01,-4.477184193096102049e-01,6.701247172432201350e-04,-6.205217649322939538e-02,2.179128580210756838e-01,1.261630654335021973e+00
3.950073604269077054e-01,-1.102042561513551622e+00,-2.143539878019947442e-01,-4.948967432496301222e-02,-7.534005477644509230e-02,2.581596541310192672e-01,1.387281775474548340e+00
5.095485029573354474e-01,-1.206295142856995017e+00,-3.394530542943720031e-01,-1.567911243699110155e-02,-9.839862963937436383e-03,3.971590006276035645e-01,1.637804269790649414e+00
3.401478106822438674e-01,-7.432696124027040607e-01,-7.377335315473660948e-01,8.623597885542268193e-03,6.757075715126238148e-03,1.399804247112508343e-03,1.080829381942749023e+00
4.578066224881198742e-01,-9.205973203700855700e-01,-5.495665021553222118e-01,-6.769050113230047063e-04,8.588513466255308371e-02,2.361755643049791853e-01,1.309846520423889160e+00
3.519745140997670996e-01,-8.150503175705872128e-01,-7.100101882581045798e-01,1.805422226554557864e-05,1.974657923557541356e-02,6.186106148050166120e-03,1.118785262107849121e+00
3.257434558665395774e-01,-8.829780765875503423e-01,-5.283745884595943965e-01,-5.385134396423833618e-03,-8.649329300914025340e-03,-4.724238871986435710e-03,1.076342344284057617e+00
3.603355562860673933e-01,-7.883242166496364778e-01,-4.733766880029697810e-01,-1.681043967896565794e-02,-3.888270204897730647e-02,3.737764892805430228e-01,1.217108726501464844e+00
3.719296154591015813e-01,-1.103870764180724384e+00,-2.421930425437968659e-01,6.799498557085059680e-02,-1.751863126300839402e-01,-4.824524697262425055e-02,1.327303409576416016e+00
3.450127418629642673e-01,-7.948942409141139809e-01,-6.853695478863118806e-01,-1.924376841890688625e-02,1.745257871501453006e-02,-1.380330912172374885e-02,1.090473294258117676e+00
3.391215791889922726e-01,-6.003068821021401158e-01,-8.460639452973360841e-01,-1.409480584945555816e-02,2.197052296156124917e-03,-1.256886310108157497e-02,1.083917856216430664e+00
1.706648557761846763e-01,-7.365563384743574193e-01,-7.480251044176577935e-01,9.835106575484938926e-04,2.647621276356407552e-03,3.305055401871426646e-03,9.130406379699707031e-01
3.805219162108851583e-01,-8.744929210438713296e-01,-6.210729653721304144e-01,1.015904367565057496e-02,2.282769568554966592e-03,-7.277073442899927025e-02,1.156481742858886719e+00
3.084337252160710419e-01,-7.814600069781102443e-01,-7.384090732367768473e-01,1.491707415742848453e-03,1.200687024474684714e-02,-8.848247233653966023e-03,1.069333791732788086e+00
4.065059614846903702e-01,-1.043540326323489476e+00,-3.878692609280471326e-01,9.086953097695972884e-03,-1.030647458544169852e-03,-3.286874177856410201e-02,1.259078025817871094e+00
3.229483844454107966e-01,-7.551453843493065587e-01,-6.711070813455641826e-01,-1.265752928412097397e-02,1.124824777744862572e-02,-6.355833947937263029e-02,1.044857263565063477e+00
3.327709532904314926e-01,-8.884428946358646773e-01,-5.530542102398017246e-01,-4.470223702546768756e-03,8.585820457877986478e-03,5.973851071263980295e-02,1.097840905189514160e+00
3.470238183959689637e-01,-7.494695799349320176e-01,-7.419729925151483663e-01,1.460240775842807661e-04,1.009552864563545600e-02,-3.044290761502379226e-03,1.092917084693908691e+00
3.405302830681450343e-01,-8.499561339898005219e-01,-5.950972582814433309e-01,1.089683313989499476e-03,-1.312893062712453332e-02,-1.053760107571798110e-02,1.086120963096618652e+00
3.534563879164456246e-01,-9.910782119105279175e-01,-2.570977715982981637e-01,-2.981902351238431559e-02,6.297898497402618090e-02,-1.937741071571886797e-01,1.219364643096923828e+00
3.610885358148347435e-01,-7.892270562377368126e-01,-7.723994178656059528e-01,-8.723051385091413080e-04,-3.029355621130898520e-03,-3.429654968364610583e-04,1.142007946968078613e+00
1.122886263278436436e-01,-7.560631388097576178e-01,-7.659143852373317962e-01,5.980483464094354940e-03,-8.404717342413102477e-02,2.292800459979509389e-02,8.863195776939392090e-01
3.119964322681078039e-01,-6.335900876883298061e-01,-7.801820867702835560e-01,-4.272026567378935666e-04,8.483732726729715373e-03,1.745934426287506364e-02,1.027311801910400391e+00
1.328683119414690306e-01,-7.391495972959962746e-01,-7.275547711298739895e-01,1.120342880915380437e-02,6.704668485192584459e-03,5.827623493074325818e-03,8.666325807571411133e-01
1.192497129267336975e-01,-7.273857207173102246e-01,-7.317784135243290411e-01,-1.100160539495986496e-03,-3.266896360816008010e-02,3.674472580575537540e-03,8.507501482963562012e-01
3.684011152113075838e-01,-7.847474823893281215e-01,-7.629411967677353079e-01,8.673198323021160186e-03,-5.064109507114917565e-03,1.518513952821092569e-04,1.142534017562866211e+00
3.624363720632773900e-01,-8.011299567791654308e-01,-7.461660705638810676e-01,2.398496418949372117e-03,-8.103738803695463566e-03,9.051337746669437878e-04,1.137176394462585449e+00
1.424668040366687816e-01,-7.409932093132316488e-01,-7.405351588292918841e-01,-1.142529668205182793e-02,2.606620048929686462e-02,-4.577087636473317601e-04,8.846059441566467285e-01
3.030132531996332368e-02,-7.142826088183023003e-01,-7.220182193908906143e-01,-1.211909562935995811e-02,1.582530985772186843e-02,3.124246352445627598e-03,7.492970824241638184e-01
5.381300113771370075e-02,-9.537361318511601294e-01,-7.714709605480659649e-01,1.054933392767324896e-01,1.006347581614409764e-01,-1.064613985471330737e-01,9.810736179351806641e-01
7.829017393384024581e-02,-7.172176186998618919e-01,-7.189712620285313438e-01,-1.803426615786495914e-03,4.258793956321800696e-03,-6.236499986546044242e-04,7.964270710945129395e-01
6.552878186587440812e-02,-7.296736384144077991e-01,-7.144547852535713117e-01,9.517100896009962965e-03,-4.299974758670849911e-03,3.983239711515588165e-03,7.879411578178405762e-01
3.661130250898728677e-01,-7.637571860453349348e-01,-7.826845008027216721e-01,-2.423268830919442750e-03,-6.678456054908509312e-03,1.753040554249273410e-03,1.139522314071655273e+00
3.665201335170926167e-01,-7.714783170509179611e-01,-7.662349541271229469e-01,-4.230024693180873575e-03,-5.715797186974371641e-03,2.951790474270590391e-03,1.135464191436767578e+00
3.600591742857652822e-01,-7.883657582316165868e-01,-7.741163741623116046e-01,2.688183555209756014e-03,5.100237348303972122e-03,1.868519883991252286e-03,1.141415238380432129e+00
3.337049583113583795e-01,-7.751977113219452598e-01,-7.853137134904225602e-01,6.290556366639895626e-03,2.747267649498584974e-03,5.285619110315752491e-04,1.114058971405029297e+00
3.633436009385542786e-01,-7.792541306967184500e-01,-7.804082379840733275e-01,-1.249839925579776870e-02,-1.066241272790580293e-02,-1.762880948485741209e-03,1.143533349037170410e+00
3.446670330820511552e-01,-7.709049650213628535e-01,-7.898071649530138405e-01,2.888280305581516702e-03,2.635271372900870566e-03,2.012728252227872702e-02,1.125702500343322754e+00
3.706821626466043074e-01,-7.794030459879448536e-01,-7.783965024233783225e-01,-2.425169229780755643e-03,-5.491416895551839253e-07,-2.413656768746224365e-03,1.149597525596618652e+00
3.698594147667406129e-01,-7.796010447235892649e-01,-7.759314926684240943e-01,-4.455703123187449918e-03,-2.165289313987200318e-03,-1.203940076388548396e-03,1.147664070129394531e+00
3.717930645217616403e-01,-8.134221728894950321e-01,-7.552610086400164402e-01,-6.057964416254535932e-03,7.846468552887998077e-03,2.030942171132809736e-03,1.157364010810852051e+00
3.678488259814305383e-01,-9.208026985438453327e-01,-4.432722092421813587e-01,-2.496627647686705531e-02,4.623186073502852378e-02,6.826373716963590743e-02,1.138222098350524902e+00
3.562864402674372211e-01,-7.547581709574980868e-01,-7.579441400724342692e-01,-1.043432260791667641e-02,-7.630262157328422494e-03,4.061429519528102910e-03,1.112888455390930176e+00
3.705966561263183134e-01,-7.773930266219128971e-01,-7.724947245440869636e-01,-4.031169604960269624e-03,-4.162144306586562127e-03,2.087274887920901375e-03,1.145598053932189941e+00
3.745331662154829933e-01,-7.776403937853273440e-01,-7.773431242311680256e-01,6.726613274460539575e-04,-5.615460611468730536e-04,-3.771595099732796006e-04,1.152026176452636719e+00
3.155213327007758695e-01,-8.828477746026256456e-01,-5.118701232193225703e-01,1.556669508522539941e-03,-9.129254093199925917e-05,-9.678799735292370476e-03,1.062747955322265625e+00
3.722389646688802900e-01,-7.585680388610390734e-01,-8.136245113088882430e-01,5.556605105216111916e-03,-4.611884943122491684e-03,2.359429458000845709e-03,1.159390807151794434e+00
3.404777054442245654e-01,-7.780329283690512465e-01,-7.877286021683853612e-01,2.318278859064174403e-03,-2.498581129075136149e-03,-8.330217581391043818e-03,1.123497962951660156e+00
3.487873440314525619e-01,-8.186999702064334805e-01,-6.790705296291441595e-01,2.544824540056975920e-03,1.407821002515427175e-02,9.301547346659977270e-04,1.104592204093933105e+00
3.614553650499313098e-01,-7.880853012586392925e-01,-7.756148675800575987e-01,2.415986989564282254e-03,-1.251684256775949982e-03,1.761037129050618735e-03,1.143370270729064941e+00
3.002813088036552780e-01,-7.661105629505026160e-01,-8.024533911810756148e-01,2.331553466505762937e-03,-5.570315388938229875e-03,-2.112881318509534333e-03,1.085076451301574707e+00
2.477501416511376231e-01,-7.643413463557320320e-01,-7.618278580394313160e-01,2.036183497920547938e-02,-9.763542333462467762e-03,3.731231283056044533e-03,1.011614203453063965e+00
3.651324232325089403e-01,-8.026720261463908823e-01,-7.182044471368469463e-01,2.032610806457425812e-02,-1.716554407455385747e-02,-2.044817622486197820e-02,1.129441499710083008e+00
3.403500270423751584e-01,-6.110537452055867513e-01,-8.470837969784048571e-01,1.030720921612411113e-02,6.390423018735502843e-03,-6.500429650497977808e-03,1.089039564132690430e+00
3.110947468547528016e-01,-8.729617381206897786e-01,-5.125111160709289182e-01,6.073697091457377559e-03,-1.401960801824199052e-04,-9.350124442750018527e-03,1.051424503326416016e+00
2.952860270967639367e-01,-6.756274029253803715e-01,-8.705454000512347079e-01,2.242453132607090394e-02,3.369832510837366540e-02,3.418025907529899377e-02,1.085511207580566406e+00
3.635430777209752717e-01,-7.835939683410731993e-01,-7.774838093547722373e-01,-5.697234132270638475e-04,2.263023431602940744e-03,-1.898619287951222373e-04,1.144101381301879883e+00
2.838750182251361109e-01,-7.640776142484306810e-01,-7.725038176319753980e-01,-1.793553471353508122e-02,-4.849904363393656680e-03,-2.589670378136653579e-03,1.052692651748657227e+00
2.741688301725768717e-01,-7.456702760465150348e-01,-7.800287033798888325e-01,-3.051643163625246402e-02,1.588522781818469190e-02,-5.193805626882327421e-03,1.039193987846374512e+00
4.069551540806750078e-01,-5.244163602662192947e-01,-9.662067444341948530e-01,5.099882200919866881e-02,5.877425219376280520e-03,7.910461923803761841e-02,1.225063920021057129e+00
3.579792495448569367e-01,-7.956260963531113228e-01,-7.594849953400544251e-01,4.232832769937326309e-03,7.874110621863253737e-03,3.330779190605496955e-03,1.136086225509643555e+00
3.466600911469905344e-01,-7.434252119644124690e-01,-7.472511532780712340e-01,9.200968863769259584e-03,-3.906970963681946911e-04,1.696706919192501276e-03,1.092123746871948242e+00
3.241371621823213589e-01,-4.728567152463056811e-01,-8.950566854328916300e-01,1.601913897327079256e-02,5.150310520457205936e-03,5.960448355871075105e-02,1.077706098556518555e+00
3.297338694048845831e-01,-8.368394696876415573e-01,-5.989913920900561406e-01,1.023213090971299664e-02,5.005449572445203575e-03,-1.384136080427351458e-02,1.068158149719238281e+00
4.500416510727618946e-01,-1.753160306976578597e-01,-1.352463609361292507e+00,1.646176144113921727e-02,-3.903313029638857956e-02,1.162804797870478080e-01,1.599635601043701172e+00
3.474479805801440890e-01,-5.660755553905810755e-01,-8.709722035170088805e-01,1.653460905654427493e-02,9.834535422975395746e-04,4.326692203475070164e-02,1.101116061210632324e+00
3.156463294335841718e-01,-7.453664738907490594e-01,-6.614388209704791244e-01,-7.626693619952022588e-04,-2.138297249783386624e-03,-2.245425934872251686e-02,1.022385358810424805e+00
3.106089057928211328e-01,-5.142965973696230764e-01,-8.720099706252064653e-01,3.956943033790279694e-03,1.097374718281190304e-03,5.423293691593853404e-03,1.050545811653137207e+00
3.617365958851308516e-01,-8.396638494150701071e-01,-6.866733937598114013e-01,-2.215663545578957540e-03,-1.090000214769696642e-02,-2.876663279339174411e-03,1.132855772972106934e+00
3.590906424370115535e-01,-7.608785518646923318e-01,-7.604275844293038045e-01,2.623592050473641003e-03,3.927018052604303727e-03,3.442622008093689974e-06,1.119773626327514648e+00
3.307880006878712309e-01,-5.602394437428099838e-01,-8.489120550415392152e-01,-1.715404514545098777e-02,5.558107742941941105e-03,7.710512330933402825e-02,1.073912501335144043e+00
3.286380534883560633e-01,-5.605176847637202142e-01,-8.409912764853260114e-01,-1.639065505870574563e-02,1.277752880964573394e-02,1.113264168442652975e-02,1.058449625968933105e+00
3.360227579875025850e-01,-6.088441333042605708e-01,-8.512218403596507610e-01,2.429430884341231625e-02,1.834776188341358596e-02,4.480383577023681202e-02,1.090567588806152344e+00
3.415600079727200145e-01,-5.308702059453730415e-01,-9.089526392182628589e-01,3.314956608562343032e-02,8.552255522757606226e-03,1.191527904216254513e-02,1.112597584724426270e+00
2.318957361530418204e-01,-6.043705168177898601e-01,-7.722178381403622671e-01,1.684089931919596425e-02,6.983861037535338268e-02,-2.668011077927178731e-01,1.047335028648376465e+00
3.618830918495975491e-01,-7.941564157219732634e-01,-7.760079565107853572e-01,-1.773815662092463087e-03,-3.321855688644175832e-03,-2.013048227604596983e-03,1.147096753120422363e+00
3.289715541006620336e-01,-7.787759769677202737e-01,-7.748498415734335065e-01,-2.646033473997404586e-04,1.078970508427647135e-02,2.881472771050832063e-03,1.105958938598632812e+00
3.625973099874890138e-01,-7.938963992680510007e-01,-7.722123752241594197e-01,-1.568798913632758578e-03,-5.345459422783340126e-04,-2.516624652474207116e-04,1.145809292793273926e+00
3.520121182878097055e-01,-5.300893063334775057e-01,-9.117017748902593866e-01,2.190512510434908938e-02,8.987680947253899946e-03,1.298358924602598108e-02,1.123627781867980957e+00
3.817136888916096149e-01,-8.923462930641932189e-01,-4.875214595870198120e-01,-2.320022052252017353e-02,1.157901583677174717e-01,-3.017738636193715851e-01,1.259515762329101562e+00
3.812853695957660882e-01,-5.047742726618950071e-01,-8.324713570889002989e-01,-1.732656983759085431e-02,-7.059073424835086985e-02,-3.761984459286777938e-01,1.274076819419860840e+00
3.481408137807081027e-01,-5.973146289462474279e-01,-8.617619423802569401e-01,-4.131027559181260980e-03,4.900149737357319644e-03,4.356026904595539789e-02,1.104380965232849121e+00
3.663277213671322641e-01,-8.124453095546658732e-01,-7.522493008163335659e-01,-3.841747365691663540e-03,-8.074557156557202534e-03,3.069672370012433305e-03,1.149973988533020020e+00
3.219417733580244301e-01,-6.837235203537408434e-01,-7.533014417114884953e-01,-4.883655803658812009e-03,7.555702308390380151e-03,-1.450975229773285302e-02,1.042617082595825195e+00
3.046793103755036647e-01,-6.349030112212208365e-01,-7.379402202597767912e-01,-4.989412382021980383e-03,4.301222944281320182e-03,-9.892039735026658676e-02,1.009816527366638184e+00
3.630451639356910842e-01,-7.769810839093422850e-01,-7.910847553037794189e-01,-1.823851439960351498e-06,-1.163460911700404899e-03,1.504025758585974615e-03,1.147147893905639648e+00
3.229543644752747023e-01,-7.258604401123031069e-01,-4.301446941781777444e-01,2.441035250999291049e-03,2.363341420931712455e-02,-3.876118945252469139e-01,1.153139948844909668e+00
4.220822750092072528e-01,-8.221085645874317560e-01,-6.492297908724213862e-01,2.733431813173863023e-02,-1.082387623030944303e-02,-2.195263143407923390e-01,1.228809237480163574e+00
3.683471938687556402e-01,-7.838000653410965857e-01,-7.776569869137557323e-01,4.329084691718910853e-03,-1.753554541069472913e-03,6.829915364750501275e-04,1.149117112159729004e+00
3.647359642774947175e-01,-7.694904718782141773e-01,-7.614245335993325980e-01,4.210605475843132308e-05,1.380299080129862577e-03,4.396298467826575962e-03,1.130243182182312012e+00
3.740554525687657117e-01,-8.569168320522515536e-01,-4.667029540900834439e-01,2.166745668262949273e-02,2.924616795697382310e-02,-3.504328961884894400e-01,1.248839974403381348e+00
3.534689598759166440e-01,-7.899565778796199256e-01,-7.649750750783153030e-01,1.715052419028226293e-03,-6.091129426842075388e-03,-1.184111546984035384e-03,1.131196618080139160e+00
3.669246731559451247e-01,-7.938248875206671551e-01,-6.795107050818545158e-01,-2.528702281923635858e-02,3.567345792937310495e-02,-9.840197874607298223e-02,1.123611211776733398e+00
3.013695209805322683e-01,-7.448297471866028863e-01,-7.799717781930607385e-01,5.005537973268602871e-04,-6.033243345043702577e-03,-8.797422940896131027e-03,1.064366221427917480e+00
3.217270571379884370e-01,-7.148299182838652177e-01,-7.236168380071816841e-01,6.390251600913675160e-03,-8.558781998367051905e-03,-1.263870879267042953e-02,1.041372776031494141e+00
3.476368601226482724e-01,-7.851406544731479586e-01,-7.485551276085917749e-01,1.310798950679327446e-02,-1.355389270615807787e-02,-7.204826975475235422e-03,1.115483045578002930e+00
3.190864772687329043e-01,-6.834443781108829885e-01,-7.417695929524787957e-01,1.806177484710232151e-02,-1.031307974234729405e-02,-2.540703061270132429e-02,1.034493684768676758e+00
3.527205952638828301e-01,-7.386773422242156606e-01,-7.689281882930978362e-01,1.698892688734534445e-02,-2.014568897584225957e-02,-2.454995181713729574e-02,1.108590006828308105e+00
3.697351837782332784e-01,-7.864963577790680116e-01,-7.632532481034877136e-01,8.622403476102248610e-03,3.387750087457138456e-03,-9.172045784220255772e-04,1.144900560379028320e+00
4.160824176233479110e-01,-9.065669688821731409e-01,-5.248281210054253076e-01,5.392119817584984515e-02,-3.795212924358015716e-02,-6.987149886136478916e-02,1.190759778022766113e+00
3.383521589500027571e-01,-7.950545748169586258e-01,-6.733562656366995913e-01,2.726433847012067063e-02,-3.211049207677540984e-02,-2.040336001201214708e-02,1.080768108367919922e+00
3.214102925431348567e-01,-8.232543763591937402e-01,-5.991837499738443817e-01,1.499108749995416850e-02,3.698898465167247112e-03,-1.027503681297877933e-02,1.051195025444030762e+00
3.495270894943073858e-01,-7.654165276349160774e-01,-7.432674979207898325e-01,1.332276146688511284e-02,-1.318937002562838370e-02,-1.004763351324902687e-02,1.104650259017944336e+00
3.448266443908044598e-01,-7.861955919021452743e-01,-7.540388934605195548e-01,8.336180609954250628e-03,-5.976607529119898170e-03,-6.241072475428540572e-03,1.115485548973083496e+00
3.690553787017386012e-01,-1.069038950623163675e+00,-2.036333155554057306e-01,-4.154610939327313401e-03,-1.154417172890034038e-01,-6.210908256796244392e-02,1.274406552314758301e+00
3.067542409911486745e-01,-8.424423923979891260e-01,-4.866100525675943755e-01,1.162185518672495532e-02,-8.547273415179192438e-03,-1.276646220682254584e-01,1.043008804321289062e+00
3.078453639338045722e-01,-5.463948006109740074e-01,-8.385479929266427268e-01,3.419547461457225507e-03,7.837922937919015662e-03,-2.065388671198304174e-02,1.032544374465942383e+00
-1.583312050137721250e-01,-6.962299848873759744e-01,-7.114800998074096716e-01,4.253753400088066718e-03,-1.952185003645149838e-02,2.440552178022734747e-02,5.484114885330200195e-01
1.730150047487721832e-02,-8.071809402220335716e-01,-6.439077900267167198e-01,-1.111965504363104798e-03,-6.954609035804452943e-02,5.104263974980308843e-02,7.708069086074829102e-01
3.564141331885504194e-01,-8.173348499410265644e-01,-6.944132752073843839e-01,2.993560874275515843e-03,-1.252807543222057667e-02,-2.998937296521706191e-03,1.117605447769165039e+00
1.068304420449599501e-01,-7.304565361541619506e-01,-8.037788242511526571e-01,9.923530104347158542e-02,5.656323608493428468e-02,1.019350328570788472e-01,9.154948592185974121e-01
2.452211205964610619e-02,-7.098551306504325975e-01,-7.172182265932293133e-01,-1.058154674031972983e-03,-2.227306043147528336e-02,-3.895143532564159222e-03,7.391269207000732422e-01
-7.825003024624577197e-02,-6.887160937798482152e-01,-9.070504045982312746e-01,3.404631797494746259e-02,1.447882349707990124e-01,3.488537103129445149e-02,7.897111177444458008e-01
1.418118957193083562e-01,-7.382835138359338245e-01,-7.297346774757853538e-01,7.497919009445476977e-03,3.713517508256763879e-03,-5.017821480221825413e-03,8.760153055191040039e-01
2.689000798568147443e-02,-7.194119312685227641e-01,-7.101304185019792214e-01,6.951323925133726057e-04,-2.638490076048100388e-02,-8.183605071950201051e-03,7.432474493980407715e-01
3.447592445699244057e-01,-6.361872928704612740e-01,-8.351051040788508573e-01,4.483470480393415836e-03,7.552140210494680435e-03,-1.063680668131240098e-02,1.094313979148864746e+00
3.628273686596920622e-01,-8.810663681133114045e-01,-8.348900693294514230e-01,1.030472737463074794e-02,-2.495356632531933738e-02,-2.443655726520610472e-02,1.223087668418884277e+00
5.271818905463115934e-02,-7.202539806051908577e-01,-7.712700072351568181e-01,1.395578086420224241e-03,-6.765867283015310034e-03,2.084548683035637728e-02,8.006055951118469238e-01
6.967631989284195360e-02,-7.850730289646685733e-01,-7.567393322795276100e-01,-2.157749861774198308e-02,-2.680863800223586522e-03,-2.478486444898783409e-03,8.417943716049194336e-01
3.434488066962441133e-01,-9.065313920395896563e-01,-5.246591191430242107e-01,-2.350233156719616200e-03,1.433514644384578825e-02,-2.415735927251957960e-02,1.110553026199340820e+00
9.661675428025762180e-03,-7.960025670721017077e-01,-7.324772271811726965e-01,-1.292153428141710192e-01,1.447953249003191591e-02,-2.172564911834292539e-02,8.087552189826965332e-01
9.258261323099920004e-02,-7.835203267207923039e-01,-7.664593100487608890e-01,7.914880758940881500e-02,-2.353002104351091875e-02,-5.624466969976374235e-03,8.794599175453186035e-01
3.614547599182753590e-01,-7.900132940511828128e-01,-7.729543208597655646e-01,-2.242639899699601976e-03,-1.210491107939417341e-03,1.535817755204272684e-03,1.143045663833618164e+00
1.740615835585727078e-01,-1.128994847163786730e+00,-9.441305977120151294e-01,-4.116306647093655874e-02,1.168412998038888123e-01,-2.110341567084052239e-02,1.240410089492797852e+00
9.448767385248413309e-02,-7.305822697570160118e-01,-7.206605910749451782e-01,-5.427813289257183392e-03,4.399343800805592848e-03,1.082084100409357996e-03,8.202455043792724609e-01
7.687710516587153986e-02,-7.234146481858012567e-01,-7.189384760865915602e-01,1.179669286964426730e-02,-1.310183641713110782e-02,-4.560217282272839741e-03,7.986861467361450195e-01
3.461886485020330140e-01,-9.126657080257499777e-01,-5.252249344156245670e-01,-2.584566625370720325e-04,-1.506752785565912064e-02,-1.553356530107061553e-02,1.117362260818481445e+00
3.258505853421799214e-01,-8.434145226414049290e-01,-5.626823065755958142e-01,7.212105540713352470e-03,3.957890155692631723e-02,1.767062694745091117e-02,1.059968590736389160e+00
3.832330949434370471e-01,-9.837863400610239450e-01,-4.726426226982518575e-01,3.495202465722608252e-03,1.080384358905318691e-02,4.615131501284945592e-02,1.199184417724609375e+00
4.275489559353853330e-01,-9.796262192656751688e-01,-5.346986314452033540e-01,2.337112114001826252e-02,6.080634955888306742e-02,9.397429057141643005e-02,1.261441946029663086e+00
3.679259694693002292e-01,-8.118277044008769261e-01,-7.527361387908039214e-01,-6.959933820257629793e-03,-9.140287585241513649e-03,-4.318256227277485378e-03,1.151541948318481445e+00
5.106472664706962483e-02,-7.935507019432060938e-01,-6.683592819775021621e-01,-6.366427374524893934e-02,-2.696298280117699619e-02,-1.147997274399372436e-01,8.229136466979980469e-01
2.944061069602630365e-01,-1.086443174985747717e+00,-4.798001445535259868e-01,5.029144874756290295e-02,1.998553704910369447e-02,-5.502281248580712797e-02,1.206211566925048828e+00
6.823249180672898984e-01,-3.839373583930781875e-01,-1.273609638247444220e+00,5.776169394153524150e-02,-3.494510340985592517e-02,-2.738386731651779038e-01,1.765132188796997070e+00
3.713633683757991966e-01,-7.730423139073676619e-01,-7.762756370630109481e-01,1.621055724442426989e-03,1.196055479888923554e-05,6.305829383958453239e-05,1.146029233932495117e+00
3.630990079929562464e-01,-7.724298164727618765e-01,-7.893382796197712103e-01,6.332890255006982418e-03,2.782624820268056638e-03,7.494698756125978394e-04,1.144140243530273438e+00
3.832080208773670504e-01,-8.668826583849320588e-01,-5.927939089183162924e-01,-6.919694314216015725e-03,-3.451941983886730458e-02,8.841610564308527431e-02,1.149950504302978516e+00
3.687226612609063037e-01,-7.832576534566955129e-01,-7.792328396553335201e-01,4.283577822366737425e-03,-1.917021078142499939e-03,1.270989877345066752e-03,1.150004029273986816e+00
3.451291056997518591e-01,-8.938896674431594525e-01,-5.492028745097035092e-01,-1.592484001332771480e-03,7.330794011123970520e-03,9.097612218134905684e-03,1.107844829559326172e+00
3.505832357505420105e-01,-8.994323315650907258e-01,-5.620816114065498859e-01,9.266749755141856504e-03,3.617594153607437552e-02,-2.320146654493442876e-03,1.121985077857971191e+00
3.472017526922178132e-01,-9.016883610529162763e-01,-4.934745743718413347e-01,-8.417209151948960508e-03,-1.000666589705735861e-02,1.650996513381310440e-02,1.103576660156250000e+00
3.743481325916655500e-01,-7.786584170187461629e-01,-7.763927995164880969e-01,-1.028488971005276113e-03,-6.035821497720709073e-04,2.176012161331126581e-03,1.151883482933044434e+00
3.741570566304244783e-01,-7.787106081542235492e-01,-7.781387175618630359e-01,2.929255436242843465e-04,1.089740715972100683e-03,8.157480570715745002e-04,1.152584314346313477e+00
3.664095249735683235e-01,-7.878727995732998091e-01,-7.747361124207862160e-01,4.448675942621348189e-03,5.127382683934604904e-03,1.627747079558885873e-03,1.147834062576293945e+00
3.642647377473453019e-01,-7.817272252723109771e-01,-7.673559588954423916e-01,-8.898158202147246620e-03,5.405327774231938678e-03,-9.089697255229590165e-04,1.139018177986145020e+00
3.689904709872005029e-01,-7.808220641351957259e-01,-7.773637603811026642e-01,6.815747782618016871e-04,1.306637865628752521e-03,-6.452258299853920497e-05,1.148090124130249023e+00
3.290022933287033435e-01,-7.426812416644148485e-01,-7.080835441826451859e-01,2.272239555570829128e-02,2.198439796238285324e-02,5.956128442069107826e-02,1.061257004737854004e+00
3.099564373450475196e-01,-6.664213176970499308e-01,-7.406525666078302983e-01,1.359907516920888732e-03,3.409098088163764213e-03,2.898756586780260741e-02,1.016790390014648438e+00
2.720899521575444457e-01,-7.686546448830482436e-01,-7.603223981327440484e-01,1.050207329245988509e-02,-6.651219632693556282e-03,1.633406608011777218e-03,1.036831021308898926e+00
3.513318352921153132e-01,-8.057152658902375642e-01,-6.938640667374671445e-01,1.402683825038290519e-02,1.090650771505592004e-02,-1.756511379669058225e-03,1.105806469917297363e+00
3.231716802475469996e-01,-7.148327766052311460e-01,-7.271716298049513139e-01,-1.447920432916211344e-04,7.975709057153211948e-03,1.544803159249379804e-02,1.044662714004516602e+00
3.573543018558474893e-01,-7.774159465724257423e-01,-7.753823654959124401e-01,1.540000874026999783e-02,-3.320996299302449856e-02,-2.291542932818350919e-02,1.136219859123229980e+00
3.389366754013871108e-01,-7.516005024056561235e-01,-7.257716755613567994e-01,6.412621305503242788e-03,6.398827603594821854e-03,1.498978443395547824e-02,1.078281760215759277e+00
3.478873027097267867e-01,-6.534854795038630426e-01,-8.221890315201052513e-01,-7.040683993612970384e-03,5.682486904420152099e-03,1.584070478145292379e-02,1.095966219902038574e+00
3.330789791451256865e-01,-8.982291158989501589e-01,-4.935605084744667526e-01,-2.120614228716017312e-03,2.485243524885118876e-02,1.421691922004859714e-03,1.087877273559570312e+00
3.198562964852931234e-01,-7.165759448500419460e-01,-7.670242569614874606e-01,8.202963552422603069e-03,-2.625770761388363655e-02,-7.253359423484966040e-02,1.071016669273376465e+00
3.451255323475437287e-01,-7.178505968426863726e-01,-7.698593948420116018e-01,7.010883803775821814e-03,1.188514286644151187e-02,4.644644258567298505e-03,1.090203285217285156e+00
3.285467387178602205e-01,-7.259159786338005294e-01,-7.284531449189290964e-01,8.832854471511723121e-03,-1.790713821796380549e-04,-4.188020627822547186e-03,1.055869340896606445e+00
2.869841824031781341e-01,-7.622436544945244696e-01,-7.752844590816903025e-01,1.838980581402019712e-02,-1.714070625692694534e-03,4.531721830888180906e-06,1.056293129920959473e+00
3.290705028258968379e-01,-8.367144861994670890e-01,-5.988465402997324993e-01,5.803851048791863407e-03,5.077982391524587906e-03,-1.305919525470664727e-02,1.067250132560729980e+00
3.417617429931652517e-01,-7.772712925150906393e-01,-7.843500936314026228e-01,-4.757513377327344389e-03,9.658761717655674336e-04,-1.639596556900132021e-03,1.122624278068542480e+00
3.497234866580058443e-01,-7.734393000782227023e-01,-7.868407206520640074e-01,8.318627675589624487e-03,1.426351954579111684e-03,-7.889169729753789427e-04,1.130018472671508789e+00
3.449981066149561681e-01,-7.722305856467939211e-01,-7.876207165520807685e-01,9.104389688937631828e-03,4.501033312078392954e-04,-2.800819478738121593e-04,1.125113606452941895e+00
4.035692810508829109e-01,-8.349313483722922147e-01,-5.214979146086036188e-01,-2.396585699692068555e-02,6.268446251751880194e-02,2.018911168068381057e-01,1.174618244171142578e+00
3.156901117625749986e-01,-8.386710719511127898e-01,-5.722986203502241631e-01,-1.150716266820070270e-02,-1.605048525151119617e-03,-2.139523894011120461e-02,1.047755837440490723e+00
3.623537007924426678e-01,-7.743603904529616777e-01,-7.994884961590780215e-01,-9.543527222054332603e-04,-4.695015727749017598e-03,6.913974204253714451e-04,1.149514675140380859e+00
3.598232840110395792e-01,-7.353617975649386906e-01,-7.902231166504101179e-01,-1.275431744732368616e-02,9.047645939237451695e-03,-9.602975199445484139e-03,1.124070167541503906e+00
3.526687734662207196e-01,-7.613092798952743046e-01,-7.889499288968159219e-01,-8.956038707709484264e-03,-3.538715043052113526e-03,5.592019291918457011e-04,1.128176093101501465e+00
3.574178432617620138e-01,-7.596960191917747629e-01,-8.004927387272029460e-01,-9.657789575387721800e-03,-4.951208972085182659e-03,3.366291239516661159e-05,1.138216018676757812e+00
3.569051027180616398e-01,-7.746037172621721423e-01,-7.883916528577413763e-01,-1.674973883986109312e-03,-2.337875148593314412e-03,-7.069966692419266249e-04,1.138476967811584473e+00
3.548233434338547432e-01,-7.608284737722523783e-01,-7.940336168661255023e-01,-8.071960366900995248e-03,-4.068879037478851692e-03,2.056852655017318669e-03,1.132733345031738281e+00
2.985593239473527949e-01,-7.772282693961012345e-01,-7.839014079866133411e-01,7.220534734030459485e-03,2.534946023383097963e-02,-7.574002399862482353e-03,1.080184578895568848e+00
1.902149698882947826e-01,-7.709160442870026664e-01,-7.552038821103552735e-01,-6.597705085481096743e-02,-9.078511308931842827e-03,-1.136497718032714564e-02,9.605268836021423340e-01
1.496122304475194231e-01,-7.441363179221049950e-01,-7.419789325258476786e-01,-4.492621425887207906e-03,-2.264626602605748079e-02,-1.987684466465545856e-03,8.935737013816833496e-01
3.263610932164952017e-01,-7.218759156585865533e-01,-7.544219670468634842e-01,1.688000485406994378e-02,1.684088284945379002e-02,3.751759771592719228e-02,1.067663073539733887e+00
3.038289281984726253e-01,-7.412021889863746882e-01,-8.050041145047857061e-01,-2.031145914367347982e-02,-2.159414376986330472e-02,2.135189745824336155e-02,1.080203652381896973e+00
3.643931652411241395e-01,-7.664930625050915269e-01,-7.802347310152919491e-01,-6.812501598793426622e-03,7.141285150920839882e-03,-3.807214767095445061e-03,1.137966871261596680e+00
3.386451173163567141e-01,-7.871169217882534319e-01,-6.760463907372444847e-01,-1.214214939006873738e-02,-3.927756869854388301e-03,-1.241651779788943005e-02,1.074983239173889160e+00
3.664323275608886710e-01,-8.214092918881199523e-01,-7.915909053938363638e-01,-2.874749598226824382e-02,-5.295418221590961899e-02,8.363351518835171472e-02,1.186723470687866211e+00
3.516571887924234141e-01,-7.898682828119807375e-01,-7.273382692738737942e-01,-1.241713666640208505e-02,1.620682780201084666e-02,-6.767775226459878807e-03,1.112204432487487793e+00
3.711681087349506525e-01,-7.765600142807620454e-01,-7.779055419181712949e-01,-2.128994732637428527e-03,3.824458453178488856e-03,-1.790176606432620360e-03,1.148430705070495605e+00
4.268487435506008731e-01,-6.856260412105616986e-01,-8.924005368288844275e-01,3.319917025459811349e-02,3.629193308841377474e-02,1.205342145874854359e-01,1.249492168426513672e+00
3.681421827632957444e-01,-7.908219800383244902e-01,-7.748457460729655244e-01,-8.017612193212776206e-04,-1.577759969833504279e-03,6.392627364508471702e-04,1.151063799858093262e+00
3.306557304020953936e-01,-6.958698763519339803e-01,-7.527180567233738850e-01,-1.126412443428445034e-03,-6.297803024460917054e-03,-5.590459790203891610e-02,1.060585379600524902e+00
3.325167577774059691e-01,-7.466912813883350708e-01,-7.047934733819720687e-01,1.014232623965315508e-02,-1.105201963778962120e-02,-4.497786680746557186e-02,1.062060713768005371e+00
3.694168570685975594e-01,-8.003075139666993021e-01,-7.592156820294588826e-01,-7.896874489500804381e-03,-3.385888434486729239e-03,-1.077518362555650831e-03,1.149827122688293457e+00
2.224922476976859409e-01,-7.822524541560367251e-01,-7.618399527141341832e-01,6.964915402533151945e-02,-2.390160109609560171e-02,-9.400467525826995685e-03,1.002971172332763672e+00
3.728661875665392200e-01,-7.767498302872757332e-01,-7.764237026043206980e-01,-6.094405347413523084e-03,1.156028501324623441e-03,1.107703383197045522e-03,1.149504780769348145e+00
3.666804780802203068e-01,-7.842639209596169447e-01,-7.580090871104325778e-01,-6.221320581138528594e-03,-2.701148738599622005e-03,-5.140836380706470228e-04,1.138105154037475586e+00
3.033535481081389151e-01,-6.557737314412435126e-01,-7.383742519058387188e-01,-1.284496118513861473e-03,-7.656837551371423450e-04,-3.089363752042524613e-02,1.004411458969116211e+00
3.585628123510804510e-01,-7.710058089580220653e-01,-7.915284684918024727e-01,5.191055828775371223e-03,-2.431533035125616436e-03,1.120355674245197044e-04,1.140011787414550781e+00
3.184382772422057473e-01,-7.167051135488899938e-01,-7.217983477289608985e-01,-5.311216574661118935e-04,-2.020305370805331932e-04,-2.310017018728589486e-02,1.038470864295959473e+00
3.670735109325075074e-01,-7.771758374756796428e-01,-7.652318793008092701e-01,7.257511940234539008e-03,2.708695312852891710e-03,6.233708295405428006e-05,1.138403415679931641e+00
3.612253902912093695e-01,-7.750529400535006719e-01,-7.848747883556658200e-01,4.527587151556088443e-03,-8.703778510134320759e-03,2.083385615517379947e-04,1.141347527503967285e+00
3.717318895213415075e-01,-7.721067361838002130e-01,-7.777968583319146978e-01,3.998183877407059973e-04,-2.049240798118577220e-03,-9.274739034907802937e-04,1.146701097488403320e+00
3.641443631563638927e-01,-7.641422943294591263e-01,-7.768664630044901376e-01,-8.674548419711138481e-04,-1.089105092575334138e-02,6.157866322569333344e-04,1.134860515594482422e+00
3.183185061903970881e-01,-6.918733086593621406e-01,-7.457880822094498097e-01,-2.541559891795880290e-03,-8.112258373587216947e-04,-5.982561752888705675e-02,1.043368220329284668e+00
4.149651652879081665e-01,-8.025937423154316797e-01,-7.775570916524644494e-01,1.443591218766082651e-02,1.743908649749683140e-02,-1.291106808095081881e-01,1.226433515548706055e+00
3.552761483479034976e-01,-7.766016601789433871e-01,-7.895947290561569076e-01,-3.828769777333768630e-03,5.910927258986283005e-04,-8.401474304360168988e-05,1.138449788093566895e+00
3.215876660486968186e-01,-5.711121106243641776e-01,-7.822436006385788954e-01,-5.682688165076164519e-03,-1.081438853091115301e-02,1.501306217182651337e-01,1.047870159149169922e+00
3.396645349969656946e-01,-1.044337331849974626e-01,-1.157985861453769250e+00,2.768476075603787043e-02,-4.093420791591376867e-02,-3.367518222045205734e-02,1.336339831352233887e+00
3.734569947744393881e-01,-7.759538304740400960e-01,-7.774014696532193236e-01,-3.364089134454851127e-04,-6.608940554355343961e-04,6.949532081585098504e-04,1.150136709213256836e+00
3.798953687513849098e-01,-2.381468436811862710e-01,-1.035317641402875743e+00,-7.424566845285116012e-02,-4.728762103858018609e-03,1.838580838644372772e-02,1.236026287078857422e+00
3.954824599951830000e-01,-5.654426592942916052e-01,-9.214393633626229985e-01,1.781866825303006063e-03,-4.787752399649166345e-03,1.647679418065715884e-01,1.213968992233276367e+00
3.553039907102071848e-01,-7.856366281915332372e-01,-7.280921109970267535e-01,1.304640336857706279e-02,7.343298211268634371e-03,-4.819807447466802064e-03,1.113617539405822754e+00
3.639644903245327079e-01,-7.602810142358473744e-01,-7.701393177099150611e-01,6.146499372839673778e-03,1.432117709168275214e-04,-6.450825783684694921e-04,1.129257678985595703e+00
4.585598246649263410e-01,-2.462363885419296405e-01,-1.181848200709981311e+00,-2.338233082831916651e-02,-3.940908379509784620e-03,2.579604313161856233e-01,1.494269132614135742e+00
4.124731245398921553e-01,-5.575993537274266387e-01,-9.357096844562067250e-01,6.053327979989930885e-02,1.465979198395181600e-02,1.536816779308335656e-01,1.238262534141540527e+00
3.861498585200359157e-01,-3.385839779528054816e-01,-9.937819514444160562e-01,-3.388775498516286011e-02,-1.566992182473433970e-02,2.030444566545631657e-01,1.247890472412109375e+00
3.356396422482472719e-01,-7.857299679029940975e-01,-6.831668132863549792e-01,1.184840626734219929e-02,2.799640093010812535e-03,-1.166771260487649980e-02,1.074165225028991699e+00
3.476138316062768463e-01,-7.419802292327992710e-01,-7.516433883287580997e-01,9.628607346576350048e-03,1.501959947002870846e-04,-4.058199306122192880e-03,1.094607234001159668e+00
4.424329948476729557e-01,-4.943851906744951008e-01,-9.833323063024808075e-01,-3.539860696554626013e-02,1.764322023280377738e-02,7.747947133789742646e-02,1.263904452323913574e+00
3.192686618728730608e-01,-7.218834823807177559e-01,-7.140967336689736378e-01,-1.129226518766367378e-02,7.370763048994236413e-03,-1.180988173841276273e-02,1.037745237350463867e+00
3.232574069692175089e-01,-7.452973059558873903e-01,-7.021768340630643035e-01,-1.000310114211308207e-02,8.059539192614954481e-03,-6.825203118486663362e-03,1.047963142395019531e+00
3.222167048690032232e-01,-7.137664072344305222e-01,-7.297194989024828882e-01,4.760611058368868428e-03,-4.499564749058156815e-03,-1.102902146389466743e-02,1.044287443161010742e+00
3.050394264606727246e-01,-7.017704551370124166e-01,-6.930712680871292664e-01,3.313998869187178686e-03,-3.800720550575781200e-03,-4.955248204137042978e-02,1.006193876266479492e+00
3.157118943264619615e-01,-7.160181974310729780e-01,-7.174612705018870162e-01,1.204396945270438469e-03,-1.361285811751293410e-03,-2.562724170869308885e-02,1.033410906791687012e+00
3.327972694396683084e-01,-7.420428263140124159e-01,-7.271130215102804550e-01,-1.308351279664635332e-03,-3.495187052448327984e-04,-6.646974855980025514e-03,1.067518115043640137e+00
3.098800575251633993e-01,-6.595033475914779952e-01,-7.440036267869898357e-01,-1.870597319022127393e-03,-3.500714623189998560e-03,-2.845297373300261640e-02,1.015496730804443359e+00
3.249971589296303254e-01,-7.032385796605222783e-01,-7.446196971215810478e-01,6.877860704556258351e-03,-7.640361818267233512e-03,-7.181955387919791191e-03,1.049763083457946777e+00
3.186000509392937774e-01,-7.837220744054211874e-01,-6.448343871647883585e-01,2.513411035417240438e-03,1.529830740639727318e-03,-1.897996773172913598e-02,1.040390133857727051e+00
3.364938588204929859e-01,-7.586013921685224037e-01,-7.097359144669509456e-01,1.513123937795544417e-02,-1.169115825888294470e-02,-3.755311238785212502e-02,1.073981761932373047e+00
3.438021945870088358e-01,-7.699983690908362988e-01,-7.858167406884416506e-01,9.597163036406989103e-03,6.664297097598428704e-04,-1.083017162401272581e-04,1.121917128562927246e+00
3.137183340280002564e-01,-7.017208876706829690e-01,-7.230401144039959593e-01,-1.259342222599054090e-03,-3.940785392481581341e-04,-1.400711036496379500e-02,1.026554226875305176e+00
3.604977146871216620e-01,-7.885182257619989254e-01,-7.738252972517752903e-01,-9.472447937874761519e-04,1.232497838909065628e-03,-8.913011859168808995e-04,1.141744613647460938e+00
3.671080737543821471e-01,-7.865906794734215390e-01,-7.768615107901397643e-01,-6.712448538100596399e-03,-4.574231341712562868e-04,3.382332920368547264e-04,1.148924350738525391e+00
3.174797536201958703e-01,-7.274512330051361442e-01,-7.108427757613156039e-01,-4.304839366462015655e-03,4.704909302639569883e-05,-4.285500069906908634e-03,1.036779880523681641e+00
3.290241106728050702e-01,-7.454854897996592289e-01,-7.102622788468064829e-01,-7.730646062334807327e-03,3.325155733796387688e-04,-5.765365098665831307e-03,1.057470202445983887e+00
3.500455164386476747e-01,-7.771037489518823893e-01,-7.672112592723900892e-01,-2.116049143688782802e-02,1.141433280331283565e-02,-1.568115655766853106e-02,1.123336434364318848e+00
3.669224582748588648e-01,-7.684750006203714401e-01,-7.679373620259806188e-01,-2.112351886248803670e-03,-7.960659143258609974e-04,-1.307872826868651094e-03,1.135137677192687988e+00
3.483767962750164426e-01,-7.790945436061453844e-01,-7.555141135890319770e-01,-7.808128219037369089e-03,5.646753491261276466e-03,-6.099672110239127282e-03,1.116042852401733398e+00
3.405981410131402320e-01,-7.390394340283185093e-01,-7.419728687986708593e-01,-6.109993700419247969e-03,7.483152886199364619e-03,-1.287713651583921159e-03,1.081239104270935059e+00
3.535046994505224305e-01,-7.763246237600087696e-01,-7.855130981137845581e-01,-3.979212864046759689e-03,1.623875129812055954e-03,4.411656754230817035e-04,1.134476184844970703e+00
3.550208816924572686e-01,-7.837075632861807417e-01,-7.278774908626306495e-01,-1.256851258316155594e-02,-3.561039560274305033e-03,-3.443537082970482034e-03,1.112111330032348633e+00
3.741410354952010020e-01,-7.833566963120304205e-01,-7.773961104094697649e-01,-5.750572109778834262e-03,1.134359273870271228e-03,1.816627994166138756e-04,1.154573678970336914e+00
3.707195469966381163e-01,-7.815952488377284624e-01,-7.757018512007718414e-01,-1.890683441170176986e-03,-1.338180782530199505e-03,2.205367890259640924e-03,1.149392724037170410e+00
-5.916434481831850389e-02,-6.285199510420058644e-01,-8.248485453326047656e-01,-5.704645976045171624e-02,5.200238089514135076e-02,-5.147966684973126310e-03,7.017454504966735840e-01
2.709583042171748168e-01,-7.421580249538739515e-01,-7.893767937772833143e-01,-3.019932438282392495e-02,3.598513841258822819e-03,2.972491325894575497e-03,1.038881063461303711e+00
2.306455289087754323e-01,-7.590896001646931790e-01,-8.242624995284334455e-01,4.594942004847058815e-03,-3.185972928241198598e-02,1.508542437105330272e-02,1.025728106498718262e+00
3.316699298728754686e-01,-7.451371148176014758e-01,-7.905894584148538407e-01,-8.248413973464011019e-04,2.560312198794849423e-03,2.664369410658805337e-03,1.100257158279418945e+00
3.634313905562491787e-01,-7.860690067640011547e-01,-7.569659576468057427e-01,-1.014567533216132085e-02,-2.553314844241401285e-03,-4.244757866977281785e-04,1.135373592376708984e+00
2.920438517022244107e-01,-7.890186125431125630e-01,-8.060076984479607187e-01,-9.080273274853074145e-03,-2.306590714136833725e-02,-1.175832295371820454e-03,1.090503811836242676e+00
3.352818582403092607e-01,-7.026474606747588059e-01,-7.474966275678600613e-01,-6.259597692220945919e-03,1.028780986788502272e-02,-5.692475200014075060e-02,1.065840244293212891e+00
3.572731948698080751e-01,-7.768603738302383155e-01,-7.880435379700627685e-01,-3.604309553908059162e-03,4.615827125196972011e-04,3.824045070675712607e-05,1.139783620834350586e+00
3.535451048711580335e-01,-7.690406818607418149e-01,-8.185900635915013268e-01,-2.017516461938339764e-02,-2.282275450035107719e-02,1.424125920385676842e-04,1.149374246597290039e+00
3.481002696924744289e-01,-8.639970090243875855e-01,-5.441579373896949789e-01,-1.740247538818972400e-02,-3.462785046777879655e-02,9.834056991356146527e-02,1.103321909904479980e+00
3.714604329554117013e-01,-7.769389879854409209e-01,-7.729766174380483523e-01,-5.937370493551692545e-03,3.242963335669092530e-03,-6.702369152083541412e-04,1.146483898162841797e+00
3.715306189917404467e-01,-7.742254650084038348e-01,-7.749352352981991876e-01,-5.909255451282909022e-03,-1.248029650061518395e-04,-1.825866319055550200e-03,1.146161198616027832e+00
3.683087330911475887e-01,-7.768250632161370905e-01,-7.759047453393723703e-01,1.732576369206969029e-03,1.028094792372265471e-03,3.632503506821495721e-04,1.144679427146911621e+00
3.129451691677376246e-01,-7.779252952258954856e-01,-7.746847632905707881e-01,-7.408568010209616063e-03,8.167829152037856411e-04,3.800792075842522252e-03,1.089350223541259766e+00
3.574722100733242480e-01,-8.015704668495128304e-01,-7.154019869364836026e-01,1.183126551788907070e-02,8.821348306381258594e-03,-1.265267880143579847e-02,1.118957400321960449e+00
3.609169009728030453e-01,-7.785352929648488018e-01,-7.819773967067503717e-01,3.966848377329020708e-03,-4.215593657281774265e-03,1.819261669288417408e-03,1.141225576400756836e+00
3.666437832133003227e-01,-7.612178816319437047e-01,-7.880267757489101133e-01,-3.611736003759120992e-03,-7.064397180361094153e-03,-1.678405762127353415e-03,1.141588687896728516e+00
3.657343544413508285e-01,-7.837168856441465437e-01,-7.658386942716364221e-01,9.619712585806773630e-03,-1.058043112390929900e-02,-2.941002129582832598e-03,1.140897512435913086e+00
3.754725313876888793e-01,-7.792615387604271415e-01,-7.791669345126752688e-01,1.571556574952526122e-03,-1.340043944508697779e-03,1.005028838241521809e-03,1.154693603515625000e+00
3.740509862731438706e-01,-7.778687956998475705e-01,-7.790265300150183148e-01,7.570022377579807300e-04,-1.176279671123831548e-03,1.301218448095201822e-03,1.152503848075866699e+00
3.594786072827854118e-01,-7.658967640805491861e-01,-7.677170757263965806e-01,1.100163603929564700e-02,-9.569933655402667119e-03,-7.589819477975680989e-03,1.126646518707275391e+00
3.736202608425885918e-01,-7.760492601122597200e-01,-7.750083400926200961e-01,-2.408935183299860006e-05,6.695436172153519444e-04,6.083740050912996283e-04,1.149150490760803223e+00
3.537857718509002103e-01,-7.608958934764805671e-01,-7.807274762418610070e-01,5.057778525373967174e-03,-1.241176321750037462e-02,-3.611822201704693522e-03,1.124985575675964355e+00
4.450158745264178872e-01,-7.636285348762320568e-01,-8.738981197735280482e-01,2.148849945114293322e-02,-1.828689244031526592e-02,-2.013320753482382430e-01,1.315389513969421387e+00
3.314139844867614038e-03,-1.183548872121236162e+00,-7.547118265357801725e-01,-9.366681755065943416e-02,-3.121978173242176066e-02,5.789845468044290538e-02,1.059658169746398926e+00
3.659151852664194737e-01,-7.687858800552951344e-01,-7.729610053471680509e-01,9.160825297653912846e-03,-9.617109862068125639e-03,-4.992620395489487210e-03,1.137060046195983887e+00
3.622719196916713291e-01,-7.803904153755616413e-01,-7.838561582696158547e-01,3.388367073024133383e-03,-3.631583382043862551e-03,3.948962810399496079e-03,1.144451856613159180e+00
3.697757119264262204e-01,-7.782909015524640539e-01,-7.682292251192127663e-01,4.788562872825467831e-03,9.713394506307175200e-04,-4.504662894094075241e-05,1.143100261688232422e+00
2.132542699143408771e-01,-8.236639087232748846e-01,-8.637330889291419123e-01,7.523254060131198684e-02,1.882572002248526430e-02,-3.118298426579527854e-02,1.067386269569396973e+00
3.651394481192763442e-01,-7.654414402487843549e-01,-7.695470351147178922e-01,1.758343483402064560e-05,-4.011897178434455959e-03,2.405982899974606209e-03,1.132668256759643555e+00
3.707786742987388418e-01,-7.769526076152363236e-01,-7.744253258641902171e-01,1.259153514505033204e-02,1.804294261448633613e-02,1.113255511135440197e-02,1.147264957427978516e+00
3.558991490075816277e-01,-7.710195481536370465e-01,-7.458724721882581399e-01,7.341237450357118374e-03,1.085815352888798652e-03,-3.117310527711554882e-03,1.114645123481750488e+00
3.693566160001336973e-01,-7.719517433833353870e-01,-7.777382364510914137e-01,2.210094621839986742e-03,4.786114921681721562e-03,1.972303463007432645e-03,1.144254088401794434e+00
3.640292711365432643e-01,-7.769478677650942799e-01,-7.803573084250394754e-01,-1.443786184561601533e-03,3.886762989102588665e-03,-1.106700550277361830e-03,1.142709851264953613e+00
2.769920973827419419e-01,-1.119084951106329662e+00,-3.785382015558783619e-01,-6.512251663681731251e-02,-6.410265109508966885e-02,-3.657391153370947445e-01,1.374745726585388184e+00
3.128481971789180416e-01,-8.635084561464807518e-01,-5.274976797849801891e-01,3.723090061078028132e-03,-7.502629005271924416e-04,-3.839536781755232414e-02,1.051625251770019531e+00
3.398125021495745357e-01,-8.340180356076636325e-01,-6.107871868582991359e-01,-8.177731544349257226e-03,1.770120828482203354e-02,-1.808048709621804320e-02,1.080646276473999023e+00
3.225226908581140806e-01,-7.589766690661647885e-01,-6.696316320417445844e-01,1.541565459067603325e-02,-1.433629307070729587e-02,-1.859394321136381006e-02,1.040847539901733398e+00
3.721509830567137911e-01,-7.777047592277157584e-01,-7.770745931569862375e-01,-3.870268186191777116e-04,-6.165917383095557373e-04,-4.222248237665111826e-04,1.149541735649108887e+00
3.740685770305852142e-01,-7.803679070463310774e-01,-7.748123749394311144e-01,3.218583464557984216e-03,1.041011013110448597e-03,-1.501438994116440981e-03,1.151686549186706543e+00
3.187736377193294279e-01,-7.452245396070797945e-01,-6.941788116923941487e-01,1.995728436423084302e-03,7.377815820431593997e-04,-8.846428600749935839e-03,1.039535284042358398e+00
3.719432988519231764e-01,-7.804589706066997756e-01,-7.766809210800410535e-01,1.867384181622287450e-03,-2.649142016390145047e-04,-9.161302986348904970e-04,1.150523662567138672e+00
3.211156676185547565e-01,-7.411498782471761526e-01,-6.953278867292004284e-01,7.040735975736069421e-03,-3.793510708317309908e-04,-1.012630559364651947e-02,1.040331363677978516e+00
2.625400229017312292e-01,-8.248236901056291703e-01,-6.618413183519273879e-01,-2.008815804354502702e-02,-4.786469836105665399e-03,1.220220726553959169e-02,1.016576647758483887e+00
3.014335029680223488e-01,-6.574352305037749478e-01,-7.024917322917012541e-01,5.219822427414710225e-03,-1.010420178204894659e-02,-1.108681660735118396e-01,1.000962495803833008e+00
3.434448836974889341e-01,-7.294218098215210500e-01,-7.571852890354100474e-01,9.459061010259724872e-03,-1.278983439857262275e-02,-6.389697348551272651e-03,1.087419867515563965e+00
3.263333176283455539e-01,-6.792898675434086986e-01,-7.696894605909434528e-01,-7.955258624207451126e-03,7.775841912909453243e-03,-4.669098495082141254e-02,1.057009696960449219e+00
3.139251537509972767e-01,-7.406391961270553104e-01,-6.872195347455978265e-01,-4.855634794256380449e-03,1.383488734136488301e-04,-1.183853353349652478e-02,1.029133796691894531e+00
2.606395296802062056e-01,-8.526298074707194807e-01,-5.499387503073724925e-01,6.047654510353625426e-04,2.168170700799475215e-02,4.992199353053377447e-02,1.001449823379516602e+00
3.539906383378537136e-01,-8.362449653934734828e-01,-6.517721489448518035e-01,4.478688736379257684e-03,3.529964528951162056e-02,7.260262645585124387e-03,1.111342191696166992e+00
3.356589392432461350e-01,-7.575449743489759413e-01,-7.100575071681562989e-01,-1.279860186761009808e-02,-4.956070643386716653e-04,-2.723099881551196283e-03,1.070490956306457520e+00
3.716363487758528872e-01,-8.294853009221596629e-01,-7.230763325627374005e-01,1.119720100549904257e-02,1.658388742331301166e-02,4.765334981826271736e-03,1.152161121368408203e+00
3.558815184070716620e-01,-8.471946113575776760e-01,-6.509544370267603686e-01,1.154037926946040182e-02,3.072212372340330996e-02,1.234714572085587186e-02,1.119597673416137695e+00
3.541579597428837212e-01,-8.721388498111379839e-01,-6.546159456736784232e-01,3.465752640971030141e-02,-1.403593053327858303e-02,3.844339016051852298e-02,1.137101888656616211e+00
3.139407128321118345e-01,-6.693206199529670997e-01,-6.708483735816772597e-01,-4.991543388852809522e-03,-1.354497388954317358e-02,-2.447657009995778676e-01,1.071757078170776367e+00
7.402261807490007062e-02,-1.076165391643679081e+00,-6.440144181862990092e-01,-7.208095979583260815e-02,1.209712328595503039e-01,-2.094311806406884136e-01,1.097135066986083984e+00
3.410380370614566337e-01,-7.838800450022969102e-01,-7.774168386857236435e-01,-2.210581947043213907e-03,3.267911772350721219e-03,2.124900202467463681e-03,1.121727347373962402e+00
3.759601264989316238e-01,-7.789226782491106560e-01,-7.785433221209664412e-01,-1.525487423467894281e-03,1.733135834495181738e-03,-1.513714357580438230e-04,1.154700160026550293e+00
3.697677852543766464e-01,-7.749432630317669712e-01,-7.783538747382396927e-01,9.273593779219632509e-04,1.474918314511900006e-03,-8.828082764647530902e-05,1.146424174308776855e+00
3.542967991179773457e-01,-7.634049461845580087e-01,-7.495561184136592114e-01,-9.982118257053753177e-03,-2.405264299981508223e-04,-2.610941960955347934e-04,1.110976815223693848e+00
3.756318390634023063e-01,-7.757631109915354983e-01,-7.824348875041191587e-01,1.694027980524506283e-03,2.426071728863799307e-03,-5.434495291979379600e-04,1.154757022857666016e+00
3.631274431890809118e-01,-7.633324637297117521e-01,-7.646678364781900328e-01,-7.863208618555442547e-04,1.977450348708767978e-03,1.410520575180024012e-03,1.127136826515197754e+00
3.694709947022344898e-01,-7.749688555962206404e-01,-7.684966510563511211e-01,-4.595837577337721219e-03,-1.074351076582100335e-03,-6.397229983328560007e-03,1.141300559043884277e+00
3.686074320932410386e-01,-7.630167578548239238e-01,-7.758573789107477969e-01,1.318965180256144497e-03,4.695842804180612711e-04,4.934255021110411400e-03,1.138133525848388672e+00
3.407596553310254239e-01,-7.698102655720397980e-01,-7.834105575725616166e-01,8.724162061807269955e-03,1.854209128745236586e-03,-1.291878010086950569e-05,1.117538928985595703e+00
3.748715320571250342e-01,-7.747667708931549324e-01,-7.785010410877322151e-01,4.438845734754165895e-04,-1.802994027317426256e-07,-2.094284194786509047e-03,1.151515960693359375e+00
3.723431185360663864e-01,-7.769639318704613107e-01,-7.742528187491147795e-01,-5.879872061343860076e-03,1.962494512310052411e-03,1.736720803754803139e-03,1.148007988929748535e+00
3.735765977321038323e-01,-8.960678773913878237e-01,-5.819838712140630310e-01,1.326447375389070869e-03,-1.941801906285012952e-02,2.416790620594191086e-01,1.219931840896606445e+00
3.239427277070008326e-01,-8.685874338265893169e-01,-5.544730028706350566e-01,-1.403719106540043168e-03,-9.117197659737112658e-03,2.991024078738343389e-02,1.071981430053710938e+00
3.665812089727817913e-01,-8.821674500817716646e-01,-6.090058840553138619e-01,3.948613235424720119e-02,6.748426063095991356e-02,3.685776838204609523e-02,1.146863341331481934e+00
3.296254261199699220e-01,-8.513842084474931848e-01,-5.668385468175364261e-01,1.108262749411812083e-02,1.631860975831254728e-03,4.834810942241743459e-02,1.071021914482116699e+00
3.380141914924408852e-01,-8.921782598042071744e-01,-5.588631963439809613e-01,1.392468234959904835e-02,2.556386906071488746e-02,1.333746494321196886e-02,1.103406786918640137e+00
3.602930765524973711e-01,-8.439189966576292612e-01,-6.454366125302229973e-01,9.792628699483978821e-03,2.686556469818091736e-02,3.815187568394022219e-03,1.119376540184020996e+00
3.541779872469673629e-01,-7.257693546505091797e-01,-7.841848778376034890e-01,5.068482938634313525e-03,1.309768706098134866e-02,-5.903057989829640743e-03,1.110621690750122070e+00
3.705824585212345590e-01,-7.799625513106117625e-01,-7.766189294737753102e-01,-4.489710615050720478e-03,1.310978646733301214e-03,1.311826326161955394e-03,1.148907661437988281e+00
3.084995931079413944e-01,-7.176796206150544144e-01,-6.945347291847835391e-01,4.553144284034905259e-03,-5.659824393575328075e-04,2.103587513682210128e-02,1.015489697456359863e+00
3.302516902202483062e-01,-7.217453064959521436e-01,-7.374442117089807791e-01,-6.502599129512637776e-04,7.238361532572130073e-03,8.024874645108228538e-03,1.060099482536315918e+00
3.076666844970340486e-01,-7.001478573140693662e-01,-7.009816713514580577e-01,-3.267672106024226402e-03,-5.398681257461635137e-03,5.900257000394959483e-02,1.013456702232360840e+00
3.429309482607380000e-01,-7.553966786486796536e-01,-7.299612765253544744e-01,1.099694837550106025e-02,1.042964529471485276e-02,3.536157562564016480e-03,1.086167931556701660e+00
3.687113822136581232e-01,-7.833709298185174141e-01,-7.594755423744931067e-01,-1.203857123978454603e-02,5.839638996410758884e-04,-4.594139197822029279e-03,1.140541195869445801e+00
3.333868120637892285e-01,-7.526074713633887914e-01,-7.058367394032365461e-01,9.159091832267271874e-03,9.554287746111561272e-03,2.068205392907652290e-02,1.064230799674987793e+00
3.145505027384146723e-01,-7.120314269985227318e-01,-7.138959791863495052e-01,7.968842867714235820e-03,4.914244097809033346e-03,1.461579257671959814e-02,1.027955174446105957e+00
3.747813631107516086e-01,-7.776212145163670098e-01,-7.746051899831665200e-01,-4.084593244289578878e-04,-1.154445991843338834e-03,1.537285613792858550e-03,1.150902509689331055e+00
3.538990307976730421e-01,-7.786928536765266307e-01,-7.744201845726537137e-01,5.795873064667125818e-03,9.643289006138471009e-03,4.776373125440307003e-03,1.130659818649291992e+00
3.644911326180769184e-01,-7.611084796759635118e-01,-7.845891985720925277e-01,3.119115951202817028e-03,9.481302980631108046e-03,-3.275582904732251546e-04,1.137653231620788574e+00
-1.277234477131394819e-02,-7.775116865604623229e-01,-6.588140580123512668e-01,-2.950073547602254879e-03,1.400103002557289977e-01,-7.292229091058848034e-02,7.634987831115722656e-01
3.415900283093360468e-01,-7.843050280785066608e-01,-7.833422330349674167e-01,-1.082877398237628089e-02,6.273122607885260257e-03,1.689794673449744643e-03,1.125626444816589355e+00
3.747353185550197363e-01,-7.789424605711561256e-01,-7.770303914270523249e-01,-2.628019171841860721e-03,1.987891556346792134e-04,1.400070439508557590e-03,1.152734518051147461e+00
2.320152032370648154e-02,-7.291513368782706062e-01,-7.114179217551068746e-01,-7.265734815701117150e-03,-2.604149335591494745e-03,9.389128875494569260e-03,7.439426779747009277e-01
3.968880635050764383e-01,-8.757924877046914247e-01,-6.800016231405694445e-01,-1.106246504333727003e-02,-3.433425582607833870e-03,4.181607455020707256e-03,1.187150239944458008e+00
3.451975812306191660e-01,-8.008848183579582170e-01,-7.150508929458723184e-01,-8.756126942417974748e-03,1.576901309601732790e-02,-1.752718578532088236e-03,1.106112480163574219e+00
3.548134702771494342e-01,-7.886322490960646636e-01,-7.722850734423505337e-01,6.964120512475734451e-04,3.869186169166447334e-06,-5.452210567598636580e-04,1.135361433029174805e+00
3.287530775250467330e-01,-7.211656959828357527e-01,-7.335015427720976700e-01,9.595736046582050392e-04,7.748326318948704078e-03,-7.772405934299917406e-03,1.056313037872314453e+00
3.586835620770613131e-01,-8.011421396623206181e-01,-7.599760668642143724e-01,4.362493744574710429e-04,4.417991326138935755e-03,-1.563881070661242304e-03,1.139829516410827637e+00
3.476637785565608874e-01,-7.531058335946496651e-01,-7.420435826459994555e-01,3.417345210075080830e-04,-1.316245587960630011e-03,4.735360425951416589e-03,1.095313668251037598e+00
3.546621768288799048e-01,-7.519869264834856404e-01,-7.612821754699026222e-01,2.194036422484359249e-04,9.526544015524615952e-03,1.351592613943068243e-03,1.111450910568237305e+00
3.531703678015990500e-01,-8.139945039269256277e-01,-7.128835478298700679e-01,-2.439048857112168650e-03,1.627061403742852130e-02,-6.807857477497778354e-04,1.120400667190551758e+00
3.465585960298817048e-01,-7.893187716175624757e-01,-7.661070338389222023e-01,7.018276294863512454e-03,-1.011932503704248906e-02,-1.087324000905484428e-03,1.124655008316040039e+00
3.637411064072062494e-01,-7.979891637837785989e-01,-7.629110109283286922e-01,-2.210550422848058146e-03,4.093857513531750335e-03,9.460492250170678260e-04,1.144623994827270508e+00
3.223018994138045490e-01,-7.159264529052840054e-01,-7.239876171782453351e-01,-5.578005475124296272e-03,-4.926872318348208581e-03,2.287422964830719899e-02,1.043114662170410156e+00
3.018443766183417365e-01,-7.404455404221194081e-01,-6.511588571232354017e-01,1.773755476099207491e-03,-9.913656758271118495e-04,3.139747409869324268e-02,1.002121567726135254e+00
3.656643424584903879e-01,-7.619236321639442089e-01,-7.712447979065448767e-01,1.371631398275414927e-03,-1.675547492486106525e-04,5.459754600352463745e-03,1.132319331169128418e+00
3.641145337648655778e-01,-7.826719304328989546e-01,-7.738527797605347924e-01,-4.761524483718249101e-03,5.789383290660450078e-04,7.630861938735843467e-04,1.142433404922485352e+00
3.185608037979240081e-01,-7.199494929261894827e-01,-7.090038007217802640e-01,-9.005694809486909647e-04,-1.916071670082036610e-03,3.422366262477839760e-02,1.034786701202392578e+00
3.640707554358427744e-01,-7.802185230237347335e-01,-7.583281579250311655e-01,-1.482469973060093413e-02,-5.315882021783853439e-03,6.090045731531640479e-03,1.133879899978637695e+00
3.489827939092417508e-01,-7.757242589758851503e-01,-7.765604621321375856e-01,8.333602204254403822e-04,4.550212452839507739e-03,-8.968949741043183346e-04,1.125154972076416016e+00
2.499700853128131728e-01,-7.579744412710007762e-01,-7.595909752277845151e-01,-4.269398798356982723e-03,-6.545630572862432169e-03,-2.306784181124105389e-03,1.008852481842041016e+00
3.482021922034136963e-01,-7.767711404057983104e-01,-7.800555421504382636e-01,5.402199508511061274e-03,-5.669539983186385086e-03,-1.444491361021116652e-03,1.126703500747680664e+00
3.218787613807160830e-01,-7.479697910018101581e-01,-6.689392929897506335e-01,-7.893594444435705557e-03,2.071060766983421220e-03,-7.098878211694313600e-02,1.039994716644287109e+00
3.513345657095162111e-01,-7.781153547464967346e-01,-7.796856374970129178e-01,-4.030769727930423423e-03,-6.887559682150762655e-03,-2.892579815855800284e-04,1.130320549011230469e+00
3.629794330223186649e-01,-7.727640600317060571e-01,-7.831446139465080281e-01,1.806620951909633250e-03,-3.856524754292828781e-03,-1.364851162846450721e-04,1.140992999076843262e+00
3.674600595896121424e-01,-7.671093903876982090e-01,-7.770741267449761125e-01,-3.781451270341968773e-03,-3.763203842820815430e-03,3.942328421755596744e-03,1.139642357826232910e+00
3.608795824097902338e-01,-7.574564514557525774e-01,-7.710076159063790069e-01,-1.421911064088437864e-02,-1.563541583914263011e-02,1.452813377490921182e-02,1.126049280166625977e+00
3.765309232645519533e-01,-7.787389716881247814e-01,-7.798132303452829373e-01,1.219962798538026718e-03,-1.566870039309730105e-03,9.369638598093960654e-04,1.155813694000244141e+00
3.904338497127444185e-01,-9.634959072100165445e-01,-6.984419887172617081e-01,-8.372509953399624640e-04,1.810533791215231114e-02,6.232738511399952414e-02,1.247859954833984375e+00
2.618844690723187707e-01,-7.638519700968373627e-01,-7.710153416332840015e-01,6.191925742451194307e-03,8.132276813352644915e-04,2.495764643720305934e-03,1.029402732849121094e+00
1.978392305615357949e-01,-7.586905173591554918e-01,-6.980762874637593818e-01,2.163891672938370037e-02,5.122442424631795665e-02,4.784020493707984156e-02,9.363688230514526367e-01
3.266811653521596859e-01,-8.036463516190865963e-01,-7.032182482165705295e-01,-3.811446074583202913e-03,-3.620243046111223939e-02,3.531867183824381751e-02,1.087164759635925293e+00
3.687456117514890108e-01,-8.606776531609976466e-01,-6.433885462199827598e-01,-2.407708774068268581e-02,-4.411343226763232706e-02,3.983067439089333500e-02,1.141881108283996582e+00
4.146135477585935480e-01,-8.345160841172258870e-01,-8.108879893357854307e-01,6.952830161562785841e-03,-2.408430962503789116e-02,1.398465501744339257e-01,1.261715054512023926e+00
3.203505674364123257e-01,-7.211472756581835952e-01,-7.179057992821973322e-01,-1.130411067108086538e-02,7.641157134962437911e-03,-2.493595297627492977e-02,1.041045665740966797e+00
3.383628758841991102e-01,-7.461172897156993500e-01,-7.215388357227718874e-01,-1.159403362372343760e-02,1.638119212410337616e-02,-4.602987398123201818e-02,1.075923323631286621e+00
3.256930950834136529e-01,-7.262061118732097142e-01,-7.251808384053439749e-01,2.978269065789834920e-04,-9.749223304500209989e-05,8.531879470097269730e-05,1.051387071609497070e+00
4.168385080310701429e-01,-6.203916510957689923e-01,-8.252539828146840950e-01,4.650202294985020246e-02,-4.446557383855095219e-02,-1.603764748822250619e-01,1.191589355468750000e+00
3.191432857677523049e-01,-7.077050951927473799e-01,-7.213799744847999573e-01,-4.950713275888901817e-03,8.429938448650938984e-03,-3.759394486078581482e-02,1.035940766334533691e+00
3.213783180452621790e-01,-7.241309306107037713e-01,-7.187208239706547319e-01,2.299615184481870397e-03,-2.792047528313149063e-03,-2.209708230936669252e-02,1.043535590171813965e+00
3.565406087146755221e-01,-7.913028238312493912e-01,-7.649756265167109159e-01,-1.117518448468472715e-03,-4.143224122665020541e-03,-1.283407974294290509e-03,1.134935379028320312e+00
3.130923657996159126e-01,-6.521385171926608049e-01,-7.549525969305834749e-01,-8.018595706517117269e-03,1.074790128372468331e-02,-3.333427751462639255e-02,1.022425413131713867e+00
3.245531468413451748e-01,-7.337571112005512042e-01,-7.182591583581107164e-01,-5.583194096004370777e-03,5.220708896328333723e-03,-2.039156455201664164e-02,1.051323890686035156e+00
3.323662021221775453e-01,-7.343988861249977074e-01,-7.331922716190233391e-01,-7.942425610767878466e-03,1.110408632545799822e-02,-1.611865026375572732e-02,1.066789865493774414e+00
3.152036733736216512e-01,-7.177317986813323003e-01,-7.148566754520097044e-01,-6.684322796377790239e-04,-3.159496107650906771e-04,-1.859576117515923145e-03,1.031506776809692383e+00
3.612702089860136412e-01,-7.771701591257168529e-01,-7.871644737267893266e-01,3.360358546099465916e-03,-3.845356720945792943e-03,8.140572502792419677e-05,1.143504500389099121e+00
3.279012841657877320e-01,-6.840011270268437915e-01,-7.536402863521616258e-01,-1.655728915985934038e-02,2.102636876296006679e-02,-5.419593244142610622e-02,1.053671956062316895e+00
3.586692501903949171e-01,-7.669646956652069747e-01,-7.553416745745400451e-01,9.580100782364760897e-03,-6.207732934117597169e-03,-4.926619833648880099e-03,1.120074748992919922e+00
3.419501437999157289e-01,-6.628948749582468380e-01,-8.100629354859971709e-01,4.936908125517813425e-03,1.332012710826620087e-02,-1.934718045489007207e-02,1.086729645729064941e+00
3.432921873568631765e-01,-7.958723831960583528e-01,-6.739879628759193331e-01,1.964858703882823437e-02,2.920451970603936062e-02,2.141280755351315790e-02,1.085724472999572754e+00
3.104264947139391828e-01,-6.646554532437183305e-01,-6.626418152613398060e-01,1.516322541019206153e-02,9.177120222359058666e-03,1.977742432226977931e-01,1.033011078834533691e+00
3.497791231842170556e-01,-7.683811807466205401e-01,-7.143676847668475327e-01,1.614496061971916127e-02,1.596641958942441805e-02,9.267515392649128964e-03,1.092981457710266113e+00
3.383073627559520791e-01,-8.430968165626256949e-01,-6.132426113234891174e-01,1.436465440298878744e-02,-8.811000226931067075e-03,1.767882469441116973e-03,1.085292339324951172e+00
3.585289821336860583e-01,-8.322098827602283366e-01,-6.856848409604576755e-01,6.981912357454238792e-03,-9.008863203421473009e-03,5.538584800762506692e-03,1.124872088432312012e+00
3.167617972269018978e-01,-7.241010737498571048e-01,-7.131453658265577422e-01,-1.132799477664760482e-03,-2.115421089765802030e-04,-6.302270960664387890e-03,1.035487890243530273e+00
3.613400998449473600e-01,-7.875342678910433047e-01,-7.654804384269759954e-01,-5.593361040923927260e-03,5.613592679117303773e-03,-2.423905393033679836e-04,1.138090610504150391e+00
3.574402385135011517e-01,-7.601959525050508981e-01,-8.102248004407701654e-01,2.984591254518596175e-04,6.418993365624479919e-03,-1.559511698468809063e-02,1.143844842910766602e+00
3.293215225161730819e-01,-8.048931402726928752e-01,-7.007828438916128277e-01,-1.306993358863163188e-02,2.460777007000271646e-02,-1.903244401162289962e-02,1.087480664253234863e+00
3.168474658486958306e-01,-6.929117718833404105e-01,-7.383185327992323188e-01,3.081774909617321395e-05,-8.412890686325672635e-03,-1.272850555843359557e-02,1.033549070358276367e+00
3.159061339116811529e-01,-8.088200235462639220e-01,-7.001653359271684529e-01,-6.866813472464003074e-03,-2.333770212447055722e-02,-1.120607708956366903e-02,1.075527787208557129e+00
3.044929043187956652e-01,-6.274881728570819162e-01,-6.115317228338794653e-01,2.592690506599549041e-02,2.480022772898750338e-02,4.003108172894653261e-01,1.156970262527465820e+00
1.162115009991773196e-01,-7.154852389268310242e-01,-7.483384880578013432e-01,2.473317478786343088e-03,9.013903407173300478e-03,-1.681303968186888265e-02,8.492543101310729980e-01
3.374264527848019335e-01,-7.856809235824073756e-01,-7.758574234234141276e-01,7.361569946519857383e-03,8.741615244308097513e-03,-1.591670217903329385e-03,1.118406534194946289e+00
3.701379087357607456e-01,-7.908462366380288877e-01,-7.757787050325699596e-01,-4.765777921483168970e-03,1.285892872380301746e-03,1.593657602209144590e-03,1.153559207916259766e+00
3.581700569678392121e-01,-7.876537879737195436e-01,-7.585220422357312753e-01,-8.150201529940909878e-03,-8.555316730604816539e-03,3.252987324212787412e-03,1.131738305091857910e+00
3.052587500958796607e-01,-7.735576697018915482e-01,-7.719102942048117200e-01,-1.387464338699195138e-03,-2.207636021595645384e-02,5.198183467334867736e-04,1.078674674034118652e+00
3.656894556166296884e-01,-8.080914470413602668e-01,-6.247452613335151561e-01,3.056944710387510603e-02,-7.176983483711553424e-02,-2.338355365721480061e-01,1.174079418182373047e+00
3.576344966600666364e-01,-7.796134034743349428e-01,-7.778698259030472073e-01,-5.058393660498945905e-03,-5.147367055553560798e-03,-1.825962820446525373e-03,1.136450290679931641e+00
3.639462865378632617e-01,-7.533527059057432140e-01,-8.031909971373103474e-01,-5.509659041499800208e-03,-3.367032551611683360e-04,-1.622080223802731475e-03,1.143076777458190918e+00
3.555702652885027737e-01,-7.227586078332088881e-01,-8.036763663763007992e-01,1.431766921645263348e-02,-1.015963112480309030e-02,-5.162652226569357239e-03,1.121428251266479492e+00
3.563334952241419273e-01,-8.059200247588609312e-01,-7.074319535861283148e-01,1.327768704059970398e-02,6.787835252555035788e-03,-6.588670180497613847e-03,1.116629958152770996e+00
3.496787471290265792e-01,-7.706070945343759249e-01,-7.877669320427898025e-01,-4.906415162801693909e-03,5.993135219493269392e-04,1.304044948804579471e-03,1.128998279571533203e+00
3.349191976812509464e-01,-7.047486074139520662e-01,-8.032424839727945187e-01,1.348802336090541149e-02,-2.633337799263040421e-05,-1.328679562163067327e-03,1.092502713203430176e+00
3.266360335339679732e-01,-7.439953885138395062e-01,-8.014139040223974275e-01,3.442916446873177643e-03,1.254532638766425214e-02,-4.690930798717301772e-03,1.100725412368774414e+00
3.272447786211667431e-01,-7.625790920351961377e-01,-7.718291615645990200e-01,-1.040301041565020596e-02,-1.285275104234760365e-02,-5.402876884418407466e-03,1.094892859458923340e+00
2.536022460362241659e-01,-7.043749881794472145e-01,-9.123547292079402515e-01,8.904121232243432382e-02,2.405227634340905557e-02,7.945179967499802626e-03,1.089002132415771484e+00
3.681581686340303916e-01,-7.668756086851534759e-01,-7.733878795838656783e-01,-3.404287644954083719e-04,9.131729511737423808e-04,-3.162464671826550801e-03,1.138318300247192383e+00
3.546346263707888524e-01,-7.611898297644672517e-01,-7.517608704390568164e-01,-1.151417412387752484e-03,8.231664980897744892e-05,-4.235205199076493704e-03,1.111166000366210938e+00
3.698048117536289481e-01,-7.880827532581344830e-01,-7.774754837498376592e-01,5.222121340185243397e-03,1.268424202264320294e-03,1.283305093567647112e-03,1.152660250663757324e+00
3.543859108580733608e-01,-7.519695304923806889e-01,-7.584391722436581995e-01,3.138357822515246490e-03,4.742915325515532389e-03,5.641372104517098501e-03,1.109691143035888672e+00
3.649459064323737345e-01,-7.883845233514917838e-01,-7.678437657387942039e-01,4.770386681703859752e-03,-4.391759793310322235e-03,5.766324018196232470e-04,1.143254041671752930e+00
3.648719147289285480e-01,-7.771709117116014642e-01,-7.999516775312548456e-01,-2.234867425934840106e-03,-3.781190570713226489e-03,-2.237776199155855784e-03,1.153633475303649902e+00
3.516326467713987158e-01,-7.742461196438797932e-01,-7.881429941346298484e-01,-8.371624455175800950e-03,3.560611494559978024e-03,3.168367617214808835e-03,1.133013963699340820e+00
3.612637884411386557e-01,-7.751983284451744449e-01,-7.857354304133692402e-01,-5.358651887683486478e-03,3.291622151909387537e-03,-6.265491068829917229e-04,1.141819596290588379e+00
3.627580679396818497e-01,-7.787042347556529798e-01,-7.792379321802747061e-01,1.421213035918632598e-03,-4.362740266863640928e-03,-5.945715878780063763e-04,1.141757369041442871e+00
3.704794213563522010e-01,-7.811235032645542642e-01,-7.784539639020739976e-01,4.793797572242852474e-05,-1.940013431213467475e-03,1.136143737194755159e-03,1.150277018547058105e+00
3.611154288972723281e-01,-7.770982916681253849e-01,-7.846771073021305831e-01,-1.939363725310766246e-03,6.302737276291791192e-04,-2.985835882485400996e-04,1.142027616500854492e+00
3.533846517466331383e-01,-7.847352176807875779e-01,-7.205482522549320201e-01,1.324868020343195410e-02,5.563158094872715925e-03,-7.071909936627224051e-03,1.107769727706909180e+00
3.532322487449393589e-01,-7.387051642517341588e-01,-7.707364486143828408e-01,-1.150363411891923513e-03,-6.347847118566879616e-03,-7.500528108709486955e-03,1.108432769775390625e+00
3.696769377259151446e-01,-7.784868716552386658e-01,-7.820823994621632913e-01,3.600509465576469739e-03,-7.828733197572809721e-03,1.978655662399012548e-03,1.150067687034606934e+00
3.650614046498467102e-01,-7.734164491264352570e-01,-7.945104412026829932e-01,2.104965949035742662e-03,-3.529030061943320105e-03,-4.071089510803666358e-04,1.149192333221435547e+00
3.521149550310219145e-01,-7.717769443728226264e-01,-7.852883647720687588e-01,-5.453235596170903296e-03,-3.641660700385262496e-03,1.341853728435179203e-03,1.130767583847045898e+00
3.746736805402168247e-01,-7.784952157472089240e-01,-7.837123427696151001e-01,1.985930704187182858e-03,-3.549367187187706628e-03,3.029207734340734395e-03,1.155819654464721680e+00
3.680324495217957015e-01,-7.794526506609000815e-01,-7.653112063882410165e-01,8.248521304282580013e-03,1.667143940620630918e-03,1.868775039795958015e-03,1.140577912330627441e+00
3.725690070887477390e-01,-7.785354097626844272e-01,-7.727530993332940579e-01,1.233357704010377477e-04,-1.922167057462749202e-03,5.618940889264513239e-06,1.148229002952575684e+00
3.697307608179479232e-01,-7.710468588987562377e-01,-7.774553492156006662e-01,2.737088085205656700e-03,-5.307617033290421352e-03,-7.214790408776950228e-04,1.144042730331420898e+00
2.925516128270025940e-01,-7.686169596645179292e-01,-7.677523756521522635e-01,1.123858289301054095e-02,-1.356559657732172783e-02,2.176189888658497298e-03,1.061182022094726562e+00
3.620517996012888040e-01,-7.526038608376595107e-01,-8.072637612244861760e-01,-2.788445539867873569e-03,-2.410415503930559995e-04,-6.747041560049300401e-04,1.142977118492126465e+00
4.115213126158125401e-01,-9.074140776657155794e-01,-7.161533333985503624e-01,1.379883932250148236e-02,-8.179249482899182688e-02,-7.214661750987963473e-02,1.249066591262817383e+00
3.320337089401624864e-01,-7.092989190109194597e-01,-7.481297121881635981e-01,-1.658335762347062795e-03,-1.379493335140273384e-02,-1.022360723709815275e-02,1.061701416969299316e+00
3.941917318261837222e-01,-8.765756701116442784e-01,-5.951254708360298462e-01,-3.056832983568929726e-02,1.045974032301450751e-01,-2.820993513639217243e-01,1.269161701202392578e+00
3.695495413706904042e-01,-7.775057474374431621e-01,-7.771494087034787057e-01,-1.185745120083773422e-03,-1.649341395857105473e-03,5.282143027946616803e-04,1.146882891654968262e+00
3.546135444510987167e-01,-7.828023109493835729e-01,-7.757230696916919133e-01,4.403647493366474527e-03,-3.882888037859494323e-03,3.090328693397409628e-03,1.133951067924499512e+00
3.519376104171177966e-01,-7.578731281599266900e-01,-7.456038767032195924e-01,1.550705180246908163e-02,1.448933914815964423e-03,-7.124953163932195785e-03,1.104125857353210449e+00
3.445480972317308543e-01,-7.723325597302244105e-01,-7.207023785501971425e-01,5.655741069505047271e-03,-5.049185443294853387e-03,-3.147342423490386010e-02,1.093420147895812988e+00
3.716260991891005006e-01,-8.026863034841532629e-01,-5.938956645657690325e-01,-4.835768227739555350e-03,1.137865161770741235e-01,-2.458902079566491761e-01,1.182250380516052246e+00
3.635215211996004614e-01,-7.676420775079990655e-01,-7.604676689710321291e-01,-2.670104056550118938e-04,-6.428896716348819589e-03,-2.850549617623034495e-04,1.127648711204528809e+00
3.587336261559244122e-01,-7.091927584190407252e-01,-8.057199880081844512e-01,8.647197201753355905e-03,8.312208862398452747e-03,-5.897752083609105779e-03,1.119555354118347168e+00
9.373251881650473960e-02,-7.042105373170681748e-01,-6.190932104252462320e-01,3.910536498598059935e-02,-9.938846005608786838e-02,-2.252804226187453129e-01,8.732210397720336914e-01
3.678763231811293943e-01,-7.619017035588856457e-01,-7.847164903289622906e-01,2.093365008716182966e-03,7.073562732655088760e-03,-1.616170947936259867e-04,1.141427993774414062e+00
3.618443076175785200e-01,-7.971116337668093799e-01,-7.528673076164567046e-01,1.648526865228798315e-03,-9.140907979852468460e-03,-9.557588082373946747e-04,1.137594342231750488e+00
3.591925464615856045e-01,-7.520704254395780275e-01,-7.700767873244190875e-01,-7.481765233476318604e-03,9.589255474789743633e-03,-2.786234046226546742e-03,1.120583057403564453e+00
3.595578077596114919e-01,-7.896336592102044527e-01,-7.741366843331469738e-01,4.182375329701016600e-04,-1.177721324521127915e-03,1.596943605154921807e-03,1.141527295112609863e+00
3.668147363636246050e-01,-7.882262083042007594e-01,-7.737921366390854150e-01,-1.372010968448341165e-03,-2.008945516288288859e-03,2.579198796038703265e-03,1.147908449172973633e+00
3.628027690910611835e-01,-7.984281834903865782e-01,-7.613635194548782348e-01,-9.079476857078258578e-03,1.044193977085498479e-02,-2.035548277467358422e-03,1.143406033515930176e+00
3.645090751511826377e-01,-7.872034918342996068e-01,-7.765852618094679638e-01,-1.038913344661591807e-04,2.040770698537610912e-03,1.412235634620388324e-03,1.146448373794555664e+00
3.138712525194091718e-01,-7.831359790814909072e-01,-7.225280326802643316e-01,-5.118142022817703807e-02,3.992047281798372094e-02,-9.828312387532511796e-02,1.087303638458251953e+00
3.540827384693496782e-01,-8.101190463689431631e-01,-7.126286955855583027e-01,-5.438587104184991299e-03,9.366064103005226210e-03,-6.328236648586522267e-03,1.118858218193054199e+00
2.922676907580526451e-01,-7.692114380784548233e-01,-7.703640283343740069e-01,-1.290240521071228490e-03,2.709754966922969105e-02,-3.024795282245521487e-03,1.063107728958129883e+00
3.409842419893438503e-01,-7.948038332212554735e-01,-7.599417384732769509e-01,-1.355981806362316355e-03,-3.200786738642674711e-02,1.391777122673920966e-02,1.120399117469787598e+00
3.466001612694612488e-01,-7.819673714010010324e-01,-7.786311003038940415e-01,-5.033648645620863137e-03,-8.075537254448371047e-03,-3.780947525864070818e-03,1.127042651176452637e+00
3.728384416188860184e-01,-8.280251046678265281e-01,-7.512312935053964136e-01,3.721198057515494317e-03,8.201808317048305680e-03,-6.799380608370458011e-03,1.164531588554382324e+00
3.207614144519179145e-01,-7.469075736338919302e-01,-6.927594249679515093e-01,-4.844083191466175276e-03,5.115763871708794725e-04,-5.631971412100787722e-02,1.046242713928222656e+00
3.152515798581606576e-01,-6.924803606216669571e-01,-7.380225422680246616e-01,1.094311504447441656e-03,4.167285378595032667e-03,-1.074975396393360733e-02,1.031452536582946777e+00
3.678544701442010845e-01,-7.907233419160907273e-01,-7.746597039041329680e-01,-2.135794008252925574e-03,-5.694408491382536852e-03,-1.975690185090207048e-03,1.150683403015136719e+00
3.745105339772273334e-01,-7.820052994462907137e-01,-7.683711860194524235e-01,-5.111624651280190744e-03,6.017598453962770891e-03,-7.877076692704595290e-03,1.149921655654907227e+00
3.243151548875843893e-01,-7.873987138814911857e-01,-6.406215863780686526e-01,-3.712594173805322615e-03,-3.092089387894068550e-03,-1.757339116174194346e-02,1.046553134918212891e+00
3.417162053743192374e-01,-7.821695516182901597e-01,-7.687278450561596532e-01,1.473738295210520570e-03,8.432829439694207452e-04,4.051569459402431768e-04,1.117229700088500977e+00
3.212862059704063022e-01,-6.928394055825879416e-01,-7.451433791168794452e-01,1.095877935919590835e-03,5.561810851564711472e-03,-1.076613686954902907e-02,1.041476488113403320e+00
3.784594287250202527e-01,-8.592956192613832034e-01,-6.965005700476945005e-01,5.448427067594034147e-04,-1.344587149132592946e-02,-1.016276728792365504e-02,1.165286421775817871e+00
3.667394891046277805e-01,-7.932507966075166284e-01,-7.692288064552034177e-01,-3.805788267863166596e-03,-3.780199547989076137e-03,-2.894065373461018539e-03,1.148216366767883301e+00
3.557206691811634069e-01,-7.605964110343583773e-01,-7.923722588393107280e-01,-1.033555934008947158e-02,1.521053011679266353e-03,-6.265182556039582270e-05,1.132683873176574707e+00
3.184749406375151914e-01,-6.919351524282650878e-01,-7.474636799809697418e-01,-3.666319049507733006e-04,-2.163783245688603429e-03,-1.025109967797211905e-02,1.039446115493774414e+00
2.146173139034910360e-01,-4.345887458573908235e-01,-1.187909123921256471e+00,-8.698223933118937046e-02,-1.145213255134810981e-01,-1.226475427294551751e-01,1.259043574333190918e+00
3.176212773026403369e-01,-6.443778536181219430e-01,-7.823706922029303179e-01,4.368358497164123375e-03,7.974518464711279758e-03,-1.920888672965989641e-02,1.038551092147827148e+00
3.067678888959490258e-01,-7.744133822543961543e-01,-7.676664569413538253e-01,-5.611294736963150405e-03,1.936004701613021697e-02,4.131660741653735711e-04,1.078389167785644531e+00
3.473140866677352223e-01,-7.280398025457994748e-01,-7.659307477279440057e-01,-4.782788687962813076e-03,-1.119053636281395689e-02,-8.164245722980592590e-03,1.095085501670837402e+00
2.651496556246970560e-01,-6.003842884440994121e-01,-1.355936418395250698e+00,2.057394360834822467e-01,3.935371490733623884e-03,7.630604595306214599e-02,1.455494642257690430e+00
3.531631472895401802e-01,-7.570385357548470306e-01,-7.497110263396100649e-01,5.476809030748807164e-03,-5.380265999225752015e-03,-7.756986624917808042e-03,1.106717586517333984e+00
3.699856376352593235e-01,-7.755321933620042962e-01,-7.810189950783910096e-01,2.278430011939978645e-03,-1.188263699858257668e-03,-2.721342808238094799e-03,1.148289322853088379e+00
3.213434065184896937e-01,-7.703572181125046825e-01,-7.768614619474991656e-01,-1.403148549428642408e-02,7.804203698031168248e-04,-1.100675672817760450e-03,1.095239400863647461e+00
3.345493862101426852e-01,-6.785327616130567563e-01,-7.857437853637960767e-01,-3.085950626901856446e-03,-1.049114928803616953e-02,-1.366442371237499599e-02,1.071149945259094238e+00
3.544816254694665991e-01,-7.767978295089768004e-01,-7.869149874527369137e-01,2.778826678077714503e-03,-1.757389630536637919e-03,-2.883189355356944043e-04,1.136386156082153320e+00
3.198906558822888213e-01,-7.186485659789012548e-01,-7.199916159012190731e-01,7.796054541033711933e-03,-6.630120429570159589e-03,-2.492631693466460657e-02,1.040258884429931641e+00
3.085583648963107772e-01,-7.369525426277949709e-01,-6.684171905965516913e-01,3.798252476970731800e-03,-4.838764852952894685e-03,-2.984451115459504228e-02,1.014357566833496094e+00
3.150601109028688951e-01,-7.460025496066418071e-01,-6.695025194957422432e-01,1.452790613184965982e-02,2.446751331513102607e-03,-3.357497377804326277e-02,1.026921510696411133e+00
3.240566253112798223e-01,-7.067599312948346091e-01,-7.330376637248405824e-01,8.600509602451147234e-03,-5.652665849278860205e-03,-8.250955625791037834e-03,1.044453382492065430e+00
5.890580142841195244e-02,-7.231246472082639709e-01,-7.218526415127199947e-01,-2.076531720071417980e-02,3.037879068302417815e-03,-4.996765281547486080e-03,7.822880744934082031e-01
3.611828486994934639e-01,-7.788261188549888692e-01,-7.841671957181267638e-01,3.768538804424985487e-03,-5.411980184010076536e-03,3.162582141272952257e-03,1.142759084701538086e+00
3.476527071276149794e-01,-8.462023003052187020e-01,-6.445228564833243023e-01,1.679736774921400388e-02,-3.095552198494702298e-02,-1.627454375892644842e-02,1.108920216560363770e+00
3.422482501739740335e-01,-7.369101751659162813e-01,-7.478356789944080596e-01,2.861498487578614715e-03,-4.519499954469072094e-03,-2.040193530217883095e-03,1.084707736968994141e+00
3.351110562242404778e-01,-6.794973929115419864e-01,-7.802945372586468364e-01,-2.755205452800067126e-03,-1.531955161276904974e-02,-1.435787142753812418e-02,1.069207787513732910e+00
2.523653332482837519e-01,-8.498714707017418490e-01,-3.758157112001460631e-01,8.005772831283576238e-03,-6.095308057744089347e-02,3.002016172378392800e-01,1.094912886619567871e+00
3.429821394246829191e-01,-7.669960042469173844e-01,-7.166187382428078623e-01,1.070477468613307767e-02,-3.661207183887691188e-03,-7.755625045753647764e-03,1.085926413536071777e+00
3.690345862823625755e-01,-7.778955148782614737e-01,-7.785121380618940101e-01,-7.639414239893267981e-04,-3.382040516458047121e-03,5.370853607287682250e-04,1.147254586219787598e+00
3.390357198961290175e-01,-7.234852897120841453e-01,-7.558253483472401335e-01,1.583809468501698806e-02,-1.438010925627344026e-02,-7.343168864083775629e-03,1.079765439033508301e+00
3.563893831597467199e-01,-7.376684187622859490e-01,-7.857209772963718031e-01,1.274937334084931193e-02,-1.308037192147330774e-02,-6.243012103855938646e-03,1.119357705116271973e+00
3.627668470607580686e-01,-8.025959461639227133e-01,-7.506718773810918677e-01,-7.936564215614555842e-03,8.436825382302792081e-03,-4.989564123139417218e-03,1.140496969223022461e+00
3.430194351279413634e-01,-7.063609390913567765e-01,-7.678361642878293036e-01,2.153458881346589568e-02,-1.797038965081290338e-02,-1.181104491343052537e-02,1.082713127136230469e+00
3.469875467882169162e-01,-6.510489375425612124e-01,-8.169750068132102250e-01,5.033413288179159478e-02,-2.937596401274742211e-02,-4.966043994137774725e-02,1.098542928695678711e+00
3.647189737189162062e-01,-7.541456996254300993e-01,-8.000539816945666516e-01,5.745184038627206002e-03,5.232925036956808523e-03,1.294836463679813351e-04,1.142590045928955078e+00
2.020354510602184184e-01,-7.453699496446622996e-01,-7.561082818790090254e-01,-4.373944759169473562e-02,6.112236314695306330e-03,5.512808538516189225e-03,9.559333324432373047e-01
1.909888628826881263e-01,-7.492606228943978763e-01,-7.494853330882328413e-01,1.189500103341190398e-02,6.060409711705233050e-03,-2.518947418823108252e-03,9.406562447547912598e-01
2.509821250599243436e-01,-8.315676261353872611e-01,-7.636273764991426960e-01,4.863331143931910912e-03,1.183838373125895363e-02,-1.596242522073273995e-02,1.050826787948608398e+00
3.664255407330178627e-01,-7.777375712120654372e-01,-7.832411157730536644e-01,-2.075869669340002846e-03,4.228124247924741272e-03,1.154217831469200048e-03,1.146955490112304688e+00
3.212996461765520451e-01,-7.450872914255044499e-01,-7.827310171660244453e-01,2.842679406160232916e-03,1.326148848187757960e-03,2.612068200419171652e-03,1.085721373558044434e+00
2.182068888296536668e-01,-7.559767681189173416e-01,-7.623351225975022460e-01,-1.630607638088690456e-02,2.064843763551308352e-03,1.328336012027591653e-03,9.777956008911132812e-01
3.419437673748462192e-01,-5.920920805837195378e-01,-8.688403210132565890e-01,1.418106395131949783e-02,-1.295448250355995916e-02,9.306598422765585688e-03,1.099487066268920898e+00
1.447471118620852204e-01,-8.167931136505874878e-01,-7.292975591460190143e-01,-2.556578271124204313e-02,9.464909420352905778e-03,1.611237350759272408e-02,9.225469827651977539e-01
1.679862704593380607e-01,-7.466776653500293293e-01,-7.497705971340014042e-01,-2.278830651371883606e-02,1.946530723837367263e-02,3.983103671433482589e-03,9.177095890045166016e-01
2.484724803286446626e-01,-7.620442098327678826e-01,-7.648396548116105365e-01,-1.851420293397106412e-02,1.012935049176526617e-02,1.671726124565165155e-03,1.012581467628479004e+00
2.863832864235167919e-01,-7.738600131833153206e-01,-7.677253073787757565e-01,4.139032774884544505e-03,2.251848954089392431e-03,2.263283695085204720e-03,1.057228088378906250e+00
3.571148093901940213e-01,-7.742518895820873492e-01,-7.881062146390880319e-01,-3.379184750434523904e-03,-3.615661199976897503e-03,-2.046120790701857952e-04,1.138389468193054199e+00
3.378497123280709835e-01,-6.867831939802723218e-01,-7.837894874723621008e-01,3.828953835723492970e-03,1.599325707391900317e-02,-9.692738713331681272e-03,1.076927065849304199e+00
3.596360914444669543e-01,-7.767703346011636256e-01,-7.857851108147229091e-01,-2.429668444389017183e-03,-3.659742224744203833e-03,-7.566045425310146018e-05,1.140965938568115234e+00
3.143075229306918628e-01,-6.150535192995363332e-01,-7.868299176326373212e-01,-1.967135733311847767e-02,2.207019976611339016e-02,-4.423944591394163295e-02,1.030220866203308105e+00
3.437512789604666441e-01,-7.781795384891658784e-01,-7.814885253934570342e-01,-4.353790409955407906e-03,-3.692444288777872730e-03,-2.366741416477579751e-03,1.123639941215515137e+00
3.673227335954644679e-01,-7.673309745405100246e-01,-7.777787652782170991e-01,1.272627384194075992e-03,1.021565485562451504e-02,1.610484193612680222e-04,1.140053033828735352e+00
8.279485639099817273e-01,-1.213654913851720085e+00,-5.635192753124599330e-01,-2.278202272787517579e-02,5.184822204478223284e-02,-4.613419774251527605e-01,1.977784872055053711e+00
2.989386923575813593e-01,-7.643633513838430371e-01,-7.723612876854200060e-01,9.637866876216564724e-03,-4.002330249171968772e-03,-7.744904489145339839e-05,1.067476511001586914e+00
2.977384284052602692e-01,-7.637645033624351765e-01,-7.716872884691901024e-01,7.925575350961762064e-03,1.068392140875991901e-02,2.180344395574686147e-03,1.065742254257202148e+00
3.614215475815147904e-01,-7.621574816889362669e-01,-7.956667197625215682e-01,-6.886768971609118391e-03,-4.504642894532798203e-03,1.323366006098603042e-03,1.140794157981872559e+00
3.239952263729692916e-01,-7.705901334039705342e-01,-7.767107514888449415e-01,1.067318519806814345e-02,1.311869327829034764e-03,-8.042221523877348625e-04,1.097817420959472656e+00
3.591383565443596604e-01,-7.756030598179527447e-01,-7.855786480827338103e-01,-2.234407519939210062e-03,-3.704826888233577874e-03,-8.590787948274192579e-04,1.139787554740905762e+00
3.935766711025775466e-01,-6.868499270824455216e-01,-6.471980515670809897e-01,-2.022694687799743429e-02,4.118708670060097776e-02,-4.193931698672035413e-01,1.288425922393798828e+00
3.116974242362454683e-01,-6.343721084531396270e-01,-7.811431010535097030e-01,1.484464560763942885e-03,-5.713520166083403684e-03,-2.168865597270921985e-02,1.028085827827453613e+00
3.112579069733792392e-01,-7.195277920254461446e-01,-7.006007954125564874e-01,-4.673075814172622175e-03,2.225628646750886248e-04,-1.918076912264085263e-02,1.022025942802429199e+00
3.591733317823535554e-01,-6.507055788371701732e-01,-8.119509714856140148e-01,-1.961288710650099798e-02,2.443244243364362661e-02,-4.167805352850610656e-02,1.103109121322631836e+00
3.326196313874898447e-01,-7.849588573210879439e-01,-6.722617283585627934e-01,-1.509493684595960249e-02,-6.116747230491356539e-03,-1.242799049611104968e-02,1.066299080848693848e+00
3.172186234720014708e-01,-7.109266076520882605e-01,-7.198908025781185493e-01,-5.234097844350307609e-03,5.190810468378432088e-03,-1.548988669582245827e-02,1.033083915710449219e+00
3.165766124597545472e-01,-6.351747952805640862e-01,-7.833749813211217106e-01,7.705532567609511439e-04,-7.473408481171603390e-03,-2.189079489238097975e-02,1.034625887870788574e+00
3.242312023840778767e-01,-5.435429767545424395e-01,-8.691620172433320857e-01,5.546747168630481416e-03,-2.893432872764871260e-03,-1.607961210256457843e-02,1.068885684013366699e+00
3.254291213304387753e-01,-6.787299756072867618e-01,-7.535899674622756894e-01,-1.610031286096552661e-02,1.149323151609993321e-02,-2.308719774519313317e-02,1.044932484626770020e+00
3.360538600166273482e-01,-7.614499304271766800e-01,-7.054788044970607963e-01,-6.959189580684719233e-03,8.498101902900500118e-03,-1.722678241484818656e-02,1.071200728416442871e+00
2.669367068776012375e-01,-7.658608177766325076e-01,-7.574640882953885823e-01,9.261620881009019132e-03,4.893707914044489148e-03,-1.270477557503260895e-03,1.028787255287170410e+00
3.546075209969608011e-01,-7.755825679009455964e-01,-7.871919007508689781e-01,3.255380755371420354e-03,1.190812380224969208e-03,-7.481099065786658191e-04,1.136055827140808105e+00
3.289296708481942444e-01,-7.359341074872864930e-01,-7.195582641256224044e-01,-8.400025867861902334e-03,-7.890037677250622689e-06,-1.265391161777235617e-02,1.057098388671875000e+00
3.461424894267665087e-01,-6.396788656806666751e-01,-8.351301275258368184e-01,-3.632070502325462913e-02,-6.898703146265207364e-03,3.261758892984997597e-03,1.098570585250854492e+00
3.133962073000651771e-01,-5.096602324311321208e-01,-8.730346114666001078e-01,-1.046674455207050915e-02,-2.273301610004350992e-03,-4.039214299161087568e-03,1.053059101104736328e+00
3.471701814873437431e-01,-7.220235899845270922e-01,-7.976415964191141406e-01,1.123828721457147302e-02,-4.740786326862297083e-03,-1.523167359352032256e-03,1.109142422676086426e+00
3.424372289747038556e-01,-7.566490530826206484e-01,-7.276156008171199563e-01,-9.406635305281610751e-03,9.101866534840425543e-03,-5.896031542683224241e-03,1.085145831108093262e+00
2.123174451510586036e-01,-7.600200669062640024e-01,-7.491531094555466952e-01,-4.604912996226062649e-03,2.519524163513759893e-02,1.057919665799323490e-03,9.679687023162841797e-01
3.402889110107335524e-01,-7.481080869323384341e-01,-7.206664619035907382e-01,3.657802142225721753e-02,-6.269710519735076371e-02,-1.279464019802255548e-01,1.104722261428833008e+00
1.912155267788256952e-01,-7.875252975072096762e-01,-7.693601629512835105e-01,3.602997683534035506e-03,-4.177546936143747454e-03,-3.757572374311339558e-02,9.720142483711242676e-01
3.689015676426095625e-01,-7.785455651975728975e-01,-7.818007045281520906e-01,1.574593331727522404e-03,-6.318786455022968804e-03,2.008136913430845494e-03,1.149138808250427246e+00
1.517715308746595548e-01,-8.315626604716299664e-01,-1.243081563478400486e+00,9.268298741802290241e-02,-1.494888638222935384e-01,-2.606623844347502952e-02,1.278985619544982910e+00
3.674853757505769924e-01,-7.674927104765296715e-01,-7.840892431677002339e-01,-3.945202344310021550e-03,-6.727373893163595200e-03,-3.463673215462359663e-04,1.143446683883666992e+00
1.460377153492271596e-01,-7.471847742550912219e-01,-7.505970002907959016e-01,-3.773309181614972925e-04,8.741809426874153771e-03,9.787447285709965569e-03,8.952223062515258789e-01
3.462272527105951236e-01,-8.808909854185420496e-01,-6.040270685463370315e-01,1.765142988782312031e-02,2.338971595802795140e-03,-2.128833288208760097e-02,1.115813016891479492e+00
3.594741917148313592e-01,-7.655755481640754700e-01,-7.977698896540468265e-01,9.008964500047430060e-03,3.035124689659578678e-05,3.681604046647302987e-03,1.141611933708190918e+00
3.580434752923066788e-01,-7.761204775036456560e-01,-7.889717646118963312e-01,2.632574586830183777e-03,4.128223493506180133e-04,9.405547829394356359e-04,1.140654444694519043e+00
1.450608893139223587e-01,-7.461138071961330720e-01,-7.359039939569975708e-01,5.294535759229944058e-03,-4.527237339975051511e-03,1.424725618130115185e-03,8.861994743347167969e-01
1.618218759569430842e-01,-7.417374964663763226e-01,-7.442287755855825360e-01,-1.929226077533640130e-02,2.113794268462975204e-02,-4.144755495033708979e-04,9.061645865440368652e-01
2.130859716412216720e-01,-7.543018699547388017e-01,-7.524176286770012378e-01,-1.262704172528671294e-02,-1.143945458091591601e-02,2.709190927348223595e-03,9.669089317321777344e-01
3.501331564797345863e-01,-7.844827741879782934e-01,-7.727176678953782130e-01,-3.178295471615817831e-03,8.910834558168628794e-03,-2.481979870088328252e-03,1.128906488418579102e+00
3.642297252370225169e-01,-7.807446128634356608e-01,-7.573917740723683512e-01,-6.919491020893431786e-03,1.904732532309298980e-03,-5.527653529208892413e-03,1.133587002754211426e+00
3.652312632789374014e-01,-7.882834392123467815e-01,-7.640746880126962903e-01,-4.104312463415778559e-03,-3.467949348598460112e-03,1.327124330292330651e-03,1.141643047332763672e+00
3.672200335161238671e-01,-7.733189504583056761e-01,-7.903371573760947788e-01,2.022898835727892676e-03,1.114949368355246974e-03,9.935749814502532057e-04,1.149150848388671875e+00
3.670278352397580712e-01,-7.990728770490496125e-01,-7.565631948043499699e-01,-3.321923335713240256e-03,6.457132271104388047e-03,-1.388045363241556486e-03,1.145509243011474609e+00
3.598517331067754843e-01,-7.873901831099681115e-01,-7.740782858673024291e-01,3.849220484530051917e-03,4.577553298603300770e-03,-2.877514976549372036e-03,1.140702128410339355e+00
3.509888284873473596e-01,-7.996249921794436055e-01,-7.258162371753613673e-01,-1.057513575073954284e-02,-7.375880969450783128e-03,5.325772061758811057e-03,1.115803837776184082e+00
3.602957212095524442e-01,-7.773199449574043074e-01,-7.857576323379464878e-01,-2.557317466808107283e-03,3.069061643697788746e-03,1.510415355372490744e-03,1.141881823539733887e+00
3.502396518839028805e-01,-7.927850687786495154e-01,-7.346433992789895839e-01,-5.607425734539274106e-03,-1.289077997703115368e-02,1.290678868606692613e-02,1.115581154823303223e+00
3.590324987664318401e-01,-7.762808321910592557e-01,-7.635491243106096171e-01,-3.043118278082187090e-03,-6.793755827137410927e-03,7.189924288557863682e-03,1.129143595695495605e+00
3.342780142284802469e-01,-8.111473525225869619e-01,-6.929522571375841267e-01,-5.564300662411666287e-05,-3.628134840734151961e-02,7.920380613667177272e-03,1.093033790588378906e+00
3.651276848192807623e-01,-7.885281478886991824e-01,-7.749067017968689353e-01,-2.411854710882246466e-03,-1.899659772057088122e-03,-2.710207099501039853e-03,1.146927714347839355e+00
2.296053849196980634e-01,-7.616597435015597384e-01,-7.557948881180502898e-01,3.409845813669429467e-03,3.145573219134659149e-02,-1.615022710420473996e-03,9.898678660392761230e-01
3.550788551200339538e-01,-7.854642961721096661e-01,-7.793431908631467397e-01,3.778063133587305188e-03,-5.440596721183418340e-03,-3.031426653217015894e-03,1.137564897537231445e+00
3.236973398179135430e-01,-7.793986745831182894e-01,-7.693132167596175019e-01,8.719107548484408528e-04,9.649372097928392636e-03,-3.593492013528515653e-04,1.098216414451599121e+00
3.553641203984741481e-01,-7.521675130511131790e-01,-7.585400725532361887e-01,-4.786832260974621667e-03,4.133422001856503977e-03,-8.521675113068066451e-03,1.110883712768554688e+00
3.042264285229563936e-01,-7.778242816753192512e-01,-7.662179126121950734e-01,1.263397326644344907e-03,1.263370180850231783e-02,-7.380834090981749874e-04,1.076519846916198730e+00
3.682153442630034523e-01,-7.770542631285819457e-01,-7.861783781247335678e-01,-1.595247407135944474e-03,6.131199549002261558e-03,-8.825071286077322509e-04,1.149912238121032715e+00
3.690001897237303874e-01,-7.566436311372697343e-01,-8.014368662637743057e-01,5.121344577948277674e-03,7.933685962439495504e-03,-2.531323492791064719e-03,1.148820400238037109e+00
3.712435422947210628e-01,-7.832813645932736879e-01,-7.920392323081713037e-01,6.126137207372253299e-03,2.140569469473318012e-03,-4.761308498617812524e-03,1.159012556076049805e+00
3.048944693729510047e-01,-5.467142621400457037e-01,-8.354955563653149175e-01,2.667331608425359355e-03,-5.948133871282055597e-03,-1.820006776148712022e-02,1.027463793754577637e+00
3.650920986340386865e-01,-7.761526444640156619e-01,-7.791044661997104104e-01,4.474682640514405629e-04,-1.427515536372839233e-03,-2.715836902897936873e-04,1.142726540565490723e+00
3.458057031925442226e-01,-6.090756463388755648e-01,-8.654103819291680821e-01,9.953554796589207665e-03,9.877836070835123439e-03,-6.278926948250127503e-03,1.105885744094848633e+00
3.643120754201327749e-01,-7.710361248706348869e-01,-7.791676544350705225e-01,6.062915377757693500e-03,3.281166440525238540e-03,9.064409970935317657e-04,1.139499425888061523e+00
1.865179507045612861e-01,-7.482290719471034190e-01,-7.830699240305307729e-01,7.875573584347257683e-02,1.326653845326519580e-02,-1.973200854821507023e-03,9.626423716545104980e-01
4.847938353664096867e-01,-4.263117305244618627e-01,-1.344027537998278898e+00,4.862169744648761616e-02,-6.566485926338178070e-02,-2.080212050222008946e-01,1.630428791046142578e+00
3.118068538740969009e-01,-5.446979526699433638e-01,-8.443943345708494475e-01,3.779420882363868951e-03,5.949419424356706954e-03,-1.054645507232256779e-02,1.039515495300292969e+00
3.258538026511321739e-01,-5.060024731251431263e-01,-8.947084300272645230e-01,3.647904337165224116e-03,-1.539818663062578891e-03,-6.412609411760085421e-02,1.085729360580444336e+00
3.330653156319990371e-01,-5.960798355748118116e-01,-8.378359946788407342e-01,-2.458584893205879168e-02,5.279070432118827122e-03,-2.190559011178931301e-02,1.072249889373779297e+00
3.380098719031645604e-01,-6.323518532738511277e-01,-8.209324071424871638e-01,8.403374258618961229e-03,6.485636865759153956e-03,-1.070541947213194366e-02,1.077421784400939941e+00
3.372730187140591251e-01,-6.188438335532402412e-01,-8.214457352176162130e-01,-7.211022415554385265e-03,8.389495734669830465e-03,-8.547284521447874595e-02,1.082220911979675293e+00
3.109736167449339561e-01,-5.449794235437511736e-01,-8.414763378549359185e-01,3.718862703757259795e-03,4.249218456750747386e-03,-8.991173178279944500e-03,1.036673307418823242e+00
3.113973822728204888e-01,-5.298765959779421220e-01,-7.917287372956176572e-01,-7.405824415352083544e-03,7.510731887366511525e-03,-1.596177819307886547e-01,1.036033391952514648e+00
3.784641207879422820e-01,-4.980144604039467016e-01,-9.692035046630758099e-01,3.543811975062301917e-02,-3.177672329867790857e-02,-1.235458417389117131e-01,1.206568956375122070e+00
3.275753176263058730e-01,-5.265704719702131165e-01,-8.830807353640605095e-01,1.229058720710982100e-02,-3.267455438787029987e-03,-3.406872602423471896e-02,1.079418182373046875e+00
2.696787100507204160e-01,-7.670067628450689678e-01,-7.611131222689540010e-01,1.139307494631553244e-02,-3.610936263713903065e-03,4.161143037220803656e-03,1.033983588218688965e+00
3.330567647726649927e-01,-5.635910163591705269e-01,-8.697726683978689310e-01,-1.954307321031207786e-02,9.681363554658987264e-03,-3.526680749782958729e-02,1.085089802742004395e+00
3.212581435747695058e-01,-7.829413896371227866e-01,-6.410509148301639648e-01,8.575916582853115866e-03,-8.603801065784023525e-04,1.926641165748762749e-02,1.041177511215209961e+00
3.270702761121088709e-01,-7.249890453707854565e-01,-7.244975250030869507e-01,1.062474553667137021e-02,1.845149296203559160e-04,5.235247772905961619e-03,1.052013754844665527e+00
3.486170623598272011e-01,-6.055710879286926307e-01,-8.683812585996029121e-01,-1.090467686814250783e-02,1.144851594073871158e-03,-9.683728885412526237e-04,1.109359264373779297e+00
3.523458271495596428e-01,-6.974706517429778430e-01,-8.254319775710611262e-01,-4.676878761286164081e-03,1.363308306887769245e-03,-8.119998883223339750e-03,1.119416713714599609e+00
3.406388872394299216e-01,-7.690778917381340118e-01,-7.859206129532985141e-01,-5.557307906374301179e-03,1.093664427263227020e-03,1.885028461037168801e-04,1.118276357650756836e+00
3.543854671443174564e-01,-7.759143682605105230e-01,-7.859319444779426789e-01,2.949574992287035905e-03,-6.055838243105720903e-04,2.234887563629616683e-04,1.135353803634643555e+00
3.546692225889206407e-01,-7.758964306858471272e-01,-7.867330518571942211e-01,2.958740300821678833e-03,-7.987308407554542886e-04,6.703641792120429996e-04,1.136035680770874023e+00
3.659615173932961318e-01,-7.563320453174925406e-01,-8.013702897089950428e-01,-6.119698249872184380e-03,-2.277094389730233669e-03,2.123891876481406697e-03,1.145538687705993652e+00
3.376532482625261844e-01,-7.456979299648387460e-01,-8.030001037784297857e-01,-2.480902928950733718e-03,4.467361399431881222e-03,-3.804729497901897196e-04,1.113144397735595703e+00
3.567644986319774558e-01,-7.090929197626538727e-01,-8.058560826276160993e-01,-7.117500253856848431e-03,-1.428849928696879906e-02,-3.392837413006626838e-03,1.117743253707885742e+00
3.270072142425101136e-01,-4.847382427482631595e-01,-9.066026188752390746e-01,-9.171683683612950888e-03,8.310819826536391952e-03,-2.598867850458853532e-02,1.087121248245239258e+00
3.184853949158445441e-01,-7.753266144139371319e-01,-7.706789513924346968e-01,5.109289409484472737e-03,-1.325923367964823574e-02,-2.186236380266526422e-03,1.091779589653015137e+00
3.472977155387491077e-01,-7.146563092827944441e-01,-8.037220118771429833e-01,1.673387398108579921e-02,-2.659502499569256842e-03,6.844779674040315154e-04,1.109560966491699219e+00
3.206281193245347771e-01,-5.740065780085161773e-01,-8.413357932412703910e-01,2.676765326946024728e-03,-8.919249339406250254e-03,2.084337652403181473e-02,1.054780364036560059e+00
3.631698829068090162e-01,-7.089675995041138101e-01,-8.168059369773499334e-01,-6.376560690943066517e-03,-1.005239773853989528e-02,-9.556643769115605053e-04,1.130112051963806152e+00
3.369520321339902758e-01,-4.973562887754292561e-01,-9.132070924999322603e-01,-8.308040722554836319e-03,7.638975454119609210e-03,3.075680202567439639e-02,1.104160428047180176e+00
3.523062990641979142e-01,-7.141041569236705744e-01,-8.135221884600174480e-01,1.529783650097475516e-02,9.615178382057492246e-04,1.440412533904972606e-03,1.119753003120422363e+00
3.676409321980000366e-01,-7.578155865309954553e-01,-7.941624558260507172e-01,-4.840398017087921452e-03,-9.522479168117584450e-03,-3.400267371319441479e-05,1.144212603569030762e+00
3.719761362195398435e-01,-6.823390600521267446e-01,-8.606101917015176461e-01,1.749227806128637180e-02,1.197745509244939463e-03,1.462744618057074120e-02,1.154503941535949707e+00
3.435775390482704861e-01,-7.720902813125530839e-01,-7.844044176345954522e-01,8.552357229753362183e-03,-1.531597411264472124e-03,-1.538457910045195904e-03,1.121979713439941406e+00
3.551211316980529831e-01,-7.620451138550574655e-01,-7.918963986412108635e-01,9.170746397861506347e-03,2.310634077668189366e-03,-3.691061492238457498e-04,1.132505655288696289e+00
3.609933539968856464e-01,-7.723441625960723034e-01,-7.904864519524836819e-01,-2.562626840655844122e-03,-1.272326748240347341e-03,1.293067312133328473e-03,1.142529606819152832e+00
3.201528759559088000e-01,-7.848901892451003448e-01,-7.448210603752185577e-01,-2.848069637757312186e-03,-3.991634518391889291e-03,-1.916062103839465515e-03,1.085601568222045898e+00
3.544440939005540359e-01,-8.168638037880135983e-01,-6.925044418407445557e-01,4.950902366859346801e-03,1.235624084927579129e-02,2.687024679371334025e-03,1.114593029022216797e+00
3.363879985917302973e-01,-7.837873756075071086e-01,-7.785599739470474567e-01,1.620370151860886596e-03,6.786363047981129604e-03,-1.499682645279760463e-04,1.117636203765869141e+00
2.254584593319192143e-01,-7.584481189100786835e-01,-7.524064768987207552e-01,5.707346383886621570e-03,-2.709390924178098695e-02,-1.720034028105240200e-03,9.820759296417236328e-01
3.571708066889989208e-01,-7.619615708474944960e-01,-7.547058858637597512e-01,-8.887715227076334323e-03,-3.658878848532989381e-04,-1.615177371414271926e-03,1.115632176399230957e+00
2.930449778405703198e-01,-7.703979466010937305e-01,-7.646334618297828678e-01,-2.267301101806150528e-03,-1.534566846318620621e-02,2.051459581866417730e-03,1.060918688774108887e+00
4.630884337601047784e-01,-1.020899329192787031e+00,-6.200199390716475412e-01,-2.549854976244954677e-02,-5.302144574578715464e-02,2.929582702720677154e-02,1.334534764289855957e+00
3.601003297322162289e-01,-7.713398584676911529e-01,-7.937694528844334574e-01,4.255456159779568391e-03,9.540200037027609476e-04,-7.370938877189897327e-05,1.142845034599304199e+00
3.581631894983891007e-01,-7.713944681154323302e-01,-7.883827393319899901e-01,3.322144717659199827e-03,-2.282358242536138210e-04,-5.339557545701249363e-04,1.138161897659301758e+00
3.385883965352246006e-01,-7.839645212339882985e-01,-7.774521124677296058e-01,1.324533307637426301e-03,8.276508962678032905e-03,-3.244348661865335739e-03,1.119419217109680176e+00
2.911139451903757003e-01,-7.689062322590884957e-01,-7.694528133878599796e-01,2.223814295778938407e-03,-1.750238933633568861e-02,-8.506090180651497456e-04,1.060734868049621582e+00
3.462305147665987737e-01,-7.867013966711868811e-01,-7.689385570724125429e-01,-1.249270200331931190e-03,-5.767496942796458519e-03,-1.005799429017858277e-03,1.124203562736511230e+00
3.433999004351120932e-01,-6.264577366379185941e-01,-8.464741872502365982e-01,-3.608436353213657910e-02,-7.147249763662991400e-04,5.161740050838528431e-03,1.098363995552062988e+00
4.564933320347743795e-01,-3.233752607253731481e-01,-1.324596954094627188e+00,1.100760489920932783e-01,-2.631112034338020308e-02,-1.135032248052390558e-01,1.571157932281494141e+00
3.390330041340158806e-01,-8.238083461418257425e-01,-7.483271475996255973e-01,7.101826743740671799e-03,1.625170240069156394e-03,-5.962770595568309996e-03,1.127116084098815918e+00
3.576109478620782545e-01,-8.002139325929675806e-01,-7.602603594651675678e-01,3.063720362513352481e-03,5.325039957681432581e-03,-4.788193581810987242e-04,1.138424038887023926e+00
3.451268266805963547e-01,-8.243413831521223534e-01,-7.146733430744121041e-01,7.914617246506083434e-03,4.221050049877123067e-02,5.295720914940250240e-02,1.124889373779296875e+00
3.028471181715840510e-01,-5.482564337607566118e-01,-8.362589383465062198e-01,3.256869283560288181e-02,1.687131553510179752e-02,3.295724290747914509e-02,1.029435396194458008e+00
3.422247252139279938e-01,-6.111809417032249003e-01,-8.470003313866710792e-01,9.861373483083224131e-03,-2.316212864139566979e-03,-5.977391988064531536e-03,1.090797781944274902e+00
1.646591295237180841e-01,-6.615747437174912537e-01,-6.289145787354663009e-01,3.601595869974794084e-02,6.544476139067238740e-02,3.334207137020527290e-01,1.003490328788757324e+00
3.409108966260827600e-01,-4.358302061116253734e-01,-9.850687038661485317e-01,1.097227136293254775e-03,1.620323264891232462e-02,1.151041568786178304e-01,1.171385526657104492e+00
6.728899027051665760e-02,-5.377950718668763619e-01,-7.789939999483186384e-01,-7.467624757024059201e-02,6.508479220986748692e-02,-1.764956269198773853e-01,8.325497508049011230e-01
2.909271896518992873e-01,-7.695991797246395372e-01,-7.707225944297300124e-01,-5.701485079290502175e-03,-8.780270282119778669e-03,-4.236533919509350397e-03,1.061268806457519531e+00
1.842734700389365154e-01,-3.381700422718587618e-01,-9.333349324589839124e-01,-1.022966696901500272e-01,7.178373508429009009e-02,-1.325521509532947007e-01,1.018661499023437500e+00
3.896591629623163411e-01,-4.472005590613284398e-01,-9.610204198987901680e-01,7.908764298313095131e-02,6.084468969604608403e-03,3.390756588016016933e-03,1.188802003860473633e+00
3.841056859647829502e-01,-4.056896328417051723e-01,-1.163541776512192483e+00,-1.947719399797333273e-02,1.126747847481783665e-01,-3.139383565924169228e-01,1.459986805915832520e+00
3.119744795786473235e-01,-4.605191419549408693e-01,-8.808893382106846026e-01,5.056810925694237534e-03,1.058741219801406092e-02,1.003588283769247663e-01,1.062459111213684082e+00
4.315416262863556174e-01,-5.559019769544837342e-01,-9.873980776867089526e-01,6.864975490268318548e-02,2.909877206528369703e-02,9.944756921776320979e-02,1.278146982192993164e+00
3.562058909866490652e-01,-7.685142529655226706e-01,-7.545036904010488099e-01,9.262901343323881945e-03,6.760000341539623356e-03,1.510239879175682108e-02,1.118263125419616699e+00
3.584821547853537238e-01,-6.848284262368811159e-01,-8.406172493946905133e-01,-9.870537772581488775e-03,5.467584646921575496e-03,-7.472030144428192227e-04,1.129463076591491699e+00
3.670275095670340049e-01,-7.801958180072237070e-01,-7.657866921892249046e-01,6.806028101693077127e-03,3.518226018904116285e-03,2.685664374865367847e-03,1.140173792839050293e+00
3.317083446742720154e-01,-7.314087556916786248e-01,-7.227938975961289980e-01,6.666675850655333878e-03,4.803369956430114836e-03,3.033711832904330274e-02,1.060234427452087402e+00
3.349789146358140846e-01,-5.508410485787167410e-01,-8.801728651325270159e-01,-2.850291937254981200e-02,8.562156246265086035e-03,-1.546029865077562168e-02,1.090063929557800293e+00
3.392874695616757141e-01,-7.343786523947403166e-01,-7.402431828294611105e-01,1.321635260849350277e-02,1.011148303006613458e-02,5.841491243572210015e-03,1.077043652534484863e+00
3.586124404307918789e-01,-7.566337817374575447e-01,-7.640313057905012695e-01,6.359003623954236593e-03,-1.051313979320646526e-02,-5.222959523718134073e-03,1.119202256202697754e+00
3.522779406811930580e-01,-7.683703959646597248e-01,-7.359506894603329297e-01,1.154535258004152354e-02,-4.570680145039238140e-03,3.630906429547211319e-03,1.105022549629211426e+00
7.764167758500577499e-01,-4.219983122350963178e-01,-1.268305940833561740e+00,-2.539584737286906119e-02,3.444595936587754783e-03,3.241810373103593546e-01,1.866524457931518555e+00
3.599392799391683551e-01,-7.616984045525621028e-01,-8.010219085416585560e-01,8.286388814340616207e-03,-3.722758369369759228e-03,-9.311850250095113986e-05,1.141915798187255859e+00
3.464571637297272910e-01,-7.473178397404123263e-01,-7.443967460530205305e-01,5.712454014770625317e-03,8.475925513806534251e-03,1.485714575236980056e-02,1.092763900756835938e+00
3.438852649122726146e-01,-7.248326203043613525e-01,-7.596153964693023175e-01,1.138211335034555564e-02,1.338741000338234018e-02,2.254087442390956438e-03,1.086960077285766602e+00
3.533994288337801160e-01,-7.583956876610442599e-01,-7.496075106267929833e-01,4.714269529261163640e-03,-5.586459173530116708e-03,-8.076578860342260163e-03,1.107587933540344238e+00
3.639408297134139603e-01,-8.769767428542623033e-01,-5.401298936854337374e-01,-3.399659278398767769e-03,6.438504608066962509e-02,-1.528088918281220177e-01,1.147983312606811523e+00
2.813349465429309526e-01,-7.601847800080571149e-01,-7.723539202107134738e-01,-1.800243754816556116e-02,4.943439029399463759e-03,4.160217712085888427e-03,1.048180937767028809e+00
3.324666080109072164e-01,-7.902877288184537719e-01,-8.019234075555395913e-01,6.974508834746347141e-02,-3.798202490562245428e-04,-3.171048485189910393e-02,1.136392116546630859e+00
3.670092678236754336e-01,-7.553266962889613190e-01,-8.096232299062749993e-01,-7.331471712854613007e-03,1.459518939523600121e-03,3.155916380017654860e-03,1.150531411170959473e+00
3.637379730439961878e-01,-7.773265650113404535e-01,-7.853845851813581191e-01,5.940281470165265608e-03,-6.126008930136456199e-03,-3.851012124728213446e-04,1.145210385322570801e+00
3.174575869393165273e-01,-7.596460710844410436e-01,-7.350823778500580330e-01,1.416733334654668788e-02,-1.152463219463873735e-02,-4.201012903599238985e-02,1.067985534667968750e+00
3.358938989542260001e-01,-7.794448804566411759e-01,-7.770875044319758285e-01,6.050013165623971921e-03,4.050391409588832876e-03,-1.405385580398017288e-03,1.114235997200012207e+00
3.442717636027802786e-01,-7.714906212822156828e-01,-7.845214001051812325e-01,-7.040722965635994035e-03,1.364573207920145729e-03,-3.394086423731328497e-04,1.122403383255004883e+00
3.609394981632584321e-01,-7.792486655782455696e-01,-7.750682913507958016e-01,-3.670580856224016277e-03,1.071837431400735410e-03,1.760586673692628341e-03,1.138127088546752930e+00
4.421373820773414898e-01,-9.359416572482046615e-01,-6.973107119388756159e-01,-9.066475506085146935e-03,5.385955268816407238e-02,8.553801305203348471e-02,1.287669897079467773e+00
3.136243172594500028e-01,-5.240907031261634597e-01,-8.672086859173371298e-01,-1.175650750152537616e-03,6.491671454901287719e-03,3.421903697259639360e-02,1.053838133811950684e+00
3.655405601433623364e-01,-7.551608982442196139e-01,-7.930871095099607526e-01,5.784030077822690033e-03,-9.927813018720013996e-03,4.645486929028624316e-04,1.140311717987060547e+00
3.618070354941074762e-01,-7.623393933515105747e-01,-7.774652895672731212e-01,1.011642581005529201e-02,-9.186412471963809750e-03,-4.849138652501330110e-03,1.132063746452331543e+00
3.647822078166371718e-01,-7.745973176985532227e-01,-7.829525976880826743e-01,3.151920807701362286e-03,-1.275645964984089328e-03,-1.076967083681731321e-03,1.143596768379211426e+00
3.600364881388773974e-01,-7.677080499145558790e-01,-7.576106290587537595e-01,6.197663212446417186e-03,4.797484744445537630e-03,7.662716865703453990e-04,1.122812747955322266e+00
3.569025340426467685e-01,-7.545743600028689269e-01,-7.577447503723320210e-01,2.446008401538341589e-03,4.087767420192900403e-03,5.405866071581455663e-03,1.113135457038879395e+00
4.684262028704309078e-01,-9.309482796932054827e-01,-6.489418092689855921e-01,5.035763365432057576e-02,7.680008796905399282e-02,2.050884198729073238e-01,1.339638113975524902e+00
3.394105506454423438e-01,-7.846809435334677341e-01,-7.767838134763254132e-01,2.884779719930307285e-03,-4.885668139096035166e-03,-2.231767678379585531e-03,1.120213627815246582e+00
3.500059251810287986e-01,-7.963326839033486593e-01,-6.969516241987745442e-01,2.345972784580429085e-02,1.303230004259263788e-02,4.155809209423182160e-02,1.103352308273315430e+00
3.105133974372265016e-01,-7.777831131848013113e-01,-7.731360316307820391e-01,2.227337067301903353e-02,-5.654660311209261207e-03,-5.067567393675025990e-03,1.086745023727416992e+00
3.535127468532666128e-01,-7.339276797533791363e-01,-7.697972031681369343e-01,-4.644288843395311811e-03,1.191562806282007655e-02,8.481127869730259797e-03,1.106130957603454590e+00
3.317113205492802086e-01,-7.293285124266460917e-01,-7.274788254030208901e-01,6.659892952665070684e-03,6.237831326951137276e-03,1.818410945682326363e-02,1.060701727867126465e+00
3.191319346408512114e-01,-7.812445221888322244e-01,-7.563279225824899310e-01,-4.652043514077493225e-02,-3.352895185431209457e-02,4.559583532654264831e-02,1.095506072044372559e+00
3.494861402865568345e-01,-6.353885394889818850e-01,-8.455088802189074659e-01,-3.080770700241336479e-02,4.796638700620264699e-03,-3.649626612480309958e-03,1.106357693672180176e+00
3.611486199987088974e-01,-7.523456151126743929e-01,-7.750153929745731141e-01,6.565670598089278637e-03,1.104211121066654699e-02,2.710173655108350128e-03,1.125230312347412109e+00
3.406012177723232726e-01,-5.800047117884772341e-01,-8.725025681987352844e-01,1.143768953045640191e-02,2.525736582553165643e-03,3.656089344920644083e-03,1.096721172332763672e+00
3.538517432235793181e-01,-7.432061523275210746e-01,-7.684545092414202250e-01,7.354259256523826629e-03,8.921905545560880266e-03,9.751770322916080910e-03,1.110206604003906250e+00
3.175830889184490524e-01,-7.134808153915037643e-01,-7.206734592379429039e-01,8.260268980655969054e-03,-5.696954455738724270e-03,1.387106157759676432e-02,1.035103797912597656e+00
3.215368329559242788e-01,-5.188024193147219298e-01,-8.851440596889172951e-01,4.695622846284284828e-03,-2.259255987889154538e-03,9.902827118077698124e-03,1.071729063987731934e+00
3.527835081026087782e-01,-6.835564309198336463e-01,-8.091989183135319674e-01,-2.217442524533112802e-02,1.039560918776825937e-02,-1.692556641297846692e-02,1.105736613273620605e+00
3.015010353682663347e-01,-6.525208821351349275e-01,-7.308937129736503557e-01,-1.821529155806995677e-03,-2.956664510790784576e-03,3.525920581268295745e-02,9.974143505096435547e-01
3.099204112354186913e-01,-7.157226892051959943e-01,-7.031049340956193605e-01,-2.224395977421488306e-04,9.213482101417030858e-04,1.077020913924196278e-02,1.019564747810363770e+00
3.130804265914028939e-01,-7.082446114469463927e-01,-7.155692072662969139e-01,-5.062792579323212652e-03,1.631670954237936005e-04,1.230236234286313096e-02,1.025265932083129883e+00
3.639480495605696420e-01,-7.121588776218177319e-01,-8.154926827561987945e-01,7.037265713845340491e-03,-1.022356520006241672e-02,8.776396374602016400e-04,1.131524085998535156e+00
3.353630481672591479e-01,-6.927131504640660076e-01,-7.569184416522372061e-01,9.984065749824735589e-03,1.045631606725076247e-02,5.756977485211682566e-02,1.066602468490600586e+00
3.522172872848433056e-01,-7.513802119713752781e-01,-7.564965572517636794e-01,5.170836468437593238e-03,1.080304669021273437e-02,2.712559675707653523e-02,1.107356190681457520e+00
3.048889652462040134e-01,-6.506927826825811279e-01,-7.445206311140329936e-01,-6.573638255832838125e-04,1.059420524212252752e-02,3.842305502562307767e-02,1.008150458335876465e+00
3.229801377766226000e-01,-6.702550858406464140e-01,-7.639823511222143537e-01,1.429531848008399643e-02,2.936692124031208689e-02,2.851145631555533980e-02,1.045960426330566406e+00
3.196498404935827486e-01,-7.269207834837614346e-01,-7.150312606897393231e-01,-3.149368638642019522e-03,-6.435023030999146394e-04,1.103691543815816774e-03,1.040693402290344238e+00
3.433831508216133033e-01,-6.248415077276521234e-01,-8.379252476413886486e-01,1.519972389237754865e-02,-4.058058360453813303e-03,1.988847176419436882e-02,1.091377973556518555e+00
2.621710260909190238e-01,-7.647263078036030670e-01,-7.702076260672447994e-01,-1.302329203566545725e-02,-7.312311242997126051e-03,9.120971265444053309e-04,1.029975056648254395e+00
3.748687346836830359e-01,-8.131829636897522917e-01,-7.538169855541492215e-01,5.931140826789476836e-03,-1.292990461361842982e-03,1.678877142518686236e-02,1.159921288490295410e+00
2.569897099229568882e-01,-7.607740641077060939e-01,-8.760089090384470811e-01,1.452087609529018573e-02,3.712264108353666159e-02,-3.824714901376907467e-03,1.082226753234863281e+00
3.278502766653779710e-01,-5.637236001027878807e-01,-8.581516471836456716e-01,-1.759811412765735147e-02,-1.705716041732857971e-02,3.443254694481353434e-02,1.072126388549804688e+00
3.176544996211895233e-01,-7.490332116140641094e-01,-6.896702784796530095e-01,1.332577822076692464e-03,3.649748629517018559e-04,1.165108439314391751e-02,1.038478612899780273e+00
3.136760062733658927e-01,-5.187486645837063870e-01,-8.744703644519488117e-01,5.943913052947090610e-03,-4.937806736421779773e-03,1.214658374759161955e-02,1.056504607200622559e+00
7.387457359351301545e-01,-3.175661067793982273e-01,-1.391737784839006453e+00,-2.836305042621483155e-02,-2.713387312628534609e-02,-1.442070419498708289e-01,1.863144874572753906e+00
3.314377497939579031e-01,-6.548607915306607907e-01,-7.877830468067252845e-01,-6.385994500418949206e-03,1.370143681517710377e-02,1.211082028486298000e-02,1.059565782546997070e+00
3.316476476845132693e-01,-7.466903005709303320e-01,-7.159124232476126171e-01,8.710162967245325960e-03,-7.673335281814322190e-04,7.621493422499690633e-03,1.063472986221313477e+00
3.652031158105426001e-01,-7.907168818804921617e-01,-7.467236797045488927e-01,1.848229959065100445e-02,7.173303362001495417e-03,2.084033910139180754e-02,1.135656595230102539e+00
2.413725816718598760e-01,-7.937035028274068704e-01,-8.607081368354324580e-01,7.674881653990102241e-04,3.172064192770315122e-02,1.766935970988290500e-02,1.072000026702880859e+00
2.192036056929564936e-01,-5.841372186339498507e-01,-6.801785639474657863e-01,4.369918980889398591e-02,-9.261177678988434525e-02,-3.989690013020119053e-01,1.113877415657043457e+00
4.006621654025556145e-01,-1.966391716648029364e-01,-1.322763878586843633e+00,5.057063195593243521e-02,-4.357974496901033390e-02,-1.415884403428929739e-01,1.539828896522521973e+00
3.924871032489835043e-02,-7.302038538715288629e-01,-7.535157392744245008e-01,-5.191617037838375248e-02,7.772596316725152721e-02,-1.090706863723005238e-02,7.981884479522705078e-01
3.581476888483931531e-01,-7.204226834085862841e-01,-7.937269667020281361e-01,-8.116106545896634855e-03,8.933348170411121655e-03,7.728448779424681656e-03,1.117303729057312012e+00
3.471167928105516887e-01,-7.622674281946764108e-01,-7.847163004887713900e-01,-1.736008781398420617e-03,4.428953535543333001e-03,1.879543915714099178e-03,1.120812296867370605e+00
3.573927408449961707e-01,-7.412566859224409832e-01,-7.817917479615628107e-01,1.073791141145488855e-02,1.422611609430771140e-02,5.250975447250403119e-03,1.119930028915405273e+00
3.155059655481750047e-01,-7.834148601169446113e-01,-6.279522802282827554e-01,-9.780543687356766172e-03,-6.917686127890910683e-03,2.008154309978942703e-02,1.030822396278381348e+00
3.593385908107554205e-01,-7.770306510859510407e-01,-7.851471400635809950e-01,2.124787254195462365e-03,3.434093346206187891e-03,-1.313827765671084311e-03,1.140472888946533203e+00
3.598814158714677136e-01,-6.852038562837935443e-01,-8.404967085016474826e-01,-1.285463062296602656e-02,9.667034521533317964e-03,8.630877323329311582e-03,1.131199717521667480e+00
3.525435980630965416e-01,-7.739404906258035011e-01,-7.839646210284930694e-01,-5.022232988022276579e-03,3.339094237616004046e-03,-1.497148104352801368e-03,1.131580591201782227e+00
3.642339142293473109e-01,-7.751457657463798334e-01,-7.832450624099092096e-01,-3.937636391143814170e-04,3.989210676786280642e-03,-1.371805060377364162e-03,1.143474340438842773e+00
3.474376898856450513e-01,-7.772686428824999716e-01,-7.822417720918167783e-01,4.002457383955184550e-03,3.978237439339740722e-03,-2.658801029414498314e-03,1.127252936363220215e+00
3.176022382839711611e-01,-7.748290822306667103e-01,-7.704262161393418129e-01,-5.691545632032168033e-03,-3.989689329063069584e-03,-3.338866777548153263e-03,1.090318322181701660e+00
3.314100993504260351e-01,-7.795651653689701366e-01,-7.733989825255573880e-01,-5.316882916760070840e-03,-1.347787950085360502e-02,-7.589143228235123526e-04,1.108190059661865234e+00
3.407909613231742130e-01,-7.778424755475308316e-01,-7.825865922468737690e-01,5.982153294879203123e-03,-2.059090563762989816e-03,-1.457717174790168751e-03,1.121069431304931641e+00
3.698994640762737207e-01,-7.610882518727234425e-01,-8.005232958746661964e-01,-4.643575887788260921e-03,7.494767975245305788e-03,4.104610549512215101e-03,1.151335120201110840e+00
3.401475689306632244e-01,-7.753134541040678229e-01,-7.770819887980981999e-01,6.380656193647788084e-03,4.410418599214326746e-03,-1.534801899281901900e-03,1.116430401802062988e+00
3.419304768521717053e-01,-7.749529045475688216e-01,-7.823923951458955361e-01,7.524863732530093566e-03,5.715873327346041553e-03,-4.010701572333246964e-03,1.120762705802917480e+00
3.438775107861152258e-01,-7.729528708530464254e-01,-7.798623172465521947e-01,-5.123548136788469778e-03,6.459966290170365312e-03,-1.972394291730512721e-03,1.120397329330444336e+00
3.462304078698938414e-01,-7.716330757178673228e-01,-7.848165111778535596e-01,-5.571492273563853799e-03,-2.433143766166715599e-03,-7.595995733426341278e-04,1.124563217163085938e+00
3.671090356287777245e-01,-7.741961693871082240e-01,-7.681349538525836795e-01,-6.801778506606973897e-03,2.481096874905360634e-04,4.535336791475363819e-04,1.138347983360290527e+00
3.698488986498157383e-01,-7.714061031167729343e-01,-7.742910950135835080e-01,-4.284854975972128902e-03,-3.934439648559511296e-03,9.580268598193188850e-04,1.142745852470397949e+00
3.371911306779897810e-01,-6.418672079241304340e-01,-8.188932780206603645e-01,8.492973107779253419e-03,-1.514685321550071975e-02,1.509952833169425461e-02,1.079259395599365234e+00
3.671312602276829984e-01,-7.682411061594267565e-01,-7.774642279769699016e-01,-6.003108245987537686e-03,-6.277303353914033199e-03,2.476439614357966394e-03,1.140119194984436035e+00
3.600113452779132861e-01,-7.698668012644291903e-01,-7.527297544248293670e-01,-3.679905413927827152e-03,8.234931815030434006e-04,4.165504033486883834e-03,1.121450066566467285e+00
3.664477326651603417e-01,-7.743473390285132707e-01,-7.877849043593564415e-01,4.702399160940737635e-03,-5.021881191588833948e-03,-1.322117161884800961e-03,1.147637009620666504e+00
3.604816369457518599e-01,-7.618363933526191012e-01,-7.720401046598229788e-01,4.384343355256357065e-03,7.691407493008559255e-04,7.857175661389484075e-03,1.127562999725341797e+00
3.169757275956965326e-01,-7.713766038371867584e-01,-7.778267362788935380e-01,-6.431681937775849019e-03,-1.865733347722686427e-03,-1.278598136523934233e-03,1.091655611991882324e+00
3.553876241963508376e-01,-7.156157205656732412e-01,-8.196926445056471611e-01,1.424891908457899189e-02,8.385996963857510894e-03,5.673486948774548663e-03,1.127059698104858398e+00
3.552127673440071409e-01,-7.290074184613981600e-01,-7.923657610594820877e-01,8.591224056955839086e-03,6.541025542143676097e-03,1.124771936620378061e-02,1.117573857307434082e+00
3.328999520697438208e-01,-7.759227998583806407e-01,-7.795706815686251900e-01,-1.029671405032272884e-02,-5.770504362464485594e-03,-9.950749876806047091e-04,1.110840678215026855e+00
4.223457806455093722e-01,-7.881913528324384632e-01,-8.386945891648895923e-01,9.582188774980096579e-02,4.778292177813846242e-02,1.022427854359775762e-01,1.262870788574218750e+00
3.541237864627345133e-01,-7.542697320211436685e-01,-8.283041232205785587e-01,4.094929228891990708e-02,2.282813375522702026e-02,1.023644194032639898e-01,1.163660526275634766e+00
1.532179298347678409e-01,-7.494476026902231469e-01,-7.463211745608171466e-01,1.979822095093777823e-02,-3.915563643673838912e-02,1.426179193421586895e-02,9.046426415443420410e-01
2.913709718083969946e-01,-7.680120553771081493e-01,-7.958942188360917935e-01,-1.949688457646315751e-02,-1.449999485492175361e-02,-2.660582150329863366e-02,1.075407981872558594e+00
3.214991374128812196e-01,-8.797349231525952717e-01,-7.851663895591916020e-01,1.888658181027466632e-02,-1.126727220351381002e-02,-3.372327355213541183e-02,1.158952236175537109e+00
3.336603234080126601e-01,-7.436260992377210499e-01,-7.288097792146520648e-01,-8.716927098796643791e-03,5.952234303697236670e-04,2.593979322885799424e-03,1.070071697235107422e+00
2.410093282359652145e-01,-7.681447961918037581e-01,-7.652296873647358444e-01,1.448917642232365119e-02,-2.950616766430496501e-02,1.057468040237050100e-02,1.009473085403442383e+00
2.708001020190327623e-01,-5.573581268815100964e-01,-7.941589210814272715e-01,-8.423126793323401640e-02,-5.192461297443423836e-03,2.831282405977092465e-01,1.095390200614929199e+00
3.314374415729247625e-01,-4.728603947091725157e-01,-9.240080292962057351e-01,1.517172185950700289e-02,-2.205491506831207260e-02,-7.103623248286318470e-02,1.109312653541564941e+00
7.078361734172903263e-01,-2.735207976069796709e-01,-1.376834173587729637e+00,7.376527489811024463e-02,-5.835412974654599107e-03,-1.643401306376791049e-01,1.833181738853454590e+00
3.682727632046127741e-01,-7.114010549480640488e-01,-8.684568382745180282e-01,-2.371105821811179612e-02,6.777344422088492880e-03,5.449394208617115536e-03,1.166980981826782227e+00
3.951816716831758614e-01,-4.012816126092491609e-01,-1.030379780405284329e+00,-9.070328253068012103e-02,7.652463025038167693e-03,1.118349547058310328e-01,1.262358903884887695e+00
3.413739674281325298e-01,-6.912690310022135964e-01,-7.822493206785873232e-01,3.383188508868682515e-03,-1.555913743226636226e-02,1.462885293611208143e-02,1.081656932830810547e+00
3.572772368970075219e-01,-7.325239119456020687e-01,-7.849299217831020581e-01,2.058248583384057577e-03,-1.305145948525792896e-02,5.801351312623637645e-03,1.117206215858459473e+00
3.223529215705837059e-01,-7.899075934618665640e-01,-7.345782661116958545e-01,2.462043541260573731e-02,3.489504540347908301e-02,6.893764009650177327e-02,1.094702124595642090e+00
3.536090877543799360e-01,-6.890146878415921439e-01,-8.157763020335810911e-01,-6.680107248275310265e-03,-1.657452392473813749e-02,-1.132784380382442259e-02,1.112043380737304688e+00
3.462068487564995967e-01,-6.514288417881155535e-01,-8.328709395951023886e-01,-6.672830995807938100e-03,1.562191125929596539e-02,1.513849328566104976e-02,1.100347518920898438e+00
3.236153223563035808e-01,-6.733443753150232247e-01,-7.630590299083246375e-01,5.317850513734407713e-04,-1.552183718487689691e-02,2.695512672552256156e-02,1.046098709106445312e+00
3.573214612053643435e-01,-7.150774801589434571e-01,-8.040765945598219444e-01,-9.750572342510430493e-03,6.993871589196067398e-03,6.593978209867156978e-03,1.119805932044982910e+00
3.717502909050304227e-01,-7.676672249839260331e-01,-7.571758053181627535e-01,-3.243024764614849120e-02,-3.411450373845494738e-02,6.116708425968798296e-02,1.142059087753295898e+00
3.410628573274591679e-01,-6.343612063123730271e-01,-8.341343685860160839e-01,-2.384500859786626084e-02,-1.035937403089585290e-02,2.555514887630387297e-02,1.090968370437622070e+00
3.439729174921595800e-01,-6.233781386116055145e-01,-8.408492275062070531e-01,5.438915330265095549e-03,-8.655801048402167117e-03,5.931918778973929718e-02,1.097407102584838867e+00
3.560800557904280628e-01,-6.514707950690543647e-01,-8.986906322934906655e-01,-1.276700876559880293e-02,-8.343543478091782015e-04,1.308133323104574974e-01,1.173537492752075195e+00
3.676231221098824609e-01,-7.782874714357087553e-01,-7.618601439836972800e-01,5.301539180034588010e-03,-1.973420837292354409e-03,2.670114011550415913e-03,1.137837409973144531e+00
3.032583370901375530e-01,-6.129202160817877054e-01,-7.233364611438495295e-01,-4.829508623391587374e-02,-3.310621569891940980e-02,1.931295744259339531e-01,1.036782622337341309e+00
3.673213371896915103e-01,-7.743512792424553925e-01,-7.892439431456984567e-01,-2.051059861261531753e-03,8.259089470880429541e-04,-7.552816852364883276e-04,1.149198412895202637e+00
3.403056627913728649e-01,-6.836784941686621098e-01,-7.894920001315020031e-01,-3.390989522536478479e-02,-1.298178884598686494e-02,7.738500672393584107e-03,1.082693934440612793e+00
3.699153706433249145e-01,-7.602297368525945398e-01,-7.889870144631174753e-01,-3.062481805688685617e-03,7.743084307428226010e-03,-8.445158687099402900e-03,1.144979000091552734e+00
2.152124847843699396e-01,-6.718699336294999824e-01,-7.863964163744512348e-01,-2.624307673032430510e-02,-8.550561316973010265e-03,-3.848167995994049295e-02,9.530760049819946289e-01
3.592718399662227502e-01,-7.020610329824096274e-01,-8.222992514127801522e-01,-1.002039476875770871e-02,6.705304528337874791e-03,9.105725045212341093e-03,1.126579880714416504e+00
3.689717728935697494e-01,-7.643631759497431233e-01,-7.843105104282187545e-01,-1.272892175321586753e-03,6.481563543420438937e-03,-3.590281107985937754e-04,1.143496513366699219e+00
3.696148038497812371e-01,-7.776924210744824428e-01,-7.808658141901502203e-01,1.509936438061160397e-03,-2.734349462815392089e-04,1.589690217801093209e-05,1.148900270462036133e+00
3.619292707326349778e-01,-7.529482649364500624e-01,-8.047674507559773316e-01,4.682137650046059793e-03,-6.046351850453296484e-03,4.675149606495720804e-04,1.141746640205383301e+00
3.577248447264898545e-01,-7.269465523067757395e-01,-8.048920819915106328e-01,-1.772346498874759896e-02,8.552213356130562022e-03,-1.232610762229317987e-02,1.126388192176818848e+00
3.642285940900341079e-01,-7.648857275906555397e-01,-7.920412256108537719e-01,-6.459795425480129374e-03,7.611900711921011295e-03,-2.611295413154080848e-03,1.143073797225952148e+00
3.714733147482893738e-01,-7.759629652568585945e-01,-7.846790384795955253e-01,4.085097315914087632e-03,-4.819037091808970989e-03,-1.031741088412042526e-03,1.151872396469116211e+00
3.728974222831203389e-01,-7.807608188957375628e-01,-7.767010980969394351e-01,-5.693345266818871514e-03,-4.437483410462722717e-03,-7.058489726407090985e-04,1.151702284812927246e+00
4.137708801580292084e-01,-6.160640178428091751e-01,-9.559240018413003304e-01,-2.172224677598098494e-02,8.765445565072558370e-03,8.121022252485157744e-02,1.243983864784240723e+00
3.611239299506911471e-01,-4.296855224997092604e-01,-1.048272319875886982e+00,1.558426595016757302e-02,-1.100702867993096946e-02,-7.764960660599846964e-02,1.231419444084167480e+00
3.694605407813378872e-01,-7.803709720349026879e-01,-7.745507730587566364e-01,-4.562553831382454642e-03,-1.050421002552925703e-03,-1.589351444442402067e-03,1.146964430809020996e+00
3.613991088444658550e-01,-7.766555827248866617e-01,-7.821463416256552170e-01,-2.752482747542227010e-03,-3.449776113922508030e-03,-2.262419756807372302e-04,1.140835642814636230e+00
3.583877472808037479e-01,-5.510488607763068813e-01,-8.798139633901072010e-01,3.484423060562576863e-02,-1.293976142332723539e-02,1.252469586825981640e-01,1.133736133575439453e+00
3.524431840994955434e-01,-5.253104307900455794e-01,-9.513081061059787125e-01,1.397347586038309372e-02,-1.410134446446032787e-02,7.450215072378388315e-02,1.159172296524047852e+00
3.362645161945684857e-01,-7.780028393735125558e-01,-7.846559752223337680e-01,-6.378250135051596881e-03,4.647675893623080248e-04,-2.613695752017816698e-04,1.117663741111755371e+00
3.151463644359452920e-01,-3.935989302478219987e-01,-9.655762235368239299e-01,-5.565213748652851145e-04,-2.779847242537567681e-02,-1.159339520884769374e-02,1.112468719482421875e+00
3.154935788118740092e-01,-7.068271049256482641e-01,-7.237483422776376241e-01,1.634367791712706475e-04,-6.463967574715663231e-03,2.712242943329479239e-02,1.032016038894653320e+00
3.605414682610936783e-01,-7.739390026869297223e-01,-7.616702427423054367e-01,-8.307127381989963186e-03,4.616537968990098268e-05,5.186446319446501307e-03,1.128523588180541992e+00
3.553607427821997566e-01,-7.582912473318289548e-01,-7.533081004973233297e-01,-7.877675888925740957e-03,1.747392441720888121e-03,-1.693707046893030066e-03,1.111260533332824707e+00
3.610614227347714866e-01,-7.407421896603980649e-01,-7.870647301986838373e-01,-9.932525115226003426e-03,-1.390808993302824863e-02,4.769777616187800655e-03,1.126099348068237305e+00
3.280620271343967498e-01,-7.125844686782232262e-01,-7.402869171332632225e-01,-4.603138561884587143e-03,-1.111783575924886990e-02,4.616770540665615652e-02,1.058002710342407227e+00
3.105732266963008859e-01,-7.502932489293578922e-01,-6.487936604080509762e-01,-1.166952002842121944e-02,-1.238941631153591544e-02,3.071844113717485045e-02,1.015756964683532715e+00
5.963051590230070698e-01,-7.485103347752213310e-01,-5.788452549281466464e-01,-2.402102299373979483e-02,-1.030876532081444752e-01,4.347524176359761627e-01,1.486535549163818359e+00
3.285347622649242294e-01,-7.157735871520229942e-01,-7.383298867133176735e-01,-8.673526663213517937e-03,-9.705059319203752227e-03,1.844057860894381812e-02,1.056490778923034668e+00
3.604108492697207233e-01,-6.573505586937804512e-01,-8.132250092620294524e-01,2.397778539422544541e-02,1.898080944938499229e-02,8.407851654273462705e-02,1.114805459976196289e+00
3.233945631828900602e-01,-7.263871659228700040e-01,-7.187920986576127325e-01,-1.486070706517977512e-03,-5.702762558243638924e-03,5.169204235861509303e-03,1.046092987060546875e+00
3.312998185356030856e-01,-7.229949246434985710e-01,-7.393657862656459745e-01,1.810743767416468338e-03,-5.244029453398597190e-03,8.491957494954025312e-03,1.062719941139221191e+00
3.169319498613759611e-01,-6.440769302940521079e-01,-7.831475292707668068e-01,9.828529049442085320e-04,-5.267391154492362219e-03,1.926198055701959164e-02,1.038135766983032227e+00
3.134837152977217878e-01,-6.764555324957315374e-01,-7.412493741561041460e-01,5.867491467094566111e-05,-9.301227616723308292e-03,1.264411481349802732e-02,1.024235844612121582e+00
3.397795843793109949e-01,-6.906068094396557999e-01,-7.840995202145883969e-01,3.987722103556252951e-03,-1.288144514568074009e-02,1.408911951633997316e-02,1.080699563026428223e+00
3.279807379627139308e-01,-7.267170225221507573e-01,-7.299198839808065387e-01,1.066437403154581708e-03,6.405538399947568887e-04,-1.487357881167505847e-03,1.056308150291442871e+00
3.405391847630115376e-01,-7.273355295075358828e-01,-7.512248687764451205e-01,1.023321662946345516e-02,-1.523738869316871442e-02,-7.471009161761606177e-02,1.088206529617309570e+00
3.223887817784268917e-01,-7.224801431179301847e-01,-7.177415527247783533e-01,-6.101084307457509646e-03,-6.992087244566649179e-03,1.049053635052625381e-02,1.042789936065673828e+00
3.338685148016947712e-01,-8.209253497650341735e-01,-6.844101846365658881e-01,1.139906248078235637e-02,9.044989427370052348e-03,-5.581968254372464411e-02,1.097506761550903320e+00
3.632954429664899121e-01,-7.529656897621977985e-01,-7.975783892205456915e-01,5.966568031036120941e-03,-3.614259910865299727e-03,1.079515911688568464e-03,1.139288425445556641e+00
3.554669484520219802e-01,-7.366785755030862415e-01,-7.829933013069934056e-01,-1.200281075029579515e-02,1.466249152226272411e-02,-7.109063938247507132e-03,1.116574287414550781e+00
3.510576530339294954e-01,-7.220002296010004095e-01,-7.945460936144042030e-01,-1.518902914689111358e-02,1.226610499990674411e-02,-4.139703708134961045e-03,1.111646056175231934e+00
3.732376299625168592e-01,-7.783565248401266290e-01,-7.816252300287342969e-01,-2.569223244660918514e-03,-3.504977240439490632e-03,-1.434386857500586764e-03,1.153259277343750000e+00
3.687120168572230461e-01,-7.756423424949459022e-01,-7.862805511799357827e-01,2.071991365818566869e-03,3.272585047219779032e-03,-1.762929822919392670e-03,1.149734020233154297e+00
8.419991596529904365e-01,-1.186139180064911258e+00,-5.917804595858631167e-01,5.534653370262539174e-02,3.537504859420071562e-02,5.427105293160662258e-01,2.039047241210937500e+00
3.226958458059979717e-01,-7.213807622280772325e-01,-7.226462611892769949e-01,-9.389430870816246194e-03,-1.280725550436353317e-03,1.921244707316011047e-02,1.045368671417236328e+00
3.313570779898086793e-01,-7.232757921329687756e-01,-7.423047350873482886e-01,2.317442768873126478e-04,8.786572830594523154e-03,9.427963033913030512e-04,1.064385056495666504e+00
3.576283829592858954e-01,-7.965848216794950698e-01,-7.279869741868844057e-01,1.108750003885052710e-02,1.520864076861863645e-02,1.647987744257037139e-03,1.121966123580932617e+00
3.232858394855709361e-01,-7.260926535484903965e-01,-7.219331612408248500e-01,-4.684561157437579747e-03,-3.585931372707735001e-03,2.551893825146696586e-03,1.047364115715026855e+00
3.122752468913355117e-01,-7.006331903098540481e-01,-7.216037565532014142e-01,6.691543902113776792e-04,-2.368758700199098243e-03,1.167844753624191524e-02,1.023763537406921387e+00
3.124270446060297135e-01,-6.963839110144958156e-01,-7.171319710994850105e-01,1.033263247337038197e-03,1.789638988745459111e-02,6.360935027702933897e-02,1.025750160217285156e+00
3.685396917389538451e-01,-7.809837244820084790e-01,-7.717730377692817445e-01,3.620629578011748048e-03,7.474474388406697478e-03,4.045518650535801018e-04,1.145036458969116211e+00
3.586020637649627862e-01,-7.460240076893362993e-01,-7.720071642167914971e-01,-1.954489535335105898e-03,1.464838125355994933e-02,3.327130969320957025e-04,1.118137359619140625e+00
3.645667986205968214e-01,-7.634185748455022402e-01,-7.835397602024629649e-01,-2.543587209588844909e-03,9.107424498016341088e-03,-3.161200757784778147e-04,1.138297319412231445e+00
3.210069045740148175e-01,-7.427620567809515295e-01,-6.976420214658410890e-01,1.679951111620372681e-02,1.396029027736438340e-02,9.487240336080877620e-03,1.042757987976074219e+00
3.617708975466626953e-01,-7.749578739498899083e-01,-7.863882737034422199e-01,-1.395393468332849045e-03,1.999932506689563409e-03,-3.661153197926234537e-04,1.142494797706604004e+00
2.768942110322922256e-01,-5.378079767235850461e-01,-8.626168102870765964e-01,-4.664101022147149750e-02,3.323319326477709029e-02,-2.315518876748099975e-01,1.097520470619201660e+00
2.380098255492498760e-01,-4.955410626386041462e-01,-9.354748981158272914e-01,-2.571628691933785030e-02,-7.680807221720281630e-02,-1.531639631026231463e-01,1.069772243499755859e+00
3.746373062181849178e-01,-7.773845091516966566e-01,-7.783920819422363024e-01,-3.680699256212296771e-04,9.762469360175077011e-04,-5.484966109590232695e-04,1.152527689933776855e+00
3.729649899057574935e-01,-7.814874717736364218e-01,-7.818521568826961587e-01,1.415197041751202305e-03,2.075636618741849918e-03,-2.757964877400711449e-03,1.154652953147888184e+00
3.212505278147429477e-01,-3.951730796192227668e-01,-9.213563555125456883e-01,-3.148214921883732420e-02,3.592170619652074876e-02,-2.477905470671879218e-01,1.165395498275756836e+00
3.320252142500423331e-01,-1.185245695421719148e-01,-1.313160579831055275e+00,-6.807898655312370935e-03,1.602359497048335690e-01,-5.779046039325443779e-02,1.501858234405517578e+00
3.433620727168049669e-01,-7.769269553733254563e-01,-7.816602998914783385e-01,-4.718338719688644489e-03,-3.716938899987305960e-03,-2.985272527087256406e-03,1.122723340988159180e+00
3.680632402826439775e-01,-7.744684009692023308e-01,-7.767864784252505039e-01,1.963830901829749509e-03,-1.496228122284717563e-03,2.904095029884159367e-04,1.143700599670410156e+00
3.690659723199014031e-01,-5.404735716640540755e-01,-9.532595809868549264e-01,-1.700110877899828343e-02,-7.040282467725172966e-03,-4.827295430123645231e-02,1.175204753875732422e+00
3.648549857314926648e-01,-7.390697449072228808e-01,-8.249076310375780263e-01,-3.952920436832017999e-03,4.288752907907302132e-03,1.738942763965339172e-02,1.149689435958862305e+00
3.627071148163888981e-01,-7.674781882923980003e-01,-7.611832598394717708e-01,9.986185045645380991e-04,-6.548121247416000511e-03,2.971340988676399696e-03,1.127121210098266602e+00
3.410050937697418627e-01,-7.386770999759079137e-01,-8.462857820312805757e-01,7.947518830736077788e-03,3.116208202733095761e-02,-2.783061172233928030e-02,1.139694213867187500e+00
3.614685464120844793e-01,-7.786803730811390212e-01,-7.517930485473189872e-01,-9.964615727720829361e-03,1.381459834216690764e-04,5.514093929812924648e-04,1.127078413963317871e+00
3.753291808913115091e-01,-7.754217752407166486e-01,-7.822625368375605293e-01,1.965314011735020197e-03,-2.324987889721832381e-03,2.907037341816451782e-04,1.154198646545410156e+00
2.853528068827016484e-01,-7.642719846552996632e-01,-7.738579929551065995e-01,-1.947811639932556932e-02,-2.873098568442906606e-03,-2.119470333125507682e-03,1.055008172988891602e+00
3.424548357045627545e-01,-7.715001771409644160e-01,-7.864282881821424986e-01,-8.893625348528978736e-03,-1.918753487679179847e-03,-2.073547391036844635e-03,1.121610045433044434e+00
3.347525538054854644e-01,-7.781993666252018382e-01,-7.835741158709215171e-01,5.931189124988063208e-03,-2.226362838949026528e-03,-1.527949001658773830e-03,1.115706086158752441e+00
3.293690381999769823e-01,-6.289314551938791631e-01,-8.725159403041063966e-01,8.125565261913755832e-02,9.000051361917093748e-03,1.345683965181950501e-03,1.109574794769287109e+00
3.616432860419809270e-01,-7.746069074768815454e-01,-7.880820278488341879e-01,-8.142534663277884756e-04,4.263882828253706160e-03,-5.205977829158314795e-04,1.143072366714477539e+00
3.355320883798639797e-01,-6.433872777653054653e-01,-8.180705691475838037e-01,-3.097966829109023365e-02,-1.496015725754370508e-02,9.594621906956337515e-03,1.078714489936828613e+00
3.738064920391971913e-01,-7.784078399204332754e-01,-7.808727244940163459e-01,2.284530678656840688e-03,2.972618324926525578e-03,-7.128335704039161138e-04,1.153467655181884766e+00
3.207591697668915054e-01,-7.587956338104215881e-01,-6.753732216778145503e-01,-1.655237778479530519e-02,1.003454239377029461e-03,2.422511435404777272e-02,1.041597008705139160e+00
3.244003400355515154e-01,-3.997327015418676854e-01,-8.704436589579067629e-01,7.223213718716504916e-02,-5.605650717421165052e-02,-3.146828764357860186e-01,1.186992049217224121e+00
3.492448453538165021e-01,-7.563792441237597863e-01,-7.408837334877258485e-01,-9.209698108801105056e-05,-1.074523283323024735e-02,3.328102835163338543e-03,1.098131179809570312e+00
3.238890133588874232e-01,-7.729258232210716173e-01,-7.771274065788797980e-01,-9.221555437802784680e-03,4.133449521145642243e-03,-3.799959143769563417e-03,1.099080801010131836e+00
3.206085839105382584e-01,-7.220053396986727545e-01,-7.130636496387943168e-01,-6.688970816979369384e-03,-4.864569572088155505e-03,8.259606578046982742e-03,1.038369297981262207e+00
2.607335666664253870e-01,-7.625358697299304822e-01,-7.653625007466199337e-01,-7.528567246013525421e-03,1.334416830960003658e-02,-3.681002724086447110e-03,1.025049090385437012e+00
2.944412131450221959e-01,-7.970294632054913953e-01,-7.736684402762625812e-01,-4.646223174366167878e-03,1.976281701609755234e-02,1.167309585617991481e-02,1.080741167068481445e+00
3.349902733897476836e-01,-7.166132094453580015e-01,-7.447085131759920706e-01,4.200875660773455665e-04,-1.667038556159219226e-02,1.203778591998068415e-02,1.066523909568786621e+00
3.296421416349654132e-01,-7.299691895778362971e-01,-7.276518643310708745e-01,4.654494437442795434e-04,-7.593765284149428529e-03,6.064917529703031836e-03,1.058588743209838867e+00
3.519294966420327131e-01,-6.308520706326615768e-01,-8.666034586689120855e-01,3.029625765913066676e-02,6.292767726708232978e-03,-1.917188604038877085e-03,1.120720267295837402e+00
3.641109524036919565e-01,-7.706762180938708795e-01,-7.688644980954020269e-01,-7.177455050420081424e-03,-5.181869502827873494e-03,3.337720240304889018e-03,1.134000778198242188e+00
3.479539760788444847e-01,-7.555456415958290428e-01,-7.494952797891961671e-01,-1.406591546524227875e-02,-1.581213710038019415e-02,1.526238887002046192e-02,1.101414442062377930e+00
3.424903544578917214e-01,-7.835319929848985065e-01,-7.726594819661725122e-01,1.034161646135713097e-03,8.006339923121514462e-03,-5.354872564577301246e-04,1.120713233947753906e+00
3.410469040029020515e-01,-7.848059561976298282e-01,-7.721677614658184474e-01,-1.269326239800147062e-03,8.859519688746831864e-03,-1.627165995103822880e-05,1.119694590568542480e+00
3.621844794094357667e-01,-7.901677081884519449e-01,-7.762556458243061730e-01,5.968950556418646178e-03,2.442732548672843680e-03,1.012764728193379330e-04,1.145514011383056641e+00
3.444717937558159915e-01,-7.584278093835473689e-01,-7.063809825784541641e-01,-9.177282532507890361e-03,-3.033244510092036796e-03,2.876348924056334327e-02,1.079099774360656738e+00
3.266169019081516800e-01,-7.610270218580286183e-01,-7.230384151225048850e-01,-1.525300898012111120e-02,-2.282651489421104116e-02,3.158369607290948539e-02,1.071609973907470703e+00
3.522427931269260792e-01,-7.484286783619622518e-01,-7.548647355023130334e-01,-1.773646814087322977e-03,7.615693238025360474e-03,8.973855727459841046e-04,1.103987693786621094e+00
3.322197369836231151e-01,-7.043622792027725010e-01,-7.602399764973496454e-01,-2.794925835072751587e-04,1.644465620831657426e-02,5.137699290951699277e-03,1.066038012504577637e+00
3.744385473238791562e-01,-8.125948774867164381e-01,-7.612399476565205880e-01,-3.611120513209044921e-03,-5.912397791675461090e-03,1.220542024659060192e-03,1.162271142005920410e+00
3.718308676025662840e-01,-7.718247224743113311e-01,-7.850505273211807467e-01,-8.929358247520589181e-03,-8.497087551221428267e-03,5.674522165936625754e-04,1.150524020195007324e+00
3.292523256565594858e-01,-7.612747931144366875e-01,-6.943288413166618378e-01,7.985137143348426669e-03,2.530923099883462530e-04,9.714242060828836428e-03,1.058866977691650391e+00
3.724408898047236183e-01,-7.780057113081340070e-01,-7.775913782052719103e-01,-7.712106717772055156e-04,-2.216838590564422181e-04,4.179701521480949427e-05,1.150240302085876465e+00
2.221579266695147825e-01,-8.036198063893174037e-01,-7.542318096655307169e-01,2.315004185126079070e-02,-2.097968761317720032e-02,-2.537217414785811892e-02,1.004418969154357910e+00
3.260626407268878979e-01,-7.809745126871170395e-01,-7.736662795780668844e-01,-4.143354103473480786e-03,-3.391936218823349107e-03,1.093019753617588885e-03,1.103441834449768066e+00
3.253368592930681591e-01,-7.503586329369550390e-01,-6.927419879312020079e-01,1.513232815241853310e-02,2.050665027606112510e-04,5.336928521892933715e-03,1.048444151878356934e+00
3.255075094379054068e-01,-7.052388986055471154e-01,-7.434874122615278136e-01,4.473941222320081855e-05,7.571191876987580331e-03,8.769468715224413430e-03,1.050584793090820312e+00
3.531099076918880475e-01,-7.465795021885008875e-01,-7.591471589312583923e-01,-1.948588552498223834e-03,7.970816851959605653e-03,3.315267299674289612e-04,1.106118202209472656e+00
3.673802448563057710e-01,-7.688796781024788141e-01,-7.708246557619977679e-01,-1.181805940722674094e-04,5.016329424192979280e-03,-3.468951034274134378e-03,1.137282729148864746e+00
3.657275931857601470e-01,-8.015926795351939749e-01,-7.505799847737049113e-01,1.203235126292524423e-02,1.046940873716991488e-02,-1.470077459597564406e-03,1.143005013465881348e+00
3.414612280634872210e-01,-8.017175374038002511e-01,-7.030606958462429779e-01,-9.315615375420193810e-04,-2.104449094890755573e-02,9.262337044800829323e-04,1.097789764404296875e+00
4.925308196366666169e-01,-8.051541031941003013e-01,-9.903424425572560086e-01,5.043870907098638168e-03,-8.443783389276419971e-03,3.458213095880151022e-01,1.522387742996215820e+00
3.744992395154360110e-01,-7.770796701323916533e-01,-7.783152833102557899e-01,5.965954473818690755e-04,-1.801662650871210054e-04,-7.896594648528158095e-04,1.152198553085327148e+00
3.691552746737376545e-01,-7.744974417172827419e-01,-7.678461237798226424e-01,-6.804825519133572958e-04,-6.520481511361122130e-04,3.008108334135731459e-03,1.140354633331298828e+00
6.714738951641001652e-01,-8.722161115939925935e-01,-5.938141317518257356e-01,-4.736259448228010566e-02,4.982880250240997316e-02,4.609411980967096922e-01,1.637772560119628906e+00
7.440154517763031272e-01,-3.150845846283131246e-01,-1.374215836029475835e+00,5.325331415438767924e-02,-9.671645988828466572e-03,-1.609485717295494611e-01,1.857869625091552734e+00
3.569850262194166346e-01,-7.891342508105110287e-01,-7.763523740195397149e-01,1.723236308548869566e-03,4.038770651623823163e-03,-1.437649902089034159e-03,1.139810204505920410e+00
3.562186579935933128e-01,-7.880287428454835208e-01,-7.750595551096846059e-01,-2.236376405407100728e-04,2.010885791638075421e-03,-4.386494192901086223e-05,1.137823700904846191e+00
3.669716544405118852e-01,-7.683130733412285585e-01,-7.689174647513205008e-01,-3.330174248269607545e-03,9.331157521665336334e-05,-7.316961578087600874e-04,1.135602355003356934e+00
3.489964468057434321e-01,-7.434435097057656705e-01,-7.532025701682072416e-01,1.059614310670234068e-03,5.111958399038186822e-04,-4.158110967263151971e-03,1.097377538681030273e+00
3.606710011832631180e-01,-8.116994093071366878e-01,-7.234725993290407331e-01,-5.319115906717477270e-03,-2.631339826274686766e-02,1.110648986695621579e-02,1.131960272789001465e+00
3.693543117899086847e-01,-7.848407489437061457e-01,-7.631785938489248355e-01,-7.607191537113497035e-03,2.283237952088329643e-03,-6.810214629589740783e-04,1.143601179122924805e+00
3.328241877939960291e-01,-7.821228457522031441e-01,-7.768724479935048555e-01,-9.819935770672191117e-04,-5.182683211572736322e-03,5.106112116151671288e-04,1.112369060516357422e+00
4.517019034247720111e-01,-7.659625609775744248e-01,-7.161898388385714576e-01,6.518357819383352632e-03,5.205501413315976244e-04,2.822437779758263932e-01,1.289841294288635254e+00
3.733115073474463363e-01,-7.821458298632698591e-01,-7.812849006717181854e-01,-3.569177996773092217e-03,-2.851885617098783715e-03,-1.971946976765983229e-03,1.155059218406677246e+00
3.736562790437641390e-01,-7.802194715446055806e-01,-7.779753078460114324e-01,-3.237706412450034980e-03,-6.903273367647375352e-04,5.912392907873763916e-05,1.152769565582275391e+00
2.197910095946604137e-01,-7.568569746014086608e-01,-7.579267631349988488e-01,2.185375162182013123e-02,2.803926348115427531e-03,2.222599231534994751e-03,9.779357910156250000e-01
3.559040058255417138e-01,-7.849668103068547786e-01,-7.784052593675873100e-01,-1.356746086298173939e-03,-2.335227037478411483e-03,-5.989801106319783382e-04,1.137614369392395020e+00
3.445169837923714451e-01,-7.845630834990943159e-01,-7.718800246730410652e-01,-3.571682334938384822e-03,5.003668943468584686e-03,1.674869906647043303e-03,1.122846484184265137e+00
3.604368434619183992e-01,-7.873315910509355309e-01,-7.748195871132339541e-01,-1.897769664377923766e-04,3.206545154854692319e-03,5.311227353139671330e-04,1.141577839851379395e+00
3.544931180972149543e-01,-8.027943489324536053e-01,-7.234020482233083360e-01,1.179056943751600507e-02,-1.422011539328762141e-02,-4.718043423087850234e-03,1.120191097259521484e+00
3.204245513660099465e-01,-7.771387154072575409e-01,-7.736311063751439843e-01,-3.163191386394633830e-03,-7.615489949126414207e-03,-1.507120898803479807e-03,1.095909833908081055e+00
2.942753091012308975e-01,-7.766457917864283411e-01,-7.654272662648528014e-01,-1.248854877102628571e-03,1.505399828051052179e-02,-2.424685011065908977e-04,1.065677404403686523e+00
3.469664688808850039e-01,-7.807556398468578074e-01,-7.759029289200947144e-01,-5.764308532564038981e-03,2.196772040016704841e-03,-4.665089180866751131e-03,1.125383377075195312e+00
3.121702908157582557e-01,-6.755604961496054495e-01,-7.452461960219957104e-01,-8.783054592162430627e-04,-5.098912402568599699e-03,1.409010071104103458e-02,1.024682760238647461e+00
4.163279507935546131e-01,-9.642042416626397383e-01,-4.933929110148158048e-01,1.642474395851314939e-03,1.701175522541544666e-02,1.838969309460662394e-01,1.256937861442565918e+00
3.565021949241217181e-01,-7.867220028134040977e-01,-7.780509962356313425e-01,2.617023486110859037e-03,-3.582358907054840422e-03,4.475052362313399965e-04,1.138939619064331055e+00
2.993818758674191005e-01,-7.744976917448216369e-01,-7.669231417371394910e-01,-2.180364597523646187e-03,1.598807256417253755e-02,7.544090973715879452e-04,1.070478081703186035e+00
2.091992928007888608e-01,-1.031963698069242596e+00,-4.845508105729982029e-01,1.021046802531000719e-01,-2.523714064965488016e-02,9.277349923215284788e-02,1.104411840438842773e+00
3.983529777442831321e-01,-8.699800070476504388e-01,-7.805460028702728703e-01,-4.288959529673727622e-02,1.040558778628814379e-01,-1.250305629682004760e-01,1.260211944580078125e+00
3.432406849169266638e-01,-7.850999273287606606e-01,-7.646811379983520229e-01,-1.788960645987587019e-03,5.811792955246693031e-03,2.243130914937265544e-05,1.118320584297180176e+00
2.980937033991386542e-01,-7.991513291787384343e-01,-7.603463959998959520e-01,-9.232343053877285072e-03,4.765043930801762806e-02,-8.907282000476286418e-03,1.081748247146606445e+00
6.148487441549923549e-01,-8.783026447672457326e-01,-5.694710466007569805e-01,-3.069499072802411941e-03,2.301178455220918503e-02,-4.161336573665933569e-01,1.544300556182861328e+00
3.617782135036738400e-01,-7.898261380046961433e-01,-7.727518496298499961e-01,9.569348947501011551e-04,2.970965774402773135e-03,1.323439258718868416e-03,1.143177866935729980e+00
3.412472895108026316e-01,-7.976255646071299665e-01,-6.786208872039410922e-01,-1.571887714142083947e-02,2.800484843886551570e-02,-2.893647959209267109e-02,1.086861729621887207e+00
3.303149549640349569e-01,-7.507307264565248328e-01,-6.888836371853366281e-01,-9.087216421080355003e-03,-1.142264483112489072e-03,-4.677863409028135133e-02,1.054723501205444336e+00
3.478352769841993042e-01,-7.862930085985349038e-01,-7.742645451021703540e-01,-7.980888598602470436e-05,7.968930689665830458e-03,1.505908207175718234e-03,1.128249645233154297e+00
3.485178906441400715e-01,-7.520750224740149203e-01,-7.441421770547984593e-01,6.142898113869240794e-05,-8.426155181412231868e-03,-5.049734980280925177e-03,1.096779942512512207e+00
3.264349377048041401e-01,-8.077557945755160507e-01,-6.126530328644348433e-01,-1.361441131548845121e-02,2.329502471482111994e-02,-1.162025496475717623e-01,1.070449948310852051e+00
3.660693886536745545e-01,-8.493195795532240133e-01,-6.558757028943211775e-01,-4.334171356406074302e-03,-2.404072183557766362e-02,1.277338152214823989e-02,1.132148861885070801e+00
3.392440618685385045e-01,-8.028558438559859622e-01,-6.616657030934951500e-01,-7.397435764501611270e-03,-6.307466560930183666e-03,-2.344704947576377319e-02,1.079354643821716309e+00
3.074793311213991354e-01,-7.049752880287337709e-01,-6.962767964521585640e-01,-1.152013647467575556e-02,7.860513258025725314e-03,-4.692200051462956656e-02,1.011692523956298828e+00
3.478541520794603548e-01,-7.440088434449012578e-01,-7.503323800096957097e-01,-1.432466933501319942e-03,-6.885028986923876458e-03,-6.340816019478026817e-03,1.095161318778991699e+00
3.553255900860561312e-01,-7.572342653816301894e-01,-7.559666081147982108e-01,4.346576849557998168e-03,-5.966676779326124218e-03,-4.944593778815909065e-03,1.112033009529113770e+00
3.644860865757554858e-01,-7.863094785193407432e-01,-7.900060372439409173e-01,3.508775312789682611e-03,1.264493926409044581e-04,-6.205731528233763943e-03,1.152714490890502930e+00
3.256242984845603705e-01,-8.068934318053526678e-01,-6.143263100235639707e-01,-1.741689074212496649e-02,2.638071210577204451e-02,-3.038953674908743963e-02,1.052312374114990234e+00
3.025609326323189796e-01,-7.609569508635433133e-01,-7.806002910279046247e-01,4.285018057785036118e-03,-1.407612991142240255e-02,-1.890391440759968053e-02,1.074275970458984375e+00
3.440648693136472147e-01,-7.714581123079173874e-01,-7.840019082849025711e-01,5.031860454222594412e-03,-4.345410506198043622e-03,1.449700283651316791e-03,1.121909379959106445e+00
3.653499183500446557e-01,-7.832730295968650669e-01,-7.741728161020233756e-01,1.082166549244593890e-03,2.195358300179722777e-03,1.018411468589758891e-03,1.144109249114990234e+00
3.744610026986672779e-01,-7.772869876530412725e-01,-7.795246614959725484e-01,9.028801332493235779e-04,-1.867245780077298129e-03,6.643899742757062655e-04,1.152874588966369629e+00
3.561741488613019979e-01,-7.736543694781909952e-01,-7.836219283694167981e-01,2.902556709776335075e-03,-2.242113864554490937e-03,1.824876512817603935e-03,1.134867310523986816e+00
3.702014932756423904e-01,-7.857643654469852468e-01,-7.649818732440512026e-01,8.639911697857643319e-03,1.858176096371686251e-03,1.068939044455318366e-04,1.145818233489990234e+00
4.097024567091596126e-01,-8.424512748389894057e-01,-5.970859739437432978e-01,-2.320488155250960416e-02,-1.028535272774640519e-01,-3.197429471942373480e-01,1.288765549659729004e+00
3.698700615299977956e-01,-7.723850589786838139e-01,-7.729996692495124666e-01,3.243076124861556976e-03,-2.361403949772087132e-03,-4.001556392533821283e-04,1.142583847045898438e+00
3.599969202096615084e-01,-8.455874366610413029e-01,-6.299861266036164142e-01,-4.262190075235881837e-02,6.979044615840965249e-02,-6.960509605924526666e-02,1.128976821899414062e+00
3.718124562819801748e-01,-7.758968962051532303e-01,-7.782109600145039607e-01,4.992047174392792198e-03,-3.148942942820366544e-03,2.696677293818032593e-03,1.148923158645629883e+00
3.663393607817223563e-01,-7.683506862067892573e-01,-7.695843401494677494e-01,-1.060684873211595151e-03,-9.422295969022600678e-03,-2.877906870926190495e-03,1.135437130928039551e+00
3.698309772587233257e-01,-7.786153292336015497e-01,-7.750905241182488581e-01,1.948002386964324409e-03,6.765904406038109487e-04,5.801370620604994182e-04,1.146693944931030273e+00
3.534816805679513729e-01,-7.839361591882365587e-01,-7.370388083096057752e-01,1.177335062547693427e-02,-8.455247439284569594e-03,-5.350376041446574041e-03,1.115030527114868164e+00
3.142979559585640792e-01,-6.760758171651732873e-01,-7.450146042656839995e-01,-8.873966908553801046e-04,5.137729571028722304e-03,8.910016878529972498e-03,1.026736378669738770e+00
3.552161027644022973e-01,-7.697178818489762708e-01,-7.395798743645729534e-01,-1.319160450741860453e-02,1.307722918219750546e-03,1.807128604222155892e-03,1.110413670539855957e+00
3.634367000103942424e-01,-7.953632462125735936e-01,-7.528213251138304862e-01,6.781029943322114048e-03,-1.604415554475530255e-03,-7.440063876948347504e-03,1.138262391090393066e+00
3.570782985535312926e-01,-7.874310445907919398e-01,-7.658388333497021527e-01,1.513035546009218338e-03,-7.514912114005898799e-03,-1.053731846664300760e-03,1.133946657180786133e+00
3.599145044100341417e-01,-7.745652362694872561e-01,-7.493661772153922263e-01,1.623345047426423896e-02,-1.923260126642062709e-02,-1.861082104138727170e-02,1.123401403427124023e+00
3.418462034003035277e-01,-7.944975604100268374e-01,-7.482090254025228759e-01,-4.826369744063129311e-03,1.984199465578078553e-03,-5.956076634874005182e-03,1.114005446434020996e+00
2.383271675135194001e-01,-2.776518596317514298e-01,-9.910041055146345812e-01,-8.547461828828775698e-02,1.658338293834052402e-02,-1.022033403720159772e-01,1.094193696975708008e+00
3.565862567967074126e-01,-7.747323266874868164e-01,-7.552786111745688480e-01,1.338616026916784191e-02,-6.568900298384069102e-03,-2.033423691479773962e-02,1.122568130493164062e+00
3.642482116624959354e-01,-7.665527514432504130e-01,-7.621183752063375172e-01,-2.041336138193700935e-04,1.966372396989347730e-03,-1.919365871348847593e-03,1.128600358963012695e+00
2.284852792574764146e-01,-1.051279396635824259e+00,-4.685193193133811995e-01,-1.389374922578514027e-01,-2.695162537221813814e-02,-3.578005872680906641e-01,1.294513463973999023e+00
3.162868942910508352e-01,-7.109223102819320905e-01,-7.253637746780007278e-01,1.021832284039727039e-04,-8.589649289817247006e-04,5.153639190423601156e-03,1.034545183181762695e+00
3.438600358229493281e-01,-7.518331867108490885e-01,-7.345190822646070483e-01,-5.850166491933379842e-03,-7.077162708924954020e-03,4.337292135471999474e-03,1.087281823158264160e+00
6.744963692693559665e-01,-1.261977505759809048e+00,-3.852129657879655444e-01,-9.909984197077186321e-03,5.661133370503289991e-02,3.815594877648439409e-01,1.807619333267211914e+00
3.191174661675814650e-01,-6.940756226285580421e-01,-7.491418014564376060e-01,-1.081407560632102749e-03,1.797322486188732572e-03,1.471015883319730551e-02,1.042136073112487793e+00
3.237780625159078496e-01,-7.464693876175152454e-01,-6.967437789602184406e-01,-6.430508374317221894e-03,8.853899575824072379e-04,1.007159287166888365e-02,1.046477079391479492e+00
3.676649140130239246e-01,-7.769620474507925589e-01,-7.677715403479352663e-01,8.037747104462402955e-04,-4.330183137871005989e-04,-2.875643731559746584e-03,1.140071511268615723e+00
2.979096046295022227e-01,-7.821239453910451278e-01,-7.507292220787318282e-01,6.034787698046152789e-03,-2.161436010819450110e-02,-1.189093757588903164e-02,1.065591692924499512e+00
3.179962234869195825e-01,-7.754101702419868847e-01,-7.712508002594344880e-01,-4.545813454334178896e-03,-1.198466771849086496e-02,2.262374143364157941e-03,1.091565489768981934e+00
3.556718668659135663e-01,-7.840248579625831438e-01,-7.731303012046006895e-01,3.323372732019718064e-03,-1.886602155247194684e-03,1.515550894391334488e-03,1.134311079978942871e+00
3.549997324345179894e-01,-7.686164633876930719e-01,-7.437535787531768250e-01,-2.477120598465454640e-02,2.549237099828377887e-02,-2.344661794234099289e-02,1.113837838172912598e+00
2.462703621428336542e-01,-7.695183863291952253e-01,-7.568998876199247716e-01,1.013986750005762584e-02,-8.201901163427352537e-03,1.466884859991717058e-03,1.009794473648071289e+00
3.575605831019378900e-01,-7.938485511751244283e-01,-7.667213861052641910e-01,-4.710619285498067986e-03,3.407391992726557274e-03,1.797838493213055854e-03,1.138136863708496094e+00
3.275675988712647979e-01,-7.802872460001174515e-01,-7.739610006228422323e-01,1.464920097907115165e-02,-1.002147128083934711e-02,1.285733665807911304e-04,1.105133056640625000e+00
3.220690089279013013e-01,-7.723157009966941100e-01,-5.941054599373212231e-01,1.676402194803777723e-03,-4.846457078608234353e-02,2.521509476390015325e-01,1.110045671463012695e+00
3.174045052214448104e-01,-7.385364595089278783e-01,-6.964261494770174199e-01,-4.618014450475798303e-03,-3.565658923112482591e-04,1.205931752786007678e-02,1.035769820213317871e+00
3.688884575274929967e-01,-7.893355522150801162e-01,-7.610825828174383467e-01,-6.043797506895173463e-03,4.029495418074106709e-03,-1.084257338174623476e-02,1.144582390785217285e+00
3.228184929448027485e-01,-7.762682705467810473e-01,-7.722445344063444406e-01,1.640037036478679457e-03,-1.247985695246197659e-02,1.810763907708389528e-03,1.097301483154296875e+00
3.578132757594345570e-01,-8.133950628349699841e-01,-7.072729539776296814e-01,-1.300552352863547367e-02,6.401395803246258398e-03,5.912603886182012970e-03,1.122245550155639648e+00
3.563666423840785025e-01,-7.889502391142426685e-01,-7.642125002185355953e-01,-3.985549054608446794e-03,5.866422231539573581e-03,-4.548008095662868337e-04,1.133217453956604004e+00
3.733464275602199622e-01,-7.808568719350358345e-01,-7.777451160077921699e-01,-4.959388074036820415e-03,1.938786229521381353e-03,1.401525757418660596e-03,1.152690052986145020e+00
3.413526026397682989e-01,-7.834357853729767562e-01,-7.762427170221750661e-01,-7.592079584800768416e-03,2.831838609696624067e-03,1.090488398343849577e-03,1.121298551559448242e+00
3.674927030546206730e-01,-7.865257520953627957e-01,-7.754293087840707921e-01,-4.316379696051120783e-03,2.710727136572398804e-03,1.318158312499380803e-03,1.148546695709228516e+00
3.609814318999906568e-01,-7.943466997692494314e-01,-7.436152325951210784e-01,1.004710943610906404e-02,7.147044872026284482e-03,-4.655717328054035623e-04,1.131018161773681641e+00
3.562370604998983392e-01,-7.982793943464792097e-01,-7.384437819815340420e-01,8.044986511981886204e-03,1.098816823408358713e-02,5.110466426447354132e-04,1.126039266586303711e+00
3.656333920553139216e-01,-7.848392983972418691e-01,-7.840845515963696943e-01,-6.671303436024940067e-03,7.831990973455840721e-03,2.199842364554770082e-03,1.150239825248718262e+00
3.639725791494677898e-01,-7.845598612288888773e-01,-7.828944545213378792e-01,-1.222359346072151090e-02,2.474545592955661004e-03,2.732232777577225935e-03,1.147913694381713867e+00
3.562291407383353925e-01,-7.917123981415976619e-01,-7.290997092693474180e-01,-8.076039291473628354e-03,9.357173458454147788e-03,-1.169832105560079938e-02,1.118339538574218750e+00
3.210298304688208870e-01,-7.734705338808633979e-01,-7.760273387990345162e-01,-9.325539271224848881e-03,1.968817046409540583e-03,7.397478300801353960e-04,1.095906138420104980e+00
3.290351724666877309e-01,-8.781850131063302367e-01,-5.401757378050675573e-01,-4.604363152329125214e-03,-3.703292880331270770e-02,2.564446283455471941e-03,1.080637216567993164e+00
3.554617763538466257e-01,-8.318332900998437474e-01,-6.605880813299990217e-01,3.086823713276382747e-02,-5.910659391404881474e-02,-5.006360709980470919e-02,1.120952367782592773e+00
3.524457042311058275e-01,-8.513616984400180776e-01,-6.382442817898879017e-01,1.331135938652036783e-02,-4.095236935666535932e-02,-1.440571014022366987e-02,1.115439057350158691e+00
3.574626987160128277e-01,-7.781216387770241161e-01,-7.771006578442403168e-01,-3.312390663292816197e-03,-3.353793297117638964e-03,1.981882778069408296e-03,1.135108709335327148e+00
3.711224074191772360e-01,-7.557751739688233217e-01,-8.135771375884235379e-01,1.050569100550021590e-02,-2.341740455374443156e-03,1.811586267869223776e-03,1.157036542892456055e+00
3.451600933516285608e-01,-8.749168899033028524e-01,-5.564480023835552958e-01,1.117459717205904722e-02,-2.576914895192571747e-02,-1.101545239913533439e-02,1.097353458404541016e+00
3.296934315269914872e-01,-7.320824670677379409e-01,-7.261410157733911852e-01,6.201586634238982765e-04,-9.433417226847757089e-03,-7.757593989716434803e-03,1.059029579162597656e+00
3.194855928562874703e-01,-8.594999112586056977e-01,-5.442228223569283152e-01,-6.348756343503987078e-03,5.926905710480910756e-03,-3.162200772627886403e-02,1.058737635612487793e+00
3.694496998054045411e-01,-7.799223086369411195e-01,-7.654327465375608819e-01,5.129490006843390876e-03,3.338947060420370625e-04,-3.447000004561886653e-04,1.142230987548828125e+00
3.961218201804104777e-01,-9.004498589204188441e-01,-6.447640299731829394e-01,-1.096274874848583280e-03,-4.498958982661644540e-02,4.884681951536332806e-02,1.195069909095764160e+00
3.370684408666812515e-01,-8.013670687610772170e-01,-7.421146890234731064e-01,4.908933112911212371e-03,9.705013555931396585e-03,1.283505852743059387e-02,1.110378503799438477e+00
3.808281406501494715e-01,-8.660974328086901153e-01,-6.848247283796895513e-01,-2.328634340424034881e-03,-1.085721196031208709e-02,-3.961392065937523882e-03,1.167076110839843750e+00
3.315718416853021266e-01,-7.360941224808376093e-01,-7.006397994072512958e-01,-2.900642655868896844e-02,2.586087643242148543e-02,-2.160063481106258287e-01,1.117059111595153809e+00
3.652249873262143898e-01,-7.713188203910046337e-01,-7.656790752293453073e-01,9.152946800637041386e-03,7.375732230495062134e-04,-2.546804943535611789e-03,1.133854627609252930e+00
3.091564101204913317e-02,-6.919320180213128779e-01,-1.039537318929133036e+00,4.478380544607345887e-02,4.139117652333588505e-03,1.650205035711332369e-01,9.911444783210754395e-01
3.702090471979465613e-01,-7.679464049639215251e-01,-7.786950144324253920e-01,-8.196668291478735515e-04,-4.708130846627185499e-03,-5.096346999381739552e-04,1.143597960472106934e+00
3.753803914340942960e-01,-7.818213243764553511e-01,-7.795371667091640644e-01,3.136500276411046360e-03,-2.315659208838435554e-03,7.925226216557543658e-04,1.156081914901733398e+00
3.423781838169145386e-01,-7.407297889586497153e-01,-7.443392531271952883e-01,3.672612666715262871e-03,-5.395526156196076353e-03,-1.809003974003823775e-03,1.084980607032775879e+00
3.232776942862057301e-01,-7.872765369003202895e-01,-6.518053613228848020e-01,1.401244636811000040e-02,2.208916196010909331e-03,-1.912115465647233961e-02,1.050207376480102539e+00
-2.189742131763508515e-01,-7.193520867299607602e-01,-7.245767099601074790e-01,2.300177217065343255e-02,7.659029532999320211e-02,6.108977588161031841e-03,5.218400359153747559e-01
2.206420295102429208e-01,-7.604590056840112577e-01,-7.549573908982435411e-01,3.057899510867304049e-02,1.163755921792508467e-02,1.174081380252120846e-02,9.802126884460449219e-01
3.188975672244288573e-01,-6.321100284719373130e-01,-7.892768993821647205e-01,1.395364765722261705e-03,-7.764454845370149377e-03,1.680804385842143978e-02,1.039046645164489746e+00
3.189792671129624280e-01,-6.261322704243317272e-01,-7.919481506073650090e-01,-4.811304962572377462e-03,6.070978909451947222e-03,2.614750659952170750e-02,1.039074778556823730e+00
3.550429076678753293e-01,-7.866566112378710063e-01,-7.265373089087647784e-01,-1.276175252744387971e-02,5.110503180512763338e-03,5.831023064518441219e-03,1.113158941268920898e+00
2.302726309177017261e-01,-7.629530933276242877e-01,-7.602270249442426575e-01,1.464323070192970200e-02,-3.072020173868476520e-02,9.358100131950163741e-03,9.937476515769958496e-01
3.564058449561003927e-01,-7.854896104521191802e-01,-7.270328981616821507e-01,-1.078420716855170783e-02,5.164635709492265171e-03,5.871704976454355032e-03,1.114057183265686035e+00
2.930400582287606692e-01,-7.801929846369921595e-01,-7.659041329530231756e-01,1.694100291159958416e-02,-2.635740234482606553e-02,2.864409658013483337e-02,1.068692922592163086e+00
2.911835828797668113e-01,-7.685559265489527725e-01,-7.791252590212940365e-01,2.103763722714849585e-02,2.644025610353648026e-02,-4.912537768988266100e-03,1.066704154014587402e+00
3.647075701550013260e-01,-7.866741995474768601e-01,-7.655181939911746003e-01,-5.932913318045476836e-03,-4.034321293308475165e-03,2.273515054624901215e-03,1.141025304794311523e+00
3.421310540661448019e-01,-7.376438666301405878e-01,-7.438151021525243323e-01,-7.028416646661144775e-03,-8.124116616559335508e-03,3.109691615829328001e-03,1.083046913146972656e+00
3.190986737669287976e-01,-7.203220697400884998e-01,-7.153626935855434965e-01,1.491458643494026487e-02,1.372856559538440310e-02,2.654807347337692289e-02,1.038562655448913574e+00
2.009816912029034897e-01,-7.442547978643558881e-01,-7.585865530841414683e-01,-2.176532206560527483e-03,-4.039993695128061418e-02,6.346577690374678379e-03,9.551208615303039551e-01
2.453558895458158862e-01,-8.101408235705441774e-01,-5.922625862378201322e-01,-1.600306486624583635e-02,-4.159622608535933769e-02,1.073371417891803709e-01,9.859499335289001465e-01
1.531913921573483939e-01,-7.467924907892449227e-01,-7.467968654188442690e-01,1.125683615424699462e-02,-3.270265958866973993e-02,9.145323329886502137e-03,9.021165966987609863e-01
1.144410804049022512e-01,-7.269782250717271577e-01,-7.302381393494152828e-01,-1.304560259595783615e-05,-2.891898020220187715e-02,-1.325769835827697064e-03,8.445438146591186523e-01
4.240750497316519985e-01,-7.952084303142750166e-01,-1.001987353558594140e+00,-2.071356722177918747e-02,6.854404619816474586e-02,3.571457701958207220e-01,1.476337790489196777e+00
3.527672083218801324e-01,-7.724261569963635221e-01,-7.876156557318403362e-01,5.036722396909591552e-03,1.252192714029821225e-03,-5.211212066711509911e-05,1.132900118827819824e+00
1.333300745911851215e-01,-7.283558514183144927e-01,-7.428083904039541885e-01,4.264150274743696949e-03,-3.152813007751512075e-02,-3.875087737746829488e-03,8.707736134529113770e-01
9.540871122919525327e-02,-7.233142384114876755e-01,-7.208406964505875703e-01,-5.343906839719953124e-03,-2.887431968913855163e-03,-2.872722430114179812e-03,8.175718188285827637e-01
3.634020452948679147e-01,-7.557557420153196981e-01,-8.023190707205480887e-01,-3.145121464578771141e-03,-4.613151505258857553e-03,7.493636404404940008e-04,1.143192529678344727e+00
3.423503290787707209e-01,-7.579260525767138601e-01,-7.260320583863855148e-01,-1.354037961363700401e-02,-1.271441399734668694e-02,7.200142675135500110e-03,1.085229754447937012e+00
3.433024680460635691e-01,-7.699442536227372180e-01,-7.873602237276834392e-01,8.825416932397854228e-03,1.280131624825006729e-03,7.047058181222443443e-04,1.122163057327270508e+00
3.801431400844915709e-01,-9.183740879522319656e-01,-5.726237623466161608e-01,-4.526360264617202561e-02,8.567328020356185236e-02,-1.582297209222348067e-01,1.208306074142456055e+00
3.426908471893458374e-01,-8.307432133291032805e-01,-6.448286104240908978e-01,-1.809168696494952572e-02,8.806488618570786076e-03,1.285858319336342925e-02,1.093189716339111328e+00
2.477009024437153428e-01,-6.715531905576065386e-01,-8.143918887462844314e-01,1.185115841866648742e-02,-1.548568214545755634e-02,-1.128789987683705143e-02,9.991291761398315430e-01
3.399513420625427940e-01,-8.316048651978706907e-01,-6.996210177067256897e-01,-2.376562482208836521e-02,-1.275822466030026268e-02,4.607399788711216693e-02,1.115297436714172363e+00
3.044510403361920803e-01,-5.765858961322551934e-01,-8.578493365488183420e-01,-1.885457377469926601e-02,-3.652079005744698903e-03,4.582719801815801630e-02,1.053824305534362793e+00
3.448395829700701687e-01,-7.580279984551867578e-01,-7.944572775170575252e-01,-9.373463864473557255e-03,1.008203099377280761e-02,3.805160568929843914e-03,1.121798872947692871e+00
3.681132154103265997e-01,-7.862930634555527210e-01,-7.619449743629900240e-01,1.028410103439079612e-02,-4.478200787504832067e-03,7.864479644065106110e-04,1.142592787742614746e+00
3.575127672620705410e-01,-7.442922410432553093e-01,-7.949918863616467490e-01,1.694555645306924929e-02,-1.835783783031578065e-03,-3.774572931511900077e-03,1.128414869308471680e+00
3.394729253892644905e-01,-8.452150544164480639e-01,-6.074443943301548465e-01,1.177209306353728911e-02,1.194692932684565667e-02,-5.294016294034567874e-03,1.085939407348632812e+00
3.526200020708425420e-01,-7.724019542128465199e-01,-7.890431306547083246e-01,4.167072672851646759e-03,4.583050292123663771e-03,6.893311926755494017e-04,1.133485555648803711e+00
3.448264579895801707e-01,-7.506060460518848565e-01,-7.383129106226899996e-01,1.416505890599502500e-02,-7.353737804965278409e-03,-1.467362426094828698e-02,1.089985013008117676e+00
3.420392250372935594e-01,-8.170420385451495626e-01,-6.449411626136443143e-01,3.979303217885944016e-02,-2.757882139361534507e-02,-1.157278265557291769e-01,1.104907274246215820e+00
3.411761607573574606e-01,-8.386332966309618664e-01,-6.268334656057086285e-01,1.068529030512024684e-02,-6.487340582459501931e-03,-4.663228341279065936e-02,1.092665791511535645e+00
3.597219715783676608e-01,-7.596381268974472523e-01,-7.641267116598624565e-01,5.414235400919916938e-03,-1.048497978831028875e-02,-1.304350314576771010e-03,1.121799588203430176e+00
3.186654070088023594e-01,-7.191653779150233294e-01,-7.159878625508726557e-01,7.786065913016584211e-03,-6.124969516067383345e-03,-1.134839816808688381e-02,1.036574125289916992e+00
3.139265896663570587e-01,-7.028076304164294630e-01,-7.234494664741575320e-01,-5.893752196300494454e-04,-2.593523599591083736e-03,-1.384747119312683059e-02,1.027500987052917480e+00
-4.769280058814079348e-02,-7.420067591580332689e-01,-7.513536026881465490e-01,-1.630568737830771081e-02,9.299384237536080511e-02,6.808775604021496952e-02,7.275286316871643066e-01
3.530703026411101675e-01,-7.862478168185758065e-01,-7.202453385149054643e-01,1.177501252523943664e-02,5.615660533693172737e-03,-6.985714263575078069e-03,1.108088970184326172e+00
1.003020463430628340e-01,-7.425123492644858381e-01,-7.897047173770328499e-01,-7.227525281655158840e-02,-1.110611622436509863e-02,-2.519282239320709549e-02,8.776575922966003418e-01
3.073551719697953377e-01,-1.029811755687250585e+00,-3.899953195903355097e-01,6.419960302427511756e-02,-6.734872698243453415e-02,2.125321344484728814e-01,1.226099967956542969e+00
3.565114629945655977e-01,-7.722884413638608780e-01,-7.445683109150326162e-01,6.991631110166586678e-03,1.519479084181723019e-03,-3.304259828404871105e-03,1.115281820297241211e+00
3.700072051912384752e-01,-8.239430558084595013e-01,-6.060654987553449891e-01,-2.797659794285192736e-02,6.293261064596826493e-02,-1.374781359408668302e-01,1.133041620254516602e+00
5.118658854242946754e-02,-6.260615249749591493e-01,-8.229171397711105840e-01,1.869117742798474466e-02,8.582641734496779251e-02,8.111552586461101555e-02,8.207454085350036621e-01
4.939459923689470955e-02,-5.621051822676718102e-01,-8.272678242686621886e-01,-3.512287341879499064e-02,4.288464844286439537e-02,-1.217608803635557430e-01,8.124563694000244141e-01
1.748498538046425188e-01,-7.476421954412655335e-01,-7.997474377644447907e-01,7.868043709475662159e-03,-1.970801707621329737e-02,2.020673712259070387e-02,9.509726762771606445e-01
2.072580161836289347e-01,-7.484696347245409775e-01,-7.539616905113635248e-01,-4.048620032860477530e-03,1.768979776293479189e-02,7.460960912733973459e-03,9.590877890586853027e-01
3.157507105821925619e-01,-7.120602604258023938e-01,-7.195431440442536797e-01,-1.304727390743696505e-04,-3.528525038047052292e-03,-4.829664344909051846e-03,1.031624794006347656e+00
4.011502791205190377e-02,-7.403123450834248054e-01,-7.203037234616682660e-01,8.641999918755782772e-02,1.578186556518488062e-02,-3.628940947023832496e-04,7.854965329170227051e-01
1.000691992870119673e-01,-7.311630408249611968e-01,-7.279512131833789645e-01,4.258783589744793291e-02,-6.720587875265296093e-03,-2.943827507358083920e-03,8.330007195472717285e-01
1.977637322056648439e-01,-7.525505778543575275e-01,-7.498905898730590103e-01,-9.358583363197484420e-03,2.788931200642400660e-02,3.183105493933905154e-04,9.503541588783264160e-01
3.267964682218912342e-01,-7.168347688419375308e-01,-7.330335813840116455e-01,-1.646828185228883584e-03,-7.154333950463055182e-03,-1.254432324492277956e-02,1.052125453948974609e+00
2.928886225628569151e-01,-7.701126163941798275e-01,-7.721277525289163002e-01,-1.100215045759717590e-02,4.711919941922920740e-02,-7.764955609009759757e-03,1.067390441894531250e+00
2.053567498937519109e-01,-7.368712871176297252e-01,-7.587915168200729532e-01,1.026152958802084222e-02,-1.941669574213239057e-03,3.975511554957933814e-04,9.535490274429321289e-01
2.446126659986420648e-01,-7.627221808069702957e-01,-7.641245024534364383e-01,-8.716805272225632006e-03,-1.613890162376170221e-03,-5.780359995687281427e-03,1.008203387260437012e+00
3.484026721220171985e-01,-7.809864108569557484e-01,-7.155791070970911605e-01,2.061504758915242222e-02,-1.927681802644361578e-02,-3.269605045304523061e-02,1.100692629814147949e+00
7.008753737895501157e-01,-1.186930662272837278e+00,-4.553932855233240873e-01,9.898713257333217885e-02,-8.697491344385618883e-02,-5.021090993103878297e-01,1.877867937088012695e+00
3.628285874674220812e-01,-7.663726340657488478e-01,-7.675109936647337427e-01,9.655552863648452638e-03,-4.715076808940091464e-03,-8.334745994003332076e-03,1.130016326904296875e+00
3.410922007104149611e-01,-7.724332357908949565e-01,-7.799023486293839014e-01,5.018547651130599030e-03,6.282384763647077229e-03,1.893102089561797020e-03,1.117370367050170898e+00
3.664924976908417453e-01,-7.702496288436377903e-01,-7.832520656541878123e-01,-7.385718603966545497e-03,5.144440660769130508e-03,-7.726878763254335343e-04,1.143405914306640625e+00
3.568516774016083914e-01,-7.484333932647282417e-01,-7.700972976944235882e-01,-8.345808150445146491e-04,7.321457010321085965e-03,2.233661116734851453e-03,1.116354346275329590e+00
3.440943844030122656e-01,-7.736676120113628041e-01,-7.746548681962452942e-01,6.549889754943337590e-03,-2.745222203408267513e-03,-7.613301683846577291e-04,1.118324398994445801e+00
3.414850059007426553e-01,-6.937688280277782837e-01,-7.815130329891585292e-01,-4.779367284003574641e-03,1.544508690545847579e-02,1.336263309446147213e-02,1.082407951354980469e+00
3.636806749996107091e-01,-7.757939355425154115e-01,-7.798859023725803752e-01,1.498673963298835076e-03,-2.738014851371121591e-03,6.293005893728245877e-04,1.141539454460144043e+00
3.594547769300640017e-01,-7.640460544385495600e-01,-7.804494604211338338e-01,-5.362079283692226458e-03,3.134642132305138183e-03,-4.513330546766012967e-03,1.131869792938232422e+00
3.264692730628795392e-01,-7.807780563182300515e-01,-6.657706084230954335e-01,-1.450563049028555027e-02,3.041889631886953663e-03,1.710097450260762014e-02,1.055186271667480469e+00
3.630049444354884192e-01,-8.562248863992849568e-01,-4.973983613519856739e-01,2.759604062353853207e-02,2.373284050583853930e-02,1.961350725086802582e-01,1.138932466506958008e+00
3.592830404789720822e-01,-7.668417272158234432e-01,-7.677960727346000436e-01,-6.553491802494515982e-03,4.671785403152841319e-03,-5.758652994390558999e-03,1.126732587814331055e+00
3.899455724266738810e-01,-7.836836918580875055e-01,-4.615510298499514441e-01,-5.526948385532007291e-02,-5.418449328312435059e-02,3.755286502448599295e-01,1.242637515068054199e+00
3.373628920059233427e-01,-7.490027587631895578e-01,-7.146261443221626486e-01,1.808912470173508133e-02,1.834499040594987640e-02,4.407941771812618620e-02,1.073241233825683594e+00
3.296619543555778797e-01,-7.429925446027515479e-01,-7.100909672827894203e-01,1.385150540239957553e-02,2.272265802811658877e-04,8.224248571765211541e-03,1.056956410408020020e+00
3.321809528174722859e-01,-7.724164248395384291e-01,-7.823414811085096510e-01,1.849737359853864671e-02,-8.894884063827527068e-03,8.170717025018693364e-04,1.110163450241088867e+00
2.389785359332923242e-01,-1.161071600989693975e+00,-7.987773995801853433e-01,3.047683323519945198e-02,-1.423345933193607138e-01,-3.932727304633886617e-02,1.285445928573608398e+00
3.979429988800959883e-01,-7.593978218777188705e-01,-7.373650898937682552e-01,5.869463682441729280e-02,5.821084210146552917e-02,2.084526447649836522e-01,1.210488319396972656e+00
3.143862104000981206e-01,-4.547501911563024413e-01,-8.595233904149823800e-01,3.650570389904865543e-02,-3.626830484514501074e-02,2.754095360859224462e-01,1.141154408454895020e+00
3.381959698666008318e-01,-7.818281629411794054e-01,-7.708226134644153849e-01,-1.776568619195929193e-03,9.225941215399890288e-03,-4.859879261457615026e-05,1.114680886268615723e+00
1.932106055126266431e-01,-7.537410322010795749e-01,-7.464007474886251714e-01,5.747130433217131906e-03,-7.057593894342022341e-03,-4.452919793312397172e-03,9.434661865234375000e-01
3.337479685218868175e-01,-5.616388245373156174e-01,-8.361033957950884110e-01,1.450596502495618209e-02,2.207101597208117189e-02,1.288194049779737282e-01,1.083824872970581055e+00
4.274337131087439512e-01,-6.649701998216375198e-01,-8.446942472037148875e-01,-8.580510884878255265e-03,1.077724110122528674e-02,2.380208453495002430e-01,1.261946678161621094e+00
4.696460032924793526e-01,-8.380651463072307239e-01,-6.600156256761222640e-01,-7.627630978608705183e-04,3.490769772360531598e-02,2.517386615039196585e-01,1.304893612861633301e+00
3.667544916150552448e-01,-7.904613921117052966e-01,-7.608643002126369570e-01,7.530576332514388183e-03,4.865813937033185502e-03,1.693287390779438673e-03,1.142814159393310547e+00
3.523332560034898031e-01,-7.702202063106348140e-01,-7.352455681007448174e-01,1.064433870557323324e-02,5.985198683028503282e-03,-6.089708039111424269e-03,1.105733752250671387e+00
3.516437253220615622e-01,-7.867493510569645299e-01,-7.026736856631252692e-01,2.014008492891193949e-02,-1.776852966834761155e-02,-8.432845489285903037e-03,1.099851727485656738e+00
3.428076281767478140e-01,-7.899940837484134004e-01,-6.807866060272014241e-01,1.471152020866313588e-02,-1.944391012856003936e-02,-2.291283935860218349e-02,1.083888411521911621e+00
3.413625247767361204e-01,-8.202555716124768637e-01,-6.394924495704650269e-01,-2.528709588078497522e-02,1.368961219946541151e-02,-1.228282718988488453e-01,1.104443311691284180e+00
3.879862718692324020e-01,-8.391793184811837669e-01,-6.978800813650176682e-01,-3.471750142288222880e-03,2.136215601916416004e-02,9.034127754236417548e-03,1.163680911064147949e+00
3.672318367964301222e-01,-8.499118974062858101e-01,-6.649113524524128405e-01,9.872560959769315081e-03,4.955623890799437659e-02,-1.966424476793467990e-01,1.189183115959167480e+00
3.439803690823022286e-01,-8.194363644040627559e-01,-6.547819841088573511e-01,1.411773132960629160e-02,7.970433940115647514e-03,-1.688119746207459790e-02,1.091206312179565430e+00
3.487391886218265680e-01,-7.392708678434374292e-01,-7.548228798502532033e-01,1.166150348628056804e-02,-7.697884257284555096e-03,-2.926275458714898067e-02,1.097307205200195312e+00
3.517093628273690320e-01,-8.170383960648086585e-01,-6.817969251201141390e-01,1.206138581330897311e-02,-1.420395682315542425e-02,-5.395025425194092950e-03,1.107848048210144043e+00
3.498586865451881467e-01,-8.283658949136015748e-01,-6.547871806558376306e-01,1.123215632451554993e-02,6.692710090953047329e-03,-1.383497641450430818e-02,1.102231860160827637e+00
2.093743687472683912e-01,-7.525107494285667720e-01,-7.437375339043559297e-01,-2.451789215749867329e-02,6.125393924784658384e-02,-6.367451760571209846e-03,9.643869996070861816e-01
3.358559130367358980e-01,-7.845615885802854628e-01,-6.730789890433557243e-01,-1.240264984971357377e-02,-5.224107714047842091e-03,-1.216794953187322163e-02,1.069506525993347168e+00
3.276666384102644991e-01,-7.242020769188135532e-01,-7.299685289702965152e-01,1.018740902640769518e-02,-2.685711401388345110e-04,-6.348386990704102222e-03,1.054968714714050293e+00
3.326037638331842961e-01,-7.584589473221752254e-01,-7.097775246244319991e-01,8.197834067823818807e-03,-5.669363915019220079e-04,-1.157740565283964067e-02,1.067837953567504883e+00
3.172570503040949563e-01,-7.000033253868631622e-01,-7.045910925039853279e-01,-2.813029742314976725e-03,-1.450149875402956907e-03,-4.560342329662631783e-02,1.022631764411926270e+00
3.543250654363487850e-01,-8.023339395567312682e-01,-7.231265184335643470e-01,9.934161830393053311e-03,-1.333699887573177451e-02,-5.219612497917038539e-03,1.119566559791564941e+00
3.342445472990741018e-01,-7.379206450104128789e-01,-7.276989791592004542e-01,1.565419627413244114e-02,-1.520677753808684710e-02,-1.377999693556912139e-02,1.068027138710021973e+00
3.022185256016197696e-01,-6.298836208161074923e-01,-7.356167556271661079e-01,9.632281495166691854e-03,-1.142871895403782881e-02,-9.965482543175632757e-02,1.004495620727539062e+00
3.596691064052517373e-01,-7.534627018948509836e-01,-7.701448006251341294e-01,6.411871456625122673e-03,-1.042984922673593530e-02,-3.840290919157228304e-03,1.121786117553710938e+00
3.486349166016724510e-01,-7.493275062625035510e-01,-7.387693881765176052e-01,2.187579254970123399e-02,-3.931724870016974072e-02,-4.986545669621139654e-02,1.098896503448486328e+00
3.393835542640717406e-01,-7.423738653984131020e-01,-7.239429811711757257e-01,1.060150202328810805e-02,-1.958184048519332615e-02,-3.317704082272152771e-02,1.074891090393066406e+00
3.172997297974328168e-01,-7.646239183342058432e-01,-6.605926746769340552e-01,8.456339384321262531e-03,-4.023233111421547418e-04,3.826823182917894056e-02,1.036067485809326172e+00
3.310383098043036543e-01,-6.946245427927115745e-01,-7.597708606210932247e-01,-3.092536388459615933e-03,-1.044949407003278527e-02,-2.560068949294540958e-02,1.060834050178527832e+00
3.165138761895549546e-01,-7.401910751612748030e-01,-6.831513899519505717e-01,8.386022143348532618e-03,-4.255888248339019910e-04,1.632944685283498412e-02,1.029862284660339355e+00
1.071544070307611785e-01,-7.386493536678113703e-01,-7.555782353042843624e-01,2.109681181362872693e-02,-2.694139037718368268e-02,8.940123014774446764e-03,8.565871715545654297e-01
3.180525761911565663e-01,-7.264589804362875380e-01,-7.065586595965334116e-01,-4.580266571441215899e-03,-6.499934002938410546e-03,1.470253186713935817e-02,1.035109877586364746e+00
3.078941336694736575e-01,-6.522646762301889112e-01,-6.148301100609165903e-01,-8.071606821880163152e-02,4.702038892310775320e-02,-3.796864738622269808e-01,1.160183906555175781e+00
3.229347760983781734e-01,-6.769049980440772218e-01,-7.428843871262509335e-01,1.111698335639686383e-02,4.281087484353109963e-03,3.732899575106144591e-02,1.036632895469665527e+00
3.815210559494394138e-01,-7.874281546250597730e-01,-7.580348692729801385e-01,3.217688722313510885e-02,-2.011657693405026481e-02,-6.449013477796862459e-02,1.161784768104553223e+00
3.578926865277674008e-01,-7.918014869937761713e-01,-7.243187478159351933e-01,2.556930838401602624e-02,-1.778212073290452375e-02,-2.287371696090311282e-02,1.119484543800354004e+00
3.128990863101815956e-01,-7.431164105474520332e-01,-6.818791948613824871e-01,3.358493692143718796e-03,7.062387692034358198e-05,1.671825483541157162e-02,1.027192115783691406e+00
3.777597366075505225e-01,-8.755593752111539008e-01,-7.172956123242588689e-01,4.113215579848327613e-02,-4.171951096094779834e-03,-1.380707438642100604e-01,1.208229899406433105e+00
3.073978265611484462e-01,-7.679016633054969176e-01,-7.673229077887093741e-01,3.549772559854597661e-03,-4.982595731472975326e-03,-7.830960664031119678e-03,1.075147986412048340e+00
3.134343536592647528e-01,-7.864179374578165183e-01,-6.259121370773307325e-01,-9.283472763546241069e-03,8.413887079221290003e-05,1.553087006782037302e-02,1.029507994651794434e+00
3.070110292467785884e-01,-7.533761866954722386e-01,-7.800646238251076614e-01,1.081133453571654374e-03,-4.698148012869500685e-03,-4.076342908478530411e-03,1.074035882949829102e+00
3.089807825158715771e-01,-8.773860141526117484e-01,-4.991975323474814874e-01,-2.926205516743646869e-03,1.261465964733082075e-03,-7.890733376503538885e-03,1.049780845642089844e+00
3.647219903390563345e-01,-7.712641689719933469e-01,-7.985409868935670064e-01,1.411705660080578382e-03,-4.486442298886963997e-03,-2.081989393963742073e-03,1.149901747703552246e+00
3.593444925998214856e-01,-8.040059227468077108e-01,-7.261838877123074631e-01,1.508023509148446149e-02,-1.486742852262749361e-02,-5.779594174148476766e-03,1.127098798751831055e+00
4.115220490977919976e-01,-9.831474974121684474e-01,-6.795884252624637689e-01,2.535967471084767805e-02,6.633548308470729737e-02,-7.848237084069377423e-03,1.276401996612548828e+00
3.212390798561651772e-01,-8.357601836371753024e-01,-5.837573605325911963e-01,-5.753572353255997571e-03,6.451788404040924817e-03,1.970756752688318167e-02,1.054502248764038086e+00
3.564170657356491856e-01,-7.625576983943294085e-01,-7.855085791236664505e-01,8.444820086409725313e-03,-8.711365183584457092e-03,-8.637439875175104056e-04,1.130821228027343750e+00
3.360455347347083288e-01,-7.287568108620137153e-01,-7.387595990372487487e-01,2.995327997984543848e-03,6.904466947911812140e-03,1.113062042663874422e-02,1.070091962814331055e+00
3.589821943699253448e-01,-7.785327962370365285e-01,-7.829610956432299096e-01,2.301662995358677317e-03,-1.278307338177478956e-02,2.671628814716662734e-03,1.139966964721679688e+00
3.127097503402971324e-01,-7.908785307041141799e-01,-6.241012727498753687e-01,5.346474749547859041e-03,2.215361311373593956e-04,-2.160628725461127830e-02,1.031093955039978027e+00
6.597712424104218432e-01,-8.889093420710290072e-01,-7.740309748578058091e-01,5.729250186707808556e-02,-5.453235685626665885e-02,-5.054709383879691931e-01,1.737518310546875000e+00
3.705170655828287640e-01,-7.963260659102586736e-01,-7.322260150512325261e-01,-3.740496330415286202e-02,4.527645790106150925e-02,-2.180545731454975461e-02,1.141319751739501953e+00
3.409480619353981723e-01,-7.787526768464811955e-01,-7.838468182107432014e-01,7.077868149024463089e-03,2.664274502313541786e-03,1.619933715212431213e-03,1.122336387634277344e+00
1.046365477463713778e-01,-7.349470386995176074e-01,-7.353722876254260576e-01,-2.466459032882514259e-03,1.004760443218764149e-02,-4.323973356432581419e-03,8.400208353996276855e-01
-8.642615669070430329e-03,-8.554595207117068334e-01,-8.661299389731164089e-01,6.444729068627162716e-02,1.460895890847285772e-01,-1.189978329353840319e-01,9.193568229675292969e-01
1.124321580944313004e-01,-7.815050355817603212e-01,-7.827453954824874494e-01,-4.234506370957900889e-02,7.750063052503750050e-02,1.584754516517892023e-02,9.079569578170776367e-01
2.108714195248441725e-01,-7.479415306928203222e-01,-7.597057006765324250e-01,2.144829779831907823e-03,-4.768252523655580610e-02,-6.982132586444417602e-03,9.683600664138793945e-01
3.579123685872876992e-01,-1.067084859019225451e+00,-2.654022819627885887e-01,5.828368315203437400e-02,1.046566309003892081e-01,1.699391640819649940e-01,1.288644433021545410e+00
-4.504261210867721577e-02,-7.333986280240836209e-01,-8.237386139253138895e-01,-5.546457686637057405e-02,-4.782250233062352446e-02,2.881808348368506897e-02,7.501751780509948730e-01
3.352911343157977120e-01,-7.091947974892556239e-01,-7.147088566005075361e-01,6.386198168576500897e-03,5.875022113374143984e-02,-2.046489063600420155e-01,1.110342860221862793e+00
3.518079441307112587e-01,-7.851739268372928127e-01,-7.703878880236924021e-01,4.343184948961869088e-03,-6.925910456974456939e-03,-1.890030016366544196e-03,1.129754900932312012e+00
1.978771739953599784e-02,-7.560363840417894110e-01,-8.351116316073230461e-01,-1.559378662003746245e-02,-4.170366035987127518e-02,-1.791541909736533988e-01,8.784874081611633301e-01
3.383320573949916144e-01,-5.384646964207947528e-01,-6.698841684966467813e-01,-3.752506529047492517e-02,1.005030254217092502e-02,-4.179034384440518668e-01,1.195712804794311523e+00
2.547734285567119228e-01,-5.991901642833816766e-01,-6.548033000798441083e-01,-5.243065688447811484e-02,-3.654376928943384867e-02,-3.997217024923305217e-01,1.127574324607849121e+00
3.193257719155397356e-01,-8.468329704674385505e-01,-5.570301770928793861e-01,2.851998714278181860e-03,5.939013772823661334e-04,-2.356258413066944502e-02,1.052448034286499023e+00
3.734770205759349038e-01,-8.106929802756197567e-01,-7.639791567595608512e-01,1.021075782075401596e-03,-3.564081242370438583e-03,1.199317548761810823e-03,1.161537408828735352e+00
3.586791505060241136e-01,-7.894973034617537300e-01,-7.756174463366884986e-01,3.076328442719317288e-04,1.611183473183316450e-04,-2.533837136802096282e-03,1.141308426856994629e+00
3.155562256347441141e-01,-7.179696311876183623e-01,-7.137501177679819175e-01,3.008770100000830554e-03,4.164497224031265459e-06,-4.731816223796579159e-03,1.031468272209167480e+00
3.335160701080722712e-01,-7.256575057191352318e-01,-7.426685103713785985e-01,3.634691060436288468e-04,8.968980168468752498e-03,2.616079876365125755e-04,1.067893981933593750e+00
3.178795853116154757e-01,-7.393041107823807856e-01,-6.916497954576366070e-01,5.150603773895908420e-03,-8.349979525395065556e-04,-1.078396710568707041e-02,1.034388422966003418e+00
3.326894688061402539e-01,-7.886256870073247160e-01,-6.576391428851535714e-01,1.966033302372862876e-02,5.337155011671378818e-03,-1.321531348920746210e-02,1.062730908393859863e+00
3.644376194744394781e-01,-7.868188219588394539e-01,-7.740711737756145183e-01,-6.732617017956936054e-03,-6.372129150499083496e-03,-1.169779908654477963e-03,1.145050168037414551e+00
3.581490140111451281e-01,-7.807287793564550160e-01,-7.486582503276648648e-01,-1.069984031430881027e-02,9.199775664756063009e-03,-1.370584423319409252e-02,1.123702645301818848e+00
3.607622472571826444e-01,-7.863625720467255498e-01,-7.775548923301995874e-01,-3.654803195090290582e-03,-3.298877100915568409e-03,-4.436291950882367613e-04,1.142778515815734863e+00
2.941189280625858826e-01,-7.713722214345335448e-01,-7.661332698038285649e-01,2.909834742907018920e-03,1.579929058216348811e-02,6.098134315759652429e-04,1.063246011734008789e+00
3.119998032975099256e-01,-7.010926422324733620e-01,-7.086886377116559110e-01,-4.368659976847486144e-03,-5.432067244254288295e-03,4.817714286848888416e-02,1.020401120185852051e+00
3.229976573265699313e-01,-7.459386524800697416e-01,-6.992292296854429878e-01,-6.914425501314604497e-03,-1.764354554712370318e-03,9.648766651439891207e-03,1.046570181846618652e+00
4.606481631877746841e-01,-8.540551059213731255e-01,-6.114029681400006133e-01,-1.249440010028663069e-02,4.768564488460511064e-02,5.591318128717535085e-01,1.553539276123046875e+00
3.396539396023771640e-01,-7.560560746201361315e-01,-7.013331028461415872e-01,-3.175410639459127354e-02,-8.401600787205927567e-03,3.599032291038965770e-02,1.072724223136901855e+00
3.329428152910315908e-01,-7.269552675740631464e-01,-7.418502634186683320e-01,2.429546524217306592e-04,-1.306244271896684662e-03,8.649680077892773697e-03,1.067531108856201172e+00
3.344860247249122898e-01,-7.986968839668450171e-01,-7.360250495432554274e-01,-1.719007499819931450e-02,-3.486244137677152466e-02,6.306611965828527733e-02,1.110620260238647461e+00
3.531666826261967151e-01,-7.674945978146274772e-01,-7.483568203039963063e-01,9.565341650481947594e-03,9.686252963950999981e-03,8.373423732593275604e-03,1.111560702323913574e+00
3.579456665746416077e-01,-7.957525019629426710e-01,-6.792901569718050592e-01,7.173082425325665208e-03,2.987529785598208587e-02,9.868036406340117972e-02,1.114569902420043945e+00
3.326420048287374032e-01,-7.542217698334603426e-01,-7.031816676712265846e-01,-9.527624132946981711e-03,-9.806458654512529780e-03,2.300807349725065079e-02,1.063274741172790527e+00
3.248834302796056450e-01,-7.075244409116705491e-01,-7.410905214680846287e-01,-8.950652004610457763e-03,-1.068192455828244000e-02,1.155086436874111847e-02,1.050061702728271484e+00
2.625473444175279170e-01,-7.622353032348054835e-01,-7.684138764484120809e-01,2.526879364212355691e-03,8.868140378383024616e-03,-1.241091020391583977e-03,1.028012156486511230e+00
3.682327036982493418e-01,-7.606886461092021712e-01,-7.991921808417445927e-01,-7.288798070177270223e-03,4.040089722351958811e-03,-1.653382242214338545e-03,1.148751497268676758e+00
3.166680000183426102e-01,-6.695204865035493391e-01,-7.551157186571503255e-01,-7.924239538117806847e-03,-1.117623923245196320e-02,1.950399799371085874e-02,1.032478451728820801e+00
3.184328446626115139e-01,-8.739053727541785666e-01,-5.226469197630070340e-01,4.604119370191723896e-03,-6.187918785476350346e-03,7.790150287006851471e-03,1.061411619186401367e+00
3.236139526153847257e-01,-7.021974948681752871e-01,-7.427475422684478579e-01,-9.007496048546115297e-03,-1.057657181611707659e-02,6.315876266194632091e-03,1.047009468078613281e+00
3.475270600788297748e-01,-7.481178361472521354e-01,-7.445170115410975065e-01,-4.313239920681844961e-03,-9.088618559846809233e-03,1.280429126307761761e-02,1.094212532043457031e+00
3.436609859220941532e-01,-7.145674157791785941e-01,-7.669313831559301242e-01,-5.635660543395377975e-03,-8.703133156001543330e-03,9.062931688170823910e-03,1.085620284080505371e+00
3.675881060389425969e-01,-7.669157501384733511e-01,-7.856370847431495275e-01,-4.351565460793066845e-03,4.712264435540159356e-03,3.369419631968456315e-04,1.144033551216125488e+00
3.570723684102643514e-01,-7.832614968706561598e-01,-7.321530242024483215e-01,1.550049398957854992e-02,-5.468926802929374720e-03,4.592734779896469680e-03,1.116049528121948242e+00
1.754694947059592947e-02,-5.572121973456093391e-01,-7.434059302567943561e-01,9.704494879481698200e-02,7.621545711045909404e-04,1.988948383968101308e-01,7.867433428764343262e-01
3.341304463849955608e-01,-7.310859201967425669e-01,-7.367098802285515502e-01,-1.291722302508410518e-02,9.397717703422145061e-03,-6.976391922057455751e-03,1.068466067314147949e+00
3.267129831528229889e-01,-7.350473202244685034e-01,-7.109446500773106692e-01,-8.586389782389828099e-03,8.634952487860596965e-03,-1.039533238675360502e-02,1.050282716751098633e+00
3.260650869473007418e-01,-7.013366867403415528e-01,-7.450479560773943799e-01,-7.778402201911647357e-03,1.177483202114773704e-02,-7.960502129987315559e-03,1.050315022468566895e+00
3.375514258221578023e-01,-8.935175055752044848e-01,-5.430299793684096876e-01,4.359459261789225271e-03,-1.026269285476425971e-02,1.339735352611641592e-03,1.098761200904846191e+00
3.670856834686647696e-01,-9.378912006408116619e-01,-6.052318356902324226e-01,-2.060925595282609574e-02,-6.513035729526922731e-03,1.384694390104583284e-01,1.199348568916320801e+00
3.187083058803816815e-01,-7.246052318957121319e-01,-7.107565446236154827e-01,-5.352141183688983658e-03,5.423741564854506203e-03,-1.282915655210180826e-02,1.036780714988708496e+00
1.612272413731264398e-01,-6.569395035585756659e-01,-7.740551919862217467e-01,1.386092926737377551e-01,-1.383743468131621961e-02,-2.188067328511881238e-01,9.903404712677001953e-01
3.028630697562260665e-01,-1.027755028401100779e+00,-1.618797064809113506e-01,7.342112036949892395e-03,-3.045289014392183954e-02,-1.132742442401110383e-01,1.187254071235656738e+00
3.118724113282869692e-01,-7.025595256987048343e-01,-7.181394770657973936e-01,2.939953516880636740e-04,2.567386798480737753e-03,-1.490018365359771155e-02,1.022646427154541016e+00
3.696125636211081700e-01,-7.729677720030768695e-01,-7.715808668743057153e-01,3.526218043978401016e-03,1.693197507910692689e-03,8.969365043785725239e-04,1.141908645629882812e+00
5.625117955541700798e-01,-9.853034772134658947e-01,-6.918929672919016394e-01,4.051648561044110530e-02,-2.442321966075127609e-02,-4.537280494876460568e-01,1.628495693206787109e+00
3.255871946358417368e-01,-7.263992892770816390e-01,-7.246824677789069913e-01,3.619829572268099742e-04,-3.327717902915983735e-05,2.604688014607003509e-04,1.051129460334777832e+00
3.173491288207284100e-01,-7.410224366811548613e-01,-6.901179494366624922e-01,4.318554014856634642e-03,-1.887813749060696621e-03,-7.637726402123070149e-03,1.033976554870605469e+00
3.104941360012990481e-01,-6.649829604128549843e-01,-7.404017413038167517e-01,5.883281033836380500e-03,-6.655594545071006479e-03,-3.154934653978932330e-02,1.016875386238098145e+00
3.151253223005104909e-01,-7.134144482317110736e-01,-7.184460441298070599e-01,6.258558459927726116e-04,-8.086967329803325952e-04,-3.036433394718693769e-03,1.031079769134521484e+00
3.636580701866963805e-01,-9.623551481945734620e-01,-2.786079591873704131e-01,5.676866841231415634e-02,-7.465416437164507091e-02,-1.748279671062300533e-01,1.198851823806762695e+00
3.112907113379381197e-01,-8.426583793887874041e-01,-5.405634001863124372e-01,-1.460160195559465383e-03,-8.778851212826706621e-04,-1.519807233641368507e-02,1.036802411079406738e+00
3.147208168546073992e-01,-8.631939898006393275e-01,-5.325904559580199038e-01,1.489749241429095096e-03,-9.700383521860773267e-03,-3.080353987872764057e-02,1.053800106048583984e+00
2.378317288234664817e-01,-9.302278870690054990e-01,-3.508212271240919722e-01,3.813686865569259482e-02,-5.660945765239682077e-03,-2.312624067025084718e-01,1.090045928955078125e+00
3.228766871214659995e-01,-7.274148761876432223e-01,-7.198271952284502895e-01,-5.814254015587305355e-03,5.152245162587052070e-03,-3.220441808813186233e-03,1.046619772911071777e+00
3.222956245767445993e-01,-7.443535389071389563e-01,-6.923674945512674483e-01,-5.718146827886829743e-03,-1.342730711967261284e-03,-8.860037474883683886e-03,1.041792273521423340e+00
3.221399795162062651e-01,-7.887904123132574163e-01,-6.287187218642228403e-01,-7.508932283301112884e-03,7.716916073033865293e-03,-1.801413808447703199e-02,1.040808439254760742e+00
3.135549873948647037e-01,-7.185943176895183138e-01,-7.112131856443857369e-01,7.492788628240538539e-05,-1.066863229863551242e-04,-3.210814416901899056e-03,1.028493642807006836e+00
3.603630036836611428e-01,-7.215054619414983383e-01,-7.908980107434931961e-01,1.122278278697836501e-02,2.146480648778434364e-02,3.829149153309372583e-02,1.120931386947631836e+00
3.721401143293320835e-01,-6.033587545717734590e-01,-8.955202434260796096e-01,-5.498304780604940101e-02,3.052890304319431231e-02,2.565434487196711077e-01,1.237444400787353516e+00
3.159958995623363132e-01,-7.388691384689356489e-01,-6.917074201962574165e-01,-5.854658180030470997e-03,-1.555546650007270330e-03,-8.666198278994138512e-03,1.032255172729492188e+00
3.217336468554081730e-01,-7.261164146480704185e-01,-7.179597850834618100e-01,-2.752600541605729027e-03,7.631481961970023892e-04,-2.074540058992755884e-02,1.044425606727600098e+00
3.513652409762303419e-01,-6.662622915888758435e-01,-8.243204907901247047e-01,-1.470430318496101368e-02,3.003934016208710533e-02,1.701283884302368654e-01,1.145241975784301758e+00
3.362050598328676365e-01,-7.573351688427851780e-01,-7.105375578023587213e-01,-1.493449040021918930e-02,-2.333364490554332062e-03,-7.420468372734215397e-03,1.071305632591247559e+00
2.616357226970442151e-01,-7.692586984091336344e-01,-7.499407940410605100e-01,5.009683411927721985e-03,3.007424904299615259e-02,2.810870412147665857e-03,1.022748351097106934e+00
3.270198980085950446e-01,-6.941002543159571214e-01,-7.461884285306501496e-01,4.635664469629599375e-03,1.147326036695188629e-02,5.989712483237678159e-02,1.053475260734558105e+00
3.599594817711355144e-01,-7.666169792703955155e-01,-7.621330933911241168e-01,9.539524360731724620e-03,7.245336197136969950e-04,3.288443706736242714e-03,1.124477744102478027e+00
3.721269589588332982e-01,-7.780864407272759520e-01,-7.769526827057799956e-01,1.250199743656398195e-03,3.866778298595391870e-03,-1.187242617154543210e-03,1.149670362472534180e+00
1.265106613067360497e-01,-5.404565131867076211e-01,-7.692167223455534941e-01,-8.308243166049460518e-03,-1.844844540939222233e-02,1.997239017138582873e-01,8.778661489486694336e-01
3.429725312762229583e-01,-7.724164661925176922e-01,-7.838891778384344811e-01,9.493895707509546200e-03,1.453077654864503004e-03,-4.851538305577027406e-04,1.121293067932128906e+00
3.687376623525608355e-01,-7.350173442678302749e-01,-8.256991775202136008e-01,1.237493982706731194e-02,-4.816496576277419853e-03,7.882702797166475303e-03,1.152086973190307617e+00
3.243647055168262794e-01,-7.595207783756736664e-01,-8.066368580539139410e-01,5.304861052012228850e-02,6.791954180436529653e-03,-4.674876235670666694e-03,1.112089276313781738e+00
3.561269670219447403e-01,-7.620783307018513808e-01,-7.540987986586091818e-01,-7.299737930754007873e-04,-2.952824188838605503e-04,1.765250319290782507e-03,1.114241957664489746e+00
3.556805961618906275e-01,-7.132970753060925428e-01,-8.226179938826602145e-01,-9.869381196552905883e-03,5.673460873717020569e-03,-6.045914890711185687e-03,1.127840638160705566e+00
3.427196196507824588e-01,-8.678434130253482870e-01,-6.102922323715060937e-01,-2.218459543714224567e-03,-9.928554541446789339e-03,-4.356745982253297338e-03,1.104708552360534668e+00
3.496306121160432934e-01,-7.139212476248684158e-01,-8.054184459200377511e-01,-1.436283569551101424e-02,2.827189729604802273e-03,-5.710422768676997858e-04,1.112416386604309082e+00
3.518477156393281513e-01,-7.862721226348547976e-01,-7.695817160369200494e-01,-5.156041751968468492e-03,-1.972794902580980378e-03,-1.489572748219701896e-03,1.129910469055175781e+00
3.396905243947714315e-01,-8.689486849083072340e-01,-5.762068679078621303e-01,-1.080403579392366815e-02,2.198720690839351538e-02,-8.337106455716862194e-03,1.093021631240844727e+00
3.602034747559830774e-01,-7.748854141003550522e-01,-7.913685473594991304e-01,-1.579019154552594980e-03,1.643147463325483849e-03,-7.459899086672187960e-04,1.143427133560180664e+00
3.608468594902665694e-01,-7.816889271311581178e-01,-7.608719458351587139e-01,8.701008476460193874e-03,-6.042522925838364999e-03,1.571050751591657885e-03,1.132422804832458496e+00
3.223375390375499139e-01,-7.746119192019396138e-01,-7.818165325169651458e-01,-2.533708078249099441e-03,-3.471343319577181231e-04,-7.346061089377075486e-04,1.100579142570495605e+00
6.087793004627841675e-01,-5.548274565548392268e-01,-8.858093854036089843e-01,-1.964170097791593031e-02,8.000821539148608719e-02,4.142539817192611440e-01,1.543969869613647461e+00
3.567070888294546771e-01,-7.848542497712607258e-01,-7.318259509190094825e-01,1.391974628982879485e-02,-5.677580381217331787e-03,4.239320453680018447e-03,1.116320371627807617e+00
3.626731433552172756e-01,-7.751730660926707817e-01,-7.882550102539764847e-01,-2.061928167729085160e-03,5.099182064456288677e-04,1.630110383484574977e-03,1.144452691078186035e+00
3.661047104686571685e-01,-7.771323031831541828e-01,-7.830660810152308970e-01,4.376755545991186692e-03,5.330771928155686630e-03,-9.094626413771595948e-04,1.146278738975524902e+00
5.050051047758841172e-01,-4.388192075093610978e-01,-1.266529699318906799e+00,-7.397424436995535257e-02,-2.883524664377812297e-02,1.539383766305080781e-01,1.564328670501708984e+00
3.587063188270584457e-01,-8.016289880626094044e-01,-7.419709451007354684e-01,2.325832953749397500e-03,7.483311851158946579e-03,2.017190869915409758e-05,1.131767630577087402e+00
3.666929639372520366e-01,-7.458122743285340306e-01,-8.149286398245073615e-01,5.190309687850340643e-03,-2.484938973587905078e-03,5.145758844683255041e-03,1.148701906204223633e+00
3.008574279652008188e-01,-7.617415451932278980e-01,-7.768713918638756599e-01,1.290705840498121426e-02,-9.194245823459911565e-04,9.826720852529300678e-05,1.070478796958923340e+00
4.035205039564078167e-01,-7.764084710640294373e-01,-8.060366694921834441e-01,-1.719439604994171464e-02,-4.958119243329950354e-02,2.016714545234679912e-01,1.248337030410766602e+00
3.216195162423747256e-01,-8.751785523797865896e-01,-5.375801400950313003e-01,-7.306945644156384936e-03,-6.218706522583324764e-04,-1.459690022571476925e-02,1.069140672683715820e+00
3.549842677389982715e-01,-8.197494058152772212e-01,-6.883801286725800272e-01,8.345878974158855296e-03,-8.472635200926557572e-03,5.157286928469276797e-03,1.115095138549804688e+00
3.627472502054209236e-01,-7.746286793397314518e-01,-7.965612964664929851e-01,1.068744819006371347e-03,-7.296462054084029876e-04,-1.327628621717263143e-03,1.148503780364990234e+00
3.574352282039680584e-01,-7.635539353456552991e-01,-7.902889917528193031e-01,-7.224491435617189442e-03,5.334364535859175034e-03,7.194441086990411335e-05,1.134699583053588867e+00
3.611001716151042151e-01,-7.761319092045155799e-01,-7.893237452640453622e-01,3.994858947259683456e-03,5.251637704144294927e-03,-2.614925159121219930e-04,1.143942236900329590e+00
3.542954510372003374e-01,-7.757112948768976057e-01,-7.868161330151148825e-01,-3.194103390774897903e-03,1.073315289473777230e-03,6.687529832261162981e-04,1.135615468025207520e+00
2.957515914214509656e-01,-7.670547737917436937e-01,-7.705766000226943468e-01,1.540292270808475347e-02,2.340165810213145660e-03,1.850338226502376299e-03,1.064918398857116699e+00
2.979475584678920597e-01,-7.714214496087099526e-01,-7.702068590840561724e-01,-7.846701867976963937e-03,5.650762920516839115e-03,5.687873247645950162e-03,1.068938851356506348e+00
3.255054208421532258e-01,-7.793629680861804410e-01,-7.728903961524538069e-01,5.865393361665192581e-03,-1.017448469824577297e-02,-3.273406517073224054e-03,1.101848721504211426e+00
3.695061181019406726e-01,-8.434971996996805110e-01,-6.998616319662381846e-01,-1.323847255170891579e-02,-1.293363270540206188e-02,-3.970176117243182784e-03,1.148413181304931641e+00
3.618862394665393611e-01,-7.943696754906086621e-01,-7.717874885296177601e-01,-2.037767265137690673e-03,-3.951040765597372238e-03,3.051514683485694328e-04,1.145157814025878906e+00
3.542122930614672316e-01,-7.762774391052607026e-01,-7.860212424612499360e-01,-3.287480225506385443e-03,9.355048767601726895e-04,5.384622050059538045e-04,1.135408759117126465e+00
3.324834295473820811e-01,-8.246975458838239348e-01,-6.174020587108727254e-01,-6.081443111363714002e-03,-8.845577081543241210e-03,-1.309403959327153436e-02,1.069121599197387695e+00
3.571360333376159546e-01,-7.481212419636716904e-01,-7.673145353699848403e-01,1.165096891503043103e-02,-8.091244357384626273e-03,-1.573973214722284089e-02,1.115581631660461426e+00
3.188540399790150137e-01,-5.194985287792990292e-01,-8.658449561008181306e-01,9.611229729843193473e-03,-8.257641824530908420e-03,-6.727874858740801045e-02,1.061702489852905273e+00
3.607837266048062319e-01,-7.789439605027042024e-01,-7.817026763931347322e-01,-3.736351690468933499e-03,4.477053112741481017e-03,2.362131572325397964e-03,1.141161561012268066e+00
3.471462178963507506e-01,-4.597673565370403725e-01,-8.369932274986271459e-01,1.776279476722490355e-02,-8.705623918761673519e-03,-3.184015980719364092e-01,1.184529542922973633e+00
3.336276911497633169e-01,-7.450873987530675091e-01,-7.243085502445262280e-01,-9.438130707822334903e-03,-9.791510740966762679e-05,8.570732306105272003e-05,1.068602323532104492e+00
1.721682848566813973e-01,-8.661800733849007727e-01,-7.467535238054172630e-01,-7.169480907692275806e-02,7.596975855504005393e-02,-1.622903774177807124e-01,1.039313673973083496e+00
3.782011459339463255e-01,-3.282093983842655494e-01,-1.074535178959753479e+00,3.300279083793967311e-02,7.303746820999303113e-02,-6.303532727560692828e-02,1.270599007606506348e+00
3.680609598959139195e-01,-7.701664807088405285e-01,-7.719103415212957842e-01,1.310793261009512815e-03,4.503795213199933943e-03,7.035215118896802225e-05,1.139129400253295898e+00
3.565754005936574988e-01,-7.853299750684468172e-01,-7.303407064295774909e-01,-1.456563738895323180e-02,-4.131318553124942693e-03,-2.876105849979184153e-03,1.115747094154357910e+00
3.163078640881226700e-01,-7.430677532370022487e-01,-6.907302431526934905e-01,9.280806689806201043e-04,-8.363390076400702882e-04,-1.079733914500726616e-02,1.034371972084045410e+00
3.282179576028330659e-01,-7.431254080542027962e-01,-7.107317788875301412e-01,-9.073507479474537951e-03,-2.631889860022569323e-03,-6.323402439086800442e-03,1.055703043937683105e+00
3.957725854511179309e-01,-5.811287430100640083e-01,-9.463531288046251877e-01,1.836348558937704600e-02,2.358656993491338102e-02,-2.343885579023220755e-01,1.269648671150207520e+00
3.608798579682566121e-01,-7.538426769799613236e-01,-7.721609107193045940e-01,-7.621244729181178221e-03,9.794533410537160922e-03,-5.012759293383133204e-03,1.124232649803161621e+00
3.522922562988100581e-01,-7.701362842464003489e-01,-7.368903695648465479e-01,-1.437328527577534480e-02,-4.504986411070442112e-04,1.520591366537153016e-03,1.106463909149169922e+00
3.276120680922562367e-01,-6.265180251576066839e-01,-8.118029709744194466e-01,8.250650357111161820e-03,7.895121383657244599e-03,-8.402148911636611595e-02,1.069135546684265137e+00
3.703787597782800534e-01,-7.762852122699972490e-01,-7.800416060075574531e-01,-1.243823004881879860e-03,4.622082193497903044e-03,1.493754998198038898e-03,1.148579597473144531e+00
4.363104086438904794e-01,-5.824200955687172110e-01,-8.811660662052671622e-01,-1.255139969681625875e-02,1.666193270236938223e-02,-1.578876504462782548e-01,1.227800369262695312e+00
4.258847453163677188e-01,-4.483852784264050206e-01,-1.025710901912883166e+00,-2.828125340054755271e-02,1.519218045795324087e-02,-1.078790820691498814e-01,1.280779838562011719e+00
3.676579886791888074e-01,-7.758920772615849337e-01,-7.802483171235052861e-01,-1.686257773945308916e-03,3.671075194459446581e-03,-4.863143781443672793e-04,1.145756125450134277e+00
3.498152524467821323e-01,-7.552430376250371946e-01,-7.421928595614508684e-01,1.568906412289057875e-02,-1.076845089913668193e-03,5.821952743344059947e-03,1.098975181579589844e+00
3.725637585857778378e-01,-7.782725693297608549e-01,-7.731678979931513318e-01,4.605591003574375196e-03,-4.469686718704615085e-04,-5.564235584376023757e-04,1.148320913314819336e+00
3.532455761576741571e-01,-7.699720994330949697e-01,-7.408418994118217693e-01,6.074178591794017826e-03,-1.035040285091321085e-03,6.252478573171725042e-03,1.109043836593627930e+00
5.515842505979151600e-01,-1.115552250616706154e+00,-5.666339630270820216e-01,-4.607506609572641076e-02,-5.628604712662466092e-02,-3.893994788673783569e-01,1.623669505119323730e+00
3.676346508177701922e-01,-7.788647658093551529e-01,-7.822669488247813163e-01,-2.563525007552140862e-03,-1.520817394528268173e-03,-1.972038283374756562e-03,1.148221015930175781e+00
3.423856183934429476e-01,-7.729448809124868092e-01,-7.787329340276274436e-01,-1.129914274154758536e-02,4.852916820744890107e-03,-2.204787875775569893e-04,1.118438601493835449e+00
2.662376959076345195e-01,-7.658759576330842478e-01,-7.725173448774902418e-01,-2.468058952784667973e-03,3.143293942878823757e-03,-1.917179921343065184e-03,1.035478830337524414e+00
3.408259684649599386e-01,-8.367605996085645259e-01,-8.076963206943930107e-01,-5.575455670193919452e-03,-3.461864751690673508e-03,-5.698473482178292859e-02,1.167561650276184082e+00
2.397522728365107936e-01,-7.588088365595252460e-01,-7.421145234849214622e-01,4.830956516358850955e-02,2.464171444602067645e-03,-1.265755003993868366e-01,1.017750620841979980e+00
1.921385347482245654e-01,-7.126502625156569959e-01,-7.865136480105546779e-01,-7.796485357306093267e-02,-5.884562683199124483e-02,-2.390830629222399639e-01,1.044526457786560059e+00
3.657060314064146667e-01,-7.853198841139952258e-01,-7.754504487834585902e-01,3.913827677192760132e-03,-2.068944896889939565e-03,-2.824383637439850225e-03,1.146159172058105469e+00
3.584828416727831590e-01,-1.032480516032182383e+00,-5.698816323714241960e-01,1.194228718535220168e-02,-1.688184053955951378e-02,-3.343828142624042932e-01,1.357216715812683105e+00
3.498253593001325323e-01,-7.853874902704909289e-01,-7.712149380063240134e-01,-1.201291493549105222e-02,-5.895152921156685509e-03,4.698854251989203622e-04,1.128431677818298340e+00
3.688043904521859928e-01,-7.839821791745922308e-01,-7.793658231548217241e-01,4.508466589469923430e-03,2.883159338933173783e-03,-6.084478869271457918e-04,1.150523185729980469e+00
1.960313741414762556e-01,-8.063411432294447234e-01,-5.551374327312390555e-01,5.364614284092752289e-02,-3.870849015865383130e-02,-2.372585817325237045e-01,9.990285038948059082e-01
1.917626136710693929e-01,-7.508004674672466017e-01,-7.476514893649908178e-01,-5.478563704183358855e-03,-1.541119613066295468e-02,4.763675557279834459e-03,9.414550662040710449e-01
3.405934421071972751e-01,-7.830742752981623145e-01,-7.822058780683673884e-01,4.144586000387543421e-04,-4.250784902442520524e-03,-2.521035792084691703e-03,1.123266577720642090e+00
3.210177230868619391e-01,-8.539774546146857714e-01,-5.425179631046057604e-01,6.745929888331773927e-03,-6.952759888577728737e-04,4.151359685898506346e-02,1.056865811347961426e+00
3.670440232462668373e-01,-7.540538739880975339e-01,-8.125774885782057755e-01,-7.421985591038753396e-03,-3.692519894242819994e-03,-4.729881882841699935e-03,1.151594281196594238e+00
3.691321325267271081e-01,-7.825098826814335107e-01,-7.669962934560241585e-01,-6.386494538454978026e-03,-2.408777183963862773e-03,-2.463579058566679422e-04,1.144025325775146484e+00
4.311353961578680005e-01,-6.323996735274808323e-01,-8.966698136594111190e-01,5.695155744033719020e-02,3.713532139340990079e-02,1.911592170320675077e-01,1.267082929611206055e+00
3.564727258671397392e-01,-8.071094313247402230e-01,-7.003124543445273797e-01,-7.526334906032507675e-03,-9.795989485460229046e-03,-7.715311163717028520e-03,1.114315152168273926e+00
3.645851480078973750e-01,-7.796879825985563173e-01,-7.755506302367491944e-01,-7.320761960287748256e-04,-9.871877788065761342e-04,-2.901406425618948976e-04,1.142212152481079102e+00
3.606665502615389318e-01,-7.716593807198155464e-01,-7.536083628123257938e-01,-1.015005034188978458e-02,7.160086781289147495e-03,-4.425023827768501464e-03,1.123641371726989746e+00
3.592638783260331259e-01,-7.694719090804518213e-01,-7.531717962915016606e-01,-9.196985045263781841e-03,8.000451326601754759e-03,-3.259122725020780105e-03,1.120887756347656250e+00
3.458454287403661120e-01,-7.722260459718872649e-01,-7.771846414285068505e-01,-5.815968481027989495e-03,-1.125393479473941376e-03,-8.288768923898201719e-05,1.120605945587158203e+00
3.671937390366978304e-01,-7.771665613985231369e-01,-7.799726658191776796e-01,-1.474164664596597566e-04,-4.879687813143538462e-04,3.094643112299692769e-04,1.145766377449035645e+00
3.627534216807855039e-01,-8.179118091094077503e-01,-7.021415955639800366e-01,2.900405612502424645e-03,-1.291487973504074245e-02,-4.722023762528233803e-03,1.127510428428649902e+00
3.692543622482500898e-01,-7.716495609408242640e-01,-7.779096330007996274e-01,2.156317835861845927e-03,-1.651460244482549650e-03,-7.208551595550457798e-04,1.144057154655456543e+00
3.442329876244987763e-01,-7.722147527680081058e-01,-7.810550542746031999e-01,-3.358564147144257363e-03,-6.370263421095819813e-03,2.277954289487927556e-03,1.120970368385314941e+00
3.719791299746359470e-01,-7.797245252379312319e-01,-7.773894890961716708e-01,3.165130384574272541e-03,-2.164245329666270815e-03,1.586858063686716943e-03,1.150560379028320312e+00
3.722743145783032337e-01,-7.772027457570211961e-01,-7.849462180229698216e-01,-2.963995368838584325e-03,-4.507860083426994298e-03,6.473426237065178258e-04,1.153406739234924316e+00
3.650854424284269983e-01,-7.757359913657109196e-01,-7.830861709586959263e-01,-1.841836196579652420e-03,-7.046597608390532761e-04,7.024241529535330810e-04,1.144519925117492676e+00
3.409124527659193049e-01,-7.448409916877196668e-01,-7.379616517739543413e-01,-6.377893516148012282e-03,5.840580496866571922e-03,-2.742211165815117320e-03,1.082444190979003906e+00
3.611548825586033962e-01,-7.714305520871308497e-01,-7.973128318701890871e-01,-6.215684570687062026e-04,-1.266603073516106304e-05,1.619446934099891050e-03,1.145749807357788086e+00
3.715679913991061789e-01,-7.733519230429508617e-01,-7.744516723835168648e-01,-1.593217464237326820e-03,1.336118906285690229e-03,-7.261469953817904430e-04,1.145476579666137695e+00
3.638202572833102444e-01,-7.923755588836607355e-01,-7.378946464709387199e-01,9.572500130310687000e-03,6.862083901057880811e-03,-1.224100912915832180e-02,1.130323886871337891e+00
1.141953170593230094e-01,-7.464173172752553986e-01,-7.359363176227783354e-01,2.309604807381339039e-02,-2.032153856481910825e-02,3.962942156583517533e-02,8.598223924636840820e-01
3.988207945061695847e-01,-8.155354342619116625e-01,-8.601339627966615442e-01,-4.719000519075045724e-02,1.627507618686114535e-03,8.539307714381895453e-02,1.248748660087585449e+00
3.775480290510627168e-01,-8.167856775818109760e-01,-8.266316970094873540e-01,-4.159695220661539100e-02,-1.248511360731325084e-02,8.630017037369178134e-02,1.210905075073242188e+00
3.584848673257952645e-01,-7.571460002235139708e-01,-7.606723458362755208e-01,8.198194260897531671e-03,8.199257196867860281e-03,2.506101813484987000e-03,1.117587089538574219e+00
2.714724392076285908e-01,-7.548519693275614895e-01,-7.682998023734475268e-01,-1.455177264069076361e-02,9.423489178380383552e-03,5.985867352608396035e-05,1.033550262451171875e+00
3.608152167025606705e-01,-7.859586259184314638e-01,-7.768236949520542778e-01,4.577657766172606862e-03,-3.770520138661569067e-03,2.106611031105052115e-03,1.142285823822021484e+00
3.704006325396247412e-01,-7.738527965311980950e-01,-7.728438067383774923e-01,3.455835452621304569e-03,3.721791876316451163e-03,3.079382355212491556e-04,1.143783211708068848e+00
2.841454034482334690e-01,-7.680606863204847423e-01,-7.687567656458980103e-01,8.045912389952711297e-03,-1.471012008589007991e-02,-1.576714564757253660e-03,1.052958369255065918e+00
3.449057386472611508e-01,-6.740765364499873291e-01,-7.936059609340412324e-01,3.252726600602669216e-02,2.088068618170064658e-02,2.223577307143558696e-02,1.086451053619384766e+00
3.478722390010816068e-01,-1.184008120524702834e+00,-4.758951149426370320e-01,1.565752863261162756e-03,-1.073062072624534763e-01,-2.237294750257851905e-01,1.395726680755615234e+00
3.672080780178276216e-01,-7.842348298742166657e-01,-7.746826314460404372e-01,2.285776982445976348e-03,-1.545378853368015388e-03,-6.233626649416065769e-04,1.146707057952880859e+00
2.422302497592082604e-01,-7.568960300431015753e-01,-7.691073926977685105e-01,9.942479930089488660e-03,3.111365311360468275e-03,-7.764255237791025006e-03,1.005539417266845703e+00
3.692456463235136987e-01,-7.821637705228577930e-01,-7.731250764580503976e-01,2.584565246128527321e-03,-3.223105088429107008e-04,-3.642846761058566359e-03,1.146942973136901855e+00
2.992840096066941014e-01,-6.829758522619012728e-01,-8.559415530052922882e-01,1.733109563778643600e-02,6.854432698051425576e-02,-1.214531326225934058e-02,1.086318254470825195e+00
3.459469851256256612e-01,-7.190109268936895059e-01,-7.684258395589225188e-01,-6.031163413953577988e-03,1.266979466803515308e-02,-7.647899439942358255e-03,1.090856671333312988e+00
3.499340698206314659e-01,-7.311780684784801032e-01,-7.669080581386966688e-01,4.469876299845527978e-03,1.123516390765444406e-02,-9.966158252013119709e-03,1.099747657775878906e+00
3.456489857627662587e-01,-7.514887186455899704e-01,-7.973669020642565330e-01,2.918859764070990282e-03,-7.244778859113379724e-03,-4.243448100367728376e-03,1.120887041091918945e+00
3.565013862504401443e-01,-7.556596818474152766e-01,-7.580185895561469822e-01,-5.104682547464273711e-03,3.903579159445420745e-03,-7.100430188963887529e-03,1.113465905189514160e+00
3.520233538573455667e-01,-7.393134466433364249e-01,-7.668394492981565058e-01,-7.932937064113104730e-03,7.312102730565549040e-03,-1.250880819784074872e-02,1.105727076530456543e+00
3.628330039446689415e-01,-7.714625227687168518e-01,-7.631989661373519418e-01,-7.319526672477334912e-03,8.919476130417432896e-03,-1.685887988679132463e-02,1.130740165710449219e+00
3.678913789373283172e-01,-8.120688308136018163e-01,-7.520984061767168605e-01,-6.341507418090039719e-03,-8.884221742717622952e-03,-4.777792817406812699e-03,1.151332139968872070e+00
3.367283859613913188e-01,-6.963966073054349559e-01,-4.931100688203966520e-01,-1.091455393366252101e-02,8.276793723337205408e-03,-4.271285240574391184e-01,1.202718377113342285e+00
3.385655689668071733e-01,-7.869068077506038428e-01,-7.151246158275346154e-01,-2.337694998570872054e-02,1.877226746526579684e-02,-2.951125001430179168e-02,1.093783020973205566e+00
3.265274049045371885e-01,-7.518038120057883855e-01,-6.921338521803772625e-01,1.038281818909970317e-02,-2.927402835516321883e-03,1.479640718226576945e-02,1.050247907638549805e+00
3.810906316880901534e-01,-8.195445869901716307e-01,-7.407048807360435694e-01,6.894402984852065347e-03,1.139407145878511413e-01,-4.676299242426081859e-01,1.431155562400817871e+00
3.559041319683012849e-01,-7.806445073352417108e-01,-7.825053400476460475e-01,-9.099420264678657888e-03,1.219661656522958229e-02,2.917983056423822073e-03,1.137796759605407715e+00
3.664551894544050836e-01,-7.604095356689097862e-01,-7.304989060071065410e-01,-1.989248581351498249e-02,7.843069987667875692e-03,-9.647918220448788162e-02,1.125304341316223145e+00
3.655022239450711474e-01,-7.976126772087082095e-01,-7.470531965636223459e-01,1.102428403335714222e-02,-3.592674011233806981e-03,5.980808580559928041e-03,1.138901472091674805e+00
2.520820139063918441e-01,-6.558762338213344201e-01,-8.487491200057974972e-01,6.898168431624432037e-03,-1.152217012937263758e-02,-2.915098052305975518e-02,1.019705414772033691e+00
3.634515901527493043e-01,-7.977863180373419016e-01,-7.506786049557427898e-01,8.232013911194798264e-03,-9.260928257601868524e-03,8.040879106153221755e-04,1.138618469238281250e+00
2.662161752595073039e-01,-6.551040776284167144e-01,-6.650554022191690340e-01,-6.931457549685873798e-02,1.701783213524404523e-02,-3.150831713828581848e-01,1.082225918769836426e+00
3.510778152614887904e-01,-8.223208675606550333e-01,-6.249292456291744013e-01,-1.167698667025108585e-02,1.297818899257508277e-02,-1.114687709837128421e-01,1.105621576309204102e+00
3.238681767097736364e-01,-5.883876541734762711e-01,-8.100287844189837383e-01,-1.238353189311200246e-02,-7.852619520114898985e-03,5.357818958868905412e-02,1.045364022254943848e+00
3.597908689050391962e-01,-7.891141845904303675e-01,-7.752879125461445975e-01,-5.542556428715271315e-03,-1.282602149794172600e-03,-4.325497551570607933e-05,1.142097234725952148e+00
1.631699366089973680e-01,-7.456760121326193591e-01,-7.443823245161389490e-01,-3.032215046767479383e-02,3.989405496330879208e-02,-6.152977880343013344e-04,9.123381376266479492e-01
3.456664289908688015e-01,-7.516439817085148745e-01,-7.398204976045601455e-01,-5.857560459317446427e-03,-7.019547744550901948e-03,8.183427495177844971e-03,1.091653585433959961e+00
3.175289630092070770e-01,-6.900847427436687109e-01,-7.401403649826129305e-01,-4.007537579278461388e-03,-2.401159919646381549e-03,6.460716216913238441e-02,1.039622783660888672e+00
3.324460664580781155e-01,-6.436541028327473768e-01,-7.982532894279918967e-01,-1.714591796562889335e-03,-1.669236581777694406e-02,3.257446477917639704e-03,1.062286853790283203e+00
3.233546355552686657e-01,-7.263259279868565788e-01,-7.219534977441736112e-01,-6.119595543256649978e-03,-4.955467049857303040e-03,2.294942963634391195e-02,1.048343777656555176e+00
3.320455768519779971e-01,-7.249770695898818396e-01,-7.404262121304310273e-01,4.178559529352030943e-04,-7.928687101411738616e-03,8.678933459504439493e-03,1.065026164054870605e+00
3.747169455539759442e-01,-7.784416331675436673e-01,-7.792264397825005018e-01,-2.043496821816429259e-03,-1.763745300223918582e-03,-3.632899775476249168e-04,1.153560876846313477e+00
3.739217831745195175e-01,-7.786806285817612361e-01,-7.762648173970143617e-01,-2.593866901444548574e-03,1.306346800805790608e-04,-8.648682559183996183e-04,1.151406168937683105e+00
3.530445552088558037e-01,-7.842948979870194570e-01,-7.742550749069947447e-01,-3.101875049487036462e-03,-3.378948873906576552e-03,1.170281930027662533e-03,1.132382631301879883e+00
3.591040103110968440e-01,-7.833792508055841264e-01,-7.434133634526409740e-01,-1.190084252605384113e-02,1.011281604420367908e-02,-5.465092939729124764e-03,1.123399376869201660e+00
3.605739562183112867e-01,-7.620493587161414339e-01,-7.597686766153541882e-01,-2.803151670144905100e-03,-5.340856867859579936e-03,1.161170990016095143e-03,1.121535181999206543e+00
3.604928325379253007e-01,-7.597133291415634204e-01,-7.617846006790254254e-01,-3.830364397805591584e-03,-4.390302876988372120e-03,1.019737123640503595e-03,1.121290087699890137e+00
3.617798387069338095e-01,-7.591110839836883173e-01,-7.659030026864139806e-01,-2.141142145256900650e-03,-9.964647730378198114e-04,3.059659428880886806e-04,1.124309778213500977e+00
3.650127507430839802e-01,-7.594491631288688982e-01,-7.756071291032566872e-01,2.937742754467966965e-03,-4.795485444302110233e-03,1.573796862766895822e-03,1.132672548294067383e+00
3.464019949089713890e-01,-7.727938565678497129e-01,-7.861842998442283292e-01,1.039306848446439058e-02,-5.015082384913783489e-04,-4.549263720637736447e-04,1.126095294952392578e+00
3.743801943933796617e-01,-7.768904469690927073e-01,-7.789665536395189438e-01,-4.090149798051010105e-04,2.806002269693540219e-03,1.539260593602767178e-03,1.152323603630065918e+00
3.678357339065972953e-01,-7.708708039766255515e-01,-7.701005474318172173e-01,-4.580698284916423155e-03,-1.318014081529560828e-03,5.152192278457853446e-04,1.138351917266845703e+00
3.750370917372038426e-01,-7.762658005139762007e-01,-7.784376912689308092e-01,8.723566007840151144e-04,1.429155518357574761e-07,8.448128333893665382e-04,1.152392268180847168e+00
3.668860688134844006e-01,-7.689534008454671499e-01,-7.693857316770411625e-01,-3.337208511293751623e-03,-9.191333596837203185e-05,2.003537568375164755e-03,1.136075735092163086e+00
3.708849803207192042e-01,-7.704418654264435506e-01,-7.840125424883751526e-01,-7.572984712313646921e-03,-8.789133078748477546e-03,-1.810437495343858840e-03,1.148352503776550293e+00
3.567614691720209508e-01,-7.951692934724667872e-01,-7.726896142075095897e-01,-7.603628308154529100e-03,1.005226450140587688e-02,5.498993018842018854e-03,1.141105651855468750e+00
3.650713518396889734e-01,-7.834874863195228079e-01,-7.812506847677845867e-01,-3.690939521636933587e-03,-7.458328310808140689e-03,-3.378733503508630272e-03,1.147547483444213867e+00
2.833070910457516356e-01,-7.631304713031106246e-01,-7.733438418383484780e-01,2.095921282436943173e-02,2.298299693643266264e-02,-4.379218396622251361e-03,1.052987933158874512e+00
3.736029431188914729e-01,-7.797739973935986502e-01,-7.812118764904837365e-01,-2.979147154833813437e-03,-3.600873890322668115e-03,-8.637960504737623307e-04,1.154125928878784180e+00
3.709249658453777632e-01,-5.254279125224886604e-01,-8.961861780825552959e-01,3.606377903010393737e-02,1.489876367660316996e-02,-2.290186323890815515e-02,1.131097555160522461e+00
2.855041275024076119e-01,-7.208581346617610741e-01,-7.916063116193641225e-01,1.029284654053947562e-02,4.835836068039499856e-03,-7.061352260473310362e-03,1.043794155120849609e+00
3.584719091782334610e-01,-7.881847952331044738e-01,-7.781520258436522841e-01,-2.707394189552201095e-04,2.044974086527720069e-03,-6.169757550442641660e-04,1.141679525375366211e+00
3.670028370025811837e-01,-7.771071549096837394e-01,-7.719969109955582276e-01,1.944511634220856501e-03,-6.640645045408421739e-04,-7.221541015540721429e-04,1.141569733619689941e+00
3.725397529893606507e-01,-7.811298668625684671e-01,-7.727444814467523404e-01,2.701863489423400339e-03,-2.846529003962796657e-03,6.738373374019731611e-04,1.149520516395568848e+00
3.709407931062814745e-01,-7.735316456935497076e-01,-7.759416225669457656e-01,1.772148495704247047e-03,-2.119009453072281664e-04,-4.569036958131004285e-04,1.145683765411376953e+00
4.061740310794691444e-01,-4.733737351984586561e-01,-9.391153630454278645e-01,-5.656150568566380848e-02,-2.115424305905179436e-02,-2.956607887295916934e-02,1.189001321792602539e+00
3.596265742060689163e-01,-7.718775288509698296e-01,-7.942576274023886995e-01,-3.677080943606396684e-03,-1.831083390164448552e-03,-2.828990441364295132e-04,1.142880797386169434e+00
3.694004834945660010e-01,-7.799008336254523721e-01,-7.775379472906727152e-01,3.514781544600775742e-03,-3.721004792593891647e-04,-1.464136772367757855e-03,1.148140788078308105e+00
3.405884730391995352e-01,-5.051037414498218414e-01,-9.101187864303277308e-01,-3.297640250557211383e-02,-2.198846122717366990e-04,-3.526322696761730741e-02,1.108487010002136230e+00
3.613202598739405080e-01,-7.937469067293927427e-01,-7.749686368431424333e-01,-2.181517206909636998e-04,-3.973537293319569230e-03,-1.142214217564938190e-03,1.145815849304199219e+00
2.910735706381605836e-01,-1.956141383865797889e-01,-1.027240542610448948e+00,6.036686448579766523e-02,-2.818023768750952448e-03,-6.795053238140647510e-03,1.159441471099853516e+00
2.477887947197568441e-01,-2.431447925213418015e-01,-1.000910955036388827e+00,-4.060576333471081767e-02,1.426919263184256610e-02,5.188139006825856492e-02,1.095842361450195312e+00
3.598309211353549752e-01,-7.884799193931752992e-01,-7.749076872766075263e-01,-2.590382589839108560e-03,-4.506179864997844967e-03,-6.041459352492936424e-04,1.141621232032775879e+00
3.116421851009732458e-01,-4.022645331317583617e-01,-9.506751490773672764e-01,-1.040312869461298834e-01,5.903479481966440734e-02,-1.361511645910133128e-01,1.140379428863525391e+00
3.574321177725837129e-01,-7.476164241861850135e-01,-8.903167112136831651e-01,-2.490224327488922001e-02,4.465376608037398276e-03,-8.295016293203688607e-02,1.192371010780334473e+00
3.581946213554799141e-01,-7.850008013782061589e-01,-7.758524193292424265e-01,-3.033013092648519701e-03,2.289287656269616000e-03,4.594220675828262915e-04,1.138668060302734375e+00
3.598736253484333680e-01,-7.880578265185704812e-01,-7.754635754786922686e-01,3.467105047634407109e-03,-3.982082081233919400e-03,-1.287941283919015164e-03,1.141725182533264160e+00
2.972369192779070191e-01,-1.013260957198609535e+00,-1.629137398676209214e-01,2.443730848672043092e-03,-3.233227662382267414e-02,-1.088652724102266711e-01,1.168257594108581543e+00
4.173611531280152498e-02,-5.514287712428681543e-01,-8.574771527949256456e-01,-3.078136068095785327e-02,-5.471474916908122821e-02,-5.711999619646233872e-02,8.053936958312988281e-01
5.943317439937145785e-02,-6.560212553647135625e-01,-1.114980260707877591e+00,-3.034415915987722506e-02,-3.791095335179579806e-02,-1.102148007210040220e-01,1.046135067939758301e+00
3.657937694062479705e-01,-7.797617852850438069e-01,-7.792328790437597075e-01,3.566855161559582404e-03,4.250934288350696234e-03,-1.538949218369913257e-03,1.145334601402282715e+00
1.287484905529481249e-01,-5.945115644600962312e-01,-8.813027875806930256e-01,1.643476234856914298e-01,-1.427162335319700215e-01,-1.054823121760435217e-01,9.941291213035583496e-01
3.465238880703442881e-01,-7.695504092912404115e-01,-8.797286594857611775e-01,2.229990995379401569e-02,4.022015384355851278e-03,-6.327882863813388825e-02,1.180796861648559570e+00
3.679554169191128210e-01,-7.758075609900945135e-01,-7.861354120145909175e-01,-2.814530751147937236e-03,5.728467816476262575e-03,1.539851023280366634e-03,1.149018049240112305e+00
3.583155213492313362e-01,-7.886684823781993092e-01,-7.717693105945127030e-01,7.788848762190660863e-05,-3.635973584853429818e-03,-5.708936701122617387e-04,1.138646364212036133e+00
3.494452924117233961e-01,-7.827627419526250740e-01,-7.787589653928463918e-01,-3.824476105537354727e-03,4.561664378952847397e-03,2.480736103196075695e-03,1.130266666412353516e+00
3.630282732566718074e-01,-7.756464723621144808e-01,-7.792121867362731269e-01,2.375141112278514061e-03,1.026807819926309380e-03,1.169440102030029497e-04,1.140470623970031738e+00
3.627516230004547149e-01,-7.754786209660684548e-01,-7.826851396061840216e-01,1.342270393242135911e-03,4.026115891572866999e-03,1.546647824590612107e-03,1.141877412796020508e+00
3.638804520137462473e-01,-7.831982121561174015e-01,-7.751815604165950280e-01,-4.173790508424959390e-03,1.694879386440354346e-05,9.774038933363250053e-04,1.143115520477294922e+00
3.635994188685968687e-01,-7.766543507854211104e-01,-7.859459138573112735e-01,-2.444581890175818398e-03,-5.772621179338920799e-04,6.606114249394949090e-04,1.144936680793762207e+00
3.655065099697961117e-01,-7.749906454184214422e-01,-7.798754174173858633e-01,-2.190671826339560084e-03,4.562837633303318784e-03,-1.714811042621846486e-03,1.142984867095947266e+00
3.696304524564029137e-01,-7.864746308394261476e-01,-7.783882812613528435e-01,5.732721817876190902e-03,1.228787785719924301e-03,1.803434531658080868e-03,1.152132153511047363e+00
3.696527201368215443e-01,-8.021101220735666892e-01,-7.577984016101165787e-01,-7.661909124973373397e-03,-5.492440355999364011e-03,-3.046299870925095639e-03,1.150375247001647949e+00
3.547714311372097695e-01,-7.833005092782187040e-01,-7.744880700451020061e-01,-6.061607093273510983e-04,3.555124583721815459e-03,9.141391554956517385e-04,1.133709669113159180e+00
3.727673632153978289e-01,-7.774171452228176848e-01,-7.812990429676116566e-01,2.523369651487264442e-03,-4.464241546418979377e-03,9.607253746737745917e-04,1.152165770530700684e+00
3.754934984521033359e-01,-7.784809645376531417e-01,-7.787633115254507521e-01,-1.086748604831005820e-03,1.111623422907999370e-03,-3.710501913527737886e-04,1.154119014739990234e+00
3.657219513110391285e-01,-7.796658389559489866e-01,-7.758092200035575647e-01,8.102114933050859336e-03,-3.929020282693829365e-03,-1.031611316957548166e-04,1.143570780754089355e+00
3.294809330842639605e-01,-7.766836495487097203e-01,-7.739534461344909078e-01,-1.092521674042960106e-02,1.319374878632739723e-02,2.858241076146615135e-03,1.105211377143859863e+00
3.620042357709130632e-01,-7.793145923715565360e-01,-7.784537232825918807e-01,3.955851393372370947e-03,-2.324115468029010754e-04,1.803592663969404543e-03,1.140913605690002441e+00
3.473275115425963344e-01,-7.712927633861514920e-01,-7.870959040026433984e-01,-8.505611072258454156e-03,-1.856167353513706899e-04,5.129204298345053795e-04,1.126701712608337402e+00
3.562509011226057676e-01,-7.610795924344866403e-01,-7.948948432839146871e-01,8.199839394642659263e-03,1.286687720826451596e-03,-4.941344686184191573e-04,1.134707450866699219e+00
3.581071855887769106e-01,-7.761647488198923917e-01,-7.889730778236058173e-01,2.878156704283967721e-03,-5.987867883213881170e-04,-3.029313691670447971e-04,1.140741467475891113e+00
3.592446823595471517e-01,-7.744547482258272719e-01,-7.900325916007064908e-01,7.874457219687817488e-04,3.559394909608416921e-04,-1.989881773316662210e-03,1.141574263572692871e+00
3.707348951773344337e-01,-7.803022515854836083e-01,-7.769971225940193182e-01,3.653520572782068248e-03,2.614559463965319963e-03,-1.080313651601641197e-03,1.149415969848632812e+00
3.648108627164061146e-01,-7.849049530581895251e-01,-7.782627827139874110e-01,1.665626542092420656e-05,1.805721754648120184e-03,-1.981837293091429780e-03,1.146418571472167969e+00
3.696783648335964512e-01,-7.682625605262041191e-01,-7.780134348599337946e-01,-1.365399857919444954e-04,4.238178941779217543e-03,4.838705227026355291e-04,1.142871499061584473e+00
3.018068385016490773e-01,-1.049124596137190890e+00,-3.079010570876272723e-01,-3.150575103214894868e-02,-6.305590170019079177e-02,1.196561006864358817e-01,1.196220993995666504e+00
5.429821897588292812e-01,-1.113698814093912137e+00,-3.309369171734763970e-01,-3.089652183744699167e-03,4.101910649488613864e-02,1.239357295804102699e-01,1.453161358833312988e+00
3.611067154153565495e-01,-7.922540719896028483e-01,-7.509403781032424341e-01,8.438611543218222516e-03,-1.120662385661936288e-02,-2.764829911957138609e-03,1.133539438247680664e+00
3.505783556652529720e-01,-9.555064764037100034e-01,-4.582589171678556061e-01,-1.974906779093118375e-02,-1.184461169914294114e-02,1.424393837446852155e-02,1.142744421958923340e+00
3.569986315650708897e-01,-7.813892180377657315e-01,-7.784882471966426687e-01,6.233971989529658343e-03,6.218359260799843219e-03,-2.617628628405213598e-03,1.137051463127136230e+00
3.257365215200799247e-01,-8.839017715302239786e-01,-4.758574548902717583e-01,-6.638232396626321183e-03,-1.069118243196351230e-02,5.503680783240021829e-02,1.070374369621276855e+00
3.399360343290467323e-01,-7.799576627228861359e-01,-7.848240159743030686e-01,-3.763339650624932062e-04,-8.784157743811505780e-04,-2.241520861870329329e-03,1.122342705726623535e+00
3.327390135644220925e-01,-7.777297129777573925e-01,-7.769748825842051065e-01,4.723530136513828760e-04,7.389869395653426987e-03,-2.449814419024511948e-03,1.110173702239990234e+00
3.698398655361225251e-01,-7.888729796695863605e-01,-7.772741077488194428e-01,4.548254100433773983e-03,-4.501929109627478970e-03,-6.034767640586856038e-04,1.153010964393615723e+00
4.512149239850140603e-01,-1.034803205074291910e+00,-4.638610504466466056e-01,-3.814989655172925428e-03,-3.610993374242575660e-02,-1.268553512421838857e-02,1.300089478492736816e+00
3.369995732228864282e-01,-7.819416566480821285e-01,-7.770934734445232861e-01,-1.955449307672411149e-03,5.584133184174363933e-03,2.085840663799508245e-03,1.116577863693237305e+00
3.651175758287133477e-01,-7.783941103429493635e-01,-7.810481325719960122e-01,1.490754711621329414e-04,3.869294917376637014e-03,1.832283713870618523e-03,1.144865036010742188e+00
3.619487120577833394e-01,-7.727626872162494109e-01,-7.926984868650597260e-01,-1.995000083867859517e-03,-6.915509173150287099e-04,-1.854148567242860338e-04,1.144815325736999512e+00
3.413408996350143498e-01,-7.241549751223176346e-01,-7.623025133743486226e-01,1.970522103065357883e-02,3.256196059027403888e-02,4.327885662051407512e-02,1.089654803276062012e+00
3.172876401785763023e-01,-7.766511951008747694e-01,-7.750588332572656558e-01,6.841344940474251499e-03,8.170601716349810625e-03,-7.417410579758441924e-03,1.093374848365783691e+00
1.359565151370304426e-01,-7.403647563238884288e-01,-7.383883994237114834e-01,-3.374218820193603148e-03,1.594026992488497413e-02,5.012895096956778394e-03,8.758326172828674316e-01
3.632480893991703041e-01,-7.869531689689990284e-01,-7.794920768897133367e-01,4.325592836049428971e-03,2.283607692069067850e-03,-3.986551866334796506e-04,1.146520376205444336e+00
3.137323645944696260e-01,-3.746251629482756362e-01,-8.382372106926606614e-01,8.680853298917177996e-03,-1.304179740251222921e-02,3.371742747635512738e-01,1.161765456199645996e+00
3.181000320861103736e-01,-7.769607668422966462e-01,-7.770273631026339833e-01,6.836207414671659384e-03,8.215437586684566293e-03,-6.106175376883312897e-03,1.095301628112792969e+00
3.543117003082730254e-01,-7.886185213092182789e-01,-7.648226001385760586e-01,2.659887196690917128e-03,6.109767136436446665e-03,1.801977903977148958e-03,1.131283164024353027e+00
7.799657477251287219e-02,-7.278873291686156488e-01,-7.088895335778641060e-01,2.850706774989479608e-02,-2.060548115234462317e-03,-1.278569460362600219e-01,8.282467126846313477e-01
9.310855318475286246e-02,-8.390722643708535822e-01,-7.972654441159898742e-01,-1.201211548727943862e-01,-1.407500646125559862e-01,-1.887311233091676643e-01,1.020448327064514160e+00
3.557398895322735344e-01,-7.962373690830759632e-01,-7.632053774078564334e-01,8.862836092728952359e-04,8.841335681519185349e-03,-2.070801125813634836e-03,1.135931491851806641e+00
-1.210207538336172117e-03,-7.133546008446207676e-01,-7.392864407848136477e-01,6.019016418423496495e-02,1.452932428080993058e-03,-2.330789352827364758e-03,7.329260110855102539e-01
2.564603748957372531e-01,-1.019181473688201445e+00,-8.535261016840525183e-01,-3.025771069526606277e-03,8.899652431210927639e-02,2.386138352221493786e-01,1.279837965965270996e+00
2.049655214191994923e-01,-8.305618009444836192e-01,-8.036941669404338295e-01,5.418104225502586718e-02,-5.170387479377396012e-02,-1.865504928064234957e-02,1.031061172485351562e+00
3.508632776805472031e-01,-7.903544232758438204e-01,-7.605000949575989599e-01,-1.508263578338424164e-03,7.286266533611648367e-03,-7.822866536766322296e-04,1.126661777496337891e+00
1.432887786886964943e-01,-7.358445229144189303e-01,-9.198106933274761143e-01,-3.385590514497203302e-02,-2.715653315994987979e-02,-5.065158487675049809e-02,9.908570051193237305e-01
-1.036840052880749763e-02,-7.580011090209836100e-01,-7.338657987464078936e-01,6.668581165678780232e-02,-8.840905541527031841e-02,4.589356618083167277e-02,7.645920515060424805e-01
3.715714807815635456e-01,-7.838117597019287341e-01,-7.754847715307395806e-01,-1.643164222524525300e-04,-5.273169790844494786e-04,7.002620073297758903e-04,1.151243329048156738e+00
7.520791478252542017e-02,-7.195253539691376377e-01,-7.174806829946089870e-01,-1.681060777035469885e-03,4.555183049508934254e-03,4.572464464290782946e-03,7.937969565391540527e-01
3.495560468748140637e-01,-7.816620353032754931e-01,-7.801665688967774903e-01,-4.121164218885058593e-03,4.169134112651620358e-03,2.656283611837304080e-03,1.130526065826416016e+00
3.468150531996809782e-01,-7.865178614816632496e-01,-7.707484930809187507e-01,-1.461421584048194864e-03,-5.344448157282233151e-03,-5.903793898125501115e-04,1.125572443008422852e+00
3.160816072530134857e-01,-6.670972996038757596e-01,-7.505790253656747790e-01,-2.145505897240783649e-03,1.442201107933381403e-02,3.192614889684865231e-02,1.029263377189636230e+00
3.245308488639274680e-01,-7.514284842185862123e-01,-6.968647712491311541e-01,1.559728852946574637e-02,1.762916286088315326e-02,5.470967607463141091e-02,1.054798126220703125e+00
3.409605778065937232e-01,-7.491503173762024126e-01,-7.337352097456032451e-01,7.370520284096040292e-03,5.687157088508124417e-03,3.308778262315337487e-03,1.082620978355407715e+00
3.603191063424359131e-01,-7.897720792517477495e-01,-7.720747044466305109e-01,-5.275283531212077116e-04,-2.927706442815098363e-03,1.965817017547638167e-03,1.141362071037292480e+00
3.629949875141910698e-01,-7.795800661951777233e-01,-7.824212201130038569e-01,-2.341778346703592140e-03,1.591448570228468041e-03,4.066254765930116255e-03,1.144030451774597168e+00
3.406441459305933339e-01,-7.405193147289905742e-01,-7.420082353002310782e-01,8.047102955788192069e-03,7.530215343245001691e-03,2.100307256625766686e-03,1.082083225250244141e+00
3.481817673372035182e-01,-8.605437754766922520e-01,-6.337748238979231674e-01,-2.376537659329972310e-03,2.970246425570092358e-02,-8.109466212055015111e-03,1.114092111587524414e+00
3.668266349709626284e-01,-7.834730870214539067e-01,-7.781648113079928653e-01,-4.076921668672428903e-03,1.863634850119135974e-03,1.172811902206548568e-03,1.147682905197143555e+00
3.522361203302608601e-01,-9.152932166510968637e-01,-5.291015922222528367e-01,-4.551903024463472419e-03,-5.310273848295267440e-02,-1.806298045590799470e-02,1.129498124122619629e+00
3.154698326480008808e-01,-7.194021500384805146e-01,-7.081012851649723938e-01,3.966079871458099218e-03,4.163076077834762002e-03,1.582996569685848204e-02,1.029681324958801270e+00
3.707384491730710829e-01,-7.809605030432920092e-01,-7.760477651166395319e-01,-1.586627519961892729e-03,-1.594827298480013759e-03,1.555999973056124142e-03,1.149260282516479492e+00
3.644777265644598141e-01,-7.828572292992400650e-01,-7.823794773876521225e-01,-4.728493934091508415e-03,3.444511540277963788e-03,3.893611674282719884e-03,1.147160768508911133e+00
3.738331087856763824e-01,-7.779818256682287103e-01,-7.784351483144830164e-01,-2.677705941115983163e-04,7.181108231656586774e-04,-1.372369654012947591e-05,1.152042388916015625e+00
3.078519019934291556e-01,-4.550970696351558931e-01,-1.295506887306493216e+00,-1.422566055439301869e-01,-3.917775154911083690e-02,-2.007723620977788226e-01,1.454583644866943359e+00
3.314036063371605390e-01,-7.433566260096549083e-01,-7.228518217804527080e-01,-1.284675631064792316e-03,6.816969597524698537e-04,1.023650874239770241e-02,1.064806580543518066e+00
3.209049762681291385e-01,-7.243649846948490012e-01,-7.189457623876627235e-01,3.557720259401111595e-03,4.001804436141152138e-03,1.909762384175985907e-03,1.042617440223693848e+00
3.665260125779096212e-01,-7.683423642127040765e-01,-7.694822614829515128e-01,6.541806807359833989e-04,3.843296406155648562e-03,2.487027364814348163e-03,1.135467052459716797e+00
3.297186828442893458e-01,-7.765382987933883152e-01,-7.814768863423622314e-01,-5.790536055043812164e-03,-4.607838502051389562e-03,6.390364340022277635e-05,1.108808636665344238e+00
3.704138095237846651e-01,-7.708975206292612015e-01,-7.835475570836221149e-01,-2.672724182232305221e-03,5.386572051293927500e-03,3.845116586081600120e-04,1.147736072540283203e+00
3.745055655232522041e-01,-7.826058082467377552e-01,-7.744880014104683630e-01,7.596882269947903554e-03,6.728897098979298892e-03,-1.744834492931624133e-03,1.153211832046508789e+00
3.671490535065511929e-01,-7.780681471967173524e-01,-7.783883528469284219e-01,3.446092052236535402e-03,4.772213914278911886e-04,8.458689755739378768e-04,1.145394086837768555e+00
3.656297112174023423e-01,-7.786472182496653183e-01,-7.798948760545701964e-01,3.880033860690100533e-03,4.422980147286850218e-03,-1.796242897569702785e-03,1.144950866699218750e+00
3.701576049231450893e-01,-7.695524559274495857e-01,-7.819005232006265294e-01,3.437194955327633594e-03,1.903860555864270686e-03,-3.757181501252151935e-04,1.145954370498657227e+00
3.446057810727041204e-01,-7.288817475891609110e-01,-7.579260410007855331e-01,-9.116725087785437776e-03,1.467002920336036090e-02,-1.031589004236722375e-02,1.088858127593994141e+00
3.414783008514935547e-01,-7.480416147714287201e-01,-7.418245550969020385e-01,1.267419503132556462e-02,1.075229275219056688e-02,1.608003225993840865e-02,1.087162852287292480e+00
3.288039389376615218e-01,-7.835852786278925119e-01,-6.543379475199222473e-01,4.359804672495917570e-03,1.023726040503099462e-02,1.869255213658962966e-02,1.054400801658630371e+00
3.349213485139314606e-01,-7.531944729567404684e-01,-7.721850680264709110e-01,1.442272321261831372e-02,1.625802806846878695e-02,1.443969535136365064e-02,1.098664283752441406e+00
3.631637601820294492e-01,-8.397086499760337830e-01,-6.810494027627540525e-01,1.963888062812566351e-03,-1.533110694161884946e-02,-3.833312557930315515e-04,1.132230162620544434e+00
3.030698341228666992e-01,-7.746276083554011205e-01,-7.731105408213470032e-01,1.202979810249131358e-02,8.417778014768541317e-03,-5.112016433375833092e-03,1.077276349067687988e+00
3.699535245478031698e-01,-7.750762178837138361e-01,-7.691577661785726772e-01,5.076524931647279949e-03,-8.882374083559756075e-04,-4.696118150318503298e-03,1.142145872116088867e+00
2.933743160328441957e-01,-8.196261562978294224e-01,-7.207626040117052213e-01,-2.007884066669001974e-02,1.352154572956907989e-02,1.027121312412596077e-02,1.067981004714965820e+00
3.562502797607720595e-01,-7.834921248877102506e-01,-7.406676897711386154e-01,1.245961647087662563e-02,8.069885824529799204e-03,4.883886450801414036e-03,1.119272351264953613e+00
3.329415232406462422e-01,-7.799110631736344557e-01,-7.754161810090434148e-01,6.772972838982849707e-03,7.096165658629022613e-03,-4.574602557931389119e-03,1.110770225524902344e+00
3.575830217366986474e-01,-7.945387239184540373e-01,-7.633740864499926060e-01,5.961878823637761608e-03,6.357738065430076219e-03,2.621376223476528863e-03,1.136969089508056641e+00
3.398942262038122109e-01,-7.826287627179162598e-01,-7.741757482565059245e-01,5.102221946799068500e-03,7.637586453734910782e-03,-4.670485306720676896e-03,1.118462800979614258e+00
5.188704260940086854e-01,-3.708153870092955606e-01,-1.313491894496790380e+00,-2.237529922953620035e-02,4.868030545300194856e-02,-1.003227982789475503e-01,1.599272012710571289e+00
3.395664452442088699e-01,-7.356629860966465984e-01,-7.403693066496738195e-01,-1.436112243837770787e-02,-1.253101990517068408e-02,1.371659939811923495e-02,1.078357577323913574e+00
3.476177920308866076e-01,-7.831823221809768309e-01,-7.759572069065234778e-01,-5.324132992682109773e-03,6.445631636070840373e-03,-2.286378838342433602e-03,1.127304911613464355e+00
3.618688885962796364e-01,-7.812084809603103697e-01,-7.505077789273013611e-01,6.821804123132825005e-03,5.113002209449347794e-03,6.182360899720963773e-04,1.128137588500976562e+00
3.566800049033299058e-01,-7.618574861156088840e-01,-7.906373869930172216e-01,1.214290812238669149e-03,2.882982754563430047e-03,1.774624412063163358e-03,1.133218646049499512e+00
3.292733077925478757e-01,-8.287666625593383962e-01,-7.477606932086300340e-01,1.132199427609207124e-02,-5.295504540188820941e-02,1.854841915502885574e-01,1.168683409690856934e+00
3.380408167637049544e-01,-7.360627400407802057e-01,-7.356244066846693297e-01,-1.419750643722235937e-02,-1.269968739404212475e-02,9.483040958301958492e-03,1.074516654014587402e+00
2.944901238809316535e-01,-7.660761614479905113e-01,-7.711884611400339207e-01,-1.341412882074719676e-02,2.411552757419681194e-03,-2.435293514089546482e-04,1.063393831253051758e+00
3.306556952363216006e-01,-6.228510815885751617e-01,-8.040788406608593286e-01,-3.390312174240965593e-02,-1.905878239549072678e-02,5.125532934917709921e-02,1.061715483665466309e+00
3.571868634633365014e-01,-7.752746877784421065e-01,-7.783522639443887225e-01,-1.484729789090408474e-04,5.316142785383615177e-03,-8.947415796842737856e-04,1.134041905403137207e+00
3.284162860641022252e-01,-7.788466531288507078e-01,-7.744412792881882890e-01,2.101559097242280006e-03,-6.407499136069506884e-03,1.582372858124541336e-03,1.105131983757019043e+00
3.653816111705477931e-01,-7.995468948536184062e-01,-7.579736127785074995e-01,1.273335837965770562e-03,7.029330513917417603e-03,-1.108577308053058236e-03,1.144776701927185059e+00
3.255599246210161279e-01,-7.486359125095493061e-01,-7.855619733752892131e-01,5.840983461826806944e-03,1.082447616581213440e-03,2.555529171566754687e-03,1.093184113502502441e+00
3.434836767143032432e-01,-7.193501728315969679e-01,-7.980466040374742942e-01,1.144592893794918465e-02,9.628258051058446315e-03,4.585078133157212930e-03,1.104619503021240234e+00
3.446240161030614813e-01,-7.796906038534195948e-01,-7.868795468505174195e-01,3.593443426691057471e-03,-2.976725579992627654e-03,-2.088746747453735890e-03,1.127961039543151855e+00
3.567272895243900899e-01,-7.818515267351221487e-01,-7.772757079458638696e-01,6.198938535853312434e-03,6.112301132010715399e-03,-3.045565003078632045e-03,1.136410117149353027e+00
3.639233913222823524e-01,-7.525583427613902199e-01,-8.022727131752470653e-01,-8.648325363094568410e-03,-2.724621887717647208e-03,-7.633415736297248380e-04,1.142259359359741211e+00
2.913176209656074822e-01,-7.977582795340794064e-01,-7.708976303121430895e-01,8.650639045947915509e-03,2.273368307591844273e-02,-3.901673096541909049e-03,1.076742887496948242e+00
2.772147815243746760e-01,-8.307727629229186839e-01,-8.004089629641432113e-01,3.302467953659229266e-02,1.198181904302515616e-01,-1.084859839708924960e-02,1.114275455474853516e+00
3.195934551619783459e-01,-8.340886158804161621e-01,-5.863234993196684286e-01,3.698468116850998390e-03,-4.011336779951625749e-03,1.905524836654884716e-02,1.052476286888122559e+00
2.091827102849809217e-01,-7.510602608063109420e-01,-7.568957058484240275e-01,-2.557368077102809348e-04,4.435353113275927218e-03,1.936198252679743534e-03,9.632105231285095215e-01
2.983388021951853819e-01,-7.735138343449456944e-01,-7.670502293682053274e-01,9.347506111850943655e-03,-9.066967473883554354e-03,8.668726219009554061e-05,1.068873524665832520e+00
2.916571170360995335e-01,-7.639980787222766523e-01,-7.765454829733475783e-01,-1.363800357682508867e-02,-3.929461707628190831e-03,-1.846442156199313363e-04,1.062268972396850586e+00
3.595851913785660381e-01,-7.623072722884838281e-01,-7.996530582192925563e-01,6.071920373624223322e-03,6.008565378041245660e-04,-4.816437668166386387e-04,1.141073107719421387e+00
3.515405032943706987e-01,-7.781030582785821714e-01,-7.757874676023731597e-01,-3.853426481693607818e-03,1.690425713040601997e-03,1.417317427193967670e-03,1.128513813018798828e+00
2.966992290721299774e-01,-8.620548867650195124e-01,-7.779254849163478314e-01,1.770374610936659501e-02,-3.420648712960595861e-02,-1.811369064357945145e-04,1.121050477027893066e+00
3.564122809638191614e-01,-7.768204973685213233e-01,-7.774519051583146378e-01,-1.058593802444794891e-03,3.852803949674942548e-04,7.299606127590650435e-04,1.133551001548767090e+00
3.634646678005179488e-01,-7.823830747951413533e-01,-7.800651006967024292e-01,-4.908460792359718543e-03,4.131647837469769324e-03,2.303888710169474472e-03,1.144751429557800293e+00
3.652622949699340094e-01,-7.839593019346089431e-01,-7.639093940765983026e-01,-9.374705002972067575e-03,-3.437413301855314456e-03,1.599079974420283714e-04,1.139460206031799316e+00
3.673717192110612650e-01,-7.919182534656667993e-01,-7.617455565345585544e-01,-6.875010405825125216e-03,-4.709136223425656499e-03,4.915772653696621032e-04,1.144593238830566406e+00
3.285500529587256358e-01,-7.752803358842133008e-01,-7.750765091007638663e-01,-7.758161040182671823e-03,6.481545564674833816e-03,3.718753139263823986e-03,1.103886127471923828e+00
3.432423500184814125e-01,-7.651287114749306673e-01,-7.194307791624408033e-01,-1.647558836368008192e-02,1.965920835878517958e-02,-1.988779879729856565e-02,1.087697029113769531e+00
1.926088255154297935e-01,-7.580730460318282349e-01,-7.483985215608535135e-01,-1.509581763882984068e-02,6.468686295830908782e-03,-3.327611031701979867e-03,9.463269114494323730e-01
3.725164157467638071e-01,-7.779159846262024836e-01,-7.767004094986973417e-01,-2.954653206656869362e-03,-1.670880654521871402e-03,1.746118578440525196e-04,1.149840116500854492e+00
2.837402850430849055e-01,-7.687051034125047533e-01,-7.663890014151679697e-01,-2.185961463657068796e-02,2.162857208173026013e-02,3.730422446920619601e-03,1.052657485008239746e+00
3.496097998016585717e-01,-7.915157416381620736e-01,-7.791600408706278458e-01,-3.835506089563139268e-03,-8.977042110428880631e-03,-3.685277235507286239e-03,1.135141968727111816e+00
3.678747890030631407e-01,-7.820130211728323344e-01,-7.777633175987401781e-01,-3.156846041297053495e-03,4.822866795999863551e-03,1.701914900831577419e-03,1.147816061973571777e+00
3.645257988832994456e-01,-7.733215625147381589e-01,-7.829248172475157252e-01,-1.253003707029674916e-04,4.679953816024805605e-03,7.453869716847379969e-04,1.142708778381347656e+00
3.713703421078209388e-01,-7.747748873401292258e-01,-7.842749387660804539e-01,7.803401930544356371e-04,7.156284116256381427e-04,7.334999887210825239e-04,1.150926828384399414e+00
3.722261531000171098e-01,-7.816223680808565000e-01,-7.822945356072344980e-01,-2.447498488347897051e-03,2.233352766762728911e-03,3.322741272965349258e-03,1.154213309288024902e+00
2.990865836101960773e-01,-7.735797455568651504e-01,-7.673511511696631260e-01,-8.585742086804326254e-03,9.634274595305618999e-03,9.874704437331390493e-04,1.069800496101379395e+00
3.231156925273022673e-01,-7.215046852984577930e-01,-7.258001772280132657e-01,-3.901617933948564338e-03,-3.963119563432472743e-03,1.740091133293984824e-03,1.046823382377624512e+00
2.916166210298279937e-01,-7.954990357576963156e-01,-7.413889519257953475e-01,-3.092616007010391254e-03,1.463006401191606180e-02,4.812929866289762659e-03,1.061444640159606934e+00
4.507223332990540343e-01,-5.877401005548446022e-01,-1.200669804017271414e+00,1.051060443759494062e-01,-3.089206632701241989e-02,2.009325907668850497e-01,1.499239206314086914e+00
3.327243181934239624e-01,-7.758292514844131738e-01,-7.788928629914843027e-01,6.674680390828399701e-03,7.014554026748983338e-03,-4.922326732138109992e-03,1.110247969627380371e+00
3.324535630013653043e-01,-7.828497028353298415e-01,-6.752276074512157944e-01,-1.317137388206297312e-02,-5.168089698863734954e-03,-1.168621437913618111e-02,1.066050171852111816e+00
3.619618198185901026e-01,-7.865434203236827404e-01,-7.793991697847558742e-01,4.375777828269514572e-03,-4.490099983322406139e-03,3.054898226553843404e-04,1.145001411437988281e+00
6.068803848033157422e-01,-3.560879808153409321e-01,-1.302275080859962797e+00,-1.724475995325468886e-02,-2.215057809438617659e-02,1.968536261666781750e-01,1.688888549804687500e+00
2.844726994342112181e-01,-5.828038479996044963e-01,-8.563188836078687860e-01,-6.491383479172595575e-03,-2.480674314149724016e-02,2.651521854111739407e-02,1.033573389053344727e+00
3.362479204465730898e-01,-7.780061800015283247e-01,-7.812523930104844361e-01,7.339658698220997285e-03,-2.006477302332175788e-03,2.148767044597463954e-03,1.115964770317077637e+00
3.408380731246535844e-01,-7.694475537725133929e-01,-7.836255207353159946e-01,-5.366039823294793849e-03,-8.615617623632141698e-04,-1.092970506164303118e-04,1.117481708526611328e+00
3.080811137302117420e-01,-7.948564009529290875e-01,-7.616871934873745698e-01,1.385752925564965980e-02,3.123116646591729204e-02,2.063701727346917494e-02,1.088929653167724609e+00
3.334731491805713044e-01,-4.278067466266388119e-01,-9.628832627967596203e-01,2.735565400778425249e-02,5.674459633821778669e-03,1.072244447061669881e-01,1.144565343856811523e+00
5.586342366640417723e-02,-7.130588888214121068e-01,-7.129570593426504121e-01,3.959079936159819700e-03,3.696936417593900273e-04,1.667681508358810627e-03,7.689076662063598633e-01
3.666091325321112482e-01,-8.002490188924933356e-01,-7.582906336019354931e-01,3.187742938569254354e-03,7.011948986801411904e-03,1.034155559120832459e-03,1.146533966064453125e+00
3.487907787716992836e-01,-7.808798721310445945e-01,-7.823094693218076712e-01,3.208937998564816152e-03,-4.479313557329944739e-03,5.136567560306171121e-03,1.130461454391479492e+00
3.876010985401223685e-01,-6.086364501560366236e-01,-8.343845596632877282e-01,-2.605278899706575321e-02,-9.726719644781648202e-03,9.670029542721611526e-02,1.139615297317504883e+00
3.414473707343231301e-01,-7.784406112614237205e-01,-7.746820455333560673e-01,-6.650813601695029081e-03,-7.317968879385291364e-03,2.131103812961181090e-03,1.118150711059570312e+00
5.965973505235045993e-01,-9.813527108513603325e-01,-6.750821741215649041e-01,3.563170808280087531e-02,-1.178321224116426480e-01,-5.580395220443712390e-01,1.755031347274780273e+00
3.767473478967230949e-01,-6.308983841443849272e-01,-1.203556074306044499e+00,1.002408376081399821e-01,2.611275903622397795e-02,-1.637322404588756886e-01,1.425811290740966797e+00
4.175489976235493561e-01,-6.031062613348180390e-01,-9.453958486857504395e-01,-6.972367305981747032e-02,-1.032318982253226190e-03,7.029352786574834255e-02,1.240028142929077148e+00
3.768247651311775193e-01,-9.993479558570710353e-01,-2.702721218696398364e-01,-4.253869419189729856e-02,-1.070756348033649469e-01,2.458207125412580629e-01,1.281864404678344727e+00
3.707932560511147391e-01,-9.234766320749296931e-01,-4.830565525989233278e-01,-9.771625951954913264e-03,6.070300311431524494e-04,1.350486694582829494e-01,1.163651108741760254e+00
2.124923955626883965e-01,-7.254763069173336687e-01,-1.141153559776739712e+00,1.411009904328195952e-01,7.961194153838534182e-02,3.304185344947548064e-02,1.234699606895446777e+00
3.289284419023330575e-01,-8.886387325177912411e-01,-5.226515986387378909e-01,6.195792226411092011e-04,-5.754429096935281991e-03,6.941904229895480734e-03,1.082149505615234375e+00
3.051150385716052127e-01,-7.722708419535726510e-01,-7.715490774448375833e-01,-5.323178691878518477e-03,6.470687664969587347e-03,3.841988658698068052e-03,1.077143549919128418e+00
3.273279184213527815e-01,-8.685912468330629910e-01,-5.390386252868539785e-01,8.692798064499436886e-03,1.750230537349396417e-02,8.722658774629174494e-02,1.081055283546447754e+00
3.306964370074278459e-01,-9.564558285995439224e-01,-3.539348034380705998e-01,6.995682460293963130e-03,-5.865522234493115994e-02,1.844804236798706087e-01,1.164827704429626465e+00
3.695545183277857415e-01,-7.773127565118935767e-01,-7.821145918534389008e-01,1.906067812387381762e-03,8.513337475269281774e-04,1.690896873397547536e-04,1.149281382560729980e+00
3.272774007590140699e-01,-7.259292638396162012e-01,-7.295233464296662085e-01,6.583930195840305335e-04,-6.504940675543576390e-05,-2.135433890202453801e-03,1.055015444755554199e+00
3.764347148347474969e-01,-9.851193463821690255e-01,-4.073168577272745505e-01,-7.082165795787276341e-02,-4.264220278212252357e-02,2.735194564793517191e-01,1.282932877540588379e+00
2.265041539165784101e-01,-7.653888386720899550e-01,-7.521882868234535113e-01,-3.286038270986974680e-02,8.411790339554036516e-03,-6.935865248732089004e-03,9.871820807456970215e-01
2.755409012644224886e-01,-7.597159722375558255e-01,-7.718895505860967621e-01,-5.038010370828234323e-03,9.172911520789491999e-03,3.403855653967060961e-03,1.041571497917175293e+00
9.492574938592157618e-02,-7.341430113264714175e-01,-7.222256941331999247e-01,-2.697767241848836317e-02,-1.715943193418821913e-02,-1.994520814225186466e-03,8.250426650047302246e-01
1.592061976846058657e-01,-7.517761324602764139e-01,-7.450545330747490036e-01,-2.494405500676342979e-02,-3.276093315875262812e-02,-3.728393024970357798e-03,9.104608297348022461e-01
1.235321826319301097e-01,-7.407851493536505849e-01,-7.221038954291958412e-01,-2.896902817832688187e-02,5.449021102292042965e-03,-4.183074887421645016e-03,8.566831946372985840e-01
1.575935642109441703e-01,-7.913765294370462833e-01,-8.129762711733741209e-01,-2.461953701330448288e-02,-5.866960281577281860e-02,-3.856682170061941084e-02,9.685634970664978027e-01
3.336025491759399553e-01,-7.433810242486562636e-01,-7.284859073455061118e-01,-9.096529625822722537e-03,-2.597867623460057358e-04,2.418520976273216307e-03,1.069738149642944336e+00
2.386962508304978359e-01,-7.573365745665470161e-01,-7.601290060037892982e-01,1.101590698550986014e-02,7.075063112664702796e-04,3.432370649275622758e-04,9.976153969764709473e-01
2.019878489872873883e-01,-7.453062644935475323e-01,-7.564410501834744061e-01,-4.353962504915753762e-02,9.602391837925267418e-03,-1.500479644789052321e-03,9.560379385948181152e-01
3.433418482895739254e-01,-7.678969631816942032e-01,-7.070179592226903953e-01,1.854043477249576327e-02,1.961388282986559206e-02,1.324103398257781526e-02,1.083336591720581055e+00
4.368117952856924169e-01,-8.945779389444052931e-01,-6.125011500570876066e-01,4.375276425102610223e-02,-6.791054524222762956e-02,-1.876662589726666996e-01,1.265640616416931152e+00
2.468884946143258263e-01,-7.583171234869292565e-01,-7.614417408903511042e-01,-6.361051049195191702e-03,5.493246629436532649e-03,5.069468318851640121e-03,1.006915092468261719e+00
1.625960248456314594e-01,-7.357840264615338466e-01,-7.415565236595977883e-01,-1.810840953897290342e-03,6.257167392861359874e-03,2.624515940773899329e-03,9.013622403144836426e-01
3.515824141948061254e-01,-6.656075953018928404e-01,-5.591445801728982534e-01,3.589156166536225379e-02,-7.313782390916331866e-02,-4.389673373236552267e-01,1.239235997200012207e+00
3.617187481743647237e-01,-7.810080527885425727e-01,-7.822158295073076140e-01,-3.121475328274700249e-03,4.289629849944296899e-03,3.832294876814274377e-03,1.143387317657470703e+00
3.154525782569664316e-01,-6.069403966319180110e-01,-7.950246924979025298e-01,8.874573240257510251e-04,3.745547877001776001e-03,-3.907169508883978626e-02,1.031647443771362305e+00
3.669308636847586902e-01,-7.594363577642537777e-01,-7.929727760270278702e-01,4.318273611869507395e-03,7.127398338250922130e-03,6.827922048663574847e-04,1.143596053123474121e+00
3.681171494359956609e-01,-7.654015350049256927e-01,-7.818912937781457018e-01,2.600285265390430475e-03,7.578147277721830263e-03,-5.481038511677409786e-04,1.141937613487243652e+00
3.599758937329025077e-01,-7.721801388905769059e-01,-7.861897041091914229e-01,9.157572014827355597e-04,3.032124316624474226e-03,5.284172571737284860e-04,1.139238953590393066e+00
3.289815678237060781e-01,-7.001203383019614090e-01,-7.393879095160829085e-01,-1.361624200234623234e-03,3.283428842088623352e-03,-5.651996867711318179e-02,1.053861618041992188e+00
3.593872307204161176e-01,-7.635347407200980818e-01,-7.973739164503981236e-01,-1.016789615416289864e-02,-6.738555362375284533e-04,-2.528661739285685810e-03,1.140363216400146484e+00
3.247152425208154614e-01,-7.300898665969181023e-01,-7.162052728248455846e-01,-8.590758870949205539e-03,-4.540133580306704913e-05,2.111617135263662431e-02,1.048675417900085449e+00
3.018320166517258207e-01,-7.730845467035625251e-01,-7.711596188032694421e-01,1.166765188408040027e-02,8.840103479351414661e-03,-7.131103344566264157e-03,1.074325680732727051e+00
2.917581150524999334e-01,-7.642184136818825912e-01,-7.749352864715786104e-01,-1.570767239835733561e-02,1.285398738995014150e-03,-6.443490241430035754e-04,1.061727046966552734e+00
3.751725416942539582e-01,-7.504912878497416173e-01,-8.156767403530358340e-01,9.217861112748212613e-03,-1.078249112671363259e-02,-3.274304817914888612e-03,1.159905552864074707e+00
3.170695090605639144e-01,-7.097213034847877910e-01,-7.206255896995465982e-01,-6.120600981042447278e-03,-4.352742502052105340e-03,1.307161273358075845e-02,1.032616376876831055e+00
3.412215128595634805e-01,-7.264579756929590015e-01,-7.900002487512018945e-01,2.500810852712134422e-02,-2.571060472618204307e-02,-2.765106307472428582e-02,1.103618144989013672e+00
3.453080978527555689e-01,-7.790779401267649007e-01,-7.811850455506742508e-01,4.108119162387261977e-03,-4.467921902961887251e-03,5.339465888406040410e-03,1.125528216361999512e+00
3.546218860563564723e-01,-7.212324512508365704e-01,-8.144000752746765048e-01,1.801204865361241345e-02,-1.188573427428122643e-02,-7.536155905354776502e-03,1.126030683517456055e+00
3.724701850218365973e-01,-7.943687257327259887e-01,-6.258277542217420830e-01,-1.694311424248428483e-02,1.994624205006506612e-02,-1.914478784482579743e-01,1.142484426498413086e+00
2.811337938176184381e-01,-6.712346925957441979e-01,-8.018410013490411270e-01,3.677511811710204755e-03,-1.862808951166022506e-02,-6.170054798893093162e-02,1.030025005340576172e+00
3.691833892867480982e-01,-7.749221057247588362e-01,-7.715054531173499708e-01,-4.477345233726345332e-03,3.140242407052221910e-03,-5.980744781591744528e-04,1.142440795898437500e+00
3.748700909296728834e-01,-7.748069783421561718e-01,-7.776640549167094241e-01,9.444069033341993911e-04,1.985194651731840717e-04,1.398395289793285048e-03,1.151112079620361328e+00
3.675079740081189650e-01,-1.387282788193796024e-01,-1.367124791989256849e+00,3.457607532383700361e-02,-5.866340780009332567e-02,3.646649415969247660e-02,1.550803661346435547e+00
3.582643749953427492e-01,-7.625811367796189177e-01,-7.952863881000429291e-01,6.729922366642318229e-03,1.729722229680120352e-03,1.612772768009837964e-03,1.137617945671081543e+00
3.757312146920904206e-01,-7.788964546760843710e-01,-7.790011826951919183e-01,-1.086938052279316693e-03,1.111815440054457005e-03,-1.914049548303643224e-07,1.154683232307434082e+00
3.715267677487500975e-01,-7.746872848595292016e-01,-7.729476766889233907e-01,-1.355818899469087057e-03,1.661144678101396464e-03,-6.923926447923250092e-04,1.145351886749267578e+00
4.411371765436689629e-01,-3.668534299091559259e-01,-1.283895149837374738e+00,2.783076817135695172e-02,1.027833284047212220e-01,-1.498810466623367033e-01,1.528458476066589355e+00
2.370146239942549915e-02,-7.815534484082952149e-01,-7.143281560565934996e-01,-3.760938982598840529e-03,-8.987142410759826894e-02,-9.248081386296104489e-03,7.895256876945495605e-01
1.833476767450041289e-01,-7.478346560248294583e-01,-7.367389933110422007e-01,1.179294850812937119e-02,-6.216249948367299702e-03,1.689763963211897337e-03,9.259769320487976074e-01
2.719909100057785745e-01,-7.641494818537248879e-01,-7.645456219049205915e-01,1.147556376061915906e-02,-5.746728902156204334e-03,1.469143615711311808e-03,1.036579966545104980e+00
2.246557218630947927e-01,-7.535018932659910407e-01,-7.558316117061376627e-01,3.649244521794485063e-03,7.450022082365857778e-03,-7.016125276011322964e-03,9.795053601264953613e-01
3.493817281053007706e-01,-7.077969634798011445e-01,-6.797663963008622190e-01,-3.885163612962430450e-03,5.615493842851375372e-02,-3.973365920128716922e-01,1.253759860992431641e+00
3.589109426279920578e-01,-7.927436045114277796e-01,-7.731870768758628554e-01,-1.833790258060541975e-03,4.298712711589885646e-03,5.470771524048124914e-04,1.142030954360961914e+00
3.736766043043781571e-01,-7.781324907076225816e-01,-7.781443863504542424e-01,-6.670720806291873537e-04,2.764870211363647506e-04,1.000488321905007566e-05,1.151815772056579590e+00
3.746717204948383229e-01,-7.783236503125916528e-01,-7.774742140221546638e-01,-1.715523688440301125e-03,-7.138366292254905328e-04,1.300925815480585921e-03,1.152577638626098633e+00
3.169010158521602949e-01,-5.719530373119245947e-01,-8.295892561672821852e-01,2.965021377608740086e-02,1.256663167495420015e-02,5.264560867916821124e-02,1.047313094139099121e+00
3.304137181309987348e-01,-6.223769555319523805e-01,-8.283355194206516448e-01,-5.058971089100037025e-03,8.969167747449239766e-03,2.158436560185554923e-02,1.071531653404235840e+00
3.939103506438126900e-01,-1.206137124293153340e+00,-5.634397724195079338e-01,-3.483703634532580445e-02,-2.326657642327058934e-03,8.798709011149614956e-02,1.404189348220825195e+00
3.129208137178773885e-01,-5.121375241915923082e-01,-8.768168412928580846e-01,-1.478005669164237593e-03,8.514399218635754218e-03,4.940615017545493121e-02,1.059311509132385254e+00
3.631799141657641172e-01,-4.794051188269576325e-01,-8.846192407993380691e-01,1.342022458678880648e-02,-1.145738040957395773e-02,9.216424279731823266e-02,1.114446997642517090e+00
4.345593294808992590e-01,-5.633544764617390843e-01,-9.441412554156360937e-01,-4.314843232202911216e-02,-2.835811613120248556e-02,1.534661273162464534e-01,1.264704108238220215e+00
3.010195443495826129e-01,-4.578259066558811319e-01,-8.729514555276887133e-01,4.955411377029770095e-03,5.914744857580921632e-03,9.628960557062493653e-02,1.044598221778869629e+00
3.330187172657674277e-01,-7.782464146395284832e-01,-7.778086693873272894e-01,-5.290392405331956031e-03,3.391654145069987296e-03,8.055649979766011390e-04,1.111100554466247559e+00
3.642938553682291691e-01,-7.774503650602277993e-01,-7.853932346407557219e-01,2.204963187359017078e-03,4.826491197759353517e-04,-5.906926685984415599e-04,1.145743489265441895e+00
3.644778689374504888e-01,-7.973987302974810953e-01,-7.638900055282948909e-01,-3.462612685775203446e-03,-5.085987800683897803e-03,-1.436971928384119359e-03,1.145542144775390625e+00
3.158247444322820896e-01,-7.712936837273765001e-01,-7.756034438761232330e-01,-9.549016228565448267e-03,-5.580335761233520299e-03,1.837564485482131790e-03,1.089452743530273438e+00
3.560798000867418933e-01,-8.692113845786404447e-01,-6.201546623319433849e-01,-1.104578218986038661e-03,-1.378512974396165804e-02,1.163755034953227636e-03,1.121953010559082031e+00
3.672547150392135862e-01,-7.512857264965695503e-01,-8.117431699452362093e-01,8.308681174307681189e-03,1.209127017246503649e-03,-2.838930809480852500e-03,1.150064110755920410e+00
3.353809868238620817e-01,-7.511936406801014154e-01,-7.876038640403366653e-01,1.183482987676776760e-03,-4.401714205995777007e-03,-1.484807369927333654e-03,1.105260848999023438e+00
3.733237182540297683e-01,-7.672952769421548247e-01,-7.951077958738701490e-01,9.156134170879723366e-03,-1.188508570066781379e-02,-6.706296180716220245e-03,1.155127167701721191e+00
2.942578199777250436e-01,-7.623938063297535095e-01,-7.761685085623577507e-01,-1.749246491018922184e-02,2.121645633058724927e-03,3.385709965561584881e-03,1.064059853553771973e+00
3.628039035248588062e-01,-7.716032903310239277e-01,-7.945446486456152480e-01,3.688562913858359042e-03,1.475652444379235706e-03,1.528091369024212368e-04,1.146070837974548340e+00
3.625280601873319686e-01,-7.565312044627670041e-01,-7.916419614089811319e-01,6.075167825277688442e-03,4.538951589048836020e-03,-1.158636687278635015e-04,1.137097120285034180e+00
8.756551109456894855e-02,-7.905078146868508293e-01,-7.182551657450331195e-01,7.784860126853046514e-02,3.052624994739550589e-03,-6.115789301247843458e-03,8.550505638122558594e-01
9.580455056777675837e-02,-7.329129814934587372e-01,-7.188125621435099699e-01,-1.227678161258528508e-02,-2.381984572371205738e-03,4.440028515141172284e-03,8.220794796943664551e-01
3.144648953251691359e-01,-5.737624747263823100e-01,-8.338373217106944679e-01,2.583531562476894076e-03,-1.039107810930850993e-02,2.067360722855959149e-02,1.043656349182128906e+00
1.275490048557797462e-01,-7.264517658115898779e-01,-7.394267327771879561e-01,-4.894980492249515619e-03,1.634211268330812081e-02,-1.484614422876035390e-03,8.610725998878479004e-01
1.373416702889893592e-01,-7.374804370256152763e-01,-7.434072041623138727e-01,3.309655479932315653e-02,1.238822545895876433e-02,-2.374981206613484969e-03,8.799415826797485352e-01
1.045661635867730643e-01,-7.331273269203156806e-01,-7.307990303754194894e-01,-9.543921851202844669e-03,-1.082854823559763029e-02,2.884466859268693985e-03,8.369202017784118652e-01
3.499694560913796382e-01,-7.804086532581109292e-01,-7.816207428004616764e-01,-4.060752446347401685e-03,4.142987978113524088e-03,3.490660135751538079e-03,1.131045460700988770e+00
3.450065803350230165e-01,-7.720556801370306310e-01,-7.881592926146148148e-01,8.216885129186895717e-03,-3.192285605752345204e-04,-6.002084445350876381e-04,1.125291109085083008e+00
3.196797750320278797e-01,-8.394570210843246283e-01,-5.730979304681049769e-01,3.829552484433159775e-03,-8.483817318074957266e-04,-1.677942717523293534e-02,1.051993131637573242e+00
3.464084754135873800e-01,-7.622480823263395600e-01,-7.533520261144068808e-01,-2.339281054222222545e-02,-8.662233812660628113e-03,4.203480480796677188e-02,1.107476115226745605e+00
-2.268823234081690510e-02,-7.070718636054351691e-01,-7.062152634072416113e-01,1.743285986273400076e-02,2.914911078023047723e-03,2.665256722553087636e-03,6.846560835838317871e-01
2.818030957225622357e-01,-7.703677516433224959e-01,-7.677053164013807329e-01,-1.651485192158720292e-02,-1.633174898670738603e-02,8.977474194605429688e-04,1.051613092422485352e+00
3.781582779456571508e-01,-8.669300192106528247e-01,-6.648260643212416943e-01,3.229625190711530626e-03,9.158219029318842921e-03,2.634162382186257603e-02,1.158368706703186035e+00
2.816087748333543916e-01,-7.698148437074783246e-01,-7.675391520477620189e-01,1.076785103596028179e-02,3.131423695800621045e-03,-1.954479313368942192e-03,1.050472617149353027e+00
3.736207583426425227e-01,-7.172021127324237355e-01,-8.179918909411965089e-01,-2.340248722707499035e-02,-1.360217724705655579e-02,2.148849246729614068e-02,1.146115303039550781e+00
3.422015018226735594e-01,-6.805355825949599424e-01,-7.977155672472452386e-01,-2.273595511637062361e-02,-1.848155394989955611e-02,2.418670890688801034e-02,1.088070392608642578e+00
2.846192067586653107e-01,-7.734712100531957457e-01,-7.693079569328815648e-01,1.325284346813118685e-02,1.121978215385352994e-02,4.379307036354107910e-03,1.056470394134521484e+00
3.504264360440738635e-01,-6.413610150775773677e-01,-8.443572716642675502e-01,5.281727475478420475e-03,-1.968853007836055338e-02,5.415291154066493445e-02,1.111855745315551758e+00
2.807233858978376295e-01,-7.706408042345156417e-01,-7.641900069534997009e-01,1.078527308219981093e-02,3.269109863140877859e-03,-3.421651076065275986e-03,1.048352122306823730e+00
2.819326388726576815e-01,-8.972488404182161759e-01,-7.611258897149593139e-01,-5.388397810698414281e-02,1.763653979118116541e-02,-1.023294221986853492e-02,1.121803283691406250e+00
3.700346967945984389e-01,-8.119024816867460581e-01,-7.583589181617598207e-01,-2.069592830915503376e-03,8.736153453682986986e-03,3.483139317300276445e-03,1.156216025352478027e+00
-1.381271766581084193e-01,-6.563679344788529990e-01,-7.608816063154554277e-01,7.968260341858091067e-02,2.404108795321906883e-02,-9.235534004794825015e-04,5.953522324562072754e-01
4.008663811413888389e-01,-4.764673743745814205e-01,-1.055399257480809982e+00,-5.889548895349473734e-02,-1.289794809937440043e-02,-4.250178966800582381e-01,1.471604228019714355e+00
3.181438674802500310e-01,-7.759234467020257320e-01,-7.713474916568007211e-01,4.483732348866661076e-03,1.245086815480373962e-02,3.060753608326702638e-03,1.092039942741394043e+00
2.219265517668257970e-01,-7.511967153217342652e-01,-7.562025836783299315e-01,2.018660905890745302e-02,-1.340436911106475393e-02,-9.211643736021312518e-04,9.765394926071166992e-01
3.043039278934613900e-01,-7.850076242994896702e-01,-7.894865459809450314e-01,1.016151168500171141e-02,1.353588500358758433e-02,-1.446019893176378121e-02,1.092238664627075195e+00
2.162102812819597375e-01,-7.828220980529736472e-01,-7.559366140192307348e-01,-6.553600491992600877e-03,-1.256438892289841666e-02,-4.899276353940022061e-02,9.898142814636230469e-01
1.443721734198035733e-01,-7.386920097984098765e-01,-7.371064880440353351e-01,7.864040941132251217e-03,1.355900061200097668e-03,-3.277286683625141002e-04,8.823809623718261719e-01
1.487260238710844673e-01,-7.351124326309628199e-01,-7.461882302031561665e-01,1.369800222525559795e-02,-3.182634503867357717e-02,-2.480421933382448603e-03,8.914608359336853027e-01
3.585818037510032918e-01,-7.861051994037273616e-01,-7.328330597491030662e-01,-1.326964670742299124e-02,6.035471504614279767e-03,4.300282439095430911e-03,1.119312047958374023e+00
3.665136044642061108e-01,-7.704500096961355293e-01,-7.712378779119997141e-01,-6.927290862497955878e-03,9.788848605094822505e-03,-1.938561880730116978e-03,1.137552380561828613e+00
3.668991393071353024e-01,-7.909898725410013931e-01,-7.732273806224549961e-01,-9.596930477807975087e-04,2.140305875761782436e-03,-7.281637971344241027e-04,1.149118661880493164e+00
2.751004043538048394e-01,-7.666538571948995351e-01,-7.656992862512446152e-01,-8.614110488021055334e-03,3.554721527231014758e-03,3.859475797896582371e-03,1.041423797607421875e+00
3.422709483542203390e-01,-7.524758750479638714e-01,-7.340168927847554592e-01,-6.401181788142610782e-03,5.296556691987007633e-03,-3.523318619748100171e-03,1.085747599601745605e+00
7.342616299467696894e-02,-7.168425035172066861e-01,-7.145585725139919075e-01,-3.293164143718398627e-04,3.100771006569065166e-03,1.126124933900910429e-03,7.891500592231750488e-01
2.482208406436548498e-01,-7.641017339797064878e-01,-7.607933547145950826e-01,-8.930804518466632994e-03,-7.803921237448057865e-03,-5.447192665506302850e-03,1.010925173759460449e+00
3.492808966891893241e-01,-7.592739066734681685e-01,-7.882510028732162555e-01,-4.183727145667275917e-03,-1.638368256788449648e-02,6.357723947443545687e-02,1.129088163375854492e+00
3.482476672976757004e-01,-7.537991847466565254e-01,-7.431722196449861428e-01,-7.888891049439149261e-03,-1.008836695407724828e-03,-7.396925317859458747e-03,1.096933364868164062e+00
3.593111069916766209e-01,-7.622285725872373074e-01,-7.586866240314761312e-01,-5.395812724517460614e-03,5.581959386785815234e-03,-7.115556601871926741e-04,1.119854331016540527e+00
3.433289748617279757e-01,-7.755193684145604838e-01,-7.119981398752290858e-01,-1.564059771611626959e-02,5.701171614068087715e-03,-2.182530923776772672e-02,1.089516520500183105e+00
3.675127190364600449e-01,-7.497386962751071415e-01,-8.120912772562907112e-01,6.615645033670236597e-03,6.102828416499187815e-03,-4.097006546035355211e-03,1.149824142456054688e+00
3.067501866776609076e-01,-6.613360646373516172e-01,-7.153448060484715043e-01,-1.334346015171320940e-02,1.276237217573941186e-02,-9.866612354174161825e-02,1.011247158050537109e+00
3.085753771193168182e-01,-6.730823157098597687e-01,-8.241543378079878579e-01,-2.296480622066802632e-02,3.379559025790544041e-02,-6.044968529319737216e-02,1.072728633880615234e+00
3.764062127395606527e-01,-7.795361192927831029e-01,-7.984931824804715195e-01,-6.619312389038895525e-04,3.325277282577933369e-02,-3.440933885765462032e-03,1.166974425315856934e+00
1.869813845184251644e-01,-7.518357421948200781e-01,-7.381254550971798611e-01,-4.205308853436180716e-03,3.711190235267269270e-03,2.417667582409331779e-03,9.320976734161376953e-01
2.358835037260799128e-01,-7.611115111581212567e-01,-7.521708122668083751e-01,-7.968135492096288519e-03,-3.008186294864470881e-03,-1.226606661146505475e-03,9.926667809486389160e-01
3.604242330506440273e-01,-7.721225381633952667e-01,-7.890348132444870988e-01,4.615484021510896789e-03,-3.249408805577280734e-03,-9.228676503588381392e-04,1.141139864921569824e+00
3.474697084915900902e-01,-8.611013122074127057e-01,-6.082199939772716668e-01,-1.211834402373984480e-02,1.575939954814696911e-02,-3.845560360927465643e-02,1.106611967086791992e+00
2.818888637482241943e-01,-8.407191230135511173e-01,-6.903982498772083254e-01,-5.828621856547025123e-03,-3.024263880256842368e-02,-7.157128688208009258e-03,1.056926250457763672e+00
2.672405304379795732e-01,-7.675045317559083813e-01,-7.635019106039473424e-01,1.882333001323466953e-02,5.969108716841426375e-03,5.295611270141557109e-03,1.033356547355651855e+00
3.735160152012960144e-01,-8.724818296111427340e-01,-6.393772902602830044e-01,-3.079413577218923295e-03,3.833519501607360325e-02,-2.677966466172240073e-03,1.149286389350891113e+00
3.334915831811637310e-01,-7.795661573945942280e-01,-7.755552209424186882e-01,5.773526180101950893e-03,-9.020434900392336128e-03,2.401450076313550383e-03,1.111220359802246094e+00
3.629669281648557622e-01,-7.524270861240391906e-01,-7.972009027747810617e-01,8.114683635964911948e-03,-7.704433851606021927e-03,3.763408110637616894e-04,1.138606548309326172e+00
6.121941253504186164e-01,-4.167675568913418171e-01,-1.098097042534156742e+00,-3.731406248222556010e-02,-4.434284614444634898e-02,-1.814547584716494355e-01,1.527379274368286133e+00
3.265201790252465486e-01,-8.157702102430257618e-01,-6.128230451464257156e-01,-2.392959708057687540e-02,2.106482496470871504e-02,-3.554087031728622031e-02,1.058786511421203613e+00
3.253728278342737923e-01,-7.839427040752691145e-01,-9.033975084388587984e-01,-1.107593379097498131e-02,7.269462665716134968e-03,3.136590080610163894e-02,1.175092101097106934e+00
3.679839955999831269e-01,-7.551186415851478539e-01,-8.114016454844741322e-01,-7.455232975751614928e-03,-6.453660170350124584e-03,-5.316794295173191132e-03,1.152438879013061523e+00
7.602873396750273738e-01,-7.956435856010006802e-01,-9.545437759796322474e-01,2.088463110409036986e-03,1.854784307296134232e-03,-5.249029067012558336e-01,1.876166462898254395e+00
3.556669051073932941e-01,-8.290548607532504111e-01,-5.069774978526082609e-01,-1.421442973750599269e-02,-2.764320317549882541e-02,-1.893613734518770630e-01,1.111844897270202637e+00
3.398272847343145053e-01,-8.582469584880141333e-01,-5.847642638625677458e-01,-8.754884385899393273e-03,1.297228963627389264e-02,-4.817323701072541431e-02,1.090971469879150391e+00
3.679430161852603187e-01,-7.471098473652096894e-01,-7.376833646342720874e-01,3.739399015664941761e-02,-3.196144463552840626e-02,-9.368105473978395603e-02,1.125392675399780273e+00
3.199122920750889221e-01,-8.475985170102304789e-01,-5.522380435792418885e-01,-1.216100817013084610e-02,-1.239241208992247593e-02,-2.002617521558517147e-02,1.052421092987060547e+00
3.350873476412370433e-01,-7.785742388315590734e-01,-7.774562680625972666e-01,7.249782119279148812e-03,-3.028312293222287614e-03,2.948581542234367031e-04,1.113186359405517578e+00
3.444186873578156116e-01,-7.778791531340680798e-01,-7.799186388041060569e-01,4.526884954735998709e-03,-4.906835431112434830e-03,3.926594675607005501e-03,1.123399019241333008e+00
3.474527135014090495e-01,-7.770154876012496103e-01,-7.824701757955295767e-01,4.340410382551573160e-03,-4.503329831602408823e-03,3.015785318208144723e-03,1.127269625663757324e+00
3.312616328097193752e-01,-8.421832410920540024e-01,-5.785639769091714957e-01,-7.298108986650035310e-03,2.167052080894915633e-02,-1.083277185630559039e-02,1.067260980606079102e+00
3.302446171163346822e-01,-8.783709018457134254e-01,-5.366165149788719724e-01,-7.809849370692378487e-03,1.457769300705244117e-02,-1.689534101792587034e-02,1.079895734786987305e+00
3.656190270123990671e-01,-7.550540610546078168e-01,-7.861212881648742545e-01,6.186839529812586565e-04,-1.405855270403325551e-02,7.166166300525022258e-03,1.136854290962219238e+00
3.326712351748234986e-01,-7.736167795996249374e-01,-5.105507423225081887e-01,-7.045098239503649884e-02,4.733268670330997852e-02,-1.889212113019892170e-01,1.063360214233398438e+00
3.518511684842752785e-01,-7.782467230713363548e-01,-7.813165865835365320e-01,4.365090546175545184e-03,2.021221017876806934e-03,3.059230980414138351e-03,1.131679058074951172e+00
3.054736486606120516e-01,-7.711861172579419499e-01,-7.708278958551666449e-01,8.698193883174739835e-03,-7.569353474974027142e-03,4.368571835702515782e-03,1.076692581176757812e+00
1.273609087141132634e-01,-7.258719396134774016e-01,-7.349217714076172747e-01,3.723634558486983736e-04,-7.209933398344760790e-03,-6.855935668144660976e-04,8.578855395317077637e-01
4.059931940225800506e-01,-9.845847188175781417e-01,-4.871980528356931739e-01,-3.184598912748722033e-02,-4.882742332312536675e-03,-1.164583858797931526e-01,1.238243579864501953e+00
3.684577799076005356e-01,-8.004374543315928570e-01,-7.573464098198738892e-01,-9.661050144834423120e-03,4.024330310637068593e-03,1.533752626927702015e-03,1.148102641105651855e+00
2.954790368867523109e-01,-7.706788722987867324e-01,-7.692073827219506610e-01,5.095815683510687352e-03,-5.958219135396765689e-03,1.169326202816382224e-03,1.065511345863342285e+00
3.558250297095999493e-01,-7.841066750647525119e-01,-7.284472534800616739e-01,1.468996980587103200e-02,7.269529235196132803e-03,-4.921104405440746878e-03,1.113540649414062500e+00
3.758918310652819006e-01,-3.454642771007299662e-01,-1.038846363579357002e+00,-4.526133585816435878e-02,4.078399138356330472e-02,-2.129817886614182032e-01,1.283950209617614746e+00
3.633910413750189861e-01,-7.962335200281946967e-01,-7.557896296247541557e-01,2.065958693242600161e-03,7.815647377050316535e-03,2.021772320961492432e-03,1.140032172203063965e+00
3.542053660334413268e-01,-4.551245780673228158e-01,-9.218999410062503896e-01,5.808542679859846763e-02,-9.111949681439488434e-04,-6.646551448155933045e-03,1.122909665107727051e+00
7.475343875122786308e-02,-7.435671260355947165e-01,-7.639796703102846864e-01,9.299741596381480568e-02,-1.530999049238241511e-02,1.173691160434918619e-02,8.448853492736816406e-01
2.057160062777685927e-01,-9.842498365799714488e-01,-4.256718723506417446e-01,-4.331624613256764705e-02,1.122270832369594296e-01,-3.728980784966729606e-02,1.054004073143005371e+00
3.437005966036255633e-01,-5.088888551229028279e-01,-9.112599695743694994e-01,-4.248229466607387345e-03,4.993334688130506883e-03,-5.703626071066410404e-03,1.109997868537902832e+00
8.399395227175521228e-02,-7.199411606416878939e-01,-7.179052318392107335e-01,-2.757299293012092402e-03,5.041251155358609642e-05,5.566374469372704133e-04,8.029338717460632324e-01
3.602542913334826902e-01,-5.507549412082245466e-01,-9.114477699448451098e-01,3.170725393742082621e-02,1.681618860743217328e-03,6.041411622399759339e-03,1.136558651924133301e+00
1.305459282086529615e-01,-7.341926688607095519e-01,-7.363378545604435388e-01,3.047713473552165001e-03,-7.925162883600877714e-03,5.211587167221170235e-03,8.659851551055908203e-01
2.780375726028463390e-01,-7.663844675230475634e-01,-7.524734289253175445e-01,5.588861702245121951e-03,2.907913965394411798e-02,1.301645363916743327e-02,1.039047956466674805e+00
3.647295559550796096e-01,-7.538319090615104301e-01,-8.006604985196625890e-01,6.553288931115742663e-03,-3.031302208788363376e-03,-1.145153961445971764e-03,1.142765760421752930e+00
3.292458793583227794e-01,-4.878071991551158337e-01,-9.118250106252476783e-01,1.878681097683793100e-02,-4.123899676082757801e-03,-9.875827271243127134e-03,1.093258619308471680e+00
3.357566386452145446e-01,-7.783396096374031181e-01,-7.815901637638582589e-01,-6.094911950096141250e-03,-1.106751198355733316e-03,-7.677413127265064275e-04,1.115777492523193359e+00
2.345410415061939813e-01,-7.631214403965982385e-01,-7.462473771503133069e-01,-7.231355372972380485e-03,-2.513707378775855848e-04,-3.533895423889893243e-03,9.894316792488098145e-01
3.713787397139679536e-01,-7.843712610328368307e-01,-7.758256412438779837e-01,-5.792869651753794350e-04,-3.720362301725472685e-04,-1.258166479868650257e-03,1.151503682136535645e+00
3.301317678545789835e-01,-7.454056986306378807e-01,-7.862488352491168175e-01,-4.278576690070423627e-03,-5.528382699292544965e-03,2.474340861140208406e-03,1.096604943275451660e+00
3.592669945112991203e-01,-8.197846312941916569e-01,-7.544727896042127124e-01,3.479533166545546730e-02,-2.504104314636212275e-02,4.290615679829145462e-02,1.152587771415710449e+00
2.623235070049589890e-02,-7.229342836300838293e-01,-7.158447254551079109e-01,2.649293636519385944e-02,-6.435817343240416051e-03,2.258584508156667031e-03,7.471511363983154297e-01
-1.457783957612818204e-02,-7.735834421599154798e-01,-7.100612697465886747e-01,9.821312211331914566e-02,-2.820951785085207969e-02,6.571645806141754309e-02,7.590728998184204102e-01
3.053491545107318572e-01,-5.022790539338972682e-01,-7.656452731351326424e-01,-5.149799908030226053e-02,1.419445106812026319e-02,-3.600489773062963694e-01,1.154033541679382324e+00
3.962271228403306256e-01,-6.529903106720198469e-01,-8.335619790769621673e-01,-2.626339992778312787e-03,-4.122241298720860647e-02,1.531097996092961877e-01,1.182526350021362305e+00
3.672415159533666262e-01,-4.989613581081916438e-01,-8.855785101185742469e-01,-1.399802016710725849e-02,2.441551406104072383e-02,7.552063485782468943e-02,1.119890809059143066e+00
3.573319622769068338e-01,-7.758910015642797031e-01,-7.879514112085640454e-01,-2.643033717959350319e-03,8.281582775717408283e-05,1.824729048911581902e-04,1.139310240745544434e+00
3.454449931183917188e-01,-1.645744402967778963e-01,-1.040225272452918848e+00,3.647530061185925293e-02,1.157613968791706624e-02,1.314793980927731441e-02,1.215892672538757324e+00
3.087929615422462248e-01,-4.483597224249708524e-01,-8.869043157029372626e-01,3.512181905044593072e-02,6.238638667321072528e-02,2.981662338561433812e-01,1.174620270729064941e+00
3.603538182128890877e-01,-7.761691778127565167e-01,-7.837279926672134911e-01,-2.283618333571719571e-03,-1.175010615465230850e-03,-9.224358894892980675e-04,1.140331029891967773e+00
6.108767962082680691e-01,-4.892566589025948431e-01,-9.560362548129552884e-01,-9.270893482211470249e-02,3.594479314903636230e-02,2.946135835400375269e-01,1.493903994560241699e+00
3.680303680280794798e-01,-6.950097573587070698e-01,-8.399602577723452868e-01,-1.202397428962979908e-02,-7.048149006797200904e-03,-7.879981546971687872e-03,1.142769575119018555e+00
4.894630332846454657e-01,-6.468734593137166478e-01,-8.844867977091015465e-01,3.760779215035831707e-02,1.739620032009918903e-03,2.092987282711220864e-01,1.324159860610961914e+00
3.201995893244559688e-01,-5.336661064466445836e-01,-8.436351959537987666e-01,5.586800397407817864e-03,-2.940151501331660002e-04,9.503275820314877054e-02,1.056895017623901367e+00
3.226650624277078716e-01,-3.488446765249477166e-01,-8.830767934062058178e-01,8.192804332038847170e-02,3.685121763511451515e-02,2.835970487467379120e-01,1.166432142257690430e+00
3.476776697590863163e-01,-6.314731553241135220e-01,-8.141564850818967525e-01,1.766766273642368656e-02,7.602332793827090707e-03,9.756792973313140049e-02,1.095742821693420410e+00
7.060761154670279760e-01,-9.990901974679458064e-01,-7.075982933756916893e-01,-6.333652279388032880e-02,3.665591743973051209e-02,-5.618031094782552914e-01,1.859691143035888672e+00
3.674548840749016776e-01,-7.766586076941695005e-01,-7.831265040289411283e-01,-9.163751106332162187e-04,-3.309567092108899305e-03,-6.447692040075750537e-05,1.147376537322998047e+00
3.587432613276204107e-01,-7.720999837928689269e-01,-7.846217567852380448e-01,-1.704224999750144276e-03,-3.255348190682209094e-03,1.733570851358486997e-03,1.137177586555480957e+00
3.358079742901843856e-01,-6.029803786805956189e-01,-8.074968017486610083e-01,4.835987098332576381e-03,1.147388296964645116e-02,7.809050398524271241e-02,1.064851045608520508e+00
1.828340605129708529e-01,-7.939828724638455792e-01,-4.436922335363823189e-01,-6.554618411678109213e-02,7.699249597091135672e-04,3.401917203247535326e-01,1.046320676803588867e+00
2.607913820104645342e-01,-7.270332159656200943e-01,-7.871914156386875527e-01,-1.823774394785312308e-02,-6.308499182784302328e-02,2.126638266153079160e-01,1.089704990386962891e+00
1.261939422098397046e-01,-7.005274866949492418e-01,-7.495847926895065072e-01,-2.585441395043586166e-02,6.644679341985310073e-02,2.358758480743432806e-01,9.532023668289184570e-01
3.370976783814322864e-01,-6.923137988613313754e-01,-7.666267528230947814e-01,3.812042563825471242e-02,-3.551970630303169507e-02,-5.116287469594806014e-02,1.075967669486999512e+00
3.251435514773856617e-01,-8.708111292482820787e-01,-5.500714173648220129e-01,1.228995946770201388e-03,1.053228486497592015e-02,2.042719189121161918e-02,1.072930812835693359e+00
3.273894470553619374e-01,-9.398337819532578408e-01,-4.424025806942954442e-01,1.852583773907411774e-02,-4.162386335056680875e-02,-3.497973636255041069e-02,1.110330700874328613e+00
3.478510771218262243e-01,-7.828519305000154471e-01,-7.762792170280008452e-01,3.597082487121567619e-03,-4.393864186994504012e-03,2.067363898310656343e-03,1.127479553222656250e+00
5.118393213506269301e-01,-1.204673876815848255e+00,-4.224772818627179349e-01,-6.516526398482132276e-02,-1.048389436978315742e-01,-3.788697143541642776e-01,1.640712738037109375e+00
1.040945011242124241e-01,-7.226500476467666578e-01,-7.236916610963770591e-01,-1.854883268317566612e-03,1.742738399379402565e-03,-1.726457095191498111e-04,8.272776603698730469e-01
3.554575169596487783e-01,-7.743521411185078085e-01,-7.835449638609938150e-01,-5.358288525145003985e-03,5.525547171408623417e-04,4.650390140574939290e-04,1.134472608566284180e+00
3.226667970234567973e-01,-4.735353691768504625e-01,-9.027229110616180607e-01,-5.115714510735438689e-03,-1.678673321654621658e-02,-8.118042301541750216e-02,1.086533308029174805e+00
2.940567767948182309e-02,-9.371421057947866284e-01,-4.331971598206756369e-01,8.715560746025989569e-02,1.747519115509574630e-02,-9.020033807058095918e-03,8.514909148216247559e-01
2.766331952227054636e-01,-1.035273043387209491e+00,-3.389899390704036453e-01,-3.103067265253285287e-02,1.671674373062945890e-02,1.919474721735447281e-02,1.138983011245727539e+00
3.040886647247985075e-01,-1.197853793167755310e+00,-3.870696798367586067e-01,-1.197715518649546951e-01,-1.373949664063394555e-02,3.085144053042760959e-01,1.422883152961730957e+00
3.483418018176090425e-01,-8.277456914797820531e-01,-6.587222853177925330e-01,-1.131925312671712598e-02,1.238815991895419154e-02,1.082820815213613418e-02,1.101889729499816895e+00
3.544213330228196401e-01,-7.895742749952601169e-01,-7.630447711015057033e-01,-1.098644680176102473e-03,-7.478892739133322261e-03,-1.566909111637869749e-03,1.131043314933776855e+00
4.253550593629615850e-01,-9.632173758770259386e-01,-5.544484084099501331e-01,2.702003025478475276e-02,9.659663590324221727e-02,1.579926042713445666e-01,1.277766823768615723e+00
3.564004189215392304e-01,-8.175374056917603660e-01,-6.799865333583634541e-01,2.218871079502989993e-02,3.003568998669382123e-02,1.938897553702724832e-02,1.113950371742248535e+00
3.219169979890341704e-01,-8.501220138494616219e-01,-5.592428910690430133e-01,1.374076733012164972e-02,1.849289467984336841e-02,3.333164670357557230e-02,1.059381842613220215e+00
5.175461455507492925e-01,-7.094116238493727300e-01,-8.837029527679136631e-01,-8.073229940599370436e-02,-5.636883410064722280e-03,-5.683430928361905554e-01,1.654793381690979004e+00
3.639949663226976773e-01,-7.507571335574256821e-01,-8.033342945612580444e-01,6.315935826547523953e-03,-9.326668471310680568e-04,1.909854130278861375e-03,1.142007112503051758e+00
3.260984761961613909e-01,-7.995133017049746993e-01,-6.355535152680151789e-01,2.376867418986342018e-02,6.878799374844122433e-03,3.172035141838269734e-02,1.055549621582031250e+00
3.235870031126726332e-01,-7.724001710383359143e-01,-7.710055738476443432e-01,-7.235521594441598342e-03,1.194120888827061855e-02,-5.513634965107648209e-04,1.095557928085327148e+00
2.470507843653422242e-01,-7.598519765076507948e-01,-7.616601967118223904e-01,-8.987101864985058350e-03,-7.805341036633424087e-03,-7.430297424579255204e-03,1.008101105690002441e+00
3.289560558381180999e-01,-8.348304869640501558e-01,-5.968999164032816607e-01,1.836980647582805298e-02,2.402779230311568107e-02,1.652320604363233594e-02,1.066617608070373535e+00
3.155189070940657703e-01,-7.520373734018572787e-01,-6.506872857198838789e-01,9.021885209915113391e-03,2.021532343433246615e-02,6.146815928936886358e-02,1.026916027069091797e+00
4.465716324155472039e-01,-4.627783954196496019e-01,-1.063957822934984421e+00,1.132310637700052226e-02,-5.957568101330114330e-03,-8.015924215094395733e-02,1.324682712554931641e+00
4.016526655909046228e-01,-3.556290475630244918e-01,-1.201053089942032415e+00,6.379198087914068893e-02,4.589204225860959302e-02,8.872367887147518395e-02,1.403774857521057129e+00
4.675038951853809910e-01,-3.243479087391560323e-01,-1.243355219230231734e+00,-1.239979127067748488e-01,-2.902378277337432783e-02,7.766883926820064565e-02,1.505347847938537598e+00
3.200199412753182426e-01,-7.758233453459451034e-01,-7.762099710935290720e-01,-5.967514215614538528e-03,-4.591041747405666569e-03,-3.911013074474611884e-03,1.096135139465332031e+00
3.195285434283957615e-01,-7.744192884796956555e-01,-7.762367718867955180e-01,-5.959439772025571479e-03,-4.589765294087313520e-03,-4.703873398146173057e-03,1.094965577125549316e+00
3.068944320366608358e-01,-7.681839029198718194e-01,-7.724233017895973941e-01,-8.936534446772932336e-03,-9.436093805410272761e-03,-3.461308963515178413e-03,1.077456116676330566e+00
4.563699465392463406e-01,-4.527638211436621485e-01,-1.043586501202480310e+00,5.884917220693981765e-02,-2.593010409850248985e-02,-1.238826673336899803e-01,1.330856919288635254e+00
3.744823978962545374e-01,-7.811415909684873426e-01,-7.767643644005505221e-01,2.718502818985354171e-03,1.222020694579901501e-03,2.477114169660775108e-04,1.153453230857849121e+00
3.883119425978630024e-01,-4.704251003133537723e-01,-9.761910325933533805e-01,8.910169929847210069e-02,-1.037293337872007871e-02,-2.733545156690202899e-02,1.205790281295776367e+00
3.582681469892025072e-01,-7.632396142572192010e-01,-7.828841585510497580e-01,7.500293881076578774e-03,-5.054884886841637393e-03,-1.703616705646163708e-03,1.131570219993591309e+00
6.860886170201085932e-01,-2.893056119643133695e-01,-1.156968366231515111e+00,9.513594866716776344e-02,-1.136300359447683095e-01,-2.003376105190464718e-01,1.654339551925659180e+00
2.496840107386665286e-01,-8.158678617349904849e-01,-8.040447310770887368e-01,3.294127365006428027e-02,1.339190604845290171e-02,-9.239529429575612726e-03,1.061598777770996094e+00
2.037623105174402038e-01,-1.144941887281011983e+00,-6.267992786511530356e-01,-6.252087894819556568e-02,-1.260948033762140652e-01,-1.236477488117961321e-01,1.222270965576171875e+00
3.414382513779802841e-01,-5.406832286481235705e-01,-8.424495119766182150e-01,2.294486157671510318e-02,6.529757892016853360e-03,-2.327755185345283251e-01,1.140024662017822266e+00
3.601831256802116576e-01,-8.710484743532440621e-01,-7.540287492712610673e-01,-7.675562716736888946e-02,9.899968994192445693e-02,-4.860570672744186221e-02,1.199879646301269531e+00
2.605289358792391985e-01,-7.646869301117232842e-01,-7.512483106380671849e-01,-2.674554766347128111e-04,3.135916627389179201e-02,-4.958350799656609416e-03,1.020046472549438477e+00
3.667695371925905889e-01,-7.803770965699058371e-01,-7.790578536599628290e-01,3.755084388832567385e-03,-3.281532050465990526e-03,1.985990983071727733e-03,1.146525263786315918e+00
3.204325029913064893e-01,-7.846819082404530299e-01,-6.418182821374129876e-01,-5.436602311344640621e-03,-1.775028677044571124e-03,-1.857886844177229074e-02,1.041604995727539062e+00
3.475579253302692462e-01,-7.858835680045330729e-01,-8.252234514315742731e-01,-4.322843399848939373e-03,-2.753587826255863083e-02,-5.889957796355082403e-02,1.159122467041015625e+00
4.746804822703337701e-02,-7.400097142552954921e-01,-7.168303329626326548e-01,1.726353767359703473e-03,-2.777912191982894602e-02,-6.505047544488369235e-03,7.777249813079833984e-01
3.062765019924061916e-01,-7.725712616233283425e-01,-7.740905673038762647e-01,5.610453674295235588e-03,-5.439787514628007491e-03,5.996082598639197042e-03,1.079743027687072754e+00
3.564781611823632512e-01,-8.666014165566228167e-01,-6.045259098321172919e-01,4.233756864541899853e-03,-6.098186959377228065e-03,-3.190929869782645895e-02,1.116820454597473145e+00
3.572956799451914578e-01,-7.899055376931839456e-01,-7.644677598599971535e-01,3.724481689039986498e-03,-5.485305349184880878e-03,-1.679708696721285725e-03,1.134757995605468750e+00
3.548040219073504420e-01,-7.500495701950586902e-01,-7.594750467543562866e-01,-9.026463477994114970e-03,8.120583490255947612e-03,-1.145713614125016232e-02,1.109973073005676270e+00
2.359032309617895007e-01,-8.561322624522681446e-01,-6.862774804726197164e-01,-5.361361114132041916e-02,3.901515004681238574e-02,-3.842072736030559266e-02,1.026412725448608398e+00
3.362660246456358748e-01,-7.316127640988463465e-01,-7.370540328876103997e-01,-5.743583963365611264e-03,6.643985750368613420e-03,-1.165118584456271283e-02,1.070908069610595703e+00
3.522205306039438710e-01,-7.466246176601184503e-01,-7.594589343591329200e-01,1.083953801021259001e-03,8.092953552520706223e-03,-7.855317575070766079e-04,1.105409502983093262e+00
3.414915377564297083e-01,-7.443202838836929791e-01,-7.392446044782946535e-01,-6.346607016872536124e-03,7.370298892597447298e-03,-2.735546049662443586e-03,1.083424210548400879e+00
3.421947478758305961e-01,-7.818014789414853283e-01,-7.778854261516900959e-01,-2.817925978831953629e-03,-5.101332965749704254e-03,-1.828452919462025990e-03,1.122093200683593750e+00
3.608878985794959360e-01,-7.876281499201931435e-01,-7.633971457837588348e-01,-6.631167065730358967e-03,-7.123123583120564289e-03,-1.549567950142529934e-03,1.136722445487976074e+00
3.346923501360592468e-01,-8.711049943143421848e-01,-5.328021551119670463e-01,5.196530402923404263e-03,1.145203203435455133e-02,-3.228463079624339926e-02,1.078922033309936523e+00
3.338444542353504740e-01,-8.023600531851406981e-01,-7.636247490481415934e-01,-1.949324094317341285e-02,2.122746778659671905e-03,1.936348276774163980e-03,1.117861628532409668e+00
3.809139758866550429e-01,-9.078509109388934739e-01,-5.574770186128974458e-01,-1.157313212001805959e-02,5.290110301476461802e-02,-2.221035555873062117e-01,1.220210909843444824e+00
2.762181498038460692e-01,-7.670404404359513206e-01,-7.692218164874015107e-01,-1.078918751918663509e-03,-8.591908868160878787e-03,-1.030991608018336399e-03,1.044460177421569824e+00
3.579302384252345259e-01,-7.966602825647992603e-01,-7.655047376776125123e-01,-3.043311445048500589e-03,-7.610200411620405420e-03,-3.069456709704728066e-03,1.139433145523071289e+00
3.927493757009821174e-01,-9.075220695593148035e-01,-5.050869018090520246e-01,3.323873030699200752e-03,-2.500752441464199755e-02,-9.927419897258499271e-02,1.166559219360351562e+00
3.506823134616759430e-01,-8.006658043472680841e-01,-7.260573979013524859e-01,-1.274259808631358556e-02,-8.959129966109632970e-03,4.464909892321511364e-03,1.116268992424011230e+00
3.695977658637782381e-01,-7.805399608605948503e-01,-7.757423274793783241e-01,2.490202611912108177e-03,-2.840946363287484089e-05,3.164235015054936082e-03,1.147767663002014160e+00
3.507747771836819961e-01,-8.808431489335871722e-01,-5.940217221770267564e-01,5.730962038505902495e-03,1.445801492878483717e-02,-9.378858592011063769e-03,1.116639733314514160e+00
3.697142321780155227e-01,-7.724964990423593969e-01,-7.719956203971524156e-01,2.461272417200845511e-04,-1.558532731432220189e-03,-1.514834876901763067e-03,1.141966700553894043e+00
3.640861476457177837e-01,-7.708351950964904553e-01,-7.833464440633175485e-01,-1.353721869321928195e-04,-5.754325951198459429e-04,1.482850936360846465e-03,1.141231775283813477e+00
3.705978746156286530e-01,-7.726554991535334871e-01,-7.747739412531569059e-01,2.710937762495843010e-03,-2.380735425109137705e-03,-8.390541106714725222e-04,1.144332051277160645e+00
3.734876036071766991e-01,-7.757496472625391437e-01,-7.776901429287144119e-01,-8.533225560165558221e-04,-1.177844899509563996e-03,6.471504512344483347e-04,1.150212049484252930e+00
3.621614481593467549e-01,-7.550300489632668643e-01,-7.757934843587657170e-01,3.121683704473016477e-03,-6.580958695509640799e-03,-1.209879760236406239e-03,1.127789139747619629e+00
3.358239481925705539e-01,-7.987057301743961668e-01,-7.873419340306792025e-01,1.000047170704051330e-02,2.927123829336383647e-03,7.046741367509084392e-03,1.129100918769836426e+00
3.565890199689305540e-01,-7.893813442400997582e-01,-7.390748809252172258e-01,-1.348744736024059046e-02,-7.582879829400432717e-03,4.607401879035716297e-03,1.122012019157409668e+00
3.748584580629288343e-01,-7.780815325998871046e-01,-7.763848305584689635e-01,-2.034988777657698158e-07,7.018693753234511766e-04,-1.495002919641917139e-03,1.152096152305603027e+00
3.742780684068210406e-01,-7.822233433792706858e-01,-7.778954496219256942e-01,1.516921498530301960e-03,-1.388383464406984418e-03,4.319982559462878791e-03,1.154373288154602051e+00
3.739013567711385044e-01,-7.755292040874646187e-01,-7.790497405081246995e-01,1.103213021243947868e-04,-2.512551628840416825e-03,1.066764831950786684e-03,1.151204586029052734e+00
3.376373919866936801e-01,-4.979091286463517285e-01,-8.895182593585502229e-01,6.422981122150863559e-03,-1.804920633590339704e-03,4.703857757588662813e-02,1.088795065879821777e+00
3.482636331177622613e-01,-4.455918038365386802e-01,-9.443632873872085387e-01,-7.806500050272931202e-02,-1.148661291087614902e-02,4.536658028898021139e-02,1.140080928802490234e+00
3.681220835588884799e-01,-5.085547995403241206e-01,-9.100850152413557659e-01,3.953873612133673721e-02,-8.854431570518950939e-03,-6.107248719172099494e-02,1.139261126518249512e+00
3.573549628387436838e-01,-4.488578183722372605e-01,-9.463972194920313719e-01,-4.569192994378289824e-02,-2.239242598229512597e-03,1.038771100899528316e-01,1.156415462493896484e+00
2.912885834555773990e-01,-7.862409117315157792e-01,-8.016504658757814816e-01,4.690789152315224392e-02,6.667089218937022332e-03,-1.774745739927270595e-03,1.088418722152709961e+00
3.739523490346481349e-01,-7.803417121021456460e-01,-7.795176945092803233e-01,3.213237629334460277e-03,-6.772377017114562152e-04,1.195106955419870205e-03,1.153898119926452637e+00
3.718545751764346097e-01,-7.782235497029997839e-01,-7.796949988194570302e-01,1.957230747161632384e-03,-3.891867023147102100e-03,7.380195706247264214e-05,1.150839328765869141e+00
3.580022146207073597e-01,-7.752991170974916635e-01,-7.631881427445570409e-01,8.160189682470907896e-03,-5.913438768272443087e-03,-6.618207819031440842e-03,1.127488017082214355e+00
3.420301180585525458e-01,-7.776699730455698401e-01,-7.734943909061559042e-01,4.233054126801592647e-03,-3.848219632168551826e-03,1.768448377568858495e-03,1.117666244506835938e+00
3.657955940607970913e-01,-7.785681229118761593e-01,-7.781834511060647941e-01,3.752401619768498502e-03,-3.279201072738033296e-03,4.587209134200842791e-04,1.144204258918762207e+00
3.624468785038111873e-01,-7.695742474616882323e-01,-7.804397607902894274e-01,8.100853554918857266e-03,-1.336425287450354127e-03,-2.750866491503410702e-03,1.137591719627380371e+00
3.418545343117295743e-01,-7.395469845149973409e-01,-7.441028395297010212e-01,6.366555123896779425e-03,-6.459453043684125310e-03,-3.195925412202780223e-03,1.083814620971679688e+00
3.619223902147970517e-01,-7.673378079693301546e-01,-7.780700631096276743e-01,4.045832957523614291e-03,-7.383854049215023141e-03,-4.247843842697975048e-03,1.134781956672668457e+00
3.697060121773116381e-01,-7.726131947005292488e-01,-7.772197947975900689e-01,2.357740107262008833e-03,-1.659360058253333062e-03,-1.314082908011486150e-03,1.144642591476440430e+00
3.538140753280778483e-01,-7.578835803029283502e-01,-7.503472435563222076e-01,4.586363828133650615e-03,-5.088633570670323021e-03,-6.756551596505620469e-03,1.108074069023132324e+00
3.579774437479916749e-01,-7.812188383377113299e-01,-7.754613512462082969e-01,3.986480250050262325e-03,4.386902968934447249e-03,1.596070269948234553e-03,1.136378169059753418e+00
3.646761747394695607e-01,-7.837091696540914310e-01,-7.741352805853937147e-01,7.536262567219486827e-04,1.497688115741226339e-03,9.228315008203710019e-04,1.143633246421813965e+00
3.376458364038532611e-01,-7.810373005635417032e-01,-7.784438208096913225e-01,-8.239340745412745363e-04,-1.389374784385777849e-02,1.246380325172099591e-03,1.117650747299194336e+00
3.646340473010373229e-01,-7.829363641759428116e-01,-7.625471677689117378e-01,7.785122186586607498e-03,4.581562334313422392e-03,-1.626395600160178596e-03,1.137623906135559082e+00
3.609099183034255032e-01,-7.870542319308824197e-01,-7.746946489287186433e-01,1.598124389398213573e-03,-7.349833483509206258e-04,-3.397517318100847330e-05,1.141838550567626953e+00
3.591213610571815096e-01,-7.965562661239831144e-01,-7.744417637764720030e-01,-2.873715512544994938e-03,3.345336154923765192e-03,2.135077650493167993e-03,1.144811987876892090e+00
3.488918320572969578e-01,-7.820194336905883503e-01,-7.799940144760840743e-01,3.772007215066088166e-03,-3.318717652368970150e-03,3.717728035067926866e-03,1.129951834678649902e+00
3.549288834127182768e-01,-7.839912458664082262e-01,-7.742062912314534584e-01,-1.914663818485576354e-05,4.160208607852873379e-03,6.745792983225626371e-04,1.134082794189453125e+00
3.594788735904401733e-01,-7.854016608451155346e-01,-7.780055748342851185e-01,3.159984742075197528e-03,-2.253625544176909249e-03,1.039409124649299382e-03,1.141221642494201660e+00
3.557913804405472558e-01,-8.288038341727921310e-01,-7.025446786572943081e-01,5.614804308452329149e-04,-1.712656288360347653e-02,-6.583156881710174220e-03,1.127232074737548828e+00
3.520640803232388261e-01,-7.842541265230504877e-01,-7.736507862612611586e-01,3.088777585842251028e-03,2.970627012943726376e-03,1.144512686502695709e-03,1.131079912185668945e+00
3.547693957014341204e-01,-7.503804951454848826e-01,-7.624100586266631119e-01,1.644400325813547871e-03,-7.285632876829734039e-03,2.715980291532572605e-03,1.111298799514770508e+00
3.524322199123098298e-01,-7.852825426433366340e-01,-7.769939772114299315e-01,6.707141536316362646e-04,-2.525662350148899591e-03,1.795919311326817504e-04,1.133602261543273926e+00
3.405214732123361676e-01,-7.139419453132183069e-01,-7.612764213006171232e-01,-7.370945666503713606e-03,-1.700826185901559151e-02,3.998300003119669571e-02,1.081606626510620117e+00
3.344238863650415561e-01,-7.792778229097012677e-01,-7.776843672712818734e-01,2.590263299329285951e-03,-4.737507710180799761e-03,9.110230647686362636e-04,1.112946271896362305e+00
3.160152893469753699e-01,-6.738298168909753194e-01,-7.440896568602584082e-01,-7.275458512911544239e-03,-1.104026241328545134e-02,3.030082654715531704e-02,1.028374910354614258e+00
3.529646924930232577e-01,-7.858555938196900570e-01,-7.757440160625597159e-01,-1.552408397856160690e-03,-2.766952890372707027e-03,-1.204821827877947853e-03,1.133813500404357910e+00
3.299912410696707044e-01,-7.789842174482566328e-01,-7.753656668555808373e-01,6.206834702177692559e-04,-4.930642679789994966e-03,-2.280980895607357967e-03,1.107211112976074219e+00
3.309784113042513187e-01,-7.804198258163251856e-01,-7.766831692778873864e-01,1.708576339539901682e-04,-4.515910619708197668e-03,-6.994740885266759580e-04,1.109562873840332031e+00
3.752956055226910337e-01,-8.213018829008058574e-01,-6.848349584233948129e-01,-2.385213269118674831e-02,-3.891751905060079897e-02,9.861592691431846081e-02,1.150042891502380371e+00
3.331219190012341125e-01,-7.873990886498545283e-01,-7.479914211024953907e-01,-6.233189595185264012e-03,-3.765626544074589417e-03,3.513871046571687053e-03,1.101435065269470215e+00
3.600690596941690802e-01,-7.864554963921743802e-01,-7.755494675178848940e-01,-3.663825821295097797e-03,-2.716948656212668251e-03,-1.534235775782700345e-03,1.141141057014465332e+00
3.328036785814900700e-01,-7.004053217551624577e-01,-7.545190897750383430e-01,3.642736463322874142e-03,-1.176591794331383750e-02,2.175981509127483324e-02,1.062184333801269531e+00
3.341392162811224753e-01,-7.110738838048227262e-01,-7.493659192970258953e-01,-1.998888308104978390e-02,-2.215541718418607975e-02,2.455141046568702981e-02,1.066976904869079590e+00
3.569010279521826479e-01,-7.843378841392847356e-01,-7.749547732882307027e-01,9.756143556701302568e-04,-4.769179364629659058e-03,5.720279848681132954e-04,1.136608123779296875e+00
3.414232701570788509e-01,-7.808065907619952117e-01,-7.767376888116379607e-01,-2.500359080874671718e-03,-5.456754284373705431e-03,-3.055250631739940548e-03,1.120261669158935547e+00
3.654873987583028838e-01,-7.866144043115670392e-01,-7.736855733291574388e-01,-9.854865981088153405e-04,-2.143815424440653501e-03,2.342905297037446884e-03,1.145706534385681152e+00
3.670922259694932577e-01,-7.830823836477300848e-01,-7.776008612101081852e-01,-3.880014312146090431e-03,-1.814710276173907505e-03,-7.287348369517400969e-04,1.147468328475952148e+00
3.687915161575504031e-01,-7.756282689638198669e-01,-7.949328457957529626e-01,-2.410053549507195497e-03,-6.692993931973726870e-03,-7.501933515402859839e-03,1.154332041740417480e+00
3.595074731198836249e-01,-7.807372100978023921e-01,-7.811126021476095804e-01,-5.412248734132347507e-03,-6.320718686261939979e-03,-1.410222111456149686e-03,1.140526056289672852e+00
3.716591125425534048e-01,-7.836968138086287672e-01,-7.718816704344477753e-01,-5.309690067428939758e-03,2.785169970820728161e-03,4.887304963222212416e-05,1.149540781974792480e+00
3.641912308716235280e-01,-7.790405382902603204e-01,-7.751100946409998915e-01,9.748978132545154480e-04,7.205600450129098214e-04,3.292923198729375087e-04,1.141273736953735352e+00
3.660806830623262176e-01,-7.827041894832384994e-01,-7.768797539015053211e-01,-3.934964487557878615e-03,1.643135364566449506e-03,4.025585631222574124e-06,1.145907521247863770e+00
3.687672139651373970e-01,-7.802083774178074638e-01,-7.778934876451700786e-01,4.091257138279840106e-04,1.422964602886771842e-03,-2.622810715612792598e-04,1.147822856903076172e+00
3.420364423928030084e-01,-5.752507363949372898e-01,-8.459785789073259732e-01,-4.022844608416071416e-02,2.060361139126495184e-03,2.172671637402017950e-02,1.081354856491088867e+00
3.730835514022639021e-01,-7.811190430695835740e-01,-7.932442365458880484e-01,-1.675568136765796931e-03,-1.135793487205606633e-02,-4.544611144164345008e-03,1.160509824752807617e+00
3.473956237941034364e-01,-6.718330372147722773e-01,-8.171774389434447450e-01,-1.859274905064397382e-02,-2.260164397343554163e-02,1.084055623117023519e-02,1.100460529327392578e+00
3.735742728708104088e-01,-7.781155276218227890e-01,-7.758706047675156814e-01,3.948626754940564709e-04,4.451130629647907355e-04,-6.943522057460744428e-04,1.150570034980773926e+00
3.648439362672515340e-01,-7.812672480102736960e-01,-7.791734725587793342e-01,-7.677532976390876070e-03,-7.791146306399959753e-03,-2.636711206723769529e-03,1.145231604576110840e+00
3.596673597170558234e-01,-7.639020222349240941e-01,-7.900975978692423851e-01,1.106635710057084741e-02,1.116292837975512743e-02,1.357166862327455464e-03,1.137221932411193848e+00
3.685668692790312617e-01,-7.568890071754205140e-01,-7.845537490411247372e-01,-1.009083326692119739e-02,-4.014301169158948634e-03,-2.661227265581735807e-03,1.139704704284667969e+00
2.308038374608994969e-01,-9.895871857869158461e-01,-2.540395119020174564e-01,5.011449112187549466e-03,-3.532047935986733916e-02,-1.734291919242545166e-01,1.107600927352905273e+00
1.691951156729269989e-01,-7.458157370593279101e-01,-7.342721454640275258e-01,-6.622462365748716003e-03,-9.983191450450227666e-04,-3.157890620156419926e-04,9.093681573867797852e-01
3.260956778882051488e-01,-7.828482920520289934e-01,-7.620080097122983176e-01,-7.142276247383017203e-03,1.566730608333345839e-03,-1.027695416427612876e-02,1.098889231681823730e+00
3.510309677062642408e-01,-2.671847627530821723e-01,-1.267814481084735156e+00,-2.181056137189701927e-02,-2.892683275107907348e-02,2.048956782367324370e-01,1.460116267204284668e+00
3.656809290110034083e-01,-6.939280707226931355e-01,-8.423683713505696335e-01,9.947130892894891913e-03,2.680312871191452978e-03,2.462194298850035878e-03,1.141240954399108887e+00
9.880386777174354762e-02,-7.242136065494146902e-01,-7.190690011653818603e-01,4.815946958094985061e-03,5.784525758650926365e-03,-5.199685344053933678e-03,8.206102848052978516e-01
3.699673066410719136e-01,-7.662159114393152226e-01,-7.796649605110969050e-01,1.396975064118193130e-03,5.020274455031453406e-03,-2.238749402265810887e-03,1.143009305000305176e+00
2.904641358658744954e-01,-5.937420527348080679e-01,-8.120291161998163254e-01,-4.092143358185033886e-02,-3.740513964074589776e-02,8.651036824867083808e-02,1.026719927787780762e+00
5.849034418618940245e-01,-3.746199613302010345e-01,-1.028412568427366391e+00,2.197708514047818848e-02,-1.265934094957911760e-01,-2.673769441858008244e-01,1.496481657028198242e+00
4.586999004015075432e-01,-2.033310391723204824e-01,-1.333309597796904278e+00,-2.029038861325398874e-02,-9.785786830205665809e-02,-1.652407256985856387e-01,1.604710102081298828e+00
3.365079156947956562e-01,-8.803570632091871628e-01,-5.259649464643593175e-01,8.416654307736635629e-03,1.771336811259551988e-02,4.540700924927799226e-02,1.087403297424316406e+00
3.367774512038361756e-01,-9.564515408302665112e-01,-3.240307052854314307e-01,-4.570326071964837290e-03,-3.777123419631446544e-02,-2.222599807877092548e-01,1.186201333999633789e+00
3.603406672779831954e-01,-7.071421772371914161e-01,-8.067858699072461004e-01,-1.413132872154472530e-02,-3.970776873904914225e-03,-2.896504563239251078e-03,1.120931744575500488e+00
3.599270618958919088e-01,-7.553271600950972609e-01,-7.711117203896095118e-01,6.805185060940221672e-03,-1.240271433842035469e-02,-4.965679863635660135e-03,1.123529791831970215e+00
3.272729458015832815e-01,-8.365917033299059558e-01,-5.877488709346564422e-01,7.275642094832573785e-03,-1.147987909855064607e-03,1.868948771794423647e-02,1.062118172645568848e+00
3.057151901426368168e-01,-7.720778252793135676e-01,-7.734330242605064187e-01,-5.340865596687958787e-03,5.970031114235643289e-03,4.820785451913598731e-03,1.078592777252197266e+00
2.775734035276640199e-01,-7.963317009607706609e-01,-1.108388279398651477e+00,1.248214792263092898e-01,-1.931228040001747859e-02,1.244418564751201411e-01,1.296182155609130859e+00
-6.436538300735605844e-02,-7.859513886938964689e-01,-6.983448161250704889e-01,8.753604335916161105e-02,-9.159093977661511565e-02,-2.018184578565464585e-02,7.173018455505371094e-01
4.885385350599968368e-01,-3.876707849269305783e-01,-1.360742595932421972e+00,3.051766565126137060e-02,3.323111132255267969e-02,-5.589597039017286245e-02,1.607079982757568359e+00
3.565406245518524253e-01,-6.771014566381882149e-01,-7.986182470305056569e-01,1.107515197675455754e-02,-6.578011862689669628e-03,-3.210073335546929918e-02,1.101079583168029785e+00
3.370788203916953440e-01,-7.502760367592815616e-01,-8.168456642817457647e-01,3.232168250266230156e-03,-1.718987611779973154e-02,3.630468382981808244e-04,1.122530698776245117e+00
3.063391685758861671e-01,-3.765678028682786227e-01,-9.862934564082236344e-01,-1.979076159450953581e-02,-6.540045936725553954e-02,-2.952541720640767253e-01,1.236949920654296875e+00
1.724423999876918412e-01,-8.119230666505055094e-01,-8.007384779848564227e-01,2.340311876463767315e-02,5.341169272365313414e-02,-5.417654072927088893e-03,9.840632081031799316e-01
5.201744844630001863e-01,-2.229968978033859128e-01,-1.383128975071447719e+00,-1.227948590532620121e-01,3.554451333568314775e-02,1.642339616723450246e-01,1.700097441673278809e+00
5.547302735071485413e-02,-7.120911545282575528e-01,-7.126849867894031743e-01,3.651180173132304030e-03,4.845770097778656161e-04,9.014396245657914190e-04,7.678893804550170898e-01
4.545669647490632181e-01,-8.122966877619473003e-01,-8.993216529872158915e-01,-1.076956148435434350e-02,-5.128814775202710820e-03,-4.238277177983080790e-01,1.504022002220153809e+00
3.645114502104070953e-01,-7.080450582227957312e-01,-8.187698902457773986e-01,-1.285767952024919475e-02,-1.136828596107596415e-02,-7.567952242765609884e-03,1.132453799247741699e+00
3.660623799943285017e-01,-6.947232474492941456e-01,-8.386547445897991615e-01,-1.161467628537945704e-02,-1.916556985825496355e-03,1.349937504649507567e-03,1.139773726463317871e+00
3.678517033246555545e-01,-7.700863082169560059e-01,-7.769019490958167795e-01,4.470064530990885965e-03,-6.122096752137574927e-03,-1.796218922680404987e-03,1.141440868377685547e+00
2.651960529684906920e-01,-3.553926747838642153e-01,-9.830191058878566812e-01,3.227167841880446142e-02,4.767630890058269233e-02,2.140958711205126486e-01,1.147169470787048340e+00
4.255244444321201192e-01,-3.392027134573675218e-01,-1.320186283812564865e+00,-1.131904596629327575e-01,1.133766780965268783e-02,-9.042805261565112218e-02,1.536448717117309570e+00
3.244541338887599879e-01,-8.346482213586696730e-01,-5.846992040129380674e-01,-2.549925502347727847e-03,5.830131909125179333e-03,1.942322903065335851e-02,1.057132720947265625e+00
3.122594634635920130e-01,-7.388065371538854453e-01,-6.684027614235823478e-01,-1.585211547698742174e-02,-3.301273846440570814e-02,7.847699534560581558e-02,1.028686881065368652e+00
3.220051021278498848e-01,-7.346388685369386051e-01,-7.132342928545940541e-01,5.305900955699347464e-03,5.478910739799707635e-03,1.966514188757040316e-02,1.046743631362915039e+00
3.523782217697067898e-01,-9.001736285638533008e-01,-9.666922612595827413e-01,8.019934838160849844e-02,-9.764659247523646730e-04,-2.962440987665474479e-01,1.392554998397827148e+00
3.298921603127106250e-01,-5.463523596884016786e-01,-8.727334668655014616e-01,3.021422891977801686e-02,5.603376769819171273e-03,4.739184027622383132e-03,1.078526258468627930e+00
3.385311297926116292e-01,-7.694291224871661061e-01,-7.015356247461758121e-01,-2.466843654881951606e-02,-2.384475118642477229e-02,1.658507148732966605e-02,1.077644944190979004e+00
3.142292914407472382e-01,-7.120267349652560362e-01,-7.194723922507035851e-01,-8.999642364679719987e-04,-1.760614863462496029e-04,2.463457764672502895e-03,1.030009150505065918e+00
7.443008816139473627e-02,-7.203671641619464605e-01,-7.141944376086715174e-01,-6.084829187354277207e-04,2.879142619311979637e-03,-4.345814005930958776e-04,7.917457222938537598e-01
3.138597719200564851e-01,-7.178870525820775228e-01,-7.127774651071616674e-01,-6.983452176475155255e-04,-2.178456314629260689e-04,3.101948976745483311e-03,1.029216289520263672e+00
3.605179490758040894e-01,-7.712090445006222206e-01,-7.905191155895656685e-01,-3.102057235596668988e-03,7.671992355351825964e-04,5.405106588595383387e-04,1.141518354415893555e+00
3.628662983894714311e-01,-6.119997251630286961e-01,-8.731978809506595329e-01,-4.645876672501308285e-03,2.256681247973092003e-04,4.744275168226432513e-04,1.128400206565856934e+00
3.669945934785132646e-01,-9.524245272856567412e-01,-4.641910366627827189e-01,2.722393412504894167e-02,1.606597561047528114e-02,1.325686742164531862e-01,1.179311394691467285e+00
-1.002698982980271269e-02,-7.255863437638325752e-01,-7.918085608813872911e-01,-3.422353728130814871e-02,-1.248396556783336053e-01,-8.597096717424852763e-02,7.976453304290771484e-01
3.187961817152545341e-01,-7.263767126557133524e-01,-7.126948023668946419e-01,-4.032481192589635298e-03,-2.595018996096211525e-04,3.238748829288620908e-03,1.038438320159912109e+00
3.113618802056936641e-01,-7.126405787385428070e-01,-7.105259754570137920e-01,-4.125559488846894060e-04,2.446050039836716351e-04,7.181123981023995739e-03,1.023022770881652832e+00
3.175831172718903694e-01,-6.947427614736683132e-01,-7.363773943681548584e-01,5.797538792831529245e-04,-2.090979994779735771e-03,7.277536533936350242e-03,1.033855915069580078e+00
3.185404299420591667e-01,-7.282331303448061899e-01,-7.145800131301435210e-01,-9.908689797900474897e-04,2.335388685045212975e-04,8.917523620865551795e-03,1.040130376815795898e+00
2.941117482527310090e-01,-4.523168538820395712e-01,-1.106403695601975379e+00,-3.240036503607022361e-02,-7.357389207594866587e-02,2.527972572152974440e-01,1.297814488410949707e+00
3.657116933915202650e-01,-5.952000480075008149e-01,-8.836015692445327030e-01,8.834770671718610024e-02,1.595158392036000183e-02,-3.211715818563118940e-01,1.271726369857788086e+00
3.551777615714921676e-01,-7.800793098575047324e-01,-7.953657527362318902e-01,-3.059209002131332671e-03,-6.241964442474593443e-03,-1.851430486600106392e-03,1.143044829368591309e+00
9.254186811955111835e-03,-6.363649192905376228e-01,-7.809739767960151013e-01,6.602172900691793966e-02,4.251854038725508961e-02,7.505613319736445521e-02,7.526609897613525391e-01
4.131703725018311402e-01,-7.192262096957875439e-01,-9.204070891368676399e-01,-7.489568402041717199e-02,7.028068232020515810e-03,5.696952649922700646e-02,1.255916118621826172e+00
1.103300184722958432e-01,-7.095996784367222254e-01,-7.701738551415908685e-01,1.135652086545763453e-02,-2.957519965251710972e-02,5.842975810912120690e-03,8.536591529846191406e-01
3.320804496126984473e-01,-7.558747221993997734e-01,-7.087593670067640073e-01,5.101550763104195987e-03,2.881045006405749133e-04,8.642939170923355854e-03,1.065321207046508789e+00
1.572077515400341352e-01,-7.206267976577169776e-01,-7.890327145886862903e-01,2.898453745697114961e-02,-1.001615261131226509e-01,1.782130188779800228e-01,9.814371466636657715e-01
3.449551819988584955e-01,-7.263590260909513763e-01,-7.611180723745638588e-01,1.168207710850862127e-02,1.281670437237547588e-02,4.433192502330961411e-03,1.089550971984863281e+00
3.152400609466871617e-01,-7.068600272265435080e-01,-7.002395568433181783e-01,7.535269570078068774e-03,-4.257740234540984383e-04,3.609279128327459729e-02,1.020805835723876953e+00
4.331308590410493098e-01,-7.577955721780351706e-01,-7.445599710547539107e-01,1.731309159878835838e-02,3.763871126156396324e-02,2.186655379312040792e-01,1.245516538619995117e+00
3.358029289272057571e-01,-4.187844511463120201e-01,-8.292706045124951242e-01,4.189393944776505924e-02,5.006492368324579056e-02,3.511917953117918434e-01,1.196010231971740723e+00
4.683463480226457976e-01,-1.060098705480454484e+00,-3.670059244515498365e-01,1.921142422709512868e-02,1.428016657821993586e-02,-2.289725846301770562e-01,1.384258627891540527e+00
3.237995623576511717e-01,-7.628987940049462013e-01,-8.981879205870831884e-01,4.916176397335505349e-02,-1.346862055101997503e-02,-1.123117020555183636e-02,1.163790464401245117e+00
2.177359491414152526e-01,-7.180340999505259170e-01,-5.625143185688530334e-01,-4.858072046535961974e-02,-2.843006278156283081e-02,-4.010642942897768015e-01,1.116415739059448242e+00
3.597298431253745932e-01,-8.008527017908235734e-01,-7.472043207121874531e-01,-4.926888928479165007e-03,-1.113950393669355457e-02,2.218744167115748248e-03,1.134912490844726562e+00
3.558337276128466509e-01,-6.933123850823579293e-01,-8.187445392499365093e-01,1.362229445596687023e-02,1.278425439027801314e-02,8.826909032926498738e-04,1.117625474929809570e+00
3.586803266744426066e-01,-7.577382296200124712e-01,-7.606046175313923019e-01,-8.157329453147748113e-03,5.277896261994926425e-03,-4.834262888736310000e-03,1.118012547492980957e+00
3.668703948740064114e-01,-7.812192904439021479e-01,-7.751011606018594069e-01,-8.949943611714604452e-03,5.851086660483437174e-03,-4.158874221488619667e-04,1.145192861557006836e+00
4.257265792936472115e-01,-4.796719485018822726e-01,-9.962363974909262954e-01,-4.402270687705638064e-02,3.697905445637066080e-02,9.724982199095309754e-03,1.250792622566223145e+00
4.759033584166338926e-02,-7.313771000073053807e-01,-7.346501932889057951e-01,-1.412936080587910009e-02,9.307717901677968475e-02,-2.994210483289480584e-02,7.991427779197692871e-01
1.957375219482454520e-01,-3.555203323166494234e-01,-9.740358000217439471e-01,-5.163124447093386110e-02,-5.101210785861122476e-02,9.109959013996402066e-02,1.033493876457214355e+00
3.909626364821195410e-01,-6.424671259259120415e-01,-8.076867196572022900e-01,-2.193832593826752428e-02,-2.917432104908258047e-03,-2.046292336634893960e-01,1.180299162864685059e+00
7.524027102869860206e-01,-2.975895916498714766e-01,-1.343707015622436440e+00,-5.312519667224428754e-02,1.582147676732652275e-02,-2.008020205705705052e-01,1.850795269012451172e+00
3.533050480514809966e-01,-7.428874029728758099e-01,-7.654447324484512372e-01,1.518009429779181366e-02,-1.885137917679650596e-02,-2.348726852740087856e-02,1.109182715415954590e+00
3.122151682978114295e-01,-7.441936103214228382e-01,-7.843184628072390474e-01,-1.272801058116674287e-03,-1.965493111759228622e-03,-1.610291036655605440e-03,1.077043175697326660e+00
3.579608165570050682e-01,-3.985244947309899977e-01,-9.748147691402498927e-01,-1.339926077134722532e-02,-6.302879451426219269e-03,-9.037189701179842993e-02,1.168543815612792969e+00
7.035546050907629523e-01,-3.185893365026444268e-01,-1.332957353018369151e+00,2.843199177294809810e-02,-2.044087224307722384e-02,-1.844630865465539393e-01,1.793407201766967773e+00
3.312660896228587504e-01,-7.385048460517769087e-01,-7.236611923141251790e-01,6.841810256275314590e-03,7.626429357757036776e-04,-5.642106887766062950e-03,1.062538743019104004e+00
8.014042174051919654e-01,-2.966080750010359202e-01,-1.427111532113919168e+00,-7.535577689016545976e-03,-3.404964342519838788e-02,-1.025034649297576067e-01,1.939109325408935547e+00
9.740303542646422397e-02,-7.214221847582975577e-01,-7.174984130164907548e-01,5.855559615432095674e-03,6.434465948531395245e-03,-2.531756571153061068e-03,8.170211315155029297e-01
3.555678052683937107e-01,-8.042616539271043585e-01,-7.081337624574020051e-01,-7.894709435513199910e-03,-6.927048133862353380e-03,-5.621843549055363307e-03,1.115068912506103516e+00
6.394762858486651158e-01,-2.887318724461757080e-01,-1.172436678840313551e+00,-2.502914180934998067e-02,4.012843296168626395e-02,2.357617222976185825e-02,1.571987390518188477e+00
3.272028048588793703e-01,-7.968160290048911243e-01,-5.617855025143214664e-01,-2.044469510367744047e-02,1.510996823098711972e-02,-1.495011489457291343e-01,1.059938549995422363e+00
3.625027494523926919e-01,-7.150690965719720404e-01,-8.158471362059880327e-01,7.382653959471020301e-03,8.421901900065540195e-03,-6.479840204269386728e-04,1.131499171257019043e+00
7.473914228868567822e-01,-2.877670267754169897e-01,-1.397204610407720260e+00,-7.527361977419589484e-03,2.673593271960013340e-02,-9.382330488386664280e-02,1.865360856056213379e+00
3.439740727783716090e-01,-7.180552193931004634e-01,-7.581968269719130404e-01,1.926644038047520269e-02,-1.804368192952661432e-02,-4.171441230798727390e-02,1.086029291152954102e+00
3.275325747518859076e-01,-6.904928559245100406e-01,-7.436161434547754467e-01,6.796143913518942932e-03,-4.256931153054498151e-03,-6.543680655922803902e-02,1.051816344261169434e+00
3.653281068642733054e-01,-2.471412906993234460e-01,-1.026761935077482146e+00,4.156750665154114455e-02,-8.657633761355809643e-03,-1.371921099666207622e-01,1.233812928199768066e+00
3.794603309357746923e-01,-8.397033022610396191e-01,-7.085253554570013490e-01,1.600634158506248836e-02,-8.795485137024000241e-03,4.414557175471521544e-02,1.162104725837707520e+00
3.558332079066641174e-01,-9.104240818758080334e-01,-5.987783061555812525e-01,-6.132779289475604606e-02,-3.223303495624690179e-02,-3.145890607458065591e-01,1.271694064140319824e+00
3.281231009921590225e-01,-7.684047945956830050e-01,-7.744929284862757113e-01,-1.992314382402252115e-02,-9.987174616042735625e-03,3.437996601570637075e-03,1.100278019905090332e+00
3.337720698740723191e-01,-5.581032302240346299e-01,-8.702231989556765690e-01,-3.378661338689334381e-02,1.212289221612615660e-02,-1.101865093399128151e-02,1.084187388420104980e+00
3.539204133108923567e-01,-8.185361823627188560e-01,-6.880516479931255702e-01,9.307982638382044510e-03,-1.103423003317971496e-02,1.757328592076151837e-03,1.113250970840454102e+00
3.625764729308915135e-01,-7.887592430454180015e-01,-7.769768797322973430e-01,3.265979382896937264e-03,-3.084043745354560044e-03,-1.533879812630613770e-03,1.145519495010375977e+00
4.430378860258299412e-02,-8.016278008472380590e-01,-6.929295607835243009e-01,-2.744383509329277604e-02,-7.353239606641588655e-02,-9.147142161216816059e-02,8.240423798561096191e-01
3.494160067465474917e-01,-7.892319934457725505e-01,-7.609016674268532787e-01,-1.123327157934555896e-04,2.391237632455058427e-03,8.939532023717710989e-04,1.124759197235107422e+00
7.214233373906565605e-01,-1.241087297956735558e+00,-3.971500834946657399e-01,1.193322722826409797e-02,-7.764981917414315316e-02,-3.464660575817468113e-01,1.812753200531005859e+00
3.360815561114623429e-01,-7.721864029621408054e-01,-7.783910212429265840e-01,1.902578704488482562e-03,3.027440818744204544e-03,-8.160657955270922675e-04,1.111401438713073730e+00
4.413008477860944634e-01,-4.914768247838827708e-01,-1.016586241173963234e+00,-5.191413595088052724e-02,3.911920360562559998e-03,-2.450446491098217175e-02,1.282792687416076660e+00
2.392595779023199420e-01,-1.954224032001177780e-01,-1.008743509995137178e+00,4.463609435034718992e-02,1.787297518391153806e-02,-7.737437968381372100e-02,1.108544826507568359e+00
4.546375093989776239e-01,-4.451331100521047079e-01,-1.058054314347145031e+00,-1.697621195513840733e-02,-1.586554259469984129e-02,-4.732039724266010050e-02,1.321016788482666016e+00
4.229207209128881817e-01,-7.141162380033186929e-01,-9.624971757379032766e-01,-5.713896941004657781e-02,3.207130479676203582e-03,3.470773279226335717e-02,1.284680366516113281e+00
7.324601414009559441e-01,-1.306026342423067144e+00,-3.628411317214245702e-01,-1.341796570115884671e-02,-7.901627698183080403e-03,-2.585003918761206165e-01,1.823060631752014160e+00
3.537295513959493598e-01,-7.714894202555853120e-01,-7.827431355006730929e-01,5.808115377838992711e-03,-3.899292287211306445e-04,-1.992221996821095468e-03,1.130938053131103516e+00
3.595915456470889504e-01,-8.049695941604608773e-01,-7.140833222559342941e-01,1.397378939841176400e-02,-6.994084872079231116e-03,3.539693131851084310e-03,1.122225642204284668e+00
3.578954926338645537e-01,-4.102012183926042055e-01,-1.043025346559247168e+00,-1.155132965272089030e-02,4.776221791484473213e-03,-4.501553900618556620e-02,1.217808246612548828e+00
2.542624393829730489e-01,-8.145160962435799012e-01,-8.220256310527248589e-01,-2.896252149431584669e-02,-6.269463211035031236e-02,8.827942839350455539e-03,1.079310894012451172e+00
3.550137840181386562e-01,-7.949028881854932616e-01,-7.155244639126385753e-01,-2.105152749703267240e-02,3.687012786740400186e-03,-2.661674133703525666e-02,1.113923907279968262e+00
3.397049788279877247e-01,-7.285568920982774532e-01,-7.219913395222580244e-01,5.197066513178249213e-03,8.366652769449299878e-03,1.324719076958794928e-01,1.089564204216003418e+00
1.748396250803225804e-01,-7.695105472771042177e-01,-7.531340322285446920e-01,-3.365994534895121182e-02,-4.944616721246105490e-02,4.801580091348492743e-03,9.420207738876342773e-01
4.649490876726097288e-01,-4.402656550938001123e-01,-9.585228308341529058e-01,-8.041189449204358408e-02,-6.227533898569101445e-02,2.057968566279732292e-01,1.309667229652404785e+00
3.507363146673871945e-01,-7.618283405310064538e-01,-7.909830507534103550e-01,-3.312907814289792630e-03,2.567591992561524977e-04,-1.069375516475636577e-03,1.127440929412841797e+00
3.524399768145399792e-01,-7.694366068700404515e-01,-7.917973481989724061e-01,-4.807888177760139686e-03,-1.807027925580246891e-03,-2.344500896350960699e-03,1.133264660835266113e+00
1.810974483610471863e-01,-7.479965963264352258e-01,-7.400248541073572994e-01,9.067018089049470528e-03,5.867484303130328198e-03,-5.140612066659865260e-03,9.253658652305603027e-01
1.793397750850280192e-01,-7.490556715310812130e-01,-7.337117995169499807e-01,8.914772162288203336e-03,7.596180418801046913e-03,-1.995905206389073441e-03,9.210492968559265137e-01
3.223709338555538206e-01,-5.717191093021103399e-01,-8.434054165074174048e-01,1.887005646268655537e-02,-1.955245233304295227e-02,-2.721822956631485962e-02,1.058565139770507812e+00
2.781130583801866285e-01,-7.560176025515454867e-01,-7.700813544591451620e-01,-2.020622116718663944e-02,-9.732257285213173625e-03,3.158770431906107539e-04,1.041958332061767578e+00
2.673120287223422764e-01,-1.006012143702976758e+00,-8.270107934928607740e-01,3.016663337103472203e-02,1.273371537703921197e-01,2.286607054928240512e-01,1.278162956237792969e+00
2.436027625861259538e-01,-7.675184682436342332e-01,-7.711291491422311850e-01,-7.902153626305619127e-02,-3.426071652771912196e-02,1.174731562977078406e-03,1.023859739303588867e+00
3.369267796125286485e-01,-7.320241839075101176e-01,-7.391146806008208614e-01,-7.410003977699025114e-03,-7.097287536134331241e-03,8.745850262746037926e-03,1.072767972946166992e+00
4.260461861068483014e-01,-8.372803252515657046e-01,-7.760779939217989920e-01,3.408702229735402489e-02,8.794654073698573993e-02,9.456350545431987942e-02,1.255363464355468750e+00
4.114540601728360336e-01,-9.300216365412875552e-01,-5.036775851173059815e-01,-1.028654341251954325e-02,-5.175274436925113297e-02,5.146205851148927257e-02,1.194024085998535156e+00
1.451572005815213728e-01,-7.315930032081241485e-01,-7.467421088890454639e-01,-7.311820302636655444e-02,-1.028959870616194192e-02,8.994411415887512695e-03,8.937569856643676758e-01
3.174321804914043144e-01,-5.663029675164108490e-01,-8.377137584617548871e-01,-3.274175458898126358e-03,3.954307530474931998e-03,1.883152398924966067e-02,1.046732902526855469e+00
7.395668616872529411e-01,-7.589095870936721777e-01,-8.386094333692671876e-01,-7.087558524539173954e-02,-4.190942178268428769e-02,5.313677439293220672e-01,1.799612879753112793e+00
3.551977043667600697e-01,-8.163388267940159260e-01,-6.938733959655378758e-01,3.609160682315179329e-03,-9.504885130338109472e-03,1.291696660924169550e-02,1.115721106529235840e+00
3.112589382993229403e-01,-6.494679273365451255e-01,-8.688354638996653723e-01,5.095523171725960948e-02,-3.908182062054987166e-02,1.710002262156599673e-01,1.132238984107971191e+00
3.480609903396283400e-01,-8.701876746566414855e-01,-5.972539914874233080e-01,-4.485451663611683942e-04,1.558614591424042212e-02,-3.362911244185461026e-03,1.107648372650146484e+00
3.302696053689188060e-01,-1.131919189942338200e+00,-7.373045230120954807e-01,-9.754844166726953092e-02,8.229465247119488458e-02,-2.145376778076433788e-01,1.379731535911560059e+00
2.995343450197128776e-01,-7.662169105616326581e-01,-7.863010344818845976e-01,2.262723974311444883e-02,-1.181542961293042225e-02,-8.317585797847385984e-03,1.076938271522521973e+00
1.697640874572166059e-01,-8.386372096500809281e-01,-1.113120611038667107e+00,1.855972283768534126e-01,-5.482786400447638500e-03,-1.250092880849443810e-01,1.232604861259460449e+00
3.117987605988629118e-01,-6.751324680484196428e-01,-8.181146007928049579e-01,1.561047076221432767e-02,1.378260770930838167e-02,1.232087664494841729e-02,1.066464781761169434e+00
3.354686739222651481e-01,-7.889943694453696033e-01,-6.666455569962823624e-01,-1.464438237679582117e-02,4.851797884712060263e-03,1.544440158110809563e-02,1.069223642349243164e+00
4.010209622332215895e-01,-5.774591250482357108e-01,-9.016255580790680790e-01,-1.820560905113356720e-02,1.562310756028200678e-04,6.175834824423367952e-02,1.179887413978576660e+00
3.574278426501780181e-01,-7.482551002610402513e-01,-7.922355131128705485e-01,-2.602237609906177078e-03,1.238536363958820524e-02,2.140782472124089751e-03,1.128535151481628418e+00
3.063396381624911013e-01,-7.708452882335838918e-01,-7.736089172511286804e-01,8.741122646197078960e-03,-6.839114541056946946e-03,5.781366174959412865e-03,1.078787207603454590e+00
6.522878034782564338e-02,-7.236629524407662828e-01,-7.129727538938532838e-01,1.444505266711399415e-02,2.903980061687793345e-04,3.281273922763995122e-04,7.840009927749633789e-01
1.679506373762393867e-01,-7.346113527228514961e-01,-7.470486472402856348e-01,-1.814663988388725896e-03,-7.992847946461528047e-03,-4.370811054246959843e-03,9.089868664741516113e-01
3.393952083926117247e-01,-8.970259018530239992e-01,-5.501080676473688591e-01,-5.485304587948942011e-03,-3.616025191293266439e-02,1.886812355338461644e-02,1.106902718544006348e+00
3.668819372333187445e-01,-8.670874685039482443e-01,-1.056984299647997894e+00,9.560443126429229999e-02,-3.512440652229874977e-02,-2.570038373667274945e-01,1.422091007232666016e+00
1.200252855324213108e-01,-7.977838795876257549e-01,-7.923603942961086055e-01,-5.381290957561079419e-02,-1.916232795469724817e-02,-1.592595031691872685e-03,9.204466342926025391e-01
3.210260813034206961e-01,-7.763243770963155210e-01,-7.960552718027804620e-01,-4.927260124102467165e-03,-8.928687386950136251e-03,5.668037845389852641e-03,1.107532143592834473e+00
3.446393716988080946e-01,-9.122813730036881674e-01,-5.233709391718204262e-01,1.669699484410701838e-03,2.595829564642991930e-02,3.950477164179704015e-02,1.117579221725463867e+00
6.020025852448001036e-01,-6.234101984145183906e-01,-1.007495384507263614e+00,-1.993489174086170157e-02,2.142294990009022473e-02,4.673211263942022575e-01,1.666600465774536133e+00
3.192780756615491988e-01,-8.504351241670017325e-01,-5.617816296730128167e-01,1.718952568324608535e-02,3.004760201840816700e-02,2.145371653677576387e-02,1.057772994041442871e+00
3.566532952586101146e-01,-9.041006367356918538e-01,-5.389996762787692131e-01,-1.162216451222835428e-02,-2.270922848359940849e-02,-1.014537045769387143e-02,1.124614477157592773e+00
3.989103062510698239e-01,-9.398576677791239398e-01,-4.819390767712722345e-01,6.528180461596139531e-03,1.510135766120581334e-02,-5.610564265812633539e-02,1.182876944541931152e+00
3.669893372059049308e-01,-1.019838504693849623e+00,-3.432257706707008138e-01,1.221442907416381935e-03,7.086398011963267185e-02,6.415903880227614986e-02,1.212505459785461426e+00
3.533856284719373297e-01,-7.180132864983840291e-01,-8.219245284153374742e-01,1.093090044194061292e-02,7.147363825904981885e-03,5.987452329178319897e-03,1.127227902412414551e+00
1.656952638101879538e-01,-1.035745904237648674e+00,-1.052105980177714173e+00,-2.574535688181325832e-02,-6.100984008172247869e-03,4.204771324767421666e-03,1.210593819618225098e+00
1.644879833905971145e-01,-7.376952656920776619e-01,-7.453336459932693447e-01,-2.013420574439717722e-03,6.616147261784030391e-03,6.040769070854273490e-03,9.061661958694458008e-01
3.168513953661374338e-01,-9.333706370746874814e-01,-4.128212189069109250e-01,-1.284784942030241933e-02,-5.284516156824063671e-02,2.044178155483318202e-02,1.092406153678894043e+00
4.074621201196230724e-01,-4.304462356049478799e-01,-9.526624391517060086e-01,2.638950567086101665e-02,-2.416744651632975194e-02,2.792074156456735012e-02,1.191028833389282227e+00
1.875449988508250398e-01,-7.469760732818166993e-01,-7.446660699523879323e-01,-5.595411148127316624e-03,1.729876614044047580e-03,3.422898422388109471e-03,9.334421753883361816e-01
3.564900069077965861e-01,-5.671280863208694178e-01,-8.924179864910473103e-01,-2.873322242954110678e-02,-5.748840774578844494e-03,2.081623205473383947e-02,1.123923182487487793e+00
8.368322746591216887e-02,-7.185676387479019711e-01,-7.183052407199118639e-01,-2.563180591891849307e-03,8.819189895906077905e-05,-4.032733262941695261e-05,8.021320104598999023e-01
2.458737509715350766e-01,-7.615845081242226255e-01,-7.603925255784940163e-01,-1.872620503357391372e-02,5.979156385478827905e-03,2.086346917921261777e-03,1.007444739341735840e+00
2.710729001306372288e-01,-7.508214285371749286e-01,-7.904930534513243678e-01,-5.464857684045301006e-02,-1.608964005679397111e-02,-1.198442366242079803e-02,1.047162294387817383e+00
3.576144110838803125e-01,-8.194162899143259127e-01,-6.987273810026839449e-01,-1.686610335500278099e-02,-9.068102197053035107e-03,-4.904495275912939233e-03,1.122089505195617676e+00
1.827444336984862527e-01,-7.458620670866256130e-01,-7.484868205106358641e-01,1.148746028179171812e-02,2.473088104579273389e-02,3.558703852215986015e-03,9.311407208442687988e-01
1.073928982046682967e-01,-7.348660887237445927e-01,-7.337438622836707225e-01,4.302766050655271179e-03,2.929999062107013080e-02,-3.891974009796991645e-03,8.432868719100952148e-01
4.099520595792137678e-01,-1.039252566566452263e+00,-3.294282203141568610e-01,-6.173795249191774831e-02,-6.004377751433513655e-02,3.198604221360981659e-01,1.380053043365478516e+00
2.911010244744621778e-01,-7.712688967241780880e-01,-7.648661252003119415e-01,-9.721268957621193420e-04,1.542838194634878202e-02,-8.229503201186633751e-04,1.059522390365600586e+00
2.738369581428851118e-01,-7.615889518342866538e-01,-7.678691269112005724e-01,4.987435728524356859e-04,-9.078149041648312170e-03,-4.996942552644349431e-03,1.038735628128051758e+00
3.544102425605575868e-01,-7.631374215923915072e-01,-7.922451264486186640e-01,4.758681140736729411e-03,1.889283986313922093e-03,6.180077088165866501e-04,1.132417321205139160e+00
3.149531581002431024e-01,-4.965685198712850301e-01,-8.977418068907929705e-01,-8.022601908269823149e-05,1.480763961072189671e-03,1.247226618210340102e-02,1.070299744606018066e+00
3.072866523398321004e-01,-1.061862855712248477e+00,-7.544973439908424506e-01,4.928789282622412365e-02,-6.220019692410162088e-02,-2.129286720992309423e-01,1.305038332939147949e+00
3.552386479546701392e-01,-8.420395880241247077e-01,-6.770199766755797821e-01,-1.183287534086318628e-02,1.462604757451338791e-02,7.813824188448767472e-03,1.124445319175720215e+00
3.485072616623712816e-01,-5.522121196908749141e-01,-8.963295947411684672e-01,1.398514911808390951e-02,9.274109794644110061e-03,2.478882423295305365e-02,1.114609241485595703e+00
2.223838944550909358e-01,-7.578548146197336965e-01,-7.512311187361295772e-01,-5.561276907850229434e-03,2.990080782353455105e-02,5.366700239452647670e-04,9.783633351325988770e-01
4.015715549360401870e-01,-5.143391567916587581e-01,-9.543046541646953429e-01,3.558066457048662291e-03,1.547697140801742178e-04,1.518534867062196203e-01,1.226640820503234863e+00
3.052544176281096755e-01,-4.304377295315884866e-01,-8.887959321557572512e-01,5.389997462120990450e-03,5.406667812365042840e-03,7.111265199022709371e-02,1.050662398338317871e+00
3.555691845771627446e-01,-7.758749192362224267e-01,-7.863429725888166910e-01,2.096189521158946766e-03,1.465592707658388855e-03,-7.742562051842755708e-04,1.136723756790161133e+00
6.704686329968474467e-01,-1.262170616830647907e+00,-3.987798868409984099e-01,-2.819097380400805222e-02,1.002707658918740308e-01,-2.814795475058945451e-01,1.755606532096862793e+00
6.583153708641675816e-02,-1.071251059399164873e+00,-6.262198703694588087e-01,1.617863432610214952e-02,-3.053128360624524779e-02,1.522291499480777077e-01,1.028627872467041016e+00
3.442069584826817907e-01,-8.744609913821084213e-01,-5.579786841430948163e-01,5.022592807627642049e-03,-1.512048406564935749e-02,-1.038491059724903562e-02,1.095769524574279785e+00
3.461675466043223626e-01,-1.020975654252739062e+00,-3.949881889801625245e-01,-5.444643461566939929e-03,-6.195443064280691664e-02,1.101627075686119686e-02,1.190417766571044922e+00
3.686304624243576522e-01,-7.548397256015663137e-01,-8.012720638743475732e-01,6.482669174529702254e-03,-6.616799512593722274e-03,2.828764154183090445e-03,1.147513866424560547e+00
3.829764157185851503e-01,-2.123979117434089958e-01,-1.109222844163730848e+00,1.033608889925263959e-02,1.901259264778976804e-02,-1.427229765076821200e-01,1.324849605560302734e+00
3.353804543841873431e-01,-7.308085118032114913e-01,-7.441234116156171252e-01,6.234410883197549075e-04,1.182731788473730767e-03,-7.793683186780953585e-03,1.072995781898498535e+00
3.564998261499224830e-01,-7.582056551060156746e-01,-7.565370980867697215e-01,2.391568298075895729e-03,-7.446604596311719518e-03,-6.436606030651180477e-03,1.114010334014892578e+00
3.144359329486712817e-01,-7.503814277747379302e-01,-6.631967484562095727e-01,-4.328398699036378923e-03,-2.390489511422966458e-03,-2.764926844258102506e-02,1.025167465209960938e+00
3.562157578331212604e-01,-7.760588631493292588e-01,-7.879429006990605888e-01,2.089916105417140117e-03,1.506255445418769757e-03,2.433464502690364903e-04,1.138272047042846680e+00
7.068843539153089051e-01,-5.925733171752203265e-01,-1.044606182480259715e+00,4.663898630564157488e-02,-4.181455712354708448e-02,-5.247309973930975868e-01,1.821570873260498047e+00
3.382179194317739279e-01,-7.119158759949506532e-01,-7.566006323564309355e-01,-8.177637520313177713e-03,1.303699336438839292e-02,-4.902316244330127276e-02,1.076857924461364746e+00
3.163647238301843800e-01,-5.478756126521090453e-01,-8.449869815268045148e-01,5.582890527208459255e-04,-6.732735759634255780e-03,-1.985231814824530566e-02,1.045601010322570801e+00
3.179112721054537793e-01,-8.771410865513851185e-01,-5.166863258931008174e-01,1.949380936008894864e-03,2.420020983789250915e-02,-9.841819809869839508e-03,1.062720298767089844e+00
3.280438404860482882e-01,-4.346428568003120607e-01,-8.750381985147768216e-01,-2.415514627621907773e-02,3.175035932060510380e-02,-2.527459380099774666e-01,1.143651604652404785e+00
3.350190078197091692e-01,-8.380197819773789192e-01,-6.159162125356338890e-01,-1.498987831905943154e-02,-9.491417348403826879e-03,-1.705398156165345916e-02,1.080106854438781738e+00
5.576247955769835229e-01,-6.511362121323535090e-01,-1.082743730032048823e+00,6.140524969625866386e-02,-1.761407650816890907e-02,-3.594308252077644816e-01,1.602782845497131348e+00
1.039138511025881617e-01,-7.321348292813378844e-01,-7.298858523332292236e-01,-4.265585516546472472e-02,-1.070044521247435652e-03,2.229953713271359741e-03,8.381999135017395020e-01
3.282160879324648173e-01,-6.617730375311735580e-01,-7.811675623341010066e-01,1.241347000423505438e-02,-1.448349816350327432e-02,-1.390437525022909446e-02,1.055558800697326660e+00
3.401512019720647761e-01,-6.304069490325747704e-01,-8.367108413705881542e-01,9.188459282205303780e-03,1.772108216003800280e-02,-1.417524230528404740e-02,1.089299082756042480e+00
3.183851621024942347e-01,-5.084993165321795017e-01,-8.867201609496332404e-01,-1.050585956066492875e-02,4.805228078675621503e-03,-4.086109898012123959e-03,1.067700505256652832e+00
2.900771091743327146e-01,-4.875319831569018825e-01,-8.323842167658552782e-01,-1.601456476724236189e-02,1.397306060324087808e-02,-1.092974939749382646e-01,1.014372825622558594e+00
3.402385437511293298e-01,-5.897701125892780283e-01,-9.030594827729578888e-01,-3.743962895900180415e-02,-7.884170933275331389e-03,-1.498500221960353818e-01,1.151601076126098633e+00
4.097228159500814204e-01,-1.085335720308713281e+00,-4.728900410289537670e-01,7.962883573405751814e-02,1.175580690351467200e-01,-1.109841846289976036e-01,1.338686704635620117e+00
2.654654018844653240e-01,-7.656339250684474074e-01,-7.685730764667495496e-01,7.623412756069265772e-03,1.834811451703022983e-02,-5.681702646460436677e-03,1.033192276954650879e+00
3.564606715745449739e-01,-7.463064850263978478e-01,-7.715522147457134494e-01,3.949440257105964365e-03,9.065041500625243762e-03,1.804033899262338578e-02,1.116173148155212402e+00
3.381431971429725847e-01,-8.175795689031638558e-01,-6.359056593104100985e-01,-7.836035724674688188e-03,1.022891843140803954e-02,1.714096130942093996e-02,1.077086567878723145e+00
1.570541429998172367e-01,-7.448689654869288246e-01,-7.460153927982964284e-01,-2.920701365650768544e-02,-2.877818293059055885e-02,-6.820525528204570385e-03,9.053639173507690430e-01
3.317816060300806114e-01,-5.575902595085119318e-01,-8.635946626593893338e-01,1.336909676125022824e-02,-3.967979195870323383e-03,-3.264854276613973760e-02,1.077290058135986328e+00
3.520283370663578326e-01,-7.331911194042800561e-01,-7.718563326786064271e-01,2.167209985332612613e-03,-7.566564024496204993e-03,5.726695666856709138e-03,1.105188131332397461e+00
3.328392411768824610e-01,-5.818564489600392964e-01,-8.498738848569206139e-01,1.129331261674448340e-02,-9.826139673396036209e-03,2.620425578819608316e-05,1.074396729469299316e+00
5.204941204979046665e-01,-4.240823751220215154e-01,-1.273144208463244054e+00,8.245035243749923581e-02,5.118965332555334286e-02,1.821930020953679286e-01,1.594670176506042480e+00
3.344023751433818914e-01,-5.210210089928341004e-01,-8.877650979273979948e-01,7.549848838395471599e-03,-5.900967292999621978e-03,-6.104926359473020203e-02,1.091525673866271973e+00
3.327139516553120901e-01,-5.884490143677134633e-01,-8.362384611246054256e-01,1.399683525614210319e-02,-6.870299733305981760e-03,-1.739513959055237480e-02,1.067629337310791016e+00
6.738688480053994789e-01,-5.470665297202397248e-01,-1.101065600279783618e+00,-2.793250938129140503e-03,2.555966793366507700e-02,-4.295573524952238653e-01,1.740556597709655762e+00
3.519882430226167203e-01,-7.047899380698374738e-01,-8.264975006400403501e-01,1.054151026452315038e-02,-8.224990316697150874e-03,2.286497342606287706e-03,1.122836947441101074e+00
3.919786679658413542e-01,-7.405414472436792073e-01,-7.021125360307274299e-01,1.527306354695744800e-02,-6.730317394192418534e-02,-1.675545946828251032e-01,1.157181739807128906e+00
1.638629364130220201e-01,-8.018367766467447977e-01,-7.015274001327873599e-01,-6.925358848716371696e-02,1.132187612844246655e-02,1.100180284452219890e-03,9.276559352874755859e-01
3.174981719550090120e-01,-6.128026811595532752e-01,-7.946788060309402102e-01,4.759554216010657320e-03,4.515210703033457375e-03,-3.965507779067440480e-02,1.035656690597534180e+00
2.353145546944618305e-01,-7.593072990889830898e-01,-7.523192369906408494e-01,-8.189027307347473625e-03,-2.462329824892001140e-03,-3.593026319132967047e-03,9.912765026092529297e-01
3.655145158617432166e-01,-7.548306933766575355e-01,-7.852828921706298537e-01,3.220055002449765530e-03,-6.837160456558064037e-03,1.320717542808550827e-03,1.135955214500427246e+00
2.125892654998178810e-01,-7.568474059455081449e-01,-7.537066709820441357e-01,3.834354888292739599e-02,6.307525130003020959e-03,1.930531337806527196e-03,9.702132940292358398e-01
2.469599565405030672e-01,-7.601710222903049763e-01,-7.597947477473911970e-01,-5.897107704171483666e-03,5.897544678965093573e-03,5.191095166383784959e-03,1.007086634635925293e+00
2.975560858818802057e-01,-7.699144589123265714e-01,-7.706072967920496453e-01,-8.088185609766996784e-03,5.601206369937759312e-03,5.046038765530757794e-03,1.067988872528076172e+00
3.604910782026715665e-01,-7.081062895877627827e-01,-8.157706105417592557e-01,8.613697368770266080e-03,1.534985581108494479e-02,-5.600766212316950557e-03,1.126749873161315918e+00
3.053860742959957353e-01,-5.265974145701639575e-01,-8.749002603102937758e-01,-5.685413599240234789e-02,2.623898244530802667e-03,-8.871648143588858892e-03,1.055105447769165039e+00
3.162387185256755329e-01,-9.119531716296471746e-01,-4.833426814179577757e-01,-3.958247508249707752e-03,5.124135603013384166e-03,-1.266030546098247112e-02,1.079978227615356445e+00
3.403580557395038397e-01,-9.286348543022630020e-01,-4.681544512086487364e-01,1.456187393202224966e-03,-1.675968706891098076e-03,-5.642039740166956974e-02,1.116961717605590820e+00
3.805847955020577600e-01,-9.182262885812262354e-01,-5.764249975912465462e-01,-7.892883032176925898e-03,-9.851466581650602378e-03,-3.714469009063817856e-02,1.168084025382995605e+00
4.649637385669101453e-01,-1.057723147452776624e+00,-5.038669159723276891e-01,-5.463175623561597125e-03,-5.814950265036148563e-02,6.258835759083764515e-03,1.338780641555786133e+00
3.735351655981637431e-01,-9.453055371446601463e-01,-3.798481805938648814e-01,-3.415660142807069866e-02,-1.921843438157480946e-02,3.109077324652297358e-01,1.268043160438537598e+00
1.782262045651304416e-01,-7.432344291987149631e-01,-7.445673281631365326e-01,-3.736270086650095822e-03,-6.992803661963668468e-03,-4.380846294796442338e-03,9.222612380981445312e-01
6.801827880232702572e-02,-7.150118649608185883e-01,-7.150826860375391059e-01,4.293983133150411726e-04,-3.129282748016574620e-03,-1.583530472316188641e-04,7.830846905708312988e-01
3.145534755267611615e-01,-5.206098395877951646e-01,-8.658200941861837752e-01,-2.834749636949407837e-03,-2.010982395150043463e-03,-3.308673537066490755e-02,1.052756071090698242e+00
3.743381610582670049e-01,-9.595049877810655214e-01,-4.954875497462754574e-01,-1.017517559308970046e-02,-3.799421314128669999e-03,-1.040721536540446454e-02,1.173116445541381836e+00
3.126237441622380375e-01,-9.284390820524414112e-01,-4.210425679457690529e-01,1.308376554656314611e-02,-1.497965021661298163e-02,-5.968673175217825699e-02,1.086209654808044434e+00
3.304691203733852722e-01,-1.016033826932562389e+00,-3.322728395589920614e-01,4.215332768641959910e-02,1.003332713746197952e-01,1.007367329913618076e-01,1.194105386734008789e+00
3.709640107340054227e-01,-7.759242817619549371e-01,-7.803962029868446448e-01,1.012925450590259355e-03,4.201149578512785795e-03,-1.049178049321967737e-03,1.149156570434570312e+00
3.127193537218272978e-01,-5.025346282874825210e-01,-8.853036529725535342e-01,-1.710998669414192730e-03,7.765698925910246610e-03,1.119518450719548738e-02,1.060080528259277344e+00
3.564711750732974527e-01,-7.748445384116505741e-01,-7.836807352299894891e-01,-6.241374654528588500e-03,-9.885336925384746905e-04,-1.135448757281048906e-03,1.135814070701599121e+00
3.258224691636521508e-01,-6.456431041664348891e-01,-7.866854036122006288e-01,4.004387494421585147e-03,5.493085466116443168e-03,-1.935064451392386545e-02,1.049722790718078613e+00
3.355206961066223292e-01,-6.985134840200946105e-01,-7.655493721771560178e-01,2.730698175205776689e-03,1.363510636272111630e-02,-1.725915557227692201e-02,1.069818496704101562e+00
3.304221485750529208e-01,-5.195245773001412326e-01,-8.879905207309753967e-01,-1.997134572597415378e-02,8.357797204762897753e-03,-1.314316154992264257e-02,1.083179235458374023e+00
3.466815437069513672e-01,-8.182485856562788928e-01,-6.683365576989995782e-01,2.337042755368168995e-02,-2.704422128782517018e-02,-1.503171918141621086e-02,1.099731445312500000e+00
3.280061351203035769e-01,-5.584981314764867477e-01,-8.516819328243638854e-01,7.842982246062470825e-03,-2.657962160158677811e-03,-1.034794864886208199e-01,1.078927755355834961e+00
3.242285925570906335e-01,-5.320241358698143408e-01,-8.722173582747638765e-01,4.199529100558217071e-02,-2.734877762177186523e-03,-8.029440966799092382e-05,1.070282578468322754e+00
7.140421461673986947e-01,-3.204621292156645262e-01,-1.367193824617034981e+00,-1.169257028189090754e-02,-1.938733351680130279e-02,-1.601844246924323811e-01,1.824064016342163086e+00
3.534325826648107571e-01,-6.486569542255095078e-01,-8.262688912279354536e-01,7.917193360394039758e-02,2.183692626639814963e-02,6.378532972529180056e-02,1.116312384605407715e+00
4.207738304154363118e-01,-3.312162855541552764e-01,-9.654644088225912135e-01,8.786243240161842327e-02,-7.733805003275100523e-03,-3.079499308747565278e-01,1.323837757110595703e+00
6.339342653761883550e-01,-6.211461998057952183e-01,-9.741200270171496145e-01,-8.009957961772135732e-03,4.408755721070839462e-02,-5.033141806651755257e-01,1.705528378486633301e+00
2.900515555542738655e-01,-3.916971338298262384e-01,-9.378414100452504565e-01,5.377908744242418382e-02,-3.162455439671770646e-02,2.272901427042339217e-01,1.141072869300842285e+00
3.470034860130125631e-01,-7.795939412104118116e-01,-7.829031680141076421e-01,6.855651103518597272e-03,-4.121761282181352765e-03,2.207122114322300922e-03,1.128347277641296387e+00
1.214200380114270339e-01,-7.517185692152208443e-01,-7.398692439114500363e-01,-1.522002497529182860e-02,1.549637883158993916e-02,-1.137576434801484439e-02,8.683138489723205566e-01
3.641849879308532434e-01,-6.552096036816876801e-01,-8.687006295691465096e-01,-2.474248419335736346e-03,1.421732654280151095e-03,1.044353870221343544e-02,1.141370654106140137e+00
2.960479749447457176e-01,-7.693238340686618937e-01,-7.705127235123786500e-01,9.031367521894777609e-03,-7.440969439036279956e-03,6.040278855020052642e-03,1.066210746765136719e+00
3.255990314640868077e-01,-5.281468751158127084e-01,-8.657860075102745689e-01,-2.024144969285614562e-02,9.715966283283678992e-03,-3.263726436767128147e-02,1.065761804580688477e+00
3.244662144195963327e-01,-5.411144526223429230e-01,-8.837989720824093176e-01,4.560045845589447838e-03,8.445043753671865536e-03,-1.321274919906580830e-02,1.078927159309387207e+00
3.233589241187423413e-01,-6.531344040090483194e-01,-7.854348115375111572e-01,-3.092637559451241920e-03,1.763100874738893209e-02,1.722794210550197130e-02,1.049802184104919434e+00
3.330172026320448175e-01,-6.543420044241483602e-01,-7.929761712919785044e-01,-6.364563480263341413e-03,1.675708253877346635e-02,1.477871095381550967e-02,1.064236164093017578e+00
3.694990408474826959e-01,-6.564816949472949137e-01,-8.814708757604643452e-01,-2.663361906551846986e-03,2.994613143250551856e-04,4.446115215990717115e-03,1.155063629150390625e+00
3.361717518397332460e-01,-6.527696104573106339e-01,-7.979234323348103342e-01,1.825274544495229800e-02,1.219010688137318714e-02,7.653275105879726870e-02,1.077794194221496582e+00
3.798716953127869722e-01,-6.982222183330792920e-01,-8.234865418233181522e-01,8.833614022533044924e-04,5.403471812921088052e-03,6.367248026088345725e-02,1.151206731796264648e+00
2.600922516166163101e-01,-7.639595608796458936e-01,-7.649449896886921785e-01,8.144116249544337903e-05,-7.373387133193446200e-03,2.451840314681922716e-04,1.024624586105346680e+00
2.746895201495003769e-01,-8.886204457134785351e-01,-6.827279641804349097e-01,-1.923192513871793685e-02,-1.729197084503526424e-02,-1.171477007588254612e-02,1.076375126838684082e+00
4.078779765614674591e-01,-8.744208756561084872e-01,-7.873733706340753091e-01,-8.620477861604008279e-03,-8.771496815849298689e-02,1.538162612359762760e-01,1.278487324714660645e+00
1.195141879350456460e-01,-5.830816794445332629e-01,-9.987218720361872304e-01,8.359327647906532321e-02,-4.605044993807076714e-02,-6.887163479423635826e-02,9.999900460243225098e-01
3.580533469939769509e-01,-6.127437981114574050e-01,-8.488931843600259208e-01,5.518215993161185162e-02,3.237148949883032756e-02,5.139972278950891843e-02,1.116992235183715820e+00
7.555377962815938986e-01,-9.520999569018264719e-01,-7.570820624457758052e-01,2.519035118515930080e-02,-2.154060713262719723e-02,-5.696379577206768241e-01,1.896785855293273926e+00
3.111620500835367564e-01,-5.021454199169187449e-01,-8.562214371835572546e-01,4.944497456995076284e-02,1.479337423048008790e-02,8.212487974459131701e-02,1.050255179405212402e+00
3.497062342514206112e-01,-7.170181834560416245e-01,-7.819565015490415050e-01,2.293639114394623382e-02,2.077509963311320595e-02,3.197175368739529205e-02,1.103326320648193359e+00
3.810214709390604138e-01,-4.795263517288692601e-01,-9.555023698162594670e-01,-3.850816673792458594e-02,2.651211342598860585e-02,-9.100809245698907035e-02,1.186634182929992676e+00
3.562745608168012557e-01,-7.713618025848856252e-01,-7.908558451364353648e-01,-2.807794366156200587e-03,-1.184794359901240835e-03,1.040500447657500020e-03,1.137522339820861816e+00
2.526176322254652384e-01,-8.688177457526768954e-01,-5.439997362554613858e-01,-9.191445267584988366e-02,8.431915094896647034e-02,-2.368319092178911012e-01,1.101727604866027832e+00
3.646478917892174154e-01,-8.386373719656011749e-01,-6.990680360090393286e-01,-7.109194507771144896e-04,9.380666192943476478e-03,6.524653302341425383e-03,1.140099406242370605e+00
4.706634374112664276e-01,-2.627400563059663630e-01,-1.141573536392112675e+00,-9.674914735785732425e-03,-1.397865345690157690e-01,-1.523394367584056941e-01,1.443361401557922363e+00
3.202255192353216651e-01,-4.937792614343131659e-01,-9.051736978371989206e-01,4.868283762169333014e-03,-2.097480666696854932e-03,1.526244819608177893e-02,1.080513477325439453e+00
3.666057509861627706e-01,-7.573877661249501791e-01,-8.032470494574583952e-01,1.933485960342429906e-03,3.870428520489893457e-04,-2.330776283033868159e-03,1.147622704505920410e+00
3.337599109938754749e-01,-7.916472448856274324e-01,-6.536234316333735528e-01,1.814942037752647827e-02,4.599256719751419406e-03,-1.967142805538981201e-02,1.064176440238952637e+00
3.520563520711726402e-01,-6.592599429342498318e-01,-8.027808589334087808e-01,4.300536874254847625e-02,4.180559669047692606e-02,-2.807080484669158826e-01,1.198201298713684082e+00
3.578419372858006042e-01,-7.010148484855839301e-01,-8.143254317787135266e-01,-9.716825310647234180e-04,1.567849738370430835e-03,-3.031348691866211920e-02,1.121054649353027344e+00
3.621465601012431312e-01,-8.164887748840699011e-01,-7.072220459150131422e-01,8.912761989448189995e-03,6.693320761105820728e-03,-6.188380239311161435e-03,1.128194332122802734e+00
3.722510396014921952e-01,-7.683833603506349252e-01,-7.858702794560188387e-01,-2.668653324627122923e-03,-8.795232810756557426e-03,-1.245497708761787302e-04,1.149587869644165039e+00
3.645512662940280646e-01,-7.730220118894154391e-01,-7.860263427789218049e-01,-2.040917394133134281e-03,-1.114617242210258832e-03,2.489411584293905761e-03,1.144146084785461426e+00
3.140072649312785069e-01,-4.776797160489241745e-01,-9.107840707117905721e-01,-1.767242053190254056e-02,-2.309741022103069599e-02,3.133280005748646790e-02,1.078291893005371094e+00
3.364849725925055379e-01,-2.573042663625242366e-01,-9.792168862021762843e-01,-6.752638193950874501e-02,3.792030806735247062e-02,-1.790287470081350363e-01,1.190191030502319336e+00
5.505133398868236050e-01,-5.542366629237821529e-01,-9.165076527136564177e-01,-2.748231932326530846e-02,2.073276997474283664e-02,-4.473669794363793195e-01,1.534893751144409180e+00
4.390631804655208414e-01,-4.035641317398570016e-01,-1.061517752429685935e+00,2.388186839150899590e-02,-1.878451431590429099e-02,8.508743899720073653e-03,1.303963303565979004e+00
8.277958858315861423e-01,-3.297206880643107629e-01,-1.346310713335745257e+00,8.164345557696878197e-02,-4.225139786991276292e-02,-3.645566857036033337e-01,1.993508696556091309e+00
7.786656834931999782e-01,-9.547824310489597677e-01,-7.502005859380329600e-01,-4.100197862786653102e-02,6.290779740570953682e-02,-5.800335259007525224e-01,1.928288459777832031e+00
4.758765348194685663e-01,-9.489929716971218232e-02,-1.419542983938177683e+00,2.076960650360556646e-02,1.562120748198642974e-02,1.375315332108062727e-01,1.701561450958251953e+00
3.468386651988933367e-01,-2.217055906096174756e-01,-1.089125850088558334e+00,-2.084246285965169615e-02,-1.990973813599000719e-02,1.897265565955646256e-03,1.253527164459228516e+00
3.559115659476991822e-01,-7.468279870466358883e-01,-7.989673361167294319e-01,1.150724584045152710e-02,-1.772838854243377529e-03,4.395537181539641014e-02,1.132454037666320801e+00
6.591134142791397199e-01,-3.155815566218206358e-01,-1.097793092719421715e+00,2.136590398519218684e-02,-6.073058901061149928e-02,1.207402770714691015e-01,1.542877674102783203e+00
3.500351511876851340e-01,-9.216094809299738566e-01,-9.334476310296228041e-01,-8.115216431363955762e-02,4.154521826735487616e-02,-2.647631053758579545e-01,1.366567850112915039e+00
1.467077224248545253e-01,-7.432942215981758194e-01,-7.667286014073479983e-01,2.041008723499792427e-02,5.770499506150581631e-02,-6.565495609093997646e-03,9.082279205322265625e-01
3.565005278887887208e-01,-7.258882656073393225e-01,-7.871344245345633928e-01,5.111847343811289426e-03,1.383928478542607518e-02,-5.837569119177800359e-03,1.114613771438598633e+00
3.346332053664024531e-01,-7.672774641158367492e-01,-6.959528019576930458e-01,-1.240415172886496706e-02,-3.725971098988898472e-03,-1.865228850673812666e-02,1.068759918212890625e+00
3.635120914005463000e-01,-7.800435976368984559e-01,-7.786932885603570220e-01,-3.656848759885043647e-03,-1.248906285893832194e-03,2.220005562284375032e-03,1.142907142639160156e+00
3.496121319195268362e-01,-7.779531692264975984e-01,-7.830869432962770382e-01,-4.753986160103094820e-03,3.758526810411059321e-03,2.924446840344291365e-03,1.130200982093811035e+00
3.537588835830133283e-01,-7.807374452841686630e-01,-7.303440746565259545e-01,-1.281681474385675153e-02,-3.946936283619063845e-03,-3.399200456336873462e-03,1.110416412353515625e+00
3.509983014387034750e-01,-7.446514622298134878e-01,-7.583257767660274151e-01,1.552468603087705200e-03,7.624599969828683640e-03,-6.537523991486248083e-04,1.102633476257324219e+00
3.311988522303553339e-01,-4.744234640688516635e-01,-9.214144515283451131e-01,7.733307434763993932e-03,-1.451265134428359610e-02,3.062627646574296245e-02,1.101162672042846680e+00
3.288555882944820263e-01,-4.910822370745743237e-01,-9.083638252902960231e-01,-3.222535734200200966e-03,-2.707964478882596976e-03,1.541654990077516267e-02,1.090565443038940430e+00
9.147931379117041351e-02,-7.362535892910013757e-01,-5.340417461613764516e-01,-3.227693035558480000e-02,9.049444875320225568e-02,-2.363653333448924587e-01,8.683045506477355957e-01
3.623433016235307336e-01,-7.913415551474606291e-01,-7.576275543671915358e-01,-4.072159883926127280e-03,-6.599238941602878460e-03,-4.009672916251543753e-04,1.137282252311706543e+00
5.040387321737030968e-01,-8.382781049941305795e-01,-8.807538572797852794e-01,-2.324128128116501740e-03,-2.528777068953298648e-03,-4.076079743585224735e-01,1.535937070846557617e+00
3.579245972554478961e-01,-7.769403985405884949e-01,-7.850065447478736802e-01,2.440400264104697001e-03,-3.415359001685173458e-03,1.571312788969475094e-03,1.138945937156677246e+00
7.603918614732656511e-01,-7.213824541866321605e-01,-9.078810306799021124e-01,-1.180411410567528893e-02,-1.434135071760304393e-02,5.392725959280343373e-01,1.838549852371215820e+00
3.221404262360586523e-01,-6.312578287254072551e-01,-7.584555253460446567e-01,-3.443798102751656118e-04,3.002911495627146130e-03,-1.217321116206854792e-01,1.044462084770202637e+00
2.983613120839337385e-01,-6.743496914008074716e-01,-8.204121511873454509e-01,-3.306903318138876974e-02,3.291537698773197573e-02,-5.887612510624780360e-02,1.061370611190795898e+00
2.124563939363871556e-01,-7.615612631144904610e-01,-7.516585069078776105e-01,1.810936089289106807e-02,-1.219500652620346057e-02,-8.604787433703884464e-03,9.699562788009643555e-01
3.708611772529942785e-01,-7.799000384997589741e-01,-7.802663582384465890e-01,-2.989280055246272810e-03,2.859385722696176219e-03,1.189729150828413608e-03,1.150968551635742188e+00
3.235955912931604561e-01,-6.646678791291209532e-01,-7.662103694939763621e-01,-2.166565349405443971e-02,2.247327639199018720e-02,-2.601591456631713317e-02,1.045122027397155762e+00
4.247540548721731035e-01,-4.851508097725882318e-01,-9.423005608677579303e-01,-2.902818545691810900e-02,-1.055182380595843898e-02,2.844676219753335122e-02,1.207545042037963867e+00
3.289755671473348908e-01,-5.287362194846183527e-01,-8.746622845606488728e-01,-8.046006792346937705e-03,-3.120053980962817722e-03,3.190188217948290023e-02,1.074856162071228027e+00
1.447297551330233301e-01,-5.242123839822686593e-01,-8.963325057926395667e-01,-2.349807073927618825e-02,1.106672197973347371e-01,-2.096416128047640104e-01,1.002562165260314941e+00
3.419414645083976301e-01,-3.620424592576778067e-01,-9.176359821330062339e-01,-7.209536464845897608e-02,-5.792872091887339703e-02,2.420938712528600267e-01,1.181903243064880371e+00
7.629572824634406336e-02,-5.460214039451986023e-01,-8.526057408476047650e-01,3.775331441155927586e-02,1.920010775002314526e-02,-9.254597066635095182e-02,8.385352492332458496e-01
2.191564433684725643e-01,-7.537447933861445293e-01,-7.716759334322753627e-01,-1.492487372483792402e-02,-4.190859599523605317e-02,-7.905291480365740295e-03,9.851031899452209473e-01
7.818010437642016752e-01,-7.112160774839197952e-01,-9.675478598353967064e-01,8.910785908843504854e-02,-6.089233242186901235e-02,-5.741664609124522700e-01,1.923917770385742188e+00
3.531862836691979091e-01,-7.949905701972944660e-01,-7.109919306778793580e-01,-1.130176349742091635e-02,-6.649353074353953758e-03,-1.260438917437849658e-02,1.109014391899108887e+00
1.195762685113226365e-01,-6.947444639412622136e-01,-1.093710206103450044e+00,1.808349499567643917e-02,-7.882671955082580506e-02,-1.955208550366548392e-01,1.132027029991149902e+00
3.378713432959999929e-01,-6.191825834314914623e-01,-8.331252432441886846e-01,-1.954197983757852142e-02,-1.672968530150537383e-02,1.531954971994240779e-02,1.081280589103698730e+00
1.314650590851937362e-01,-4.545527872087433696e-01,-1.096851145092160973e+00,-1.219839719269540934e-01,-1.334446665289532596e-01,-1.878177469406809297e-01,1.155963540077209473e+00
2.530704533183676386e-01,-7.870318041203963055e-01,-1.132472655731997291e+00,-9.611694787536481654e-02,-7.177898637467752807e-02,-2.468785086127162631e-01,1.336583375930786133e+00
1.218208825306379417e-01,-5.918553391951055787e-01,-7.395464574485187681e-01,-5.132500430445339351e-02,-4.997569293626253836e-03,-2.272163819390705108e-01,8.940970897674560547e-01
7.118843699309569395e-01,-1.108926222418493701e+00,-5.603218802894170958e-01,7.559148669533316545e-02,3.708755099945262868e-02,4.545313890404135138e-01,1.805125594139099121e+00
7.619706570648523414e-01,-6.602014580037898206e-01,-9.772869636794432324e-01,-9.789116456314626846e-02,-4.396643548093290277e-02,5.313493814982582775e-01,1.858927249908447266e+00
3.366267674681297506e-01,-7.786066867106964384e-01,-7.793931336803053833e-01,-2.890842380445169963e-03,4.972203646897517017e-03,1.492028438002255186e-03,1.115674376487731934e+00
3.693371358525507353e-01,-7.642721461279431416e-01,-7.928485977316196420e-01,-1.132903634673664006e-02,1.242326457332359330e-02,-4.055652249845035154e-03,1.148555040359497070e+00
5.813501285554671938e-01,-2.798223528931247928e-01,-1.085235889388115549e+00,1.971318093540641581e-02,8.548692735406229759e-02,1.324029809750837047e-02,1.451731681823730469e+00
3.392444071245774850e-01,-7.777771436167184582e-01,-7.819046729605781954e-01,-5.798217780635020642e-03,-4.105808360712180465e-03,1.912626452125576948e-03,1.119163632392883301e+00
2.552032060336333341e-01,-7.610398285503444660e-01,-7.631928597817446702e-01,-1.102267483197935660e-02,-1.238140622324051046e-02,2.692274727202027037e-03,1.017737030982971191e+00
1.918607528159653741e-01,-1.059326014126043658e+00,-1.076351531219456925e+00,-2.310705492711519898e-02,3.474294995997139531e-03,-5.008525079882447661e-02,1.263417601585388184e+00
2.081762656459135719e-01,-5.172900951580786666e-01,-8.458617420511493901e-01,-1.418713451846970452e-01,-1.056609615764809301e-01,1.856219840151419331e-01,1.034345269203186035e+00
2.061415436537697987e-01,-5.119941640453584686e-01,-1.173940410015871683e+00,4.785984928891073159e-02,-1.494551533500536322e-02,-9.112526177413012018e-02,1.209012866020202637e+00
1.513221799628665099e-01,-7.809089310385042282e-01,-7.481945670672935922e-01,-2.754879936989408293e-02,-1.203084437600408785e-02,-3.314779152022251374e-02,9.195842146873474121e-01
3.473124021412723472e-01,-4.801723010874889286e-01,-9.432544861164713357e-01,-1.728489469016857710e-02,1.550555979942809005e-02,7.672215048390226833e-02,1.140896916389465332e+00
7.551659553933698366e-01,-1.311224451201454810e+00,-3.354322411808822180e-01,-3.379675075266778267e-02,2.102310294585453196e-02,-2.668283138040102864e-01,1.850436925888061523e+00
7.190749808262022480e-01,-1.236278287533740139e+00,-4.542723081732478185e-01,-3.092967277568911717e-03,1.062019950485246396e-02,-3.270300783814483747e-01,1.796400547027587891e+00
6.652265620117883138e-01,-1.243946322095766721e+00,-4.159725831647419492e-01,3.004900505496926888e-02,9.366943720942340736e-04,-3.985217254215367433e-01,1.796915888786315918e+00
3.270761850508355217e-01,-7.843101207450788870e-01,-6.467405959876464383e-01,8.229620822197681457e-03,-4.469107192681908672e-04,-1.921112259340127318e-02,1.050010919570922852e+00
4.473857811682976360e-01,-9.595933005229403401e-01,-4.922414145525039197e-01,-9.652295695464068251e-03,-6.647234549206899878e-02,1.889949279647203662e-01,1.288854598999023438e+00
2.390870121143161553e-01,-6.702246754664019646e-01,-1.206308705771000245e+00,-1.988948990941713513e-01,-8.576782510100763868e-02,1.335784432425768387e-02,1.320220589637756348e+00
3.916532866218799258e-01,-1.090851780869882326e+00,-1.766788848942246193e-01,1.351847651669997943e-02,-1.088683830723342350e-01,1.206315696080307587e-01,1.325906634330749512e+00
4.628706892935702810e-01,-1.235202817288322708e+00,-4.965543410830743909e-01,3.841726520773006918e-03,5.857052225739438171e-03,5.973290212923554332e-02,1.478386640548706055e+00
2.863708110380760452e-01,-7.859268069045799443e-01,-7.469973004228491753e-01,2.889579895211554384e-03,2.361334790194554237e-02,1.473917220385656361e-02,1.054487228393554688e+00
3.536725163270139083e-01,-8.913517843251174133e-01,-5.638867188464256053e-01,-1.269191263841192366e-02,-1.678959075392415928e-02,7.165878142473698642e-02,1.125322580337524414e+00
3.441373091128156481e-01,-8.729909138339503327e-01,-5.963290662128001296e-01,-1.293534779335314688e-02,1.142122551412134285e-02,5.073936698130414834e-03,1.105522751808166504e+00
3.610639262457351895e-01,-8.894517263596597445e-01,-5.138441112905586250e-01,-1.237689517007955001e-02,9.791810185062126831e-03,1.590408663729379612e-01,1.145336866378784180e+00
3.573788634381122598e-01,-8.740907161357640565e-01,-6.415178315127816333e-01,-3.074372863388769722e-02,2.262099339391370617e-02,9.056966954910351808e-02,1.145940780639648438e+00
5.366850667196332303e-01,-1.046880100155840765e+00,-6.859009411858323357e-01,2.304090599360984759e-02,4.105407666400317374e-02,-4.228641826305638007e-01,1.615376710891723633e+00
4.635629234904911633e-01,-1.252511992256614581e+00,-4.420720962161012180e-01,-4.185318626917302470e-02,1.579782852524407380e-02,-2.965103163364694039e-01,1.575026750564575195e+00
3.339674783862374152e-01,-7.777958636975701445e-01,-7.808549822023648224e-01,7.489261897821888544e-03,1.015163350275126528e-03,-2.298288902687030815e-06,1.113373041152954102e+00
3.389475066589190400e-01,-9.118072044864220516e-01,-5.083433453368282340e-01,-6.487498768060298050e-03,-2.820285906475682169e-02,4.506667421275995650e-02,1.109568238258361816e+00
3.236732329742454950e-01,-8.687685201935513302e-01,-5.156080244963284764e-01,-8.272896103718606689e-03,-2.244246184009704784e-02,3.467496335928312023e-02,1.063409447669982910e+00
1.353000147423600863e-01,-7.338567424704640629e-01,-7.569470672867408823e-01,-1.135227346693877537e-02,1.200222405211079021e-03,1.109547772244225822e-02,8.813602924346923828e-01
6.595690547011109350e-01,-1.044226292141391621e+00,-6.555599464651699071e-01,-1.953214434591333051e-02,3.394343420588892546e-02,-4.800420422887069494e-01,1.757183670997619629e+00
1.311070905233296946e-01,-9.983930987587595896e-01,-1.058032599058515988e+00,-2.420050955519291794e-02,-1.495796824422036125e-02,-6.159474568486365126e-02,1.166404843330383301e+00
3.419291940123701523e-01,-8.180420370942009800e-01,-6.466096181667937426e-01,-8.300677332578079021e-03,8.597080957106971802e-03,1.222047192000342251e-02,1.084869623184204102e+00
3.078969288926846071e-01,-8.781313017577051516e-01,-4.951331326235757224e-01,6.341580780642027890e-04,2.224132538612789978e-03,6.005358813027897313e-03,1.048440814018249512e+00
6.549149260363242853e-01,-1.079924913223834881e+00,-3.632176193963115307e-01,-1.049273279108198231e-01,-3.596423671885921533e-03,-1.414666363519546666e-01,1.540478110313415527e+00
3.298796337366056153e-01,-8.506206954101754869e-01,-5.571583036390702626e-01,-8.523108695346398242e-03,-1.880482975848065536e-02,3.253066921638540776e-02,1.066640615463256836e+00
3.867383528434139572e-01,-9.939002190293524386e-01,-5.056175954287481789e-01,4.628615225666390942e-02,-2.332374540927791701e-02,-2.893699781813725141e-02,1.216968417167663574e+00
3.493481805838323795e-01,-8.709150532095730757e-01,-6.056521722191465784e-01,-1.579861470437193003e-03,1.156119625319972782e-02,1.505093256912142701e-03,1.111814498901367188e+00
4.070091359498386185e-01,-1.000718456386159083e+00,-4.961881641311556845e-01,-2.574111908953556540e-03,-2.696654050541461792e-03,-1.202297994697763134e-02,1.235508799552917480e+00
8.308057245031141846e-03,-6.209782971925761341e-01,-8.590632382237607390e-01,6.882553592604585824e-02,-8.916806502864796022e-03,-1.352237033711967996e-02,7.858163118362426758e-01
3.436966040127079625e-01,-8.324135968872429236e-01,-6.398577634184394736e-01,1.065063620512219159e-02,-4.244185292931968757e-03,1.004228047226720343e-02,1.092951536178588867e+00
3.944582264747542033e-01,-4.573826984861489864e-01,-9.918510496959269673e-01,8.203619796375826931e-03,-1.699351326782622758e-04,1.084360361425664304e-01,1.225580930709838867e+00
6.132242459149128688e-01,-1.319370659507603127e+00,-3.208584523300194169e-01,5.028392049452448664e-02,8.116927718298957983e-02,-3.830799160531404152e-02,1.683443903923034668e+00
3.225408693223256740e-01,-5.136831978146872979e-01,-8.808125124922681071e-01,-1.443794461013640437e-02,1.047129920936142565e-02,9.531112489301976382e-05,1.068649291992187500e+00
3.347244906013085441e-01,-4.362819306207846304e-01,-9.378247160718136133e-01,-2.580510110832511320e-02,-9.601882329940959054e-03,3.561803015793371663e-02,1.113000035285949707e+00
3.263505803269324823e-01,-5.014774201438340073e-01,-8.914244379441162991e-01,8.441575243054264422e-04,1.411941055921820190e-02,1.382686263061357577e-02,1.077655196189880371e+00
3.349318471548191067e-01,-8.913619765006328688e-01,-5.529871864927713432e-01,-1.401354762920735061e-02,-3.360318011442094133e-02,3.103425968045984973e-02,1.100096940994262695e+00
3.297682264751778392e-01,-9.382500897302583631e-01,-4.370454657831147061e-01,5.203878529836909045e-03,-1.642712323622518011e-02,-1.025657411800038644e-02,1.106682538986206055e+00
3.556938098157655936e-01,-8.964242634377672658e-01,-5.567683572936279468e-01,-4.985224996513005265e-04,-9.298543148984055387e-03,3.021704621048102585e-02,1.122887253761291504e+00
3.639464629765066794e-01,-9.906482037450260458e-01,-4.477945918868989628e-01,-1.307490718620038170e-02,-2.038961427840968454e-02,1.164102181935496158e-03,1.181538939476013184e+00
2.177937871710078355e-02,-7.438301867995209538e-01,-7.360515504898994532e-01,6.651581226219596688e-02,4.877390035455029388e-02,-1.035236107874603906e-01,7.955025434494018555e-01
2.576873022978256045e-01,-7.702477521808448468e-01,-7.676786088208435999e-01,-1.812177074063026213e-03,3.617294948100291483e-03,4.088107813157011890e-03,1.026701211929321289e+00
4.376132169346378942e-01,-1.019089676574046921e+00,-5.168043274121192354e-01,-5.869625219978100682e-03,-2.397701487178354254e-02,-3.905221952578197958e-02,1.284132599830627441e+00
3.611885132853523972e-01,-8.771641930351179450e-01,-6.071463006686141917e-01,-7.761802078769692095e-03,-2.633376744091332072e-02,2.415360401637995508e-02,1.129628658294677734e+00
3.102436123985271577e-01,-9.088085752225539826e-01,-4.167397409296580979e-01,-4.996063151268135410e-03,-3.798093175953358436e-03,6.429932143679446821e-02,1.068121552467346191e+00
3.171220962218929684e-01,-9.130339580246329412e-01,-4.254882036670057932e-01,-5.774532000221300164e-03,-1.757432707326679611e-02,5.091469527542592799e-02,1.077047348022460938e+00
3.623818650582139034e-01,-7.780410113063497279e-01,-7.680516722260346540e-01,-2.734378705956998570e-03,-2.773419059674590847e-03,8.655517379391916262e-04,1.135482192039489746e+00
3.656246256642581849e-01,-8.816856070079661656e-01,-5.194274798757266831e-01,3.283219917386550387e-03,3.406338031603237115e-02,9.055547228104778024e-02,1.123957157135009766e+00
6.437286091415008737e-01,-1.358262295698070998e+00,-3.248191483671776236e-01,-3.353783585393044220e-02,9.446115973730404014e-02,-1.859918692508110705e-01,1.772272706031799316e+00
3.416830458756745514e-01,-8.193271199231779711e-01,-6.426546471885115075e-01,-1.713231403006339540e-02,3.542356040637586329e-02,-1.997803448153951875e-02,1.086223602294921875e+00
3.178270319563294977e-01,-9.083032868211613486e-01,-4.933509609638445648e-01,-2.890466425433483103e-03,1.242538382972277651e-03,-6.909817211583872557e-04,1.080197453498840332e+00
2.812605399374626947e-01,-5.860128167308371605e-01,-8.084806584929002948e-01,6.458021667862161308e-02,7.897212645510100215e-02,2.524180850852076885e-01,1.103159904479980469e+00
3.635936908005921731e-01,-9.719807322909173042e-01,-4.755420967475605387e-01,2.013157180213871744e-02,3.226876871856751428e-02,-6.774590845144107254e-02,1.176982522010803223e+00
3.553241644067068883e-01,-9.073819934178642965e-01,-5.551543047827905975e-01,-9.645975822587912057e-03,-1.667937431019145614e-02,2.373764585307463343e-02,1.129838585853576660e+00
3.259350257637127490e-01,-9.056115007727818522e-01,-5.150033037841069694e-01,-4.737514557955267019e-03,2.982333187917667744e-03,2.855230711559972323e-02,1.091223716735839844e+00
3.535110904112668262e-01,-8.157344917884272739e-01,-6.690750337574822293e-01,-1.758670186043316194e-02,1.918183850750774383e-02,-5.535394624000609942e-02,1.108326315879821777e+00
3.398897024273930811e-01,-8.900511660575922690e-01,-5.257599444685479018e-01,5.016516800945088408e-03,1.789050113378833767e-02,3.066299750987179495e-02,1.096021175384521484e+00
3.135752573760950956e-01,-9.079342593224468683e-01,-4.697816282189630765e-01,1.422592826702069081e-02,1.128455774874629475e-02,2.049367360938998336e-02,1.072895526885986328e+00
3.553639328966767819e-01,-9.389721501881361787e-01,-4.514919476553128086e-01,-1.484643702508799470e-02,4.174894235573820694e-02,-1.413494732869480415e-02,1.135107517242431641e+00
2.140978089163791953e-01,-8.392682475106543194e-01,-7.189015925989039602e-01,4.417211331254800033e-02,-2.166114144585112866e-02,3.717543105225530609e-02,1.004333257675170898e+00
3.747738851025546047e-01,-7.764057240374624413e-01,-7.778717297585326929e-01,-2.275280133762799971e-05,4.644201817822215882e-05,-1.110920921515767389e-03,1.151914954185485840e+00
1.983850000411771508e-01,-7.950031537928325953e-01,-6.783312690507332654e-01,2.283331948363462836e-03,1.143394871019503233e-02,-2.400218866348146837e-02,9.416305422782897949e-01
3.766446916617246510e-01,-8.260300258621003922e-01,-7.547134784041772404e-01,3.010895422712316950e-03,-1.021917516215535733e-02,2.748091046386409286e-03,1.168805003166198730e+00
3.471431144157975934e-01,-8.562143423823503907e-01,-6.294067597687983406e-01,-8.572842230395120305e-03,2.417615857947397195e-02,8.754959042498003038e-03,1.108505368232727051e+00
3.597925782794144101e-01,-8.353839494905701546e-01,-6.905693410924952369e-01,-1.066808355345487055e-02,3.770772142641511809e-02,1.208758994542228238e-04,1.131788969039916992e+00
2.790381751975247182e-01,-5.988449068689232213e-01,-7.206367544294629557e-01,9.151102619703666008e-02,-4.962725354411953727e-02,-2.744199641511530507e-01,1.072782039642333984e+00
3.209179903009931056e-01,-6.315343965147179883e-01,-7.854446810014098501e-01,3.894731130323849516e-02,2.238949341920940320e-02,1.893608142816340795e-02,1.041429996490478516e+00
3.474635446342085321e-01,-8.069182892640780480e-01,-7.445249379835376935e-01,5.263636714184181768e-03,-1.940538665008853525e-02,2.781887781579805031e-03,1.125033617019653320e+00
3.202272948613364978e-01,-8.343422170600994781e-01,-6.381581200410630927e-01,-1.763592738514848171e-02,1.296497831343066884e-02,-1.132875327725647169e-02,1.070902943611145020e+00
3.576698932055598634e-01,-8.286826030249990760e-01,-7.112683632253198329e-01,-1.929453223271170676e-03,1.679958589730826471e-02,3.044291172802635233e-03,1.132611751556396484e+00
7.018829091322174030e-01,-1.076526886805579952e+00,-6.494410279498354921e-01,-7.411173362958414258e-03,-2.795292617726814755e-02,5.312657928306543376e-01,1.853334546089172363e+00
3.662801643021687537e-01,-7.107575783572575023e-01,-7.962959483741655076e-01,-2.310894317613691740e-02,-1.361394363661378283e-03,9.554073622697636936e-02,1.135097742080688477e+00
3.326713127186219365e-01,-3.113441569193980962e-01,-9.681229325909668226e-01,5.812319149975467975e-02,8.246444634555359990e-03,2.370954378428982434e-01,1.203358530998229980e+00
6.922290089376451627e-01,-1.142536248497529439e+00,-3.013754923170876010e-01,3.488992326734868116e-02,1.475796184231186782e-02,1.244209927817069294e-01,1.606651663780212402e+00
3.558340705154530714e-01,-8.514250762651446314e-01,-6.139074270912737719e-01,3.302685617156005810e-02,6.277795610613461086e-02,4.052699042275186014e-02,1.116766214370727539e+00
3.527205513774466228e-01,-6.727902654925391746e-01,-8.224863666302659748e-01,-5.788308821902496404e-02,-1.366397241329215910e-02,6.398648286304400856e-02,1.118253350257873535e+00
4.574363836333471545e-01,-1.315494537481398662e+00,-1.143040969965291587e-01,8.223218920007454788e-03,-4.272308118151466744e-02,-2.426097351263348245e-02,1.569700360298156738e+00
5.707083682524107804e-01,-6.102553073596550526e-01,-7.522209510734774174e-01,5.104479078711609413e-02,1.522339692125601780e-02,3.796107148012259902e-01,1.422431230545043945e+00
8.112606124038679312e-01,-1.367278696237349322e+00,-3.469650747668868163e-01,4.704000729092024102e-02,1.180945855250851474e-02,2.803444942216390401e-01,1.951183199882507324e+00
2.082240105629535876e-01,-5.979019699790245612e-01,-6.243026614045168454e-01,1.632169237006152185e-02,-9.046598930413038159e-04,3.392481539077029651e-01,1.008904337882995605e+00
5.703543797193209031e-01,-9.989283447022836437e-01,-6.994398800140730899e-01,2.297347645740237688e-03,-2.816438922476374729e-02,4.734823708441591728e-01,1.660515546798706055e+00
4.209184403184187961e-01,-2.648663220854426958e-01,-1.244932135024163999e+00,3.875726327780298908e-03,5.478485095757001239e-02,2.527042265246879360e-01,1.517752051353454590e+00
2.999520644068400799e-01,-5.150585042208309927e-01,-6.795405432932311030e-01,3.069540249246226551e-02,2.446635624943024889e-02,4.201161941626061491e-01,1.165961623191833496e+00
3.369554615185428870e-01,-7.816205998858470894e-01,-6.820928302928014331e-01,1.632419864310062987e-02,-2.386249744417508114e-03,1.365154281477897087e-02,1.072923302650451660e+00
3.676219628634214143e-01,-5.290995654866563758e-01,-8.701148278455509422e-01,5.039614249847478022e-02,5.040233255484724388e-03,9.357133341826709416e-02,1.122568011283874512e+00
3.264920968457344919e-01,-6.320529430630901224e-01,-7.561106617873458724e-01,-2.074913927522149121e-02,-3.158494742246193560e-02,1.219869865806486597e-01,1.049781322479248047e+00
6.505390594848629027e-01,-1.346080828611750935e+00,-3.573750598611492579e-01,4.054337481235006230e-02,2.583459805590727909e-02,3.073937068824870167e-01,1.811178326606750488e+00
3.175175053374684753e-01,-3.797890366591397671e-01,-8.578878392820211696e-01,5.976467926837136097e-02,4.202233041356497056e-02,3.155698354489888668e-01,1.167459726333618164e+00
3.432293815626974443e-01,-7.779507370297891189e-01,-7.830007008539783264e-01,8.396069978460587654e-03,5.491168007410880333e-03,-1.946429158190999533e-03,1.123852968215942383e+00
1.970060787715117723e-01,-8.129729515037180665e-01,-7.290810250105594914e-01,-2.780429351558123124e-02,9.430166736639175595e-02,-9.054231204331916749e-02,9.979768395423889160e-01
5.336786861915471247e-02,-8.243032220065338311e-01,-6.512015039039960040e-01,7.972971989728383155e-03,-8.083620924299163291e-02,2.228479657242927667e-02,8.183082342147827148e-01
1.196123258297629999e-01,-6.991492525589770857e-01,-5.947265170756911301e-01,1.114579113216530165e-01,5.448947607672638416e-02,3.215376296126425393e-01,9.757625460624694824e-01
3.395865726032343268e-01,-6.226362779777816492e-01,-8.230104131297431014e-01,2.732603065744231789e-03,-8.853122211138111930e-03,1.107542307319873964e-01,1.093564867973327637e+00
6.688133256985836494e-01,-3.532093787319686706e-01,-1.331627420817619534e+00,-2.313537287693799918e-02,1.941411100119559002e-02,2.087147457426888064e-01,1.770655155181884766e+00
3.930430860005035276e-01,-1.158911788048324176e+00,-5.186286230937654507e-01,-5.350050267120463193e-02,1.125295008484519799e-01,3.737345695201431117e-01,1.513421297073364258e+00
3.664191755024014396e-01,-7.469573794581647608e-01,-8.025877101660618962e-01,-7.719964110387418990e-03,-7.686196549330337469e-03,-2.249476696140116725e-03,1.142370700836181641e+00
4.255433517936670351e-01,-6.898453639897814682e-01,-9.394241590020477872e-01,1.214752838013179008e-02,2.289010337794749001e-04,9.951775021443809432e-02,1.270792365074157715e+00
6.874288211325885189e-01,-6.481380524494890771e-01,-1.045744259125408249e+00,-4.533939797757727784e-03,-2.537775035900217274e-02,4.692380644094569231e-01,1.770707845687866211e+00
3.825743850219252562e-01,-8.280026865849664519e-01,-7.531646667644265047e-01,1.140388728136856530e-02,1.268996776816722592e-03,1.043261094614534451e-02,1.175253987312316895e+00
3.247070479966426282e-01,-7.599887837901017074e-01,-7.832732636599573084e-01,2.708055970395478046e-02,-2.279337791486000381e-02,6.522222623105948525e-02,1.104030966758728027e+00
3.557662249295039381e-01,-7.766638146410359544e-01,-7.899056716851355908e-01,3.445009122049245455e-03,-6.505232921277489307e-04,-1.069222984596775302e-03,1.139126420021057129e+00
3.666048323025107858e-01,-7.572241441576477161e-01,-8.000648281341973256e-01,7.416558405621234695e-03,6.879775596730662579e-03,-2.699240975640655391e-03,1.145993590354919434e+00
3.287390193417132345e-01,-8.691551961919820046e-01,-5.603748063631650567e-01,6.410407833094484802e-03,-3.299267661267982904e-03,2.374458766088894529e-02,1.078080177307128906e+00
4.617011275692606831e-01,-8.991778500928231388e-01,-5.354710322870454009e-01,6.081010340578396622e-02,3.906323370646710286e-02,2.333739471179768765e-01,1.291655898094177246e+00
3.506945891877408239e-01,-9.840145547644238988e-01,-3.394853960278418903e-01,1.035469552952673726e-02,7.507653141461247126e-02,1.662340555515565491e-02,1.163901805877685547e+00
3.577777057833653740e-01,-7.710208201935839778e-01,-7.886259158363304600e-01,-2.939093966475484539e-03,-3.497330181238329132e-05,3.845281015276816360e-04,1.137714862823486328e+00
3.152920557147638747e-01,-7.538572770501619225e-01,-6.470924487200888642e-01,6.598480838132338155e-03,1.131272616118670846e-02,2.820444563966460760e-02,1.021387577056884766e+00
3.485100758973535551e-01,-6.768230563229057362e-01,-8.688253009092101742e-01,3.027240232447105800e-02,-2.428546456145682167e-03,3.246828363058459378e-03,1.134829401969909668e+00
6.519526970775719743e-01,-6.777101797577714803e-01,-1.003510300335489935e+00,1.070833995586049914e-01,-5.287186597549730499e-02,-5.491587700660915949e-01,1.804124832153320312e+00
8.337151980328366685e-01,-6.596489196078049178e-01,-1.110114047529387360e+00,2.768186528226527793e-03,2.544984335240640244e-02,-5.494460801774418979e-01,2.003347873687744141e+00
3.321292633559664309e-01,-6.574655716878489153e-01,-7.848531344183884428e-01,1.742300580687423245e-02,-1.733126629979243188e-02,-1.493376399051630880e-02,1.060220956802368164e+00
3.532184970656208622e-01,-7.699536743688681906e-01,-7.724191345617767990e-01,-6.541934304218708501e-03,2.328071393993290383e-03,-9.207559791200315910e-03,1.124584317207336426e+00
3.628719304368544507e-01,-7.918646866341895185e-01,-7.588839747289224391e-01,-5.680644651908096400e-03,-3.380231729214800990e-03,-1.075414666108785982e-03,1.138663649559020996e+00
4.092749058225385039e-01,-8.261412430429282416e-01,-7.357098615291960408e-01,-2.744466625804888038e-02,9.395655385589021802e-03,-6.447431611835972853e-02,1.199043750762939453e+00
3.374538569402363852e-01,-7.380757095434286041e-01,-7.344604014165843076e-01,-7.130330543851245984e-03,3.364705110204398945e-03,-1.839899021235117532e-02,1.074286103248596191e+00
3.756982331961016275e-01,-3.426099371526654114e-01,-1.183371368325381923e+00,-5.415878156197467125e-02,1.554448836805183594e-02,-2.536782568985442299e-01,1.424554228782653809e+00
3.239707669273637625e-01,-8.562805828207931125e-01,-5.508353603862828907e-01,2.924967579126960034e-03,-8.790229416335332627e-03,-3.032488733068325684e-02,1.062451958656311035e+00
2.144909637133874392e-01,-6.870896698988577800e-01,-8.012234674776268495e-01,-1.947123419928260281e-04,9.537397987103577238e-03,2.413859534619572020e-02,9.647777080535888672e-01
4.869076901834702431e-01,-8.339221181804313821e-01,-5.051078541252992382e-01,6.211307202413143130e-02,7.449631433041650763e-02,3.464712201627310195e-01,1.344154953956604004e+00
3.550759279723456618e-01,-7.336619508299155878e-01,-7.913594182085753603e-01,-1.651490486917049291e-02,-7.568065446550614750e-03,9.991837076009865010e-03,1.119279265403747559e+00
3.587202379117702677e-01,-7.665809402471198686e-01,-7.882996852991772663e-01,4.567368315199142430e-03,5.064168912878186206e-03,1.011999417467033136e-03,1.136379003524780273e+00
3.441151729335258369e-01,-7.742282700898054371e-01,-7.874627065036912121e-01,-1.097257759865338800e-02,-1.786034110461095820e-04,-1.383427141878779295e-04,1.125179648399353027e+00
2.468774179013092929e-01,-5.815176495356616515e-01,-6.151193523845885913e-01,-3.773397377690350385e-02,-4.589571892578084289e-02,3.655003914964705114e-01,1.061397790908813477e+00
3.624678024665486942e-01,-7.712232558039221475e-01,-7.949090627940901266e-01,-3.306372657080598396e-03,1.733649894617631795e-03,-3.171548112275997906e-04,1.145735979080200195e+00
3.415095156270228638e-01,-6.974154387710761460e-01,-7.835541831552773617e-01,-1.827342085819487136e-02,-2.200274048809731584e-02,1.265768898043515868e-02,1.085914969444274902e+00
2.383452720936167224e-01,-9.772978018292881597e-01,-4.544983767893336357e-01,3.695390248574934727e-02,-1.248601552145366389e-01,1.003411932531092926e-01,1.093911290168762207e+00
7.478764127283703544e-01,-5.192575067582303472e-01,-1.145264892530375000e+00,-8.167409024155369845e-02,-3.518045737360836478e-02,4.100652806074882584e-01,1.821794271469116211e+00
3.477682045654650889e-01,-7.080268644332396999e-01,-8.140349383975772346e-01,1.546644861660974660e-02,1.944315897618224386e-03,2.037394929331675947e-03,1.112926363945007324e+00
3.656501028449133939e-01,-7.577442735034819465e-01,-8.003811275194249175e-01,-5.318940865362897091e-03,4.532994924721939906e-03,1.619149267643360665e-03,1.145375609397888184e+00
1.297381754012801314e-01,-7.382517009510098926e-01,-7.269498644416394484e-01,-1.679687788511348423e-02,4.362595399397362766e-03,-3.146266395128808138e-03,8.629353642463684082e-01
3.500437766939781259e-01,-1.074469418412361321e+00,-2.857062767486439059e-01,-4.103678006344334273e-02,1.393956069367769113e-01,3.465676954232416174e-02,1.262826323509216309e+00
3.060372399021021872e-01,-5.903616716927371222e-01,-7.930657291448315327e-01,1.928138167209437299e-03,-7.461871548492770428e-03,4.756433036887300347e-02,1.016508221626281738e+00
3.524666638087132764e-01,-7.697894351380204503e-01,-7.347029485102579693e-01,-1.430418621634422550e-02,-1.002169882409023041e-03,-2.127879397290400286e-03,1.105415821075439453e+00
3.172142435221939616e-01,-7.402398660638100925e-01,-6.945725391753519995e-01,-4.043859199649775353e-03,-5.531570929327666013e-04,9.734797945212425585e-03,1.035537481307983398e+00
7.556699551418826211e-01,-2.819220861403992084e-01,-1.424779798808457398e+00,-5.804706274912265450e-03,2.327153250042940380e-02,1.434764325871256130e-01,1.905786752700805664e+00
4.579420054908232007e-01,-8.110014092011981202e-01,-6.640017147975717515e-01,1.129507608180700326e-02,-7.359266988633625384e-02,4.778883846372496413e-01,1.465283036231994629e+00
-4.088697212029090977e-03,-7.117741849841958679e-01,-7.154809128446415478e-01,-2.967839829577164842e-02,8.342750590143560227e-03,9.255555965587254630e-03,7.117330431938171387e-01
2.188609629746011143e-01,-8.095606121130206612e-01,-7.802484331900688685e-01,2.460491352660453337e-03,5.269950630093772626e-02,-2.202168352306477922e-02,1.018906116485595703e+00
1.100876454139014249e-01,-7.216789885041368091e-01,-7.364054110030067157e-01,7.688907491580250497e-04,2.907243498693240502e-02,-1.903779906421692453e-03,8.407436013221740723e-01
-2.180107637988981661e-02,-7.104436123241455459e-01,-7.004612964973063738e-01,1.069363959464963987e-02,1.547295854092781836e-02,3.116608945554855646e-03,6.845030188560485840e-01
3.492726138676198744e-01,-8.444062858284471229e-01,-6.494679801072322789e-01,-7.488681927174797512e-03,-7.841205730054451317e-03,4.638095677389932406e-03,1.109321355819702148e+00
3.436390769314240923e-01,-9.980216017093768155e-01,-7.322347312352870397e-01,2.128194352077419221e-03,-6.822943246865140199e-02,3.693182847333447150e-01,1.391857624053955078e+00
2.655412969009429691e-01,-7.606455302541870189e-01,-7.654909414052903927e-01,2.628936149524368701e-02,-6.740995913974982129e-03,-2.523036812170908853e-03,1.029700875282287598e+00
1.006575696017819044e-01,-7.330835484702247218e-01,-7.200323291716586027e-01,-4.211605546797659444e-02,-2.512274134537628104e-03,5.457308870929244646e-03,8.305677771568298340e-01
6.031124259057535353e-02,-7.993642351825618331e-01,-7.127831329735121457e-01,-3.303789453454260283e-02,-7.506400260730075429e-03,-2.448972268386419293e-02,8.230123519897460938e-01
9.850069763909374831e-02,-7.315162859121865369e-01,-7.272592060354130528e-01,7.179812209245077688e-03,-1.910038376466880947e-02,4.157815577776079186e-03,8.286820054054260254e-01
3.694716085267032435e-01,-7.765806736816760480e-01,-7.729923385434864791e-01,3.875817154204601062e-03,-2.400418008234366830e-03,-2.873997507311223942e-03,1.144300460815429688e+00
3.617137149411768782e-01,-7.434265594504002594e-01,-7.869795947821756066e-01,-9.828622135936529794e-03,1.066703327102339408e-02,-5.563349571470298585e-03,1.127868890762329102e+00
1.120884471914201375e-01,-7.556660747836678738e-01,-7.589028199310788869e-01,-7.400250642247362121e-02,1.114137030656158212e-01,2.911642665602151570e-02,9.011262655258178711e-01
4.050818679593549132e-01,-8.592775449594215464e-01,-6.806959414656866825e-01,-7.167336349326295167e-03,-8.027869134051623945e-03,-1.144860194835768952e-01,1.201820850372314453e+00
3.083281276821060457e-01,-1.303293365847545626e+00,-4.779167695902362123e-01,-1.664474062215326802e-02,8.556205844344549893e-02,8.527222619625940414e-02,1.411730647087097168e+00
1.488636791021797912e-01,-8.834840428851397087e-01,-7.496749122497947670e-01,-6.490857959381174380e-02,-2.579453516552075373e-02,-2.131056021696042801e-01,1.047084808349609375e+00
4.230450634474491878e-02,-7.220631978731362199e-01,-7.370095157049236789e-01,-8.201775651767760633e-02,5.660277953825404440e-02,1.523458524155262526e-02,7.914508581161499023e-01
4.368179896449697619e-02,-7.100145447128469733e-01,-7.230203576778775343e-01,6.294074285451641687e-03,1.990770096308949310e-03,-5.449225722051498702e-03,7.604272365570068359e-01
3.471109717379939896e-01,-7.864939138612556668e-01,-7.720723569420760990e-01,1.278773931901720264e-03,7.009042678241440491e-03,-1.267808750022264824e-03,1.126533031463623047e+00
2.782758486131311493e-01,-3.679638927875044652e-01,-9.882467670120933523e-01,-1.111042223824810354e-01,1.138060666578648468e-02,-2.843166553795421769e-02,1.114932417869567871e+00
6.013743175688550657e-01,-1.350560654210622547e+00,-2.541487779445756878e-01,7.485771219410874977e-02,8.800972867195130944e-02,-1.833382678540242117e-01,1.735779762268066406e+00
6.730436542022737445e-01,-1.428841585380139945e+00,-1.851951495149595506e-01,-5.157392655767295553e-02,-9.577529862410540107e-02,1.268832182708012901e-01,1.853205919265747070e+00
3.697822620472135946e-01,-7.654326086841529708e-01,-7.847308533926357077e-01,1.218933267388720709e-03,8.734212737300439330e-03,8.389795324912948781e-04,1.145088791847229004e+00
4.545152580168694834e-01,-1.284732983557045571e+00,-5.041092628576088197e-01,2.869002830564668094e-02,1.456907253093714383e-02,-9.251378516316774436e-02,1.518368124961853027e+00
3.952400700296881952e-01,-4.497657762515767099e-01,-8.578369471837424820e-01,-1.163948005967824217e-02,1.332957345770794354e-02,3.439686291844248900e-01,1.257482528686523438e+00
6.489853507044471836e-01,-9.146163545759243840e-01,-7.439123017420962158e-01,8.618312884635143112e-02,6.070514692434759996e-02,5.130707129393052846e-01,1.740729570388793945e+00
1.828947126900785092e-01,-4.871922693066251253e-01,-1.082420334029032594e+00,-5.916623386998330625e-02,7.991637259130583704e-02,2.438679935710799662e-01,1.187537074089050293e+00
3.232766885062128281e-01,-7.833586418344267166e-01,-6.465259994153889078e-01,-2.765371222454451102e-03,9.000096174323244606e-04,1.421464392657069940e-02,1.045261979103088379e+00
2.730811478756415833e-01,-3.969222479931536762e-01,-9.424119821707470646e-01,3.704825475341960803e-03,-5.137541480569559477e-02,1.836757773418009332e-01,1.105039954185485840e+00
2.995877737682135500e-01,-5.828676297004526941e-01,-9.285286738146593111e-01,-2.202557000583934416e-02,3.917418597593416013e-02,5.564141741401620878e-02,1.103896141052246094e+00
4.244884827887864809e-01,-7.315957972999642678e-01,-8.502476057667707199e-01,-1.259325513750637546e-02,-7.296739840167608404e-02,2.055805371707578391e-02,1.226987004280090332e+00
3.395781647239756729e-01,-9.208135205784153676e-01,-4.720756113567987633e-01,-2.588444948201481036e-02,-1.042806505658281507e-01,4.802332718228852909e-02,1.125130891799926758e+00
3.474283655849892405e-01,-7.726955215863993143e-01,-7.986863974835397562e-01,1.345919911796317203e-02,2.468292410780452591e-03,-5.604619632408196911e-03,1.133632183074951172e+00
3.338522514478192704e-02,-8.804292234801490702e-01,-6.780255422005430077e-01,-1.225887925405335921e-01,-5.139208224574166178e-02,-2.457387311125151103e-02,8.636456131935119629e-01
3.349458142847050457e-01,-7.434727562091814068e-01,-7.918303220122497876e-01,-5.751310972455241262e-04,-3.086516951466620421e-03,4.176341851731881286e-03,1.103429555892944336e+00
3.593385724184375851e-01,-7.713272510636192125e-01,-7.916887717904774746e-01,3.390258004915441045e-03,-3.228261791643246680e-04,7.947144695326887383e-04,1.140998959541320801e+00
3.541247728463115529e-01,-7.761218726364776943e-01,-7.869276767889743507e-01,-3.428121937902210876e-03,-1.924005461490084111e-03,2.649929736002258032e-04,1.135708570480346680e+00
3.535905687264454533e-01,-7.752242659634291932e-01,-7.863491020735768888e-01,-3.299061707470137862e-03,-2.010005906675204571e-03,-5.778913939076757650e-04,1.134438395500183105e+00
8.759069270891446379e-01,-1.219562140614006029e+00,-5.902884492219666601e-01,-3.910105009779046153e-02,-1.075973977069483167e-02,5.471148604012487926e-01,2.090763092041015625e+00
2.952473872465410376e-01,-7.656796445560754005e-01,-7.750242738780356300e-01,-1.197667427447193268e-02,1.295144270413746586e-02,3.576659414045969213e-04,1.066068172454833984e+00
3.583927566028057288e-01,-7.279792218999094899e-01,-7.869714084347861904e-01,-4.817681916850478224e-03,1.358419438060052067e-02,4.616207244804161093e-03,1.117344498634338379e+00
3.174219006253592434e-01,-7.636333016934808704e-01,-9.107031735681279105e-01,-4.677969804551150579e-02,-4.578643329001619994e-02,5.985972002847564366e-02,1.171710014343261719e+00
3.409714155237396072e-01,-7.480655185850676459e-01,-7.339641049038329035e-01,-5.317442459610700542e-03,6.814411814095296636e-03,-7.734472621413006170e-03,1.082241654396057129e+00
3.380376939599753494e-01,-7.368065661365312824e-01,-7.352494305507975003e-01,-1.079973662519544304e-02,7.936791959828985721e-03,-8.367032867631251508e-03,1.074415087699890137e+00
3.299587894930838816e-01,-7.229794282938394323e-01,-7.359320155289945653e-01,7.050648625640540748e-04,7.628016780138629528e-03,-8.335885094677027846e-03,1.059655308723449707e+00
3.227962567269251903e-01,-7.345457275627946814e-01,-7.124380592973434956e-01,-5.574885300475296464e-03,5.039724365035741852e-03,-9.763575929703345591e-03,1.046680927276611328e+00
3.323389039876152862e-01,-7.462660228345010527e-01,-6.447045158490487538e-01,-4.730595489875670176e-03,9.226925299503628899e-03,9.110900606423728842e-02,1.043735504150390625e+00
3.435565306535431906e-01,-7.852702108322835439e-01,-7.656144179759341029e-01,3.439563697814776531e-04,4.624967543353314392e-03,1.051162294026902668e-03,1.119158625602722168e+00
4.216398017469623061e-01,-8.768853589485479105e-01,-8.465546445119472851e-01,5.682966537893023584e-02,4.348248284724282042e-02,3.535204956382562713e-01,1.427583098411560059e+00
3.103767317370154100e-01,-9.233368759950594251e-01,-6.476741248342409163e-01,-2.659335762158902827e-02,9.705246927666540124e-02,3.493327742389078922e-02,1.136657595634460449e+00
4.008330510094368915e-01,-1.264062710078454277e+00,-5.803620493544683345e-01,1.880733520879089571e-02,4.776742383720419122e-02,1.088184175235147599e-01,1.464399099349975586e+00
2.542466107405267906e-01,-8.747596653386462418e-01,-1.129782067660604072e+00,1.075586732802330525e-01,6.017559518548120517e-02,1.683620956445999184e-01,1.325979232788085938e+00
1.937241822944462677e-01,-8.084926589676446618e-01,-7.757681105683738032e-01,6.611756123959920337e-03,-1.569374710743900656e-02,-5.221796184773975363e-02,9.908393025398254395e-01
3.548015021915226774e-01,-7.572497165566045574e-01,-7.793693603951857840e-01,5.803164714901169925e-03,1.040000610040795956e-02,6.112637039265253133e-03,1.123513698577880859e+00
3.752938179626266191e-01,-8.116256714989804610e-01,-7.496688693795989789e-01,7.877045153867771876e-03,2.561156791124862865e-03,5.034239556875068008e-04,1.157274961471557617e+00
3.654077787797130883e-01,-7.677677592611793500e-01,-9.015751472897772789e-01,1.254967189106103581e-02,2.445054351737848894e-02,-3.640129207978571452e-02,1.208246469497680664e+00
4.063155373261783665e-01,-9.416795123758787689e-01,-5.368410315409287703e-01,3.658421209694835696e-02,2.499890412965575029e-02,1.707393658669853764e-01,1.236369848251342773e+00
2.837489199890239622e-01,-7.834633496800831320e-01,-7.040364526974656201e-01,1.199607642972271362e-02,4.336193186719439208e-02,6.131703895801305509e-02,1.038189291954040527e+00
2.081448747629065510e-01,-5.191087417631421452e-01,-1.195815250937865004e+00,-8.133138034878326095e-02,2.408193128494354879e-02,-5.135829950099688596e-02,1.228195428848266602e+00
3.609578844054281421e-01,-6.484476606949354238e-01,-8.796184599527647752e-01,-6.781873492832982131e-02,4.733979566912551590e-02,-1.222761537054006947e-01,1.170922875404357910e+00
1.013960647532602954e-01,-7.995310805024189449e-01,-7.354526984087610408e-01,-3.571909748145012803e-02,8.458703348089849361e-02,-3.090034375693636454e-02,8.866807818412780762e-01
1.964716068346445410e-01,-5.254549818919410642e-01,-8.222936681223440569e-01,5.826563095973130713e-02,-6.513024281983173513e-02,-2.524310105613231103e-01,1.018656849861145020e+00
1.173469119467396293e-01,-7.367153408620289445e-01,-7.259986316832016673e-01,-4.409531476446860998e-02,-4.374339249689771121e-03,8.618828422394831388e-04,8.522190451622009277e-01
3.645228071132430303e-01,-7.992016920618617570e-01,-7.560644726340806088e-01,-3.584241907885477463e-03,-5.505057353906630396e-03,1.488289267631232125e-03,1.142826199531555176e+00
1.101755544189543801e-01,-4.825826976390754641e-01,-8.256030917967266403e-01,1.766791478576341945e-02,4.587356491633350075e-02,-1.794207672337078396e-01,8.810099363327026367e-01
3.649025829242213415e-01,-8.015486235681401617e-01,-7.507367440752331644e-01,5.839828064156307903e-03,7.640656412536150216e-03,1.450017418885976529e-03,1.142017722129821777e+00
2.233552217978977406e-01,-7.528632114092705940e-01,-7.792398345699658169e-01,7.472813377655106865e-03,-4.860745955232707860e-02,-5.115900354443435154e-03,9.933688044548034668e-01
2.526994758509088501e-01,-7.690083449400015869e-01,-7.621077088983412295e-01,1.069390808967115962e-02,2.756238020328212468e-03,-8.967438995000176320e-04,1.018455862998962402e+00
2.250865560417266154e-01,-7.511080920026516061e-01,-7.696701281279469953e-01,-7.304187679386857715e-03,-6.758495198526441594e-03,-2.687037233239830420e-03,9.857684373855590820e-01
3.531407640611530785e-01,-7.481028242426689401e-01,-7.613857967577462027e-01,9.281758952593900007e-05,-1.469757948486512776e-03,-5.923220720668940197e-03,1.107995271682739258e+00
3.168876229554702384e-01,-7.454015007602814435e-01,-8.032860071307554861e-01,-3.394552396512869746e-02,2.576105222363957170e-02,-2.102538356924397653e-02,1.095478415489196777e+00
3.097195111800051248e-01,-4.062954616733872593e-01,-9.239446804041222538e-01,3.458998416107794682e-02,7.099505268391200635e-03,-7.429927860610685553e-02,1.082397580146789551e+00
3.451371974559827582e-01,-5.621491600127965782e-01,-8.566774983767744267e-01,7.364839768922254622e-03,-2.217369734400212108e-02,-1.399711747354285274e-01,1.112452507019042969e+00
3.347412917703517787e-01,-7.790908907005869022e-01,-7.793352134208795245e-01,6.799473312818528348e-04,-1.191339549683323625e-02,1.180179762181083822e-03,1.114147901535034180e+00
8.109449836049109628e-02,-7.537856949282728536e-01,-5.410556152906091931e-01,-1.479020239464694589e-02,3.489974626514383976e-02,1.896306011105441391e-01,8.227177262306213379e-01
1.717322336909182789e-01,-9.585261736283304801e-01,-1.206637957269248052e+00,9.206055114616569501e-02,6.948434635383012037e-02,1.861799089603157278e-03,1.288174629211425781e+00
3.430602060698617617e-01,-5.326074619987386516e-01,-8.959441427308736383e-01,3.694228926382806324e-03,-4.276528255371242308e-03,-3.418315722139267376e-02,1.104794502258300781e+00
2.907573503508267265e-01,-5.949761855097307484e-01,-7.602588826911176323e-01,4.995408041371412339e-02,-2.402531422853105419e-02,-1.734347177045481303e-01,1.028443217277526855e+00
2.122026665481981378e-01,-7.496765518084256286e-01,-7.544712358533300911e-01,-1.045417967870317403e-03,2.418072240351117064e-02,-1.685578025962859055e-04,9.651963710784912109e-01
2.326026435150528870e-01,-7.668244050163721681e-01,-7.582259823170978130e-01,-2.862432743158207366e-02,-4.012684640089587973e-02,-4.408794199794418590e-03,9.988402128219604492e-01
3.476490694408693738e-01,-5.566720529581340449e-01,-8.940933165767426249e-01,1.637396059431785178e-02,-2.592387959361244776e-03,-3.779875662604965936e-02,1.114404678344726562e+00
-7.045409931675566950e-02,-6.851138841114613465e-01,-7.529792916306781159e-01,-1.627475651064418452e-02,8.535639113976307979e-02,4.342507628166467071e-02,6.726332306861877441e-01
3.376341097025114535e-01,-5.486026805630059844e-01,-8.907296322576707670e-01,3.812546334895210165e-02,-2.177636111271386791e-03,-2.663887776870329377e-02,1.100988507270812988e+00
3.572482785852580944e-01,-7.752689794874612073e-01,-7.848104080772350111e-01,2.001809550505352035e-03,-3.334710382537720529e-03,5.059141842161275901e-04,1.137338280677795410e+00
3.693392463035998219e-01,-7.768777193457172547e-01,-7.792842423152127607e-01,-3.087491927916384288e-04,-3.545307050996691391e-03,7.016968014382308008e-04,1.147439360618591309e+00
3.629633692325613947e-01,-7.519475891167052284e-01,-7.980627698285924776e-01,6.735793210390057274e-03,-4.497251279447428592e-03,1.734410502923820676e-03,1.138759493827819824e+00
2.193888694259709116e-01,-1.131635293856492641e+00,-7.235498434016290892e-01,-6.903295592689234761e-02,-5.823999357356678119e-02,-1.202847830247658345e-01,1.228146672248840332e+00
2.910513320133897852e-01,-7.751820611918038839e-01,-7.588499611417138802e-01,1.023417293941217797e-02,-2.214271129999570431e-02,-1.673441376838471139e-04,1.059005022048950195e+00
-1.057345836334575573e-01,-6.831871274995915400e-01,-7.869457641601451670e-01,-2.508896931174647502e-02,4.361421481431582148e-02,1.207966310996924642e-02,6.420013308525085449e-01
3.460082125892448568e-01,-7.819684497251710997e-01,-7.759670526062515394e-01,5.338148079569878489e-03,-5.028890535671828345e-03,3.225333569402111765e-03,1.125073552131652832e+00
3.969559977650288785e-01,-1.256949760465289945e+00,-4.426790208075777611e-01,-6.140661894007542337e-02,-2.350227242127402721e-02,2.962845700886319045e-01,1.525790691375732422e+00
1.519661009897831372e-01,-9.736296944308343582e-01,-3.017755375773764626e-01,-3.393348856296124483e-02,-8.424599617401593021e-02,-1.419260063461584009e-01,1.023373484611511230e+00
3.420442901823895765e-01,-7.858178881289850093e-01,-7.760681793861080591e-01,1.867414465732919644e-03,-6.935074383691978636e-03,-3.135049862617379432e-03,1.123101115226745605e+00
3.613275746141474398e-01,-7.715316202061507367e-01,-7.559578216639528669e-01,4.264445875259113838e-03,-2.389832662448108675e-03,-7.692698810710363842e-04,1.125185728073120117e+00
3.517807121129197245e-01,-7.699447511720769466e-01,-7.792325973117989468e-01,6.523548987470708174e-03,-2.166262388482859472e-02,-2.684745696387770553e-02,1.128038406372070312e+00
3.558735994240326828e-01,-9.567252426664050180e-01,-5.344383413513100756e-01,-2.043008706754298985e-03,1.762555168467178426e-02,8.819047614607672392e-02,1.170993566513061523e+00
4.617899873498507723e-01,-9.343956708785550180e-01,-7.886274766789500568e-01,3.330155954512976912e-02,-7.848805949657536307e-02,-3.880994653455182575e-01,1.496908426284790039e+00
3.868257298114815557e-01,-1.049485696289228942e+00,-3.491404612096840610e-01,-4.339923081744186811e-03,5.184645941087474841e-02,-2.546498294926889672e-02,1.248048901557922363e+00
3.679506817960820908e-01,-7.804460969533368875e-01,-7.796745052661682163e-01,-4.072550159720505353e-03,3.501463243089631989e-03,1.386702933316003548e-03,1.148051381111145020e+00
2.233231287361117645e-01,-3.788384563843795183e-01,-8.650041549076412650e-01,-8.488663441059252079e-02,3.725927275289228624e-02,-3.143342161329190088e-01,1.101773977279663086e+00
8.132142330946307007e-02,-7.994641391585000090e-01,-5.752732774911220037e-01,5.756610795863429525e-02,-4.932512290817962081e-02,-1.300941879933236733e-01,8.346224427223205566e-01
5.766516702415422913e-01,-1.053400210785918389e+00,-3.814081299812391856e-01,1.124976076715746287e-01,2.303444221496752861e-02,2.036476869177779592e-01,1.475546240806579590e+00
3.724099044156903848e-01,-7.780803706838885780e-01,-7.839787256188603948e-01,-9.748424786860422631e-04,-5.056040264595017508e-05,1.586555667482654345e-03,1.153455257415771484e+00
2.714593302492182003e-01,-1.145992974769468153e+00,-7.326845425288659452e-01,-1.268921491479845509e-01,-6.455938990950713108e-02,2.264081829988996430e-01,1.344894289970397949e+00
5.542812912624617283e-02,-5.817532931628699444e-01,-8.660302667407193677e-01,-1.400012200620340819e-01,8.323149205382997240e-03,-9.570667936798093675e-03,8.527796864509582520e-01
3.556790685186690948e-01,-8.674091552781362235e-01,-5.501013740972322541e-01,2.993976811249979969e-02,8.728438845614372443e-02,9.095243441211861568e-02,1.122005105018615723e+00
3.009334766164286634e-01,-8.817863440711692924e-01,-4.741803789920348566e-01,1.103573696614700873e-03,1.107859081439627538e-02,1.382738672756373029e-02,1.041071891784667969e+00
2.950901291626705780e-01,-9.566107761077686789e-01,-3.760651645935410015e-01,4.392781112673123378e-02,4.966097698994001441e-02,1.589481605442223111e-01,1.125211119651794434e+00
3.683511422220349107e-01,-7.314164873156361324e-01,-7.957031821330717847e-01,-7.508163054415363698e-03,-1.787812952973833608e-02,2.204038744886171672e-02,1.134419441223144531e+00
1.324763648682556472e-01,-9.359209844913917165e-01,-1.165288458476157141e+00,1.987396062158174742e-02,4.511140307900012025e-02,5.544547872622652973e-02,1.206503510475158691e+00
3.114762167415627281e-01,-6.964475782512262736e-01,-6.703634359897263639e-01,8.050625140262668289e-03,4.348936702736196785e-03,1.380488901039792493e-01,1.023583650588989258e+00
5.864297051708114994e-01,-9.097398839529349246e-01,-4.967513021813276808e-01,2.115644229573906618e-02,3.542339103253587529e-02,3.628251975378328775e-01,1.480275511741638184e+00
3.164262718594315071e-01,-8.080490549794578925e-01,-6.845624215870032003e-01,1.142518410296954100e-03,1.355786804058515919e-02,-1.038187998909971326e-03,1.068360686302185059e+00
3.363233985059653763e-01,-6.217754973153604148e-01,-8.346820410454296457e-01,-8.174248437936772194e-03,4.636881611324140430e-03,2.072612388679797094e-02,1.081120610237121582e+00
3.459227668345551954e-01,-7.574014737801340047e-01,-7.359812165805115214e-01,-1.325808683276456096e-02,-3.704615128437697188e-03,1.352999642791299570e-02,1.093282818794250488e+00
3.253591782953091371e-01,-7.716712234042554241e-01,-7.770818242257004904e-01,3.422065766152285020e-03,1.015365701155932117e-02,7.393791822720185199e-04,1.099902987480163574e+00
2.818965779161206608e-01,-7.680014215402788391e-01,-7.753615273498395410e-01,-7.406585289572901500e-03,4.246046303641092071e-05,4.057050383285652219e-04,1.053675651550292969e+00
3.549421948074446553e-01,-7.638645479015888640e-01,-7.850460401438367208e-01,-4.510531341135322163e-03,-3.773008319254846955e-03,1.398062532430035436e-03,1.129594922065734863e+00
3.517460324209581990e-01,-7.707040135593892227e-01,-7.848083053078299676e-01,2.398618810115043989e-03,-3.760990098928557700e-03,-1.679961142306373822e-04,1.129594683647155762e+00
3.630244924553549524e-01,-5.976418188636554163e-01,-8.832407352210340790e-01,1.265421464059808456e-03,5.835799626040147695e-03,1.422674409719430592e-02,1.131161332130432129e+00
6.944237461277917856e-01,-3.790529233964218814e-01,-1.329395878743672599e+00,-3.616901200807065564e-02,7.554799825348329674e-03,2.033902088967889099e-01,1.789936661720275879e+00
3.411228963314184015e-01,-8.156293687779445634e-01,-6.632207457394636574e-01,-1.797806871126325298e-02,-2.665888591427020490e-02,9.561051472279423133e-03,1.090128898620605469e+00
3.507626096538591920e-01,-8.404004132562932217e-01,-6.519426084774556651e-01,-6.524924355355006360e-03,-5.590428704068268681e-03,4.316815721683886498e-02,1.111626625061035156e+00
4.799544297155099448e-01,-9.154036903641062928e-01,-7.304668488816186134e-01,-2.819497420248537334e-02,2.640656800262872889e-02,4.497390510884672343e-01,1.527889132499694824e+00
3.600342571638417422e-01,-7.623470923035410296e-01,-7.580159351183108907e-01,-8.999658750910255424e-04,-4.387168169067217141e-03,2.931510412380980944e-03,1.120260357856750488e+00
7.534054369440550403e-01,-1.305522973740750103e+00,-4.825943685266924632e-01,-7.374654029010635492e-03,6.340958614680357319e-02,4.520219376961954749e-01,1.961439132690429688e+00
3.505913619320142338e-01,-7.428995542148987274e-01,-7.152996031540350685e-01,-3.500253006307636749e-03,1.371001894113010357e-03,9.366059738181217731e-02,1.092091202735900879e+00
3.448765804471484175e-01,-6.885948344642058849e-01,-7.958204525150676112e-01,-1.289667284156593118e-02,-1.970256109251814283e-02,1.520312319067018691e-02,1.092122673988342285e+00
3.796958391416092593e-01,-7.434028430174697277e-01,-8.234000780681280940e-01,-1.599666826659496346e-02,-2.672320937574578469e-03,-6.348457675101844278e-02,1.170672893524169922e+00
3.136011248567615595e-01,-7.873735982911855835e-01,-6.248521533446100840e-01,8.798846447738192800e-03,7.711441289656815329e-04,-2.066165910590948493e-02,1.030117154121398926e+00
7.497066920247167365e-01,-1.720291980027844336e-01,-1.472630557098967063e+00,-7.442858067315745452e-02,2.591892767512360418e-02,8.627361180523189510e-02,1.944462776184082031e+00
3.358672132448899394e-01,-6.820033123324173996e-01,-7.889880170312753016e-01,-9.556776757550784589e-04,1.691809781950832231e-02,-4.299071516727098058e-02,1.078336119651794434e+00
3.159364466194221066e-01,-7.029621850819955942e-01,-7.253068740484900356e-01,1.114344848821604010e-04,-1.104845658128205061e-03,-1.253281360880549242e-02,1.030483126640319824e+00
7.579205028575299874e-01,-1.371240719601977798e+00,-2.439129666135907704e-01,-2.214330477159575858e-02,5.972962212482409161e-02,-2.743953702072118861e-02,1.848882198333740234e+00
3.300587857772624978e-01,-8.504876891471235822e-01,-5.580433621522975507e-01,2.053437056754956608e-02,-3.617619887909497706e-02,-3.720234635419130548e-02,1.069257974624633789e+00
3.388724150592197226e-01,-8.126715798221996190e-01,-6.530718863240612126e-01,-1.127539736080237186e-02,-5.858121340537803673e-03,-2.553068080449474864e-02,1.081748247146606445e+00
6.523072248507000293e-01,-1.052293233583190490e+00,-4.000665483143255874e-01,-5.467923117147721612e-02,-1.565097807146832026e-02,-2.775119423466096413e-01,1.568444848060607910e+00
3.487818904611308390e-01,-8.802382565657429492e-01,-5.699470779594092429e-01,4.863519287405787712e-03,-4.466915959506830014e-03,-5.881294495293337699e-02,1.111721515655517578e+00
4.067652028089599470e-01,-8.831362523388885943e-01,-5.644848946657522459e-01,-4.899288703203150130e-03,5.711880201185490051e-04,-1.522681879788019832e-01,1.193308591842651367e+00
4.100327880774571332e-01,-1.323340228576705524e+00,-3.095183401742473972e-01,-6.609426040389071444e-02,-6.475443956263050860e-02,2.824871894721961429e-01,1.593790173530578613e+00
5.801660697457402538e-01,-9.141349867192728462e-01,-4.272140578820972645e-01,-3.628031980518661714e-02,-8.307777984886233202e-02,-3.341804346788146973e-01,1.449863910675048828e+00
3.280555333820099895e-01,-7.844823522678752159e-01,-6.557528942270982597e-01,-2.300924914065938243e-02,8.935380724320556370e-03,-1.995373887825948808e-02,1.055517673492431641e+00
3.252972348573542893e-01,-8.160690932246273954e-01,-5.979041326753249397e-01,8.485792359257509840e-03,-1.128324733915659142e-02,-3.046054362266300761e-02,1.051041603088378906e+00
5.218253130593379918e-01,-1.294210307678170357e+00,-4.376171597649311518e-01,-8.335999981899884503e-02,5.587398303432034030e-02,-1.047943056970896403e-01,1.593515396118164062e+00
3.637749249889322134e-01,-9.494800794337969752e-01,-4.298545172162521188e-01,-7.866847985631213180e-02,1.335257775502422251e-01,-1.996015924464095703e-01,1.226305246353149414e+00
3.248891982164988645e-01,-7.793041019456423690e-01,-7.684127127386550793e-01,3.835807281335215646e-03,-1.174080969388907950e-02,-1.002852805743825948e-04,1.098996400833129883e+00
3.689683546234543421e-01,-9.006213258274369249e-01,-3.631102692058788550e-01,6.126622728105109161e-02,-9.242256512331042950e-02,-3.222836199806536905e-01,1.251736521720886230e+00
3.630147990769115873e-01,-9.567543648788735533e-01,-5.313709347698217789e-01,6.212906704921202644e-02,-9.423066652200565163e-03,1.850385050381412877e-01,1.214865446090698242e+00
3.365998027109026736e-01,-8.221013646243948703e-01,-6.397879937027937114e-01,1.374433326556076876e-02,-5.268831558390371129e-03,1.224977289233268249e-02,1.079666614532470703e+00
3.581869480688341656e-01,-7.387954629650053118e-01,-7.863918730891064079e-01,7.784108879905916878e-03,1.113780284723238194e-02,4.540257403767921675e-03,1.121812820434570312e+00
3.354914922335400229e-01,-7.345406484660417235e-01,-7.747157764828414006e-01,-1.954498814138637408e-03,1.282872119990750674e-02,1.778803292007765172e-02,1.091341376304626465e+00
3.643657521710826352e-01,-8.471730154621023301e-01,-6.416181170445545145e-01,-4.024006063794055565e-02,7.481630706415109966e-02,-4.743506799856810063e-02,1.135535836219787598e+00
3.454042539872780315e-01,-6.930934516682687452e-01,-7.942181696385246514e-01,1.175887933503835629e-02,2.010139350727278146e-02,1.253147450090961144e-02,1.093535423278808594e+00
3.350528719426295043e-01,-8.721436285977428593e-01,-5.572647913138177866e-01,-2.564767116695763644e-03,2.627872719674715848e-02,-1.620443758269050905e-03,1.085564732551574707e+00
3.736645997150918608e-01,-7.789749240786064677e-01,-7.850402755801195731e-01,2.066012905072914067e-03,4.228203252499257436e-03,1.711150017264542918e-03,1.155716657638549805e+00
3.876975611058160465e-01,-7.877457423978393436e-01,-7.770444377582359508e-01,1.641453513830542013e-02,3.682694691383573034e-03,1.577523808743342901e-02,1.170810937881469727e+00
3.520635405187535483e-01,-8.460210834478203434e-01,-6.446066955927656217e-01,-6.150699931102550019e-03,2.214184865152381623e-02,-4.397654914881140437e-03,1.111892700195312500e+00
3.792042998312807334e-01,-7.610134754846085148e-01,-7.396494355383657071e-01,-2.516359530515692444e-02,-2.024119820753318699e-02,1.111695329421018563e-01,1.147343873977661133e+00
5.711814807116462056e-01,-7.395062060334712806e-01,-9.527006091802889820e-01,-1.993099587035357043e-02,8.772654372770099032e-03,4.656752012900080562e-01,1.641574859619140625e+00
4.226259440805961720e-01,-1.010672090599982198e+00,-6.480073858718277124e-01,-1.024115050799848797e-02,5.351571718010881412e-02,3.688870243783313324e-02,1.295782089233398438e+00
3.160497370187736466e-01,-7.180653974595847533e-01,-7.066949147949983523e-01,-9.597453452112891109e-03,-9.104332268993852286e-04,8.594476441923314114e-03,1.028720259666442871e+00
2.648585425696284301e-01,-7.453569467902381174e-01,-8.419521702155317033e-01,-2.298367589737255329e-02,-2.432139136227097834e-02,-4.359897112814420383e-02,1.066072225570678711e+00
3.436608855811482677e-01,-8.298584019636421338e-01,-6.432361048137089643e-01,-1.486581431567232832e-02,3.103497260217892226e-02,-1.148504487826877175e-02,1.094037771224975586e+00
3.529602373173091889e-01,-8.997884332310783773e-01,-5.692303888025700420e-01,-8.596154767272803617e-04,2.360449331396893835e-02,-1.471627517437109484e-02,1.125550985336303711e+00
3.539256662195418568e-01,-8.680333276352348859e-01,-6.151076629281950758e-01,5.271227310825200504e-03,-1.709951844961498171e-02,1.154049901524971562e-02,1.117788195610046387e+00
3.295879205009865087e-01,-5.880240536952822117e-01,-8.356972744293995614e-01,-5.003066022929375523e-02,-2.547681846130581476e-02,1.614151286786356596e-02,1.068110346794128418e+00
3.362114377348136562e-01,-6.720406030881409531e-01,-7.928254423984835153e-01,1.965697559118596491e-02,2.854172739646300763e-02,4.548356422390658488e-02,1.078309774398803711e+00
2.076345668972003344e-01,-7.893867438482221610e-01,-8.112278392230243274e-01,2.448653498005974247e-02,-1.858538869079168904e-02,-2.749140390970199535e-02,1.010646820068359375e+00
3.759510866984204225e-01,-9.278087072281124836e-01,-4.869105196526826163e-01,-2.765682417437115292e-02,1.182031456415115304e-02,-4.807885633455413754e-02,1.152824401855468750e+00
3.620109438199192731e-01,-9.397351917939361643e-01,-8.981878418550545140e-01,1.352445492443630770e-01,5.328085506903074836e-02,3.413038139224180423e-01,1.433540940284729004e+00
7.084693110729147758e-01,-1.291788392294495935e+00,-4.179792129000879375e-01,-3.563691356112831665e-02,-1.515996575098401723e-02,3.485669775938622927e-01,1.840034246444702148e+00
7.138873877110435417e-02,-6.619201031435469895e-01,-7.866836853692633635e-01,2.098987808973230840e-02,-5.620199793900891583e-02,2.047493085666260704e-01,8.839471936225891113e-01
3.014763409136555494e-01,-9.014405251646864237e-01,-4.637410039345500889e-01,6.608056951697557739e-03,1.423372732125953791e-02,-3.065882212229807668e-02,1.056234955787658691e+00
2.569873132441686248e-01,-7.686908699290875280e-01,-7.627507641757569345e-01,-2.783948573794349773e-03,7.161506865488633661e-03,-5.563614594748796799e-03,1.022853016853332520e+00
3.689600516466767788e-01,-7.966835569502985770e-01,-7.737027268395584301e-01,5.634564698304317040e-03,-4.867876298739552340e-03,1.552236944811061573e-02,1.154709815979003906e+00
3.397238549103758776e-01,-8.656770087340257547e-01,-5.728896869498459887e-01,-1.635646798568685112e-02,3.351292335090822611e-02,-2.319324903716200870e-02,1.091593027114868164e+00
1.826904472955970249e-01,-9.054396808564504351e-01,-1.038532560681097117e+00,7.148304541907822551e-02,-3.970774754829572983e-02,9.938924898048635825e-02,1.181633472442626953e+00
3.625991152118753225e-01,-8.822522408701747310e-01,-5.802943841068403108e-01,2.113369432383450583e-03,6.548664214312072129e-02,1.184227685375026894e-02,1.130592942237854004e+00
3.925874722612732737e-01,-5.755202547303658323e-01,-9.309111489022798835e-01,1.507772682109758105e-03,2.110837903947913527e-02,-1.892308741990879643e-03,1.186990380287170410e+00
2.987837141360231707e-01,-5.135455377558528767e-01,-8.879770087691924996e-01,1.128106549238666600e-01,4.089718039166612140e-02,2.336205776908956422e-01,1.145063996315002441e+00
3.877262647031656795e-01,-7.260569966486223326e-01,-8.497619728426699659e-01,-5.317457498219205908e-02,-2.815202436262110794e-02,3.824272757130584011e-02,1.186947464942932129e+00
6.808801792770846628e-01,-1.384540862702265729e+00,-3.535124330724763175e-01,6.665116995765010821e-03,4.315639786060786881e-02,8.988876750537133989e-03,1.790373921394348145e+00
4.594536548948140453e-01,-6.113449661528840284e-01,-9.910514873216872411e-01,-4.235805743445094154e-03,-3.352639212826632326e-02,1.265493833246258137e-01,1.322439432144165039e+00
3.593574408726274427e-01,-1.216940798525620426e+00,-3.686619072043700318e-01,-5.227509343731678512e-03,-1.857319254824190552e-02,4.597433048591961224e-01,1.581885337829589844e+00
3.892290602168745339e-01,-7.851298045140970849e-01,-8.005016304892886847e-01,-2.829437303625806019e-02,-1.805009099844167783e-02,1.655317218271025112e-02,1.183895349502563477e+00
3.663405673680664720e-01,-6.791139408102391251e-01,-8.280516738750542949e-01,-8.390526251836338822e-02,-4.695240187737975690e-02,8.929908683635030819e-02,1.150009632110595703e+00
3.481654493837244568e-01,-8.684317280523071725e-01,-6.047052772515644214e-01,7.645721265059402666e-03,1.729068031593848642e-02,-4.762485781105696078e-03,1.109031915664672852e+00
3.317587991051063057e-01,-8.871696638909644106e-01,-5.430091099078229178e-01,8.043271611880693089e-03,2.504357971872055860e-02,8.923429838664393224e-03,1.089513897895812988e+00
3.715053499776865276e-01,-3.330122425333703062e-01,-1.266400447626105485e+00,-7.640498735301445854e-02,5.231176779811284872e-02,8.974337552668527895e-02,1.440496921539306641e+00
2.999017407077954611e-01,-4.091420338574096593e-01,-1.074575509049255473e+00,6.318653960841551231e-02,-3.570853823000812166e-02,-3.124821098520711923e-02,1.198373317718505859e+00
7.117667998193579759e-01,-1.414248478911166451e+00,-3.000510251930521566e-01,-2.516827650878433395e-02,1.887953574746968274e-02,7.753008059754702697e-02,1.847587227821350098e+00
2.458879961179267215e-01,-5.590154169633210213e-01,-9.598064338520386762e-01,7.116235517312768412e-03,4.927334819611269012e-02,-3.501879672434335400e-02,1.068744778633117676e+00
1.641196426413812359e-01,-4.973113428609061692e-01,-8.590874898301816831e-01,2.668073070106664196e-02,-2.378425582802237356e-02,1.776859852546790464e-01,9.519519209861755371e-01
3.728244922849027754e-02,-7.208685235587692919e-01,-7.179445225310548961e-01,-7.226319731008154501e-02,-2.247848144437140927e-02,-9.009901930310116117e-03,7.681210041046142578e-01
1.186726388269273569e-01,-8.238148117315345909e-01,-8.474731390292091771e-01,5.342403549330258794e-02,-5.246423240810730443e-02,3.497187094789833833e-02,9.652093052864074707e-01
3.188885915971383933e-01,-7.064314762945917980e-01,-7.286592421925952578e-01,-5.306041875138132373e-04,-1.533815712715207386e-03,1.879254303587244573e-02,1.037127375602722168e+00
3.524923603375175740e-01,-7.212764326960897643e-01,-8.110131209885806935e-01,1.045393392432301775e-02,-5.936086154852721931e-03,-3.644324816403566713e-03,1.121544480323791504e+00
3.760600472940733852e-01,-4.805645720191825121e-01,-1.303411705398184406e+00,3.268215718833260286e-02,5.728567755563041680e-02,-1.837489421602121753e-01,1.493350148200988770e+00
3.549611261300849585e-01,-7.678732307117805966e-01,-7.455158541952040530e-01,6.697470083000221786e-03,8.419723743016731959e-03,1.105945747017169842e-02,1.112145423889160156e+00
3.485510017071697941e-01,-7.793422988784193262e-01,-7.804368351031745199e-01,3.862112484597598604e-03,-5.498942265669678683e-03,3.097554945357300447e-03,1.128513693809509277e+00
3.630040287935329957e-01,-7.844385436627818731e-01,-7.663354804159916434e-01,5.249331529044531583e-03,-4.695598270116512971e-03,-2.461508154333569200e-03,1.138572335243225098e+00
3.661363461379245066e-01,-7.581099748150199602e-01,-8.781748887110794044e-01,-4.718281554431709435e-02,-1.792394451514788684e-02,-6.397820140984772364e-02,1.197184205055236816e+00
4.727863628789341632e-01,-5.593199776500599185e-01,-1.181325883498285600e+00,-4.059107408236788811e-02,-2.657782065844905076e-03,2.917677933619403641e-01,1.534425139427185059e+00
3.486078527579574149e-01,-7.451379884118516372e-01,-7.519879740300452475e-01,-1.487291828616454058e-03,-7.287261724658305323e-03,-8.305952226351359657e-03,1.097356796264648438e+00
3.091948669111868053e-01,-4.619708215710267574e-01,-1.389089230058628388e+00,-1.815379717691268519e-02,-5.120985043573032976e-03,2.969970438616740399e-02,1.474082946777343750e+00
3.260789418749124313e-01,-5.939484273098025735e-01,-8.073306386644449884e-01,1.083080346579940421e-02,2.157841760717696053e-02,3.892346439302362543e-02,1.046228289604187012e+00
3.699479392975858483e-01,-7.731977955541706748e-01,-7.728698988921298696e-01,2.180124349966721699e-03,-2.720478641261290728e-03,-2.892771896973369964e-04,1.142997860908508301e+00
3.355097118413589152e-01,-7.568139030937826028e-01,-7.050511772604752814e-01,1.027766775072630479e-02,-6.988964892647159602e-03,-1.762538607239489546e-02,1.068037509918212891e+00
3.141924408846337169e-01,-7.471279559776459189e-01,-6.713450193742389605e-01,1.503872692613154871e-02,1.817545079693648480e-02,2.661069948916268413e-02,1.027379155158996582e+00
3.356911756652867784e-01,-6.060904401529561003e-01,-8.459913652793868977e-01,-1.215828324501334705e-02,-7.352131158072140044e-03,-5.124342668203068878e-03,1.082184672355651855e+00
3.668029357575474103e-01,-7.738615633185510490e-01,-7.703557747427675073e-01,5.566939427108907185e-03,-5.168366027881337622e-03,-3.107413908301967227e-04,1.138991832733154297e+00
3.783939434114444444e-01,-4.345089360901840947e-01,-9.712902132109662023e-01,7.117546091063235714e-03,1.453249928629435708e-02,1.054049982444759115e-01,1.191390991210937500e+00
3.284004697561828112e-01,-1.178062155544469469e+00,-5.090428160310642713e-01,-7.304781319937536654e-02,-1.065689800428883949e-01,-2.757746702483244161e-01,1.409750938415527344e+00
1.887697922765523284e-01,-7.826065237038518640e-01,-7.702156033459262030e-01,-4.120008355576183084e-02,-4.074726654670220161e-02,2.553134948884290198e-02,9.714515805244445801e-01
3.441060581573923693e-01,-7.581937320449290141e-01,-7.282581997469967927e-01,1.209677345991671919e-02,-8.812060198218193627e-03,-3.579849289872737324e-03,1.087967514991760254e+00
3.298212072828848318e-01,-4.912142878213663355e-01,-8.902933924485660899e-01,-2.868614656456970266e-02,-7.657255160727219692e-03,6.415581656351490580e-02,1.084441781044006348e+00
3.650900831296057802e-01,-8.025905672656068468e-01,-7.503566703786801462e-01,2.812884975632946698e-03,-1.137841926137754187e-02,-1.783061994630461065e-04,1.142639994621276855e+00
3.422935840290663445e-01,-6.327580191230883777e-01,-8.436126559649402834e-01,2.665899588510422039e-02,4.289557959207057798e-03,4.807853721542370944e-03,1.096830010414123535e+00
3.767698435363393550e-01,-8.611244201118279928e-01,-5.555428223439227153e-01,-8.143486702199784558e-03,-3.642483633934532478e-02,1.896143100491739231e-01,1.165986537933349609e+00
3.742092408135769821e-01,-8.497743382318314609e-01,-5.697043613117143135e-01,-2.905392185673828787e-02,-1.956106783140787453e-02,2.792090153269955466e-01,1.212982773780822754e+00
3.553094847611171225e-01,-7.251263911043088761e-01,-7.100187846853969198e-01,-5.246456116932433390e-03,2.769051870081849082e-02,8.121807791503805884e-02,1.083244681358337402e+00
3.675048199438993302e-01,-9.186770895419618110e-01,-5.284862441660775900e-01,4.469463710311500498e-03,4.277646005565167303e-02,9.039547032670866566e-02,1.155300736427307129e+00
3.342883895180753240e-01,-7.804699696796930652e-01,-7.785499315974426793e-01,1.313150354475869138e-03,6.877645521872153070e-03,2.743688332543470177e-05,1.113865613937377930e+00
3.788742967744607726e-01,-7.226204849381221429e-01,-7.997625829821144450e-01,-9.924830768350776170e-03,-2.875210865152809034e-02,2.996181736059160688e-02,1.144413352012634277e+00
3.701089623853553445e-01,-8.216976316714019735e-01,-6.962686335577792374e-01,4.456367596458590125e-03,9.490804587250311133e-03,2.245893401815907131e-02,1.135117292404174805e+00
4.694501639568745555e-01,-1.166109344378673640e+00,-5.946312478900459553e-01,1.198155457607551731e-02,2.225303206873504441e-02,3.447983282556845164e-01,1.557411193847656250e+00
3.597062482758549562e-01,-7.829741701194525838e-01,-7.721194160261273254e-01,5.254808176887820932e-03,-2.069078928126515116e-03,-7.925061751930783651e-04,1.137334823608398438e+00
4.406083459821719672e-01,-9.561278746615553548e-01,-5.816264243499946751e-01,-8.516009765252637032e-03,5.267573853891086531e-03,-2.009380913104498179e-01,1.299797177314758301e+00
6.130645647190640091e-01,-1.224018100287911359e+00,-4.206847398295443519e-01,9.733050141921635590e-02,6.636364661117376273e-02,4.077110021907605630e-01,1.756343960762023926e+00
7.999237186307305292e-01,-1.361391617791306352e+00,-2.990268484443754926e-01,5.559302300397882257e-02,5.161634711116640933e-02,3.163926737926636701e-01,1.954833745956420898e+00
6.080730069076439870e-01,-1.142566028746178741e+00,-4.827528205979895182e-01,-7.980645958761548031e-02,1.777912881183943694e-01,4.982268223149008968e-01,1.789866447448730469e+00
3.505641521844917174e-01,-7.581216928211287343e-01,-6.905088852202948546e-01,-6.627608935702794003e-03,-1.711655409167191569e-02,1.465052706945157157e-01,1.106434106826782227e+00
3.177266506254920464e-01,-8.561269084536413665e-01,-7.779835515875409557e-01,-6.136079266400450323e-03,8.767476290085091106e-03,3.656960246995632395e-05,1.136949062347412109e+00
4.427045165096010759e-01,-8.981554191968279532e-01,-5.854718343142311099e-01,2.377696470633530734e-02,3.010500660597779238e-02,2.592790912561177552e-01,1.297113537788391113e+00
2.765756821680151467e-01,-7.670463592598770752e-01,-7.658534261400987697e-01,-1.330229241904278686e-02,1.695705479185272493e-02,3.974144067750286918e-03,1.043716549873352051e+00
3.565105656568136050e-01,-1.032709836514901225e+00,-5.371796139002836812e-01,2.973460369932840255e-02,-4.210453040427485083e-02,9.767164953785420489e-02,1.234371423721313477e+00
-1.760818521210139043e-02,-1.120574191370542927e+00,-7.275338437605136654e-01,4.099587064587985330e-02,9.312992444377628243e-02,8.004041853959339980e-02,9.938740134239196777e-01
3.015639451634417600e-01,-4.898149227143780982e-01,-8.520637493079318281e-01,-1.329215670969228352e-02,-1.592219953328730814e-02,9.241493433803314728e-02,1.034936189651489258e+00
2.805410044180413065e-01,-9.230226464686241972e-01,-8.825155846397599868e-01,4.383876607256376873e-02,-6.280256349730847787e-02,-2.715634154187511751e-01,1.280738711357116699e+00
2.656535856322145284e-01,-6.751362290249675047e-01,-1.177402285735072773e+00,3.396208619565361381e-02,-7.610892127355593784e-02,-2.266197201548690587e-01,1.335960626602172852e+00
3.289411041656693513e-01,-6.293588922718215128e-01,-7.965865560192553207e-01,-1.923289541947441339e-02,-1.025285437444469101e-02,3.339511278130743305e-02,1.054195880889892578e+00
1.406047166776054347e-01,-1.108069643223324130e+00,-9.740927270904452540e-01,-1.194752440270400312e-01,8.235490487759523567e-03,-8.815808955431273658e-03,1.205447435379028320e+00
3.672742053084247504e-01,-9.701011820355440740e-01,-6.175420048904118886e-01,-2.739819919848730106e-02,7.490304362109891263e-04,6.740324713178789950e-02,1.207166194915771484e+00
3.312321420776251912e-01,-6.532898355947496238e-01,-7.905358845822747504e-01,7.551377471042992548e-03,-9.023550010988428891e-03,4.463838218819936310e-02,1.062842845916748047e+00
3.574950127330849825e-01,-7.778574289867103975e-01,-7.844280618614158929e-01,4.795785631220646390e-04,1.140313695852354908e-03,3.705210677128293554e-03,1.138672113418579102e+00
1.020384303512805735e-01,-7.368429092014875392e-01,-1.112121682867323047e+00,-3.286644416206348229e-02,3.239362696377191819e-02,-6.746353755754160020e-02,1.086007833480834961e+00
3.385258805703298401e-01,-6.309929468448438605e-01,-8.433773093030856316e-01,2.942313897888061344e-02,-2.906901372146754314e-03,-6.822839203119989392e-03,1.092587113380432129e+00
3.318538858393552116e-01,-6.626777330674329392e-01,-7.840271060887678001e-01,-1.837261734122858786e-02,-1.587766537687728199e-02,1.494329099091834361e-02,1.061575889587402344e+00
3.780550022768854879e-01,-7.603675417029934769e-01,-8.252219464518828485e-01,-9.519637963480934856e-03,-4.085772172778485631e-03,-2.226910992145837709e-02,1.172967791557312012e+00
3.658206780015701431e-01,-7.775630684169960727e-01,-7.833030574395463130e-01,2.110822284215891319e-03,-3.807372865915480218e-03,1.282611942903166694e-03,1.146291494369506836e+00
2.424180197679753901e-01,-5.342139705324466803e-01,-1.353026907259935463e+00,1.295106605545660039e-01,1.080782241427477586e-02,3.666345075231235151e-02,1.401510000228881836e+00
3.680075464828291842e-01,-7.775188631642554471e-01,-7.706393963083144616e-01,3.111575813538151880e-03,-3.336018771262148821e-03,-8.114115056971356972e-04,1.142130374908447266e+00
1.472277727588388041e-01,-9.923906381202489690e-01,-1.213881797422006859e+00,1.639954295396076900e-01,3.008583354541511171e-02,3.889820707047032811e-02,1.299285173416137695e+00
3.429937050644286112e-01,-7.226296989563908424e-01,-7.581654950472167531e-01,-2.759499725460057978e-02,2.610310791853353088e-02,-3.837368813207564511e-02,1.087855696678161621e+00
3.650830012566453897e-01,-7.761500492175041899e-01,-7.826837450618562286e-01,1.870709267728626725e-03,-3.688778739782047449e-03,1.257751607452915700e-04,1.144536375999450684e+00
1.663965354199247182e-01,-7.370063728668803105e-01,-8.315460396894607253e-01,2.645547489553806003e-02,5.367290950092221125e-02,-8.793034295101398445e-02,9.718123674392700195e-01
3.731584753465749804e-01,-7.790007609511553355e-01,-7.771211757113982710e-01,2.146683827104226179e-03,-7.664921255264566533e-04,3.107393709073681134e-04,1.151227474212646484e+00
2.340178028128229171e-01,-7.590543341331091876e-01,-7.545424199532335674e-01,3.385710570392516661e-02,-6.538864506465155539e-03,-6.673684074126602465e-03,9.926896691322326660e-01
-4.015805450140425004e-02,-5.984903980013810409e-01,-8.480776655739852288e-01,-6.036241076455223231e-02,8.491484781719529917e-02,-5.063425178212770800e-02,7.440667748451232910e-01
5.188812139713977478e-02,-5.226224137812003345e-01,-8.679620478697763764e-01,-9.767564264413267083e-02,4.036724519181230514e-02,3.807323818095951357e-02,8.279987573623657227e-01
9.255633460943157864e-02,-7.383960290630700030e-01,-7.256117575169929168e-01,3.643585476605135098e-03,1.652711733629842056e-02,-1.316586497808202064e-04,8.251554369926452637e-01
5.100540468244620929e-01,-5.278147604900116363e-01,-1.177315078454519881e+00,6.387235011378633587e-02,-2.656961810434684684e-02,-2.888014561931390167e-01,1.561311721801757812e+00
3.528086774725024966e-01,-8.284593024963042840e-01,-6.811977118731449288e-01,2.247054494976544192e-03,1.073833462493832547e-02,-2.253666964149395394e-02,1.115799903869628906e+00
1.516918623698843005e-01,-1.160495628426683412e+00,-1.113329666027488507e+00,1.378664753918708123e-02,1.284249924556539121e-02,-1.158943190143516544e-01,1.305193305015563965e+00
1.969387351621750826e-01,-1.170668767673525235e+00,-1.203973540897028238e+00,-7.040898251438040822e-02,9.087512052277170460e-02,-5.556958842257582465e-02,1.402112126350402832e+00
3.121822685349486814e-01,-5.960276043652221745e-01,-8.047516584651680516e-01,2.096739358073179422e-03,-6.379267982977067895e-03,5.285024509213047395e-02,1.032710433006286621e+00
3.695575836549354065e-01,-7.783074020705934570e-01,-7.722096479170684757e-01,3.043997609895878701e-03,-5.194265797140853319e-03,-4.295556138292592211e-05,1.144875764846801758e+00
1.294929959177061329e-01,-9.975465368932820986e-01,-1.086351148055796800e+00,5.615099697413756391e-02,-5.175970766606998591e-02,7.543219228482953009e-02,1.188594460487365723e+00
1.233629785192194017e-01,-7.271005890439588004e-01,-7.374409060646707204e-01,-4.870920691360488761e-03,3.109535714279215712e-02,-1.690605117976387746e-03,8.574204444885253906e-01
3.664548238461703411e-01,-7.708349703582393353e-01,-7.711368291000713082e-01,2.398340269334540455e-03,-4.958789630255885580e-03,-3.781191861859455484e-03,1.137499570846557617e+00
3.650330044821500919e-01,-7.757907062015287902e-01,-7.796777512838294344e-01,-1.686452337585706311e-03,1.089116097533485844e-03,9.688169434762332853e-04,1.142778754234313965e+00
1.547539464025818878e-01,-6.286441718622677310e-01,-1.224848278843266636e+00,-2.249813959441377548e-02,-1.260104327059856366e-01,6.018976833361725648e-02,1.223217010498046875e+00
3.719117542618158856e-01,-7.783161850960534922e-01,-7.797596504150884344e-01,1.985769434648800100e-03,-3.912769713674282834e-03,1.631440694222371327e-04,1.150975465774536133e+00
3.411350578931369726e-01,-7.769408493199759791e-01,-8.062704036669977592e-01,-5.229010218082256328e-02,5.657897222388479086e-02,-8.996746905217414825e-02,1.151449203491210938e+00
4.535155197629212598e-01,-4.504046135303229614e-01,-1.257233860398031755e+00,-9.698298929172260996e-03,-2.769718049443396779e-02,-1.446457088096092247e-01,1.504229068756103516e+00
2.599180012077724200e-01,-8.856496077741178308e-01,-9.523133757917066067e-01,-4.307721245072193561e-02,1.092582339582639922e-01,-2.757034133922032781e-01,1.289400339126586914e+00
3.629758180651241339e-01,-8.030182778499548313e-01,-7.513175941099873301e-01,3.238900482656423795e-03,1.577639406115439709e-03,5.322049390951921581e-03,1.141076922416687012e+00
3.590280336683372431e-01,-5.371476737109073252e-01,-9.410358442493247377e-01,-4.641985931697604345e-02,-3.059771510989064622e-02,1.388896902988178139e-01,1.181251645088195801e+00
7.541110334415984662e-02,-8.060146829334444707e-01,-6.688442997155789049e-01,-1.253795302629415014e-02,-1.136137555702618485e-01,-9.279107135009419249e-02,8.601441979408264160e-01
1.563642894547342954e-01,-7.387809419102671082e-01,-7.472068111237525345e-01,7.856018033824827690e-03,1.610664820342052467e-02,4.957923600186383596e-03,8.999641537666320801e-01
2.984524570933334009e-01,-8.351792193412257426e-01,-4.827880554068434971e-01,-3.203225860750973618e-03,7.579111917210808527e-04,-1.075282254663980086e-01,1.022026419639587402e+00
3.598329412182587617e-01,-7.163509041895583795e-01,-8.032134381722992877e-01,6.925836112057228398e-03,1.681170773779052524e-02,-3.718047339784168182e-03,1.122599720954895020e+00
3.081685998292664208e-01,-7.776135609148131511e-01,-7.692554628583029297e-01,-8.530643974605537846e-03,-7.303064039817998461e-03,-5.930943005605083390e-03,1.081851005554199219e+00
5.007226579031568425e-01,-8.532581841941414558e-01,-7.189509181684071715e-01,6.134109569595486665e-03,5.942903690425715979e-02,-2.645968261891767370e-01,1.374843955039978027e+00
2.503205421708574741e-01,-7.628544888758537201e-01,-7.564760340899245872e-01,-1.048525387311233757e-02,-7.198461486772659255e-04,1.281793268547321138e-03,1.010167360305786133e+00
3.546130278638112143e-01,-8.018668152975827468e-01,-7.236077269970107029e-01,-1.121452891987678724e-02,1.543692471451939274e-02,-4.225653674019518372e-03,1.119915485382080078e+00
7.673209160190941347e-01,-3.765704951584950555e-01,-1.316961103374154174e+00,-2.063339800501821225e-02,-6.415858771937639655e-03,2.734941091604593533e-01,1.869311213493347168e+00
2.047512206647009725e-01,-7.903961839568642844e-01,-8.220470771460930415e-01,-2.492579612135183142e-02,-1.232976884208634820e-02,-4.789902640448787281e-03,1.012524724006652832e+00
3.214440046407305851e-01,-5.464766044532994860e-01,-8.575240842147239251e-01,-2.256059672160389343e-03,-8.146052659561846959e-03,-3.718661883933366968e-02,1.060360312461853027e+00
7.976100633549885188e-01,-2.602384267096827797e-01,-1.484823410696307411e+00,2.263121909711379026e-02,1.164295460095992989e-02,1.126423278548197848e-01,1.988488197326660156e+00
3.190262869639923227e-01,-4.933178981518132611e-01,-8.880898207776670716e-01,2.413758769834354820e-02,-2.337644370114674852e-03,-7.475915514043968493e-03,1.066944479942321777e+00
3.172519284630893055e-01,-4.898563765503790579e-01,-9.142182524090922691e-01,3.579743505731153817e-03,3.051218876876334637e-04,1.756589004532710038e-02,1.083963632583618164e+00
5.713315342844660361e-01,-6.402202266707642808e-01,-1.066623670024971382e+00,5.457584467867316637e-03,5.632685661136922241e-03,4.171392269596734814e-01,1.639660716056823730e+00
3.151182795768609490e-01,-7.836090104760859987e-01,-6.147689774443847455e-01,2.249077284816064504e-02,-2.620375520469971423e-02,-5.543416098604582454e-02,1.031016826629638672e+00
2.402341896135832822e-01,-7.633225142197961333e-01,-7.658025345105874404e-01,-1.552687999927358786e-02,2.776504309650270827e-02,-4.261047429191754631e-03,1.006335616111755371e+00
3.513672661815999687e-01,-6.322212594476476211e-01,-8.591154698528542522e-01,-3.533398120788630581e-02,-1.096284688803444637e-02,1.143731273646363643e-03,1.116336822509765625e+00
3.536739798215694508e-01,-9.633881306785496701e-01,-4.805599743151611758e-01,3.818829564075203881e-02,-1.769688010972650036e-02,-7.438092011859682995e-02,1.163517594337463379e+00
3.103097477410186045e-01,-5.542256317688923906e-01,-8.400832975369708633e-01,4.634053278388190061e-03,-1.096728770872196744e-02,2.306532457498603958e-02,1.038408160209655762e+00
4.284110675793297851e-01,-1.005379342309091095e+00,-4.984045485857129254e-01,2.928012037190063158e-02,-7.102646576673729562e-02,-1.739521340400959626e-01,1.301678538322448730e+00
2.534792515234141064e-01,-4.866372714993063009e-01,-8.144247028157396429e-01,-2.679278586220895392e-03,-1.722793920483533386e-02,2.736994418372368232e-01,1.059935927391052246e+00
7.487049252297492963e-01,-2.725608653802710779e-01,-1.462768510539135480e+00,-1.888063291892023293e-02,-2.825648911622911236e-02,1.705082159932092833e-01,1.940561890602111816e+00
3.387442472154444939e-01,-7.901835372813776903e-01,-7.128845924630944353e-01,2.941302482904290319e-02,3.343885686879940339e-02,3.674153619178503749e-02,1.096899151802062988e+00
3.281349441226508179e-01,-5.387634152332051451e-01,-8.893981452944357269e-01,3.356203530644018187e-03,-5.760627552910352854e-03,2.500027979185739241e-02,1.086476206779479980e+00
9.020364355866666850e-02,-7.221487691415320320e-01,-7.330224294021751019e-01,-2.704093757070956394e-02,-4.125656509229744251e-02,-2.797081229056694058e-03,8.223085403442382812e-01
8.285677075329656027e-02,-9.795778952874010237e-01,-7.572953761045556620e-01,6.115611475624226079e-02,1.088501362911321879e-01,1.157664364407057639e-01,1.014389991760253906e+00
2.546795652008827515e-01,-7.694467841244669870e-01,-7.652008442542663769e-01,8.378478905287527201e-03,3.893493407799436187e-03,1.575372766196706572e-03,1.022138953208923340e+00
-6.528108034456681086e-02,-8.534667242442917079e-01,-6.959603225156368866e-01,-1.544021348463137273e-03,-5.168022799170601117e-02,-6.123885678778515735e-04,7.279570102691650391e-01
8.047286285364081415e-01,-4.821208600528790189e-01,-1.201029568315278517e+00,-5.537058525239502149e-02,-5.670603679673027683e-03,4.062490957730490737e-01,1.897985219955444336e+00
3.192782837719469469e-01,-6.257259870845658378e-01,-7.857511921393536269e-01,-1.103035896530640651e-02,1.143661112121496792e-02,1.943885217407638477e-02,1.035256743431091309e+00
3.413834609325623881e-01,-6.321662193451722533e-01,-8.243292591649838963e-01,-2.797818460839604504e-02,-2.034223603107930892e-02,9.087241160078705915e-02,1.095522284507751465e+00
2.376085284898781236e-01,-6.869936166661720911e-01,-1.182620981687435346e+00,1.336953119439371340e-02,-3.954742141452330557e-03,1.488169918403220437e-01,1.275075078010559082e+00
3.536156707153844114e-01,-7.731786280162866731e-01,-7.897302121029394772e-01,1.353146096206085365e-03,2.961852568990722221e-03,-9.135750794018216998e-05,1.135174632072448730e+00
3.598352733664428316e-02,-7.212773923685200650e-01,-7.125999478021129985e-01,2.781553277362264556e-02,-1.419679700793872491e-02,-9.892380036311664709e-03,7.550944685935974121e-01
3.440787146455629442e-01,-7.531192932701296083e-01,-7.903753532291333261e-01,-7.427756599960286081e-03,-1.378127938886692522e-02,-2.978297725251916224e-03,1.116633653640747070e+00
3.602730540057003106e-01,-6.909635473879751633e-01,-8.408816316253234779e-01,1.455453146348580085e-02,-2.058316296389193709e-03,6.417143691613821921e-03,1.133995175361633301e+00
3.468831754220293440e-01,-7.783819372810578674e-01,-7.785726488828026426e-01,-7.060389268143128609e-03,-2.118836461309293526e-03,9.370427861767553334e-04,1.125434041023254395e+00
4.071581014487306582e-01,-5.143696693618432514e-01,-1.264063802001946790e+00,2.553919580043332790e-02,3.441359491431812082e-03,1.440658337944839273e-01,1.471861362457275391e+00
3.299938914398699574e-01,-6.146821451796763425e-01,-8.021091711965888660e-01,-1.043838210819475303e-02,-8.654727517434962145e-03,-4.483389964766232999e-02,1.054125905036926270e+00
5.271519453637367736e-01,-5.560690776327856799e-01,-1.089829681407460837e+00,1.941818683711592913e-02,-3.118655941537237797e-02,3.901218684433553907e-01,1.580216169357299805e+00
3.263621952497186007e-01,-7.259759569553289049e-01,-7.118054769000781157e-01,-2.634438967477035348e-02,-2.817738504133954561e-02,3.400353399145632227e-02,1.049112439155578613e+00
3.416926920663058143e-01,-7.692932982776894413e-01,-7.854586276829289559e-01,4.815492316614917653e-03,-6.178740335630277317e-03,7.872918652317519896e-05,1.119238495826721191e+00
6.505570909089386511e-01,-3.353040201090985439e-01,-1.417300067980148626e+00,6.288334242217860637e-02,-6.323142488753209257e-03,8.493797182771939402e-02,1.800822496414184570e+00
1.626433748150134528e-01,-8.086000349579036683e-01,-7.874469342965378926e-01,-2.996885976162547496e-02,-6.782671094100241327e-02,2.273530606953811165e-02,9.701870083808898926e-01
3.007599062841668225e-01,-9.715796956570421639e-01,-9.135232025210047180e-01,-2.917420854498441619e-03,6.797020216039070806e-02,-2.931465951135115433e-01,1.349089026451110840e+00
-4.295009515818781765e-02,-9.193547417565095525e-01,-6.734737536643217171e-01,-1.268833784409510168e-01,-7.409788949388620982e-02,2.134593077678664796e-02,8.241285681724548340e-01
1.612761514479293390e-01,-7.849274019888935472e-01,-7.841876950817606717e-01,1.456387119629103388e-01,2.082687088056713737e-02,1.252871336761664234e-01,1.003307342529296875e+00
1.067244446372664912e-01,-7.438169049203051664e-01,-7.582314455100331863e-01,-2.493995753778758054e-02,3.735947477793267330e-02,3.568469477160696179e-02,8.635751008987426758e-01
2.662561598486079539e-02,-9.096087305168197856e-01,-8.695294820160073268e-01,1.529257522506757838e-01,5.132622260776492640e-02,-1.985231332044208041e-01,1.018289685249328613e+00
1.760327132638311864e-01,-7.506493768940800670e-01,-7.843357646538133832e-01,1.145598291963263043e-02,2.342624141999330792e-02,-2.599501076522581829e-03,9.450668692588806152e-01
-9.952448853048800892e-03,-1.035819108610215089e+00,-7.279510441199500415e-01,7.775012703604469375e-03,3.081631868575084379e-02,-1.137392046077291691e-01,9.344483017921447754e-01
2.257800408645017631e-01,-8.453385729960709583e-01,-8.301815526223126351e-01,8.807807705944619564e-03,5.516622034698869664e-02,-4.154164974557538192e-01,1.287775278091430664e+00
3.437522829542156710e-01,-9.411399147095191875e-01,-6.877180021877311589e-01,-4.144285486930253393e-02,5.129694542700632270e-02,2.672661671211168464e-03,1.184322118759155273e+00
1.299675408443276559e-01,-7.455402344784558544e-01,-7.357675133886696361e-01,-1.053701588783304000e-02,1.316838959317138090e-02,-3.467358387105395727e-03,8.711731433868408203e-01
3.652952803249908675e-01,-7.664693537725599803e-01,-7.719733069537852987e-01,6.533606486550213276e-03,5.935889466368397642e-03,2.761159668892912856e-03,1.134639739990234375e+00
3.583659278702038264e-01,-7.962312722377312690e-01,-7.194739645382557391e-01,1.221184976641072166e-02,-6.210935471138542135e-03,7.353390065496836700e-03,1.118520379066467285e+00
-8.953683694455205622e-02,-7.941487364321643261e-01,-6.894371695184198234e-01,-1.084173413631560057e-01,-6.114636668449326129e-02,-1.209817607581909100e-02,6.932388544082641602e-01
2.167499348564457251e-01,-7.552714590456010013e-01,-7.552321092875164954e-01,1.901064067874021213e-02,-9.200064514293983253e-03,-5.481380586682881202e-03,9.727361202239990234e-01
2.524019071476303888e-01,-7.627681051790047295e-01,-7.672726526802655656e-01,-6.523794321045823033e-03,9.479512962617132540e-03,1.508877443923225701e-04,1.017624974250793457e+00
5.880075252878229630e-01,-1.062337191289888239e+00,-6.544480534401295735e-01,-2.245424727784593039e-02,-7.963426619101950099e-02,4.962688767274698876e-01,1.725178122520446777e+00
1.969210280484215425e-01,-7.417201766301551036e-01,-7.953726984335215411e-01,3.443485141177688932e-03,-4.276816877717456999e-02,1.566477445027586804e-02,9.698172211647033691e-01
3.100274210368147432e-01,-6.757457313397454701e-01,-7.405653497100603833e-01,4.035842443326115065e-04,4.645963067029353771e-03,1.040837894598072022e-02,1.019920587539672852e+00
3.786285967916023232e-01,-7.567835428172280388e-01,-8.430498380391816537e-01,1.419954202724563880e-02,-9.239840630718901618e-03,-1.549703278005467796e-02,1.181580305099487305e+00
3.411270665073812269e-01,-7.807458522608915485e-01,-6.942445208826492076e-01,1.560470163402853314e-02,9.592960880243129890e-04,8.994266068555427721e-03,1.081671714782714844e+00
3.878749756898717260e-01,-8.292753640629211276e-01,-7.434284500192105405e-01,-2.876606005404585414e-02,-2.616659821584097628e-02,5.688599121174869877e-02,1.182615995407104492e+00
3.632830908359647171e-01,-7.610020797808823012e-01,-7.672628343118307326e-01,6.486843761674588801e-03,2.365966913311368645e-04,-2.944083542933376325e-04,1.127484798431396484e+00
6.868394718348881378e-01,-1.218442473423269501e+00,-4.693026732112384747e-01,1.715299770827184711e-02,-1.979195564471545460e-02,4.246986639221423943e-01,1.818557620048522949e+00
3.708206792901193594e-01,-1.222242266577590941e+00,-2.900491105116123070e-01,-1.488357395787310022e-01,4.459888295752869464e-02,-1.024776528068298553e-01,1.423277735710144043e+00
2.481884151814582884e-01,-7.650851639285578543e-01,-7.634517209242159819e-01,2.616904324390493392e-02,1.400263702265237657e-02,-4.510929812258644353e-03,1.013792157173156738e+00
3.071741736175954141e-01,-7.780096916252852157e-01,-7.701725953520673906e-01,1.795025941118084077e-03,1.998841300437335586e-02,-4.933644298863358590e-03,1.081878900527954102e+00
3.532246910535158380e-01,-7.945805331749655753e-01,-7.590895225421270265e-01,4.945529052765558140e-03,-9.470774571490560984e-03,-2.090274900903084376e-03,1.130634903907775879e+00
4.369812266212435015e-01,-8.964156092804020926e-01,-8.806975025854104633e-01,-3.869940791252895335e-02,7.380022824642720747e-02,-4.079540709979254109e-01,1.509088397026062012e+00
3.958529107679459313e-01,-1.141507192821697103e+00,-4.825649783657426362e-01,-1.510829192692824674e-01,1.032210100998195990e-01,-3.896161311732319055e-01,1.529867172241210938e+00
3.663092755756039987e-01,-7.923612874051849664e-01,-7.754974304815923647e-01,-3.038456252770834287e-05,3.832746744043723924e-03,9.652810560857781706e-07,1.150350451469421387e+00
3.288909551139223009e-01,-7.743275430706892948e-01,-7.829421022330008695e-01,-8.136532453500900167e-03,3.457168127283127227e-03,7.358430079464972151e-04,1.107657432556152344e+00
4.214014543167469706e-01,-1.030616506597750393e+00,-5.900259246259736967e-01,-3.017373060971712678e-02,1.228489952092040177e-01,-4.894329599392782670e-01,1.558644175529479980e+00
3.595198957366310677e-01,-7.809377305257452218e-01,-7.819329845991196404e-01,-5.073696562564955492e-03,4.504080348209093219e-03,2.751374574902655003e-03,1.141026020050048828e+00
3.556637241883537914e-01,-7.906603969562722156e-01,-7.268704414377700207e-01,-9.244643736772251152e-03,1.116315101711630974e-02,-1.163321778402048867e-02,1.116261839866638184e+00
5.185711361239320194e-01,-1.355569471626641986e+00,-3.109703652063843249e-01,-5.678818275478197952e-03,-1.032645482663355346e-01,-4.920064649290138703e-02,1.638662338256835938e+00
3.422716727168220174e-01,-8.075966105312089027e-01,-7.806403235958563336e-01,1.325522245709365816e-03,-3.650791902117956310e-03,1.151999942380239027e-02,1.136824965476989746e+00
3.558439012129911982e-01,-7.858499417415305555e-01,-7.773552260571414685e-01,-1.377125350770186862e-03,-2.310182925236078325e-03,-5.034003051874009430e-04,1.137480139732360840e+00
4.872435303939119389e-01,-1.326168766827050982e+00,-4.664771088397838827e-01,2.154745529800294879e-02,7.546636651855988254e-02,-7.814332622359013159e-02,1.582831621170043945e+00
1.224953086007715686e-01,-9.277991855660578935e-01,-5.039885439672041612e-01,-1.061061218404670946e-03,-7.873576502920925924e-02,-8.798003020119529727e-02,9.377797245979309082e-01
3.619578171176299763e-01,-7.911111867088511662e-01,-7.765014186334444624e-01,-1.512347079906585512e-03,6.816283783081421126e-03,1.176483220431125912e-03,1.145899653434753418e+00
6.981910475568652297e-01,-1.323626861697634549e+00,-3.854126157222418358e-01,8.013905455210171627e-03,1.120908738766236874e-02,-1.806321855741146454e-01,1.780322670936584473e+00
3.472187416613832234e-01,-8.487047265277306574e-01,-7.068718020816271430e-01,4.489000675886227021e-04,-9.169574964670417980e-03,-3.203408236610095355e-02,1.133163571357727051e+00
4.203842239969892147e-01,-1.150279303025071087e+00,-6.167345887711830343e-01,-3.861907716829184045e-02,5.802009383212488464e-02,-2.253955275620810050e-01,1.442434549331665039e+00
3.625691759596883501e-01,-8.123936450688871158e-01,-7.180360700422573350e-01,1.708881995186180974e-02,-1.044462489965564816e-02,2.101822205513660322e-02,1.131858229637145996e+00
5.877839360741117236e-01,-1.292378744462016282e+00,-3.711509360860738571e-01,-5.667223437561875327e-02,-1.073687847461699402e-01,1.744363709558530151e-01,1.669466257095336914e+00
3.498097892550006693e-01,-8.039377660485035326e-01,-7.154122210669995319e-01,6.672345681808111370e-03,2.337371562650412266e-02,4.552328737257619988e-03,1.112954974174499512e+00
3.619899291785173001e-01,-7.726239659940794535e-01,-7.837482134978279724e-01,3.929583868537424654e-03,3.264389754994878167e-03,6.851772622510784137e-04,1.140251636505126953e+00
3.353176010926935402e-01,-7.621256964324352179e-01,-7.223927526577398339e-01,-3.810905122627381708e-02,1.654765229545425084e-02,-6.145877797073028004e-02,1.085755825042724609e+00
-4.717800710267855413e-02,-7.357248977045991456e-01,-7.451489756604861014e-01,-2.384047913370920119e-02,1.104291502117469015e-01,-2.686592440166576598e-02,7.218924760818481445e-01
3.655115388944237265e-01,-7.774529151179705444e-01,-7.819664817528927392e-01,1.117745219980920699e-03,7.215503728398731803e-04,1.879471216540137780e-03,1.145234823226928711e+00
4.198469941602269162e-01,-8.354424545363399179e-01,-6.431040227805061571e-01,1.246494986705753635e-02,6.643411515380383270e-02,1.267828935236999799e-01,1.197177290916442871e+00
3.701523539446932021e-01,-7.909974477829455619e-01,-7.803512658700184623e-01,3.058370585545600213e-03,2.053987301259193807e-02,-2.589077785496361056e-02,1.157292127609252930e+00
2.102352536319612164e-01,-7.583984879102061427e-01,-7.503122867367444382e-01,4.252013887756096733e-02,4.422306881629436970e-03,4.183183933400839299e-03,9.674808382987976074e-01
1.541719571553943346e-01,-1.144853664551907180e+00,-8.301187400849227016e-01,-3.449833724120542761e-02,5.307751268754671431e-02,-3.715696580635086121e-02,1.180610418319702148e+00
1.852525101258686302e-01,-1.002269299987373019e+00,-7.852492795979719720e-01,-1.161243513826503704e-01,3.994275730148292430e-02,-2.315812410542252842e-01,1.185630679130554199e+00
1.726181527389022419e-01,-7.944915619864694190e-01,-7.379851949573181802e-01,8.405461253399056434e-03,-5.691331373625348189e-02,4.447824076676513971e-02,9.485307335853576660e-01
3.384468467502491640e-01,-8.118902238015826001e-01,-6.625292310655377381e-01,1.193926915662286634e-02,-6.633306387486353171e-04,2.834331348354382496e-02,1.084715485572814941e+00
1.443709201981093204e-01,-7.860405440741238259e-01,-6.583804566703811423e-01,2.260167592296493961e-03,-4.356447787119219206e-02,-1.139088051020050070e-02,8.770885467529296875e-01
3.676950719576789761e-01,-8.087518678038383424e-01,-7.331366577172062637e-01,1.364150994688688272e-02,1.544236471557769094e-02,8.941932255376079317e-03,1.141184210777282715e+00
4.268030817260400345e-01,-9.967978515361533010e-01,-5.743856468828527628e-01,1.951077701611047752e-02,5.361246016016029542e-02,1.750428095405366646e-02,1.270594120025634766e+00
3.183585821866713461e-01,-4.932055840744877795e-01,-9.003710110172155057e-01,4.867423790797330459e-03,-2.303998742272340625e-03,-2.064621557409491992e-02,1.075279831886291504e+00
7.096264436544267307e-01,-2.673269850833839834e-01,-1.423153207660426300e+00,6.514264226986440920e-02,1.728558845393408233e-02,1.483028925334503034e-01,1.870606541633605957e+00
3.135151287379422391e-01,-5.041868518148641121e-01,-8.768830875040525274e-01,-2.478551685950684553e-03,6.543605919186659811e-04,1.285590831299274032e-02,1.054897665977478027e+00
3.185657920379451613e-01,-6.320498513742500712e-01,-7.891984419920105021e-01,1.316496690501586147e-03,-1.638152514216958608e-02,1.349800068721173502e-02,1.038802504539489746e+00
3.376105770551035556e-01,-9.065724658961165083e-01,-4.695081489698189059e-01,-1.583815471453730445e-02,-5.146801219765752278e-02,1.068528578360066761e-01,1.112735629081726074e+00
3.568243047046549821e-01,-7.579653267438535291e-01,-7.572597610177216332e-01,3.416976235220547855e-03,3.697595242174568728e-03,5.297229661594242585e-03,1.114508867263793945e+00
3.682591098847488587e-01,-7.814694425005898060e-01,-7.778022452304582668e-01,2.854010075858181422e-03,-3.763861425996722129e-03,1.225477170279687476e-03,1.147930502891540527e+00
3.683425566696639786e-01,-7.742180877378518344e-01,-7.665544510272406242e-01,-7.874040563161119419e-04,4.326734969737404358e-04,-3.970633545928052219e-03,1.138769984245300293e+00
3.477152152473285684e-01,-7.396307751284456611e-01,-7.555328933169753736e-01,-1.146663181350264906e-03,-1.480367429741226946e-02,-7.471581865702375813e-03,1.095761895179748535e+00
1.099049975667689694e-01,-7.672758245091713114e-01,-7.550009481828180435e-01,-2.110451872631730411e-02,-6.776383817878346705e-02,-1.428166852278564200e-02,8.800871968269348145e-01
3.723504212771076016e-01,-8.268969386488231876e-01,-6.952170725235883308e-01,3.588284625391656608e-03,-3.771897327572185793e-02,-2.554138493814992264e-02,1.141876101493835449e+00
3.430932582210127202e-01,-7.718685143641434987e-01,-7.057087030579340947e-01,-1.728634948341462724e-02,1.924884842873453988e-02,-1.243047023972755627e-02,1.084538102149963379e+00
3.700109857649855893e-01,-7.719819235740663643e-01,-7.721659421499962317e-01,-1.750067293811964457e-03,-1.744306142705812166e-03,2.481742628113612226e-03,1.142101049423217773e+00
1.902454962045510567e-01,-7.559957515146631390e-01,-7.528477515748093207e-01,-2.021118670049940058e-02,-8.651050275037579923e-03,1.154139375179106045e-02,9.456496238708496094e-01
3.189316887768990916e-01,-7.115898814186920607e-01,-7.242846112120888691e-01,4.533633120335452127e-03,5.166873865685934174e-03,1.654707705139525295e-02,1.037391543388366699e+00
3.626159584484972553e-01,-7.538950282204176512e-01,-7.781976320486351240e-01,2.238199574195218298e-04,-9.866955137719358657e-03,-1.710118355821524860e-03,1.128991842269897461e+00
1.890528028580345521e-01,-7.475186577733028415e-01,-7.470793097380197256e-01,1.177600734245410827e-02,-2.522416734371263868e-03,1.747241821303371738e-03,9.365890622138977051e-01
2.146779613191858171e-01,-7.553949868751714813e-01,-7.598940310570885259e-01,-4.065921064669665574e-02,7.308742094270193014e-04,-1.442313621922598353e-04,9.748781323432922363e-01
3.660835537884933322e-01,-7.859124563818395970e-01,-7.719288948310990550e-01,1.059919344538172957e-02,-9.464528095061220878e-03,-2.272259828595629000e-02,1.146008729934692383e+00
6.210880924680739490e-02,-7.739625866142596511e-01,-6.705825804205327589e-01,-4.005847925225536690e-03,8.486853360629059706e-02,-8.179940689639479678e-02,8.154749274253845215e-01
6.365108089637822042e-02,-7.239986075151223499e-01,-7.579264470938220644e-01,-1.034564769646480475e-01,-2.462203083738186138e-02,-1.276840897564401889e-01,8.550465106964111328e-01
3.629795699757601968e-01,-7.875387510230766885e-01,-7.857716880847670504e-01,2.035074258263281418e-03,7.009069470945858416e-03,-3.941708787310388255e-03,1.149725556373596191e+00
3.829379982025543638e-01,-9.886461490269190522e-01,-3.101351078036790887e-01,-1.798771344694043931e-03,-8.486874247775963442e-02,-1.961173882906729893e-01,1.244182109832763672e+00
4.471193227954161631e-01,-9.908136243319878300e-01,-5.407025067674120500e-01,-1.824324802630284195e-02,-4.510361494103235641e-02,1.124227200591039338e-01,1.291526079177856445e+00
3.066852087536553473e-01,-9.153836298569903995e-01,-4.040679947210761291e-01,-3.829922820130518546e-03,-1.805684339647499904e-03,6.847184481051982186e-02,1.069650411605834961e+00
2.531428763834380202e-01,-8.637596590567994115e-01,-4.729318386726035772e-01,3.126506054150499092e-02,-4.907930175547534773e-02,-9.607429597330137405e-02,1.000775098800659180e+00
3.468426145869263344e-01,-8.460920719140464508e-01,-6.313632531356088151e-01,1.385767753281637489e-02,-3.273139125714008557e-02,-3.214971281719514185e-02,1.104506731033325195e+00
3.317749845891912464e-01,-8.446847276225595280e-01,-6.151999892597687092e-01,-2.642161267172386720e-03,-3.092505528732168718e-02,-4.787794280988507366e-03,1.081526637077331543e+00
3.417871006597603678e-01,-8.542835944441629081e-01,-5.668630376784871139e-01,-6.857498155593696847e-03,-1.426087728140219141e-02,-3.136660357811342503e-02,1.083108067512512207e+00
3.567478251315430726e-01,-7.202731573234404383e-01,-8.096396545281886459e-01,8.674910070167246232e-03,4.481534148060791617e-03,5.827360772228588545e-03,1.124543428421020508e+00
3.686250707224402179e-01,-7.832885206121851240e-01,-7.648140266981829916e-01,-6.312743578973148938e-03,-2.335020407933939817e-03,5.530553498873399089e-04,1.142848253250122070e+00
2.840982521852808418e-02,-7.187261761305456798e-01,-8.041349374248032422e-01,5.537870966874902656e-02,-4.000129015745922632e-04,3.218619599018426175e-02,8.010165691375732422e-01
3.003082380455124323e-02,-7.471275903945482355e-01,-7.289583830655491647e-01,4.096331931524468950e-02,1.040155289045999326e-01,-4.911062959975000426e-03,7.923061251640319824e-01
-4.336585971998041522e-03,-6.289426015202024267e-01,-1.121583771762505899e+00,-4.972118552051571494e-02,-3.621417157315206387e-02,2.283527638928872783e-01,1.052768111228942871e+00
3.752648075488930757e-01,-7.763755484536463136e-01,-7.792545603085125894e-01,8.465751607461236515e-05,-2.805851394497400723e-03,-1.200577960229848957e-03,1.153094649314880371e+00
3.665765291512940727e-01,-7.814572279697519219e-01,-7.783170432021082608e-01,3.517512381556666019e-03,1.168362450015786183e-03,2.527094859924277747e-03,1.146493196487426758e+00
3.557327334367207383e-01,-7.440280022130786319e-01,-7.703949287222333631e-01,1.556971051706167435e-03,1.419593280132148798e-02,-6.558477452102812709e-04,1.113453745841979980e+00
-1.610640957978197174e-01,-7.886160494634268936e-01,-7.995893197419386977e-01,6.860624624147101946e-02,-7.817752436518106418e-02,1.246522152616782488e-02,6.585969328880310059e-01
2.138544208511355960e-01,-8.176865353783925316e-01,-8.765634300324466333e-01,-9.056552822184360529e-02,5.814329459513310761e-02,3.076777772649148535e-01,1.202922344207763672e+00
3.961830430378739942e-01,-8.678927804065064144e-01,-6.963300296219728791e-01,1.390751318322161652e-02,1.956818593395206335e-02,1.610628984925873558e-02,1.188680052757263184e+00
3.493770962391041790e-01,-8.100703371793959162e-01,-7.144853283733183513e-01,-3.098386003913806194e-03,-1.906526799527675370e-02,-3.776930744518227842e-03,1.115253806114196777e+00
3.433890804983817380e-01,-7.823819627906258845e-01,-7.789244137734205875e-01,-3.515461082250231255e-04,9.620762532405830944e-03,5.255904885059552384e-04,1.124170303344726562e+00
3.663410648428967464e-01,-8.001214732808462626e-01,-7.572639394116141842e-01,-6.302503059536244956e-03,4.780710544332535290e-03,-4.529660419713124955e-03,1.145743966102600098e+00
4.569506985391407206e-01,-1.095913582514891571e+00,-3.724935051685240861e-01,-3.644576378389384561e-03,-2.691083533976395062e-02,-2.488630854883220889e-01,1.413987874984741211e+00
1.616899581114033535e-01,-7.422776553906356156e-01,-7.485209763782998404e-01,-2.841365084870723853e-02,7.731915533991618947e-03,1.046036116977453953e-02,9.087187647819519043e-01
3.416662473641357001e-01,-7.832669824371250034e-01,-7.780218109135383919e-01,3.114306626337209807e-03,5.324607558266422104e-03,1.609505400570035698e-03,1.122374176979064941e+00
3.736109554330181992e-01,-7.788962801251906320e-01,-7.770267204021211738e-01,1.364407896518017149e-03,1.393373485268582530e-03,-5.085111978021534650e-04,1.151578903198242188e+00
3.568413964077352118e-01,-8.537985030541606069e-01,-6.879818589323587474e-01,7.008538638136198318e-03,2.343294870385737028e-02,1.337376425794739414e-02,1.137862563133239746e+00
3.028427891889842738e-01,-7.744946017647552639e-01,-7.786683007439767490e-01,2.512375429952762307e-02,2.428351703062428622e-03,-4.418561636994539250e-03,1.080342411994934082e+00
2.955828335841578225e-01,-7.584234264457930808e-01,-7.744696661716561348e-01,9.904189628275376911e-03,-3.400847021879746957e-03,-1.373247218331273166e-03,1.062277793884277344e+00
3.749440943775899648e-01,-7.775181988023061042e-01,-7.791023693716780940e-01,3.242795294843244035e-04,2.418798029163560237e-03,-9.310617563573540898e-04,1.153264045715332031e+00
2.467939079944514447e-01,-6.838072792861340510e-01,-7.985688587543848804e-01,2.851407493487540142e-03,-3.090225912842169478e-02,2.429292580139907204e-02,9.953118562698364258e-01
1.328032681129809878e-01,-7.412130152112249570e-01,-7.846442863419917924e-01,2.107916805779198183e-03,-5.307695735492651279e-02,4.720023646654902122e-02,9.049302935600280762e-01
3.341537212693349579e-01,-7.231494184550923965e-01,-8.068460094109748404e-01,3.120808426970907851e-02,-6.121534062888450180e-03,-7.753524981303813735e-02,1.111061215400695801e+00
3.724091761214743945e-01,-7.748906621030171582e-01,-7.831646572468626832e-01,-2.255900110213899992e-03,-6.637183776781480776e-04,1.548090098342428831e-03,1.151469469070434570e+00
3.592830648580204178e-01,-7.325390334784023239e-01,-7.981363030278827431e-01,-1.708988726432509805e-02,-8.373341665553372254e-03,9.609687600766116111e-03,1.126659989356994629e+00
3.219867692920982960e-01,-7.758087447341344145e-01,-7.819368432040667560e-01,-7.022564701275114604e-03,-1.465380220878806199e-03,2.381096742165931656e-03,1.100950241088867188e+00
3.471068721054638706e-01,-7.560429534647501448e-01,-7.377061770998223356e-01,-6.467960911631438770e-03,-2.966750845739043454e-04,-2.201095623732603028e-03,1.094160795211791992e+00
3.745067367956133597e-01,-7.792086249675600484e-01,-7.778813876299990326e-01,-2.073532725732145712e-03,-1.821149342408584764e-03,-6.914303956067472702e-04,1.153062820434570312e+00
3.578195170830583693e-01,-7.385895288332195996e-01,-7.857674783092887250e-01,-1.519943570126745802e-02,-1.557265239203859883e-02,5.254439315986868253e-03,1.121413588523864746e+00
3.541778311095395981e-01,-7.523260610846306262e-01,-7.549519090683864952e-01,-4.682220451560487745e-03,5.235439358124214897e-03,-7.787786982747430843e-03,1.107968091964721680e+00
3.692764544343772326e-01,-7.640376811628392106e-01,-7.856755801418944252e-01,3.944885478999261667e-03,-1.384448202510092651e-02,-7.261823979880861063e-03,1.144627213478088379e+00
2.144233697301951014e-01,-7.485635098573018009e-01,-7.559751102702212400e-01,-9.282082997069922162e-04,1.836250274286350135e-03,5.753498566318963198e-03,9.667719006538391113e-01
7.129780168786714611e-02,-7.428865600633904887e-01,-7.571042436104613582e-01,1.164138638413588361e-01,4.127072486848702010e-02,1.805618211415362800e-03,8.487934470176696777e-01
2.665761936894577855e-01,-7.681035619653805435e-01,-7.684480806679345744e-01,1.085278438528806434e-03,1.791631182384932283e-02,7.803034153909721264e-03,1.035407185554504395e+00
7.438135119172106791e-02,-5.119166763781684004e-01,-7.326488677139200156e-01,-4.753553839887220134e-02,7.206576126583910669e-02,-2.714693201501565123e-01,8.748308420181274414e-01
-5.435211519345284348e-02,-8.562813474465390540e-01,-6.977055938115721556e-01,1.123726305108216500e-01,-1.748303102470015469e-02,-3.061926403664404911e-02,7.633365392684936523e-01
2.100857047648453380e-01,-7.976472130398055693e-01,-7.599690873967184235e-01,2.670613302424337115e-02,4.259227010521000889e-02,4.210911816432068300e-02,9.959303736686706543e-01
3.409694828921920329e-01,-7.813789387859861879e-01,-7.784145805694819842e-01,5.312788367642177698e-03,8.537980575365153660e-03,-2.958214070063281374e-03,1.121016263961791992e+00
3.407115314168991382e-01,-7.679668318256165360e-01,-7.869909437480206993e-01,-7.092918262246393143e-03,-4.155899974715012378e-04,2.542824792324120437e-04,1.118379592895507812e+00
3.109595775750625957e-01,-8.695601540237081206e-01,-7.277971815841723924e-01,-1.469478627328218989e-02,2.550322691658042304e-02,2.982036970034029205e-02,1.118765592575073242e+00
5.212815234313694646e-02,-8.556195661417698162e-01,-4.605905385303591948e-01,5.801283032189821776e-02,6.409095649053850666e-03,4.076247132421730729e-02,7.979170083999633789e-01
2.615826639421370281e-01,-8.746184808885595352e-01,-6.371286610133508610e-01,-2.548364093038822664e-02,-1.275044984426734111e-04,1.209993758030432492e-01,1.059900522232055664e+00
-5.932323090920904596e-02,-8.022691555565164556e-01,-6.954586807851850239e-01,-3.437314501836050140e-02,4.992686177401766540e-02,-1.005962627716598494e-02,7.038102746009826660e-01
4.075686428977542963e-03,-8.384000991670217395e-01,-5.023586811451343781e-01,-6.294014201491546223e-02,9.626734757762130459e-03,-2.985026814465066222e-02,7.445925474166870117e-01
3.127047161195657954e-01,-8.976116229706718741e-01,-7.752803112429180743e-01,-2.086594247476383432e-02,4.106483894133350875e-03,4.418773379695464278e-03,1.154636859893798828e+00
3.692071996327240258e-01,-7.710314642152411579e-01,-7.742167206472724272e-01,1.792305836237518960e-04,6.727399351487412318e-03,1.773004562233979975e-03,1.141898274421691895e+00
3.720236250941257317e-01,-7.761833009241776438e-01,-7.780285550879966205e-01,1.411906947272331637e-03,2.990969202716970820e-03,3.518542077110555725e-04,1.149145126342773438e+00
9.600071086655614927e-02,-7.313487614711267071e-01,-7.256404872089942115e-01,-6.641971842057982356e-03,-5.404091883910197569e-02,-8.713357683502735013e-03,8.300231099128723145e-01
2.209832311676102612e-01,-7.588645209800592983e-01,-7.600168341713777753e-01,1.033689883489048028e-02,-4.017214685565189541e-02,3.684862338018781488e-03,9.830741286277770996e-01
3.405818954277916588e-01,-7.843823565514340679e-01,-6.944101075423767533e-01,-2.282066541195300682e-02,-1.526545045930351868e-02,1.401282996982576232e-02,1.084100842475891113e+00
3.261298463863175900e-01,-7.876525856249829705e-01,-6.465588817809913014e-01,-1.549276668468460398e-02,2.715249047610589390e-03,1.390517599888756173e-02,1.050996303558349609e+00
2.550315334056310612e-01,-7.672085893567281989e-01,-7.543088063198369886e-01,-1.406276806050111780e-03,-6.263870418106684199e-03,3.817281786606108434e-03,1.015933990478515625e+00
1.560973261616840913e-01,-7.414666277108938885e-01,-7.477546448582040872e-01,2.065969928910050060e-02,-7.643721564352368159e-02,8.833857645086337293e-03,9.112337827682495117e-01
3.731050962776737978e-01,-7.794918278559372915e-01,-7.794166245709831520e-01,5.202509516928366558e-03,6.542651814703071521e-03,-1.732743883066766109e-03,1.152654170989990234e+00
3.477145072739971643e-01,-7.509664415395425063e-01,-7.421645294569687579e-01,-6.787479820010227597e-04,-9.774745483105765076e-04,-2.294667208151629414e-03,1.094315648078918457e+00
7.251859514461548306e-01,-3.074211592333278564e-01,-1.348996672477520864e+00,-1.166758418146134416e-02,1.796809249988715745e-02,1.735742172733444888e-01,1.821663022041320801e+00
3.588684191245374300e-01,-7.832378650997877667e-01,-7.333199241707470950e-01,-1.066652154765625020e-02,5.677355017163044672e-03,3.528911092060321199e-03,1.118196010589599609e+00
3.877092758621579205e-01,-7.160013504622290137e-01,-8.645260603789887144e-01,-3.078404577387804444e-02,-3.819738787467199387e-02,9.536413847201215960e-03,1.188132166862487793e+00
3.551203749069815063e-01,-6.364440527490689004e-01,-8.358907027126933897e-01,3.592412267462353342e-02,1.043401164757395798e-02,4.135441911124407982e-02,1.109086155891418457e+00
3.192607116343095242e-01,-3.803671741306269283e-01,-8.744710526075778478e-01,6.766124289785137302e-02,2.425918819997715040e-02,3.003411415415233598e-01,1.168512225151062012e+00
3.427702436307214495e-01,-5.198831004864608030e-01,-9.062905415959210398e-01,-1.696407968054935295e-02,-6.078296491173976884e-03,2.139357613840150996e-02,1.108676910400390625e+00
3.433517889809369339e-01,-5.551008200024596384e-01,-8.780704917825568057e-01,1.070702364244106169e-02,6.319421300994635012e-03,4.432536218865445327e-02,1.099116683006286621e+00
3.229925691579206837e-01,-1.848585156498343263e-01,-1.024189182197635883e+00,5.951051772736613149e-02,4.832956017838711642e-03,1.230070141884389151e-01,1.201969385147094727e+00
1.400137400189081505e-01,-7.391624762110816649e-01,-7.416133519067642510e-01,4.147408299137325671e-02,3.840702025846541579e-02,-3.044064713028628300e-03,8.858470320701599121e-01
3.123741809653193813e-01,-6.996398543919440938e-01,-7.236128764235312261e-01,5.537192621106562474e-04,4.453265598629578721e-03,2.012954329878703305e-02,1.024833679199218750e+00
2.774934196690133081e-01,-7.357134940317472394e-01,-8.005299132659862149e-01,3.556272839488407254e-03,3.360537190218174097e-02,-1.412286255191153896e-02,1.049040555953979492e+00
3.501092321547764064e-01,-5.358132238482482546e-01,-9.128624607480447795e-01,-2.556120016160126976e-02,9.198092172662018090e-03,9.339568136226194736e-03,1.124071478843688965e+00
2.485849301101593634e-01,-3.835336792161220809e-01,-9.819946303901020412e-01,3.969332613496714263e-02,-3.666377130787421695e-02,-1.015182231912001853e-01,1.084299325942993164e+00
4.392858640797985270e-01,-3.857076816548853371e-01,-1.099402470786639441e+00,1.019592446661037564e-02,5.094980176157995998e-03,1.104223739620331830e-02,1.333987951278686523e+00
4.067698774229730474e-01,-3.990957038947093305e-01,-1.369645294256796486e+00,-4.109011274602662744e-02,5.067834666254034809e-02,-1.866046915533342565e-01,1.578211784362792969e+00
3.648992481259027421e-01,-7.786738391513017277e-01,-7.819192937425687440e-01,-7.607707638797258157e-03,-7.716933334570168918e-03,-2.550079602038679127e-03,1.145361542701721191e+00
3.610919696930683376e-01,-7.647980218990766410e-01,-7.906327562350737859e-01,-8.018370929440087752e-03,-6.834158201099943021e-03,2.230387506199527949e-03,1.139179825782775879e+00
2.543949769576163700e-01,-7.649537994166060173e-01,-7.771484458208125501e-01,1.214480131713501637e-02,7.256355131708433145e-03,-3.460752609119762107e-03,1.025810718536376953e+00
3.521485372082164278e-01,-2.617539182953371180e-01,-1.020864932624169441e+00,-5.736547422865782841e-02,1.458346023174870998e-02,-1.715398707596776373e-01,1.232044696807861328e+00
3.169102503589373843e-01,-4.103109734347591409e-01,-9.252052817831093456e-01,2.210964173973131719e-02,4.440080549645534710e-03,-2.273840489956111335e-02,1.082351922988891602e+00
2.099960792719793301e-01,-7.883257139016131010e-01,-8.179976084204381159e-01,2.900310108105119689e-02,-6.446874404411195511e-03,8.927650022421575182e-02,1.026502847671508789e+00
3.727811330073302898e-01,-4.538807073334990561e-01,-9.705257899826461587e-01,9.770590680227475913e-03,-4.176984811381027375e-03,-1.225795836239875203e-01,1.192811250686645508e+00
4.321783679166940062e-01,-5.530876212870614594e-01,-9.792630067842158503e-01,-1.481532261694539290e-02,8.512671381640741011e-03,-1.399069012607104256e-01,1.277446031570434570e+00
2.460743384618269691e-01,-7.612103242276082593e-01,-7.591301247936743657e-01,7.591274456654605041e-03,-6.533805135933802577e-03,7.521660272778219608e-03,1.006479978561401367e+00
3.246757747778574732e-01,-5.571571542340245653e-01,-8.764766792614893109e-01,-1.280267197348050091e-02,2.709307707770716722e-02,-3.371691685070091898e-02,1.080409646034240723e+00
4.747680587207888103e-01,-7.332072231409436647e-01,-7.029764459036889068e-01,2.292816685913920405e-02,-4.132833150588149235e-02,5.461490196204175085e-01,1.524840235710144043e+00
6.113532571494968426e-01,-1.104823805542100912e+00,-6.995157310932921257e-01,4.269274388488077110e-02,4.048384709278617100e-03,4.421460311372252816e-01,1.733768820762634277e+00
4.411194872844039216e-01,-1.110255301730941335e+00,-3.561874831261971353e-01,3.390090590976484880e-02,-7.379318938649637172e-02,6.271756553621327113e-02,1.355405807495117188e+00
3.631116224155980787e-01,-7.609781452148878245e-01,-7.901719815332830521e-01,-5.634993218377144092e-03,3.861910804784834342e-03,1.543837286485025750e-03,1.139031887054443359e+00
5.102354114263707441e-01,-1.146709827152661010e+00,-5.908981235585505365e-01,-1.066195546484817631e-02,-3.945553089182827350e-02,3.046348995106940016e-01,1.554626345634460449e+00
3.715701255537945391e-01,-7.717580880928123221e-01,-7.829526896964971172e-01,3.198606869982565694e-03,4.237384808937851022e-03,-4.886392003812830946e-04,1.149003505706787109e+00
3.601798594842515189e-01,-7.899842840969880653e-01,-7.768867996841478663e-01,4.145622454517882815e-04,2.261492371141808188e-03,-1.489601192038909200e-03,1.143681526184082031e+00
3.673823097826468542e-01,-7.878902041252732191e-01,-7.741232674409606052e-01,4.938249715771828550e-03,-5.063266395777935892e-03,-1.092971088420255149e-03,1.148517847061157227e+00
3.663326382358111366e-01,-6.953404589006009218e-01,-8.412968615660407767e-01,1.346628940644460475e-02,-9.700432647789917345e-03,4.649579563195702786e-03,1.142060518264770508e+00
3.350216659257386209e-01,-6.293265437166977172e-01,-8.304239699189636115e-01,1.302625889525928400e-02,1.497693346194195734e-03,4.533753526577161824e-02,1.082135796546936035e+00
3.822630660425964111e-01,-6.845786520335506165e-01,-8.620470361896780398e-01,1.721680195669477104e-03,7.468396988484408451e-03,-1.407467984453571359e-02,1.166082143783569336e+00
3.599585230779656642e-01,-7.713387496474621852e-01,-7.894776934610052699e-01,2.816673591057830290e-03,6.418604594775699891e-04,-2.358598083897906362e-03,1.140493273735046387e+00
3.240693502501573731e-01,-5.544693458243774575e-01,-8.498565502171501196e-01,1.559767031282943868e-02,7.862602762622593333e-03,5.200867714125041036e-02,1.061895966529846191e+00
2.070243276063580828e-01,-7.497870677525058092e-01,-7.502841808278855051e-01,-9.745013168922740665e-03,-6.049845910413418140e-03,-5.651416288284246553e-03,9.573162794113159180e-01
2.995693359833422331e-01,-7.685939701924945355e-01,-7.762961477287080303e-01,2.190706814280935291e-02,1.576282747188308001e-03,6.251875853249731991e-04,1.072710514068603516e+00
3.529083221756095234e-01,-8.018437242554631306e-01,-7.272599609175363078e-01,-2.813107058090216078e-02,5.165823424508669132e-02,-2.907032095769532601e-02,1.125079751014709473e+00
3.594312744083697497e-01,-7.137119083926801721e-01,-8.174718260326868657e-01,-1.217248037039161263e-02,-3.745035470204792060e-03,8.401436612342510005e-03,1.128915429115295410e+00
1.268747242351166982e-01,-7.237541106027323146e-01,-8.167824649702046802e-01,-1.518581178879843951e-01,6.391099849930249877e-02,-1.533693790272338819e-01,9.815086722373962402e-01
2.607321079714443601e-01,-7.616833131214444386e-01,-7.621268197121671140e-01,-9.473522133474574988e-03,4.412581655569361438e-03,3.341614649371679822e-03,1.022813796997070312e+00
3.095986001021140965e-01,-7.685304786042256309e-01,-7.728182662578066964e-01,3.474170548807258008e-02,4.673847948931496819e-03,3.652016193525146545e-03,1.082002758979797363e+00
9.826965825379369024e-02,-7.307339591324898409e-01,-7.283137887462090010e-01,3.441977389554358446e-02,1.636971792870230147e-02,-3.833445108511663083e-04,8.304246068000793457e-01
3.560951533631750432e-01,-7.561289041479284379e-01,-7.955821519320778190e-01,-3.286607187850951791e-03,-4.281915499261115809e-03,2.781615016956366735e-03,1.132515072822570801e+00
3.080794568838074454e-01,-7.738565611452441484e-01,-7.727636203583532204e-01,-9.517094229966310132e-03,-6.389684351260071019e-03,-5.788634320279304780e-03,1.081618666648864746e+00
3.175534648784572034e-01,-7.688088619954243086e-01,-7.757938410844066324e-01,9.381915761167352458e-03,-5.112429925766552759e-03,-2.863634456283898136e-03,1.090039968490600586e+00
4.313636853881697153e-02,-7.718286558615978787e-01,-1.153535416180504036e+00,-1.476767702086684841e-01,-4.673725885919776876e-03,-5.010385775577544387e-02,1.092688322067260742e+00
1.761258312231303025e-01,-8.907335234896118781e-01,-1.184261817063813949e+00,-7.628615110770362029e-02,2.788799752966407419e-02,-1.009568186060280232e-01,1.260107159614562988e+00
3.596848246612767697e-01,-7.313758126780066648e-01,-8.010754899878631541e-01,-1.507992316847409781e-02,1.599988020493311319e-02,-4.167761564435247534e-03,1.128193378448486328e+00
1.250408184206974749e-01,-7.280129713295608873e-01,-7.356579857682650214e-01,-1.524732146488079693e-03,-3.077114123259594089e-02,1.883118017102255299e-04,8.585618734359741211e-01
2.051583205635451601e-01,-7.592377739201117137e-01,-7.465106264363112754e-01,4.407957337463480618e-02,-3.999059721754560779e-05,8.826739697528380871e-05,9.611331224441528320e-01
7.081345451982912209e-03,-7.785428668811873454e-01,-1.217109736640701101e+00,-3.684994268102911863e-02,4.434052916170358460e-02,9.208398673864873207e-02,1.090644478797912598e+00
6.901193854133056416e-01,-5.942472495979379543e-01,-1.061648578211798366e+00,5.518459907898902450e-02,2.220963437042814889e-02,4.329574099564009737e-01,1.743946194648742676e+00
3.638264457282173736e-01,-7.771536288421747596e-01,-7.851135683457250991e-01,2.260774789133541615e-03,-8.654382686574797843e-04,-8.959155525387795449e-04,1.144989490509033203e+00
3.648036602094547609e-01,-7.148314448203105798e-01,-8.176960166664475338e-01,-9.634599905225124661e-03,1.278440661148376456e-02,7.181963129370233685e-03,1.134976983070373535e+00
5.176540347767840666e-01,-6.485792620381418683e-01,-1.023645878117768415e+00,3.213959931171723322e-02,2.073036682378837092e-02,3.629011121850662658e-01,1.528944134712219238e+00
3.666765416031420588e-01,-7.674482335031732605e-01,-7.749258849088496159e-01,8.518864377608998881e-03,6.642725499460855852e-03,3.595953947335821591e-03,1.138052940368652344e+00
3.681752528926636181e-01,-7.774367066802185811e-01,-7.686631017663130283e-01,5.556528593601474213e-03,5.081900737763303012e-03,2.531979815484592354e-03,1.141333341598510742e+00
3.680126850956528806e-01,-7.679825435525069466e-01,-7.780614897839097654e-01,-6.762392647867434495e-04,1.062406335498204853e-02,-1.438771335713812148e-03,1.141219735145568848e+00
1.980705767657763294e-01,-7.541066558040036005e-01,-7.418818715900892258e-01,8.429311643193002426e-03,-2.590701561971995789e-03,2.717741733842360223e-03,9.462590813636779785e-01
3.546170387820181680e-01,-7.817409042334074742e-01,-7.791707411449674270e-01,-1.671378143050474734e-03,4.328624880312415511e-03,-3.077573080497733593e-03,1.135115981101989746e+00
-1.450921708178689595e-01,-7.919932868113206403e-01,-8.563807239870344645e-01,2.828338926867868947e-02,-1.280392703604608662e-01,-2.408204383831001605e-02,7.194448709487915039e-01
2.476554614363581930e-01,-1.202720888615192774e+00,-7.426780269419130942e-01,-2.474623004961895925e-02,4.261527506444093283e-02,9.243637526064785170e-02,1.296500802040100098e+00
1.040047039897279424e-01,-7.779318854799723848e-01,-7.627358950706397689e-01,-5.573598563931859290e-02,-6.717227715053819548e-02,6.389643865956608042e-03,8.874793052673339844e-01
2.126981032950618355e-01,-7.526301133805914922e-01,-7.578921401491720555e-01,1.031212887250187137e-02,-2.666118634555547651e-02,-7.561109035828411304e-03,9.693238735198974609e-01
3.610052555384143935e-01,-7.634987962803175821e-01,-7.600063245630133135e-01,-7.287702371778000815e-03,6.337191899022641753e-03,-2.043607717498731238e-03,1.122892022132873535e+00
3.673935137051647093e-01,-7.775382521870516372e-01,-7.667372164053944950e-01,-9.367520560326157708e-03,3.232441863540506640e-04,2.310575418646482540e-03,1.139692306518554688e+00
3.287944637229395228e-01,-7.681576650700778774e-01,-7.823768532580899215e-01,-4.118030039029155730e-03,-8.627802637183551102e-03,-3.338848489548868186e-03,1.104269742965698242e+00
-8.613659193449807461e-03,-4.821171082978532030e-01,-9.092724081327903107e-01,1.289727830438004152e-01,1.480240553468692988e-01,1.276348766183631189e-01,8.794509172439575195e-01
3.388861270446009155e-01,-7.119696654787124324e-01,-8.201335935408250455e-01,2.785579144399807916e-02,6.316814548359169293e-03,3.847079779415218947e-02,1.112002491950988770e+00
1.852403740859426273e-01,-6.655917171737950611e-01,-7.990334825940228480e-01,-7.394434399013047332e-02,-6.189408421061892577e-04,1.647171994809029996e-02,9.340646862983703613e-01
3.654404042475712933e-01,-7.719146364558540085e-01,-7.750213137333312741e-01,5.185854956283101475e-03,4.365436812256769106e-03,1.407036195321580835e-02,1.139232754707336426e+00
3.474077671349682372e-01,-7.250325915338108329e-01,-7.901536821294523616e-01,1.352052400551814748e-02,1.159561572177590302e-02,3.259490923429033630e-03,1.106883525848388672e+00
3.440963865096789420e-01,-7.293871432871059657e-01,-7.540078439721601411e-01,-2.045526804711193802e-02,-2.077911477711637603e-02,3.576439215249662545e-02,1.088940262794494629e+00
3.579104221252175644e-01,-7.922770818488142908e-01,-7.485171662080085664e-01,-8.055212148018900051e-03,-7.300707750079269559e-03,1.435664043526361892e-02,1.129374623298645020e+00
3.162527654697336321e-01,-7.937574816267986000e-01,-6.170118352620944657e-01,-5.892072989623639914e-03,-1.051684163894753103e-02,8.822173644578720775e-02,1.044489145278930664e+00
7.545238640423967968e-01,-9.772692676882038798e-01,-6.162391111115530506e-01,-6.958815455568334585e-02,-5.340662470282128010e-02,5.722140642278277234e-01,1.873390436172485352e+00
3.936860520565695909e-01,-6.191712290919815231e-01,-8.654170485086527531e-01,8.515634266638044333e-03,1.303418544915852656e-02,2.084327795622213098e-01,1.211193084716796875e+00
3.473033946032365038e-01,-6.421954869262824772e-01,-8.321775751342883609e-01,7.327061005270525500e-03,-1.186312242554604310e-02,1.304329157638133355e-02,1.097397804260253906e+00
3.107297452613458355e-01,-5.613915763343819698e-01,-8.371245058251287618e-01,5.028594023683237435e-02,1.068448934870853614e-02,1.141194642344909617e-02,1.041833043098449707e+00
3.561802603110588716e-01,-7.595082499174861113e-01,-7.945025900541239361e-01,-1.927416191257377842e-02,-2.821247079455616383e-03,6.595694603338167657e-03,1.134150385856628418e+00
3.358329505573216522e-01,-7.144279270437496887e-01,-7.608193815489696643e-01,1.048870786779858202e-03,-4.099229168963514428e-03,9.979066072146321881e-03,1.074372172355651855e+00
3.188382211878421080e-01,-7.011699840734938460e-01,-7.051299519143945371e-01,4.866519805360374623e-02,-4.493410597979762694e-02,-1.452789972552609998e-01,1.058750033378601074e+00
3.656709891176687655e-01,-7.700895847971580555e-01,-7.684432495060611323e-01,8.570187414483071073e-03,1.378231673297340785e-03,-2.141106210503551481e-03,1.135043978691101074e+00
3.424842410509756352e-01,-7.271388740471704804e-01,-7.828308476423269102e-01,2.302733738102418284e-02,-1.079252306489614580e-02,-1.538510599951514388e-02,1.099734067916870117e+00
3.704730513973236716e-01,-7.557485179377937401e-01,-7.799087419423150758e-01,2.179364131804359568e-03,-4.044193362328085684e-03,-1.088950736076615446e-02,1.138677954673767090e+00
3.518830919109631195e-01,-7.573340169666488153e-01,-7.469328950256196586e-01,1.566893294684118879e-02,9.206854817264322616e-04,-6.765510503941637305e-03,1.104450106620788574e+00
3.900792640326678495e-01,-8.550548347676720784e-01,-7.713999079352976684e-01,1.368750404384693441e-02,-2.916352618006693657e-03,-9.142038040419993294e-02,1.216082215309143066e+00
3.798740474232605857e-01,-9.546905380681286468e-01,-5.526713274741226201e-01,1.088619195711785538e-02,-3.224739121133677472e-02,-7.925115536671431191e-03,1.187360525131225586e+00
3.419982734911071187e-01,-7.859497154992355350e-01,-7.734970342317553094e-01,6.378196303828617686e-04,1.084516794405379451e-02,-1.409692315809950606e-03,1.121933937072753906e+00
3.876352224646767985e-01,-4.773360656101063304e-01,-9.657275543290331221e-01,6.519247972138211833e-02,6.945356691922407143e-04,-4.151081520937342784e-02,1.194599151611328125e+00
3.522981128780932059e-01,-7.628381399819926800e-01,-7.899170476089828474e-01,3.988839014664849296e-03,-1.834294557316391210e-04,1.883359517619831143e-04,1.128940582275390625e+00
3.430821396722859573e-01,-7.564169170247352358e-01,-7.869189111717957985e-01,1.546269933425362120e-02,1.324022881252892581e-02,4.037686351633802337e-03,1.115642189979553223e+00
9.065677005026873125e-02,-7.815191966108265831e-01,-8.217077492026136909e-01,-1.099592240118026643e-01,3.923918012646607223e-02,1.132059727429310242e-01,9.363207221031188965e-01
3.062706661878203951e-01,-6.830971789490575263e-01,-6.353304842084915860e-01,-6.565177051668811756e-03,-1.761104587194971564e-03,-1.941766215709993249e-01,1.023290753364562988e+00
3.325943263505131142e-01,-7.760101429391488281e-01,-7.788156356938453762e-01,8.039934789343759075e-03,3.879936738611555118e-04,-2.198413753389110402e-03,1.110103964805603027e+00
3.575371672797876266e-01,-7.171034144476986505e-01,-8.260109838918177072e-01,1.265152440943937556e-02,-2.048825264193178831e-03,-8.031442263475312496e-03,1.133329629898071289e+00
3.776320659724408668e-01,-7.381425147090164840e-01,-6.955711715864919542e-01,-4.184036549769568764e-02,-2.418205259450692361e-03,2.317222354353786207e-01,1.168597579002380371e+00
3.276700941575177994e-01,-7.454533504012014200e-01,-7.070768315745161736e-01,1.587367456196236981e-02,7.969535703595648571e-03,1.260732661910307292e-02,1.055133700370788574e+00
3.509579518956086885e-01,-6.131642473536831339e-01,-8.675692762649800382e-01,-1.060571211872027818e-02,7.612822391139652343e-04,4.216955995691919201e-03,1.113518595695495605e+00
3.506692591007162241e-01,-7.670676536899079245e-01,-7.309890927131783567e-01,1.019206292771368885e-02,-4.830975570249745367e-03,4.753394549897819316e-03,1.100345611572265625e+00
3.578293349682914459e-01,-7.851723586298843260e-01,-7.391651328824762057e-01,1.227680796352303115e-02,9.446873633268111289e-03,5.372004944223525424e-03,1.121066331863403320e+00
1.906530160981249056e-01,-7.809206259477561307e-01,-7.459071634864500311e-01,-6.607415400539848327e-02,-1.154874414651973352e-02,5.735051460678465985e-04,9.615932703018188477e-01
3.621415882072936965e-01,-8.034920298309272679e-01,-7.290300461622060135e-01,1.074956033381835319e-02,1.444566778056051611e-02,4.928449839473198965e-03,1.130706191062927246e+00
3.206718967754432215e-01,-8.476434797471432692e-01,-5.630066269255497025e-01,1.490264104910804521e-02,1.671393219269613067e-02,3.514727820570034966e-02,1.057659506797790527e+00
7.260503642902177424e-01,-8.904634258403177904e-01,-8.222619145194085544e-01,1.558104978088935624e-02,2.627121471603270642e-02,5.712509675802900366e-01,1.867967247962951660e+00
3.518876336455985521e-01,-7.777438305353910897e-01,-7.817380376827460786e-01,-2.149712341129053628e-03,-4.355408775665320018e-03,3.289335130781956881e-03,1.131679415702819824e+00
9.336984584306290413e-02,-7.115076039960277487e-01,-7.373372305500025536e-01,-2.643308353906587138e-02,-1.060999311963550622e-02,4.778529228050530826e-03,8.196260929107666016e-01
3.096352121801068114e-01,-5.363758024733124019e-01,-8.434802970753367823e-01,1.471570778786134709e-02,-3.199464124841296109e-03,-9.400475344818762236e-02,1.047402858734130859e+00
4.111883288355399069e-01,-4.934580149071006172e-01,-1.004919345112547546e+00,9.808238999734403274e-02,-4.720444698473129364e-02,-1.672711142782841998e-01,1.289245247840881348e+00
3.360848081973453749e-01,-7.577604046390462589e-01,-7.181288211068922456e-01,6.270739488546432476e-03,4.610631749920781740e-04,-6.196149038130338918e-03,1.074686408042907715e+00
3.340343818768803930e-01,-7.451469974855967626e-01,-7.195119367789466480e-01,1.509015954704350827e-02,-1.681204106820117367e-04,-9.640712266852027520e-03,1.067045807838439941e+00
3.294233949771633863e-01,-7.761979984577934699e-01,-7.820596672648649772e-01,3.204247392306313648e-03,-8.590490797558226815e-04,-1.218354442424245294e-03,1.108580708503723145e+00
3.587269259662225207e-01,-8.190711188086486905e-01,-6.936007790702419795e-01,8.564067734680172461e-03,1.176444418712881135e-02,-4.806043957931121005e-03,1.120659112930297852e+00
3.541908800140664004e-01,-7.729772189989280173e-01,-7.826567462683289289e-01,-2.505744962834457849e-03,2.814927230374098758e-03,1.602360016793576885e-03,1.132061123847961426e+00
3.663141088797192690e-01,-7.733388632447648625e-01,-7.905605069968886234e-01,-2.144316469112272309e-03,-1.217596117679203881e-03,-2.638462892959224306e-04,1.148368716239929199e+00
3.482698695363535824e-01,-7.552217810708186096e-01,-7.429190213813610111e-01,1.056022024564304100e-02,-4.083215294019295304e-03,-2.609813231296035513e-02,1.098497629165649414e+00
3.107188589103442866e-01,-7.174768221996317141e-01,-7.014906746049875963e-01,1.183153316614955980e-03,-6.141594162145166003e-04,-1.610528703178904647e-02,1.020680427551269531e+00
2.465871769189418861e-01,-8.282582633219432999e-01,-8.349362540651062981e-01,1.337009796822945795e-01,-1.627343226576041801e-02,-4.259474316611920330e-01,1.327113866806030273e+00
3.179003056561703344e-01,-7.172685467406108017e-01,-7.095503595126224639e-01,6.504584135951789643e-03,-4.942755292089168889e-03,-3.658555404618564488e-02,1.033373236656188965e+00
3.361001757072714646e-01,-7.823603280009392424e-01,-6.837912442618709896e-01,1.491993331659112465e-02,2.385137086131217457e-03,-1.249877763154612353e-02,1.073115825653076172e+00
3.337432664380446945e-01,-7.812375903250854403e-01,-7.767292456852316063e-01,5.573554738156122693e-03,-8.096197269717400613e-03,1.187748980181810906e-03,1.112865686416625977e+00
-6.846597852440861054e-02,-6.421271872913354439e-01,-7.608368158423390870e-01,2.380583561670164897e-02,3.531173661550594117e-02,1.530670407333637080e-02,6.460821032524108887e-01
2.240762046231337123e-01,-1.258173350983747163e+00,-6.355095955996675761e-01,-3.696948453113300254e-02,-1.428173757939689703e-01,6.243090206140740339e-02,1.318641066551208496e+00
2.773814196499748697e-01,-7.633939295755637344e-01,-7.700606538349492602e-01,5.273058921798186999e-03,-7.812458971936117949e-03,2.213449544335613188e-03,1.044259309768676758e+00
1.726167999187643298e-01,-7.672731308519760152e-01,-6.993191672847068885e-01,1.465055112641029146e-02,9.198179507448628334e-02,1.559355711510230884e-02,9.224407672882080078e-01
1.729785906492559144e-01,-1.013027027975362371e+00,-1.065825659619727084e+00,-1.534425489867953518e-01,-6.596118335953579832e-03,4.606544476181264475e-02,1.244647264480590820e+00
1.635803209971511407e-01,-9.917461594128458291e-01,-1.084261282065587029e+00,9.038019402240253519e-02,-6.851716364453902530e-02,-6.172897113679335496e-02,1.224844694137573242e+00
6.239933679526932231e-02,-7.130142664817304965e-01,-7.166258296737604283e-01,2.203444720795822917e-03,-7.824678292344778435e-03,4.249648321202148180e-03,7.773880362510681152e-01
4.306018127809745910e-01,-9.313564342636484472e-01,-6.431764634245595857e-01,4.184244318856499001e-02,-8.210867712772157434e-02,-1.900011481614999886e-01,1.295865774154663086e+00
3.599869268736057282e-01,-8.268265791560196476e-01,-6.976159123997400791e-01,-1.151686233790860658e-02,-1.235710194560931882e-02,-4.112612227155389849e-03,1.128175258636474609e+00
3.532877546776972966e-01,-7.163654022118443043e-01,-7.878650024378541783e-01,4.878428161081764872e-03,-1.190829642427234519e-02,7.129860437527005095e-03,1.107429027557373047e+00
3.247106387719493337e-01,-7.562607351367522934e-01,-6.774897359895041271e-01,-6.138543365875880585e-03,-7.157206495649361122e-03,2.629289060903668845e-02,1.044937968254089355e+00
3.555858856190685091e-01,-7.616156693342661654e-01,-7.521417198294284567e-01,-9.198682995888197989e-03,3.487536677534549471e-04,5.731550231159926239e-04,1.112609505653381348e+00
3.690877673826089000e-01,-9.855564637765958924e-01,-3.107531156983397436e-01,-7.255121139787028273e-02,-7.513618500380618570e-02,2.699167644556884627e-01,1.275772213935852051e+00
3.672804744390439358e-01,-7.721241792086039890e-01,-7.700578036887733013e-01,-5.635850972236533876e-03,-8.280846564848037827e-03,6.628659490657967668e-04,1.138505697250366211e+00
3.609624450090763714e-01,-7.547678625755489534e-01,-7.694794510354223682e-01,8.569046988880378492e-04,-3.802448073150377621e-03,2.157668290642212727e-03,1.123184919357299805e+00
3.582174316190344099e-01,-7.545113522877471279e-01,-7.633726605027844059e-01,-1.032729467588871727e-02,-5.980284679530102968e-03,8.454989941127163608e-03,1.117473006248474121e+00
3.484718851323552191e-01,-7.519144418819158071e-01,-7.432512145469487574e-01,4.339403677901583099e-04,1.133234857503891352e-03,-5.048616061949920582e-03,1.096117258071899414e+00
3.727880640595690465e-01,-7.818085911397207877e-01,-7.801845442370607397e-01,-3.687524463389622430e-03,-3.180626295438995516e-03,-1.154656738162590946e-03,1.153818011283874512e+00
3.262359461422053575e-01,-8.727049717921164795e-01,-5.038048783535238329e-01,4.349329250809551815e-03,-1.049273963114400951e-02,8.454264569951987218e-02,1.073818683624267578e+00
3.310849964073021012e-01,-8.351637614928659747e-01,-5.925851418646513880e-01,-2.375350291473255632e-02,-3.240558850429303694e-02,1.743057053096556605e-02,1.068563580513000488e+00
7.857067537941175850e-01,-7.371167853085592858e-01,-9.480602006723157782e-01,6.654339653811226774e-02,-5.848039102959129432e-02,-5.475690462265263569e-01,1.899409890174865723e+00
3.188537326775437442e-01,-7.865863528992713682e-01,-6.394662293505133377e-01,-7.029327208994012345e-03,-3.910039963542806876e-03,-1.761759160774814537e-02,1.040257096290588379e+00
3.171584335622960604e-01,-8.253660655049931405e-01,-5.792692937087116078e-01,-1.451074684822772042e-02,-1.680558096051891492e-02,4.704862139287409317e-02,1.045406103134155273e+00
3.349146611231254012e-01,-5.803411010389671887e-01,-8.581962258115346520e-01,-1.828105749396884486e-02,6.408881398787114395e-03,-4.389887954741521214e-02,1.084487080574035645e+00
3.421970038223724475e-01,-6.873671661066749206e-01,-7.867481980970205679e-01,3.517223265363323640e-03,1.524235556068188543e-02,-9.875602857687199726e-03,1.083155035972595215e+00
3.297859525083862153e-01,-7.134100827451071991e-01,-7.442000860995070521e-01,1.807861734134035697e-03,8.990367351519753386e-03,-6.024274689176271208e-03,1.059097290039062500e+00
3.353515929054544098e-01,-7.313837269951679598e-01,-7.352850494551520510e-01,-4.685133323017619776e-03,5.268873564879913117e-03,-1.235365489057695457e-02,1.068975210189819336e+00
3.292681044530542112e-01,-7.685981641417602983e-01,-6.698378498372111745e-01,-1.715208000193169449e-02,1.845266018097259722e-02,-2.471472923726223542e-02,1.053743243217468262e+00
3.563674264508512324e-01,-7.420237837746499476e-01,-7.782575317553950267e-01,8.335716869751671684e-03,1.154484376875272028e-02,5.129531286979592541e-03,1.117256522178649902e+00
3.622474211331218052e-01,-7.497528484070123955e-01,-7.888117558044542843e-01,1.091445038614773620e-03,3.966543227011089939e-03,-3.987591006456626432e-03,1.132078647613525391e+00
3.581870232494415163e-01,-7.358551849159751246e-01,-7.934278693630816282e-01,1.489228317666690775e-02,1.552086389933504500e-02,1.391813449076334530e-02,1.124810695648193359e+00
4.060563652417215064e-01,-7.352981557896867137e-01,-8.317504207797589144e-01,-4.199135856356168289e-02,-1.659635276795156517e-02,1.590699958792277380e-01,1.226419687271118164e+00
8.039959985445890300e-01,-2.972520863288077853e-01,-1.411175186928181002e+00,3.033226901996943087e-02,4.148251387460393652e-02,-1.123513993481306816e-01,1.930302739143371582e+00
6.979136281705583533e-01,-3.280449964167393984e-01,-1.342842941873276352e+00,5.089834002347128766e-02,5.883546112871544491e-03,1.699801782152323970e-01,1.793906927108764648e+00
3.566306206962314151e-01,-6.037655064513594017e-01,-8.704485551208727134e-01,2.118064616151973945e-02,-5.493264430226655823e-03,-6.549340696704274850e-03,1.118555784225463867e+00
3.371063359409773863e-01,-6.426627949445895549e-01,-8.253866443107948925e-01,3.298557345754420805e-02,6.074562841146794942e-03,8.662980789528054726e-03,1.084418177604675293e+00
3.239249904060897967e-01,-5.295603073698889052e-01,-8.729388327233911227e-01,3.967167042575674152e-02,-2.507599142263663202e-03,-4.037960524242942620e-03,1.069674611091613770e+00
3.781261787994653623e-01,-7.575243595735253743e-01,-8.149379456106835562e-01,4.225495303291559521e-03,3.501778178407893589e-03,-5.074312552884021645e-03,1.165490388870239258e+00
3.438142625338996838e-01,-5.372916790543333931e-01,-9.006696453257653223e-01,-5.295449241714955679e-02,-1.596546965392895518e-03,-2.666282103996386182e-02,1.113157033920288086e+00
3.273153502629813083e-01,-6.542111822535647825e-01,-7.858557347145643801e-01,-1.877990529806352824e-02,2.337586356673243201e-02,-1.563346330658822378e-02,1.055162429809570312e+00
3.214862944101518072e-01,-6.375319238432632929e-01,-7.841793382428761117e-01,-4.492323140924268238e-03,8.522556950438660642e-03,-1.962559733431058773e-02,1.040813565254211426e+00
3.339981169079436207e-01,-6.980764008411557420e-01,-7.616132910723636407e-01,-1.464686613609358836e-03,6.037501677248863566e-03,-5.267596991240089399e-02,1.069219112396240234e+00
3.209207394482220810e-01,-7.236188046046327926e-01,-7.156247250929597126e-01,-3.957881864608152334e-03,9.952844908626575643e-03,-3.236672134068992179e-02,1.042239665985107422e+00
3.472291186896796500e-01,-7.553986279584314900e-01,-7.841211073927110142e-01,-4.388007239071245631e-03,1.010717462659000559e-02,-2.527982999035775780e-03,1.117437481880187988e+00
3.195299941523127019e-01,-7.262898672035904557e-01,-7.146255373345997697e-01,-4.512810400355177741e-03,6.108713213157278798e-06,-3.330440213868340622e-03,1.040082097053527832e+00
3.121228364975036640e-01,-7.032421978368692539e-01,-7.182592018082136764e-01,7.313772345051024713e-04,-1.098988505839463458e-04,-1.248439843171502729e-02,1.023185491561889648e+00
3.154518520525211311e-01,-7.141296788505897553e-01,-7.191797936805586211e-01,6.715905296203656966e-05,4.550279395784565884e-04,-2.089542088123676981e-03,1.032122492790222168e+00
2.622331116455886568e-01,-7.411944731598300029e-01,-8.004599209418848949e-01,-2.408512149887294743e-02,7.471581092946795802e-03,-3.248175758305762214e-03,1.035271644592285156e+00
3.551214831948873440e-01,-6.754845085099880908e-01,-8.173056445244633039e-01,2.729178334833251909e-02,1.884348604133852245e-02,6.992144043924802647e-03,1.109896421432495117e+00
2.723304297218854253e-01,-3.390157701144258517e-01,-1.231230154239337349e+00,-4.012398367124107856e-02,-9.107541814960689892e-04,-1.548759018572495871e-01,1.338668942451477051e+00
3.338739563475678351e-01,-5.491832121170485692e-01,-8.781147156608666293e-01,2.976422929906366935e-02,4.253839366671580829e-03,3.529084391843618682e-04,1.086813569068908691e+00
3.627999025667974498e-01,-6.625828768998942575e-01,-8.245795829378219644e-01,4.405890713298339645e-03,-1.257968119267102204e-02,-1.646991433393888565e-02,1.115844130516052246e+00
3.595551046956912411e-01,-1.401703535485080421e-01,-1.088195639597584030e+00,1.730246839547992105e-02,-2.483907318539423439e-02,3.499919629003094002e-02,1.276187181472778320e+00
3.566513515244000843e-01,-7.480793376503532821e-01,-7.841143835050288224e-01,2.018609125189541748e-02,-1.132314076129994733e-02,-2.019755621777793997e-02,1.124441385269165039e+00
3.578202854520780019e-01,-7.356433050181880873e-01,-7.871453622954678320e-01,9.873415207837656776e-03,-1.439574987421851290e-02,-5.098840100646873964e-03,1.120545744895935059e+00
3.670266661817219167e-01,-7.081786505429663592e-01,-8.191049139080783803e-01,-1.436847074056485027e-02,-9.654820153648572753e-03,-8.613595566070521986e-03,1.135236144065856934e+00
2.158283260330610687e-01,-7.603114047183603397e-01,-7.522902670882669618e-01,-4.845008506957635547e-02,-1.156245696138157725e-02,9.033791436747810877e-03,9.761001467704772949e-01
3.547998180042665761e-01,-7.389647211897132362e-01,-7.835403523316956109e-01,1.421058619940982447e-02,-1.562719734568097235e-02,-4.737914797213174135e-03,1.117349028587341309e+00
3.582129511049542137e-01,-7.532857124922665015e-01,-7.696403111910785633e-01,7.271617637214112390e-03,-1.146629954906240069e-02,-2.942442333270849260e-03,1.120024085044860840e+00
2.255152581590220140e-01,-7.580761778715553456e-01,-7.537686626994010153e-01,4.781120810682459345e-03,7.885854114494562569e-03,-5.532782555955755369e-03,9.816215038299560547e-01
2.479096294090317176e-01,-5.201809520491805783e-01,-9.647905507875631503e-01,2.482931358151358250e-02,-1.117642639061333931e-01,-1.166339258610575719e-01,1.099670410156250000e+00
2.388238442356233060e-01,-7.632464431951093697e-01,-7.586485372742137745e-01,-1.250187211533811474e-02,-2.776604242943935680e-02,-6.543742058976180671e-03,1.001233577728271484e+00
2.538961320308962266e-01,-8.119963663739169224e-01,-7.746399226848693642e-01,5.591062652104726582e-02,5.895333141505781221e-02,7.994629620988422114e-02,1.066153407096862793e+00
3.672553910375534469e-01,-7.869277582795468629e-01,-7.743255567161934083e-01,6.016072633411449939e-03,-4.401935856351825438e-03,-3.217514216014020784e-03,1.148020029067993164e+00
7.693771253528316478e-01,-1.062733873890179259e+00,-6.397311903622647788e-01,-9.178503345050847972e-02,-1.364423645508864302e-01,5.784689810343490723e-01,1.961014032363891602e+00
3.560032277248317834e-01,-7.473338224159978838e-01,-7.705716893614598106e-01,2.229170211175016819e-02,2.106474839823054002e-02,1.608662567905585344e-02,1.116749763488769531e+00
3.341553437574343866e-01,-6.963261514514027528e-01,-7.252270552246935509e-01,2.183888586907248644e-02,1.517204338505661991e-02,1.222428585926987749e-01,1.067455172538757324e+00
3.177736567748501995e-01,-7.474304405699478959e-01,-6.687975225019023862e-01,2.093329132350830318e-02,1.610675730246829279e-02,2.784100664636036601e-02,1.030291676521301270e+00
2.048909090824260204e-01,-6.952789474675054038e-01,-7.811050878061631675e-01,4.548763061852689749e-02,5.955682387119507620e-02,8.877174256538923613e-02,9.671709537506103516e-01
3.325950118461345473e-01,-7.292169114762130366e-01,-7.141975937022544407e-01,-1.472757243883427011e-03,-7.441678575135632877e-03,1.003296300173422556e-01,1.068687558174133301e+00
3.393814869132709133e-01,-7.026771783564260687e-01,-7.728730272951795932e-01,1.617884111654390583e-02,2.096485315242995265e-02,1.341423527403784455e-02,1.080095171928405762e+00
3.223271662259300507e-01,-8.377836066995595354e-01,-5.702412649931407618e-01,1.449014975480936163e-02,9.730076741339686516e-03,2.547430787223280493e-02,1.053526401519775391e+00
3.591452203864349824e-01,-7.852724332711848998e-01,-7.524850867309977875e-01,4.177974634839001777e-03,-1.045029543089047615e-02,4.494586049512925077e-03,1.128576517105102539e+00
3.650601494712052975e-01,-7.977169513634316811e-01,-7.395691201776941615e-01,1.803479045481208923e-02,2.123759925167407678e-02,1.162983746871054484e-02,1.136025309562683105e+00
3.466411883489036727e-01,-7.925384112525819535e-01,-6.921437537409618201e-01,1.644432033282131403e-02,1.458388350625308347e-02,9.899067955952307873e-03,1.093245148658752441e+00
3.607680607732716149e-01,-7.744201197182256635e-01,-7.638684296555715569e-01,-7.722121111199230573e-03,-4.797343409415608106e-03,4.670047779668973567e-03,1.130087971687316895e+00
7.223686089024662360e-01,-1.324344811186037862e+00,-2.994500971903615305e-01,-3.392922814889951996e-03,4.619898251073284445e-02,3.602907065889208171e-01,1.880862832069396973e+00
3.598399089595033518e-01,-7.687891937013727750e-01,-7.537900031110220667e-01,-9.759402303554643582e-03,-8.130356453441013945e-03,4.663336707898599678e-03,1.121449708938598633e+00
3.611075648245371528e-01,-7.555176801854115443e-01,-7.662507963527811494e-01,-4.986063563800909385e-03,-3.633817615785360326e-03,2.258028083951543665e-03,1.122087955474853516e+00
3.317873752511301122e-01,-7.289273391026263038e-01,-7.395266138960223667e-01,-9.480405874165155969e-03,-1.058480359215448544e-02,1.451485349037580190e-02,1.066634297370910645e+00
3.712905252533010292e-01,-7.806874167110785523e-01,-7.785034378910654640e-01,-4.390764899377107853e-04,9.792980630738594774e-04,-3.529690826845580543e-04,1.150889158248901367e+00
3.735803454626669962e-01,-7.846143573531711990e-01,-7.774714632593422436e-01,4.475651039568403870e-03,-1.892631329498688838e-03,-9.307095167954847117e-04,1.154671669006347656e+00
3.603154152809918132e-01,-7.860442503049096530e-01,-7.743015095512579826e-01,3.250509022011192298e-03,3.871572319100639349e-03,1.947213024695082506e-03,1.140572190284729004e+00
3.651935865424873473e-01,-7.914559739979658559e-01,-7.568966403308134971e-01,5.697973739660850204e-03,-5.555294137726743756e-03,3.108797080235507423e-03,1.139858961105346680e+00
3.560014640490376525e-01,-7.820084216596704385e-01,-7.761001402934861737e-01,7.799755958909926085e-04,-4.524274347280447459e-03,-7.737152450458016444e-05,1.135095119476318359e+00
3.651387409954459096e-01,-7.800802333250508314e-01,-7.785405432137761927e-01,3.261341019497087605e-03,-9.858943607834399787e-04,-1.077111857171590172e-03,1.144466638565063477e+00
3.434859510761797408e-01,-7.785645070977130766e-01,-7.735621284786697860e-01,6.100302048202616532e-03,-4.876355526221740413e-03,-1.877886577064008826e-03,1.119644045829772949e+00
3.635352315756850694e-01,-8.623454142090829500e-01,-5.691297267186269382e-01,2.877540152823117314e-02,1.496671366886293507e-02,7.005816310141933789e-02,1.116777420043945312e+00
3.462919179477310649e-01,-7.668284953274689952e-01,-6.933875699968984341e-01,3.164903982246183162e-02,1.978232587727403805e-02,7.175057840687436295e-02,1.087338685989379883e+00
6.802438931905409047e-01,-1.347603297773995124e+00,-3.104237833017606807e-01,5.176946763506148907e-02,-5.813000074362599523e-02,-7.622197004568589951e-02,1.766428828239440918e+00
8.149264519929073636e-01,-1.283420467603431092e+00,-4.432602960270466408e-01,-4.222391524835185372e-02,-2.897652937272011606e-02,4.247266744874933497e-01,1.973582267761230469e+00
3.773311578351926099e-01,-8.784312575134745060e-01,-4.716510040814312354e-01,-1.320852963036167962e-02,-5.421159326806316431e-02,2.010768134838957499e-01,1.167144298553466797e+00
3.034226083903396320e-01,-7.830648377278475181e-01,-5.889913676986000546e-01,-1.052205275036941813e-02,-6.919256527176675074e-03,5.173966477112281609e-02,1.007853031158447266e+00
7.024781000609654491e-01,-9.927664546533372381e-01,-6.492643233581093520e-01,4.385152089748127480e-02,7.954845835579682500e-02,5.767763803300975933e-01,1.852644920349121094e+00
3.446419360899758422e-01,-8.466390969517713083e-01,-6.208995891701819536e-01,7.575975370931770092e-03,1.025978194532759999e-02,-2.426944122233540280e-02,1.097016215324401855e+00
3.104019122398795072e-01,-8.760284366194399652e-01,-4.997734177800516875e-01,-8.626129268109588308e-04,1.865710206524435382e-03,-7.415984366374356665e-03,1.050220012664794922e+00
4.423311746404821054e-01,-9.081517399562691883e-01,-6.064348682042681737e-01,8.436740883897553972e-03,-1.327751503231751340e-02,2.301787245797760617e-01,1.291147828102111816e+00
3.570690381908808164e-01,-7.766649565503491726e-01,-7.456439454379224507e-01,1.399352378384015674e-02,1.155038491494737342e-02,7.747092033229257581e-03,1.119068026542663574e+00
3.541428278767643767e-01,-6.682192410550241712e-01,-8.216652718994650328e-01,2.860568977204021660e-02,2.026799054646228129e-02,1.279391222974941150e-02,1.108975052833557129e+00
3.544691217521992455e-01,-7.584238400544489611e-01,-7.786302499854617087e-01,7.326387984272050326e-03,8.797992697689707361e-03,6.719888695207799564e-03,1.123367905616760254e+00
3.354902872192604413e-01,-6.753994809186190107e-01,-7.860629725520892341e-01,4.648214569946033242e-02,2.230415368593989880e-02,1.049647006490981790e-02,1.074391841888427734e+00
2.995971793353181534e-01,-3.538199712821973320e-01,-9.482216005379108248e-01,9.542699760203506021e-02,-1.110371099886155004e-02,1.212928778278538622e-01,1.113770246505737305e+00
3.589170629900761411e-01,-7.756965338656847120e-01,-7.815468696107537028e-01,-8.337586808807960839e-03,4.926027480344980294e-03,-2.049488671312231849e-03,1.137679219245910645e+00
3.718119630965922018e-01,-7.781216247042919143e-01,-7.725752631615439014e-01,2.038532420186554839e-03,3.079715812241614475e-03,-7.797724570809153001e-04,1.147189140319824219e+00
3.205703431979110007e-01,-7.740980771752390410e-01,-7.762278509312513508e-01,-2.878131243113005340e-03,7.308046047937768672e-03,-4.580006854264479649e-03,1.095847964286804199e+00
2.965207197062736943e-01,-7.696281646758120765e-01,-7.668787954099471893e-01,1.929793965380341382e-03,-5.960419319735802725e-03,9.704216806214610580e-04,1.064833521842956543e+00
3.627012232386884749e-01,-7.843500340667398651e-01,-7.664131234291123862e-01,7.047790753591986514e-03,4.524320490952209520e-03,2.344397098673265973e-03,1.138288497924804688e+00
3.591106218865467437e-01,-7.935802092811625741e-01,-7.558051664667961855e-01,4.136816286801557954e-03,-3.532963294959550783e-03,6.732385119294772430e-03,1.134374260902404785e+00
3.065416095819444853e-01,-8.195339514261892333e-01,-7.638116490404336378e-01,-1.293653027523805274e-02,-1.074574617510984376e-02,2.787311532078523557e-02,1.100719213485717773e+00
3.938923533840227309e-01,-6.817579856074249545e-01,-8.684723095719140140e-01,-3.399671366925382382e-02,1.828020475875484149e-02,-1.031627634129050480e-01,1.195459246635437012e+00
3.481073582145978174e-01,-8.061098672569598778e-01,-7.861169203923056292e-01,4.720396461970169551e-03,-2.099332047497036446e-02,-7.787934378000138831e-03,1.145037889480590820e+00
3.601759901694409627e-01,-8.115283560395469831e-01,-7.039312771557391102e-01,-1.556092031901512227e-02,-1.708351206252951664e-04,-1.780182794531450299e-02,1.122529983520507812e+00
7.102343157048924827e-01,-9.894145601272572588e-01,-6.999477022109563684e-01,5.571625675934624433e-02,-7.823398840486692207e-02,-5.249874591106795663e-01,1.826229810714721680e+00
3.451766364519567865e-01,-8.195340282954941546e-01,-6.520221635046232755e-01,-6.489824470020486014e-03,-8.651035639620984277e-03,-1.269719369264534978e-02,1.091028332710266113e+00
3.532433697353039026e-01,-7.696757188205163303e-01,-7.366526834785260824e-01,-1.737352907912341482e-02,1.567478365862022896e-02,-2.321632712853757829e-02,1.108248710632324219e+00
3.274327479398828067e-01,-6.895363548261125297e-01,-7.538300903481975901e-01,-1.049101350589877815e-02,7.656283815500622598e-03,-4.462751541899972335e-02,1.053672313690185547e+00
3.593190790440231597e-01,-7.849074925166015237e-01,-7.412282044935543102e-01,-1.256258012030089105e-02,1.198797682310218798e-02,-4.199672250256271215e-03,1.123450398445129395e+00
3.244466971197745297e-01,-5.899707976031839385e-01,-9.095065904861490136e-01,2.066266841298255302e-02,4.659862458695897269e-02,-4.200802571446798916e-01,1.329529643058776855e+00
3.569405383388411512e-01,-7.896525025305537460e-01,-7.626240869133698030e-01,4.731053801985754537e-03,8.773106177019224933e-03,2.055933372405110461e-03,1.133457660675048828e+00
3.677999950001640261e-01,-7.848935709771468483e-01,-7.774787755057814831e-01,4.397175395729421149e-03,2.091106259433901139e-03,-3.202864248149084759e-03,1.149048447608947754e+00
3.539971570375280985e-01,-7.828350940345134568e-01,-7.718043877007243481e-01,-2.773434076250883614e-03,-1.771440958908151553e-04,-1.194343371562730507e-03,1.131369352340698242e+00
3.552299204423052803e-01,-7.876823604823555147e-01,-7.607369055673598446e-01,6.855628074304330813e-03,9.554854545537923641e-03,4.819019783967284226e-03,1.129895091056823730e+00
3.594204057088610238e-01,-7.818225004016845503e-01,-7.813985749907939038e-01,1.480955533314045822e-02,2.360908818761445465e-03,-2.196530811928990110e-03,1.141332983970642090e+00
3.575698645846055457e-01,-7.865064539365484997e-01,-7.672362542031695432e-01,2.924249625092563507e-03,1.037715036840373105e-02,2.953338551111055026e-03,1.134729146957397461e+00
3.483154206711448486e-01,-7.852372552365640690e-01,-7.731839608689586862e-01,-3.368983685456956693e-03,-4.520461929193777401e-03,-4.684038261175003026e-04,1.127616882324218750e+00
2.899053170256008505e-01,-8.310097425931486370e-01,-4.023358961030127356e-01,-1.107472133022561339e-02,-1.918253452120582264e-02,-3.650699380940445327e-01,1.166621088981628418e+00
6.190823048558826702e-01,-3.899173479840732370e-01,-1.055580616341343259e+00,-2.839314136871809360e-03,7.197344341663761136e-02,-2.069213595707519449e-01,1.508925437927246094e+00
2.707158768311435093e-01,-9.990551761316479595e-01,-2.749846879805797339e-01,-1.214093993702322974e-02,-6.269074147028115551e-02,-1.495023604610269119e-01,1.138630032539367676e+00
3.231464687708839323e-01,-7.210435192626533096e-01,-7.174872954697681937e-01,-7.389148143636881799e-03,2.591998375288724881e-03,-2.587155231790405976e-02,1.043467283248901367e+00
4.208867270996832222e-01,-3.335337998456930908e-01,-8.861010279289617264e-01,-1.226491548802829956e-01,3.004610314266131788e-03,-3.483777564833951956e-01,1.304072737693786621e+00
3.064042183597298630e-01,-6.973107108501370721e-01,-7.027981641762652831e-01,2.518420374081927707e-03,-4.495261244385104563e-03,-4.535394157143732979e-02,1.009570360183715820e+00
4.823109300674487954e-01,-2.982335041029159362e-01,-1.193624502053976411e+00,1.007654776628733595e-01,6.348132100776796016e-02,-3.463742980885962663e-01,1.585037350654602051e+00
3.299896832472985486e-01,-7.810187264814527630e-01,-7.754473168979636455e-01,-1.520411130058655735e-04,1.083486391986615907e-02,1.250443516680155645e-03,1.108394265174865723e+00
3.422277538847081635e-01,-8.690837853320179107e-01,-5.923926928439491313e-01,-1.299047747653874450e-02,-1.229787260006589070e-02,-7.252760045353854809e-03,1.099905610084533691e+00
3.608230745543723472e-01,-7.962169347821335119e-01,-7.533467749108622158e-01,7.968404543347891314e-04,-9.696980121576458111e-03,-6.883084455325005745e-07,1.136336684226989746e+00
2.571753099379655016e-01,-7.985029894215812662e-01,-7.334842042316476185e-01,1.655182665045315180e-02,-1.119496389062245648e-02,-9.583267937785352325e-03,1.025435805320739746e+00
3.523046251277820451e-01,-7.916769317647941451e-01,-7.130901503797082430e-01,-1.125132803432959613e-02,-6.011066870228337980e-03,-1.007192324323045833e-02,1.107140660285949707e+00
3.616670558634035304e-01,-7.674259023315840311e-01,-7.644678325208261738e-01,-5.299849447874967721e-03,9.284024206712026064e-03,-9.680135944077024324e-03,1.127893447875976562e+00
3.343065911054209360e-01,-7.996513948347778733e-01,-7.828984544131387668e-01,-1.449665023584818628e-02,1.607200829029391959e-02,-8.939394472189401974e-03,1.126405477523803711e+00
3.558910953596297611e-01,-7.904450033042338397e-01,-7.608285023392649116e-01,-3.019164508249123414e-04,-2.209667083347647588e-03,-1.672615382414124365e-03,1.131828784942626953e+00
3.810479378874261358e-01,-6.806040412727065725e-01,-8.701833545019858063e-01,3.231357057737872015e-03,-2.085526612750697711e-03,7.991741775270427839e-03,1.168138861656188965e+00
2.565484393615404812e-01,-7.642144247584179428e-01,-7.620895069448626602e-01,6.065324457450504969e-03,-3.369619052916610763e-02,-8.296691696949003852e-03,1.021526098251342773e+00
1.481798553958008635e-01,-7.451822719237346515e-01,-7.420179085487712545e-01,-1.377866720962032249e-02,2.459454225402208857e-03,3.708871632622007166e-03,8.921367526054382324e-01
9.729167015558193299e-02,-7.223002060016288084e-01,-7.299590509711639807e-01,2.590974434508154164e-02,-1.685220319384223009e-02,-1.582925107933206210e-03,8.251909613609313965e-01
3.287213592131973949e-01,-8.092508689999909910e-01,-6.040449130026748215e-01,2.370778900254593997e-03,5.988659034957547617e-03,9.608240911168078324e-02,1.063668847084045410e+00
3.639717047553714391e-02,-7.215288224418632268e-01,-7.614632585395397779e-01,2.268896836433001267e-03,4.243793617334374463e-02,-3.047561218470181549e-02,7.839123606681823730e-01
1.843568035373883696e-01,-1.110746656168124513e+00,-9.510168730009103122e-01,-3.294213958261003189e-02,1.542859922746190882e-01,-3.828025450918420836e-02,1.254991650581359863e+00
7.689070621465576849e-02,-7.308269204454707069e-01,-7.135752283555443221e-01,9.093990817660666318e-03,-1.122631312801512099e-02,-1.508086333930421679e-04,7.996231317520141602e-01
1.697473112192186551e-01,-7.408739861265085658e-01,-7.424046246407524086e-01,-3.645539460898023030e-04,4.806354821202187509e-03,-1.304890887113201864e-03,9.114286303520202637e-01
1.594699186364154642e-01,-9.956031687030295618e-01,-7.871402951922616964e-01,7.034076848884902866e-02,6.814066808390946417e-02,1.173925014417909196e-01,1.098624944686889648e+00
3.802467953010245094e-01,-7.882926433922136100e-01,-7.249833818596744806e-01,2.660609545610512217e-02,3.218243877625807242e-02,8.954440175473693531e-02,1.150998950004577637e+00
3.096688935293911427e-01,-8.357107062094527583e-01,-6.255094887361095646e-01,-2.227589639659086421e-02,5.168122112339117169e-02,3.755279995634247525e-01,1.244139909744262695e+00
3.656241031243876449e-01,-7.546073031166089518e-01,-7.979959330800314721e-01,5.733709035243438648e-05,4.355445226778806994e-03,1.762068206220720719e-03,1.142572760581970215e+00
4.658081281787816996e-01,-5.029817144663866202e-01,-8.929613351140499589e-01,-1.061798190966345978e-01,1.634920254601169437e-02,2.832967833522432310e-01,1.320546030998229980e+00
3.457775018273885892e-01,-7.804030730408422212e-01,-7.636204358291374117e-01,1.615847210915002810e-03,1.158681568811103894e-02,5.650399046270945802e-03,1.118110179901123047e+00
3.170899595801465742e-01,-6.827039214273433743e-01,-7.317463619026823851e-01,-2.167361143194320577e-02,-2.080884979681348404e-02,6.602234183958900771e-02,1.032865166664123535e+00
3.429045665099770268e-01,-8.480943110993499623e-01,-6.214094171789618093e-01,8.642623770742489248e-03,-6.144439959701374597e-03,1.335282955539475111e-02,1.095789790153503418e+00
2.713430577197429305e-01,-5.670454756421465792e-01,-8.069390146768171679e-01,1.131531592677486459e-01,-1.922877530915227673e-02,2.638920750121936942e-01,1.100002527236938477e+00
3.536831291046553249e-01,-6.723313543573874451e-01,-8.160598493757763583e-01,2.017588775222343284e-02,1.078866775734736022e-02,9.646794786084354062e-03,1.105748891830444336e+00
3.202793802023726766e-01,-6.272875961781514409e-01,-7.913358285697931205e-01,-1.927091976942063231e-02,-9.189255813862632141e-03,3.543811547185245908e-02,1.041814088821411133e+00
3.627935454985241615e-01,-7.580841568302181255e-01,-7.825971774388038593e-01,2.798345823821271009e-03,-8.296642266391447001e-03,1.444252655214496627e-03,1.133437275886535645e+00
3.449431872937607224e-01,-7.216358547002481583e-01,-7.619009838631454201e-01,-5.171421423113548368e-03,-1.875391214702445616e-02,4.376217702664270473e-03,1.087819337844848633e+00
3.746858956329020551e-01,-6.935823149131514764e-01,-8.435810558268319603e-01,-1.345040472777662977e-02,-1.422179710297302290e-03,2.656857875685262466e-02,1.151782035827636719e+00
3.455281544187656095e-01,-7.460445994458189123e-01,-7.406199422345498551e-01,-7.153820458447466592e-03,-5.669645566499327549e-03,8.112377811118605050e-03,1.089075922966003418e+00
6.041165149201191964e-01,-8.299775811649371393e-01,-8.421015086265147831e-01,6.808468998520270099e-02,-3.461024716897800890e-02,4.726140793223407854e-01,1.661852002143859863e+00
4.687575607468015271e-01,-7.516438144025788803e-01,-8.038019052400942055e-01,1.533884092175655939e-02,-1.387392168140733767e-02,-2.295587898065066246e-01,1.309629201889038086e+00
3.430991061134622266e-01,-7.412550884631837755e-01,-7.461944557472202089e-01,4.261006841393630458e-03,-4.367548742865065212e-03,1.761213808336647643e-04,1.086883664131164551e+00
3.197273407160280412e-01,-8.333477940159331743e-01,-5.303179915487798990e-01,5.561754770285620361e-03,-6.134495097630401385e-03,-1.363208062810771226e-01,1.062049388885498047e+00
3.671754896043538108e-01,-6.520396089753970337e-01,-8.581180149526385081e-01,6.171167349354263199e-02,-2.853221223809731741e-02,-7.644135208700116035e-02,1.150088310241699219e+00
3.290614830572644034e-01,-6.069264028299683478e-01,-8.058963168551177558e-01,1.375383706601640034e-02,-1.315631284077519413e-02,-9.209376669039336105e-02,1.062274098396301270e+00
3.495643075636046815e-01,-7.731085019212213805e-01,-7.290479642545315553e-01,1.063039686542273030e-02,-4.175824914699377728e-03,-2.532712513132002671e-02,1.102354645729064941e+00
3.156190412569154780e-01,-7.739450321670033883e-01,-7.678483526734920517e-01,1.656974789463780406e-02,-1.643691848923951870e-02,-1.835981533526187840e-04,1.087280392646789551e+00
2.971679963007023417e-01,-7.188808795328576196e-01,-7.860517653860434883e-01,4.368314953514914473e-03,-1.213569828515304559e-02,-1.383278982250639791e-02,1.051755309104919434e+00
1.994241430815714144e-01,-8.015564700158039901e-01,-7.475945441680993397e-01,-1.213304714618817712e-02,-7.757430115103186585e-02,-1.121213334708714149e-01,1.003527641296386719e+00
1.325206196704846739e-01,-1.006122592093217527e+00,-7.258398894276540947e-01,8.045394932997279591e-02,-9.961649259025155689e-02,-1.735912252517279875e-01,1.093396186828613281e+00
3.571199936862684554e-01,-8.318423925281379638e-01,-6.844237806630970589e-01,7.427708666223796713e-04,7.852585160347650556e-03,-2.730559197994431638e-03,1.122629761695861816e+00
3.584919850404115205e-01,-7.707674050201827054e-01,-7.860112228754821961e-01,-1.646426802201116557e-04,-2.744277761896448103e-03,-2.262444878287714757e-04,1.136968016624450684e+00
5.683996798058338351e-02,-5.515943176258901737e-01,-8.055204004512629412e-01,-9.089351180820795517e-02,-9.200706204321570936e-02,1.357769657404619967e-01,8.334596753120422363e-01
3.687550386485978215e-01,-7.807826235599656384e-01,-7.655897230991267621e-01,-7.654883168976232659e-03,2.335710337729337508e-03,-1.612989276683986705e-03,1.142104506492614746e+00
2.834945182882657733e-01,-7.650833738591378275e-01,-7.692219296500504289e-01,-6.491498824273510618e-03,-1.208905088525592461e-02,-4.061831490547660774e-03,1.050945639610290527e+00
3.268807186105276430e-01,-7.636002388168138255e-01,-7.651440082274389987e-01,3.194262966270412438e-03,6.535146332159137358e-03,7.898210791854371263e-03,1.091412186622619629e+00
3.734239048616069256e-01,-7.784833006378901743e-01,-7.814332359615282497e-01,2.046951700056973307e-03,1.849752209810818539e-03,9.277840590795183697e-04,1.153396010398864746e+00
3.727884763582623995e-01,-7.522252243655509485e-01,-8.237692708210818671e-01,-3.331803570694143245e-04,4.675821286408939244e-03,-3.257478890515236487e-03,1.162480235099792480e+00
2.887712453502429555e-01,-7.569919628194932137e-01,-7.933790648294427594e-01,-1.918313694138940387e-02,-4.299044614681470089e-02,5.338347916608569832e-02,1.071538567543029785e+00
3.721831740885347961e-01,-7.856948141247643846e-01,-7.793770683799736698e-01,3.547048782040414325e-03,2.372140560300874286e-03,1.586111477470852427e-03,1.154759049415588379e+00
3.355714218657713244e-01,-7.778005538542900332e-01,-7.834072934500997398e-01,7.517919472971091623e-03,1.379674785765147398e-03,4.476861038044439861e-05,1.116264462471008301e+00
3.349754129159988048e-01,-5.471511384166931613e-01,-8.947104932010367939e-01,2.432267687762659433e-02,1.628643448581099801e-02,1.595639212391787576e-02,1.099486470222473145e+00
3.694561833450197841e-01,-7.618031581097681748e-01,-7.937090952906584729e-01,-6.520019806704121200e-03,9.516170346768668478e-03,-3.429712104317227941e-04,1.147719144821166992e+00
3.647494230416494232e-01,-7.668719928304901234e-01,-7.766851290935865570e-01,8.820319424903652269e-03,1.160142377943194913e-02,5.671936624460967996e-03,1.136882424354553223e+00
3.557821145253405315e-01,-7.657012607280844207e-01,-7.890817134813750133e-01,4.692336050942160289e-03,4.925993104018804893e-03,-2.317498783067824535e-04,1.133415818214416504e+00
3.578051227317094463e-01,-7.635377336488022859e-01,-7.940088200811385999e-01,7.453042089535708709e-03,1.556944055316718646e-03,1.809642044450231451e-03,1.136965513229370117e+00
3.648931624281582242e-01,-7.671735602284246447e-01,-7.874989839181674167e-01,-6.253497681374882086e-03,7.573919729611871057e-03,-2.614251489039520196e-04,1.142491817474365234e+00
3.546375575295673266e-01,-7.680795010319700911e-01,-7.448010135667597620e-01,-6.448583609835278549e-03,7.430587510857079511e-03,-9.793759986601147105e-03,1.111520767211914062e+00
3.614292269908599420e-01,-7.658902346711176090e-01,-7.674153709374281762e-01,-3.639115697095558419e-03,6.294963980003115758e-03,-6.123398972804680943e-03,1.128202915191650391e+00
3.426476146806272105e-01,-7.191313748096925806e-01,-7.649248357551632349e-01,-1.986835620938267113e-02,2.261426903083761653e-02,-3.860724141543335486e-02,1.088707566261291504e+00
5.792168780929471961e-01,-1.062935737405668046e+00,-4.180294468754409132e-01,8.757652317735843683e-02,1.306735890720893967e-01,-2.284421869203366873e-01,1.511399388313293457e+00
3.389095408050264990e-01,-8.841188148646950129e-01,-4.749026677108394989e-01,-5.109462187241314846e-02,7.202779401922430880e-02,-1.036662949679446888e-01,1.103815793991088867e+00
4.534075426470570713e-01,-3.856582546534443878e-01,-1.029196707493282847e+00,1.018379234632180580e-01,-1.642855696252500802e-02,-1.578303571500304092e-01,1.328456997871398926e+00
3.396754181077425994e-01,-8.178597691432283323e-01,-5.817045680892157788e-01,-9.407084958275597347e-03,1.480124521242418868e-02,-1.442323376671213186e-01,1.088866710662841797e+00
6.362189416235253248e-02,-7.877715339482729284e-01,-4.836148353428517122e-01,-6.416674367901359366e-02,-3.216592504936723745e-02,2.130328449337351160e-01,8.426328301429748535e-01
2.693364122165070595e-02,-8.447206911028906084e-01,-5.027998183289299483e-01,4.201577895189437944e-03,7.446767761854382328e-02,-1.991558347176167892e-02,7.723557949066162109e-01
3.615438231833351668e-01,-7.977126537188282684e-01,-7.530153226245988041e-01,3.039277083212630747e-03,-2.994176500218023555e-03,-7.289498635767055479e-03,1.137660622596740723e+00
3.742306210422450818e-01,-7.551994789837437327e-01,-7.868542638449206317e-01,-5.449641689744371548e-02,5.951290701019969903e-02,-1.312611469470506553e-01,1.176260828971862793e+00
2.761106793488634081e-01,-7.659456801240189794e-01,-7.672896871293835019e-01,-3.415562762279709865e-03,1.031585822291409063e-02,4.354976522304133089e-03,1.042926192283630371e+00
2.795240355420187117e-01,-7.716050890286985098e-01,-7.686292637333544953e-01,-2.086235577257385468e-02,8.646502084989380471e-03,-5.666865562664285053e-03,1.050418853759765625e+00
2.963238083436303127e-01,-7.775810769865121319e-01,-7.661833968413567231e-01,-1.684865536250988033e-02,-1.091751834091923661e-02,-3.937942779259403364e-03,1.068839192390441895e+00
2.919886145418670309e-01,-7.806411274577501613e-01,-7.493059662216768890e-01,2.180072027420370748e-02,-4.859424526763570645e-02,3.458740690176166730e-03,1.061344146728515625e+00
3.467199229924674553e-01,-7.891079184215696873e-01,-7.803055010875569186e-01,-2.283165141966628751e-03,1.261921518733996259e-02,7.301921936239672874e-04,1.131671071052551270e+00
3.557803647659231183e-01,-7.970897553994482632e-01,-6.999792425098956272e-01,1.977958638570249950e-02,4.441370249645162221e-03,4.134707808811156210e-02,1.110380887985229492e+00
2.379688172394691104e-01,-7.613747777424751950e-01,-7.614598761031423635e-01,-1.873204748857561913e-02,-3.365179589403788363e-02,-7.660319092802667963e-03,1.001697897911071777e+00
2.546809865892170066e-01,-9.774289811170259190e-01,-5.683050048629711970e-01,1.299586887998345763e-01,2.327893743285647937e-02,2.888793413647396391e-01,1.218211412429809570e+00
2.992207001122568766e-01,-6.726055645499490199e-01,-9.226093996905897487e-01,1.210670192470206935e-02,1.218587432187883818e-01,4.645257216837357372e-01,1.393646001815795898e+00
2.370910058056069358e-01,-7.618830073026016114e-01,-7.524544662356582592e-01,1.174340807056242775e-02,5.760689376968364771e-03,-2.469348822390421069e-03,9.945605397224426270e-01
2.095271337007627577e-01,-9.712551980587398326e-01,-3.076590553316209120e-01,2.335085904830881860e-03,-2.911419504370924352e-02,7.816322150328003371e-02,1.035341382026672363e+00
3.550009982276576825e-01,-7.544554972243673330e-01,-7.570116184258215419e-01,3.239532542454011659e-03,3.865064002897496132e-03,5.448438591544285670e-03,1.110811233520507812e+00
3.642101710883287602e-01,-7.680096221823041747e-01,-7.606161796473593917e-01,4.976879694726621091e-04,-1.602581141852056851e-03,-5.047269052557252882e-03,1.128578782081604004e+00
3.594143353027675625e-01,-7.609458821600267875e-01,-7.604945355362080495e-01,5.289102732677738311e-03,6.160906608339936433e-03,8.166637379050127455e-06,1.120222926139831543e+00
3.604637855799994184e-01,-7.698954868870244717e-01,-7.557465056539214299e-01,9.516496001378079231e-03,8.883907275619020577e-03,2.898761979486946978e-03,1.123589158058166504e+00
3.651753602206757043e-01,-7.761074166431380927e-01,-7.619048345272965150e-01,1.151162963088010055e-02,1.359153708539516652e-03,6.335443554806686334e-03,1.134478926658630371e+00
3.679616684211504118e-01,-7.838338129466881909e-01,-7.827606576608654443e-01,6.089343481778032932e-03,4.157640526278278542e-03,-5.426926975332488703e-03,1.151368498802185059e+00
3.064939317728072599e-01,-8.447212866231135209e-01,-5.149446858734852972e-01,-1.213397121315075954e-02,-1.115932251009154469e-02,5.392012272415020596e-02,1.031476020812988281e+00
3.682592658984408240e-01,-7.668521203753251303e-01,-7.752862306470822418e-01,2.709817604263097023e-04,7.672095038844447927e-03,-1.783513713618054648e-03,1.139433622360229492e+00
3.612910251330867517e-01,-7.642607367860028145e-01,-7.917140794010038007e-01,7.664492849656747049e-03,-5.289717583561195230e-03,-1.978735231299689600e-03,1.139645814895629883e+00
3.663682671653147316e-01,-7.626354103431391973e-01,-7.892790601771757508e-01,-3.793656730049521555e-03,6.637153334990402408e-03,-1.402054300222963694e-03,1.142637848854064941e+00
3.461188665947714793e-01,-6.214920623370856489e-01,-8.459632837781883019e-01,-1.383945203126483482e-02,-4.039078736521016684e-03,6.283541980505365394e-03,1.097543120384216309e+00
1.084067856565034682e-01,-3.933320266361787221e-01,-9.589975372226242634e-01,1.418607878860067284e-01,4.604939221086353646e-02,-4.464319431706517335e-03,9.603804349899291992e-01
3.614519788620168539e-01,-6.564119449247876048e-01,-8.392267420248670229e-01,3.496275765429886218e-02,-1.662052351460474586e-02,-1.594438705459433683e-02,1.122856736183166504e+00
3.277790439014373614e-01,-5.990005177426140914e-01,-8.138126646053680524e-01,-9.734035025067880320e-03,-1.177832489138439312e-02,5.261496719826155161e-02,1.055060982704162598e+00
3.644262390678189023e-01,-7.566073731416353976e-01,-7.968813161554062496e-01,-6.771516606172897461e-03,-7.233524024458985908e-03,-3.282510296195452590e-04,1.141832590103149414e+00
3.849729686265919715e-01,-5.805000420429979879e-01,-9.562540702415760485e-01,6.124880091323602060e-02,1.696959514503499494e-02,5.265875038984946244e-02,1.206874728202819824e+00
5.440616531132481670e-01,-9.529066780537349679e-01,-6.898127997951182255e-01,5.694372647743238015e-03,5.741862706909268282e-02,-3.964313703378642417e-01,1.548467278480529785e+00
3.214789960155189918e-01,-8.621051287211638492e-01,-5.475168663406384528e-01,8.582062761840560799e-03,6.915684707128316039e-03,2.160771151501354737e-02,1.062666773796081543e+00
3.611051763827564098e-01,-8.147555617742517908e-01,-7.233395921878320589e-01,8.854782516084885174e-03,-1.408918964766736961e-02,-6.546907469133294091e-03,1.133345603942871094e+00
3.226726146824109853e-01,-8.064724745950687668e-01,-5.734445311317002414e-01,2.077037866008053443e-02,-9.180497885559496529e-03,-1.480423271434817556e-01,1.064633727073669434e+00
3.690525424165646551e-01,-8.359736211652685212e-01,-6.814143203604026144e-01,2.357185007367017075e-03,-1.297924888178761740e-02,-2.182875457375522965e-02,1.136521100997924805e+00
1.056248063181529639e-01,-9.071953531126755177e-01,-7.366796736250911248e-01,9.639866057039217506e-02,4.700120800297230561e-02,1.401695198466064718e-01,9.877380728721618652e-01
3.307232435989816977e-01,-8.195089237172974439e-01,-6.360138405866432310e-01,7.134637556281212163e-03,3.309568698097797856e-02,7.532840884170754689e-03,1.072031497955322266e+00
3.372173352724323614e-01,-8.414361403860592947e-01,-6.323202939707017745e-01,1.263622259243382326e-02,3.177255233176616567e-02,6.698129601117937260e-03,1.090926408767700195e+00
2.461402047940458027e-01,-7.720191872198898242e-01,-7.337402319909060999e-01,1.371331829655014420e-02,-1.183872408362546778e-02,-2.984808958515673769e-03,1.000075578689575195e+00
1.508820127902549268e-01,-7.443687278872497259e-01,-7.480658819037695473e-01,-2.078366656947585808e-02,1.056483733928629230e-02,-4.132206910401483614e-03,8.980419635772705078e-01
3.618437221477419641e-01,-8.033704235031713381e-01,-7.491158578049270655e-01,1.536242005140032660e-03,-1.050658745834165408e-02,-3.573439315160908524e-03,1.139221668243408203e+00
3.561095714744045293e-01,-7.465491236710741774e-01,-7.719459610690484475e-01,6.163952846645139733e-03,1.200346188883277647e-02,1.752676350016517046e-02,1.116231679916381836e+00
2.489763772297187705e-01,-8.757819261949360001e-01,-7.572949597557419033e-01,-2.541433418615797468e-02,-7.878705127705250277e-02,-3.479694287420199983e-02,1.081685543060302734e+00
3.509263340633559380e-01,-8.783188563435379015e-01,-5.242837827804254225e-01,2.909664725591667306e-02,-2.448172578284222439e-02,2.262043936126344745e-01,1.165775179862976074e+00
2.470649423937847922e-01,-7.603058915010145746e-01,-7.590472518028379412e-01,7.243931105965277679e-03,-9.302730496430610535e-03,7.664162367104841722e-03,1.007036685943603516e+00
2.618893809738247480e-01,-8.896646567584737264e-01,-7.550194892137638281e-01,-1.962350980660568234e-02,5.104277741659899587e-02,-3.849631915569611817e-01,1.281684875488281250e+00
-7.906750874743789792e-02,-6.905493925291494861e-01,-7.981689478445848085e-01,-5.730790685280975905e-02,-3.107117853806825106e-02,-1.624326349783216175e-02,6.817916631698608398e-01
2.235382544690796003e-01,-7.624571845835304007e-01,-7.469387496872365029e-01,-6.782709882878685571e-03,3.056913628268535105e-02,3.665927671411140041e-03,9.798512458801269531e-01
2.783680427232344545e-01,-7.675217227839338241e-01,-7.712669328933305923e-01,1.103119898976830798e-02,8.116769014554599954e-03,2.765663127135710182e-03,1.048046827316284180e+00
2.368815023965827882e-01,-1.177614891637369432e+00,-1.081261771655825488e+00,-4.931343447895727983e-02,-5.860842042114111639e-02,9.085473553481542008e-02,1.384253144264221191e+00
2.861130770298613846e-01,-8.375859725140866185e-01,-7.680079412182200249e-01,2.292402386731935346e-02,-3.310059711772633112e-02,-2.967971091421613833e-02,1.094011902809143066e+00
2.273397318400678935e-01,-6.496509642219158165e-01,-8.112916241977821130e-01,-3.643839463459545326e-03,-2.156592027143267032e-02,-1.001909568449027566e-02,9.688828587532043457e-01
3.103535837133660769e-01,-5.919114971639556355e-01,-8.068392981256897745e-01,2.212635954364459978e-03,5.501116209949894614e-03,-4.401755198719094903e-02,1.029619455337524414e+00
3.495157483869428816e-01,-7.587477812821425971e-01,-7.980977754326186169e-01,1.630775742058446914e-02,1.620181258761638904e-02,1.201386661652481709e-02,1.129347085952758789e+00
3.625332914365196335e-01,-7.372945783837002720e-01,-7.897738813115950940e-01,1.689826373307755022e-02,7.792823142757459437e-03,1.082435161416553902e-02,1.127601027488708496e+00
4.602678634752160880e-01,-5.739248715125068179e-01,-9.922305368528552272e-01,7.704092101872477005e-02,4.233624728052826081e-02,1.127724490891261616e-01,1.318513870239257812e+00
4.052850866017640441e-01,-6.489749990699299476e-01,-9.786559768895757294e-01,-1.671607745316419646e-02,-1.674453584181251125e-03,5.383304848976792206e-02,1.255891680717468262e+00
3.535065399659286234e-01,-7.182032980637569342e-01,-7.902254227706057010e-01,-7.327243864665977484e-03,1.091382085467981766e-02,9.075788119114336014e-03,1.109820485115051270e+00
5.487626945469770146e-01,-3.608711866236356536e-01,-1.098042426062665777e+00,-8.204130359276996798e-02,-3.855156439515188688e-02,3.193284902850166973e-01,1.540121436119079590e+00
4.714443874049404348e-01,-8.390150363591011295e-01,-7.917161856982717349e-01,2.637945138147304233e-02,3.216771345985440511e-02,1.893683303839834298e-01,1.330537796020507812e+00
3.468884359161642505e-01,-6.821805031879907277e-01,-7.980679047870061771e-01,-6.066983867519691251e-03,1.170637527723729192e-02,4.154093242209156572e-02,1.094242811203002930e+00
4.090449984350096879e-01,-3.468329150204806921e-01,-1.042544015249148748e+00,1.784086403455371894e-02,2.750293578637591149e-02,2.070186733432009540e-01,1.308828592300415039e+00
3.539433652556212007e-01,-7.753907572374378887e-01,-7.895689165105866936e-01,-6.553445527308587176e-03,-8.049706351990208904e-04,-3.183346711272169727e-03,1.136560440063476562e+00
2.368383904849713506e-01,-7.573801301147862208e-01,-7.586810827060787021e-01,-7.682532016338868355e-03,-1.903069068953526283e-04,-9.854829673698220320e-04,9.949601292610168457e-01
3.592766044409513304e-01,-7.357364281803433492e-01,-8.043547592936609592e-01,1.244237518132115285e-02,3.980545628944653566e-03,3.926541083604848277e-03,1.131131410598754883e+00
2.648857811080158609e-01,-7.252879584170943694e-01,-1.118616558643051651e+00,-1.875694159850741227e-01,3.817854067864078632e-02,1.063177720573387636e-01,1.291683077812194824e+00
3.451847314660237420e-01,-7.149014530600416029e-01,-8.010202462517679312e-01,-1.258180435584426056e-02,7.111421174960082595e-03,-1.612098553727859748e-03,1.105950713157653809e+00
3.668959487563457356e-01,-8.007258395113390215e-01,-7.586147499085260648e-01,5.047127244189634869e-03,6.079922946531412034e-03,1.549576465658359086e-03,1.147230863571166992e+00
3.052465389738023283e-01,-7.735895967488783942e-01,-7.670336905637562541e-01,-4.263187767789493321e-03,1.351512632936855730e-02,-1.437062895829050065e-03,1.075856089591979980e+00
3.698652575410530385e-01,-8.008354808274799064e-01,-7.489604621053134181e-01,-1.231927572977102071e-02,1.405543058021314039e-02,-2.335792824239117931e-04,1.146101713180541992e+00
3.256000466202970123e-01,-4.476109443250301245e-01,-9.203459040466450691e-01,-3.574261498836473882e-03,1.212060343407561462e-02,-2.846287747495389667e-02,1.090764403343200684e+00
-1.825566990951243973e-02,-8.604947998765992700e-01,-4.219653474667087734e-01,-2.070570564960392407e-02,-2.828101442868460533e-02,1.722442617527001341e-01,7.905808091163635254e-01
3.335276575324700454e-01,-6.153510652638596312e-01,-8.121926779510568739e-01,7.482899869951624081e-03,-6.893699626049677037e-03,-9.436700147131900362e-02,1.073742151260375977e+00
4.640380227640318878e-01,-9.286553481276640376e-01,-7.079894462676623590e-01,1.604732313317298528e-02,4.279051103807386160e-03,1.392398550377184629e-01,1.319075107574462891e+00
3.696441336307845771e-01,-6.980604123036734387e-01,-8.311260288177699795e-01,6.151804602606694011e-03,-6.175352250618146299e-03,-1.327786149664185456e-02,1.140408277511596680e+00
3.635141082644054444e-01,-7.552509071071362712e-01,-8.017236107522878186e-01,-5.664660405831831863e-03,-1.887362597110224614e-03,4.961457878507109136e-04,1.142757415771484375e+00
3.630523362812304589e-01,-7.120232769297183406e-01,-8.131661559664447037e-01,-1.437907893211771114e-02,2.381334741373933740e-03,3.079720388750837711e-03,1.129344701766967773e+00
2.901232769097458752e-01,-7.629761590279110495e-01,-7.765618886207641403e-01,-1.472549751227361474e-02,4.438540453780373020e-03,-4.978917262748305123e-04,1.060292601585388184e+00
1.851083912174195656e-01,-7.449287201107213097e-01,-7.468183142947053543e-01,-2.643133668103425649e-03,8.262586906690254709e-03,-2.155562281579027645e-03,9.311120510101318359e-01
3.025218154156951722e-01,-7.632862620291096523e-01,-7.795436689037483768e-01,-1.373774140133083785e-02,-9.566996264749830919e-03,-1.619289244349733040e-03,1.074424028396606445e+00
2.611333410236058583e-01,-6.040170842381347160e-01,-7.977429260979816972e-01,7.391042823682945906e-02,2.442240469896345828e-02,8.480729782177701126e-02,9.966802000999450684e-01
3.320809900915984714e-01,-5.483102920524862700e-01,-8.592718880565271000e-01,1.944852951700399082e-02,3.400213355056279103e-03,-7.040826125217178322e-02,1.077773213386535645e+00
3.323229770226732160e-01,-7.773378529917280844e-01,-7.843152740355281427e-01,4.112539365155411242e-03,-4.312677224589132885e-03,4.387671809486279979e-04,1.113214015960693359e+00
3.302085891866630707e-01,-6.946729687358987881e-01,-7.559044136329466923e-01,-4.347384283194008318e-03,-1.194707126406504075e-02,-1.450850987703156472e-02,1.057356595993041992e+00
4.158249938214925168e-01,-4.978666402343476793e-01,-9.635451624374952173e-01,3.350681108992132479e-02,2.589234952061739148e-02,-9.155436052728602170e-02,1.227884888648986816e+00
3.540132120964393225e-01,-7.433124114102089841e-01,-7.310444405514503474e-01,4.258167725514429292e-02,6.927840548333277781e-02,2.164092997537253038e-01,1.162389397621154785e+00
3.374145684213676333e-01,-6.024159370587418572e-01,-8.466450788511585834e-01,-1.188061893220685936e-02,-8.810723458587741905e-03,-1.165683673983899937e-02,1.083294630050659180e+00
3.126848200508388631e-01,-6.158335502705838405e-01,-7.871060998921068919e-01,-2.525463654437399424e-02,1.775101426924528131e-02,-4.419588179340251666e-02,1.029188394546508789e+00
3.451422497339921014e-01,-6.975069494540148130e-01,-7.888033605963992168e-01,1.651162749582563496e-02,-2.296531461456404258e-02,-1.208853420620965673e-02,1.092465519905090332e+00
3.526572941113872428e-01,-7.830937416401463347e-01,-7.207430421603977511e-01,1.570359161470391909e-02,-2.655986120394847674e-03,4.631059575535267925e-02,1.109143018722534180e+00
3.552019689475982012e-01,-8.125801125449865214e-01,-6.985723291601113605e-01,-2.094415923094764768e-03,-1.244180125317415585e-02,-6.977723183722191018e-03,1.115437150001525879e+00
2.931549405220381654e-01,-7.751151870589636506e-01,-7.638974569572077877e-01,9.490843396528258688e-03,-2.088232456858420127e-02,-5.444254525766503185e-03,1.063489913940429688e+00
3.492419914232662292e-01,-8.206932687694703521e-01,-6.652212387565890062e-01,1.756526512150317215e-02,2.591685594017520411e-02,1.034552471294865328e-02,1.101948142051696777e+00
3.326856597917741687e-01,-8.318287232046326363e-01,-6.288033656730074306e-01,1.055775876418007901e-02,3.031643023866105804e-02,1.365654293184505839e-02,1.079137682914733887e+00
3.665288770850311240e-01,-7.653181189598957657e-01,-7.744027836888236482e-01,-3.763254347245431467e-04,-6.620827921025156451e-03,-2.941679374477718795e-03,1.136486053466796875e+00
6.206063741975998971e-01,-3.279568749335437516e-01,-1.150236009112849622e+00,4.017088895282434208e-02,3.557356201350513752e-02,1.777585838396305018e-01,1.568225383758544922e+00
4.697029063516805492e-02,-7.170473940115873468e-01,-7.135678345945124512e-01,-2.012646177675379150e-02,-2.657021682323799754e-03,3.272613939536784915e-03,7.631154656410217285e-01
3.588362359065601637e-01,-7.658104210419800495e-01,-7.906585524766448492e-01,5.421844808649885217e-03,6.928964320962524917e-03,6.819825136510251733e-04,1.137377023696899414e+00
3.047459245044187304e-01,-7.687764744517414650e-01,-7.735936323507691670e-01,-2.010109468230794616e-02,-1.550265551290712189e-02,-6.414966996050414593e-05,1.076837062835693359e+00
3.347348090294247624e-01,-7.131477523721811984e-01,-8.113216568589511901e-01,-2.853708322337510442e-02,-5.466847845441394783e-04,6.559937040900650114e-04,1.101370096206665039e+00
3.661661158585965414e-01,-7.728052599152859248e-01,-7.889850637561000024e-01,-3.974275150134352202e-03,-4.726233047535584667e-03,9.003962013159956968e-04,1.147197723388671875e+00
2.136914934190671245e-01,-7.613789152394843107e-01,-7.526782369165418984e-01,-5.438470075023219344e-03,1.189454144784193694e-02,3.652972376456053820e-03,9.710342288017272949e-01
2.135637040236720852e-02,-7.326030101558189678e-01,-7.404384059461401879e-01,4.107222517191076207e-03,-1.094020294520904775e-02,-3.331304317174868523e-02,7.603700757026672363e-01
3.455898533859338428e-01,-7.857317518263604583e-01,-7.850581426369938054e-01,-3.253162280721171116e-03,7.698911620846148052e-03,-4.363012266890310513e-03,1.131102800369262695e+00
3.664148793215791233e-01,-7.706145164415467708e-01,-7.663477663207993729e-01,5.691394823051460113e-03,6.211385219788187039e-04,1.787841926668303372e-03,1.134949564933776855e+00
3.039652622977370711e-01,-8.536558710362700531e-01,-8.046689801224389260e-01,4.836001534365706039e-02,9.751201196911734453e-03,-1.771771207066907133e-02,1.137550592422485352e+00
3.168805246133387654e-01,-6.361732458028894754e-01,-7.809400565357215163e-01,-5.761711416168657784e-03,-4.217905308647252813e-03,1.539600182784922958e-02,1.033490896224975586e+00
3.584416482685056082e-01,-8.297893198419221683e-01,-7.106252374210653144e-01,-7.055872943993730766e-03,1.844612121789386203e-02,9.424234035350499521e-04,1.133874416351318359e+00
3.354950311191824408e-01,-7.104876972877061103e-01,-7.258578070406898064e-01,-1.480248891724236619e-02,5.316021845419160877e-04,1.081018196798901460e-01,1.070564866065979004e+00
3.268908494473785065e-01,-5.636655189215744599e-01,-8.498505995981044947e-01,3.383212243986825907e-02,1.129243626405758080e-02,2.453888939817668383e-02,1.065588712692260742e+00
3.283819234723759362e-01,-5.573702622810126073e-01,-8.501941645933144276e-01,2.371167888553123420e-03,7.809896288277660623e-03,6.194957638078289058e-02,1.068356394767761230e+00
3.247014661084536846e-01,-7.122709672114062585e-01,-7.176041076973402877e-01,1.071848365074003738e-02,1.965738711117404058e-02,6.335032574842008879e-02,1.046142578125000000e+00
3.605717840288998888e-01,-7.787828034526773635e-01,-7.788660329181305020e-01,-3.833841720157808112e-03,-1.327468008520528734e-03,1.604132131083967766e-03,1.139421224594116211e+00
3.702669011319829062e-01,-7.708104032712626008e-01,-7.834314213177641095e-01,-5.940142724831842802e-03,7.963624125308425838e-03,1.380703369985099738e-04,1.147568941116333008e+00
3.634930039650096645e-01,-7.667968515553239550e-01,-7.611436439903948026e-01,1.199084238948106311e-03,6.242372610980477521e-03,-3.009592562982049387e-04,1.127527713775634766e+00
3.602766465592421308e-01,-7.603997694230635318e-01,-7.613080332271670025e-01,-7.865601526010453787e-03,6.721772367699207877e-03,-4.848186302440110379e-04,1.121274352073669434e+00
3.472164179607099554e-01,-7.501111772543116452e-01,-7.429120392821982888e-01,-8.282405958925867159e-03,-1.018234716655379160e-03,-1.228228023322479150e-02,1.094048142433166504e+00
3.601719151150953313e-01,-7.687946249864303638e-01,-7.545291856944730258e-01,-1.013852527606548190e-02,1.137712266371180593e-02,-5.593631755462106017e-03,1.122254133224487305e+00
3.762265517882378285e-01,-6.820583530059718402e-01,-8.472207989112572335e-01,4.386555132710277111e-04,1.324904084288565723e-02,-3.077507867403940153e-02,1.151261448860168457e+00
3.470769310295115928e-01,-6.805641852852870599e-01,-8.049989983927089421e-01,-2.834478397456389326e-02,1.851022235541983571e-02,-2.659490940166666165e-02,1.097708821296691895e+00
3.543205401555605261e-01,-7.868868102596920933e-01,-7.549419980896165949e-01,-9.514512943462435923e-03,7.971526273390218062e-03,-7.507358674959120279e-03,1.125855326652526855e+00
3.782574647747354302e-01,-6.996821775323474046e-01,-8.395321836629465739e-01,-1.313723737064259600e-02,-6.757958555718359892e-03,-4.578592071646321940e-03,1.154547333717346191e+00
3.554652262063954238e-01,-7.920981834317295522e-01,-7.315425104014506852e-01,1.246666576196422266e-02,-1.101760311055155310e-02,-5.389243724885597886e-03,1.118925809860229492e+00
3.481918055766431430e-01,-7.594711872472403869e-01,-7.353686260123841745e-01,4.032928895605374792e-02,-3.662705383768419254e-02,-7.852233525731769359e-02,1.108242750167846680e+00
2.880193806998873618e-01,-7.776597808333669537e-01,-7.738898098969020367e-01,-3.659975024416917827e-02,2.626142882240764184e-02,1.115510781742681812e-02,1.066831588745117188e+00
3.305024205030500095e-01,-5.099986271865243337e-01,-8.942119639342990256e-01,2.314538663066179058e-02,3.259603207107249125e-03,-2.195451013821510516e-03,1.085655093193054199e+00
4.066134131734385759e-01,-5.714755260096726630e-01,-9.336195000457777615e-01,1.221376069278047594e-01,-3.078704234038897800e-02,-4.557111514367043759e-01,1.453488707542419434e+00
3.285237563149250861e-01,-6.198066950725014124e-01,-7.982040648211581324e-01,4.823770292851720098e-03,-7.293465817746464137e-03,-6.782737595751472948e-02,1.055635809898376465e+00
3.736928579850103405e-01,-7.807681052739661176e-01,-7.790021103032689354e-01,-2.794930441905361419e-03,4.804226626378264343e-04,5.943641987016564775e-04,1.153589844703674316e+00
3.731648479208121150e-01,-7.803963683299370846e-01,-7.779222465863487868e-01,-2.793876522180327015e-03,4.802208693411071918e-04,-2.302148378348830573e-04,1.152336716651916504e+00
3.746667614812125846e-01,-7.778731060905526018e-01,-7.779079004264394248e-01,3.085028303224941326e-04,1.309615274302580951e-03,1.310561078656821959e-03,1.152561902999877930e+00
3.705547241458971852e-01,-7.760300518867857544e-01,-7.807566770091722841e-01,-5.484205983542182620e-04,2.713893867122273498e-03,9.295760986681485131e-04,1.148966550827026367e+00
3.582178209078183961e-01,-7.518110520786400741e-01,-7.699829022583127847e-01,-3.227284595553473259e-03,1.393899159202723927e-02,-1.961876477238020527e-02,1.120015382766723633e+00
3.734773814082821275e-01,-7.786832978392912441e-01,-7.810752697082194995e-01,-5.011016469461963743e-04,2.825193486549293191e-03,8.310042095553765110e-04,1.153370141983032227e+00
3.745611176843481882e-01,-7.660534426506862005e-01,-7.948282309032356219e-01,-8.508962946416429723e-03,8.469996882973566260e-03,-9.041157734031942186e-03,1.155563950538635254e+00
3.652206407495130480e-01,-7.804253833093237613e-01,-7.749016596884537034e-01,-3.069244675355643423e-03,2.100806975792600135e-03,-1.490501326507196909e-03,1.142915248870849609e+00
3.499275085854453571e-01,-7.049891458371979613e-01,-7.742494454981088126e-01,-9.347360624547752794e-03,-1.654224766260472060e-02,4.324919492687667733e-02,1.094259858131408691e+00
2.436011875475551092e-01,-9.054359750263952789e-01,-3.597417347953600353e-01,-6.932755478851163056e-02,1.602509611531901385e-02,2.869504422051359915e-01,1.119489431381225586e+00
2.656981584110779115e-01,-7.951661422446751892e-01,-7.236487765587154009e-01,3.927564099360555949e-02,-8.657332197950966604e-03,1.274225949526159862e-01,1.052729606628417969e+00
3.508703649028204752e-01,-1.223675528842435023e+00,-2.891847661464850838e-01,-1.972618644101238258e-02,-1.569708082081864783e-02,-2.108767307932449819e-01,1.419993877410888672e+00
3.736826369045323504e-01,-8.104867110763979143e-01,-7.221415574440591678e-01,-1.689944039851956278e-02,-1.050347095168831409e-02,3.515052946287046398e-02,1.144701123237609863e+00
6.842808683434271622e-01,-7.208393568317825739e-01,-9.362924580149214471e-01,4.432806856581760629e-02,5.402152791470869742e-02,5.079327344963937563e-01,1.764130711555480957e+00
3.478334628684400243e-01,-8.224352306705013937e-01,-6.729295154290478864e-01,-3.226534025437077097e-02,-1.344956798216452587e-02,2.973397350048929272e-02,1.106000542640686035e+00
3.612460484966766305e-01,-7.719204038437130766e-01,-7.899434936634535109e-01,2.898263520751003831e-03,4.747720340900375290e-04,2.062813729694848528e-03,1.142301559448242188e+00
3.534411557203458454e-01,-7.790121084448546895e-01,-7.821744547512763379e-01,-4.543394276130615847e-03,-1.855570008485723805e-03,2.541337140871108031e-03,1.134078145027160645e+00
3.596691243279138694e-01,-7.757570444740191640e-01,-7.855919831763558125e-01,-2.341568451451457849e-03,3.031373956555165339e-03,5.247548013917320521e-04,1.140395164489746094e+00
3.659777889444137400e-01,-7.733025368088668472e-01,-7.869375152932959194e-01,2.172935952778392178e-03,1.338124658697891585e-03,2.406105527177548973e-03,1.146174788475036621e+00
3.580198963056921424e-01,-7.896705092863041120e-01,-7.763459139384183416e-01,3.080688308813586077e-03,5.566561740351618805e-03,-5.207635982083681260e-03,1.141175270080566406e+00
3.539441525002273714e-01,-7.738518870389468063e-01,-7.847358258851329094e-01,3.839212516590906604e-03,3.025524474264022073e-03,1.593297587999384021e-03,1.133312225341796875e+00
3.541499147278615589e-01,-7.204483373326386886e-01,-8.030602037516294534e-01,-1.416711048315012766e-02,1.068930855923176659e-02,-5.158692996173491231e-03,1.118653416633605957e+00
3.168850291785783035e-01,-7.870966209827712223e-01,-6.266206585042735089e-01,6.266628936172529904e-03,4.334619334323209150e-04,1.806186099568739267e-02,1.033664584159851074e+00
3.686691786646367763e-01,-5.952549862509219913e-01,-9.241845314245307197e-01,7.144824546779481034e-02,-6.503020515726037377e-03,4.611468307908598852e-01,1.416975021362304688e+00
2.713590959898675714e-01,-6.265480040135797957e-01,-6.008315451077719249e-01,5.617983675278371419e-02,5.075304232638230828e-02,3.638840659550695578e-01,1.094640851020812988e+00
3.111317079413906117e-01,-8.472778099959916709e-01,-5.397632642899252708e-01,-5.202492803538168696e-03,-1.384443653659253853e-03,-1.651482234765266899e-02,1.039786100387573242e+00
3.117630806261423304e-01,-7.850191835271543850e-01,-6.056544041606337636e-01,-5.216129226370913672e-04,-5.307218954804487909e-03,-4.715977716903213546e-02,1.022319078445434570e+00
3.691627347226136835e-01,-7.079464065697277375e-01,-9.045345337479013814e-01,9.058855521443287540e-02,5.049653597244328947e-03,6.207617411635259208e-02,1.202835679054260254e+00
2.322006273304091373e-01,-8.632019305645897145e-01,-3.807661168481385472e-01,-1.287740866864654776e-02,-1.550995967224159597e-02,-2.564942386208651226e-01,1.050131797790527344e+00
4.614981454186311005e-01,-1.196214716608301476e+00,-2.912780886286689963e-01,8.019819687758229787e-02,8.991148585617134148e-02,-2.886523593716693314e-01,1.536328434944152832e+00
3.322248569983811128e-01,-8.615117154118804299e-01,-5.474899274446139996e-01,-3.644366702939825717e-03,-1.443803339926266228e-02,7.608113439415933876e-02,1.080179452896118164e+00
3.907168049439982416e-01,-1.083964414560723899e+00,-2.168309403783442169e-01,-6.784496589805010490e-03,3.937132723135569612e-02,1.178636389143397356e-01,1.301661849021911621e+00
3.321496545918289911e-01,-2.087217525717506295e-01,-1.054750127500309942e+00,-3.223489376517315458e-02,-2.844982954659813074e-02,7.029116542276542257e-02,1.219125270843505859e+00
3.332941826696382837e-01,-7.872539755194994937e-01,-7.770540184044401055e-01,-9.621082460090043739e-03,-2.409652030117825743e-03,2.933499889854580649e-03,1.115627050399780273e+00
3.339796544914548360e-01,-8.549586285123795815e-01,-5.991473876374993068e-01,-8.989825127879194980e-03,-6.471071448588496325e-03,-4.932806471112419211e-02,1.087445497512817383e+00
3.370238862801298030e-01,-8.474861339821750938e-01,-6.148504797199474403e-01,-1.913775220513243779e-04,-6.893322720189844731e-03,-1.272695295534171864e-02,1.087314367294311523e+00
2.685859702259271731e-01,-9.110211721139078733e-01,-3.646973598449912424e-01,1.683083310209164060e-02,-5.721710629892542976e-02,2.888050959720641075e-01,1.142974853515625000e+00
4.933392675930868831e-01,-1.284593623280533059e+00,-4.850357887798644185e-01,1.995866757345418629e-02,2.181139787983579076e-02,2.311757173156505085e-01,1.594279408454895020e+00
4.507060790355832403e-02,-8.816783343200820244e-01,-4.628788610784092539e-01,3.030565582391107210e-02,-1.356708583734543387e-02,1.776055196278918114e-01,8.625968098640441895e-01
3.828571657978562803e-01,-7.983279896010517795e-01,-7.202143789983859179e-01,3.264064059353936204e-02,4.264449058816086741e-02,8.296165128420245061e-02,1.156863570213317871e+00
3.620692177689867619e-01,-8.310675594737098049e-01,-6.867884413754243855e-01,4.590101458989680541e-03,-1.447210669485190886e-02,-7.776649897874038202e-03,1.128326177597045898e+00
3.209202699014039872e-01,-8.521737251023908666e-01,-5.525763167072327287e-01,-1.706909387344392615e-03,-9.180650715257589536e-03,3.396843593243336484e-02,1.057438135147094727e+00
4.239745589963904160e-01,-1.092745402394414977e+00,-2.993624919538592222e-01,2.136545611603536329e-02,-6.903173982758524507e-02,-9.679273153673136065e-02,1.330536842346191406e+00
5.251409980667964827e-01,-9.379433987173535492e-01,-4.589385461577876191e-01,-1.736802837598089289e-02,-4.696706946531506097e-03,-2.796491058648041816e-01,1.380151867866516113e+00
3.882562647412217127e-01,-8.008155967393699726e-01,-4.864579912605176970e-01,-1.568224353974450507e-04,1.570011378136612623e-02,-4.271943566146216842e-01,1.298900842666625977e+00
3.135308479808021076e-01,-8.313432932759392546e-01,-5.150491364538201111e-01,1.723852893959388136e-02,-3.827321315824157300e-02,-1.095941576529408240e-01,1.044021248817443848e+00
3.826966509030281793e-01,-4.635473194614849191e-01,-9.716538900112128285e-01,2.448338769055823441e-02,8.962825538690578908e-03,-6.678025365684099601e-02,1.191512227058410645e+00
2.897530237055246927e-01,-8.857711195527445680e-01,-4.237846175603031673e-01,-1.128808653898169360e-02,-1.475529154426406635e-02,-6.322794872455539394e-02,1.032105088233947754e+00
4.828070852584396278e-01,-8.571550530732795492e-01,-6.643544991473218086e-01,1.755951144622188570e-02,9.848369909391128940e-02,-4.957443301078465758e-01,1.530240058898925781e+00
4.597784695304916736e-01,-2.504338707022608634e-01,-1.458473377488614053e+00,-1.297192877892144325e-01,1.427357044156663812e-01,3.838269337003021725e-02,1.713985681533813477e+00
2.260364773817030160e-01,-9.928333366605839316e-01,-3.238807134069721094e-01,9.378599874583712359e-02,1.976532796520304516e-02,-2.323535258485474320e-01,1.143371820449829102e+00
3.610366253015028781e-01,-7.421960074583413558e-01,-7.584537571695391112e-01,-3.055450699013704044e-02,3.981201774332004256e-02,-5.205417514931344469e-02,1.118484377861022949e+00
3.673409918008508357e-01,-6.799602111423490580e-01,-8.230258561990224653e-01,-2.384774434582263847e-02,3.104472058328354434e-02,-5.997142086556115498e-02,1.132487297058105469e+00
3.008068031501908712e-01,-7.780863189890205867e-01,-7.703077000799805063e-01,-1.442270268645289661e-03,-1.386526403842036799e-02,-5.566195423124099470e-03,1.075339198112487793e+00
3.044514067850409011e-01,-7.706507424530948391e-01,-7.662291830981732277e-01,-5.897142813777202924e-03,1.967847426488036552e-02,-2.239203152122875001e-03,1.073495030403137207e+00
1.112058941143670987e-01,-7.346541959315052717e-01,-7.226718289475774215e-01,3.039042943696804167e-02,-2.066694266987312463e-03,7.722070978053831650e-04,8.415894508361816406e-01
3.678765104109083528e-01,-7.796649206841508306e-01,-7.797190171275329984e-01,-2.209946897224944961e-04,1.428534770700825608e-03,-2.809743621208264479e-03,1.147581577301025391e+00
3.305109235194010342e-01,-7.827833051249963869e-01,-7.704905068653682410e-01,1.206687346466740751e-02,1.113011271773015932e-02,-8.987543046013400086e-04,1.107565164566040039e+00
3.536553063083721082e-01,-8.442791255614219281e-01,-6.465847016906277611e-01,-5.952783481450684561e-03,-3.392675383024097713e-02,1.861400655278734606e-02,1.114407420158386230e+00
-2.585781957518934471e-02,-7.264002450922392162e-01,-8.217524988681679243e-01,1.591875953857513348e-02,-1.087734214852187770e-01,-3.705271756406262884e-02,7.791174054145812988e-01
3.569884324991777214e-01,-7.983612224726146511e-01,-7.657937792162390345e-01,6.771838522108010981e-03,-1.132325284986334356e-02,3.907944977352575608e-03,1.139664292335510254e+00
3.471424739508334190e-01,-8.316072058566308378e-01,-6.465486669582183321e-01,-1.115079371329195761e-02,-3.388437446925944563e-02,1.494113438084023089e-02,1.100021362304687500e+00
2.068776758734267585e-01,-7.597565998073725346e-01,-7.345092489061870733e-01,-1.348296483430550495e-02,-3.227996122806547387e-03,-2.996727452779692283e-02,9.559733271598815918e-01
3.543194209731621025e-01,-7.432429230905482909e-01,-7.712991152932309191e-01,-1.527094642113103681e-02,-1.462152399458816268e-02,7.220968967244919060e-03,1.112529158592224121e+00
3.906490063427018877e-01,-6.304734179966666741e-01,-7.957297886750085425e-01,3.000688764021974472e-02,1.391476259195767624e-02,-2.173527033239864570e-01,1.176331758499145508e+00
3.572404370349455682e-01,-6.957507002262854900e-01,-8.172748722606189009e-01,1.147292911337613464e-02,-1.901904655313098758e-03,-2.074671082396602282e-03,1.118901729583740234e+00
2.583482729967042646e-01,-9.142151639451595591e-01,-4.581471966468753099e-01,2.079737623787347202e-03,1.125783003511056091e-01,-1.560200229875804145e-01,1.076659560203552246e+00
3.621306623142646619e-01,-7.210016136817394283e-01,-8.467359973667960560e-01,-4.138608353681890416e-03,9.614802643117006898e-04,-2.043335662399721475e-02,1.151728391647338867e+00
2.484594599303060480e-01,-5.850855512521346835e-01,-7.264929805028154108e-01,-9.108717957323109182e-02,5.071854391240394194e-02,-2.763555486489894797e-01,1.046129822731018066e+00
3.448796874804535562e-01,-6.704625137730553242e-01,-8.036957769921801997e-01,-4.160256655904175788e-02,4.700851851412685828e-02,-8.815788150948197788e-02,1.104122042655944824e+00
3.216637085729866508e-01,-5.500679985811153250e-01,-8.728560484217930959e-01,-6.514613564877781704e-02,-1.058882451147887677e-02,-1.143445370693480651e-01,1.094433784484863281e+00
3.537067132654829749e-01,-7.311609657327114986e-01,-9.001674571511022460e-01,-4.068377069174715366e-02,-2.217685104271999511e-02,-7.613572591511602594e-02,1.188562870025634766e+00
3.552782536069303276e-01,-7.548088896132636449e-01,-7.840854412087576719e-01,-5.057067981776321858e-03,-8.861872828784752437e-03,9.232767735607629728e-03,1.125263571739196777e+00
3.466492878639325648e-01,-7.855383852481926388e-01,-6.985930343299391332e-01,2.118585609330113362e-02,1.839456907948627817e-02,9.158490085187140362e-03,1.092512369155883789e+00
3.493788943605735664e-01,-7.744652183494217246e-01,-7.259828287464502594e-01,2.255832616318428560e-02,9.159560771084450381e-03,5.239678071481437827e-02,1.104945302009582520e+00
3.591610978742718063e-01,-5.536369165070327281e-01,-9.259239586879697281e-01,-2.341986469887433545e-02,-3.410977878910359529e-02,5.087589168854601829e-02,1.150878667831420898e+00
4.374573718264115341e-01,-7.139321246896146445e-01,-6.770758354403584311e-01,-5.486811523561985725e-03,-1.609769227418358234e-02,3.346265471227885535e-01,1.273347020149230957e+00
3.298157340228608514e-01,-7.159756008712281350e-01,-7.326967706997969954e-01,7.067202120274625188e-03,4.427194718543922894e-03,7.948757103598524942e-02,1.063301205635070801e+00
3.285232259479580197e-01,-7.625321098435015044e-01,-6.752623898405758496e-01,2.879337009971621661e-03,5.367438796514590812e-03,3.650661965351693905e-02,1.052098512649536133e+00
3.814700059143911193e-01,-8.690110306675655760e-01,-5.563559995868585517e-01,4.612776803038454165e-02,9.947410721783520038e-02,1.207476112535781493e-01,1.162022113800048828e+00
3.556078068349255994e-01,-8.669277746960243336e-01,-6.850773112918124852e-01,2.162681441958507617e-02,6.067656894148644453e-02,1.342612244535241750e-01,1.171268701553344727e+00
4.220887189201742995e-01,-9.789103408428818653e-01,-5.868868272797107544e-01,-1.659482050513168966e-02,3.726603733781273797e-02,5.017294053184820912e-01,1.525596857070922852e+00
3.589879141025298925e-01,-8.333222525306792638e-01,-6.992103928204691510e-01,1.885520692680040314e-02,-6.544116031176888670e-02,-2.464746463393452727e-02,1.138166666030883789e+00
1.876091350000031466e-01,-8.387761669336046833e-01,-4.792069894595938351e-01,-7.159487387093953215e-02,-1.146970577067036035e-01,2.708799197689443217e-01,1.043394327163696289e+00
3.656137902642905280e-01,-8.304053879256986237e-01,-7.027969750358618040e-01,9.043396440568103253e-03,6.655669847436699281e-03,-4.444399791241458557e-03,1.137787818908691406e+00
3.292913321108903446e-01,-7.805996911443311426e-01,-7.751297923235238585e-01,1.593798845055345147e-03,-6.641235189527198296e-03,1.801419684937442226e-04,1.107229471206665039e+00
4.658209233852027009e-01,-1.202140517158193589e+00,-2.778535525452713317e-01,9.530532044783476819e-03,-2.145090303256395534e-02,3.680321407123026550e-02,1.449290513992309570e+00
2.669444738192384148e-01,-1.018114660672151395e+00,-2.735758213396732308e-01,-2.337992911512325189e-02,3.296944171045398941e-02,7.666554792795636508e-02,1.127595782279968262e+00
3.409891905132212409e-01,-5.319976660636638321e-01,-8.933204356909674182e-01,-2.998546089215256213e-02,7.695408419932878337e-03,-1.814654840550119011e-02,1.100887417793273926e+00
3.518090042607845414e-01,-9.979542994606401818e-01,-5.382316833275796464e-01,-1.437909947493885010e-01,-8.752520082005291191e-03,3.916688163534735589e-01,1.391100287437438965e+00
9.263098828313803823e-02,-1.046443235762583246e+00,-3.993096966288558480e-01,-2.318044917363890622e-01,3.464067609690056181e-03,1.266916638750483770e-01,1.090195894241333008e+00
3.439375809189751942e-01,-7.241747569797439832e-01,-7.601812094892569371e-01,9.867670687216365671e-03,1.473289972610716120e-02,6.584110135007430371e-03,1.087056875228881836e+00
3.215978234213180409e-01,-7.177878882116124348e-01,-7.273790238065446223e-01,3.805849808286999869e-03,3.479059955257993858e-03,2.305746611206578589e-02,1.045015931129455566e+00
3.045122037721750829e-01,-7.936228090374122246e-01,-5.840944527825703281e-01,-1.029197099366290294e-02,-1.018197613481896732e-02,5.503185633397670445e-02,1.014606595039367676e+00
3.737018694065815660e-01,-7.551514416354965231e-01,-7.475752061453261321e-01,9.631965053669769294e-03,1.447469846582353364e-02,6.998809109589837485e-02,1.131996750831604004e+00
3.129621664409979465e-01,-7.033313041319726455e-01,-7.215002197586484201e-01,3.770045296264943648e-04,1.673544823688584036e-03,-1.533970512091905290e-02,1.025847077369689941e+00
3.157662570642039701e-01,-7.256477577120294953e-01,-7.009337441762379939e-01,2.292510154078807646e-03,-2.895873093240880058e-03,-1.417951683729587117e-02,1.029592394828796387e+00
3.163719998135509082e-01,-7.188952557437393587e-01,-7.136326138351791748e-01,4.111738877589980051e-03,-2.424122998132019978e-04,-4.958995113135381168e-03,1.032706379890441895e+00
3.114877186303137147e-01,-7.021293539819497553e-01,-7.190844466561505666e-01,8.745065705600718912e-04,-1.343833622213563665e-03,-1.611832340204301384e-02,1.022585034370422363e+00
3.237248310355406722e-01,-7.217720424605144069e-01,-7.260950249489586117e-01,5.086544815809876385e-03,-5.175127969456851454e-03,-2.808180369028873396e-03,1.047751784324645996e+00
3.243539222976469794e-01,-8.129862036860314722e-01,-5.868893911681601905e-01,-1.354369623965548733e-02,1.511792524402549680e-02,-8.348917006430030263e-02,1.053404331207275391e+00
3.188296643647614559e-01,-7.463402512426654534e-01,-6.875178851355697729e-01,-5.912353918428528074e-03,-8.056683886813077863e-04,-1.051051528820339670e-02,1.037222027778625488e+00
3.172328494721729508e-01,-7.255344837140262904e-01,-7.128728410048150721e-01,-6.988685914948321223e-04,-4.223830646010266472e-04,-5.823654291122718103e-03,1.036544561386108398e+00
3.436013322824565952e-01,-6.188494622030052961e-01,-8.497783395961890918e-01,8.543791309146266111e-03,6.393555918940509175e-03,-1.500730712745384013e-02,1.096774697303771973e+00
3.046673174527183003e-01,-6.540595260610846395e-01,-7.411751386109932671e-01,2.163859862122536357e-04,-8.527049969225189777e-03,-3.344080069465988486e-02,1.006896018981933594e+00
4.151852840330167993e-01,-8.366444953762129932e-01,-7.676083249013738730e-01,-4.551915686101046243e-02,6.008195388403209103e-02,-1.395956546868393766e-01,1.249371290206909180e+00
3.820855732622373546e-01,-7.474986860334769112e-01,-8.467648294730876213e-01,-3.201297213550347714e-02,-2.205554725067433719e-02,-1.231443907366061713e-01,1.203316807746887207e+00
3.514889156564228179e-01,-6.286603479220568280e-01,-8.103771939770592070e-01,-9.274058139483322416e-03,2.797193658419423485e-03,-8.369432276239990864e-02,1.092299818992614746e+00
3.493438854583089115e-01,-7.017734937446666876e-01,-7.864423569605412112e-01,-2.189902791197300552e-02,1.883122383038163955e-02,-8.963095603185712232e-03,1.097158670425415039e+00
3.604345253071436495e-01,-7.513518793446172239e-01,-8.000561800073324736e-01,-4.145409202677243984e-03,7.419397573868027418e-04,6.754260349346698049e-03,1.137004852294921875e+00
2.649606225381311297e-01,-7.637721700752608811e-01,-7.679840863824287656e-01,9.200606819345098775e-03,-4.955912081168016570e-03,-1.368726469619524488e-03,1.031006813049316406e+00
4.248493744233006186e-02,-5.612686363614143303e-01,-7.617508528537326740e-01,5.184033612700252730e-02,4.626695319067475679e-03,-2.043222823570925717e-01,8.118636608123779297e-01
3.472991192307393060e-01,-7.831211217428760696e-01,-7.556287135292755197e-01,1.230347713514116925e-02,5.609333761951539390e-03,3.908917876060522337e-03,1.117193818092346191e+00
3.359993589826240079e-01,-8.954191873204764285e-01,-6.088696334072236649e-01,4.756966913523458934e-02,9.247796640601211801e-03,3.155767982877846212e-01,1.245572686195373535e+00
3.624935184842149050e-01,-7.580915119226507848e-01,-7.364358230879450851e-01,3.200633927991382299e-02,2.906439699122696785e-02,6.696085716393744558e-02,1.118468403816223145e+00
3.500727254965434465e-01,-7.747980129218726697e-01,-7.755433578014105933e-01,-6.990657497720265991e-03,-6.361910310884229085e-03,3.850193144576465618e-04,1.125362873077392578e+00
3.775029859053520842e-01,-8.004164435007348199e-01,-7.093622506974508468e-01,1.860401582513886154e-02,2.181548785617427183e-02,1.043500977086364856e-01,1.150505781173706055e+00
3.389461228522298031e-01,-7.486647701102645547e-01,-7.256646671093822665e-01,8.749275027876443275e-03,1.191600227180271421e-02,2.230046960739633793e-02,1.077292323112487793e+00
3.524478896361397107e-01,-5.603147981322786908e-01,-8.378464572964332557e-01,6.824870316217096500e-02,4.873579689991110186e-02,1.542563984044728886e-01,1.120698213577270508e+00
2.155888952201144848e-01,-6.685644880707830584e-01,-9.296873541439407695e-01,6.005413789018472503e-02,-1.876170737769330965e-01,2.181675278818759056e-01,1.157582044601440430e+00
3.733219591157473927e-01,-8.635931400794540913e-01,-6.169987360406177235e-01,1.505130084974160704e-02,-3.158768998134447222e-03,1.380284008687267527e-01,1.159144759178161621e+00
1.905652950478539109e-01,-9.444604941056838898e-01,-7.543272370839857466e-01,9.698531607800607579e-02,-4.553954517298886701e-02,1.670860767903750710e-01,1.107619643211364746e+00
3.224953843279710353e-01,-7.921571118104082654e-01,-5.872949707627325155e-01,1.604286029567457070e-02,1.200622126534169574e-02,1.157425674307165780e-01,1.047598242759704590e+00
3.217761016298222310e-01,-5.087550620659362366e-01,-8.848261648348267894e-01,-2.457938202266923139e-02,1.078640417471612252e-03,-3.191810337489322386e-02,1.071644783020019531e+00
2.919390406123278381e-01,-7.976748250676721774e-01,-7.830553780333495695e-01,-4.462249114910611138e-03,1.708050881002848645e-02,1.229318306633025906e-03,1.082812070846557617e+00
3.534432552941197958e-01,-7.519181454975724099e-01,-7.566746245237532253e-01,-6.964494094793245195e-03,-1.164780871262779960e-02,3.991593672327381145e-03,1.108018279075622559e+00
3.794853238629250503e-01,-7.657847551157955790e-01,-7.927041004289818726e-01,-7.049324634880888008e-02,-8.891110057646688103e-02,1.392436321204460759e-01,1.199994921684265137e+00
3.253706790374010782e-01,-7.708707527790122915e-01,-7.701300679440107322e-01,1.074266932527355098e-02,1.108810437037049609e-02,2.971617711652873098e-03,1.096209526062011719e+00
2.666547154924486240e-01,-7.636344377539359130e-01,-7.885994269800981060e-01,7.730608524696444550e-02,-1.580508418941319743e-02,2.584814341683813396e-02,1.052863955497741699e+00
4.945823316305286710e-02,-7.736706264143633494e-01,-8.250400196950653520e-01,8.988273477134067768e-02,2.436594314637750142e-02,-1.247083183595484868e-02,8.654177784919738770e-01
2.921370739100809799e-01,-7.642960370248286228e-01,-7.700394355830908477e-01,3.801567259441537752e-03,1.182539814695201304e-03,4.077997376172190491e-03,1.059362530708312988e+00
3.619958653150590067e-01,-7.790588789528363201e-01,-7.835717528092090989e-01,-1.177484166907683330e-02,-6.871773741736829366e-03,2.566445257742808964e-03,1.143570303916931152e+00
3.126445525625779487e-01,-5.288884199583636647e-01,-8.692095143867001328e-01,6.988726655248231334e-03,9.060957498221515818e-03,-1.195124667699857743e-02,1.054138898849487305e+00
3.668001994163334611e-01,-7.886857266980655812e-01,-7.727454934023647581e-01,5.011716178980218060e-03,4.705451084636791750e-03,9.393174726382527056e-04,1.147661805152893066e+00
3.286381219939354392e-01,-7.842686937222507204e-01,-7.751977770792868316e-01,4.689066711756848319e-03,-6.711007532489554790e-03,-1.587465687784989261e-03,1.108493328094482422e+00
3.691532338381273148e-01,-7.842472513616410845e-01,-7.790926750268216683e-01,4.271583342704506937e-03,-2.588242142122352662e-03,7.075968665668447635e-04,1.150865077972412109e+00
3.614527485149415242e-01,-7.904875333501180101e-01,-7.711826907630328076e-01,-4.813555399516582971e-04,4.413392547442722587e-03,8.042748932571410023e-04,1.142436981201171875e+00
3.547324097149562316e-01,-7.355513199144495529e-01,-7.725067313347344644e-01,5.959103556622262488e-02,-1.789570813671034072e-02,-2.228121307853495048e-01,1.179375290870666504e+00
3.173081572506917802e-01,-7.523355023611172365e-01,-6.762560123487983965e-01,-4.102390881260603583e-03,9.553270517685835163e-04,1.913348009386211385e-02,1.034262657165527344e+00
3.527104824680147854e-01,-7.700436416189322397e-01,-7.321744768107302237e-01,-9.535964891032191679e-03,4.554636100473354390e-03,6.326286346209665512e-03,1.104512691497802734e+00
3.697251617844632965e-01,-8.025680641902095402e-01,-7.388179201885973768e-01,-1.585119699222201431e-02,-2.095111029965402577e-02,2.774208969294741055e-03,1.142670273780822754e+00
3.212745225901635360e-01,-7.534294167889956650e-01,-6.783188814533889222e-01,-1.194321703325664126e-02,1.859887251034542284e-03,2.254621455922646914e-02,1.040130734443664551e+00
3.400956430108049156e-01,-7.035946334864220386e-01,-7.677652784885644621e-01,-2.542529182328564976e-03,-1.689266057384151629e-02,3.870630093678635586e-02,1.079699754714965820e+00
3.460366130626705838e-01,-7.292010476045711620e-01,-7.582548908841841850e-01,-8.422097689129067963e-03,-1.234850066884485113e-02,5.377833988188039475e-03,1.090402245521545410e+00
1.995994767557989769e-01,-8.874507255025136931e-01,-7.467583660072854013e-01,1.233909068121324532e-01,9.187673190913335508e-02,-1.756371543924803713e-01,1.100944161415100098e+00
4.032586625636262467e-01,-7.944518543288202617e-01,-7.777009841313459182e-01,-4.137849791314567038e-02,5.738240085807842783e-02,-1.444933189084231517e-01,1.221629261970520020e+00
3.664308089990663264e-01,-7.918281187329605508e-01,-7.607455354445675777e-01,-1.128683698977716969e-02,7.038804200498805994e-03,-5.983727946484765879e-03,1.143313765525817871e+00
3.797114538219935609e-01,-9.176633643347985592e-01,-6.820870576829178855e-01,2.435734034519081766e-03,6.093902542762774655e-02,-1.237575616537593421e-03,1.201752901077270508e+00
3.864408591696876227e-01,-8.427900909838994536e-01,-7.025419312925538229e-01,-1.044536258455404723e-02,1.565937740089019467e-02,-2.501056339118524000e-02,1.166713476181030273e+00
3.525380136486079841e-01,-8.115704446580109810e-01,-6.834197870080567228e-01,-1.610598142246728176e-02,3.377180945224092512e-02,-2.496528735192076257e-02,1.108358860015869141e+00
3.415573842004932525e-01,-7.823969192106796644e-01,-6.985581622445191652e-01,-2.242341094666513296e-02,3.007977534720362306e-02,-8.280956657892668202e-03,1.086508035659790039e+00
3.521022329812280027e-01,-8.046171637861767589e-01,-7.215866117335079100e-01,3.214283395336713089e-03,1.713671706492355534e-02,8.272761536985385415e-04,1.117928862571716309e+00
3.355757506595489215e-01,-7.816915292465849152e-01,-7.811558209601667802e-01,1.512324165983565871e-03,1.136654686561719592e-02,-3.211303185780822571e-03,1.117189884185791016e+00
3.321006933619762846e-01,-7.924995676631281238e-01,-7.662959476113184731e-01,3.404481461610072562e-02,1.741199840518763663e-03,1.199901151506325113e-02,1.113490939140319824e+00
1.963730793485738424e-01,-7.518812991388272859e-01,-7.484998684375948619e-01,-3.432205189559937170e-02,-8.883849709125739985e-03,8.231238952673983200e-03,9.486650228500366211e-01
3.516389001838943762e-01,-7.929918644660554072e-01,-7.578605440395469461e-01,6.733332891231291750e-03,5.963142183673047526e-03,-1.410637224727254559e-03,1.127585887908935547e+00
3.537007568936333390e-01,-7.883214697834074469e-01,-7.174982564019347642e-01,1.089163136260136791e-02,-9.250416869901455577e-03,1.219420394552907065e-02,1.108786582946777344e+00
3.515976275591845002e-01,-8.221793962507464304e-01,-6.650006593180479708e-01,1.941472514153339338e-02,2.367368921933655709e-02,1.003917347009664583e-02,1.105024576187133789e+00
1.460795781156152828e-01,-7.396010678093438706e-01,-7.370599201056031724e-01,2.158665113657400048e-02,-8.728357689212431006e-03,-4.274951327824664041e-03,8.853628635406494141e-01
1.914237053325235638e-01,-7.555115291765650554e-01,-7.451608721444917816e-01,-8.071622136657347416e-03,1.364535940818371526e-02,3.365618439420255082e-04,9.422029852867126465e-01
2.894079136818734077e-01,-7.740712946677819062e-01,-7.696746879864673208e-01,2.604633434549787942e-03,-8.698334225343348422e-03,-4.596387635307794609e-03,1.061434149742126465e+00
1.626424473819200189e-01,-7.605585400932792783e-01,-7.280995422247460436e-01,9.419809102229911510e-03,2.315308019715035023e-03,1.196959183527451743e-03,9.075648784637451172e-01
5.080458009467103686e-02,-9.172207166917809573e-01,-6.085764284780742495e-01,1.183985603342984361e-01,-1.007000923848815621e-01,2.551646025142889629e-02,8.988816738128662109e-01
2.912945053626905811e-01,-7.700583372795271053e-01,-7.688509926538455996e-01,-1.092009880954235637e-02,1.233432743351261206e-02,1.060224682083382199e-03,1.061134934425354004e+00
2.833317357597632258e-01,-7.727926887171342463e-01,-7.741725193680886186e-01,-7.593978366973654949e-03,2.483972507667209922e-02,3.756908495815708686e-04,1.057772397994995117e+00
-1.719549652596111811e-01,-7.515454718417832192e-01,-7.346136540936004655e-01,-3.179013807114446782e-02,7.195083846244249015e-02,5.356542566347994271e-03,5.874069929122924805e-01
3.587609759621014360e-01,-7.794706455866997619e-01,-7.803185054124036624e-01,-5.021153368389041048e-03,-6.575438973569440633e-03,-2.584793689023748373e-03,1.138754725456237793e+00
4.121798085447999083e-01,-1.215133269968432739e+00,-1.762414920157553688e-01,2.780598695095110040e-02,-2.335804364749469869e-02,1.305056944165520483e-01,1.446337938308715820e+00
2.030187234692565346e-01,-7.520322573184937687e-01,-7.634476420316220757e-01,2.509430278039455689e-02,4.534288652442845791e-02,2.884074209213562633e-03,9.650062322616577148e-01
2.960967519124490521e-01,-6.082181736824738838e-01,-5.668439712745942938e-01,-3.698810147783570396e-02,-5.220184998128646336e-02,4.030507138943453249e-01,1.132126808166503906e+00
4.344879295838266486e-01,-7.737630907883445985e-01,-7.920200815068625388e-01,1.680169686081767200e-02,3.613796026055553917e-02,1.810721864243871049e-01,1.259122371673583984e+00
3.092563440078616166e-01,-7.484904793932646294e-01,-6.326199438542934317e-01,9.616335274495846352e-03,9.780599522929051687e-03,7.570961035076781420e-02,1.013633489608764648e+00
5.573157490902689304e-01,-9.361590896954739005e-01,-4.516368539628052292e-01,-1.430593674994597511e-02,-2.533874515283934467e-02,3.119443979469377903e-01,1.426911115646362305e+00
3.437048198801684329e-02,-7.096528703344757716e-01,-7.349941711526850607e-01,-3.300349002573600005e-02,8.408058190263899279e-02,-2.483537713685475198e-02,7.742055058479309082e-01
3.366124751137190563e-01,-7.709860282421381328e-01,-7.776515284278404661e-01,7.250816217814481067e-03,5.847855543682945779e-03,2.398442002425737324e-03,1.111071228981018066e+00
3.317772599603882044e-01,-7.407710327390075733e-01,-7.918307972645084458e-01,-3.146707534469651152e-02,5.041993191620457865e-02,-6.313380556951474210e-02,1.109182476997375488e+00
2.822827847040338956e-01,-7.742733204106164724e-01,-7.557959647033934969e-01,9.905810764129678939e-04,-1.480233595874583773e-02,-7.298288812362469175e-04,1.047755599021911621e+00
3.687097935633223411e-01,-7.751228090359764122e-01,-8.065159812373045023e-01,-3.128319333698860449e-02,4.376002055965708994e-03,-8.756919017439841399e-03,1.161236643791198730e+00
3.490542233672723205e-01,-7.983368866718101309e-01,-7.630453943727522059e-01,-1.511927848917204260e-03,-2.294344759488309987e-02,1.651470470967983384e-02,1.131221890449523926e+00
4.456452686415788289e-01,-1.021318878975419953e+00,-5.014441123811749224e-01,-9.959106436505285598e-03,-1.667502261431309070e-03,1.481855190082249640e-01,1.313696622848510742e+00
2.739792594879481569e-01,-7.907392628984453165e-01,-6.917123403690196293e-01,-1.483452967668848904e-02,4.158529262838810830e-02,4.374996361768655750e-02,1.024493217468261719e+00
3.682005279329871872e-01,-7.653915028822974032e-01,-7.798115358952066867e-01,7.287648466680716509e-03,6.749446331651275111e-03,2.845397835268579940e-03,1.141010761260986328e+00
2.432312166998907288e-01,-7.721768858697861670e-01,-7.714124594844081750e-01,-1.548240021462291525e-02,1.401034322604487355e-02,-1.843956907440493648e-02,1.016172289848327637e+00
2.077859440736102292e-01,-7.498444687484431270e-01,-7.567859075103617883e-01,-6.328306492874754587e-03,-2.275088725937709708e-02,5.121976348387594254e-03,9.620307683944702148e-01
3.660560481414926182e-01,-7.339166983498242036e-01,-8.236891012575586757e-01,1.060160052287800921e-02,6.022323308549262094e-04,1.472749753959017428e-04,1.147643089294433594e+00
3.351905630449793505e-01,-6.494360425280878424e-01,-8.435373335814499995e-01,-4.257642594686480986e-02,-1.466950210085497808e-02,1.504498189429134547e-01,1.127950072288513184e+00
1.322567138278090138e-01,-7.465153310141716680e-01,-7.378642707927424160e-01,5.948794057258262671e-03,3.871360142492999510e-03,-1.486579956102008137e-03,8.745688199996948242e-01
1.278171154672199661e-01,-7.297322003057360451e-01,-7.279649473767463297e-01,2.504260053674103870e-02,7.454139741631282678e-03,-1.375719038073780313e-03,8.578649163246154785e-01
4.283417768535974224e-01,-5.411591743920615150e-01,-1.169855746938988528e+00,-9.748450799537565492e-02,3.082926435570221627e-02,2.256684491020201910e-01,1.459059000015258789e+00
7.006933414280647199e-02,-8.461940382747022982e-01,-6.667129479057078978e-01,5.261540889625675871e-02,1.151820030623036673e-01,1.010047010642306925e-01,8.865730166435241699e-01
2.006934415433934138e-01,-8.203789060958458501e-01,-7.669248916867625887e-01,-3.138559160812492282e-02,-5.064003739685308397e-02,-2.371713607685127512e-02,1.001599550247192383e+00
2.477904572008812756e-01,-5.023183768529709825e-01,-6.950389081935424151e-01,-3.147713448288775445e-02,1.292422834420224424e-02,-3.369655628712553419e-01,1.043300867080688477e+00
3.578368774590044987e-01,-7.726538133748108717e-01,-7.463743360744503619e-01,1.645084630963005931e-02,-1.791890159366508681e-02,-1.532417185100139537e-02,1.118691563606262207e+00
3.596666582651965038e-01,-8.115637557173375205e-01,-7.440470382003424588e-01,-7.628188978694788562e-03,-9.116870709963403874e-02,-3.899023137381613102e-01,1.333582639694213867e+00
5.517118520448904828e-01,-7.780618534469245784e-01,-7.128511930915986117e-01,5.627367937759682887e-02,-1.228632301428717218e-02,-4.372645346286694323e-01,1.506449103355407715e+00
3.453762565429652764e-01,-6.843718841636377004e-01,-7.926426773217154498e-01,3.069010909567995195e-03,-1.264761280664758805e-02,-5.809509299317949099e-02,1.092807769775390625e+00
3.278170717124544997e-01,-6.518655841553041563e-01,-8.142393381166642685e-01,2.080098010370238365e-02,-2.276368756615656380e-02,-2.423941012374596776e-02,1.072302818298339844e+00
3.209817693925685056e-01,-8.825031832517487018e-01,-7.877405297364301617e-01,-1.379104081282318296e-02,1.654796637692690364e-02,-6.536847926211681280e-03,1.159668445587158203e+00
3.646496387272915585e-01,-7.551956352886326496e-01,-7.979600851228270120e-01,1.601800862586942945e-02,-3.434187347842222911e-03,-8.321419949326242654e-03,1.142271757125854492e+00
3.519170433679527088e-01,-9.048303249361090428e-01,-7.932136390988446806e-01,2.233386367786129381e-02,-1.230718120373085309e-04,-3.242867908637912799e-02,1.206751704216003418e+00
6.520934322866406285e-02,-8.824789114592259676e-01,-4.879603114060493407e-01,-5.037226149982354517e-02,1.255718011793450530e-02,-1.123545804730762959e-01,8.519583940505981445e-01
3.338489708839884051e-01,-8.860998305393341656e-01,-5.181913794670964801e-01,-8.897439241208128166e-03,6.244083574229055897e-03,-7.767140465647832427e-03,1.084129929542541504e+00
3.617859383332849288e-01,-7.925950568108741656e-01,-7.586764101796138471e-01,-6.396029316861458203e-03,-8.689928025775233919e-03,3.565961795762628405e-03,1.137971162796020508e+00
3.424180431564493032e-01,-7.866923414350908139e-01,-6.949544050383844596e-01,-2.566168279921843265e-02,-2.298102773916713831e-02,1.459197915715318254e-02,1.088082075119018555e+00
3.027561205176464987e-01,-7.884269950649303027e-01,-7.821414072184282862e-01,-2.182894931997698962e-02,2.488093516213532239e-02,-5.665774262647045763e-03,1.089607477188110352e+00
3.299438278898388921e-01,-6.469132513726183475e-01,-7.240599823348707886e-01,-2.192041061990815040e-02,-8.055902001270954030e-03,1.264906328176041705e-01,1.041728615760803223e+00
2.741359464945795077e-01,-7.707229307406309182e-01,-7.835292765344099575e-01,-1.358894731085329025e-03,9.912814093377955368e-03,3.572583650752961335e-03,1.051481604576110840e+00
3.089961474795760998e-01,-8.532716808576945589e-01,-5.186429092223662218e-01,-6.364878608915241175e-03,2.896926898687431085e-03,6.164086732101452248e-02,1.041854143142700195e+00
3.238860743140630771e-01,-3.519205494214704411e-01,-8.561660126374690538e-01,5.678156749913868678e-02,3.358732014001883370e-02,3.074376371003952890e-01,1.161189436912536621e+00
3.211967262510239118e-01,-8.465026905130348389e-01,-5.473637481836844954e-01,-9.827138126226797263e-03,-9.107937695456699151e-03,6.602851313838170588e-02,1.057033419609069824e+00
3.491543162535862832e-01,-8.077040433086510873e-01,-6.729143703224369499e-01,-1.991237645871983888e-02,-3.323941964451031239e-02,5.091662080051492789e-02,1.101289510726928711e+00
3.387255975252468909e-01,-6.925272612696082852e-01,-8.340349411572308691e-01,4.677136441695850522e-02,2.673884953773009859e-03,-3.461669898465180584e-02,1.113380551338195801e+00
2.743581330357923731e-01,-7.682906569123049145e-01,-7.922812720672085529e-01,8.868995257687140032e-03,1.015105486917851872e-02,-1.080218576384868456e-02,1.055272936820983887e+00
3.444128483732736279e-01,-6.361876825099302968e-01,-8.355689448083821746e-01,3.911283594606106140e-02,-1.525880902026826354e-03,7.970571964300291390e-05,1.096102237701416016e+00
2.271144651723563390e-01,-7.566228699251024148e-01,-7.571627703361728523e-01,-2.927011307055650893e-02,-1.131271853289743216e-02,8.752398979822948464e-04,9.855085015296936035e-01
3.501372928652775052e-01,-7.006736672723374859e-01,-8.244502541440071886e-01,3.660911841973979886e-03,6.023916972164671500e-04,-7.975422248851700771e-03,1.117954492568969727e+00
3.102837570317366622e-01,-6.920982513756555043e-01,-7.931355620061173450e-01,3.049509802023723029e-02,6.906942383109852118e-03,1.455313563629815829e-02,1.058217644691467285e+00
8.446577439226876649e-02,-7.209030847752460058e-01,-7.853062108845261236e-01,5.811773724733609869e-02,-6.914091403789079937e-02,1.812468647881384717e-02,8.544559478759765625e-01
2.496218116554608790e-01,-7.596486498768952877e-01,-7.677077257282418632e-01,1.481455206778465629e-02,1.011052394095193936e-02,5.370996009032038415e-03,1.013842821121215820e+00
3.436325150570673781e-01,-7.978616275356240628e-01,-7.429450145145655160e-01,-2.663721734586142319e-03,-2.429032978324102091e-03,8.885891670688868954e-03,1.115174293518066406e+00
3.097341999756711983e-01,-8.124078039472035773e-01,-7.849189311099229460e-01,-2.035017077040869246e-02,1.316572223257412135e-03,1.329987914698797791e-02,1.109454870223999023e+00
3.447406117281568982e-01,-8.532298903395600931e-01,-6.860660635897206650e-01,-4.272005701539007168e-03,1.929027681823525589e-02,2.368195899997367279e-02,1.125021457672119141e+00
3.409994456361300497e-01,-7.980931834953173265e-01,-7.548918189864481931e-01,-4.452967372259683532e-03,-7.457859003240014870e-03,-2.037755048994851153e-05,1.118219256401062012e+00
3.425564215787135769e-01,-7.831952527983980783e-01,-7.776378170705079418e-01,-3.017110782792551630e-03,5.914289407092396776e-03,-6.525711264586048829e-04,1.123042702674865723e+00
3.279924722167140705e-01,-5.934551088374264705e-01,-8.180581702161084934e-01,-2.288348486100045404e-02,-1.021982996426174049e-03,1.787326309437134997e-01,1.097215652465820312e+00
3.599909483461657955e-01,-7.878593661435739914e-01,-7.792983863675679856e-01,-1.194933627062300541e-03,4.413923073769046579e-03,6.298357846784374912e-04,1.143621802330017090e+00
3.168039295937554178e-01,-7.770695171317298922e-01,-7.683999015707196900e-01,-5.244272876401678135e-03,-6.265789310917473098e-03,1.827232884378124800e-03,1.089661002159118652e+00
3.623623646851772961e-01,-7.907919089905055543e-01,-7.654634915198101908e-01,-4.707175750313282933e-03,5.945334412575054885e-03,-1.534618708054134384e-03,1.140779733657836914e+00
1.028061320138825563e-01,-7.726674187762742063e-01,-7.844998503262915479e-01,6.426528068842425612e-02,-6.973129856912782532e-02,1.344211846366454672e-03,8.966246843338012695e-01
3.113838489712901780e-01,-7.448870768549119559e-01,-6.629723778005705004e-01,4.257546465539409179e-03,2.381326161824957530e-03,-2.658054107335997007e-02,1.018864631652832031e+00
3.554748423901811227e-01,-8.211243429489456513e-01,-6.733661112151990702e-01,1.324848206055948517e-02,-2.549270578134361226e-02,-1.263825698273684725e-02,1.111450076103210449e+00
3.357742433419995121e-01,-8.329767345261975819e-01,-6.370578849292588552e-01,2.150197829407860493e-03,-3.954027176057567372e-02,-1.116776003520237107e-02,1.086490273475646973e+00
3.235690025019435367e-01,-5.934484295508293261e-01,-8.359855693904539864e-01,-1.765900030944639321e-02,1.954426232208881023e-02,-2.109457893279612084e-02,1.060930013656616211e+00
3.210820559677586283e-01,-6.249302088388525300e-01,-8.000024327752784936e-01,-4.869342852436646038e-03,-1.966932307661692358e-02,-5.580895821113025790e-02,1.049659729003906250e+00
3.879035240713547550e-01,-5.741817193006450992e-01,-8.107996480979411391e-01,-4.031203306198985481e-02,-2.049247834863197198e-02,1.464392279257702434e-01,1.131243109703063965e+00
3.314904522812183174e-01,-7.502724150627982924e-01,-6.990215087315698739e-01,2.796285079803510071e-03,-5.656997567073376518e-03,-5.297264437983799368e-02,1.061100363731384277e+00
5.106322674444472298e-01,-1.146711832513896523e+00,-4.181941741153676895e-01,2.595964877296949233e-02,5.209760265145180896e-02,-4.916504470516879222e-01,1.674947023391723633e+00
3.957993272958194586e-01,-1.028432578979222800e+00,-2.906877960692941798e-01,4.247673395856792905e-02,-1.033928294613258719e-01,-2.281101836113323955e-01,1.309797763824462891e+00
4.272999235130247597e-01,-9.833535511332205381e-01,-5.713289314190473922e-01,2.572146289407674022e-03,-1.591917621318537576e-02,-1.176493189987371929e-01,1.273101568222045898e+00
3.227341714088634572e-01,-8.342678213801882903e-01,-5.664871450528102814e-01,1.662363627545246358e-02,-5.684018997837449183e-02,-1.824259374981034368e-02,1.054541230201721191e+00
4.006989349290996372e-01,-1.091985250624953441e+00,-1.989666518745426826e-01,-1.317842457179390497e-02,1.261903849047397164e-01,-1.258969324622515040e-01,1.337324500083923340e+00
3.835625705541516051e-01,-1.051467253295263138e+00,-3.841551803735138715e-01,1.932034886704492305e-02,-3.437895242683456504e-02,9.647369521348635180e-02,1.256817579269409180e+00
3.422299038642572233e-01,-8.716388235822968289e-01,-5.662947465748744413e-01,4.134625055690377068e-03,2.523796266698140681e-02,4.710167697984633112e-03,1.094574570655822754e+00
3.317205994574499717e-01,-7.971588528370956439e-01,-7.365650771391283325e-01,1.484112486923913838e-03,-2.637625420019448254e-03,4.948405538995476194e-03,1.099881052970886230e+00
3.336384855753546930e-01,-8.085553164904082379e-01,-7.275692561230620026e-01,-2.878996181521560355e-03,-9.991841480828230967e-03,1.047910307756589297e-03,1.104079365730285645e+00
3.437944919076723060e-01,-8.373933284300095758e-01,-6.276787943612114340e-01,2.190528745597295022e-04,-1.214391098876645494e-02,1.797760006071231348e-02,1.092192649841308594e+00
3.218556204106149399e-01,-9.116349080761101398e-01,-4.429032968798679581e-01,1.235086154407741624e-02,1.722420935424693808e-02,9.341917733894965215e-02,1.091128468513488770e+00
2.850905243321294469e-01,-8.459216900004870032e-01,-4.802847496882382550e-01,2.918644049973862994e-02,-1.077477856053991531e-02,-1.283060052088806635e-01,1.025490283966064453e+00
3.750594874790107447e-01,-7.488627283106547017e-01,-4.860682723471554390e-01,5.482678034108887100e-02,-7.141385205529243718e-02,-3.533982457420091761e-01,1.198286414146423340e+00
2.324627411876112881e-01,-6.251401995866201489e-01,-6.153024988198667611e-01,3.608872070099165830e-02,-1.162224326763108481e-02,-4.197278202374878919e-01,1.122483611106872559e+00
6.234153811199716344e-01,-1.096127635240947473e+00,-5.329239313642966103e-01,1.131065281350582125e-01,-1.374280617043300290e-01,-5.286743702127690847e-01,1.799750566482543945e+00
3.480663194232632152e-01,-7.757960334866447205e-01,-7.046884528626433664e-01,1.695257655673342370e-02,-1.970912585270477926e-02,-6.882442474767352068e-03,1.091044187545776367e+00
3.252984744477304124e-01,-7.454984122857455375e-01,-7.028807063956553636e-01,1.012758802838696279e-02,-7.430943552335480921e-03,-5.155395628567179325e-03,1.050400137901306152e+00
3.135722939095757500e-01,-7.440125882824304426e-01,-6.701021218318348183e-01,9.516663983559823722e-03,-6.823998911307423143e-03,-2.482062180194231915e-02,1.023738980293273926e+00
2.791140135541049228e-01,-8.791730961799071320e-01,-5.458598805024803546e-01,4.523189771317335378e-02,3.212493600176619807e-02,-2.189624106715914453e-01,1.104410171508789062e+00
3.705980920514075350e-01,-7.699045220965662351e-01,-7.836264764588712906e-01,3.640118497949819745e-03,-4.649687410609079294e-03,-6.409228831991671082e-05,1.147470712661743164e+00
3.250841717605857939e-01,-7.230041840537269060e-01,-7.287069740577700738e-01,4.370037865418404700e-03,-4.390419626071138948e-03,-1.970899460169019818e-02,1.051560401916503906e+00
2.877496728142182048e-01,-3.122289884995070874e-01,-8.996760522624105416e-01,1.789462609667885271e-02,-1.893890984011228212e-02,2.718168941824143925e-01,1.131907343864440918e+00
3.535143352248248938e-01,-7.565275073332633493e-01,-7.506954987719295369e-01,5.212654400669577102e-03,-5.132588149933324864e-03,-8.027481168941192138e-03,1.107297182083129883e+00
3.431893801785388387e-01,-7.359239225233014103e-01,-7.508065317242309522e-01,5.217164595753331045e-03,-5.666405273878998700e-03,-4.378402212094295240e-03,1.086739420890808105e+00
3.314187936478670271e-01,-7.362535506688667741e-01,-7.297460750868145496e-01,9.276545383156810723e-03,-7.701631355028483623e-03,-1.420614598695048823e-02,1.064922690391540527e+00
3.629417508101072110e-01,-8.042479679962577510e-01,-7.516340081457665301e-01,2.756957684932310939e-03,7.531476191278604557e-03,4.364840694037531478e-03,1.141901850700378418e+00
3.222823655880034943e-01,-7.825681096769279144e-01,-7.461365677176562405e-01,9.326792773581317475e-03,4.071661874195826696e-03,-8.687888395294706204e-03,1.087339639663696289e+00
3.764847723747719588e-01,-8.301998742503065021e-01,-7.271170986668804570e-01,5.427516878595503060e-03,-2.079326845667325493e-02,-8.622323663790678119e-03,1.159281611442565918e+00
2.997833204050226463e-01,-7.673564721046393089e-01,-7.740502311688144399e-01,1.649563610854331078e-02,-2.406092663523324258e-03,1.635472226983583416e-03,1.070895433425903320e+00
3.620747297835324452e-01,-7.824050407356610837e-01,-7.753354228586415431e-01,7.220398516616892545e-04,1.489903546131848616e-03,-4.022671825601436407e-04,1.140965223312377930e+00
3.624907685418252701e-01,-8.000472893123146134e-01,-7.581088115493809232e-01,3.032572453896627621e-03,-4.209757523313985630e-03,-1.637864063356294167e-04,1.142181873321533203e+00
3.602901887598545239e-01,-7.897390641821857571e-01,-7.733847510945710546e-01,-2.081750471990573574e-05,2.486308125391731728e-03,1.538766971238808134e-03,1.141951203346252441e+00
3.398469175469636117e-01,-7.825717477228171237e-01,-7.777277209522284185e-01,-3.445532631392990257e-03,-5.292794853357902542e-03,1.924739709238397576e-03,1.120062828063964844e+00
3.561743489099598037e-01,-7.964593170933162991e-01,-7.343596705582012829e-01,9.165141415142226064e-03,-1.444047098555784753e-02,-8.615860903989707234e-03,1.123362302780151367e+00
3.574856509119886394e-01,-7.907425719718763624e-01,-7.652227208312252227e-01,5.358503163576532231e-03,-6.541672448262950308e-03,-5.360165204693560347e-04,1.135778188705444336e+00
3.591033147433939088e-01,-7.858458036341618991e-01,-7.765247481604600210e-01,3.221406262358211987e-03,-1.992600765892985938e-03,4.480091619907337875e-04,1.140336275100708008e+00
3.658313107544580167e-01,-7.866763319113689867e-01,-7.743479741397440996e-01,6.671209033914392338e-04,1.571925383430026937e-03,2.500484734368772256e-03,1.146405220031738281e+00
3.242884006650956774e-01,-8.516134631279995704e-01,-5.674215759959866379e-01,1.851706795589471528e-03,1.072552903978357328e-02,-3.456433236490323579e-02,1.064550518989562988e+00
2.113320945186938915e-01,-7.955542262999326653e-01,-6.814444237076242583e-01,8.252232908203585224e-03,-1.350542013471137982e-02,9.580205710980056570e-04,9.553532004356384277e-01
2.415951262068853356e-01,-9.864060575590734015e-01,-4.923439255625512434e-01,7.876004989010039481e-02,1.067776290795715149e-01,-1.755163573737296145e-01,1.136048913002014160e+00
3.421764014324897296e-01,-8.172763423276669936e-01,-6.636751805991383257e-01,-2.253768225412191781e-02,2.852448446458979298e-02,-9.663318415723631469e-03,1.092737674713134766e+00
3.247357638433570615e-01,-8.353127516440066458e-01,-5.749941675819427722e-01,-2.315791931741515309e-03,-4.495899603509069357e-03,-2.267364010085961765e-02,1.055042743682861328e+00
3.393947135585844155e-01,-8.135884491940104102e-01,-6.539669499356901561e-01,-1.577668683668036545e-02,2.186522448616375416e-02,-1.876599183706379945e-02,1.083533883094787598e+00
3.435086533812334308e-01,-7.858008878390407848e-01,-6.938074188957327193e-01,-2.045152519728647006e-02,2.151215204676079282e-02,-9.346071559589646388e-03,1.087574720382690430e+00
3.411853760823880255e-01,-8.737545950558029961e-01,-5.607670319383496471e-01,1.480636433425346239e-02,3.715867540966586585e-02,1.219871656599427583e-02,1.095000267028808594e+00
3.228749883750389738e-01,-7.837840297985176896e-01,-6.436447800065142610e-01,2.651701979438877022e-03,-3.742467580994532838e-04,-1.477778300898580956e-02,1.043993949890136719e+00
3.730550625694357136e-01,-8.379127779707420398e-01,-7.008766798292592748e-01,-7.713116691832173910e-03,1.057172082699317506e-02,-2.812094682038673507e-02,1.149852991104125977e+00
3.303063886662505055e-01,-7.602057089808754720e-01,-6.919461357017069325e-01,-1.042764373544741684e-02,-2.843658678363680976e-03,-1.158006422484735704e-02,1.058390736579895020e+00
3.122169007883452418e-01,-7.159979256752585508e-01,-6.764313475030153677e-01,-8.665504531181368944e-03,1.371903742971883507e-02,-8.833031423315750030e-02,1.020933389663696289e+00
6.324044613148057659e-01,-4.344488558275490520e-01,-9.769939914577661089e-01,-2.719923680167553315e-02,-5.957329789477724957e-02,2.481245724950341680e-01,1.486240625381469727e+00
3.613136821121225029e-01,-7.739658805645459605e-01,-7.900630593680146863e-01,-3.727279895940213521e-03,6.943626475994169045e-03,7.668846377801369829e-04,1.143495440483093262e+00
3.685550648229407589e-01,-7.667310328607701564e-01,-7.808008074210504024e-01,-2.262288816098081794e-03,7.465339680492666212e-03,-1.006256910913594415e-03,1.142467141151428223e+00
1.805411133919128663e-01,-9.867434702137816149e-01,-4.444168363533060329e-01,-4.234885262259768454e-03,9.003818300215341019e-02,2.600664853334605509e-01,1.118436455726623535e+00
3.405580611356690546e-01,-8.018699020369721708e-01,-7.752089805387123445e-01,1.807519244818881800e-03,-6.937060053167212921e-03,4.766959692730412396e-03,1.129431962966918945e+00
2.152973438010115648e-01,-7.262702208303191131e-01,-7.584181912033924888e-01,5.572314525757573328e-02,1.505913539396497129e-02,4.993457202169061110e-02,9.671237468719482422e-01
2.067442584694240137e-01,-9.415480285800080784e-01,-4.425737938896457946e-01,-3.437822745847897432e-02,-1.136612004469120252e-01,6.206458528565894639e-02,1.023933768272399902e+00
3.457371343093441074e-01,-7.864202938211970473e-01,-7.729731004483424428e-01,1.559075977223760940e-04,8.954294522555365093e-03,1.363523928004195999e-05,1.125600934028625488e+00
3.239141874009671129e-01,-8.416209033961703501e-01,-5.708258998431190445e-01,-1.209522176784328003e-02,4.990197503813493564e-03,2.169544947578398025e-02,1.057405591011047363e+00
3.544367273748201819e-01,-7.827203877353623440e-01,-7.799702160103791915e-01,2.655375086036944679e-03,4.709334568682673784e-03,2.746427241082766667e-03,1.135833144187927246e+00
3.134622640725814868e-01,-7.686527599734893634e-01,-7.746120768449327176e-01,1.342876703146518406e-02,4.549699080376567312e-03,3.108953394008849656e-03,1.085398197174072266e+00
3.218590619100319961e-01,-7.768530045682338070e-01,-7.681045456064679033e-01,-1.188523028392734701e-02,-2.083079286691951696e-03,-2.828350401964933869e-03,1.094574570655822754e+00
3.698904102118298343e-01,-7.949216905208447148e-01,-7.613305878165708140e-01,1.136521633411549485e-02,5.713521953278859547e-03,5.389005586180407696e-03,1.148634314537048340e+00
3.187317241531360534e-01,-7.750082926852790433e-01,-7.735362918584690606e-01,-1.104377144521933966e-02,6.463131112356132642e-03,-5.353633388142819104e-03,1.093268752098083496e+00
3.514311223298293152e-01,-7.979246662958159320e-01,-7.742664019289982047e-01,-4.971097151884061593e-03,-3.290485196343712233e-03,1.960155611630483557e-03,1.137763023376464844e+00
2.062515047791135814e-01,-7.479529293359494790e-01,-7.548445787634021631e-01,3.682130110444462642e-03,-4.312605458226461547e-02,-5.711099643853270909e-03,9.606496691703796387e-01
2.668736108757621128e-01,-7.686671730869519825e-01,-7.674834039408251485e-01,-9.755216834701365899e-03,1.779254396604328103e-02,3.594747483725689845e-03,1.035564661026000977e+00
3.332145242714791844e-01,-7.828397995505707030e-01,-7.759522501366180602e-01,-2.863955333683796366e-03,1.047512901478675484e-02,1.887797002305511987e-03,1.112790346145629883e+00
3.615376091458563090e-01,-7.878791034970569207e-01,-7.761475906327803820e-01,5.805591835534763476e-03,1.236125670745391548e-03,-1.272615249424585205e-04,1.143642306327819824e+00
4.049380985248625109e-01,-8.894697292088670215e-01,-6.173847353184770403e-01,1.976018341724030888e-02,-5.512278023637677549e-02,2.659067784032285164e-01,1.272689700126647949e+00
3.519310560327100212e-01,-8.501928817713922948e-01,-6.387421470197577333e-01,-7.364334056051301779e-03,2.010681580641913643e-02,-1.995533465622439332e-03,1.112209916114807129e+00
2.193899436628595212e-01,-8.181614036265721923e-01,-7.008921588201826314e-01,2.051493520278490496e-02,-2.625711985320019690e-02,3.542874131403699056e-02,9.877694249153137207e-01
3.858729177880544925e-01,-8.622803364614917143e-01,-6.854563980217773800e-01,-5.483838199800020706e-03,2.805934257806237328e-02,-2.197858395010376942e-01,1.231186270713806152e+00
-9.318217353174562678e-02,-7.829479857023942113e-01,-6.498434264724508580e-01,5.572457803064504583e-02,8.219510925832134232e-03,3.293384203728623449e-02,6.437817811965942383e-01
3.156023390423572383e-01,-7.773200322557287656e-01,-7.733019181468283598e-01,6.350028489414781020e-03,6.951468172566470372e-03,4.823801496259619292e-03,1.091072678565979004e+00
3.515452546479839735e-01,-7.293943641812798973e-01,-7.700121138557490807e-01,4.414070029040833079e-03,-1.074208401138517302e-02,1.861923931325796394e-02,1.102465510368347168e+00
3.917032943585364024e-01,-7.759447413351749923e-01,-8.287169959929286955e-01,-9.185878616689766019e-02,-3.599547643372735806e-02,1.683220214875414955e-01,1.241774678230285645e+00
3.437240280750968324e-01,-7.640652132360040705e-01,-8.014264548741896199e-01,-5.030628137944487092e-03,-1.174348322938666015e-03,-1.220074717845947209e-03,1.126971960067749023e+00
3.308150296476060070e-01,-7.242898787412297423e-01,-7.510212061182530707e-01,-2.322412313493352198e-02,-1.907612458152776330e-02,4.283964604215321353e-02,1.072558045387268066e+00
4.315507752731636004e-01,-7.788408483014195305e-01,-8.213637977317123084e-01,-2.774690410231087784e-02,-2.409280513117475022e-04,2.071807241424444557e-01,1.284292340278625488e+00
2.255565055344054826e-01,-6.104204293531109160e-01,-9.571589290304076680e-01,3.629405975325662032e-02,-5.549199398173974840e-02,-5.807896496384976764e-02,1.064076900482177734e+00
3.181312229551718218e-01,-7.681442084272545046e-01,-7.768387898886888188e-01,-9.076611656863653801e-03,-5.841495674205715062e-03,3.874684226794825742e-03,1.090829610824584961e+00
2.802910279623736511e-01,-7.655775114082243871e-01,-7.681592467619546838e-01,1.152237152702388981e-02,1.005922535469993759e-02,1.589893316229915726e-03,1.047500491142272949e+00
2.199479887353149588e-01,-7.048461021858545283e-01,-7.885304465678610875e-01,-1.215800339681837212e-02,1.521601497574720345e-02,2.720931714418312400e-02,9.710803627967834473e-01
1.077884750693202109e-01,-7.328624983029827789e-01,-7.325719982665361840e-01,-4.210685931518426406e-02,-7.050760575670465824e-03,3.536096685329747670e-03,8.437745571136474609e-01
1.359764423385501075e-01,-7.709012736961399215e-01,-7.254739285664419945e-01,3.415787978956918297e-02,5.328059072707441723e-02,1.425460173077638774e-02,8.921435475349426270e-01
3.276411865163248449e-01,-6.486390936631443171e-01,-7.843187896492489486e-01,8.292680954418960720e-03,1.853072407001126604e-02,6.538862390963820492e-02,1.057382225990295410e+00
3.486085847045330977e-01,-6.479993549515451479e-01,-8.388645282587936514e-01,3.413983554334175385e-02,-5.500920216762910861e-03,-1.635179745411617647e-02,1.106464743614196777e+00
3.554469389493589149e-01,-7.585373375135083807e-01,-7.822487948845078254e-01,-1.652147892607556305e-03,9.160843977004432220e-05,-7.770834960973548033e-03,1.126111388206481934e+00
3.391752452913029403e-01,-6.360079279875545666e-01,-8.374848689713267902e-01,-4.402362666314182590e-03,-1.540918453402362852e-02,-6.101318900952308957e-03,1.090382575988769531e+00
4.101511986368892582e-01,-1.011239576038265753e+00,-4.884243759054270329e-01,-2.753395776428059494e-03,2.541755325236425694e-02,-1.571298526942300489e-01,1.275379538536071777e+00
5.717253264829813553e-01,-6.782571441133794510e-01,-7.035856296972891055e-01,2.771209630885314301e-02,-1.445789899775562840e-02,-4.178046330565572952e-01,1.456492662429809570e+00
3.363783934281300847e-01,-7.456926086670869758e-01,-7.165709632353075564e-01,2.300765103600880407e-02,-1.835492892957809805e-02,-2.287253923433569050e-02,1.069758057594299316e+00
3.538420904340974782e-01,-5.804298904986141538e-01,-8.213980943551627556e-01,-5.522531898205948475e-02,-7.475819184526552585e-02,-3.230685985249527881e-01,1.222741007804870605e+00
3.501839980792186280e-01,-7.852981867587331966e-01,-7.552104597443917156e-01,-9.940777885688747637e-03,6.694569349304757902e-03,-3.880978090444811568e-03,1.120953679084777832e+00
3.439757777823623242e-01,-7.585287854831688215e-01,-7.279784886483229300e-01,1.429864379557473433e-02,-7.283730383675622935e-03,-6.095540071371892757e-03,1.087957620620727539e+00
3.253052214427330502e-01,-8.285625945169101669e-01,-6.240760410711174710e-01,1.448701942847450876e-03,-2.932878277564034825e-02,-3.993912108249195701e-03,1.067665696144104004e+00
4.144916882345875409e-01,-1.264605344947732135e+00,-2.635655194398895951e-01,1.230896095533026424e-01,-2.428159587947453096e-02,-2.308027947114555389e-01,1.532199859619140625e+00
3.394492052293363038e-01,-7.507957592998795171e-01,-7.213684798603778869e-01,-1.966756586894764444e-02,1.855183468775243802e-02,-4.488093739347149419e-02,1.079654097557067871e+00
3.526643487321216575e-01,-7.719878627869711796e-01,-7.666021872049253449e-01,-1.919151822061418780e-02,2.285573176336671425e-02,-1.065351676738029996e-02,1.123310804367065430e+00
3.646204739182111187e-01,-7.767311624456649799e-01,-7.852115009382520938e-01,-1.250370000554330504e-04,8.643813808491536063e-03,4.890625770877444134e-04,1.145713448524475098e+00
3.437669054874962216e-01,-7.251481294975792302e-01,-7.601293405819772309e-01,-9.711109602481535902e-03,1.425235549492709537e-02,-4.688138878980412441e-03,1.087268710136413574e+00
2.936055749227153844e-01,-7.750613495567948430e-01,-7.714754692069680786e-01,1.192971932443624358e-02,-1.169394948794497818e-02,3.797556369543735565e-03,1.067291021347045898e+00
3.156571123735811835e-01,-7.733634067777690468e-01,-7.771406362493216147e-01,-9.131156645270937025e-03,-1.295967625033534604e-02,3.473919823982387321e-03,1.091276168823242188e+00
3.379791194063946902e-01,-2.914222431267987079e-01,-9.756021839855216760e-01,-9.251291819319104603e-02,1.972812040908228717e-02,-2.264862593767321131e-01,1.214744329452514648e+00
3.594247351155855918e-01,-7.647814770740153367e-01,-7.858869415483435983e-01,-7.844935601572823602e-03,7.971915885709121921e-03,-1.036329262125956253e-03,1.135072827339172363e+00
3.586527878879392506e-01,-7.244929711686280971e-01,-8.032208463789385355e-01,-1.477864902706715021e-02,-9.297809990286762943e-03,4.982284406361035985e-03,1.125018000602722168e+00
3.541068661354839775e-01,-7.088369779136426407e-01,-7.999874152831394358e-01,6.474067140671309686e-03,-1.025121388490059585e-02,6.752391241337577475e-03,1.111586093902587891e+00
2.645045283996498298e-01,-7.636878518154862627e-01,-7.678239366213397421e-01,9.009289608323938284e-03,3.908690234128199721e-03,4.898513939740310047e-03,1.030441999435424805e+00
3.013585810604744730e-01,-7.781487984649229084e-01,-7.954849261509362446e-01,-1.775132894450762167e-02,2.305332479496392112e-02,-1.255906849636846852e-02,1.089662432670593262e+00
3.429384160642801049e-01,-7.782326202530251980e-01,-7.854525334165354256e-01,5.765374739147286105e-03,3.003749087967347818e-03,4.206756606627439984e-03,1.124878287315368652e+00
8.847208326376510001e-02,-7.982298055506862333e-01,-8.059401418199451106e-01,-2.343448298696513069e-02,6.304351391626728147e-03,2.675172377625125927e-02,8.927766680717468262e-01
2.691514945670450687e-01,-7.419525025953643826e-01,-7.753215229616253756e-01,-3.021593449028713713e-02,-1.070521313671021291e-03,1.575970427469309057e-02,1.029889225959777832e+00
1.448153810093853466e-01,-5.342655274272218868e-01,-7.946289963605304152e-01,-7.296354646545721856e-02,5.955613833246543865e-02,-3.125414939650246193e-01,1.012623429298400879e+00
3.659854519462810707e-01,-7.805797403981726834e-01,-7.752691521324382995e-01,1.234880460237949146e-03,-1.490725547541036961e-04,-3.477979416147654389e-04,1.143921375274658203e+00
3.583494256872780115e-01,-7.678370842367050475e-01,-7.681506066309914393e-01,4.187971778901870487e-03,-7.013224569714881368e-03,-5.928200728447302267e-03,1.126478910446166992e+00
3.644297331890075653e-01,-7.856892222161514505e-01,-7.778352804249011321e-01,-1.204706685932017615e-03,-2.348044525079895448e-03,8.109733280235051573e-04,1.146222114562988281e+00
3.709244428493963519e-01,-7.811741917149175318e-01,-7.786633543310713668e-01,2.021869411195028091e-04,-1.477735152904988136e-03,4.335620499903451090e-04,1.150848388671875000e+00
3.202963353261538137e-01,-7.867425216513150854e-01,-7.668038718931120545e-01,2.423229565863304832e-03,9.312300985275323920e-03,-1.027886923716407955e-02,1.097476363182067871e+00
3.389266575245190039e-01,-7.389584832697763117e-01,-7.347984300443998196e-01,5.194160626289434125e-03,-9.548379975125271396e-03,-1.451487136921758223e-02,1.076269507408142090e+00
3.518833512668234631e-01,-7.299764913471644689e-01,-7.681324108873434087e-01,1.401524123250164761e-03,-3.595345065863385283e-03,-3.134682509410354617e-02,1.102791190147399902e+00
3.732627016725878488e-01,-7.244257624089759373e-01,-7.891847433057843642e-01,1.105669063748039062e-02,5.334013925997743840e-04,-1.741264090367417583e-01,1.171121954917907715e+00
3.272955871814886009e-01,-7.448160438124795668e-01,-7.090529940130592124e-01,9.931971838020499724e-03,-3.490128128101468129e-03,-4.501110502886505188e-02,1.057719588279724121e+00
3.640049624254114713e-01,-7.807059475131186144e-01,-7.709649368418305393e-01,-3.109761610624503601e-03,5.968957826552946308e-03,-1.740976339232825189e-03,1.139935255050659180e+00
3.250618669862175847e-01,-7.378034131317510180e-01,-7.099176589100042456e-01,9.240184062297545839e-03,-7.869754845104274393e-03,-1.021391640394624274e-02,1.049560070037841797e+00
2.842208517334349760e-01,-7.704671544154513274e-01,-7.681311252285165647e-01,1.449115951615922472e-02,-1.834791381445049704e-02,4.798215540713772140e-03,1.054332733154296875e+00
3.612056730929683601e-01,-7.482393049991584721e-01,-7.975725340675245967e-01,5.587139438687247633e-03,-3.235557140751155105e-03,4.387364432726582365e-03,1.134996533393859863e+00
3.575927235390905512e-01,-7.636690435116280096e-01,-7.894234849484662586e-01,-6.555321856667839335e-03,4.155652368862398222e-03,-3.054450034675709573e-04,1.134438037872314453e+00
3.571159899876006905e-01,-7.743885619908341678e-01,-7.847138805153517360e-01,4.951954664148131187e-03,-6.012852372154248344e-04,8.097434196585674747e-04,1.136736035346984863e+00
3.728548279651275887e-01,-7.775985916444967394e-01,-7.804483383228946192e-01,-5.008563333786442877e-04,2.823933519540684171e-03,-1.413471326202910786e-04,1.151891708374023438e+00
3.625575578049946013e-01,-7.742432114065850302e-01,-7.897794597592511234e-01,-1.554272377695756603e-03,1.526172237975745999e-03,-1.852544684853527914e-04,1.144654273986816406e+00
3.658355034749404266e-01,-7.765900617189865907e-01,-7.827635402595296554e-01,-1.860507658410399294e-03,4.126174971595762860e-03,2.293979364315025711e-04,1.145551681518554688e+00
3.704907964916210883e-01,-7.755228286037085805e-01,-7.811097473764255783e-01,1.610205283445428556e-03,1.770996852915862228e-03,1.669220593712846153e-03,1.148828387260437012e+00
3.601089949915593502e-01,-7.658289337396961827e-01,-7.904235995268534820e-01,-8.381479631132613892e-03,1.590008076444346255e-03,-1.850679987890956578e-03,1.138534903526306152e+00
3.641781802134809731e-01,-7.706227023769209872e-01,-7.801965018786991557e-01,-6.806583459996144204e-03,4.563020154935951318e-03,-1.935321737665716751e-03,1.139711260795593262e+00
3.706572958472398316e-01,-7.804044354981226617e-01,-7.764710321612240396e-01,-2.703525866130859334e-03,3.410227646179409726e-04,6.750245662510360577e-04,1.149110317230224609e+00
3.678375903480916032e-01,-7.764735476292194960e-01,-7.868326559244640528e-01,-5.201010800959735003e-04,7.635867175457457766e-03,5.687574918033325719e-04,1.149602532386779785e+00
3.285625704292829963e-01,-7.716243032743774766e-01,-7.790727995017672214e-01,1.420675622392931700e-02,-1.336426638824930735e-02,3.182309077650948958e-03,1.104460477828979492e+00
2.111607011756461705e-01,-7.581148443868488407e-01,-7.568427375207116281e-01,4.039465036241988299e-02,-5.315502731630275621e-04,1.681565192854996612e-03,9.711684584617614746e-01
-1.033552188619837886e-01,-8.291942484995489249e-01,-8.273500306233203538e-01,-4.148270975811482741e-02,1.192370298081319446e-01,4.252943963306363151e-02,7.607550024986267090e-01
1.680613231739767621e-01,-6.864507692697818797e-01,-7.546925015064503972e-01,-1.046051049929088983e-01,5.768170195460248922e-02,2.509079660763249842e-01,1.012340784072875977e+00
-4.744878623414050534e-02,-9.064251501220161877e-01,-8.203367616560377495e-01,-4.588539518490933333e-02,4.603551566647461069e-02,-1.208922149149528336e-01,8.531252741813659668e-01
2.231250758378178212e-01,-7.647018857038848649e-01,-7.559164387153081144e-01,2.524841628494646842e-02,1.120534351598864546e-02,1.287331712801694471e-02,9.848791956901550293e-01
2.256666234256117232e-01,-4.804447169945162965e-01,-9.487206445596377824e-01,4.991372814229615845e-02,2.582094975421945701e-02,-1.950039034000009552e-01,1.082628488540649414e+00
2.092106739309434471e-01,-7.613400217282808580e-01,-7.838323133124609488e-01,6.606238939965268508e-02,-1.669414438473461673e-03,1.241285253566405027e-03,9.886405467987060547e-01
3.741708505434079290e-01,-7.511129850569752131e-01,-8.159275584412128968e-01,-3.695221123487090181e-03,-5.167195026461002087e-03,1.220240095674747505e-02,1.159296035766601562e+00
2.934861396587655769e-01,-7.485580219470113761e-01,-8.059800623204151915e-01,2.500204786236226093e-02,-6.332683796304417780e-03,2.866354331958532054e-03,1.072851300239562988e+00
3.569017470402369718e-01,-7.776231070563210945e-01,-7.914375107156299549e-01,-4.552994883652143956e-03,6.176372644408409732e-03,-4.067719981111511500e-03,1.141593813896179199e+00
3.791605307852742857e-01,-6.931135885415964371e-01,-9.571286674648100679e-01,-9.844013009776023115e-02,-2.067377957588486387e-03,-8.691777585381309235e-02,1.246723890304565430e+00
3.634523614018689841e-01,-7.706766488608227661e-01,-7.623489888714916063e-01,-1.021489319299386488e-02,6.025236244990614387e-03,2.536979680465831655e-03,1.130183458328247070e+00
4.058425551929936703e-01,-7.723273055835061518e-01,-9.095453839064873147e-01,3.958848045347535677e-02,1.374939589102905715e-02,-3.999969609711857832e-02,1.256442666053771973e+00
2.165420757007973096e-01,-8.197564786256503755e-01,-4.954750914914805571e-01,4.579379910129191544e-02,1.205977167774801989e-01,2.999174111415380262e-01,1.078329682350158691e+00
3.263636995390958861e-01,-8.071444205219964196e-01,-6.076972980456553097e-01,-1.955819289373885231e-02,-3.421170443024076219e-02,2.963575664189177505e-02,1.051588654518127441e+00
3.057626499242528939e-01,-8.428607712940437979e-01,-5.088957217308180958e-01,1.927028180655832859e-03,3.998646480027895356e-02,2.926977890083243272e-01,1.144155621528625488e+00
2.655751090179963025e-01,-9.760437503800278858e-01,-4.791592255910628317e-01,-7.309700257557348417e-03,-8.747292216599082681e-02,-9.116192120511593111e-02,1.104362607002258301e+00
3.743700118708931379e-01,-7.778582842470826986e-01,-7.785645664833092949e-01,2.599996359684673356e-03,2.125513950187748243e-03,-8.909965356229427192e-04,1.152597308158874512e+00
3.087515343815431246e-01,-8.053808223072550510e-01,-7.348242206252710851e-01,-2.038357698756791681e-02,-8.764088155917565404e-02,9.772370100776242574e-02,1.104807138442993164e+00
3.370099644918939652e-01,-7.841074113243368116e-01,-7.167959723012820028e-01,-1.839278991664899249e-02,-1.080863901192085676e-02,2.599273402797843205e-02,1.090579271316528320e+00
3.477821877827539931e-01,-7.884793923219275413e-01,-6.911083078514623779e-01,-1.299442436206110427e-02,-7.674557206894252852e-03,1.701535664134231837e-02,1.091551303863525391e+00
5.694723441930809038e-01,-7.120102330732255291e-01,-6.741797443857122651e-01,7.654121527970501881e-02,-4.853042475455252719e-02,4.048133195483010205e-01,1.453069925308227539e+00
3.245608206859938449e-01,-7.873669788305924788e-01,-6.452380172695852956e-01,-7.193730347902591894e-03,-1.113733398582013312e-02,2.808326822480250885e-03,1.048378705978393555e+00
3.326266315414881936e-01,-6.542143005618847873e-01,-7.916642037183281300e-01,6.056494881584868414e-03,-1.418730371714548716e-02,7.040009335370503787e-03,1.062662363052368164e+00
3.279180844865389188e-01,-8.112943660824722958e-01,-6.181945383431781682e-01,1.869951320539878573e-02,2.728283005088552593e-02,4.198791340103763536e-02,1.060038566589355469e+00
3.146632180906321907e-01,-7.902315401449958587e-01,-6.109147595832962185e-01,-1.242214198579314399e-03,4.652396196562875834e-03,4.327708654209672795e-02,1.029810190200805664e+00
3.521724186297638948e-01,-7.038252460123510801e-01,-7.999675240879386973e-01,-1.356454067849117377e-03,-1.863928209749225046e-02,4.933026908614593364e-02,1.110967397689819336e+00
3.169703503351944396e-01,-7.693568990684078734e-01,-7.700844224268779126e-01,-5.529008038808302244e-03,-1.825264806598697956e-02,-8.285018284484099368e-03,1.087287902832031250e+00
4.360208325137721608e-01,-8.972631740218808272e-01,-6.302543123886235055e-01,3.308791618306509974e-02,1.010546707011756307e-01,1.760871675148752424e-01,1.272745847702026367e+00
3.344122750663827692e-01,-7.867435706258001371e-01,-6.752344445069662360e-01,2.381021323110531218e-02,-4.130012491446556633e-02,-1.258108817740831442e-02,1.073172092437744141e+00
3.326454123409829933e-01,-7.501634436620556734e-01,-7.825226781112184504e-01,1.404056745502384532e-03,-4.977222436212947604e-03,-2.422832461452844883e-03,1.099390268325805664e+00
3.296625315900927333e-01,-7.874516195489628112e-01,-6.491426163152413942e-01,-1.686357290218238464e-02,1.209844533612134364e-02,-1.398307545876280485e-02,1.055672883987426758e+00
3.275330125391281988e-01,-7.017185259070222170e-01,-7.481763280086385359e-01,7.859847829176903888e-03,-7.493789117266983282e-03,-7.839870162802497697e-03,1.053504586219787598e+00
3.513134364407195509e-01,-7.524305312361346809e-01,-7.692437028973725388e-01,1.015937424725374405e-02,-1.853927854285976340e-02,-1.699062768503293089e-02,1.113237500190734863e+00
3.375173082809259650e-01,-8.172860796265113414e-01,-4.030654472267238830e-01,2.477826926620050035e-03,4.552432237537001707e-03,-3.594277688733243381e-01,1.189307212829589844e+00
3.067186785165167962e-01,-8.050946405406971262e-01,-5.859600444485824067e-01,8.466413742709177903e-03,9.698861815626816547e-04,-4.664160000805969014e-02,1.023355364799499512e+00
3.695565039172110655e-01,-8.627551730959371890e-01,-6.683254680509276291e-01,1.589118042781087481e-02,-4.534425285043683362e-02,1.975377399683319324e-01,1.200327634811401367e+00
3.236698886668103459e-01,-8.519374607974161684e-01,-4.309507548764865970e-01,-5.965307510567560700e-02,-7.836116320640283683e-02,3.127409668725105729e-01,1.177660822868347168e+00
3.473296210742184975e-01,-8.150532818833218229e-01,-6.703613925288131048e-01,-2.039924731175922143e-02,-2.881379351445067030e-02,1.110733043273913825e-02,1.099086761474609375e+00
3.347147808388654666e-01,-7.810545703758071667e-01,-7.767165242107112455e-01,2.086924873911556386e-03,-4.987784505459086359e-03,1.375391128775026563e-03,1.113648533821105957e+00
3.443563674212655190e-01,-7.841845437781959083e-01,-7.788122522241159862e-01,-1.649158647978711881e-03,-6.439087162912142566e-03,6.243252990269398299e-04,1.125923752784729004e+00
3.605883032238929586e-01,-7.896204803768194225e-01,-7.728731888422608609e-01,3.787184045969020310e-05,3.313844925375657863e-03,-2.058900106160581420e-03,1.141947269439697266e+00
3.578219486374750735e-01,-7.898095583654156648e-01,-7.731265319386174673e-01,1.360290570520056113e-04,3.299341346813131938e-03,-5.153361955233774641e-04,1.139396309852600098e+00
3.535910547100148960e-01,-7.861921605234025723e-01,-7.771389765238212455e-01,-1.428981422140603464e-03,-3.180000530185250404e-03,-2.159361145763234052e-04,1.135299801826477051e+00
3.475006107144250067e-01,-8.153083102406057936e-01,-7.013692268750291170e-01,-2.443559107490267217e-03,-1.923381651046227048e-02,-1.196472320596095101e-03,1.110742688179016113e+00
3.559002500504285238e-01,-7.933350047420484330e-01,-7.633452675954268685e-01,-2.318622132975383960e-03,-6.870116133607305671e-03,3.595186709482527088e-05,1.134607195854187012e+00
3.558775152254106677e-01,-7.914497712781529692e-01,-7.357903274630398505e-01,1.301099935164707136e-02,-8.048009120882637299e-03,-3.403285294160231147e-03,1.120863556861877441e+00
3.476861329114114829e-01,-8.341805221646385604e-01,-6.544639853272330443e-01,-1.529006173216456571e-02,-2.857573403004672746e-02,1.275414650155066998e-02,1.104692220687866211e+00
3.717135770690552232e-01,-7.762703785910017862e-01,-7.828990042493564339e-01,-3.906207084416338585e-03,-9.767606838560862967e-03,-1.316632577423394561e-03,1.151458978652954102e+00
3.711159590901004224e-01,-7.747222831217430716e-01,-7.719452523412113631e-01,-4.605833057531374779e-03,7.941407915570139822e-03,-1.052453047704406813e-02,1.144707918167114258e+00
3.551754771245266284e-01,-7.848855748633591922e-01,-7.572847799407257385e-01,-1.276351932611766681e-02,7.295706331133258726e-03,-1.062508260516755072e-03,1.126803517341613770e+00
3.302818092208639200e-01,-6.434151844269575538e-01,-7.951329297600358004e-01,-2.856363048405911116e-04,1.049778659244162728e-02,-5.428520323908893330e-02,1.062074780464172363e+00
3.717835957855936679e-01,-7.780471998383633458e-01,-7.777009379168994263e-01,1.498225062009008769e-03,2.504615937538193855e-04,1.144753374956415318e-04,1.149660706520080566e+00
3.422109479879633653e-01,-7.495271390834690184e-01,-7.360061677281231063e-01,-5.442551266188509936e-03,6.626639871608536354e-03,-1.528422146989523792e-02,1.085465312004089355e+00
3.499915363876931473e-01,-6.775442253256307445e-01,-8.196831695649846594e-01,8.083978983673113794e-03,1.683729943849053903e-02,-1.995538868710728525e-02,1.106493234634399414e+00
3.678520530427430435e-01,-7.660791710788373843e-01,-7.739565334376972139e-01,1.508406182704454326e-03,5.104662462957692409e-03,1.718204005333696894e-03,1.137931585311889648e+00
3.167698507508307504e-01,-7.172088880992314452e-01,-7.171797697943143035e-01,3.832600753276136263e-04,-5.588609948436482587e-03,6.544175871699232060e-03,1.034071803092956543e+00
3.450915050951804397e-01,-7.212580534833459289e-01,-7.597290174584252487e-01,-1.646072952597934375e-02,2.251231879158639704e-02,-6.219692687535006287e-02,1.092494130134582520e+00
3.492632307490525778e-01,-9.908289039847513191e-01,-5.934955156724670555e-01,9.372388676520189421e-02,-5.613541365392506893e-02,-4.659739987782436366e-01,1.452053308486938477e+00
4.393816088432018208e-01,-8.739299797053523555e-01,-6.284201104805703375e-01,3.203549819552402311e-02,-5.280776409511510339e-02,-2.277953514764256837e-01,1.276615977287292480e+00
1.995662248495674862e-01,-5.851167088499564795e-01,-6.588921715786720812e-01,5.504633175011223317e-02,-9.765521441718784390e-02,-3.846472710600723488e-01,1.077321171760559082e+00
3.573045804256563818e-01,-7.723736249074372173e-01,-7.480155423574590401e-01,2.038267131574048041e-02,-2.039957818413836582e-02,-1.952138528141666995e-02,1.119324564933776855e+00
2.508203347503963343e-01,-8.520983224980658299e-01,-4.858181064013795125e-01,-7.912078537117950283e-03,-9.156458422116656171e-02,-2.676582011361715585e-01,1.089438438415527344e+00
4.784828759787219665e-01,-9.181919694664529841e-01,-5.619961850198631481e-01,-9.645133184719671682e-02,-6.275971414411746219e-02,-2.279175860540246235e-01,1.332535386085510254e+00
3.414682403606500993e-01,-5.595991659617092218e-01,-8.829317435745520637e-01,2.794556882923669369e-02,1.996981932873018520e-03,-7.277500776040947417e-02,1.107273340225219727e+00
3.440247541012244614e-01,-7.177710095523321954e-01,-7.864570182596655190e-01,2.486367135314948573e-02,-2.195655759827407072e-02,-3.021439797637639688e-02,1.100499033927917480e+00
3.570504491432988647e-01,-7.265685913499979609e-01,-7.974257976003383819e-01,1.003790251809099331e-02,-1.323322868667148322e-02,-8.858568207042803733e-03,1.121203064918518066e+00
3.643949577801497419e-01,-7.566169828025548494e-01,-7.967897764640664571e-01,-4.890691026531266729e-03,-3.486251880350436753e-03,-3.157060256675351165e-04,1.141676068305969238e+00
3.503706393386939455e-01,-7.622778059366770442e-01,-7.832787265524505660e-01,2.687657904805121865e-03,-9.552283913046804784e-03,-3.940182120204481324e-03,1.123448371887207031e+00
2.889782230067882707e-01,-7.795453981101442276e-01,-7.857566567970228899e-01,-2.394332771582713057e-02,-2.232780620055943577e-02,-1.073720707340454494e-02,1.073303103446960449e+00
3.553761067092948700e-01,-7.767580117334869083e-01,-7.887698030938415927e-01,-1.251871555552832097e-02,-9.786430852454345436e-03,1.780594998259197887e-03,1.138524413108825684e+00
2.507693101405126246e-01,-7.412068550468269290e-01,-7.724320272818774313e-01,-2.316179961773136634e-02,1.078560330865192124e-02,4.455218175269690627e-03,1.008952021598815918e+00
3.123493121935089212e-01,-6.792503112531391718e-01,-8.087876325204288452e-01,1.759989324980560516e-02,7.505706771505939873e-03,1.069429579186910104e-02,1.062986493110656738e+00
2.877799204881974493e-01,-7.704725342241229846e-01,-7.699827731708031031e-01,-7.505257158486470029e-03,-8.207611417288217942e-03,3.207297320118755735e-03,1.058197617530822754e+00
2.942410516395466136e-01,-7.649913395100154112e-01,-7.697230013190723419e-01,-1.422144904624839806e-02,-4.273283687178584117e-03,-9.616776056026951364e-04,1.061918973922729492e+00
2.199332115289865386e-01,-7.564946758353878753e-01,-7.499443398780070158e-01,-3.408601027419976698e-02,-3.880283520139537340e-03,5.483281066239504772e-03,9.750278592109680176e-01
3.545430370053629932e-01,-5.904251769864720112e-01,-9.169946962487622866e-01,7.101506363027618000e-03,-1.155287261258652019e-02,-1.716268038846729405e-01,1.182002305984497070e+00
3.332976202991396741e-01,-5.655860800513069497e-01,-8.795852306477307536e-01,6.975791030212476207e-02,2.955210633735140969e-03,-1.632660341502094586e-03,1.097027301788330078e+00
3.492998941095492027e-01,-5.705691739614057179e-01,-8.610953029303871631e-01,3.611813684508047989e-02,-5.694591617403092776e-03,-2.649925126913645415e-02,1.097236514091491699e+00
6.059923988733469935e-01,-3.469849218851829287e-01,-1.162093639888744701e+00,6.448311072274359734e-02,-2.453821667454652439e-02,-2.332894986323072462e-01,1.589622855186462402e+00
3.571959203730851184e-01,-3.082802923975556109e-01,-1.265701672126622324e+00,6.843876390995204395e-02,6.841059781938008122e-02,1.716183295382056051e-01,1.453652501106262207e+00
3.501466293029862342e-01,-6.736391181120038318e-01,-8.165763977029703025e-01,-2.076474815861699755e-02,-1.701395734767219975e-02,8.891142458500695192e-03,1.103315234184265137e+00
3.001400508322935590e-01,-3.865243299522463927e-01,-9.003200026072168960e-01,-1.244628397775533191e-01,-7.033939461276267346e-02,2.486416860707236776e-01,1.155457973480224609e+00
3.289536335064157657e-01,-5.625007064748646091e-01,-8.503676161786664078e-01,-3.608248847244563406e-02,3.602155423342407684e-03,-1.153656141886505102e-02,1.067015647888183594e+00
3.600674072413070359e-01,-6.988557066289948771e-01,-8.205751309044944097e-01,1.099517881741900356e-02,-2.103904289688444430e-03,4.694124982243866144e-03,1.124929904937744141e+00
3.615348322092596378e-01,-7.699546283941108848e-01,-7.948710588528486998e-01,-1.217696407607566939e-03,-4.866050554784687177e-03,4.032523997835373887e-03,1.144205451011657715e+00
3.209808906149996810e-01,-6.007915170774298375e-01,-8.036294252633391366e-01,1.092408074921217588e-02,3.838324305102528908e-03,8.686404828887925311e-02,1.049197912216186523e+00
3.045506728245740424e-01,-4.530336446924170257e-01,-8.754726538209661735e-01,-1.190371144519637540e-03,-4.227412917561275928e-03,9.707802127758370647e-02,1.049167394638061523e+00
4.403392232755089508e-01,-4.496605582220831732e-01,-1.016369232547977841e+00,-1.688689577626384039e-02,-1.888988315124411066e-02,-5.020624690706412124e-02,1.275584936141967773e+00
3.661804503297204083e-01,-4.693144765863887513e-01,-9.738346988563069129e-01,-2.671693531715724906e-02,4.513077689577819906e-02,1.415989774143777864e-02,1.175997376441955566e+00
2.752403395111054918e-01,-7.745941195072759689e-01,-7.645981424611116850e-01,-2.256480624633565302e-02,8.399441440965681183e-03,-7.969107727997746735e-03,1.045795321464538574e+00
3.424257687359926194e-01,-6.099018626774683760e-01,-8.436436671389058173e-01,-1.105509537076415638e-03,-1.802876023430367500e-02,-3.995713539372282991e-02,1.090839266777038574e+00
4.764342726262789651e-01,-2.534716887661012663e-01,-1.265643484197775948e+00,-5.244975686438529960e-02,2.248318019815669089e-02,-3.323342025716328751e-01,1.623931050300598145e+00
2.908969977529189954e-01,-3.098643212395708058e-01,-9.160627668014891256e-01,-8.690215221300873205e-02,-3.603124293048632493e-02,-4.025912293154093602e-01,1.267028450965881348e+00
3.397213570146884742e-01,-5.162128831217084324e-01,-9.043960238049832956e-01,2.995041180785199680e-03,-1.204059217025944118e-04,-5.942939867736339588e-02,1.107335209846496582e+00
3.680118538049810262e-01,-5.938630361734278384e-01,-8.551323058334517890e-01,3.108703506678190190e-02,-9.888724112235604269e-03,-1.071453784794130504e-01,1.132433772087097168e+00
3.622576968393954044e-01,-3.815360551019156832e-01,-9.327318101630974745e-01,-5.036417347142150419e-02,3.074720655155704571e-02,-3.885206985928683909e-02,1.132252693176269531e+00
3.184503648431898926e-01,-5.478102091012775343e-01,-8.454456590788789194e-01,2.221975826369596181e-03,1.257101516718980676e-02,-1.562222410351244914e-02,1.047876477241516113e+00
7.053046957628839042e-01,-3.985941483706594290e-01,-1.369886439348474871e+00,-5.159749661682254407e-02,-4.397928611834250184e-02,-2.233613188642541159e-01,1.843276977539062500e+00
3.597104691211178151e-01,-5.217945395055825220e-01,-8.391332100167542274e-01,8.111107293847523783e-03,4.712757105082435519e-03,-2.057938823949977958e-01,1.133493661880493164e+00
3.504484814213821298e-01,-5.631101685866983786e-01,-8.775991900092157127e-01,3.243572793802924209e-02,2.298861647837294143e-04,1.324342393527493805e-02,1.106562018394470215e+00
2.275206220829814052e-01,-8.950912126964676307e-01,-9.995053535129633238e-01,7.306136022509689826e-03,-7.072605853559718603e-02,-1.773950157406216088e-01,1.223907589912414551e+00
3.650809470209801511e-01,-7.839897992205904220e-01,-7.732605712929141450e-01,-4.622981421969772457e-03,-3.781882382639543613e-04,5.720275125370728048e-04,1.143772482872009277e+00
3.717669009822912596e-01,-7.855258668177231840e-01,-7.746489234358917564e-01,-9.326796079788436536e-04,-3.781053226112898952e-04,5.719764877322701261e-04,1.151894569396972656e+00
3.414269312012923607e-01,-7.795386241524826509e-01,-7.725496173483316076e-01,-6.174520665090660679e-03,-6.412240079206016352e-03,1.937152605278458142e-03,1.117598891258239746e+00
3.745081561676443238e-01,-7.776505589900044590e-01,-7.778394022701671240e-01,3.077609962400245248e-04,2.529087753134228768e-04,1.338572065564823214e-03,1.152255654335021973e+00
3.704355051179564207e-01,-7.800022340902027507e-01,-7.765155172881461620e-01,-4.701973434064908933e-03,1.162488572164748022e-03,1.899912056154966656e-03,1.148733735084533691e+00
3.604724743597698677e-01,-7.852937032674144335e-01,-7.783157556622348761e-01,-2.018937005752683648e-03,2.740956968840043903e-03,2.250932780644551365e-03,1.142315030097961426e+00
3.402939736108264723e-01,-7.104641871998516045e-01,-7.738628048638009904e-01,-4.691264338740214201e-02,2.015396346048084139e-02,-7.353488899848147076e-02,1.094884395599365234e+00
2.672979478283985522e-01,-8.646081437061691188e-01,-6.453782433844883482e-01,4.140195324006172573e-02,2.310804783753189415e-02,7.013433934041136443e-03,1.043080687522888184e+00
2.544180467993354955e-01,-7.973213868808787241e-01,-7.601671510394157893e-01,1.070925791516808868e-02,1.657365055500158516e-02,2.755637884956583725e-02,1.035328865051269531e+00
2.026246037616019624e-02,-6.517981435576291060e-01,-1.108278816119100174e+00,2.741727064970226474e-02,7.466590903241483723e-03,-1.991619712697982603e-02,9.851066470146179199e-01
3.717376047674540995e-01,-7.781766348776439912e-01,-7.756616917838141667e-01,6.499652468085427917e-03,-4.682615479487587870e-03,2.534222333413740664e-03,1.148751020431518555e+00
2.569126668918273459e-01,-7.616405003026511800e-01,-7.655058439463967579e-01,6.449759833024889741e-03,9.938865388741589119e-03,4.572630855891610460e-03,1.020728349685668945e+00
3.370350140241630266e-01,-7.795107244805739022e-01,-7.804550000120819009e-01,2.865634115921044615e-03,-6.998882767954661341e-03,4.934185598015660215e-03,1.117127656936645508e+00
3.494277944683814585e-01,-7.840750374315438309e-01,-7.709888010965817440e-01,4.894287059448890892e-03,7.832827969334125659e-03,1.464425090927602572e-03,1.127133131027221680e+00
3.607502519775102057e-01,-7.824950049128867047e-01,-7.705522423239311580e-01,4.635648192552549451e-03,-2.669704799422979811e-03,-3.140566600384880284e-03,1.137371659278869629e+00
3.251312369710296357e-01,-8.741161243738836406e-01,-7.570441049927472132e-01,1.548434992065230581e-02,-1.002670652991165534e-01,-3.302643925357855170e-02,1.160023212432861328e+00
9.653632734742290111e-02,-7.638540978513002067e-01,-7.744187921835643529e-01,4.817659298052280603e-02,7.797659574352922007e-02,1.691216486777790198e-02,8.806447386741638184e-01
3.576909160255055120e-01,-8.019025139437762073e-01,-7.388423137445641053e-01,6.862540361124464406e-04,9.288692163010618327e-03,-1.466266907823154681e-03,1.129502534866333008e+00
3.547621384911379128e-01,-7.954538363379568544e-01,-7.135956630183946103e-01,1.229460634048050276e-02,6.226975280867288673e-03,-8.618720498566800545e-03,1.111906290054321289e+00
3.533060067560189199e-01,-7.842202814446506132e-01,-7.349763437193677085e-01,1.312022243266015159e-02,-1.281596638354243374e-02,-6.397003100200947430e-03,1.114229202270507812e+00
3.166074992496425988e-01,-7.823465355616601169e-01,-7.332386852114729514e-01,3.223220435795960681e-02,-1.758259393178708205e-02,-3.295890518553451498e-02,1.078632116317749023e+00
7.524751474061359691e-01,-1.406804732664578950e+00,-2.909744732036036452e-01,-1.414288748397845305e-03,-7.660606344574313886e-03,2.876674083514734609e-02,1.871053576469421387e+00
3.204821996932308847e-01,-8.725220635579358230e-01,-5.288875071780605452e-01,-9.648809246956849229e-04,-9.188821928145194176e-03,-2.269348959136138159e-03,1.063794136047363281e+00
3.359374740207057286e-01,-8.332828609674640674e-01,-6.095706094055268753e-01,-2.174163669448681349e-02,2.202478062372798320e-02,-1.892653302958608244e-02,1.076802015304565430e+00
3.389099808601215846e-01,-9.025020579680447241e-01,-5.467268688996953507e-01,-5.445578031509787365e-03,-8.737761894357074649e-03,-2.669181024396575022e-02,1.108364343643188477e+00
3.755021397837723374e-01,-8.323597586038264939e-01,-8.619253364463574929e-01,1.154366145521458151e-02,-2.067516586488891452e-03,-6.748925252566043143e-02,1.228654742240905762e+00
2.712275401737059277e-01,-7.668035488154686385e-01,-7.710280122471948605e-01,1.257399108596727461e-02,-8.120006932915679529e-03,-7.223771153780969003e-05,1.040472745895385742e+00
3.237123644447330584e-01,-1.296601872077616457e+00,-1.867917286024773083e-01,-1.017807130698866400e-02,7.208277532311038738e-02,-1.814583154952876254e-01,1.474291563034057617e+00
3.398126887877862545e-01,-8.149476416813403734e-01,-6.604301871438652549e-01,-6.895286121781104768e-03,1.223695622412715629e-02,4.876456545068192511e-02,1.089331150054931641e+00
3.651722569955352382e-01,-7.698957589099291177e-01,-7.682769478791299234e-01,3.755095541599166517e-03,-2.932861381544667103e-03,-6.619993536037169744e-03,1.134347438812255859e+00
1.765553025834779022e-01,-6.858944735192500364e-01,-6.411380592780271392e-01,-2.980463830456297342e-02,-3.552165143694507865e-02,-2.557550391549050506e-01,9.538893103599548340e-01
1.184657323920108030e-01,-7.553420584266974380e-01,-7.232127115104822757e-01,-9.239520148795299370e-02,9.246936584372270063e-02,-1.539153944380325101e-01,9.267306327819824219e-01
3.719604745771425414e-01,-5.275135322720966302e-01,-9.068436883914355873e-01,2.696403674890627059e-02,-1.747790244982040317e-02,-7.871919092775775395e-02,1.147096395492553711e+00
3.528100175315926901e-01,-7.110477763004066087e-01,-7.956182740324424518e-01,3.609215276591595800e-03,-1.677461520397381320e-02,-3.710517862836044956e-02,1.110824108123779297e+00
3.330330350677393469e-01,-7.492958475543770591e-01,-7.010459626100232766e-01,-8.677962375695051894e-04,-1.297568482225668497e-03,-5.305956385861855529e-02,1.063012123107910156e+00
3.375989738378973315e-01,-6.174176586172575032e-01,-8.403703147542834762e-01,-1.084316795411215638e-02,-4.838215658410504813e-03,-1.527144292262092376e-02,1.084348082542419434e+00
3.344353741836888494e-01,-6.833576704483561581e-01,-7.499024238604341530e-01,-6.042491665170898058e-03,-1.248426004785482130e-02,-5.345031527883998407e-02,1.056980371475219727e+00
3.295538399306298105e-01,-6.977872363123327482e-01,-7.570865474449545163e-01,1.440461206421253700e-02,-2.011287869335190437e-02,-4.943868355522895719e-02,1.062560796737670898e+00
3.365989871084871798e-01,-6.219861607539376447e-01,-8.151450238514676983e-01,9.557656619033214757e-03,-7.192127329958331039e-03,-4.518016466130389541e-02,1.071404695510864258e+00
3.199525728025308102e-01,-7.668276319909390626e-01,-7.779141779510576615e-01,-7.900278808919273740e-03,1.395898562407852338e-02,2.449053842043872210e-03,1.092727065086364746e+00
3.618535176333190773e-01,-7.800217327223039065e-01,-7.511310648881681651e-01,8.075095407685316945e-03,-5.602533514643007716e-03,1.980837657222573288e-03,1.127841234207153320e+00
4.340972487945707337e-01,-8.901115565634121207e-01,-6.785680796756567990e-01,-4.078488143375093994e-02,-3.256990759488818249e-02,1.942328647399415020e-01,1.280431032180786133e+00
3.262846505045730594e-01,-6.727362816401345480e-01,-7.569009150393626317e-01,-1.804261876419283386e-02,-1.157117628090138621e-02,1.955333378962804958e-02,1.044860720634460449e+00
3.352473907715947665e-01,-7.297840209202116624e-01,-7.205253839801282201e-01,4.248405576868344302e-02,4.697117055289197485e-02,9.450662862850429946e-02,1.078584671020507812e+00
2.400116433250911729e-01,-7.635189838057436784e-01,-7.292802947713670214e-01,1.135573698178797379e-02,5.215644275416241732e-02,3.993170260181026082e-02,9.935883283615112305e-01
3.269996861229264584e-01,-7.419992876409221561e-01,-7.113111681827932742e-01,-7.313453442506825594e-03,4.585967452069627864e-04,8.583226763708090915e-03,1.054171323776245117e+00
3.664017823820159281e-01,-7.691203304397478124e-01,-7.720759836028495693e-01,-7.218795013612896473e-03,-4.800909290394665685e-03,2.087386557746454593e-03,1.137107729911804199e+00
2.140991187175170785e-01,-7.553278347123971725e-01,-7.594608383033459864e-01,-4.071553516896730951e-02,2.445178690964785930e-03,1.941552746963675139e-04,9.740655422210693359e-01
3.421165476338802747e-01,-6.980391412324806755e-01,-7.849680767711951779e-01,1.543763453637507846e-02,2.203879434732822912e-02,1.112663057248139929e-02,1.087402224540710449e+00
3.421350212397602508e-01,-6.691372822385198704e-01,-8.075187024578422967e-01,-3.959503998980934934e-03,1.695350946034370615e-02,2.777853903558784310e-02,1.088570952415466309e+00
3.227549977593078823e-01,-7.111710172647333073e-01,-7.324877041206299122e-01,6.530127672911262456e-03,1.235431975088041416e-02,1.586721235182728465e-02,1.045389056205749512e+00
3.187944456405980564e-01,-4.833544303389674113e-01,-8.872285186351080988e-01,-8.222170539292064997e-03,-1.159765414934469914e-03,4.861048610845036810e-02,1.066686511039733887e+00
3.532898735893229003e-01,-7.146311117461917606e-01,-8.149225490578155817e-01,1.684715073212341568e-02,3.176882345349270678e-04,-1.250696651023236981e-03,1.121816992759704590e+00
3.574715374452790417e-01,-5.282379659666937011e-01,-8.736092736092044841e-01,4.513887110467974806e-02,2.555623575237647369e-02,1.809948712661465231e-01,1.147175073623657227e+00
3.448252184526727215e-01,-7.354456610772847069e-01,-7.890629448191056605e-01,-3.802635812458789438e-03,1.785538472889512673e-02,2.157396573544808835e-02,1.109133601188659668e+00
3.560568614653708552e-01,-6.860111253374162610e-01,-8.094915124676695939e-01,2.496365860698947919e-02,1.813641822777992824e-02,1.981378190051727439e-02,1.110793471336364746e+00
3.309750447110368921e-01,-7.787807229746118720e-01,-7.774960167069764339e-01,1.829640123887103786e-02,1.103047342443439979e-02,-2.613893359954059126e-03,1.109740376472473145e+00
3.112773644721132382e-01,-7.551789738707048727e-01,-6.104667657034157369e-01,2.934035112000986378e-02,6.345741477488417437e-02,1.842979696256379085e-01,1.058537602424621582e+00
3.413926770910952202e-01,-8.554635889748878341e-01,-6.150585653020655963e-01,4.742652129156023529e-03,2.227557270164040940e-02,-2.443710411845996869e-02,1.098124265670776367e+00
3.291336308279096401e-01,-8.348986885615692355e-01,-5.867883014503130212e-01,1.105779482010889499e-02,-7.241977792558014146e-03,-2.336564760062622217e-02,1.062959790229797363e+00
3.441000245884817677e-01,-8.406657758305535744e-01,-6.271257311141678059e-01,-2.330678857679018608e-03,-1.190097981023034018e-02,-2.189711825754358382e-02,1.094602227210998535e+00
4.711145825188888248e-01,-9.761672540101127282e-01,-6.074719601408284930e-01,-1.751598151903039496e-02,2.522311517865988631e-02,7.235523289948223025e-02,1.309767127037048340e+00
3.730292932760211344e-01,-3.830835178515208383e-01,-9.588113998876208743e-01,-4.372752246067245635e-02,-1.930052479805706434e-02,-2.007727268294706366e-02,1.160408377647399902e+00
3.284282964161777119e-01,-5.038177072214087282e-01,-9.196364898999216386e-01,-7.653586779905408033e-03,-7.571189404559875921e-03,-3.828660612572335094e-03,1.100905895233154297e+00
1.202413378007819444e-01,-7.330183978552131663e-01,-7.315223750308499362e-01,7.403547896497509814e-03,-3.008467232967464502e-02,1.805679871859371295e-03,8.542057275772094727e-01
3.592273202935045706e-01,-7.896804077018779733e-01,-7.404442694965087668e-01,1.727455504141151357e-02,1.420050246776594603e-02,1.876784619268593093e-02,1.126233696937561035e+00
2.380943325692868040e-01,-7.626035613922231837e-01,-7.585854669870402134e-01,5.263351166198269870e-03,-5.241599163978768062e-04,-7.248005777969022609e-03,9.988158345222473145e-01
1.550961430316163403e-01,-7.431291523220767692e-01,-7.371060136273204222e-01,-1.487637136446032238e-02,-2.299955670193380708e-02,2.229366508231765416e-04,8.964852690696716309e-01
2.058081882324143130e-01,-7.555403801188991242e-01,-7.495471513928657625e-01,-1.906704574751058590e-02,7.655047853070313067e-03,-5.995855091979620556e-03,9.590827226638793945e-01
3.009672067678146878e-01,-1.041025745887897758e+00,-4.852692886382264370e-01,-1.188755786142759591e-02,1.531244052780405401e-02,2.203231402284120677e-01,1.229122996330261230e+00
3.334644715246405378e-01,-7.732270372789846746e-01,-7.758440009035008078e-01,-5.887013237717318020e-03,7.464608729400862156e-04,1.122204807551924113e-03,1.108051657676696777e+00
3.088909858168306100e-01,-7.320868294482557603e-01,-7.910516597024170871e-01,-3.727128982735431612e-02,-9.402862789946881891e-03,-1.217932153047482646e-01,1.094269752502441406e+00
3.831784969386452522e-01,-6.929695944396055962e-01,-8.562087908169710992e-01,1.385167005149205016e-02,2.994165631471818866e-03,-1.139106523000658552e-02,1.166791796684265137e+00
3.496149089709782443e-01,-7.599442020106750295e-01,-7.796443449756786936e-01,-2.099046875177717868e-04,-6.521106064979578613e-03,-8.102479262092175324e-03,1.119684219360351562e+00
5.020082860844385930e-01,-1.287178098928758230e+00,-2.501706917859167767e-01,-1.153914669416842287e-01,-2.526557386556323170e-02,3.245581505841235725e-01,1.667047500610351562e+00
5.706987987271594509e-01,-1.110242631381224143e+00,-2.998535648667148834e-01,4.552218158683818405e-02,3.999132240438717234e-02,1.717732640206114936e-01,1.489835858345031738e+00
3.627992670572352529e-01,-9.515532520290261864e-01,-7.751006326870751861e-01,-8.267386302903018125e-02,-1.304524521240128798e-01,7.126455025069707450e-04,1.264237761497497559e+00
3.422443762367103903e-01,-9.144238106031050695e-01,-5.266323607832894549e-01,-1.081470442597055361e-02,-9.783026139628770573e-03,-1.203373042174520763e-02,1.115053534507751465e+00
3.536094843301930135e-01,-8.262894165385090695e-01,-7.097589807247857152e-01,-1.248284336404129708e-03,-1.863120052787661796e-02,6.387354676092653685e-03,1.126683235168457031e+00
4.730349136339757621e-01,-1.009917592273891884e+00,-5.202662076074318076e-01,-2.445216158746271740e-02,1.008222289994084309e-01,4.468381562394290185e-01,1.531031966209411621e+00
1.957239748942917190e-01,-7.461940281698644650e-01,-7.573014137750210262e-01,2.953996491073271335e-02,-4.334528354503438402e-02,3.852318700954066900e-03,9.518896937370300293e-01
3.161468533901629629e-01,-9.237899036310128764e-01,-5.780014990140943665e-01,-5.820253672986384214e-02,-5.798418304879658473e-03,1.189491946509930870e-01,1.131798267364501953e+00
3.201458183798240320e-01,-7.763571572209749805e-01,-7.753858736907583982e-01,-8.212619162390397132e-03,7.994039671791131063e-03,-3.284660679381509827e-03,1.096212148666381836e+00
3.312312275346039891e-01,-7.917903496846928624e-01,-8.461023214404505000e-01,-3.038845465110962679e-02,-1.471697067640211944e-02,6.443833173277081772e-02,1.158014655113220215e+00
3.340615425410168871e-01,-7.762137683010122968e-01,-7.789970461267359259e-01,-6.766745399244221242e-03,-2.984379710884326777e-04,-3.475239514797022044e-03,1.111747741699218750e+00
7.633474256192745999e-02,-7.243221706424247675e-01,-7.706886233680945164e-01,1.154310106607450565e-01,1.240650041735981944e-02,-1.217355418336192180e-01,8.747676014900207520e-01
1.886382641971907081e-01,-7.512189905842221460e-01,-7.444026797263409989e-01,-9.955348637142778789e-03,1.004185560735734282e-05,-3.188997447525881643e-03,9.366427063941955566e-01
2.216945741557370120e-01,-7.596120353720046126e-01,-7.508143444081335494e-01,3.919106939228349240e-02,2.160029067272541212e-03,4.316826293417795439e-03,9.793286323547363281e-01
2.890163482146000384e-01,-7.417041891160625067e-01,-7.848727231113313829e-01,1.555216668987057828e-02,3.055084728644120746e-03,-1.162223770405006358e-02,1.053518772125244141e+00
3.299470507270909625e-01,-7.566622002261436108e-01,-6.961394337797092158e-01,1.200373656118231165e-02,2.905777822115859776e-03,-1.644874706387421115e-02,1.058247327804565430e+00
3.441651721998299496e-01,-8.071631175618888543e-01,-6.764656687775127963e-01,2.712284069722257704e-02,-2.776079530946592641e-02,-1.668549486537269574e-02,1.094311237335205078e+00
3.276979399874212495e-01,-8.040956906244762781e-01,-6.371912642653380088e-01,1.413035061661081955e-02,3.057612205556929901e-03,-3.152838693441514101e-02,1.059963107109069824e+00
3.424988690463491858e-01,-7.411671376273245571e-01,-7.406965050863357769e-01,9.092034157246983370e-03,-4.581176743034365978e-03,-1.863205583503762044e-02,1.084054708480834961e+00
3.515386198591350930e-01,-7.372596004767497657e-01,-7.722005367156503652e-01,5.965097996865199696e-03,-8.745241648548920249e-03,-2.213693678244013294e-02,1.107498288154602051e+00
3.271607912361367276e-01,-7.838871677433021379e-01,-6.578863763647174734e-01,1.615718491354553241e-02,-1.396021643984520638e-02,-1.363077379538799906e-02,1.054625988006591797e+00
3.239955312565562795e-01,-6.205115813462932506e-01,-7.984269376273742669e-01,1.844044197144710517e-02,-1.468956194141947391e-02,-3.487065031940980026e-02,1.047427892684936523e+00
4.216179544848744354e-01,-8.757909986718881434e-01,-4.724720460530318356e-01,3.090729825562504515e-02,-1.104641640574535039e-01,-3.858512790294196804e-01,1.344910025596618652e+00
3.828414329091495705e-01,-8.115934481278597179e-01,-6.504220095902077947e-01,2.959304877014530891e-02,-8.058172796034709928e-02,-1.813206015799058435e-01,1.175109028816223145e+00
4.681996399518560392e-01,-1.135625040416790688e+00,-3.789207681327766419e-01,-9.145732439688922591e-03,6.336081958023259686e-02,-3.708824170256466712e-01,1.534988641738891602e+00
3.203291575564622407e-01,-7.476834292865670584e-01,-6.719406367092889409e-01,6.341570050595363335e-03,-3.531377416821502701e-03,-6.875467975295794509e-02,1.039150238037109375e+00
3.355337202806045194e-01,-8.025705152144095855e-01,-6.607646604600247997e-01,1.449988330377341428e-02,-1.930772529190878271e-03,-5.834733846516031164e-02,1.079284667968750000e+00
3.718182004858516798e-01,-1.655527964721348610e-01,-1.076954778880462538e+00,-5.634100940526903800e-02,-1.328529021539968935e-02,-5.949131081131349419e-02,1.276656627655029297e+00
3.501914484221086421e-01,-8.618252878415819662e-01,-5.921155137373619315e-01,-2.327005214966293076e-02,-6.615652901595343860e-02,6.280100163859346496e-02,1.114191055297851562e+00
3.538153802363957490e-01,-7.955207966481312454e-01,-7.141031159281920893e-01,-1.156800609181616278e-02,5.942116706994638071e-03,1.228713157339868592e-02,1.111299514770507812e+00
2.757552744191574257e-01,-7.765708435282152600e-01,-7.732417718623354475e-01,-3.188002020652585394e-02,-1.278091716683742857e-02,1.335709643458357285e-02,1.052602648735046387e+00
3.209807336709044612e-01,-8.521323032340375470e-01,-5.562619741544339025e-01,-1.820529743357803681e-02,-3.266924035612231436e-02,2.952300481802250590e-02,1.059931635856628418e+00
3.320617903432313001e-01,-6.928647553856950303e-01,-7.566829928562499585e-01,-1.233066475857429178e-02,-1.147482425054339138e-02,5.489236054149321253e-02,1.062942504882812500e+00
3.186893354275480150e-01,-7.469883311076661592e-01,-7.915279853464292081e-01,-2.628953800886398712e-02,2.300608466807900487e-02,-2.607046419454041655e-02,1.091246008872985840e+00
2.112247090324432253e-01,-7.538598685028616853e-01,-7.537858384434983350e-01,1.003762114559193959e-02,2.596763394016646936e-02,4.052277007044065814e-03,9.662770032882690430e-01
1.946326004883653371e-01,-7.969203442460939257e-01,-8.077402420188054544e-01,2.428692644873135017e-03,-2.246328580558231564e-02,-7.054848996131580716e-03,9.978495240211486816e-01
1.874350897659472492e-01,-7.427815799871498870e-01,-7.533804687641375564e-01,-4.950643144604673952e-03,-1.164199335372171837e-02,7.340924089825288240e-03,9.359040856361389160e-01
2.587374441500200906e-01,-7.632473016405376676e-01,-7.609432919218641622e-01,-2.399045821816864210e-02,-6.518214291841050063e-03,5.497922468004504647e-03,1.021786808967590332e+00
2.680511112366533166e-01,-7.650961856813736084e-01,-7.634107601764719142e-01,6.765204798885306355e-03,1.730550193057876079e-02,4.792077284350457732e-03,1.032840490341186523e+00
2.234137815298271601e-01,-7.648583759861878884e-01,-7.619869255428399768e-01,-3.073606729848211289e-02,5.579173345282008312e-02,-2.340087770719183335e-02,9.938145875930786133e-01
3.144229781864784634e-01,-8.322241713880322855e-01,-8.387051724179063195e-01,4.836061372856453183e-02,-6.995863516349907010e-03,-7.142860915851680093e-02,1.159630298614501953e+00
3.012276565494729219e-01,-7.751320538325475740e-01,-7.731727534102967869e-01,-1.444116920840003053e-03,-7.583222218497080594e-04,7.869948321526499743e-03,1.075471520423889160e+00
3.474276465999445174e-01,-6.648413507846725468e-01,-8.187485509274841089e-01,-2.780510870714225646e-02,1.588788022381563969e-02,-6.141442255947254271e-03,1.098799943923950195e+00
3.286437875884840043e-01,-5.781781667614219744e-01,-8.411440659055984259e-01,-2.875864954042716207e-02,8.808260923797038913e-03,-6.775131720675536817e-03,1.064327001571655273e+00
4.245358069986874261e-01,-6.148375634243579135e-01,-9.603780467265562448e-01,5.973224655488934033e-03,-1.276076798839762862e-02,-5.871195847171142151e-02,1.252907633781433105e+00
3.549167943715097473e-01,-7.239860203948476070e-01,-7.961276504494566586e-01,-1.021820618323812831e-02,9.745537151843309057e-03,-1.217887704193189660e-02,1.117189645767211914e+00
3.748113717706755277e-01,-8.164023912212182710e-01,-7.551502587831986357e-01,-8.193108609269096274e-03,-3.240276964230871630e-03,-1.520909047210922821e-02,1.162198185920715332e+00
3.316764526578576122e-01,-7.704686252836164817e-01,-7.782001217783645064e-01,4.578997253978957238e-03,7.581718824162080039e-05,7.714472336427231989e-04,1.106060385704040527e+00
3.699591272279460497e-01,-6.778615814271889972e-01,-8.312094242352263684e-01,3.408461097949744018e-03,1.614455839013230411e-04,-1.044793199269844833e-02,1.132469534873962402e+00
3.563730431920616448e-01,-7.147518194017667970e-01,-7.977657690885797681e-01,7.110141204432678629e-03,1.063786312331744914e-02,-1.179557301489173211e-02,1.115359425544738770e+00
3.899601566980546163e-01,-8.178985205794017110e-01,-8.514347010635359148e-01,2.419718606857001672e-02,-2.895824209895989446e-02,-8.861528575575189359e-02,1.236278533935546875e+00
2.237175695900155414e-01,-7.636024748762986203e-01,-7.546721614487550411e-01,-1.954289994550414272e-02,-2.521875901019585142e-02,-3.392874266109466644e-03,9.844551086425781250e-01
3.381564923867949601e-01,-8.022240674456075915e-01,-6.555894110696243171e-01,1.368699130488488028e-02,7.887180510909147166e-03,-1.355093385834103478e-02,1.075197577476501465e+00
3.369691583402593671e-01,-8.079992880676405420e-01,-3.966068864435661201e-01,-6.481894059912580303e-03,-3.768968441971649094e-03,-3.473706280346163799e-01,1.171039223670959473e+00
3.114186815325667435e-01,-5.882758307197641923e-01,-8.139956086032966720e-01,1.247950165697923105e-03,-8.125570008856915563e-03,-4.604616828681066393e-02,1.034428358078002930e+00
3.147411559993297248e-01,-6.546913907760486540e-01,-7.453709399631858190e-01,-4.215936372826589902e-03,1.355036916770802503e-03,-2.938010659163165644e-02,1.019106626510620117e+00
3.398153290010156868e-01,-5.737034991381553262e-01,-8.687733794112773023e-01,-2.437489147568213527e-02,1.274930950325462407e-02,-8.200461340074578775e-03,1.092522978782653809e+00
3.616242200868221568e-01,-7.038211394331848059e-01,-8.189862554604168121e-01,1.134696936269108045e-02,4.937515626191161383e-03,-3.693657045448169030e-03,1.127669811248779297e+00
3.519577098546997074e-01,-6.863451313390354080e-01,-8.498037121328090304e-01,-2.679623837779589179e-02,-1.595560750029927696e-03,-2.062847254604062777e-02,1.130464196205139160e+00
3.844982073576735382e-01,-5.764920681485218301e-01,-8.813692212645916069e-01,-7.704910740344148024e-02,7.362418389211604700e-03,1.674269669560713575e-02,1.152497172355651855e+00
3.341965011479027803e-01,-5.064590086902449606e-01,-8.819485440439319701e-01,-3.530884164156544019e-02,4.948978959222956331e-02,-7.898213467600248561e-02,1.092315793037414551e+00
3.403999514698741180e-01,-4.059863826936470632e-01,-1.010134284131411597e+00,2.428870435881477080e-02,3.379394364840677262e-02,1.505997382778621885e-02,1.174262046813964844e+00
3.813489341126873322e-01,-6.279473053296238394e-01,-9.219518558135925135e-01,-2.906077262009975834e-02,-3.177204890785045865e-02,-8.310895642873815381e-02,1.195047497749328613e+00
3.082355951374394221e-01,-7.749200082441469739e-01,-4.590255015683324391e-01,1.652117284539549036e-02,2.064693220939287088e-02,3.620672002119121324e-01,1.151619791984558105e+00
3.300815446665887887e-01,-7.852005308830427577e-01,-6.577612445567385668e-01,1.080991578289090121e-02,-4.657108829752831629e-03,2.414331113756202837e-02,1.058361172676086426e+00
3.229676175937006843e-01,-7.278450465428643046e-01,-7.230023948964025005e-01,2.409886143291064056e-02,1.660077486052577347e-03,4.269270059704148579e-02,1.051836729049682617e+00
3.579244301947290263e-01,-7.948137785584501458e-01,-7.303641978981175731e-01,1.037310026397750100e-02,9.631958675838533934e-03,9.231618235079619428e-03,1.122284412384033203e+00
3.412926772064464598e-01,-8.206595077397367266e-01,-6.214219559273170823e-01,-3.370073497638831957e-03,-2.336737451101908447e-02,2.915793604541850118e-02,1.078214645385742188e+00
4.403742959748197516e-01,-1.209869860237705597e+00,-2.104164202338744960e-01,5.662385577632222944e-02,8.210968336767034137e-02,3.609047929596903015e-01,1.579073309898376465e+00
6.988236236460940720e-01,-9.773042308869313022e-01,-4.555799715870977318e-01,1.384631830226402682e-01,4.780797728945876575e-03,3.163569292583399695e-01,1.601547360420227051e+00
3.669029584782229625e-01,-7.579406527424474849e-01,-7.982876064619495171e-01,-5.612889979370512018e-03,6.257037674417388270e-03,7.832411208702423676e-04,1.145643472671508789e+00
3.086111564681859876e-01,-7.936459062264675790e-01,-5.848978273378142578e-01,8.424326732216600930e-03,6.840050658874775348e-03,5.550307291520850672e-02,1.018846154212951660e+00
3.217996527024066800e-01,-8.089037064969553104e-01,-6.050605093658427691e-01,1.710207453461550647e-02,3.670053823281532734e-03,7.533397425527044167e-02,1.052377939224243164e+00
4.636786573379335641e-01,-1.000644462756432596e+00,-5.467430481445387791e-01,-8.018434077143078709e-02,3.514058587230945319e-04,5.026244554685517230e-01,1.569328904151916504e+00
3.369089358910811738e-01,-6.274830407222186102e-01,-6.036381488654529726e-01,-3.930584091682928771e-02,-2.841294023508217706e-02,4.131124258300548080e-01,1.194431662559509277e+00
5.899548477885327991e-01,-4.348430989595022389e-01,-1.011161093055060745e+00,-6.149733480573957994e-02,-9.500672414177728509e-02,2.305338280993612654e-01,1.473371982574462891e+00
4.656496388664307928e-01,-6.647830378722376921e-01,-8.173104391566261562e-01,-5.487949813407028143e-02,4.487719208058692233e-02,-2.390750589949056093e-01,1.288453459739685059e+00
3.390552086789266895e-01,-3.761746295282663022e-01,-8.482526467003735915e-01,-7.934234731881274760e-02,4.804635825805848859e-02,-3.533162817844366366e-01,1.213410019874572754e+00
6.750380205720067917e-01,-4.983849470501267032e-01,-9.637989541199825094e-01,1.547518160251109831e-01,8.096585567726022337e-02,-3.425422466385144027e-01,1.607226014137268066e+00
3.697964888254294813e-01,-5.664324642537381660e-01,-9.487052100484741901e-01,-3.743652402589666556e-02,-3.736432000682479715e-02,-1.765381890821672572e-01,1.217555642127990723e+00
3.410607367579943094e-01,-6.402324411578970143e-01,-8.239544752707346209e-01,-3.787881962491769505e-02,-4.304805535914791800e-03,1.051372555757595917e-02,1.087045073509216309e+00
3.475184432343568774e-01,-7.601462079783832815e-01,-7.887714480136132078e-01,-4.456455514701884203e-03,-6.955906646594217820e-03,4.956249194364097110e-03,1.122375130653381348e+00
3.093600406165293304e-01,-6.813062952120854110e-01,-8.857627366827931503e-01,-4.340396549598638139e-03,-2.443946821503362524e-02,3.609772057052968580e-02,1.109742283821105957e+00
3.304778686896636675e-01,-5.663003838672417967e-01,-8.441675446144771833e-01,-3.475308315134552350e-02,-2.002480558891177320e-02,3.342158161941463645e-02,1.067138195037841797e+00
3.060292259214560939e-01,-6.339089983758310343e-01,-7.275485851514857938e-01,1.663627460975699093e-02,1.386065754602203333e-02,1.194394280474537773e-01,1.012161850929260254e+00
5.347573347843870284e-01,-9.243304072010951611e-01,-5.466452449950139902e-01,1.246130485356343985e-02,2.475594623915300732e-03,4.616746892615288811e-01,1.536366581916809082e+00
3.366044741972409882e-01,-8.061528803366526663e-01,-6.524272936808430678e-01,-1.276995729178690211e-02,6.635156899100225388e-03,1.540339092792706276e-02,1.074796676635742188e+00
3.132663303094977425e-01,-7.572866091991895532e-01,-6.549941107337479140e-01,-8.010621899794300588e-03,-7.698141468089331326e-04,2.759515044354491492e-02,1.024459123611450195e+00
4.045988701709239965e-01,-9.567933780252966258e-01,-4.256100749416810158e-01,-1.895253671621249109e-02,-2.606433243915520781e-02,1.777657780211992500e-01,1.228948116302490234e+00
3.536458264115743266e-01,-7.860074568128345707e-01,-7.767293945792519416e-01,-1.153095897174294740e-03,3.144359438763796779e-03,8.596507113971625300e-04,1.135058522224426270e+00
3.585430926620656322e-01,-7.889934955549255946e-01,-7.673927279601048257e-01,-9.738586825271284284e-04,8.113508412792539912e-03,-2.205634049911784061e-03,1.136984586715698242e+00
2.174825942725543970e-01,-7.499928460661680063e-01,-7.557950773667707622e-01,1.021606491433056652e-02,1.166719130386248936e-02,-1.093924116182538007e-03,9.707630872726440430e-01
3.428250518451720352e-01,-7.872553578334953173e-01,-7.701369622473067666e-01,1.438924303107378668e-03,-6.820365045194844503e-03,6.753172942187986695e-04,1.121684789657592773e+00
3.549022900662784363e-01,-7.892983589127480215e-01,-7.765442941206749383e-01,2.326616994613269938e-04,2.744527655428397831e-03,1.326333157795196250e-03,1.137889504432678223e+00
3.541213755031680788e-01,-7.864757961848176659e-01,-7.767754359155474297e-01,1.941985989242753707e-03,1.524196259765685105e-03,1.655060814891238770e-04,1.135786175727844238e+00
2.804844261458536159e-01,-7.721172053162936866e-01,-7.465825827192151820e-01,-5.035980570190714753e-03,-1.956328616697169606e-02,-5.294267256225814941e-03,1.040698170661926270e+00
3.535054404458021216e-01,-7.869796233893970872e-01,-7.753677767295696910e-01,-1.273086520499549373e-03,2.967067573676386658e-03,6.367005992439730457e-04,1.134737968444824219e+00
3.595660753713557645e-01,-7.955066876845197088e-01,-7.735914391188760675e-01,4.172551105687336958e-04,8.082429426495734478e-04,-9.206642241199983505e-04,1.144274711608886719e+00
1.645934444087917004e-01,-7.966410841484118377e-01,-7.913047565870388045e-01,7.549914936476280480e-02,-3.963396982199807184e-02,-7.747487501364286842e-03,9.699813723564147949e-01
3.644618058143343498e-01,-7.871665315302562860e-01,-7.685479525626380815e-01,-6.711049799115596792e-03,4.811328385940212213e-03,-2.525444079988966101e-05,1.142522335052490234e+00
3.962021380997170494e-01,-9.276334691930715470e-01,-7.307889400950611236e-01,-2.660188732428027045e-02,-7.147770336388300366e-03,1.156174150476197565e-01,1.254223704338073730e+00
1.527886638661388741e-01,-7.258096481647231535e-01,-8.044694273568631093e-01,7.904429539043206915e-03,-2.847170929543223553e-02,1.036132521509735752e-04,9.218742251396179199e-01
4.156637062241219649e-01,-7.775311923739411935e-01,-8.578521869778676923e-01,-4.081808548155265587e-02,-1.262940311969220318e-02,-1.076270073031708741e-01,1.251491785049438477e+00
3.129161947583889436e-01,-7.729575473649696882e-01,-7.748914124802445125e-01,-8.038933339823426186e-03,-1.382536583747122176e-02,4.906524564252707707e-03,1.087228059768676758e+00
2.675572791934355821e-01,-7.642656806504855016e-01,-7.650959111507025234e-01,-5.594712089809678740e-03,-1.840761294160677200e-02,4.564230674858832729e-03,1.032806277275085449e+00
2.830371132636115283e-01,-7.724440835080967904e-01,-7.679850777991812372e-01,3.539779031386968387e-03,-1.177179750067030607e-02,-5.701547569624753134e-03,1.053520202636718750e+00
2.182293975232114103e-01,-7.660985019271941976e-01,-7.522238056216514757e-01,1.398058896945576259e-02,2.130289155438617327e-02,-5.055768201435564824e-03,9.784994721412658691e-01
2.673507968549825864e-01,-7.657842181230198886e-01,-7.640695622994411185e-01,-1.953275724189751979e-03,1.884815117550341437e-02,2.694108975884054302e-03,1.032810926437377930e+00
2.833579544526310667e-01,-7.730552677807733808e-01,-7.699285356256384549e-01,-3.487033582797859077e-03,-1.010305177847368834e-02,4.396332993721995507e-03,1.055043220520019531e+00
3.315339869591312216e-01,-7.840002915698749408e-01,-7.744176040043615483e-01,6.913626970149199013e-04,-7.400528559537366928e-03,4.108161947939319852e-03,1.110871315002441406e+00
3.273596199047159594e-01,-7.800735960542672931e-01,-7.696464972596985810e-01,-3.599634495207534694e-03,-4.621442203223233292e-03,4.805792692292692493e-03,1.102334737777709961e+00
3.399138807286689046e-01,-7.827122957779217849e-01,-7.774896153241518393e-01,7.454789876403983967e-03,-9.569278330541334393e-03,-3.380081284152253868e-03,1.120236277580261230e+00
2.893106716669653911e-01,-7.543102598495365907e-01,-7.709824709339665461e-01,-1.580219981642029883e-02,6.029604682287584977e-03,1.532134069955924487e-02,1.052798390388488770e+00
2.677598223810837563e-01,-7.660164942175494707e-01,-7.707457134795839826e-01,1.262806227441433914e-02,5.106945722615261786e-03,-3.836941461791342975e-04,1.036417841911315918e+00
3.525617818001656190e-01,-6.462813191207888996e-01,-8.234476747763358473e-01,-7.759734155690248790e-03,7.656353201470253098e-03,-1.291223976771207205e-01,1.120897412300109863e+00
3.399247074564469284e-01,-7.952211170478822311e-01,-7.250285150481381446e-01,-1.004768525469066330e-02,3.777562409128877845e-03,3.331208646902091008e-02,1.103394269943237305e+00
3.446480862567632419e-01,-7.591979668863013675e-01,-7.292756365036368038e-01,-1.465429924702345288e-02,-6.623570555443732306e-03,6.435548197198794756e-03,1.089606285095214844e+00
3.423330040545858322e-01,-7.513731424273568660e-01,-7.333013488580324424e-01,-1.188639337528494579e-02,-3.239498379360979206e-03,7.136782580285832775e-03,1.085063457489013672e+00
3.567624674237301341e-01,-7.357434150133701500e-01,-7.577547429219655406e-01,-7.835710639565167390e-03,-6.504228902976016795e-03,3.233571471352738452e-02,1.105237126350402832e+00
3.428247391638240549e-01,-8.022808189666770229e-01,-6.714796341605416830e-01,-1.700713674109655821e-02,-3.016899734873733710e-02,8.988463609873285909e-03,1.087398290634155273e+00
3.594677052275286888e-01,-7.958154103482004693e-01,-7.254762502821259229e-01,-8.665392269594436245e-03,8.219297863866615803e-03,9.781424788709400242e-03,1.122087359428405762e+00
3.176995491828499829e-01,-8.395492077288730925e-01,-7.515551562216242765e-01,4.216089528278461895e-02,5.746746475677626254e-03,8.582422089828353751e-02,1.128124833106994629e+00
3.632568477114972993e-01,-7.560914436362797808e-01,-7.858532750879065887e-01,4.700856379811631583e-03,-6.969947273632320570e-03,-2.570330137724700795e-04,1.134615540504455566e+00
3.756958547966826600e-01,-7.789134548407459224e-01,-7.772289526099152024e-01,-7.251818604955405221e-10,2.731235131000545849e-05,-1.369506411552262094e-04,1.153768062591552734e+00
3.726323957686993871e-01,-7.736957939892085134e-01,-7.772497220849439170e-01,2.092935269741657590e-03,3.088923954194580375e-05,-1.487436062456091155e-04,1.148115038871765137e+00
3.758285171562972260e-01,-7.785669359390685607e-01,-7.779402554327623509e-01,-3.209657831609058509e-05,2.691909127671911451e-09,-4.325258182939295884e-04,1.154082536697387695e+00
3.748212043104974245e-01,-7.802662662049584252e-01,-7.774893403271445624e-01,1.029207264444672405e-03,-2.527322239097194658e-04,1.045342581179740504e-03,1.153704404830932617e+00
3.698791311790991521e-01,-7.741686034938048966e-01,-7.699864871360830865e-01,1.935367523550675806e-03,-1.771347794437311014e-03,-2.331474991650942397e-03,1.141978621482849121e+00
3.698580364583179958e-01,-7.792130326245041427e-01,-7.694441704164910467e-01,6.439936959866440075e-03,-4.982133457298677792e-03,4.291544635043955682e-04,1.144305109977722168e+00
4.050024145632658001e-01,-9.269607889923964228e-01,-6.694945286304313514e-01,-4.787329786916978518e-03,1.953140745732461978e-02,1.060457859526842544e-01,1.237913370132446289e+00
1.651370328077211291e-01,-1.018162467404601035e+00,-3.518879103978072020e-01,6.718020546314082408e-02,7.694062027474790622e-02,4.229158748595927136e-02,1.045170783996582031e+00
2.670573718730306911e-01,-9.756562716648541356e-01,-5.663705117095908514e-01,-4.075135491911956870e-02,4.941022177435559076e-02,2.546243703377009671e-01,1.187448501586914062e+00
1.622288770999785190e-01,-9.151662000149287657e-01,-3.901661048143829635e-01,-1.448668261884918616e-02,7.775826330764987193e-02,8.773137014707348136e-02,9.553176164627075195e-01
3.609109421493913450e-01,-8.327723249204126432e-01,-6.913900145824540822e-01,-1.829573391363519420e-03,-1.051284704519844793e-02,-2.044258943285978160e-03,1.129804015159606934e+00
6.634119528727386861e-01,-1.342894779379483206e+00,-3.308079072003436427e-01,-2.410252984666146070e-02,-4.387395969034033061e-02,1.650652069216504148e-01,1.763033509254455566e+00
3.184767660613452844e-01,-8.056597203092429327e-01,-5.818022612110608227e-01,7.259063779840835631e-03,1.860044399285846334e-02,4.386904456150388099e-02,1.033981680870056152e+00
6.375059017659951976e-01,-1.048752624507559128e+00,-4.331113739916845340e-01,-8.007900212458840539e-02,8.709498119737842103e-02,2.588866387162702121e-01,1.558015704154968262e+00
3.218584183150029476e-01,-7.662422757111788663e-01,-5.682550307008928936e-01,5.124909530779144136e-03,-5.091100580043003698e-02,2.942667138638775381e-01,1.129320740699768066e+00
4.866353354274843834e-01,-8.058880514065120959e-01,-7.027853391049648790e-01,-9.665687440931877011e-03,-3.872362390799289483e-02,2.690219456847187662e-01,1.330368876457214355e+00
3.179183238196032213e-01,-8.227291966603830220e-01,-5.702776689342707872e-01,-6.978299429711250397e-03,7.737574258520323739e-04,7.818359556862759796e-02,1.046583175659179688e+00
3.298210577859599368e-01,-5.999525810526755709e-01,-8.174990078401317417e-01,1.149024828775832389e-02,-7.018510237538079857e-03,-4.214603293492253516e-02,1.058275580406188965e+00
3.811247787686926625e-01,-7.080157006754406179e-01,-5.419915051848696042e-01,2.393090000494889347e-02,6.161598861978777320e-02,4.167712977869609814e-01,1.251866579055786133e+00
5.507956789341910131e-01,-9.975250129021108192e-01,-5.649538271669340972e-01,8.338630613759268062e-02,5.747145787830636871e-02,5.174213174835775586e-01,1.657889962196350098e+00
2.995159999857520128e-01,-6.336174529378527653e-01,-5.582230044783432765e-01,-3.358459938087908492e-02,4.351725172307283757e-02,4.818874939361411092e-01,1.229544997215270996e+00
4.190805729570178384e-01,-1.029051777538570800e+00,-4.399546345045533546e-01,-1.116596498027200290e-02,2.655631809636335716e-02,3.981587635368394884e-01,1.438441157341003418e+00
4.147481187560974614e-01,-8.062282134510592169e-01,-5.560556934139021523e-01,-1.120340319898697687e-02,-6.580260527274604809e-02,2.436935582920687349e-01,1.199766993522644043e+00
3.006010985793084456e-01,-5.315405563223352114e-01,-7.913928643140152319e-01,-1.664381143735949725e-02,1.441268528380757440e-03,-1.634298061597719842e-01,1.028193593025207520e+00
3.589293780458125971e-01,-7.856947258060489325e-01,-7.723266249748299561e-01,-3.034003433300353457e-03,-1.202175697625419660e-03,4.633504895862261747e-04,1.138013243675231934e+00
3.586581475792391394e-01,-7.852639784788149058e-01,-7.768686209646598062e-01,-3.093887519932370187e-03,2.478414100654306902e-03,1.189113710577730876e-03,1.139770150184631348e+00
3.667002832822998659e-01,-7.900783744979167356e-01,-7.735574408415623049e-01,-9.221428368434324762e-04,-2.094564037767845423e-03,8.282773574868279934e-04,1.148615002632141113e+00
3.602318227943974160e-01,-7.882085404376966142e-01,-7.748179342935246350e-01,-2.639663309221624427e-03,2.185392617435732727e-03,1.073679018921037823e-03,1.141820907592773438e+00
3.645705690139302013e-01,-7.994071343058366530e-01,-7.556882544465828300e-01,-4.062704484709835084e-03,-6.623112053210608238e-03,2.128283160029239716e-04,1.142825007438659668e+00
3.577354804317652293e-01,-8.038720112404620366e-01,-7.255147425206638356e-01,-1.038057050886835066e-02,1.272905648303618645e-02,-5.622415907192705037e-03,1.124880313873291016e+00
3.491653110941045912e-01,-7.743723860749665011e-01,-7.770674008205347150e-01,7.119294333648113447e-03,-8.354631189360063603e-03,8.589827432618224196e-04,1.125049233436584473e+00
3.242616752475096509e-01,-6.532041467064424456e-01,-8.169506306794334094e-01,2.912654187075791948e-02,-2.839289767483385227e-02,-1.713959581231398396e-02,1.071519374847412109e+00
5.743534301159436417e-01,-4.057378694637920891e-01,-1.079774801107641791e+00,-5.165401014925860568e-02,3.186636398173874583e-03,-3.185931294518460910e-01,1.545335650444030762e+00
2.674973963312924918e-01,-2.799661961150401446e-01,-9.445785376190485305e-01,-4.818271145680982220e-02,-3.956305561321788334e-04,-1.389727566346131149e-01,1.081749677658081055e+00
3.990352900729011165e-01,-6.885474245974935181e-01,-9.227490307827515004e-01,4.573184800119532017e-02,2.032151444730451520e-03,-4.755445258425142208e-02,1.226976394653320312e+00
4.301484410610018627e-01,-6.890820295645887494e-01,-9.343958280458648513e-01,6.953371044130177148e-02,-2.511040481955530493e-02,-1.330419763122153154e-01,1.287212252616882324e+00
4.756301432713421762e-01,-5.446298313462042406e-01,-9.230359674544934556e-01,7.514863688069960135e-02,8.445874889589374823e-02,-2.271587191850913956e-01,1.327907919883728027e+00
4.423041336807985724e-01,-8.087584985252378456e-01,-8.011123325129222428e-01,-2.602829804417763383e-03,6.158335174432014864e-03,-1.415811586990575466e-01,1.271188497543334961e+00
3.575537783714840545e-01,-7.766195104634312507e-01,-7.846913927263006183e-01,-3.511429497016240603e-03,3.543167875982773142e-03,9.158216142064691447e-04,1.138264536857604980e+00
3.302143276792299798e-01,-5.297063964906464362e-01,-8.888539214003039479e-01,-3.313081580031451007e-02,7.902061154661283934e-03,-1.997299828409379932e-02,1.087182641029357910e+00
3.662379867230894370e-01,-7.737344279720965723e-01,-7.876707781183367452e-01,5.702914215410611123e-03,5.081297656155129606e-03,1.554283740304674170e-03,1.147083520889282227e+00
3.495651639701430335e-01,-7.620302133443090931e-01,-7.883662014221685110e-01,-2.203888911961361663e-03,1.201243147378866331e-03,1.060779192150967205e-04,1.125002980232238770e+00
3.738599461223659493e-01,-7.752296095732682524e-01,-7.780962600323986234e-01,4.690904311754630330e-04,7.846680106770781210e-04,1.775696334536023668e-03,1.150530815124511719e+00
3.634489496833065436e-01,-7.725765851393846528e-01,-7.901624504256120618e-01,4.588863167788666091e-03,6.951673210339556113e-04,2.456476929782521888e-04,1.144948124885559082e+00
3.308330936022418900e-01,-7.749555669699559335e-01,-7.818700495525073846e-01,-8.850149672513778903e-03,-7.426487538177414804e-03,-2.287622613360742302e-04,1.109442591667175293e+00
3.495455920885411349e-01,-8.836886551956959490e-01,-4.568411786470569780e-01,-3.939895173798697164e-02,-8.336126036440927659e-03,2.763404136279233869e-01,1.187695264816284180e+00
5.341679358443482961e-01,-1.102084439205334832e+00,-4.465921457061690636e-01,5.597460522143791160e-03,-6.884852169090283081e-02,4.596158948776218889e-01,1.637832641601562500e+00
4.182054189702654190e-01,-1.299137938627937805e+00,-3.065652537868601146e-01,5.693061606102460537e-02,8.991304287989938804e-02,1.299754660690453645e-01,1.521360516548156738e+00
4.505008595418613648e-01,-1.012042299549985813e+00,-3.954554458748965606e-01,7.489655763764980524e-03,1.608824120468553900e-02,3.114559642871002065e-01,1.381805419921875000e+00
3.281511450581082734e-01,-7.932717518493276332e-01,-6.376627424580743053e-01,6.036778925064886260e-03,-4.366376596397159894e-03,9.066965142824585933e-02,1.064015746116638184e+00
3.403645180670930581e-01,-6.636262766941340985e-01,-7.586144314350327100e-01,2.786924526529213630e-02,2.211144690294871568e-02,7.298397621755596532e-02,1.064032077789306641e+00
3.242044399440329183e-01,-7.215599824697257469e-01,-7.020205718155666519e-01,9.999876798409912393e-03,-1.063900845827630073e-02,-1.314914464646986525e-01,1.061169624328613281e+00
3.585790826116261876e-01,-8.265110426511520503e-01,-6.943844735204905971e-01,-1.131356789133974557e-03,9.729782474839515985e-03,-2.788609674892201639e-03,1.125000119209289551e+00
3.793074312272939341e-01,-9.667431738165340738e-01,-7.223233017481325291e-01,3.631625165545950690e-02,-5.674367626681323107e-02,-6.016682669860566081e-03,1.247524142265319824e+00
2.816467962156991578e-01,-8.872016216573868075e-01,-5.259907588904435549e-01,7.521685732107655058e-03,-9.935534570511996011e-02,-3.370336856425414085e-02,1.052459597587585449e+00
3.475539132670145692e-01,-8.658868142770067555e-01,-6.055370421728560881e-01,-9.101057580116977963e-03,1.890951279247154657e-02,-1.351690806087959412e-03,1.107080817222595215e+00
3.390638226053247495e-01,-8.839115709424356648e-01,-6.098700898134556958e-01,-1.010687957611181714e-02,-2.604671097958091708e-02,-1.494775163940336438e-01,1.142363309860229492e+00
3.599109560447219525e-01,-8.774089052515475773e-01,-6.345226556739811397e-01,2.672277476191146223e-02,-1.952036807150631798e-02,-1.014575812048545689e-01,1.150474905967712402e+00
2.791423959152552481e-01,-7.733801572312941630e-01,-7.586412166623067721e-01,-3.604542380401509413e-03,4.723008099778956692e-02,-2.735175504805004501e-03,1.048456668853759766e+00
3.669413949189664903e-01,-8.643406370603636812e-01,-6.200713388762251199e-01,-3.927392066884268645e-02,6.205674085309820925e-02,-5.760051900629489796e-02,1.140654444694519043e+00
6.424998223242367468e-01,-7.000674190596193336e-01,-7.074140751894931745e-01,1.252203708342475574e-01,-3.512052381134215390e-02,-4.314078938371227467e-01,1.556111574172973633e+00
4.597457851823645303e-01,-9.287322198941757589e-01,-6.062637063038833762e-01,5.945706557015512962e-03,3.425429886071727770e-02,-5.453069180718561615e-01,1.574744939804077148e+00
3.286473203363710627e-01,-8.471039568818030663e-01,-5.607725466316137997e-01,-1.285199924978689019e-02,3.972733185746272350e-02,-2.740994671505568928e-02,1.065460681915283203e+00
3.325007974239681530e-01,-7.115912756622997382e-01,-7.407949532840891749e-01,1.062670399539962333e-02,-1.602997066846839624e-02,-5.713831143689523939e-02,1.064131736755371094e+00
6.137116339301071921e-01,-1.137781255760851318e+00,-2.573880483654908402e-01,-1.637322247681240184e-02,-1.591673734709613940e-03,-9.947025552338449594e-02,1.526863455772399902e+00
4.238478277916114534e-01,-9.979355036691354153e-01,-4.779307944985286549e-01,1.676078356501514406e-03,-9.461173370138128286e-03,-1.119491325532217807e-01,1.261116027832031250e+00
3.291958643279903618e-01,-5.818475988431504042e-01,-6.345449482010094844e-01,-1.400991248359317008e-02,4.459083520572874881e-02,-4.643400273315836935e-01,1.238618373870849609e+00
3.091913883040162125e-01,-7.374819905982243906e-01,-6.688151720824554447e-01,-7.213725436692441581e-03,5.260648479242287928e-03,-3.045028480999497841e-02,1.015573382377624512e+00
2.213441760111127810e-01,-5.119611919360567143e-01,-1.105056150712443674e+00,9.494779656376522992e-02,7.872980228249629175e-02,2.100556936268281050e-01,1.225736021995544434e+00
2.880369682879990734e-01,-4.459683523680973982e-01,-8.916176531241674086e-01,1.242693001981749895e-01,1.083265620229396931e-02,2.147223069744864099e-01,1.117798566818237305e+00
2.953144119410295865e-01,-5.904133236863110534e-01,-8.474995319626963397e-01,4.830904031290045308e-02,3.320009649704951799e-02,2.728612645944422099e-01,1.145418286323547363e+00
3.645484708620860825e-03,-5.499980403115086736e-01,-7.760308419675068237e-01,1.249979491360761613e-01,4.439725892427111298e-02,1.842607657888281625e-01,7.983711361885070801e-01
3.248274294342686774e-01,-7.737501785953161404e-01,-7.803313833826419632e-01,5.725282995236868552e-03,-7.880809041209808907e-03,-5.724509473598858068e-03,1.102056741714477539e+00
1.875214117480759057e-01,-7.440587698635648950e-01,-8.638100549599627698e-01,8.046049594029103247e-03,2.221587156134162064e-02,6.158056799052698954e-02,1.003389835357666016e+00
3.286688410043777653e-01,-7.753123937957348000e-01,-7.675108843838762684e-01,-3.038367495178576679e-03,2.355367616596899111e-03,-3.179265191207216422e-03,1.100135207176208496e+00
3.325964091046819116e-01,-7.603689078042805694e-01,-7.848943552769849230e-01,-8.448783913601511791e-03,-1.092634182310915289e-02,-3.650612166107835947e-03,1.105708956718444824e+00
3.538155500635211115e-01,-7.831775312201799677e-01,-7.840174748228775359e-01,-2.622654331725710747e-02,-5.956089875550436320e-03,1.987993699811602729e-03,1.138371944427490234e+00
3.078150040205551163e-01,-7.717847653756002568e-01,-7.729523467034303819e-01,8.506050059480119857e-03,1.557107697760997181e-02,4.360365571718693815e-03,1.080647468566894531e+00
3.571331290158601401e-01,-7.807603966673385409e-01,-7.839173378142427762e-01,4.042855916190688133e-03,2.626873736461521596e-03,5.970575417269879340e-04,1.139506340026855469e+00
3.372667267298996574e-01,-7.756726932436180943e-01,-7.748624849152482286e-01,-5.607860339601371431e-03,-6.753577825562314882e-03,3.679762982598440164e-04,1.112638592720031738e+00
3.571945227143403234e-01,-7.828404604297979352e-01,-7.746475172474974746e-01,-5.267580719578154663e-04,3.186051397752435229e-03,8.436471579396186268e-04,1.135975360870361328e+00
3.598372188380791203e-01,-7.656404810688668405e-01,-7.861487364375510101e-01,7.713088072046024417e-03,-6.132188880936288548e-03,-1.118336752238011838e-03,1.136000514030456543e+00
2.786996192911036507e-01,-7.723683903388278704e-01,-7.689952992026406475e-01,-8.279522837328240912e-04,-9.405164294705713537e-03,6.544169320917030868e-04,1.049513578414916992e+00
3.728095016895289771e-01,-8.199738575646930983e-01,-7.468947063886139937e-01,1.132415956206186611e-03,5.153999460418885563e-03,8.244775031086407080e-03,1.158098697662353516e+00
2.507533041846762289e-01,-8.699544216280076236e-01,-7.882331875644121855e-01,-6.388080572527599088e-03,-2.602094393340482342e-02,8.001324684336057202e-02,1.091988325119018555e+00
3.324146528953687008e-01,-7.607769395509860200e-01,-7.372142662433007754e-01,-6.348884564069227042e-03,-2.469335736875273926e-03,5.155390524235552163e-02,1.085346579551696777e+00
3.346667944536799166e-01,-7.005353610818312315e-01,-8.093393203333910657e-01,2.585718878273490090e-02,-1.724653045959373063e-02,-1.370189652857376102e-02,1.095252156257629395e+00
3.588561725544031633e-01,-7.227168400908732249e-01,-8.118468099478269862e-01,1.132890813996047588e-02,-7.279005714452230734e-03,-9.180220405459795516e-04,1.129022359848022461e+00
3.639263210322269404e-01,-7.130706167225858705e-01,-8.148059895685708653e-01,-1.029088152283553874e-02,-5.732156706498542365e-03,5.905801328164911497e-04,1.131485104560852051e+00
3.447577154465352733e-01,-6.603355518452378448e-01,-8.192263669707903206e-01,2.413840896508549425e-02,-1.877753919745540206e-02,-8.350527844694095869e-03,1.094611287117004395e+00
3.137955558675204482e-01,-8.025049236349217630e-01,-6.015564755387264873e-01,9.337535416096683040e-04,-3.061597361560025512e-03,3.372533293953060285e-02,1.032294154167175293e+00
3.192054520141691665e-01,-8.021586274649707970e-01,-5.870624889377755729e-01,-5.629657466917677849e-03,-1.442804899855600585e-02,4.546864761206093758e-02,1.034139513969421387e+00
3.110683648532368006e-01,-7.906508524585826869e-01,-5.867731912582949683e-01,1.404528155006339041e-02,1.442098387276891970e-02,5.120176329624841205e-02,1.019713640213012695e+00
3.333830512526895218e-01,-7.982442212854339303e-01,-6.548078885898414025e-01,1.324816921703823175e-02,-5.068382563544038440e-03,2.322761752899769189e-02,1.068204045295715332e+00
3.229108604237084790e-01,-7.943389999266750046e-01,-5.961401675518014365e-01,1.565783906703674053e-02,1.043027718015268959e-02,1.752096959819222366e-01,1.076684594154357910e+00
6.206016776115622635e-01,-9.570687788846007349e-01,-4.573885008032315680e-01,-9.529831882987596647e-02,-4.693543505624628298e-02,3.908198010702025327e-01,1.562839746475219727e+00
3.805156544532505292e-01,-9.322902179599598105e-01,-4.595585030780158786e-01,-1.742389812773134389e-03,5.012677861039596672e-02,9.594728892727676095e-02,1.166830897331237793e+00
3.285140060742910428e-01,-6.403579979155451518e-01,-8.008384111713812148e-01,5.812788776414928166e-03,1.091560984074135821e-02,-1.227633559386702260e-02,1.058708071708679199e+00
3.613993567755470759e-01,-6.275499461488982522e-01,-8.746335631945284517e-01,1.358094672949454809e-02,2.756838274919915237e-04,-2.333755499248912901e-02,1.133848190307617188e+00
3.441406979222890739e-01,-5.989023069957638556e-01,-8.609952613237643604e-01,1.203189996530193255e-02,-8.164546966841313563e-03,1.161878068064351767e-02,1.098283648490905762e+00
3.312724583562528524e-01,-4.096349367457310375e-01,-9.446262109794666406e-01,3.677493995110060060e-02,6.637581617517872810e-03,2.034316673360080791e-02,1.112191200256347656e+00
7.688366146270197987e-01,-5.097424794346085974e-01,-1.166023119357155080e+00,9.512076058061937067e-02,-2.247090072764163990e-02,-4.470635378980784558e-01,1.879582881927490234e+00
2.252288974522131393e-01,-7.444544465852092063e-01,-7.642144776265824557e-01,-1.591020268806809038e-02,-2.473686712609354105e-02,-2.141319500147399225e-03,9.810433983802795410e-01
5.485666213923701129e-02,-7.658251797212154433e-01,-1.148958581992461703e+00,9.304640927292573416e-02,4.533769259482801905e-02,1.913521281084487879e-01,1.129923343658447266e+00
1.672803708234815723e-02,-5.472911226055539036e-01,-1.185910156316770436e+00,5.321401300158010161e-02,-1.565737901887524486e-01,1.444285849848765957e-01,1.109398603439331055e+00
1.524897743518496274e-01,-8.933985704546831830e-01,-1.091271967643164587e+00,1.133480297382522817e-01,-1.337757588970875725e-02,-5.386853510171121101e-02,1.178038835525512695e+00
1.750878536783918027e-01,-7.856603663199971388e-01,-7.998238376076540757e-01,-3.725730263844441448e-02,9.960597288697713159e-02,3.435235682773410404e-01,1.150999069213867188e+00
4.322483751697591692e-01,-1.038193790010680573e+00,-4.738227935977282756e-01,-1.151552019399839158e-02,-3.525709131190496448e-02,-1.875567754058645592e-02,1.286865234375000000e+00
3.625456118893022883e-01,-7.805510952742478192e-01,-7.664976443394521111e-01,7.772971104500310362e-03,-3.455632470906482359e-03,-7.093988967555454449e-04,1.136231422424316406e+00
3.565071917881968422e-01,-7.760506841321893612e-01,-7.554582217213476891e-01,1.214914193549425717e-02,2.394899087789312091e-03,-4.428333404537624328e-03,1.122634410858154297e+00
3.282240411531189284e-01,-7.935709462305783335e-01,-7.441202614794087955e-01,3.424146280950790284e-03,1.155119889930250393e-03,-3.668890663983562749e-03,1.097941398620605469e+00
3.223441623897350117e-01,-8.223309511754208767e-01,-6.727880306915088315e-01,1.049939056504461087e-02,-1.950184100441735083e-02,-2.182467095551816547e-02,1.079058289527893066e+00
-1.168079638049829283e-02,-7.012022587945985208e-01,-7.100474355215299349e-01,-3.337981946435870234e-02,6.377246640526420575e-03,-8.761264105490508200e-03,6.966433525085449219e-01
3.537754429013301727e-01,-8.209222762457144551e-01,-6.714877618342223187e-01,2.351132284864001012e-02,-1.692380100612066521e-02,-1.153204844560339927e-02,1.108883023262023926e+00
1.377263313898458019e-02,-7.553625278627769113e-01,-7.968857849066302013e-01,7.634390772386745461e-02,-7.987654821871609245e-02,2.352583684664640018e-02,8.145651817321777344e-01
2.333982590028264581e-01,-1.070420613155385725e+00,-4.894764845637112893e-01,8.468110089795470585e-02,3.620732685009021845e-02,-9.653350379529096470e-02,1.154727458953857422e+00
2.186182505465104620e-01,-7.539778049512118052e-01,-7.532803208261644734e-01,-2.330160028662282834e-02,1.368221340070399118e-02,3.835803661926311331e-04,9.733735918998718262e-01
2.195977782711787674e-01,-7.525301421867395257e-01,-7.521195891142603562e-01,6.957976816634568393e-03,2.450173252262549672e-02,4.615306385580962459e-04,9.729237556457519531e-01
1.029613225866072845e-01,-7.352110935684181836e-01,-7.319755099843973101e-01,-4.507213303548508743e-02,3.209062546021598534e-03,2.649170263075110478e-03,8.402249217033386230e-01
3.720130874422915013e-01,-8.270286123610296469e-01,-7.416450625877079039e-01,1.776244757559922085e-03,2.326262114429648864e-03,-6.478422415226546896e-03,1.158777117729187012e+00
3.050146741944618212e-01,-7.625815180428240359e-01,-6.175846601570389449e-01,-6.012071737123125467e-03,-7.020225768189843930e-03,6.584280634038915114e-02,1.009578943252563477e+00
3.131246568788484952e-01,-7.219527516288908320e-01,-7.031520372422186416e-01,4.192809702173193103e-04,-1.655476605962690742e-03,1.225162067401889578e-02,1.026030063629150391e+00
3.125060530354413224e-01,-5.393360948230641050e-01,-8.331429129248495435e-01,-1.574995990188712142e-02,-6.135566526617909286e-03,1.386869324815237225e-01,1.058675527572631836e+00
4.111794194562169991e-01,-6.607062788092541439e-01,-7.253951546112757942e-01,1.624268092481311043e-02,1.171599661010886730e-02,2.202687138658976918e-01,1.170137166976928711e+00
3.201190711583838389e-01,-7.843019795010213180e-01,-6.291323696040764801e-01,9.237698974598061025e-03,7.975009678445965991e-03,1.989621955017506494e-02,1.036380887031555176e+00
3.531283438744233227e-01,-7.624758173350449919e-01,-7.646590756386781873e-01,-9.537627971550489275e-03,-3.970242744147443013e-03,9.655771258494670606e-03,1.116966009140014648e+00
3.172410713742124799e-01,-7.559086338722089682e-01,-6.684282457039629755e-01,-2.399131537117571433e-03,1.117899484761515107e-03,1.730034709519506081e-02,1.032638549804687500e+00
3.342039413472416842e-01,-7.304399791731912561e-01,-7.149955888589347719e-01,6.598404565980301893e-04,4.266937329515421186e-03,8.569404668152486027e-02,1.067402839660644531e+00
3.724212035910247076e-01,-7.790459632080648511e-01,-7.804180532082500843e-01,1.928588930320579431e-03,3.366752692249980194e-03,-8.125557021846428578e-04,1.152174234390258789e+00
3.685611510859503892e-01,-7.742723884472290097e-01,-7.669055765446235462e-01,-9.249245598626458639e-04,-1.535664392138986220e-04,3.995292746299302852e-03,1.139190196990966797e+00
3.538467674947944341e-01,-7.508037388540139689e-01,-7.587180401982780431e-01,4.264943632395584022e-03,6.070010751395082255e-03,6.148839535183278464e-03,1.108754396438598633e+00
3.647884682442270043e-01,-7.621616959234018829e-01,-7.677613097976384582e-01,6.385992896796024651e-03,-2.373328480943319148e-04,1.134945853136683745e-03,1.129816293716430664e+00
3.688006113850754164e-01,-7.680281613773947136e-01,-7.792805668784199558e-01,-1.085882703007061238e-03,7.836354286859579729e-03,-2.715671593582795994e-03,1.142588376998901367e+00
3.599643505453858916e-01,-7.551635044157397614e-01,-7.698719958217329351e-01,6.589173073444842474e-03,7.623548349128372870e-03,2.118353865022726094e-03,1.122696042060852051e+00
3.700630747908045248e-01,-7.760224583378487750e-01,-7.766310424265469026e-01,2.662066723355254209e-04,3.875987890386253559e-04,6.294176806436646478e-04,1.146390795707702637e+00
3.673031014061366450e-01,-7.753736274671481077e-01,-7.764109251072669471e-01,-1.096747474622305780e-03,1.532004726193183716e-03,-4.239223587395045986e-04,1.143200635910034180e+00
3.615274312753409269e-01,-7.762525689189359035e-01,-7.748589681306072841e-01,-3.045392525642890390e-03,-2.116545598229516763e-03,9.900082677357846181e-04,1.137103319168090820e+00
3.472384417585448468e-01,-6.347122351804652673e-01,-8.452057835696128452e-01,-3.552083381151465574e-02,-1.123031135015506790e-02,5.869583763716967537e-03,1.104307889938354492e+00
1.794713470516381970e-01,-7.469757601365073496e-01,-7.473554469489507301e-01,-8.420297730189566995e-03,7.701267757808294770e-03,-9.608930428111117639e-03,9.269971847534179688e-01
3.356085977954990640e-01,-5.356279936409549247e-01,-8.856139603269919114e-01,-4.076389729023099928e-02,3.759605052639632301e-03,4.123648783377776433e-03,1.091578006744384766e+00
3.615425881609801162e-01,-6.283045583038769921e-01,-8.743327949483676864e-01,1.364809344938836683e-02,-6.804219337310609371e-03,1.344224679671678427e-02,1.133621335029602051e+00
3.537961821833250364e-01,-6.315357888214022664e-01,-8.615090777631547736e-01,-2.476346018469927079e-02,8.794955149728413829e-03,6.858269450256576118e-04,1.119124650955200195e+00
3.014179670008795275e-01,-5.565270333692660110e-01,-8.753514073051773536e-01,3.932196968970647424e-03,-1.076012392951348866e-02,-2.081398808535227934e-02,1.054962396621704102e+00
3.485666911349184494e-01,-6.340956178803479615e-01,-8.459447822526726668e-01,-2.771174302405645176e-02,1.136296542422351140e-02,-4.954031362832736311e-03,1.105190634727478027e+00
3.662402229532406017e-01,-7.282916317765570913e-01,-8.254194306780165968e-01,-4.021906598868323079e-02,-6.082704089187835478e-04,-1.608813206528494563e-03,1.148305177688598633e+00
2.199821007529068617e-01,-7.835171517807792974e-01,-8.168321708444077345e-01,-7.038422217560799665e-02,-1.339973613125091658e-03,-4.125336954509716825e-01,1.251787304878234863e+00
1.004800765729784717e-01,-8.813536450497740926e-01,-4.476831807657219997e-01,4.302231147499924885e-02,-2.440655474501505703e-02,-4.605899509501500122e-02,8.602204918861389160e-01
1.077964630102025145e-01,-7.680181117036544158e-01,-7.035713012565734115e-01,6.604592532865818932e-02,-1.085945628133502122e-01,-1.291876311349818007e-01,9.018281102180480957e-01
1.421411716306137940e-01,-7.676074144220077500e-01,-7.354501266225386136e-01,4.719829286308922789e-03,-1.493700335974104676e-02,2.194730400708802889e-02,8.953227400779724121e-01
1.601292581565869066e-01,-7.479167556394861194e-01,-7.375820297494158906e-01,2.269637754078084393e-02,-5.534564495862759337e-02,-7.369476058653906189e-03,9.089376926422119141e-01
2.458103683424276431e-01,-7.739605190439196036e-01,-7.196691319630929007e-01,-6.118588961503784902e-03,-1.366296840504250404e-02,-5.022316953499992263e-03,9.941143989562988281e-01
2.141047438965238969e-01,-7.464376757454953548e-01,-7.682318708795217166e-01,-1.617498817471205727e-03,-4.452629106156315991e-02,6.321017892672324903e-03,9.747443199157714844e-01
3.547226585202042926e-01,-9.355396746828790189e-01,-5.146988282006834670e-01,-2.312273416629107015e-02,4.612749769897836645e-03,-1.728264846975525737e-01,1.179051995277404785e+00
5.221978338328681080e-02,-7.174684045830053147e-01,-7.078240847095630395e-01,-2.467875419780534221e-02,7.541404123419768145e-03,-1.516854032684207760e-03,7.662208676338195801e-01
1.047184871875409540e-01,-7.838761021710671795e-01,-7.174974094830939286e-01,-6.970335610860357856e-02,-2.699796666800000425e-02,-8.004407715526042771e-03,8.671662211418151855e-01
6.098917459993496992e-02,-8.309500581930484575e-01,-6.996282499553237999e-01,-3.078746791183869028e-02,-1.443725697140333178e-02,-2.906842826671814529e-03,8.361603617668151855e-01
1.271308369485669720e-01,-7.505992999044290848e-01,-7.262011894836060133e-01,5.535640588835262325e-03,-1.041198685277539351e-02,1.822383064417533493e-03,8.660355806350708008e-01
8.765736830809889302e-02,-8.286121780487749611e-01,-7.890004171203293115e-01,-4.044584114295377009e-02,5.794757255049550262e-03,2.206264515918885186e-02,9.007177948951721191e-01
2.210118956261880041e-01,-7.651955067127053089e-01,-7.852758066595398878e-01,7.594408477931469115e-02,-6.433993713448316748e-03,-2.668090163945348748e-03,1.005116701126098633e+00
6.676789155416479327e-02,-7.263608511984455118e-01,-7.240936135948943253e-01,7.471429859614527047e-03,1.069953368234019889e-02,-7.440758785950720745e-03,7.924248576164245605e-01
3.033017525543172388e-01,-7.576468986490834112e-01,-6.497505825620347730e-01,-3.867307075033726144e-02,-2.758029570321893220e-02,1.434336677667606419e-01,1.044638514518737793e+00
1.255359719523514439e-01,-8.175648389293277418e-01,-5.438035510194173527e-01,1.008639914782742397e-01,-4.405104037847707571e-02,-1.968891424827375336e-01,9.267351627349853516e-01
4.039656509201344781e-01,-9.739539213411585461e-01,-5.121073420350394922e-01,-1.801643424309387620e-02,3.390046061319933191e-02,2.085018061088994290e-01,1.269022345542907715e+00
3.222140497038018525e-01,-8.008328677422636988e-01,-6.177759751253388831e-01,1.656040998101775477e-02,2.379850853393324778e-02,3.864618723634966058e-02,1.046979069709777832e+00
3.389372017066764609e-01,-8.203922066571192051e-01,-6.231167990406771828e-01,-5.142328691630825357e-03,3.973366597054914934e-03,4.836254627236602488e-02,1.077682018280029297e+00
1.681502046379931281e-01,-7.498275032880092894e-01,-7.029140809923047906e-01,-2.379422045049097226e-02,-1.288477724205939340e-02,5.797305164469347682e-02,9.022735953330993652e-01
3.282697488464768054e-01,-8.004880232764264303e-01,-6.396441659415448289e-01,-9.198617433645193617e-03,6.166136662748745653e-03,1.647755414915712605e-02,1.058108448982238770e+00
3.335927568336540250e-01,-8.350107131310986475e-01,-5.912276431219587458e-01,-1.025915071981237277e-02,-3.252244635859216637e-02,1.002944124752393196e-02,1.069564938545227051e+00
3.411315614827010179e-01,-6.011775620953498933e-01,-8.670706119566373715e-01,1.381452040590773478e-02,-5.359616226778963002e-03,-5.958272389303242988e-03,1.099983692169189453e+00
3.509538979858752850e-01,-4.996155148354909925e-01,-9.621613941475263276e-01,2.676830837947406436e-02,1.074681273149123185e-02,-1.806549323278287475e-02,1.155127525329589844e+00
3.578051526295124019e-01,-5.722142479683756111e-01,-8.894032993958193023e-01,7.037667455981352904e-02,1.445920100367807659e-02,2.161567231580400778e-04,1.129611849784851074e+00
3.318449552163131311e-01,-6.281448797682778196e-01,-9.447584550558272287e-01,1.811316851873485479e-04,-4.106022149729498388e-02,1.642571005255638594e-02,1.153966069221496582e+00
3.004097936652119771e-01,-7.015499086622311031e-01,-8.220668944260465238e-01,-1.435279500812271583e-02,3.126093024507833190e-02,-6.166159128991504507e-02,1.074316978454589844e+00
4.358051037400351158e-01,-6.277486170919358566e-01,-1.042996069782079704e+00,1.213933325229876597e-01,2.684056127166729519e-02,-1.229909458767197844e-01,1.355347037315368652e+00
3.576142564421730952e-01,-6.813440423177642424e-01,-8.203192480616616766e-01,-5.672096444497985897e-03,-2.708380991777641598e-03,2.337520094042916385e-02,1.115748882293701172e+00
3.652222251436350597e-01,-3.913026048301891380e-01,-1.076151095599336749e+00,-3.490227177191300434e-02,1.260349475972054149e-02,6.797922824279190035e-02,1.255964517593383789e+00
3.012066487447152552e-01,-3.636993300359860348e-01,-9.657770157016293266e-01,5.962435542312947284e-02,6.730348002073477387e-02,1.550416899204283827e-01,1.140741348266601562e+00
3.598420037894390355e-01,-3.295690733284093454e-01,-1.065955719179775718e+00,-6.524009546516408575e-02,1.524819569283142676e-02,-1.166812228776801519e-01,1.256795883178710938e+00
3.325763989420612021e-01,-6.931074861377469754e-01,-7.497660743215721624e-01,8.377911983662500450e-03,7.960148814605548170e-03,5.814451827091844660e-02,1.060138821601867676e+00
3.103015193711385900e-01,-6.598480999857199158e-01,-7.483441317982095775e-01,1.606411317550937448e-03,-6.565191834475501455e-03,2.632346842980825066e-02,1.018377184867858887e+00
3.440001932234031390e-01,-7.254307591388877707e-01,-7.554167812492749157e-01,-2.447538596147646670e-02,-2.907831392042237173e-02,4.059802577178151656e-02,1.089003205299377441e+00
4.034867495402623128e-01,-6.049205077034638389e-01,-9.716339760429747452e-01,-6.406462157122037523e-03,4.555391142750507549e-02,-9.941513386716569270e-03,1.236044287681579590e+00
2.156386288146441288e-01,-7.989600469509627878e-01,-8.798451573955599070e-01,-8.266009459336694232e-02,-5.388581563116593559e-02,2.416849313427550314e-02,1.071905016899108887e+00
3.030637143793261656e-01,-6.996317366261812776e-01,-6.955916011441218849e-01,-2.907165398787209167e-03,-4.254326305840318463e-03,5.286820340041038097e-02,1.004902124404907227e+00
3.247580992150091439e-01,-6.986270204961189112e-01,-7.449041948201414742e-01,-8.451566524105077680e-03,-1.123911294412882275e-02,7.694601544798418749e-03,1.047658801078796387e+00
3.208672572803309975e-01,-7.161039736430124814e-01,-7.254853899708559872e-01,6.103834273021373560e-03,4.781682070138624716e-03,2.672193209508606088e-02,1.042807817459106445e+00
3.180104347442209156e-01,-6.705269817804931920e-01,-7.464400974902214436e-01,3.444535769890436430e-03,7.044437286888055594e-03,3.566320445886721896e-02,1.030539631843566895e+00
3.206708338847157891e-01,-6.966462776308000038e-01,-7.435937479015353180e-01,7.408472131502472253e-03,5.928328786245013610e-03,7.893604876127864947e-03,1.041804075241088867e+00
3.177785828893466835e-01,-7.536445805858316138e-01,-6.729393944114042680e-01,-4.233141777482599295e-03,-5.219936149635970822e-03,1.991058638089537175e-02,1.034077525138854980e+00
3.699083826121845053e-01,-7.773304917433629946e-01,-7.849701741581938119e-01,-7.951945323818422140e-04,2.755942721590316519e-03,1.404136010966310815e-03,1.151090979576110840e+00
3.559597592736201133e-01,-7.751558180147744004e-01,-7.855703333219524742e-01,-1.431024768195121241e-02,1.188839207673661295e-02,4.426988388630776622e-03,1.136841297149658203e+00
3.705224112340005371e-01,-7.798346082474145735e-01,-7.841553541018867479e-01,-9.810428001632955433e-04,2.806566385451898186e-03,4.435004522348249384e-04,1.152535200119018555e+00
3.745117462577063350e-01,-7.783529107679401093e-01,-7.782819689631415017e-01,-1.519996674166703169e-03,-1.945441954917960091e-04,2.949042765577407051e-04,1.152832388877868652e+00
3.659318227636176868e-01,-7.757956803345951169e-01,-7.847785541219363115e-01,1.266982594969620710e-03,5.301135855878045091e-04,1.953047562869666747e-03,1.146252751350402832e+00
3.624038067005579400e-01,-7.819568524054920644e-01,-7.746415534597145269e-01,-5.532157057644559485e-03,-1.902149943518185679e-04,-6.486783671219556804e-03,1.140816211700439453e+00
3.306527704085097108e-01,-7.728001882229382780e-01,-7.773559978059108033e-01,1.856577660174506608e-02,-9.879169019227408005e-03,2.233340559501813911e-04,1.106337785720825195e+00
3.629303247944468680e-01,-7.425257136723479867e-01,-7.861997115035850303e-01,-7.755955277412634671e-03,1.262425982197389746e-02,-3.995836921318085197e-03,1.128240466117858887e+00
8.562861127927451355e-02,-7.291716868499065196e-01,-7.208508011204113330e-01,3.248416806465753010e-02,-4.274516256577331336e-02,-3.258681521962410611e-03,8.160072565078735352e-01
5.133066524970603117e-02,-7.237566404655695340e-01,-7.065970066473579170e-01,3.670272047440065882e-02,7.610987975135770356e-03,-4.439387426811746036e-03,7.694340348243713379e-01
2.477824817595319362e-01,-7.664355283943681263e-01,-7.572734587101559445e-01,7.431502637741969029e-03,3.821003228986853250e-03,3.591687566939255616e-03,1.009791016578674316e+00
1.266230326790732663e-01,-7.414202357582888592e-01,-7.258671322897891631e-01,2.972237570335663562e-02,4.017889243889111346e-03,6.616892172936869772e-03,8.620152473449707031e-01
-6.898767215228196470e-03,-7.136566346783440595e-01,-7.109149757016671733e-01,6.983346783503777133e-02,2.426078015155065659e-02,9.921845108283155329e-03,7.171246409416198730e-01
2.369928072374742345e-01,-7.636184131762513427e-01,-7.586077373953749037e-01,1.186573818236737535e-02,-2.864661538863814624e-02,5.363976412660952185e-04,9.995595812797546387e-01
6.052942056937571369e-02,-7.138276077760000726e-01,-7.168461493870011969e-01,-4.291974017606483595e-03,-2.618599501418904935e-02,-2.538398750196113000e-03,7.772432565689086914e-01
1.757277241565068371e-01,-7.451712928425180404e-01,-7.477861000466172747e-01,-7.355881086074123401e-03,-2.526716103388928093e-03,1.540230506419320178e-03,9.223114252090454102e-01
2.086741698424134928e-01,-7.588381134804280670e-01,-7.535673616853251211e-01,4.352957012615689403e-02,-1.748400466959544380e-03,-1.823659289786175352e-04,9.678336977958679199e-01
-1.424920748172662233e-01,-7.671069380154136308e-01,-7.733532472842402639e-01,2.849418966332941533e-02,5.470356542230770530e-02,-3.120573497852290393e-02,6.390765905380249023e-01
3.154741421884625363e-01,-7.250631908782112500e-01,-7.048183104841363456e-01,1.974381388308263895e-03,7.332472475075780399e-04,-1.353093330005523086e-02,1.030836939811706543e+00
3.222730808571635519e-01,-6.420127342449961638e-01,-7.827713479584859080e-01,4.726142467031922700e-03,-9.472107048177807673e-03,-1.944525907947846494e-02,1.042526841163635254e+00
3.246384555259936855e-01,-6.185115556577251983e-01,-8.038007724425201284e-01,-4.325926688390680300e-03,-1.232822705782852038e-03,-3.051207158264049660e-02,1.049510955810546875e+00
3.173691673323051354e-01,-7.155731780721239499e-01,-7.100763065501045634e-01,2.206661376288864169e-03,-4.527141632726658545e-03,-3.356941536398137110e-02,1.031881332397460938e+00
3.264073926556220195e-01,-5.632740761067557278e-01,-8.405437201291197091e-01,2.576946444449998777e-02,-9.482627886413857662e-03,-1.525687473830996364e-02,1.057380437850952148e+00
3.322220958946291436e-01,-6.478498953863645049e-01,-7.445361276989248545e-01,-3.694959578372370010e-04,7.395004670320419991e-03,-9.322828645787505086e-02,1.044455766677856445e+00
2.951885500015752339e-01,-7.718435543321351400e-01,-7.685694790537702659e-01,1.534383673542042727e-03,3.098248118285667346e-02,2.593272188789223602e-03,1.066762208938598633e+00
3.617077295639868906e-01,-7.917265187886424194e-01,-7.630456217758130322e-01,7.948373867499095025e-03,-8.802189254919465938e-03,-2.411147397774147591e-03,1.139557361602783203e+00
3.685722278459064305e-01,-7.846674286848226432e-01,-7.698968718532641642e-01,6.016609573719053188e-03,-5.814836772840423045e-03,-1.099819807787967519e-03,1.146018981933593750e+00
3.551051638562900403e-01,-7.675503890763246684e-01,-7.540161908704878790e-01,1.250287900310773428e-02,-1.120742172804056920e-02,-1.810930412481301377e-02,1.116769433021545410e+00
3.221152066158315952e-01,-7.219504224394310832e-01,-7.251325034122874102e-01,4.887672345819541429e-03,2.982951597575031304e-03,1.652738837548787003e-03,1.045711278915405273e+00
3.335452921213421518e-01,-7.006908560797810992e-01,-7.584213419880683205e-01,-4.431675087048292556e-03,9.105282976221571595e-03,1.432247617122244659e-02,1.064709901809692383e+00
3.254770724645416613e-01,-7.015333833354533422e-01,-7.495526069584259599e-01,5.205255424951055025e-03,1.324101858273899097e-02,9.334062420328304022e-03,1.052255272865295410e+00
3.126852057635834958e-01,-6.858494149557381458e-01,-6.475108359235033362e-01,-2.475813631596262762e-02,-1.961902296247734767e-02,2.190596284252258608e-01,1.052242279052734375e+00
3.435840404171309204e-01,-7.515490769837553930e-01,-7.365807798292118846e-01,5.753774300041581552e-03,5.511361447963411368e-03,1.657380699978311606e-03,1.087817549705505371e+00
3.329146484145759088e-01,-7.440428695308105578e-01,-7.246771195631661611e-01,-1.373985387595255464e-03,3.029929472212465093e-04,8.511187788578943383e-03,1.067510962486267090e+00
3.530861574222934895e-01,-7.368559498904401206e-01,-7.702136319205485915e-01,-3.250010310453783132e-03,1.097141144952361314e-02,6.122977153025756063e-03,1.107226133346557617e+00
3.526115939878816108e-01,-7.520154100621951887e-01,-7.546515929722649174e-01,-1.120152180383793966e-03,7.865179892121720168e-03,9.091815766662974044e-04,1.106034159660339355e+00
3.556368199980486922e-01,-7.668344714038641818e-01,-7.431962110231065122e-01,1.919848857753802401e-02,1.546958023528157387e-02,2.406182127522360839e-02,1.112442255020141602e+00
1.582966363660806008e-01,-1.225940639805588095e+00,-4.715561758765203781e-01,-2.347548457414760578e-02,3.280437590135300979e-02,1.009671801225325016e-01,1.215082883834838867e+00
3.315924654074194899e-01,-7.244527028722809181e-01,-7.406405200294530200e-01,-6.594715744853206149e-03,1.275229289014107904e-02,-4.773290391942854038e-02,1.067727565765380859e+00
4.150051586836714934e-01,-6.926427179934144807e-01,-7.886039579510903952e-01,-4.795946943437560950e-02,6.266483281017615203e-02,-2.241089810313076636e-01,1.229527950286865234e+00
3.091473833348388212e-01,-6.583522238462404808e-01,-7.439225945902165904e-01,2.963268471897897733e-03,3.661222833855134681e-03,-3.128606312330656225e-02,1.014480233192443848e+00
3.122627277317433503e-01,-6.669477673152216513e-01,-7.411686853373498085e-01,-1.301290322290247700e-02,1.097493858475572133e-02,-3.237482379449870690e-02,1.020320296287536621e+00
4.517542695288294108e-01,-6.818636815139829110e-01,-8.247827398350708883e-01,1.240972645466768831e-02,-3.243706410899709069e-02,-2.523983339305527207e-01,1.289288282394409180e+00
3.362646702795980547e-01,-4.947911365919108184e-01,-9.056558846452570366e-01,1.663814790335939060e-03,-3.864825400333879446e-03,-7.921559275991221782e-02,1.104442596435546875e+00
3.755243519283480991e-01,-7.783807630898920138e-01,-7.810393789965689448e-01,-1.186275275768449182e-03,-2.843891262983581393e-03,5.285352952442684939e-04,1.155249357223510742e+00
3.696561059182345010e-01,-7.788658059418307467e-01,-7.801316840861176605e-01,1.079719025712482959e-03,3.148404556259662510e-04,4.650804820374196229e-04,1.149157285690307617e+00
3.742345869273684400e-01,-7.784204454836195497e-01,-7.774541254264825119e-01,-6.980881010945670997e-05,-1.725668471668843820e-03,2.539653851139305526e-03,1.152184486389160156e+00
3.737571234094155814e-01,-7.775922124839034222e-01,-7.764512014769027193e-01,1.921303436185224081e-03,2.003007388664362583e-04,1.551495465717397330e-03,1.150787234306335449e+00
3.562315478679758396e-01,-7.145547288698075317e-01,-7.989733731138825013e-01,-6.512083655218972936e-03,-1.292789980043515877e-02,-7.859870045286019430e-03,1.115758895874023438e+00
3.662259509958251114e-01,-7.805276193035264320e-01,-7.808743565950068133e-01,2.450214484551820147e-03,1.113806586301857712e-03,1.965817310933444268e-03,1.146941542625427246e+00
3.722597703519457402e-01,-7.811139642162122643e-01,-7.775211019825556402e-01,3.241424133886857458e-03,3.725582894281695206e-04,1.149466406390403780e-03,1.151597142219543457e+00
3.362966664655359650e-01,-7.289136636561288629e-01,-7.401260143083937537e-01,8.324835421127068161e-03,-1.017750544933982912e-02,-1.165992945888614379e-02,1.071292996406555176e+00
2.524142069592303361e-01,-7.416356545036775216e-01,-9.142797132069451216e-01,2.882744168169684013e-02,4.850750204434989971e-02,-4.744899460408948111e-02,1.098118424415588379e+00
2.337115046701362386e-01,-7.623806779146559132e-01,-7.534424816519953438e-01,8.821480889757780941e-03,3.188351758274873826e-02,-2.727892328628333304e-03,9.933185577392578125e-01
2.640650183681886864e-01,-7.729096923231901783e-01,-7.784646765554394943e-01,1.359974277719886056e-02,1.459113739569391222e-02,-5.981799783108841979e-03,1.040388703346252441e+00
2.362010549486579514e-01,-7.604260780665310637e-01,-7.738321589486527596e-01,1.018157622744797139e-02,1.370977932152297150e-02,-9.146533321307217038e-03,1.003958225250244141e+00
4.208687102121466683e-02,-7.922251311382313421e-01,-7.064683582904431880e-01,-2.179140565966910387e-02,8.892237831683658458e-03,-1.371022794711588416e-02,7.963093519210815430e-01
3.520137334225955650e-01,-7.672004559373178934e-01,-7.410326509582227938e-01,-2.483423763431395759e-02,-3.302175190236357472e-02,2.158964988774941460e-02,1.109305024147033691e+00
3.408805376492518580e-01,-7.368577342027091692e-01,-7.442574619626852739e-01,-1.010011201673516497e-02,-8.007663938490231642e-03,1.071628846623438359e-02,1.081846714019775391e+00
3.611665389032804874e-01,-7.629473292142880947e-01,-7.990897603327741239e-01,7.675936392130970447e-03,-4.975697446738385279e-03,1.122688626939621903e-03,1.142725348472595215e+00
3.627308503085526770e-01,-7.507882859345927917e-01,-8.012870322376000054e-01,-6.349618699761861752e-03,-5.359896695497217388e-03,2.900234377350635346e-03,1.139709949493408203e+00
3.487970042445339702e-01,-7.210496618342783215e-01,-8.021048215120571978e-01,1.757048188785086465e-02,-6.896636383048206261e-03,-1.966991735959840778e-03,1.113076329231262207e+00
3.442093359438798128e-01,-6.297336142511698043e-01,-8.433905362662714733e-01,3.481350630943251534e-02,-8.344024071084771982e-03,-8.944574615189189795e-03,1.098357200622558594e+00
3.402865823780842902e-01,-7.467813503860498692e-01,-7.874789170446814257e-01,2.943263792020430359e-03,1.361009482826113989e-03,-1.526676724156416851e-02,1.108307123184204102e+00
3.590824847197813252e-01,-6.322429797193171996e-01,-8.711898079529680761e-01,3.617648807217078294e-02,-6.899345079580592420e-03,2.288396459542001507e-03,1.131715774536132812e+00
2.748697765551866290e-01,-7.713863670921881077e-01,-7.818840772858333121e-01,-4.776375388100256858e-02,-2.670435772684819770e-02,3.782383481323201013e-02,1.057837843894958496e+00
3.545848798339766850e-01,-6.431100621104627324e-01,-8.656575779568715934e-01,3.327986086881480621e-02,-2.842977334812574544e-02,-3.214785781659611902e-02,1.129515409469604492e+00
3.549914755026499780e-01,-7.124918236514268255e-01,-7.878566073657069513e-01,-1.198231482509427327e-02,-3.580342135770770307e-03,-1.750499445147762553e-02,1.107718229293823242e+00
3.535952134067797403e-01,-7.621343147151147246e-01,-7.498817308424118311e-01,-8.940668338790074693e-03,-3.140765494646692319e-04,1.504798116363532641e-03,1.109765172004699707e+00
3.478357495019558931e-01,-7.445842947803855694e-01,-7.510540631736768447e-01,1.405710217280660380e-03,-3.009308820059122423e-04,4.045552041752842505e-03,1.095694541931152344e+00
3.405374286633108816e-01,-7.393332501754222852e-01,-7.423542550752879610e-01,-5.783820450649091241e-03,6.290603256929503360e-03,-2.216010651053426043e-03,1.081492424011230469e+00
9.981468461897990974e-02,-7.321100445051155203e-01,-7.268870105730675935e-01,4.413925248376528165e-02,1.179631021966972724e-03,-5.441311989035250291e-03,8.328977823257446289e-01
3.466038444176458011e-01,-7.163311589666042645e-01,-7.646358531313199869e-01,-1.854795224647216162e-02,1.729820477724709066e-02,-2.114950421273569664e-02,1.089394569396972656e+00
3.492847585701083779e-01,-7.658099174447503543e-01,-7.327414280900266252e-01,-1.131857522828097831e-02,-3.482939841332741322e-03,-3.310003139444751483e-03,1.099140048027038574e+00
3.175996929452024053e-01,-7.392333976449484423e-01,-6.917493167920334418e-01,-3.467018553028889272e-03,-5.310748551049207684e-04,-6.837028606524907758e-03,1.033994793891906738e+00
3.228238385574603297e-01,-7.787384518003790390e-01,-7.702089822723540147e-01,9.582806903894493245e-03,-4.659461491320266747e-03,1.541270673675757289e-03,1.097480893135070801e+00
3.441253177130297325e-01,-7.831949213586895109e-01,-7.812090669492319783e-01,3.328979099285114124e-03,-2.005653506479371934e-03,-1.506466729529874369e-03,1.126351714134216309e+00
3.586887497903995525e-01,-8.142354794649049321e-01,-7.153914352323684778e-01,4.393112294506475862e-03,1.836348305136409689e-02,1.125213310159427736e-02,1.127401471138000488e+00
3.663451733506843389e-01,-7.831868714439786938e-01,-7.842890589447001348e-01,4.659802964215677135e-03,8.570888902370996099e-03,-1.357070395997960486e-03,1.150210022926330566e+00
3.528228790428010742e-01,-7.344092248325714278e-01,-7.165475219799609663e-01,9.103025706231213099e-02,8.331469955623217738e-02,2.273668517052973015e-01,1.167794227600097656e+00
3.546908086017467321e-01,-7.842757506611017781e-01,-7.111423814683697220e-01,1.461470101813079799e-02,1.435498132174579423e-02,6.855835240846109777e-03,1.104851484298706055e+00
3.442181668623811586e-01,-8.345106336110299505e-01,-6.382770455702838630e-01,1.093661118479667162e-02,2.084369387267617085e-02,1.870512248898352839e-02,1.095132350921630859e+00
4.579565256545770069e-02,-8.419214668103383037e-01,-5.005728901481679705e-01,9.713957594244684857e-02,2.925628403615486081e-02,1.669553756620706930e-01,8.461902737617492676e-01
2.943870710037488903e-01,-8.202841668138993736e-01,-7.293882137064890969e-01,-2.008666246701878294e-02,-1.058738756653446710e-02,1.220731884237380785e-02,1.073046445846557617e+00
3.553878951378658391e-01,-8.121692213224679380e-01,-7.387811655849032544e-01,-6.994700080266762383e-03,-3.295895438504243841e-03,2.593882081579658438e-03,1.132735729217529297e+00
3.353811324394481708e-01,-8.157397801762164002e-01,-6.915560883264895153e-01,1.801103662162814936e-02,2.169379795482675316e-02,1.907303157588756057e-02,1.095913767814636230e+00
2.887513132485279299e-01,-7.811684749717342502e-01,-7.359092409281901004e-01,4.123960676031372674e-03,-1.060396320688387732e-02,4.591375734943095067e-03,1.048238754272460938e+00
3.665324527461763515e-01,-8.264479497049415091e-01,-7.068124584152365442e-01,-2.813482086413526253e-04,6.510838974925203630e-03,3.860558747907037735e-02,1.139908194541931152e+00
2.736011833510055280e-01,-8.692418606863161479e-01,-4.481034431866787182e-01,-7.053188239373986944e-03,1.102877794406379452e-01,2.087720196449850962e-01,1.081457018852233887e+00
3.601224100101679815e-01,-7.536985433584070249e-01,-7.782960467149137029e-01,2.986105556341502563e-03,-1.287399799767273943e-02,-2.112387100302955904e-03,1.126559734344482422e+00
3.592683785434805377e-01,-7.827360261071144576e-01,-7.665858013896041934e-01,4.561831613034556844e-03,-1.086507761795259958e-02,-3.828592839205169785e-03,1.134218573570251465e+00
3.641619409070748770e-01,-7.795822235236675724e-01,-7.579750126759985385e-01,8.077089762877265669e-03,-1.374383928310963111e-03,-7.336120667190909085e-03,1.133255124092102051e+00
3.629313068058586667e-01,-7.830427504765018476e-01,-7.760679095028186758e-01,4.116344508799582406e-03,4.108750490472067897e-03,1.968171217627614610e-03,1.142552137374877930e+00
3.554766842865424437e-01,-7.804439611964422152e-01,-7.724749362330840530e-01,-7.490265918114523067e-03,1.029733979758795485e-02,-1.761591181276830637e-03,1.132176160812377930e+00
3.602262303101561036e-01,-7.863645104169565414e-01,-7.495298074796489241e-01,4.907423712612491752e-03,5.188153608970075790e-03,-6.510847388403063346e-03,1.128748416900634766e+00
3.577121721991872727e-01,-7.936685415418740508e-01,-7.313243266453409719e-01,1.303374198940183276e-02,-1.429365358639479895e-02,-8.224388166972981459e-03,1.122099757194519043e+00
3.493217609027014503e-01,-7.673496096839260705e-01,-7.286816858729445734e-01,1.146615639486959180e-02,5.491706378381012998e-03,-1.137742806272435715e-02,1.098245859146118164e+00
3.719092368546388916e-01,-7.753220878317124143e-01,-7.835930076607442452e-01,-3.787975845132439574e-04,-1.728751175952674953e-05,-7.792838854090208128e-04,1.151390075683593750e+00
3.236629182181987585e-01,-8.151215098329961384e-01,-8.461725135490725247e-01,-1.929793991139843595e-02,1.551871619461321974e-02,-7.448105925458817222e-02,1.162599086761474609e+00
3.379516972661485430e-01,-7.301030386782489945e-01,-7.295500989525787183e-01,2.720561373398187183e-02,1.711827513350568444e-02,4.380086421493927656e-02,1.071916818618774414e+00
3.557376276861337061e-01,-7.802108820249169518e-01,-7.839690233239426931e-01,6.487367148518321733e-03,4.144430448472152806e-03,-2.928262923605434807e-03,1.137921690940856934e+00
3.682277582365861557e-01,-7.675461833993882932e-01,-7.745044630895758786e-01,-8.564206193489502621e-04,5.759110479184076543e-03,-2.137975716329876784e-03,1.139319658279418945e+00
3.654321247664452099e-01,-7.754625670503874080e-01,-7.802161643809046865e-01,-1.648489464638000978e-03,3.515226241177735753e-04,3.357612624259378320e-05,1.143282651901245117e+00
3.647705769736172554e-01,-7.737050109794053609e-01,-7.828748497226056813e-01,5.991205785950245088e-04,4.696683166879377612e-03,-8.833953582830045368e-04,1.143118500709533691e+00
3.275328685133019890e-01,-7.857090033569456011e-01,-7.365353011765289892e-01,3.117239267727876708e-03,-2.757711572868728513e-03,7.540484757521815750e-04,1.089512228965759277e+00
3.928439392479086689e-01,-7.535562622896312401e-01,-7.986297674111680900e-01,1.061409222790383154e-02,4.320191882507030262e-02,1.379739343095646165e-01,1.196237802505493164e+00
3.548429596163428235e-01,-7.839326220822440128e-01,-7.760461577906394570e-01,3.458495625694512493e-03,-3.245295374478717604e-03,-1.363857391368801302e-03,1.134885072708129883e+00
3.431413922653314685e-01,-7.854044063050529267e-01,-7.778742441175350297e-01,-7.076759824378284561e-03,-6.205442305949882865e-03,-1.510584203328662863e-03,1.124920845031738281e+00
1.565821400549563536e-01,-7.759773457506531358e-01,-7.161230196788718194e-01,-1.354918439154115598e-02,5.452746013816626991e-02,-7.174540673751672593e-03,9.094266891479492188e-01
4.151173491167367557e-01,-9.195448508488246464e-01,-7.008157549065053837e-01,-1.215323852152519479e-02,-5.183339109227219632e-02,-7.420039155733818004e-02,1.249902606010437012e+00
2.522360315787404161e-01,-1.086807152746735117e+00,-4.919885144333596694e-01,6.502569528799442833e-02,1.474588618023555363e-02,-8.226322410780782801e-02,1.176434040069580078e+00
3.720502027660763100e-01,-7.827870812365491648e-01,-7.723575692116853020e-01,4.727822594982579278e-03,4.421601213970081934e-03,-2.374698928435820585e-03,1.149720072746276855e+00
3.641358525447544459e-01,-7.794514364949157725e-01,-7.745622870770811907e-01,3.636228566344255810e-04,-1.818104012097433372e-03,7.714061789468810559e-04,1.141155838966369629e+00
3.667960317129049241e-01,-7.853696016669161617e-01,-7.750403126817237975e-01,1.737184896818513890e-03,-1.989943929490252655e-03,-1.927690870701111387e-03,1.147049903869628906e+00
3.632081728355354144e-01,-7.825430820742798055e-01,-7.743889270385772017e-01,3.802164459112565478e-03,-4.780763425152229659e-04,-7.373841628731956158e-04,1.141716003417968750e+00
3.626689056618022655e-01,-7.828696422527052778e-01,-7.664410607961937849e-01,4.284719063892162595e-03,3.017866973760123007e-03,2.157025445971832728e-03,1.137455582618713379e+00
3.471686993344414995e-01,-7.493746182939517997e-01,-7.468100744140233616e-01,8.723785072372577942e-03,4.859714659208838779e-03,1.577436946220722030e-02,1.095740556716918945e+00
3.366934458642570904e-01,-8.566968576473268371e-01,-5.954764220343222725e-01,-1.373790996524718597e-03,1.470121138211570241e-02,-9.557145962322585730e-03,1.087017297744750977e+00
3.353540047405844660e-01,-8.500931954907273713e-01,-5.729121584519740740e-01,-1.207542868165938782e-02,1.887882918109548558e-02,-6.327704165823073990e-02,1.080300688743591309e+00
3.119041707275298503e-01,-8.797241171422910400e-01,-4.600528757092717247e-01,2.434006178672945640e-03,-1.908297959971977332e-03,-7.992145914717839472e-02,1.056030750274658203e+00
3.521026674418497038e-01,-8.668771234980320317e-01,-6.019652021644547046e-01,-2.077356654957773080e-02,6.459328299571534537e-03,-3.345062092166954659e-02,1.112629532814025879e+00
1.501654320283320465e-01,-7.500531784806114821e-01,-7.425067822193752720e-01,-1.649056970952435253e-02,2.347125470146077704e-03,1.028722774184199357e-02,8.971102833747863770e-01
3.327320320628224248e-01,-5.950233250302605637e-01,-8.552804819533745828e-01,9.534379959079223102e-03,1.027629497209606516e-02,9.052032378013974423e-02,1.093201756477355957e+00
3.470932354088906435e-01,-6.405282495569818435e-01,-8.353439474108850238e-01,3.979322020549460465e-02,-1.335397933111252995e-02,-1.470233159659325127e-02,1.100766777992248535e+00
3.489874961129312836e-01,-6.014377616780856028e-01,-8.726907338145135640e-01,-1.011523839333258734e-02,-3.436340033473747613e-03,-1.348823194689603331e-04,1.111321091651916504e+00
3.112001436311359615e-01,-5.532878631307794892e-01,-8.437135175151675437e-01,9.406882859211105133e-03,1.882049117374434352e-02,5.231081475213501114e-02,1.045128464698791504e+00
3.287464258517999172e-01,-3.662684045199891547e-01,-9.294026898789077284e-01,7.361673593955003758e-02,5.466268978181409305e-02,2.326414864727560927e-01,1.174368381500244141e+00
3.317172245827446631e-01,-6.245523077396069045e-01,-8.283094281136658132e-01,1.178194583829431444e-02,2.832989806773488980e-02,2.039221295175427592e-02,1.074656605720520020e+00
3.520075479050534528e-01,-6.506694359686661100e-01,-8.326226539395840121e-01,3.667651185779634976e-02,1.177173143794049345e-02,1.022051288737023389e-02,1.107101202011108398e+00
3.506146817389880765e-01,-7.767012501770733657e-01,-7.846048888554990608e-01,-1.320165910743503583e-02,2.665874654007211603e-03,-1.192052757731811409e-03,1.131530880928039551e+00
3.499213107132914113e-01,-6.425468928499269428e-01,-8.434691163467414876e-01,-3.093086291012540900e-02,7.545012590715727448e-03,-1.825128224742463001e-02,1.108518004417419434e+00
3.477535888864130564e-01,-7.528862523923115502e-01,-7.917097219941340303e-01,-1.210734389391770549e-03,-4.517261579229441167e-03,-7.232193886001511349e-03,1.120655417442321777e+00
2.729237458897745272e-01,-7.162229951071948930e-01,-1.147960449504100033e+00,5.171450638000468086e-02,-4.146334922383627594e-03,-1.645090638794064475e-01,1.296581864356994629e+00
3.654744661272793516e-01,-7.009403741059371251e-01,-8.280861896263739252e-01,4.931181639342747773e-03,5.102408546789032572e-03,4.305644480701776959e-03,1.135430932044982910e+00
2.910318210776775549e-01,-7.503689484775778462e-01,-7.909723525950996814e-01,3.207413292549239625e-02,1.217152338040609384e-03,-3.582502706997987927e-03,1.063756465911865234e+00
3.442651426922100910e-01,-7.473086106590736133e-01,-7.944147689462988104e-01,-4.682382064657808311e-03,-9.466642264573950361e-03,7.969587676027303780e-03,1.116108059883117676e+00
3.466429517861624454e-01,-7.101856413757432485e-01,-8.119427060046884304e-01,-1.637119840941413454e-02,-9.051246037950788983e-03,1.719195380461144111e-03,1.111683249473571777e+00
3.497195627693434061e-01,-8.076433108905735070e-01,-6.308158728293514761e-01,-5.371763923391345910e-03,-2.483470692955392495e-02,-1.771040408277360367e-01,1.123448967933654785e+00
3.446182478930417403e-01,-8.345570538684157214e-01,-6.107831349312311531e-01,2.493252938808831684e-02,-6.409734767365677342e-03,-9.079526977736294968e-02,1.096986770629882812e+00
1.468708961774956578e-01,-7.432033011197625161e-01,-7.350729258988156767e-01,3.628580341661735102e-03,-2.474533085405090233e-02,6.073600368880155767e-04,8.870959281921386719e-01
9.901344104872000784e-02,-7.512430538307239836e-01,-4.954622834968648859e-01,-3.408428347931959784e-02,5.022550595821038966e-02,-2.465507767558750563e-01,8.742399811744689941e-01
4.585711056073004666e-01,-9.252178180620194148e-01,-7.525855540318107106e-01,-4.293565529705198162e-03,2.281994072275951232e-02,-1.013405485241417464e-01,1.318413615226745605e+00
3.681634794463684579e-01,-8.000670348780047902e-01,-7.666859835522059630e-01,-6.458726228701755154e-03,1.308529463501254334e-02,-2.091521207802846116e-02,1.152749419212341309e+00
5.045402268871512774e-01,-6.900184138306935111e-01,-7.562914001482121673e-01,-4.998871629671993583e-02,-6.578410366046552604e-02,-4.496481224125110643e-01,1.462039351463317871e+00
4.525532057677383868e-01,-9.817560851115276765e-01,-4.463732520267210679e-01,2.518872230304518203e-03,2.307186692072289713e-02,-3.288555256338468458e-01,1.379140019416809082e+00
3.914870494036011284e-01,-1.103288266242769655e+00,-3.723942354880542260e-01,-4.505239137476595851e-02,-1.567194125110877093e-02,-3.944530803993808177e-01,1.466166019439697266e+00
2.533332124459319323e-01,-7.967896584309869246e-01,-7.299992406011734936e-01,2.171957333761402251e-02,4.359115162585107395e-02,2.436616624474269559e-03,1.021868109703063965e+00
2.565955254184186241e-01,-6.174688474011539308e-01,-6.733520340304341989e-01,-6.708036459622362946e-02,1.515373379740886026e-02,-3.207804637383105950e-01,1.067167043685913086e+00
3.095818065672601427e-01,-6.584205730162537851e-01,-7.293880780070238767e-01,-1.918995204031588228e-02,2.094419760693143687e-02,-9.410490130569591771e-02,1.019681096076965332e+00
5.383280919719919400e-01,-8.818596160986464927e-01,-4.686949987470271362e-01,4.383836608698290366e-02,-1.193515740494695415e-01,-4.050746714920667735e-01,1.463428497314453125e+00
3.395076442862818844e-01,-7.640561500007991835e-01,-7.121206814795371098e-01,-2.052360292734327005e-02,1.795848673717812330e-02,-3.771022426476993566e-02,1.081542253494262695e+00
4.214788360705073456e-01,-6.698655879447827921e-01,-8.389342514272559725e-01,-4.075943796245328626e-02,4.602367773088586467e-02,-2.119042739412509424e-01,1.245061397552490234e+00
2.395609436519015034e-01,-1.002642893838695759e+00,-4.030585371642871340e-01,2.857459728120953849e-02,-1.284211997303070785e-01,1.759678445343882403e-01,1.141308665275573730e+00
6.304136570297458331e-02,-7.603875012422740554e-01,-7.007787881686405873e-01,-3.244647132896817665e-02,4.533560344740828613e-02,-8.980992264716851359e-02,8.161044716835021973e-01
3.341339219474702693e-01,-7.781782415909832551e-01,-7.771687879492750195e-01,7.859136714876502686e-03,-3.157371516699707288e-03,2.993605490395748192e-03,1.111916661262512207e+00
3.511560073376533975e-01,-7.927417148421698201e-01,-7.695080573489452291e-01,-4.465961555314187925e-03,8.060718467828485723e-03,-8.751529653937733036e-03,1.132673621177673340e+00
3.912959782461760683e-01,-8.320444448716368679e-01,-7.097533927665848896e-01,-1.220775264447198152e-02,-5.746488788342659498e-02,-6.407083638244914781e-02,1.176682710647583008e+00
3.502925047135136416e-01,-7.883515891898116301e-01,-7.675332586292367143e-01,-5.316570318016393881e-04,6.273158431467831114e-03,9.278502464489154491e-04,1.128432750701904297e+00
1.568319518251877209e-01,-9.448222037872133772e-01,-7.188797398899411384e-01,-1.611651848602722870e-02,1.190652447913664522e-02,-2.314515029347197494e-01,1.085216760635375977e+00
2.277583838706964681e-01,-8.857118825171541587e-01,-5.177255012153814118e-01,2.176776924915283309e-02,9.527482160075156914e-02,-1.767467194874932923e-01,1.043005108833312988e+00
2.889998408575148447e-01,-1.213325841835812158e+00,-4.479092651079983889e-01,-1.208935416596869789e-01,9.025024548425825133e-02,-1.914473148730207741e-01,1.367909789085388184e+00
2.736886355568243778e-01,-7.679693139607220997e-01,-7.855090773999371390e-01,-9.029685298596562375e-04,1.103778578396793358e-02,4.824509344863270148e-03,1.050745964050292969e+00
3.155661641961447494e-01,-7.179159233344658553e-01,-7.141562423657051850e-01,-1.460727904216410069e-03,5.270223815670283364e-04,-2.583840331286798350e-03,1.031620621681213379e+00
3.158362605969608494e-01,-7.251336774005514574e-01,-7.017837557147376115e-01,-2.450799860262170560e-03,1.708077589218845276e-03,-1.161193614775382806e-02,1.029703021049499512e+00
3.071860505871377156e-01,-7.476651332503159164e-01,-6.516691014244508917e-01,4.546679249019140896e-03,-2.557780868512089670e-04,-2.898679740480387262e-02,1.011556982994079590e+00
3.597528431196977405e-01,-7.638300257737612453e-01,-7.614642521814796172e-01,6.560836551742460325e-03,-1.627347547970223358e-03,-1.321051568135171717e-02,1.122696161270141602e+00
3.226196299888963726e-01,-7.426636876093898332e-01,-7.038977326186945938e-01,5.982032871594050380e-03,-7.062732138732596109e-03,-6.202848375099014738e-03,1.046616911888122559e+00
3.169674861653796194e-01,-6.928658552226560907e-01,-7.383661068496132351e-01,1.466735650349398131e-04,-1.041470088775639470e-03,-5.974955282263787540e-03,1.033388495445251465e+00
3.215290344599114336e-01,-7.262446277766494429e-01,-7.170750826944827239e-01,-6.154086776161736896e-03,5.465065674353360332e-03,-2.105672006191696907e-02,1.043953776359558105e+00
3.089381199859783655e-01,-6.575564264242892420e-01,-6.470980580555789619e-01,9.722183121865202518e-03,2.048153471498908532e-03,-2.014483234444961191e-01,1.022816538810729980e+00
3.228494858935386791e-01,-7.214622829924668412e-01,-7.260891365017532184e-01,4.298857168166973081e-03,-3.608224845172319003e-03,-2.453953382118955872e-03,1.046686649322509766e+00
3.168539867958565792e-01,-7.113623121127108373e-01,-7.261479096951057866e-01,1.668185891486717706e-04,1.074525713982799969e-03,-6.587623970215896255e-03,1.035752773284912109e+00
2.903977284907066636e-02,-7.862251823794803585e-01,-5.990563392998551340e-01,-1.642781165101751470e-02,4.049723729793483495e-02,9.805377499802804542e-02,7.626730799674987793e-01
2.318716981670739807e-01,-7.551564347602592875e-01,-7.548408810938135316e-01,-7.300439512671764129e-03,3.704802989598198620e-02,-2.760251767430473794e-03,9.890468120574951172e-01
3.626497008837964442e-01,-7.789925202793681613e-01,-7.849811475396634153e-01,-1.184915591766041304e-02,-3.184210174233215781e-03,9.989824340532820705e-04,1.144846796989440918e+00
1.472051525166476749e-01,-7.432024374848613668e-01,-7.408003944809158359e-01,2.814828527640729841e-02,4.173853738166732885e-02,-4.350906091635666807e-03,8.935058712959289551e-01
1.583249520588109749e-01,-7.559225819303381222e-01,-7.287191736913569695e-01,1.401492157343060298e-02,8.096133706307730160e-02,1.734385477254836905e-04,9.121246933937072754e-01
2.031662786822479583e-01,-7.461595219379213439e-01,-7.648887277936222695e-01,2.567984854265427971e-04,1.072338883212246505e-02,-2.836185015679243133e-04,9.590077400207519531e-01
1.072826345241370549e-01,-7.340941182539527654e-01,-7.324998281060111083e-01,-4.022855847075932495e-02,1.105634586271887418e-02,-2.679160614273058509e-03,8.436937928199768066e-01
2.188530860188492300e-01,-7.619252308592570078e-01,-7.499708231611146303e-01,-4.028615623294692916e-02,-3.530862767204266759e-03,4.335910801460042541e-03,9.773981571197509766e-01
2.107173062605879332e-01,-7.544853144617460483e-01,-7.460014609873717450e-01,-2.794412848299391780e-02,4.276481180728962557e-03,-1.906011052810096564e-03,9.622410535812377930e-01
1.033801121560580794e-01,-7.399094578643407027e-01,-7.305784816677015625e-01,7.500392607609544749e-04,7.992899939881045746e-03,-1.676232156046967387e-03,8.387833237648010254e-01
-6.127245872483660927e-02,-5.689529689631105391e-01,-8.166117819436862213e-01,6.385648249111214314e-02,6.228334076668307420e-03,-2.270589359721602099e-02,6.772753596305847168e-01
3.201815154678515074e-01,-7.261666105922373049e-01,-7.137481826780633920e-01,4.916939200499245190e-03,-1.792641055459759164e-03,-6.097368631286267764e-03,1.040287613868713379e+00
3.123479352978479895e-01,-7.192382198090340184e-01,-7.030924539839394916e-01,2.793451022189787948e-03,1.095026834357180759e-04,-1.608598935265952504e-02,1.023999333381652832e+00
3.024405836460253849e-01,-6.546048967480793124e-01,-7.337443246549737452e-01,2.820854537903376164e-04,-1.169161551625084528e-03,-3.062631375026936623e-02,1.000378608703613281e+00
3.167147024105937958e-01,-7.064465213119215381e-01,-7.234810436697642899e-01,1.271884108454336259e-03,-3.203225495555581028e-03,-1.490079213466637305e-02,1.032123923301696777e+00
3.171361201571968880e-01,-7.178709164632450790e-01,-7.184593617321296533e-01,-8.870745219855733204e-04,-6.685690366923265201e-04,-2.143517337439367065e-02,1.035968661308288574e+00
3.207309146184034176e-01,-7.178659415364325724e-01,-7.242933239991431460e-01,-8.920855781953478635e-04,-1.106659346243172876e-03,-2.129764106467550364e-02,1.042481184005737305e+00
3.118505612628547641e-01,-7.190595384277285174e-01,-7.022504545198233750e-01,-1.682045820154121117e-03,-7.717161870854970327e-04,-1.395820329172427730e-02,1.022899985313415527e+00
3.115300898317160949e-01,-7.408839908405738806e-01,-6.437462234152147023e-01,-1.846802661134279737e-03,-2.605700688818702888e-03,9.396323259616734536e-02,1.020441055297851562e+00
3.340591807401986912e-01,-7.452281978373184179e-01,-7.257869502576373977e-01,1.659003458285612798e-02,6.653363607067803824e-03,2.222640287888308017e-02,1.070839405059814453e+00
3.690201592743990178e-01,-7.402346050491677154e-01,-7.624889333865465524e-01,1.967600518940023843e-02,2.573819487779456516e-02,1.015205950944387675e-01,1.135647535324096680e+00
3.176796642726036346e-01,-7.134524022976201918e-01,-7.253031418834832156e-01,4.376908630430570695e-04,4.214794812606865483e-03,3.433871122555011077e-03,1.037151217460632324e+00
3.135768517706440384e-01,-7.137895982618065460e-01,-7.163822897158984571e-01,4.027529372057973801e-04,-8.875592124460036643e-05,3.218959002108653933e-03,1.028680562973022461e+00
3.159234154645839676e-01,-7.401632530683581734e-01,-6.930400532566489691e-01,9.030278770132822404e-04,-1.900834290626846057e-03,7.467683107557535060e-03,1.033418655395507812e+00
3.106178156672261825e-01,-7.511251711395743325e-01,-6.598702282782571427e-01,4.166070704602871724e-03,-2.655147216999513907e-03,2.590853474485604879e-02,1.020207524299621582e+00
4.372735540539760546e-01,-7.422465900595777155e-01,-8.873354851014173539e-01,-1.580974967712332063e-02,-1.374275638680369852e-02,1.286208164551268240e-01,1.278436660766601562e+00
4.697237477291192342e-01,-5.887255467729564096e-01,-9.142833670764316523e-01,2.207264032506755028e-02,2.643096811589031384e-03,5.190412083136305421e-01,1.542913794517517090e+00
3.495818854779958462e-01,-7.746644015982695475e-01,-7.574547147663952540e-01,3.523639960130192650e-03,2.973226814910717719e-03,8.238696619978396959e-03,1.115860819816589355e+00
3.686088776244011989e-01,-7.804238266366444465e-01,-7.563023673290447668e-01,1.267588604680702953e-02,7.772155132998156968e-03,8.751030105759428912e-03,1.137556433677673340e+00
3.608658203287614108e-01,-7.695055869506903790e-01,-7.454944069740829793e-01,1.763500684412509789e-02,1.114886782607547866e-02,2.111018387388633247e-02,1.119739890098571777e+00
3.574182107702711941e-01,-7.395805705413154296e-01,-7.851021068597408004e-01,1.086798393158153360e-02,1.249851146443427090e-02,5.212562377701858950e-03,1.120856881141662598e+00
3.716798860316561370e-01,-7.785010551422048009e-01,-7.777521685142465557e-01,3.015764802825138171e-03,5.160795498926287576e-03,-7.170884727648414378e-04,1.149853944778442383e+00
3.722888055998651580e-01,-7.782748014663812830e-01,-7.723206976765655263e-01,2.741474549692822765e-03,3.384867465407972748e-03,-5.262403756218182391e-04,1.147623300552368164e+00
3.642479535186193274e-01,-7.687673953355302903e-01,-7.826953138752426042e-01,4.972102017108038022e-03,5.299531328156114815e-03,1.430013355197440198e-03,1.140115261077880859e+00
3.668641772142904878e-01,-7.815019560581665248e-01,-7.619428086171702308e-01,6.896412970339449618e-03,-3.288308918104012723e-03,-2.255612989422011057e-03,1.138796091079711914e+00
3.039800460277705119e-01,-6.438731881136822155e-01,-7.266768189440280246e-01,-1.396752472376319937e-03,-9.314681924451113535e-04,-9.673823602221406914e-02,1.005908131599426270e+00
3.154056949104636631e-01,-6.103158122214538128e-01,-7.975032488596973668e-01,-2.250524925448538563e-02,1.293796832821632325e-02,-5.547433277437170684e-02,1.037562847137451172e+00
4.660560327434578598e-01,-8.310373901237781968e-01,-8.051250174647016644e-01,-3.983301138167333333e-02,4.912309460003978084e-02,-2.205108546026536553e-01,1.344390749931335449e+00
3.251790530978703742e-01,-5.066016000705773070e-01,-9.070299548829143799e-01,-4.120313116607793313e-03,4.378674606439540880e-03,-5.844392100188580859e-03,1.088798165321350098e+00
3.516539273925425868e-01,-7.370802549121235892e-01,-7.663824214371108834e-01,3.344473673552704647e-03,1.213462894818589759e-02,-5.457209670974401232e-03,1.103932857513427734e+00
3.211779320007870919e-01,-7.743488440386918636e-01,-7.806090138357582031e-01,2.366260767961667912e-04,-1.267099701870325144e-03,3.555233491386064850e-04,1.098672628402709961e+00
1.664716359993599903e-01,-7.420601954229315567e-01,-7.414505071746029241e-01,-5.637865648423167307e-03,6.467738641315891671e-03,1.905591238217137304e-03,9.083546996116638184e-01
3.496486490776847811e-01,-5.525672499006911709e-01,-8.794089597570134975e-01,3.682926126018244012e-02,-5.909989739063760752e-03,-6.846952869628332786e-03,1.104543089866638184e+00
3.154041111180236334e-01,-5.348039180128538739e-01,-8.714230022510442986e-01,5.270516180673270878e-03,4.375271641307845391e-03,-2.190292796782056239e-02,1.060161471366882324e+00
3.427817998996344206e-01,-5.557159616802161972e-01,-8.739236118394704267e-01,-3.464983636004470569e-02,-2.009543332539723975e-03,3.976041172400656722e-03,1.094588756561279297e+00
3.303043507127607636e-01,-5.291649230772195178e-01,-9.016530250413625769e-01,-1.268239779950506262e-02,1.724001661848198821e-02,-4.769997599571073471e-02,1.098078727722167969e+00
3.307309707679357835e-01,-5.330230135026913230e-01,-8.766612790190584370e-01,-4.165146867226135474e-02,-1.607455862163845780e-03,-1.231741804091690540e-02,1.080113172531127930e+00
5.436745618011074033e-01,-4.114328550863215472e-01,-1.027386435878835158e+00,3.834356277324046242e-03,-4.871359246045825486e-02,-3.355638425058660723e-01,1.491611003875732422e+00
3.368163604816012957e-01,-2.323399277258152706e-01,-1.042514704676833048e+00,4.662021843871096138e-02,-3.892266938945960174e-03,1.199756269301621436e-01,1.221141457557678223e+00
4.193624866556674435e-01,-6.233064767998355293e-01,-8.917828922819557302e-01,-4.335492998747221549e-02,-2.099589706721307486e-02,4.691206397611030754e-01,1.451328396797180176e+00
3.378588603550278791e-01,-7.567655173432537019e-01,-7.138412978029577971e-01,-2.632481235098248912e-02,-2.851019710884597491e-02,4.643581339641655870e-02,1.078909397125244141e+00
2.443494779603387901e-01,-2.714231080498321624e-01,-9.926129072261896669e-01,-7.077127705038308014e-02,3.351469092613098416e-02,-9.533790393626706550e-02,1.097164273262023926e+00
3.573060791911514267e-01,-7.139187550193806242e-01,-7.974828223121983584e-01,-1.470870268127778130e-02,-1.562950286232294567e-02,3.750603875514315483e-02,1.117865562438964844e+00
2.342965641039226887e-01,-6.319928167081829695e-01,-5.767041291879895226e-01,-2.068022971228902079e-02,-1.322702281359046557e-02,3.869108725897043577e-01,1.075419068336486816e+00
3.302432385182083596e-01,-8.013052315849998886e-01,-5.935243969036803069e-01,8.094607601624869905e-03,4.057844566138653353e-02,1.147252986620943133e-01,1.064463615417480469e+00
3.553512212001661008e-01,-8.207005908549127593e-01,-5.843818073917694811e-01,-2.072768756868028500e-02,-7.106141240645022505e-02,2.880983105159162228e-01,1.194345593452453613e+00
3.352711065981142102e-01,-6.065321854082880160e-01,-8.359934649956604069e-01,1.164279696104697157e-02,-3.386017235606525889e-03,2.999882752857933876e-02,1.076519489288330078e+00
3.137436356924337422e-01,-8.081966612457203158e-01,-5.894652818793015836e-01,4.537772678992925933e-03,-8.829114866070868553e-03,-8.285221146166561745e-02,1.040230274200439453e+00
3.534033301910611824e-01,-7.982582243077414041e-01,-6.822408285628457358e-01,2.910983753427681588e-03,-1.919109291743988782e-02,-2.541829771669229521e-02,1.099654555320739746e+00
3.381510341614768489e-01,-9.686428090590305517e-01,-4.484353591975667186e-01,7.379014985770820587e-03,-9.038448155934235284e-03,-1.276837281407537383e-01,1.160965085029602051e+00
1.394886079561350467e-01,-7.295773811086806449e-01,-7.441003398463355012e-01,3.166848332177193970e-02,-1.773227093715250974e-02,-1.058226441274173426e-04,8.786694407463073730e-01
3.193946496519717848e-01,-1.009227460068003346e+00,-4.889132654193436567e-01,-1.866744661020507470e-02,7.280680091155812550e-02,-6.439063151015178565e-02,1.172198414802551270e+00
3.117005072696864554e-01,-8.841288537718082763e-01,-4.602338374569944213e-01,-3.490762860300668062e-03,7.692402693759094916e-05,-7.386408126733690072e-02,1.057919144630432129e+00
3.793277870597573376e-01,-7.396822340894804171e-01,-7.495766084942145913e-01,1.794867750081127408e-02,-8.062786246457390171e-02,-2.145846000452993341e-01,1.192460417747497559e+00
3.486754299532708878e-01,-8.085423075201703114e-01,-4.199819130963142744e-01,-3.439987517360096336e-02,4.565263481767161541e-02,-3.726913325396039034e-01,1.211190342903137207e+00
4.429776241532903391e-01,-1.123053169447096211e+00,-3.391594795966565434e-01,5.370177784785516717e-02,1.403659552812504437e-02,-3.357848164645346190e-01,1.478795886039733887e+00
5.261573126801992739e-01,-9.083693523924869506e-01,-4.745015812174225855e-01,-8.535225643206102719e-02,-1.761570385087486484e-03,-3.925733674572112197e-01,1.451867461204528809e+00
3.522107589999011745e-01,-7.390798935251978730e-01,-6.803393813161904280e-01,-6.062658912005804146e-02,6.444746958828234673e-02,-1.941764163074383986e-01,1.125550270080566406e+00
3.301140319397823930e-01,-7.214665396880888260e-01,-6.666394913265605293e-01,-2.132707959562615135e-02,3.689433385492380674e-02,-1.997129173947866654e-01,1.084562778472900391e+00
6.830131061381450319e-02,-6.739269314082860785e-01,-1.075748782579630358e+00,-7.074187379929297581e-02,3.022682280692190818e-02,-3.224943593479930870e-01,1.157743096351623535e+00
3.672686035704814667e-01,-7.729300266629214322e-01,-7.662018181169858444e-01,-8.821950781546843146e-03,1.362301040205753664e-03,-7.060860966218889152e-03,1.137020349502563477e+00
2.405448823210853959e-01,-6.886265480905569003e-01,-7.891412082457441857e-01,2.593916882828288181e-02,-2.910465910188967872e-02,-5.680802561960569125e-02,9.905045628547668457e-01
3.516756658299028948e-01,-7.239643212505837422e-01,-8.014859251599733003e-01,1.289009404608441878e-02,9.433640705338681640e-03,5.977190393209224142e-03,1.116811990737915039e+00
2.876657625039696908e-01,-4.069901417661819232e-01,-1.225982476770334451e+00,8.653544979481268828e-02,-5.251009260363201370e-02,-1.368327604245509477e-01,1.345035195350646973e+00
3.195304600040927978e-01,-7.607757164373303294e-01,-7.828864216143422983e-01,-7.330188170699464181e-04,-1.683932792921825558e-02,-2.122171274725337398e-02,1.092538356781005859e+00
3.656660534095192983e-01,-7.689054974819691246e-01,-7.867535098222009360e-01,5.274153870764269891e-03,6.132503811091124905e-03,-2.599542601804798203e-04,1.143685936927795410e+00
1.999254300109189475e-01,-7.508315696484235691e-01,-7.523260856101285921e-01,-2.567476756762040666e-02,-9.228260400552383211e-03,5.542357123296079869e-04,9.526783227920532227e-01
1.147795931199671604e-01,-6.020536678850273438e-01,-8.335588828710878140e-01,-7.117850511325875262e-02,9.049338849374433114e-02,-1.137529954369808638e-01,9.010997414588928223e-01
4.228193759377614214e-01,-9.344855262321880573e-01,-5.895112562405898649e-01,3.882610262434732507e-02,1.365973827136665597e-02,-7.667459244654215023e-02,1.231165170669555664e+00
3.483062877006486424e-01,-8.135831561664698119e-01,-6.654544216196877082e-01,-1.962207050755997162e-02,1.415153911013247723e-02,-5.616570914757505750e-02,1.100472450256347656e+00
4.900784244132820877e-01,-9.110061756685277068e-01,-6.034502235095697831e-01,1.393383261528481458e-02,-2.375734655451646957e-02,-4.476460133242585737e-01,1.493369817733764648e+00
2.756956546487420168e-01,-3.777948534998634700e-01,-8.679569275125540440e-01,-4.643752244246279748e-02,9.184538623779058691e-03,-3.244683187182867412e-01,1.144633769989013672e+00
4.084452543940098046e-01,-5.622812191126181913e-01,-8.716307786745942643e-01,5.467676477540313329e-02,2.565312058918193389e-02,-2.748939978700257192e-01,1.255366086959838867e+00
3.590648675517037480e-01,-7.887725738418198684e-01,-7.789391602916984070e-01,2.621010432568951802e-04,3.403666823587096161e-03,1.549372879544658492e-03,1.142970919609069824e+00
3.615571706049982570e-01,-7.881895880965277268e-01,-7.755067796155687976e-01,3.187832889726493688e-03,3.988491414599451383e-03,-3.342195803580750939e-04,1.143492460250854492e+00
2.951556661422652938e-01,-7.740985521641976508e-01,-7.624243710115734540e-01,-2.575554451168868188e-03,-1.718966031905431319e-02,3.234450222114359282e-04,1.063891410827636719e+00
2.908638272382891854e-01,-7.702505397005797727e-01,-7.626176122408034885e-01,2.752927714627976651e-03,-1.535938064184994879e-02,-1.739966237077958736e-03,1.057668209075927734e+00
3.482093934605585139e-01,-7.880693012312626200e-01,-7.699848032671157139e-01,-2.666645770123993262e-03,-5.325686356377406366e-03,-5.623930622603143161e-04,1.127392888069152832e+00
2.844321568574078030e-01,-7.740866311497618391e-01,-7.616953924982048374e-01,-5.977945964947310557e-03,-9.725882339245041711e-03,3.849242370198346919e-03,1.052584767341613770e+00
3.453551008639124675e-01,-7.137077152734493390e-01,-8.018575596509300851e-01,1.641351879037759171e-02,1.340383985884809883e-03,-1.264724098900820532e-03,1.106146097183227539e+00
1.228772791771881590e-01,-7.387890426213897799e-01,-7.365934339246380524e-01,2.946931121561370201e-02,-7.408057010115640106e-03,6.290776249657339600e-03,8.622473478317260742e-01
1.146693997199757509e-01,-7.132304322053677481e-01,-7.698421432444122470e-01,1.140593999562600908e-02,-3.484025822981893367e-02,1.896422058317698148e-03,8.599618673324584961e-01
8.519392864156916101e-02,-7.776942063919451975e-01,-7.152153052900123154e-01,6.766979652576605997e-02,-4.498016179806407083e-02,1.630403795289355612e-02,8.456783890724182129e-01
2.863411929911476306e-01,-7.809691692716171918e-01,-7.825013778547064147e-01,-1.274289977396342657e-02,-6.751450586571109379e-03,3.431470895309330412e-03,1.068385839462280273e+00
9.681776265520863900e-02,-7.312157890160581042e-01,-7.224166997070762264e-01,4.971922586307116199e-02,-2.385917111742449567e-02,-2.125415937825518922e-03,8.291974067687988281e-01
1.368264438374789949e-01,-7.421876543079943822e-01,-7.362154604857993334e-01,2.988054734028060266e-02,-1.006426507803651928e-02,4.664041168688495310e-03,8.777809739112854004e-01
2.568141035354080115e-01,-7.455932950107240220e-01,-6.835787678003961698e-01,-5.623813339656480448e-02,3.593826908561804923e-02,-1.348115077330088452e-01,1.007168292999267578e+00
3.248453062290809767e-01,-7.780130393317162829e-01,-7.750557284913606182e-01,-1.588663678677100163e-02,1.429612719340875131e-02,1.727758660265027793e-03,1.102008581161499023e+00
3.660508895393145834e-01,-7.739888748019219111e-01,-7.861113042672884799e-01,-2.055953823495873609e-03,8.331699408221897177e-04,-2.463609028221206473e-03,1.146163463592529297e+00
1.107804970165853775e-01,-7.318538052960079643e-01,-7.332633999828758187e-01,-4.283866900565781559e-03,4.269266780386832272e-02,-1.131251487844140411e-04,8.466081619262695312e-01
7.272741498365320467e-02,-7.153370137640944204e-01,-7.244055164278884185e-01,-4.420729222507162846e-03,2.249762863084504502e-02,-3.300169485441156389e-03,7.936523556709289551e-01
5.558972631083242133e-02,-7.205434406348497633e-01,-7.193749150947001958e-01,1.580191340224889121e-02,1.993958505207115914e-02,-3.034547574815511881e-03,7.768182754516601562e-01
-5.813430679611714114e-02,-6.978566546187483510e-01,-6.986776425183250927e-01,2.839225852606666600e-02,1.206665401102633957e-03,-3.164381373821917179e-04,6.420230269432067871e-01
1.056114336485409200e-01,-7.344715247987626539e-01,-7.371640827983108046e-01,-1.973739370146211994e-02,1.355086320979723320e-02,2.353033573370822643e-03,8.424634933471679688e-01
-2.415470735843250338e-03,-7.484613594709588202e-01,-8.620313523576641490e-01,3.902939550984055317e-02,-1.752230342206220204e-01,6.185323499564528149e-02,8.731366991996765137e-01
1.096612326089832501e-01,-7.301929753013830515e-01,-7.338109120667153373e-01,9.057780626875533772e-03,2.982074553101305911e-02,-4.553251042746100734e-04,8.433986902236938477e-01
-5.598859981217285675e-03,-7.407354558100103237e-01,-7.138602541070429019e-01,-1.684136481039355624e-03,-2.012983643249881618e-02,1.925363729820190814e-02,7.236901521682739258e-01
3.586938508957663863e-01,-7.543857387581039964e-01,-7.697955715458593140e-01,-1.653641985295182040e-02,1.596430808440228721e-02,-1.924541107614330740e-02,1.122066020965576172e+00
3.737340381238732911e-01,-7.775123696307790766e-01,-7.751699324350439513e-01,-1.191925830688525057e-03,1.875901544747317698e-03,2.182963146875149200e-03,1.150089621543884277e+00
3.604765643852030910e-01,-7.629879689512280017e-01,-7.804343168807625908e-01,-5.113277537246316284e-03,9.681331879911438468e-03,-3.363043393070236971e-03,1.132462263107299805e+00
3.742507756637092342e-01,-7.775188959802465938e-01,-7.779793135044308361e-01,-1.242554445975416200e-03,4.994861788691394992e-06,1.492359091405736672e-03,1.152004837989807129e+00
3.690614330917206809e-01,-7.774778385572181927e-01,-7.713090777513764706e-01,-4.316132983922568722e-03,2.667144938120673790e-03,-2.898195548209780634e-03,1.143512129783630371e+00
3.631242491058956912e-01,-7.827485123557460511e-01,-7.687637923309111887e-01,-5.559082698895313063e-03,4.442618454650618977e-03,-1.589300076081229512e-03,1.139014840126037598e+00
3.551849884767445120e-01,-7.175510023976466867e-01,-7.943365066332431779e-01,-4.540746359934799865e-03,-1.685367883962032506e-02,-3.005460555264183320e-02,1.114743471145629883e+00
3.511989195655939033e-01,-6.169346117174185906e-01,-8.237651712941731486e-01,3.708058912930502216e-02,-3.001978461092633110e-02,-1.031174063786511608e-01,1.104096531867980957e+00
3.441442521463763948e-01,-7.762747647796963690e-01,-7.650062260575171136e-01,2.036622077498469099e-03,-6.531751060949610513e-03,-1.262154272311838583e-02,1.115104794502258301e+00
4.693948081399592076e-01,-8.662308871151018774e-01,-6.330209060796823106e-01,-2.629576928749437562e-02,-7.604845595145320880e-03,-1.993081012876341540e-01,1.283830523490905762e+00
4.093810410910693198e-01,-4.042986188150277660e-01,-9.083883875847176270e-01,-1.003797821512963512e-01,8.922903839683038463e-02,-3.175009625962218474e-01,1.297259807586669922e+00
3.031540468085666684e-01,-6.441434196134474544e-01,-7.207979962321577894e-01,-9.041016713626850998e-03,7.371648200136925871e-04,-1.036493973997382051e-01,1.004161119461059570e+00
3.557641415668066909e-01,-7.542688443241325480e-01,-7.195694189508576866e-01,1.287464061986941938e-02,-2.219425107033775463e-02,-1.055584524294368443e-01,1.109171986579895020e+00
3.426313200051155361e-01,-8.217313608227416744e-01,-5.896047084360882540e-01,-5.640606851275606695e-03,5.195982189557773155e-03,-8.754228832516683378e-02,1.078198075294494629e+00
3.204898821756068661e-01,-6.131259159020154836e-01,-8.026754796015329596e-01,-3.089888569593619502e-03,-2.737929748368117099e-03,-3.317182612894930410e-02,1.043017864227294922e+00
3.150996741498504616e-01,-6.572320630527410668e-01,-7.455952453686052195e-01,3.637835512166381641e-03,-4.351229619936387676e-03,-2.898659728678599362e-02,1.020672559738159180e+00
5.751175008866695748e-01,-5.364589491314624148e-01,-8.507259918293087475e-01,5.059821532013424744e-02,5.930140015715869295e-02,-3.210600074082465838e-01,1.418156147003173828e+00
3.218416985950964815e-01,-6.230066739184998426e-01,-7.962137900956720582e-01,-5.085903294132813716e-03,-3.157881367245780630e-03,-8.403637941912071863e-02,1.052467346191406250e+00
3.436988681913056842e-01,-8.371932976426155193e-01,-6.236380697589041233e-01,4.356694613267320972e-03,1.412986129611933962e-02,-7.181597013044356895e-03,1.090292215347290039e+00
3.334865838725086240e-01,-8.549045289942291959e-01,-5.738823246560731395e-01,1.253741817527812344e-02,-8.802735785027793539e-03,6.155103451231137140e-02,1.081365942955017090e+00
3.285946736467945106e-01,-8.711515022345455161e-01,-5.399458210749016329e-01,8.644543379190350535e-04,-5.082409716746715336e-03,-1.715560816105029390e-02,1.073633074760437012e+00
5.325747558846789520e-01,-1.221068634585733115e+00,-3.071240449105892556e-01,3.658523206396434562e-03,-7.694238859329931290e-02,3.929357985037055245e-01,1.669976949691772461e+00
3.304814748988054163e-01,-8.063950031179618616e-01,-6.228558223267069982e-01,6.978356796266417181e-03,1.857113409288786710e-02,8.343661442606294110e-02,1.067510724067687988e+00
3.518692848561481568e-01,-7.988325940861671359e-01,-6.840989735361291402e-01,1.752956192168925870e-02,2.940594219310459917e-02,2.038073986075735269e-02,1.100007534027099609e+00
4.393738497107740337e-01,-9.872923749196016452e-01,-4.157903141967332350e-01,4.239782513670188602e-02,4.865585354225084556e-03,2.911312802372033048e-01,1.344017982482910156e+00
3.678194883519380065e-01,-8.946654629229143785e-01,-6.432438775545034071e-01,-1.303551505189274630e-02,6.013606271131601878e-03,1.394672349725817884e-01,1.182639718055725098e+00
3.507428617441632479e-01,-9.974913560401739154e-01,-2.979432724305705604e-01,-3.465416026277384764e-02,7.500677868734000053e-02,-1.288560513378069206e-01,1.197597980499267578e+00
2.847550059755303287e-01,-7.269022170864889443e-01,-8.192373636916612245e-01,5.412386296673721113e-03,-8.249865468807546925e-03,-4.045207965245973397e-02,1.063291549682617188e+00
1.994656367188180623e-01,-7.554825425205307088e-01,-7.691038890041643761e-01,-7.976288345063933805e-03,5.025060786039049071e-02,4.053549934792250592e-03,9.658854603767395020e-01
1.900335524945934718e-01,-8.025139833703790471e-01,-6.219693253302343017e-01,-8.583912395537364459e-02,-1.390227706348121095e-02,-2.315036718751317946e-01,1.010947346687316895e+00
3.242787042557911392e-01,-8.076681995305453610e-01,-7.335663999764595600e-01,-6.746576863753432282e-04,2.816580651200377319e-04,-1.601515395194019406e-02,1.097126483917236328e+00
2.382237470946323987e-01,-7.643191104697927285e-01,-7.638045476272057321e-01,-3.866657417585558226e-02,2.763404507801912532e-02,5.077362223086856474e-03,1.005698800086975098e+00
1.990489432194494368e-01,-7.488827360083849527e-01,-7.419884858061489563e-01,2.370415450480089874e-04,2.626882414491757065e-02,-4.037103477325380179e-04,9.455990195274353027e-01
3.611341931210950151e-01,-7.721808813542274663e-01,-7.902861610473395082e-01,-2.730133132659505382e-03,1.003625351893838681e-03,-1.783010105001242313e-03,1.142490625381469727e+00
3.514835300909870952e-01,-7.109145466456654461e-01,-7.320866376625877470e-01,-1.290590405765546303e-02,5.107262398491570037e-03,-1.006109691086188307e-01,1.087463498115539551e+00
3.236771284177390462e-01,-8.449521483825115364e-01,-8.470912775298982123e-01,-4.008733765071403367e-03,-2.438957374661592653e-02,-4.511399950049825580e-02,1.173088788986206055e+00
3.124244029454715799e-01,-7.736740508995196830e-01,-7.708423898984906319e-01,5.970288467524724474e-03,2.588455698115761303e-02,5.545478251791084029e-03,1.085703253746032715e+00
3.088930866935320485e-01,-7.794775451407582878e-01,-7.680921922948648062e-01,-5.026124478512245322e-03,2.108801977889700197e-02,1.793177471451889212e-03,1.083378195762634277e+00
2.807267221647361533e-01,-7.696865239944510328e-01,-7.675854996112952966e-01,-2.101487434559093023e-02,7.274011709992413317e-03,2.034457213525390877e-03,1.050076842308044434e+00
3.791053613564860925e-01,-8.910322211110430768e-01,-6.843280258553381401e-01,2.505698384304466675e-02,-4.934080124102080411e-02,3.580236284049118783e-02,1.185945153236389160e+00
3.610885553950049509e-01,-7.598378001251129277e-01,-7.698880231441954658e-01,6.459798581179073719e-03,-1.199041343111719587e-02,3.386107529019674166e-03,1.126247525215148926e+00
3.718946588906508754e-01,-7.726751253037033029e-01,-7.777707899783061762e-01,2.338979942014901125e-03,-2.081068190231718119e-03,2.642824881392335850e-04,1.147139072418212891e+00
3.690688466304642423e-01,-7.734843316947890290e-01,-7.694451394705690284e-01,-1.089541841416741480e-03,2.454408593844932909e-04,-2.423691854805397859e-03,1.140548348426818848e+00
3.602640906072430704e-01,-7.709474380882594957e-01,-7.536031430747485160e-01,8.865401853320119610e-03,-6.994749567094934138e-03,-2.450941813984773565e-03,1.122818231582641602e+00
3.655596707549602087e-01,-7.680315210016078753e-01,-7.712453409164214957e-01,9.227438581567260628e-03,-5.964500003124610997e-03,-4.367126070255040321e-03,1.135386228561401367e+00
3.733384049784094216e-01,-7.841117332170681742e-01,-7.754417787243115257e-01,2.647666121621955037e-03,-1.649049684691329763e-03,2.121980258515214750e-03,1.153158068656921387e+00
3.737256404498267570e-01,-7.807006336771596944e-01,-7.785356666872502718e-01,3.165186989243500438e-03,-8.309016751890015975e-04,8.411096211050639055e-04,1.153360128402709961e+00
3.730437286924616624e-01,-7.790841967354056319e-01,-7.792276686577623845e-01,1.015340041943471692e-03,-8.542259853458332615e-04,2.873844412515630560e-03,1.152212738990783691e+00
3.624624659740780519e-01,-7.084302324866973422e-01,-8.150118038012231780e-01,1.107427926626173426e-02,-5.895695904749466594e-03,3.419997836351764027e-03,1.128191232681274414e+00
3.333331450194987333e-01,-7.678573589433663749e-01,-6.597688530027396858e-01,-2.070270326583336165e-02,-2.634756377037817884e-02,6.380997329795605466e-02,1.058707356452941895e+00
3.214350208006959142e-01,-6.545503685491638191e-01,-8.531468067099130526e-01,-3.736826136176645691e-02,-1.851466952606469277e-02,1.140901904357304736e-02,1.091523408889770508e+00
3.301361439112712737e-01,-6.443688725598981648e-01,-7.928291957375255272e-01,1.452764131634752846e-03,-1.157461217520640989e-02,4.533791849354885939e-02,1.059693694114685059e+00
3.287993115222902496e-01,-3.303239519191837892e-01,-1.024356053271081812e+00,1.058087040031258780e-01,-4.263975373205049213e-02,-1.714673975223376555e-04,1.188535928726196289e+00
-4.705112210147976981e-02,-5.933005487354316987e-01,-7.354395668461448654e-01,-3.567397502111849250e-02,-4.672003722907278750e-02,1.610150419759275309e-01,6.959733963012695312e-01
3.344320606007261110e-01,-7.444414428964696295e-01,-7.268334774233977669e-01,-8.478307139835777537e-03,1.455314855101931583e-05,-1.178277442344450058e-03,1.070280909538269043e+00
3.278983761136120556e-01,-7.274434933627595967e-01,-7.277586643914892850e-01,7.423843180893400368e-04,-1.266848362870304657e-04,8.952318898005229980e-04,1.055501461029052734e+00
3.221906725783401648e-01,-7.212435396749403704e-01,-7.240196202519041391e-01,-5.416145341721769618e-03,5.551445397629669980e-03,-1.997367439312771383e-03,1.044917106628417969e+00
3.452017092116825836e-01,-7.219380978592748743e-01,-7.669191325790034597e-01,-7.303957186961615271e-03,1.200154357408116969e-02,-2.909955196739562669e-03,1.090609550476074219e+00
3.289030836326342633e-01,-6.979078110463617923e-01,-7.537651634344602058e-01,3.805764970526180364e-03,1.111639365741707089e-02,-1.865664063629014074e-02,1.056538701057434082e+00
3.596841692598502505e-01,-7.730719342005543115e-01,-7.854052554528214714e-01,-1.151777245441576881e-03,3.294818013407232495e-03,-4.589884782673600864e-04,1.138989210128784180e+00
3.243474196130701204e-01,-7.096952052748222162e-01,-7.348138092684826095e-01,-8.450018808768975515e-03,1.099233912099228765e-02,-1.366310331213045452e-02,1.047370791435241699e+00
3.163790292086819944e-01,-6.900331509726909118e-01,-7.423457742129185855e-01,-6.178203655262560091e-04,-3.165210671905276107e-04,-8.413507763868743189e-03,1.033665299415588379e+00
3.553442233662311711e-01,-7.347352744714545913e-01,-7.856143516615292643e-01,-1.130749227641722129e-02,1.341970648392492096e-02,-6.047054857395824969e-03,1.116851687431335449e+00
3.659072298403764356e-01,-7.218716356032357506e-01,-8.197058095190455917e-01,-2.335430793712383116e-02,2.852745783472413615e-02,-3.768172753262260394e-02,1.143500685691833496e+00
3.636610631583007680e-01,-7.673218352250028573e-01,-7.834964059655322721e-01,-5.876377682875901995e-03,6.534188258051389087e-03,-1.687212314426446902e-03,1.139261722564697266e+00
3.625826685557309581e-01,-7.743188090815595892e-01,-7.793081817068483463e-01,-6.701660386585999015e-04,-2.016936093960885069e-03,8.183469548462357851e-04,1.139411211013793945e+00
3.735193150713325139e-01,-7.776832587755629911e-01,-7.831219566340528182e-01,-2.311997460205875295e-04,5.983187304725707395e-03,6.569794956566031357e-04,1.153978705406188965e+00
3.731027363398080055e-01,-8.539837944079970988e-01,-6.705105499230560318e-01,1.196844263656932951e-02,9.150938277324577319e-02,-7.965439240652544273e-03,1.157587289810180664e+00
3.647973915070054640e-01,-7.701042478044317630e-01,-7.710630144743513270e-01,-5.166574782475186374e-03,4.239866812374025809e-03,-1.811567401440158064e-03,1.135444641113281250e+00
3.283316259295265271e-01,-7.344383378102014026e-01,-7.197709717103267790e-01,-7.257537845493162998e-03,-1.173805565143862467e-03,-8.505172319873108983e-03,1.055692315101623535e+00
3.705623594024499146e-01,-7.774504646742261826e-01,-7.766670264533781509e-01,-5.422106803481321078e-04,-2.369277981947265181e-04,-2.637559641992346261e-04,1.147621870040893555e+00
3.727237564078038634e-01,-7.773105554709660581e-01,-7.813087672989963428e-01,-2.258460180650456728e-03,3.953040937686393488e-03,1.896554661558583037e-03,1.152070283889770508e+00
3.554563678544844230e-01,-6.180929926085982906e-01,-8.245559991801474364e-01,-6.342441273581076941e-03,-1.921947509306986580e-03,2.145794975858509868e-01,1.153122782707214355e+00
3.172024971132620941e-01,-6.148965599591568187e-01,-7.916222663109142577e-01,2.394457454764013435e-02,1.725843411882174716e-02,4.549597437082018164e-02,1.036141753196716309e+00
3.403633244667060298e-01,-6.705479426597259485e-01,-7.421613465368395168e-01,-3.694877492762992099e-02,-1.983339714698464928e-02,1.139881441640087506e-01,1.069448709487915039e+00
3.136780971906851789e-01,-6.543106087042283026e-01,-7.536939796221295840e-01,-5.792071909354619581e-03,-4.959731782275833729e-03,2.859993363668919888e-02,1.022599339485168457e+00
3.267150476329645503e-01,-6.541028801393578007e-01,-7.860917696029836588e-01,8.097642940989696267e-03,7.252583280503936865e-03,1.741471140529371117e-02,1.053634762763977051e+00
3.164077790744940222e-01,-5.360666200007716542e-01,-8.656368718351645786e-01,6.112262517940933448e-03,-5.307680114229687725e-03,3.164783826447137988e-02,1.058055162429809570e+00
3.572630547157977232e-01,-8.594621421108266102e-01,-6.191529960341272121e-01,-1.069240754984284586e-02,-2.769300718546548190e-02,4.995875942501797756e-02,1.120673775672912598e+00
3.387158704355266448e-01,-7.769403376332517652e-01,-7.766550427223534170e-01,8.883492292980727997e-04,-7.289707496071262498e-03,-2.369686409231228953e-03,1.115593671798706055e+00
3.263846573902936532e-01,-7.830381020849133122e-01,-7.740751780790540160e-01,-2.726162838472504391e-03,-2.520009215233479614e-03,-4.492933077563694569e-04,1.104987502098083496e+00
3.413851499819353097e-01,-8.368258204221071805e-01,-6.428538878145417801e-01,-9.875275536566844106e-03,1.258709840684829433e-02,-1.439747483744698367e-02,1.094831585884094238e+00
3.636169702314992480e-01,-8.220446850130651573e-01,-7.281645286739775180e-01,-1.593252008965265198e-02,-3.164737507154404689e-02,5.342883000356989272e-03,1.143306136131286621e+00
2.363734108060143724e-01,-7.655534701043585910e-01,-7.639912388594219950e-01,3.139874910030942493e-03,2.386222848339728322e-02,-1.071262688953024747e-02,1.002185940742492676e+00
4.297162531108404959e-01,-1.002938503058604658e+00,-5.558927650442277990e-01,4.366064057218255190e-02,-1.060490052686196422e-01,-5.599086793380207011e-02,1.288700938224792480e+00
3.157802530016098341e-01,-7.740761676256788792e-01,-7.755874747756444920e-01,8.961706995877448054e-03,9.491120754401134035e-03,3.378210201827653962e-03,1.090862870216369629e+00
2.291533098387323886e-01,-7.564931891022615984e-01,-7.789820033510748143e-01,-7.319615812939651162e-03,-4.270371565440613665e-02,-6.271796116511179665e-03,9.999601840972900391e-01
2.654775108089526547e-01,-7.678398728765573056e-01,-7.672745757569721103e-01,5.910647031153242088e-03,1.823706053397365287e-02,-5.660755601766160293e-03,1.033614873886108398e+00
3.522164823666402711e-01,-7.852612070773322683e-01,-7.774209175995303589e-01,1.558438393436100203e-03,5.394792917656592024e-03,2.326255245120591956e-03,1.133626818656921387e+00
2.939941050477233309e-01,-7.590075323169637178e-01,-8.201941337438400925e-01,4.663564922274177765e-02,-9.720403026000091692e-03,-4.158687405890105354e-02,1.090404629707336426e+00
3.513680732967869313e-01,-8.015677765510340613e-01,-6.995659388758881381e-01,-1.836920613142575473e-02,1.606155521199094383e-02,-4.198510586827768759e-02,1.108665108680725098e+00
1.993224290182879499e-01,-4.427538716201086522e-01,-1.129243041042514495e+00,2.991937467624308702e-04,-4.647903445298997432e-02,-1.014455772712486020e-01,1.166903018951416016e+00
3.797171039128942605e-01,-7.102826756062388114e-01,-9.443539939946268280e-01,2.346388786202119325e-02,-6.793311900717738383e-02,4.505773025173849533e-02,1.232726097106933594e+00
5.143772993667977689e-01,-5.808588250605113412e-01,-1.068127850769173381e+00,1.067064824798931791e-02,6.161680307861477912e-02,-3.940132519132451550e-01,1.564646482467651367e+00
3.109309260351206250e-01,-2.964438062075076541e-01,-1.264339034754503377e+00,4.498467955243491863e-03,2.806594211787079296e-02,1.277927382927138318e-02,1.377139806747436523e+00
1.436517010116777904e-01,-4.280354669570292092e-01,-9.663199653214459284e-01,1.106495050679714431e-01,2.972028415031816376e-02,4.381992613108953716e-02,9.846050739288330078e-01
-7.945998765809247910e-02,-5.157482003519024971e-01,-8.937357213266857725e-01,1.037557217666702607e-02,-7.579129101158008086e-02,-3.375899898707032665e-02,7.204917669296264648e-01
3.479693277257229767e-01,-5.581585537517363971e-01,-9.919092053614939619e-01,5.764808019919987619e-02,-2.561237857390860195e-03,-7.091794310401447476e-02,1.194704413414001465e+00
2.620424310451339722e-01,-7.658507221590553637e-01,-7.721724886067777849e-01,5.203979798161483157e-03,5.766941253982994613e-03,2.609776750334027833e-03,1.031166315078735352e+00
1.814077777853070339e-01,-7.478817605953840264e-01,-7.496837893654493268e-01,3.464756990198834125e-02,5.148594594092333054e-02,-3.323487416362363609e-04,9.363818764686584473e-01
3.647791182475741967e-01,-8.056587779127262205e-01,-7.282247551765308469e-01,1.199017972578486461e-02,1.705021735237222807e-02,4.394482591162479981e-03,1.134306192398071289e+00
3.657253383417202186e-01,-8.031994946540060853e-01,-7.516763508482953160e-01,5.009489423642281627e-03,-1.019312609174115140e-02,-2.691174628588922403e-03,1.144212365150451660e+00
3.635266249299123342e-01,-7.998505253587641084e-01,-7.500162764650351033e-01,8.419763130861266515e-03,-1.119590269633840771e-02,1.087859868866540829e-03,1.139537692070007324e+00
3.922017346833642226e-01,-5.589078478603408673e-01,-9.586232268880139351e-01,-3.126804286698693647e-02,-2.834231241817206873e-03,-3.916917517984670055e-02,1.205037236213684082e+00
3.149842702310145515e-01,-4.063722145185869050e-01,-9.172288565027932883e-01,-2.410156348305278473e-02,2.236800599976615858e-03,-2.406567157458329095e-02,1.073934197425842285e+00
3.830860921898462945e-01,-4.254885152339698551e-01,-1.048109477624085795e+00,-3.746520239521047152e-02,2.847275292317818715e-02,4.172855933650386484e-02,1.247698664665222168e+00
2.907771996759790367e-01,-3.627076454813837891e-01,-9.593129915326290558e-01,5.443916143313189127e-02,-5.294544991104061654e-02,-9.242219149352076668e-02,1.102623701095581055e+00
3.503077459640140390e-01,-5.760026001034717069e-01,-8.629510379549851784e-01,1.034034523583895679e-02,-8.277322684585874252e-03,-6.683684635722399181e-02,1.104591012001037598e+00
4.052397619603390067e-01,-5.600951490628576224e-01,-9.479691876868352463e-01,4.675637069558352676e-02,-2.069135214697353717e-02,-1.010439720869291957e-01,1.222791314125061035e+00
3.361245512468871710e-01,-8.218351928630207581e-01,-6.777816245009358198e-01,-3.091429467999996534e-03,-3.178450970877964160e-02,2.287058557348608731e-02,1.095190644264221191e+00
6.076236239420461649e-01,-2.624683406269667230e-01,-1.122593005674922484e+00,2.294092253580028856e-02,-8.904527860793744198e-02,6.943404260619271198e-03,1.506908297538757324e+00
2.735113311745742126e-01,-3.557591381015782206e-01,-9.262650387583699629e-01,-4.860865547894492600e-03,8.316494477574243316e-02,-2.326975575318594724e-01,1.124155402183532715e+00
1.526786541304889222e-01,-7.387496044672772211e-01,-5.013198579864430737e-01,-4.906574746363152190e-02,-7.462221357476650496e-02,3.133360196336133496e-01,9.786888360977172852e-01
4.885069443667566791e-02,-8.872643701003166683e-01,-6.672067807334679523e-01,-6.236477822750514932e-02,-1.189288884205249308e-01,3.914943822746766444e-02,8.817232847213745117e-01
3.424552027979017588e-01,-7.901313866235784023e-01,-7.653877996819193896e-01,5.162820540307809167e-03,-7.523646352586670083e-03,2.886276716129699410e-02,1.121645808219909668e+00
2.933090221062702452e-01,-7.524193075580443146e-01,-7.757353721254121037e-01,1.174326495425297504e-02,-1.288504376709005521e-02,1.202239016837023527e-02,1.058215022087097168e+00
3.487523357973023042e-01,-7.871013189783340191e-01,-8.637426669779347810e-01,-3.993260374957415156e-03,-8.588082853457554983e-03,5.144274927788541896e-02,1.179533362388610840e+00
3.605067910920196628e-01,-7.836119982694940145e-01,-7.936909805362635240e-01,2.731710364548855120e-03,-1.691563441499549254e-03,-1.040514160931886763e-02,1.149346232414245605e+00
2.029436469721633829e-01,-8.438022104702325166e-01,-8.269001536673640240e-01,3.383797700577411555e-02,4.855980465067245844e-02,-4.504296519969944873e-02,1.046358585357666016e+00
3.707524406042999043e-01,-7.740552428029787713e-01,-7.721320803868034766e-01,2.030062388497218349e-03,-6.158238952783396791e-04,-2.311698655676066444e-03,1.143860220909118652e+00
3.493447551519137662e-01,-7.437076312205851414e-01,-7.530444677389978025e-01,9.437869735708910232e-03,3.540292099765125582e-05,-5.618619884953168948e-03,1.097915410995483398e+00
3.541796059818665965e-01,-7.510224955115714085e-01,-7.606514165153270834e-01,5.861668465001094270e-05,1.079947033576302918e-03,-5.339001462757884432e-03,1.110087990760803223e+00
3.594146433314041045e-01,-7.618171751064205521e-01,-7.603360763550688350e-01,5.182592891140710457e-03,-5.136932901028463949e-03,3.037660903436784662e-04,1.120563387870788574e+00
3.520359356129447170e-01,-7.564850898841908311e-01,-7.478473408759638286e-01,7.610939830458428312e-03,1.839294749035831405e-03,-1.522760996323887063e-03,1.104313969612121582e+00
3.590677347133658381e-01,-7.718989023222231349e-01,-7.515115810681083364e-01,8.975835755275336780e-03,-6.515803738813627163e-03,-2.425930484999340789e-03,1.121084570884704590e+00
3.221546095171359814e-01,-7.241691863019799058e-01,-7.213688269113769369e-01,4.616110228879789779e-03,-3.267114300951892963e-03,-1.276424506452392355e-03,1.044974684715270996e+00
3.380090038058822799e-01,-7.376613009653206765e-01,-7.334889077173818439e-01,9.198945366213113692e-03,-1.355248420864141844e-02,-1.601575925169741038e-02,1.074323177337646484e+00
3.404601213925147474e-01,-7.056475392132930402e-01,-7.661680787628204481e-01,1.711202611402298443e-02,-1.827009390154954796e-02,-1.484606405146849523e-02,1.078821539878845215e+00
3.506436116454370033e-01,-7.326773120431266939e-01,-7.671730584573558387e-01,-4.523823114617611142e-03,-1.164729714575057397e-02,-5.703568753922983077e-03,1.101231217384338379e+00
3.590983971483396320e-01,-7.601931319006565158e-01,-7.614264886400246013e-01,5.733804111862659224e-03,-6.178846180165413829e-03,-7.459824607515559008e-04,1.120004653930664062e+00
3.377110498925189885e-01,-7.396201099270609536e-01,-7.317777297247244350e-01,5.479595709025343944e-03,-4.825711571793117952e-03,-8.370027253143171725e-03,1.073603868484497070e+00
3.594352901060055006e-01,-7.698559399158577676e-01,-7.529616911856256145e-01,5.908019213450816515e-03,-1.726110874940274889e-02,-9.379790487930087656e-03,1.121502637863159180e+00
2.406953304226280288e-01,-7.813572449831083233e-01,-6.877571736957982518e-01,1.121655059354751717e-02,2.686111353110005352e-03,-4.063054149143913857e-02,9.813459515571594238e-01
3.519230776100016334e-01,-7.425258895978142926e-01,-7.680396739300865416e-01,8.297446885049025375e-03,-8.251811824144311344e-03,-1.217731022629298630e-02,1.107812523841857910e+00
3.535510961650025763e-01,-7.606727089445822765e-01,-7.503388174168453828e-01,-1.479161556001349232e-03,1.428794502902219646e-04,-4.557214056978870810e-03,1.109124064445495605e+00
3.513327401759950841e-01,-9.122929689587635504e-01,-5.284004337491140513e-01,-2.070900904348498461e-04,-5.898186014220420555e-03,-8.367845522635017352e-03,1.122203826904296875e+00
3.516026302154661165e-01,-8.539853681743647673e-01,-6.105223693046091249e-01,-2.926912700146344984e-02,-7.463621779615675633e-02,4.048828559604032706e-02,1.115078568458557129e+00
3.253916369814639498e-01,-8.609617139827174803e-01,-5.462508161113515115e-01,-1.723357277443287802e-02,-4.510477293784449608e-03,7.135555075522558022e-02,1.072075486183166504e+00
3.405007149014159795e-01,-8.810049877204990665e-01,-5.287704470384129163e-01,-3.369854391177083599e-03,-7.223907555489720959e-03,2.899949563811748780e-03,1.089084386825561523e+00
3.284757525227526287e-01,-8.745574610226072299e-01,-5.262818925785733848e-01,7.301855979003486459e-04,-5.625843997307492655e-02,-3.934799542441935012e-04,1.076612710952758789e+00
3.164656908041180716e-01,-8.684663747825702718e-01,-4.945817622233410482e-01,2.705339685290446966e-03,8.322650418066176309e-03,1.039982444421361368e-01,1.064660787582397461e+00
1.569036051022186795e-01,-7.440421391904767923e-01,-7.741422721981942034e-01,4.230734426205052037e-03,1.397193415887558899e-03,7.791524340389930844e-03,9.164984822273254395e-01
3.493269307392108947e-01,-7.884947963269000049e-01,-7.712327478390788027e-01,2.564927688596306109e-03,4.647066405693797719e-04,3.191513825261145434e-03,1.129312157630920410e+00
3.692145877421655342e-01,-7.745164342339831975e-01,-7.702693279892574019e-01,-6.539172146895174190e-03,-3.954574847248015757e-04,1.892375210389356070e-03,1.141674518585205078e+00
3.656344180371381980e-01,-7.720913334622181434e-01,-7.609933004999206441e-01,-5.083500532403724208e-05,-1.698233786681525859e-03,4.762950970843385888e-03,1.132251381874084473e+00
3.597175838333021569e-01,-7.607585966173875391e-01,-7.612245866714923981e-01,-5.673687235972424067e-03,5.465141685466134124e-03,-1.306749602905315361e-03,1.120794534683227539e+00
3.704681642930716667e-01,-7.762068338607497342e-01,-7.776511120058100524e-01,1.093963465726724643e-04,4.146730683684448629e-04,-1.162079418116276219e-04,1.147398114204406738e+00
3.652260945636042755e-01,-7.928435337446519959e-01,-7.735474622287186186e-01,1.040725576890400017e-02,-1.170859495219593593e-02,3.170211039364946234e-04,1.148863792419433594e+00
3.737836277757508041e-01,-7.751098305518201448e-01,-7.778369409482654984e-01,-1.640915919461075371e-03,1.267032765017970164e-03,1.989790534138689403e-03,1.150270223617553711e+00
4.352868865659778042e-01,-8.428349457612270834e-01,-5.449107500539925875e-01,-2.506123184772654500e-02,-2.559768505658269536e-02,-1.968065411929840192e-01,1.208974480628967285e+00
3.569074989619144822e-01,-8.808854734484639071e-01,-5.014838107858883287e-01,2.389599515274096891e-02,-5.237768878396449612e-02,-1.364842021503265002e-01,1.127955436706542969e+00
3.267971128000847769e-01,-8.090643119799305616e-01,-5.940099742965269103e-01,3.941194047701975477e-03,1.052795518442193635e-02,-4.488968223330466745e-02,1.048132658004760742e+00
3.509028611686398347e-01,-8.061348821273981446e-01,-6.696712311162883458e-01,4.271177779688753451e-02,-4.260492188854479723e-02,-9.409428132773724196e-02,1.112180113792419434e+00
3.639762758825661471e-01,-8.433332525154095816e-01,-6.336197531134240002e-01,1.161958912629124444e-02,-2.181499534249886976e-02,-4.507887939126067195e-02,1.120854973793029785e+00
5.346177546665324964e-01,-7.080638715373235303e-01,-7.168864994930589374e-01,1.019211210691091385e-01,1.017703870011633510e-01,-5.099790717962187081e-01,1.548473596572875977e+00
3.881099655452053820e-01,-9.479252311318770996e-01,-3.593181599208479793e-01,-3.060762378005180834e-02,4.588492697437711321e-02,-2.955883387776199744e-01,1.271335005760192871e+00
3.500685670741238709e-01,-7.894453457506545035e-01,-7.761015879641943727e-01,-1.326671048540492039e-02,1.977391439138091126e-03,-4.078822847509456020e-03,1.133161187171936035e+00
3.618635138374407534e-01,-7.936488125101256452e-01,-7.593139206445007616e-01,2.679553790085108331e-03,7.475043615579588831e-03,-4.128667705326145073e-04,1.138816475868225098e+00
3.236116420106521230e-01,-7.836426741573320198e-01,-7.440381805343803112e-01,4.798256382446200452e-03,7.402825725787507815e-04,-4.935220243530640894e-04,1.088025689125061035e+00
2.394927940507278197e-01,-7.606608420621325806e-01,-7.595023486281966552e-01,1.699889155493312237e-02,2.061655220441393349e-02,-2.210710230897594726e-03,1.000653147697448730e+00
3.000949111837280525e-01,-7.593565675725181263e-01,-7.790076030555002085e-01,8.769317115363880338e-03,-3.652428458146694725e-03,7.551635257940714696e-04,1.069539785385131836e+00
2.745494645577953308e-01,-7.707051288082420459e-01,-7.687532983994430635e-01,8.222454412485797823e-03,1.664844717776100408e-02,-5.622088176292169143e-03,1.044820547103881836e+00
3.633935231399342269e-01,-7.738498340201301895e-01,-7.906097412291985815e-01,-7.731304028202851987e-03,-9.176687925144823808e-04,-1.894719168696079896e-03,1.145799279212951660e+00
3.545737964517247098e-01,-7.768823724349551707e-01,-7.865663885004396949e-01,-2.322347226942464600e-03,-1.387023358872053634e-03,-1.479442858030318754e-03,1.136341691017150879e+00
3.770726650669441460e-01,-7.540950468274700835e-01,-8.240389369515168649e-01,7.197349060159645082e-03,5.065444172016907338e-03,-2.420626160208206017e-03,1.167818784713745117e+00
3.543027910792435620e-01,-7.112568677195045819e-01,-8.158903316347361212e-01,-1.437040354118734528e-02,3.089760828108581263e-03,-3.173899414264933980e-03,1.121845364570617676e+00
3.068059162732477141e-01,-6.538055544242653561e-01,-7.450775951023489441e-01,2.081259765010581863e-04,7.038707627705215880e-03,3.073392481978579061e-02,1.010823607444763184e+00
3.259808096528760135e-01,-6.327092963340381626e-01,-8.027239117968190119e-01,4.657060351041327276e-03,9.201133118789856652e-03,9.593598749450116259e-02,1.067198753356933594e+00
3.040742283501458032e-01,-5.901247451303226477e-01,-7.871545313209484807e-01,5.356406705359780755e-04,-2.117801934743258809e-03,4.508542756607111096e-02,1.010301351547241211e+00
3.095241029182130288e-01,-6.071433161998431860e-01,-7.829123670288926640e-01,5.467935545514072439e-03,2.074624623887638773e-03,5.442778882107361660e-02,1.020433902740478516e+00
1.596469850589599115e-02,-6.970055211798745765e-01,-7.170665282310187960e-01,-5.037331596104656362e-02,1.125809191175876703e-02,-2.000609646388720048e-02,7.295377254486083984e-01
2.035869267313283881e-01,-7.582258761908065026e-01,-7.516612556683806012e-01,-3.697206223714599033e-02,1.108896161699379247e-02,8.079786827809707543e-04,9.608770608901977539e-01
3.422012516183136621e-01,-7.409388724708237950e-01,-8.578063346050051052e-01,-2.956590545883187870e-02,3.207505140339207694e-02,-1.059976717298206222e-01,1.163120746612548828e+00
1.518741667005013563e-02,-3.946121485777607241e-01,-9.181857985697163826e-01,-1.165335557297654707e-02,-3.320632304260980744e-02,1.165200394738187019e-02,8.128640651702880859e-01
3.404685871092563709e-01,-4.729020724703705270e-01,-1.097144828779460735e+00,8.205459206228114897e-04,-2.569796989077979474e-02,-2.708001946710088537e-01,1.334530949592590332e+00
4.987786589255022718e-01,-3.696325379000837685e-01,-1.093213842697228433e+00,-8.549706683428786452e-03,1.149304593206861361e-02,-1.113287722459301021e-01,1.394228100776672363e+00
3.533114793784138397e-01,-7.631369379121009100e-01,-7.902273014846945554e-01,5.519172444822826283e-03,-1.223310386625802403e-02,-1.700633744448782833e-02,1.130859851837158203e+00
1.536661923740338387e-01,-4.481835023839906285e-01,-1.001033368474797847e+00,-8.752818050685522155e-02,-5.341607956256421569e-02,-2.354477346839613794e-01,1.094736933708190918e+00
3.444593990165194519e-01,-7.582524401353604171e-01,-8.066619691437426631e-01,-9.033650560751033121e-03,2.120154914182629385e-02,1.361599860855386770e-02,1.128648877143859863e+00
5.406445894518357997e-02,-6.518874084578908379e-01,-7.860374074822267243e-01,-1.655370113554297806e-01,-5.068571783610582165e-02,2.026273951690873154e-01,9.078303575515747070e-01
5.092269792603010270e-02,-7.821659943913080726e-01,-7.291055146182250368e-01,5.273739317127093540e-02,4.962663434465638262e-02,-6.736023101303148866e-03,8.176285028457641602e-01
7.923926720967650050e-02,-7.261128582922449226e-01,-7.157978353327261178e-01,1.078825948176008985e-02,-3.393638663577228792e-03,-7.555305788178385195e-04,8.004852533340454102e-01
1.074387745509444714e-01,-7.345504300325736979e-01,-7.216002107070560445e-01,-1.230658761239487517e-02,5.806052885109756756e-02,3.092243907103407307e-03,8.419060111045837402e-01
1.269205305100583048e-01,-7.173093826621137481e-01,-7.572828382263030456e-01,3.380375424173761439e-02,-2.820946115351977493e-03,-7.285741085307300378e-03,8.669947981834411621e-01
1.376433946762157245e-01,-7.395393076379432884e-01,-7.409873612122664932e-01,4.135943736494248485e-02,1.972468988150580249e-02,-4.972205679975375860e-03,8.815299272537231445e-01
2.020663391888152249e-01,-7.479128404381174544e-01,-7.548107711038873902e-01,-9.800018798358395636e-03,1.318951469110109069e-02,-5.517663017602002229e-03,9.539194107055664062e-01
2.691390661030924614e-01,-7.864274267892024106e-01,-7.732098919453743724e-01,-1.443953890719607176e-02,-8.858387532901849069e-04,1.138879895223778894e-02,1.049504756927490234e+00
2.340425494975428289e-01,-7.554328188913967956e-01,-8.021631890749441052e-01,-1.482357287925243489e-02,3.338990821254079339e-02,-3.437000546798082978e-02,1.017364978790283203e+00
2.731514408380729120e-01,-7.684283472360586842e-01,-7.652083216793883480e-01,-1.958985779151500850e-02,-8.468043024278972680e-03,4.224419648754957832e-03,1.040655970573425293e+00
1.420600995696146285e-01,-7.429660171092118404e-01,-7.381962850195012971e-01,-1.176882963641780362e-02,3.557625721110197620e-02,-1.155039278595304552e-04,8.850340247154235840e-01
1.545934542264203460e-01,-7.429779903659350371e-01,-7.420526215854702512e-01,-3.999324548071424290e-02,4.946040486658765528e-02,-2.622274310376315537e-05,9.038485288619995117e-01
1.752871093510248723e-01,-7.634347717455476356e-01,-7.594317169745486984e-01,-3.044195105184535621e-02,4.258713215768562127e-02,-1.621195302743767743e-03,9.411089420318603516e-01
2.076969706790686154e-01,-7.629209439787998370e-01,-7.590849317167771559e-01,-7.556160116781311664e-02,2.712550358065138334e-02,-3.957028937406521091e-02,9.810321331024169922e-01
4.469217629868337260e-01,-7.007876132909462985e-01,-8.812863184667337757e-01,1.004715171337499345e-02,4.168814140445931821e-02,1.465797895671409612e-01,1.275519490242004395e+00
4.728409580594991612e-01,-5.050380662725857395e-01,-9.142182452252012315e-01,-3.649430416302924807e-03,1.830015416551134325e-02,4.673267048937040369e-01,1.476493120193481445e+00
3.413795715183790547e-01,-2.983257206890813640e-01,-9.843279776156245164e-01,1.958140218652858894e-02,7.879644652140525493e-03,2.058344210277210928e-01,1.202955245971679688e+00
3.110454039662620129e-01,-5.804974673476493985e-01,-8.020661057982279019e-01,2.723402457292041154e-02,6.285754582241892888e-03,5.623184718858521836e-02,1.026308417320251465e+00
2.942628140424138339e-01,-5.190582827669132371e-01,-7.763227614348404693e-01,-2.783117154478831692e-02,-2.094899712744981851e-02,1.801312153451530007e-01,1.018772244453430176e+00
6.132541007418691459e-01,-3.976190715126491360e-01,-1.065017926066131881e+00,1.607328631329221075e-02,5.024234626341714249e-02,2.534701581717268004e-01,1.530696153640747070e+00
3.493749611051764625e-01,-6.062800027018071525e-01,-8.098345567123645949e-01,2.923130036808996648e-02,2.028155803570919069e-02,1.037080305432913629e-01,1.088715910911560059e+00
3.397000615704128257e-01,-1.207304816904829936e+00,-2.768741106595936086e-01,-2.431871943177254733e-02,2.744088586631363708e-02,-3.962824048186257969e-02,1.352142333984375000e+00
3.280781552468025053e-01,-8.093325718924005985e-01,-7.409105119537716666e-01,2.071688601138619700e-03,-8.261026903556534587e-03,5.497463618042514044e-03,1.104929447174072266e+00
2.861291223681896589e-01,-8.289786372094875011e-01,-5.956225568666593251e-01,-4.194074829222798478e-02,5.133036196239055063e-03,-1.530427278653763712e-01,1.055142402648925781e+00
3.159694080676089256e-01,-9.696013919787103141e-01,-4.477677287889464952e-01,7.517995369360792879e-02,-7.055104428223692159e-02,-1.684062647958673442e-01,1.170947909355163574e+00
4.472766009640825602e-01,-1.030423359702105968e+00,-5.278193933383276137e-01,1.399912199982599192e-01,-2.192199736085792203e-02,-2.293057487490109680e-01,1.382565617561340332e+00
3.602111112419994488e-01,-7.728375546047313582e-01,-7.935112224604768949e-01,-4.311026840272062788e-03,1.298374767091122753e-03,2.488483329934371049e-04,1.143552303314208984e+00
3.586804283001535087e-01,-7.720495806880440792e-01,-7.897198119943055206e-01,2.660622387152635979e-03,-2.553071389550274923e-03,1.187509991886624271e-03,1.139687657356262207e+00
3.719789556024024058e-01,-7.547459990356295556e-01,-8.109390982191020392e-01,-3.287818910204079285e-03,-8.394114761440916658e-03,-5.912450966943030503e-03,1.155997276306152344e+00
3.526018534597903931e-01,-7.829007053209542377e-01,-7.876693599367401433e-01,2.024070923855809771e-03,7.058129719084358690e-03,3.660650424379255797e-03,1.137983083724975586e+00
2.872352967058417472e-01,-7.609981804991101662e-01,-7.702640292399914879e-01,-1.477473821199117889e-02,-2.526136424347282146e-03,1.343415044942838660e-03,1.053219556808471680e+00
2.886943106532441350e-01,-7.659596298040383111e-01,-7.678343742187719867e-01,-1.804892240633278189e-02,2.664275015000634218e-03,-2.664241041452815057e-03,1.056075572967529297e+00
3.608240670672488437e-01,-7.736705996651970230e-01,-7.889058465556525457e-01,-4.613953095334088345e-03,-3.014243347884165269e-03,8.752190014803115301e-04,1.142229437828063965e+00
3.673937537975092149e-01,-7.719374375586003367e-01,-7.841911599391684362e-01,4.987748213338969935e-03,-5.831926916896179071e-03,-1.482530074789369275e-03,1.145587205886840820e+00
3.423896005411076193e-01,-7.736309294769377898e-01,-7.838465576514563882e-01,-1.196266277638056985e-02,-1.322871367553065444e-03,1.912158365453601582e-03,1.121361970901489258e+00
3.419074282673786880e-01,-6.171576880310499780e-01,-8.455105084277895200e-01,9.142751013539590632e-03,2.466110280357428769e-03,-1.739166495333690013e-02,1.091848254203796387e+00
3.536831473509106649e-01,-7.453067587171952058e-01,-7.660445469256705886e-01,-8.088282380328619750e-03,8.206034943067512175e-03,-7.652429617917541442e-03,1.109762787818908691e+00
3.532684088655232979e-01,-6.358715999568584909e-01,-8.665551148619939914e-01,-2.602134236341820984e-03,8.455415531920449507e-03,-1.573532067588645847e-02,1.122839570045471191e+00
3.585365033994087347e-01,-7.002973912454092398e-01,-8.193818299626675072e-01,1.025665705519510605e-02,5.319331982925663664e-03,-7.887958456023240472e-03,1.123382449150085449e+00
3.516597588429949961e-01,-5.276885095432528594e-01,-8.551775941386940971e-01,2.725972841378821766e-03,1.919589132800585476e-02,-1.448028876749855587e-01,1.110185027122497559e+00
4.429572387076690654e-01,-6.757630405948324981e-01,-9.801764433112816199e-01,-2.938251090211262823e-02,-2.970803532641976691e-03,-9.629876883475607663e-02,1.309653759002685547e+00
3.579111488358025506e-01,-7.225299516907279784e-01,-7.917493216762159225e-01,5.233110455607838801e-03,1.262893132454550107e-02,-8.519576165748651841e-03,1.117009401321411133e+00
4.492670034760658515e-01,-1.881284625807153610e-01,-1.288017907624444680e+00,4.046919632227312380e-02,-5.474307178461446446e-03,-4.212253991769352585e-02,1.525588512420654297e+00
4.570343275608154676e-01,-5.759937794301837055e-01,-9.021808071906298743e-01,-4.126624959891995320e-02,3.616377638481615975e-02,-2.107341079076147095e-01,1.285598754882812500e+00
3.740904689602496669e-01,-7.769148200414106586e-01,-7.774310656213029302e-01,-6.802991711637519949e-04,-9.358041533803888967e-08,7.092080061951479275e-04,1.151264786720275879e+00
3.741386662357984449e-01,-7.784877187986176672e-01,-7.759905759443890272e-01,-1.063422278218928405e-07,-6.867917362644504128e-04,7.984806222080566285e-04,1.151381254196166992e+00
3.712664166554140999e-01,-7.769164907418513177e-01,-7.727432066842003788e-01,-3.046489530325492277e-04,1.826504410773588383e-03,-4.576809261292224878e-04,1.146106719970703125e+00
3.717915535468448440e-01,-7.770009986164337912e-01,-7.748166051445285474e-01,4.884977139494853151e-04,-8.041699269358953137e-04,-2.443626995021663979e-04,1.147703170776367188e+00
3.714550522497492846e-01,-7.760720737225722532e-01,-7.777873656912545064e-01,-1.753824232653788777e-04,1.690935708661698081e-03,1.817824975376905331e-04,1.148389577865600586e+00
3.723248587688086086e-01,-7.777757675110150704e-01,-7.767682193911272792e-01,2.501733682990319157e-03,5.528937422276563804e-03,-7.585130233079759310e-04,1.149646043777465820e+00
3.711819133913573654e-01,-7.845019593319126905e-01,-7.746669023479437755e-01,-1.540222897212382026e-03,1.909476823667184599e-03,-1.228632314443184282e-03,1.150807619094848633e+00
1.495847200462847026e-01,-7.591138822496763527e-01,-6.938134679792431481e-01,1.150233623140706381e-02,3.424518223458841021e-02,-9.199130287688108061e-05,8.800988793373107910e-01
3.592698507292843568e-01,-7.856301486003578471e-01,-7.647390118174217655e-01,-5.691927964065221588e-04,-5.993552851363904803e-03,5.390501067361910120e-03,1.134685039520263672e+00
3.566810873690091643e-01,-7.942486097754164476e-01,-7.283613248940772333e-01,-1.235730879628278538e-02,-9.589990403310669209e-03,1.121478006595832272e-02,1.119937539100646973e+00
3.574693987498721581e-01,-7.854780972441990361e-01,-7.388803683961773228e-01,-1.403229279733306419e-02,-9.211448845169162639e-03,5.270558811010092257e-03,1.120790004730224609e+00
3.568155779802498762e-01,-7.709294037284333267e-01,-7.423066345696900381e-01,-6.167987930362031114e-03,-4.299807070015822241e-03,1.050056385080082311e-02,1.113934159278869629e+00
3.223179839676875158e-01,-7.383159404267976011e-01,-6.874293096643723233e-01,-1.548985177871663003e-02,-7.784338158429895960e-03,7.465747866395880394e-02,1.044597744941711426e+00
3.628029343062779688e-01,-7.855869565452284764e-01,-7.729918523603853675e-01,-8.955304552103156897e-04,1.684805381173861945e-03,-1.253963578474423610e-03,1.142151236534118652e+00
2.563320689950646103e-01,-7.608849908216195335e-01,-7.658993347788913830e-01,-1.175449456171774945e-02,-1.159706991961538362e-02,-1.526177890598428861e-03,1.020137906074523926e+00
1.765969254397308785e-01,-7.812550801187286842e-01,-8.010435146500329839e-01,-2.094446471223002440e-02,-3.226640476660268958e-02,5.558359092857942385e-03,9.702363014221191406e-01
2.269973310537654609e-01,-7.538810666531662319e-01,-7.910194865734108127e-01,-2.428770192214637887e-04,5.111355792734291990e-03,-4.742622040381036671e-04,1.000004649162292480e+00
3.653872647253999517e-01,-6.858149220644330635e-01,-8.317340100344452480e-01,-1.230478590589043726e-03,-2.470850373441758115e-03,9.124263875302950424e-03,1.131362676620483398e+00
2.201279714030879853e-01,-7.617370504865825787e-01,-7.310613580043516802e-01,2.630120568670613751e-02,-7.994273489706896219e-02,-7.292602363902218714e-03,9.778997302055358887e-01
2.966478757575704561e-01,-7.664364492618020996e-01,-7.713173037422353939e-01,-1.555336324557609305e-02,2.693572314328002842e-03,1.710610417183289645e-03,1.065887928009033203e+00
3.446160579287829151e-01,-7.949894733640314737e-01,-7.487487897790295888e-01,8.007341332423470112e-03,-1.543451897534206399e-03,-8.151538446895372977e-03,1.117381572723388672e+00
5.201689373889328838e-01,-6.725051332537566040e-01,-6.879909642575847695e-01,1.001809253494734958e-01,-3.741734228351790981e-02,-4.183249320654423564e-01,1.414382100105285645e+00
3.803510132580298353e-01,-4.374498598394943594e-01,-8.270400843079488418e-01,-7.275328941750389133e-02,1.485931157553831324e-02,-3.714914793029939211e-01,1.252894759178161621e+00
2.972227186024100631e-01,-8.691886156422163889e-01,-7.116138647827385810e-01,1.977469511405217581e-02,-2.848510491914151010e-02,-1.827211919875411719e-02,1.098251819610595703e+00
1.007856157323309687e-01,-9.139498852191572098e-01,-4.776528277160769220e-01,-2.960687304616543142e-02,-7.183619961302897816e-02,-2.191248567180931889e-02,8.926749825477600098e-01
3.874666074898878154e-01,-9.438031255912441297e-01,-5.192598345076364641e-01,-1.580458851886580585e-02,5.785805315910941271e-02,-1.062852955161494722e-01,1.196668744087219238e+00
9.150029720979041548e-02,-8.274779500893006956e-01,-5.251161425609298661e-01,-5.742384614316759645e-02,-1.419106019694931116e-02,-1.629037411418010894e-01,8.649793863296508789e-01
2.194541851857454984e-01,-8.063802238164183844e-01,-7.946610733284152905e-01,-6.369219088013640395e-02,-3.033268141102318100e-02,1.702812998797199190e-02,1.027741074562072754e+00
2.287467211718592908e-01,-7.949746126612615704e-01,-7.944434838288902956e-01,1.236798542644517059e-02,-3.354173358618508377e-02,1.886401769654380816e-03,1.025332450866699219e+00
1.220193008873581841e-01,-7.326083855390226329e-01,-7.374826527742237570e-01,4.651258086180620928e-03,1.844608755725564084e-02,-3.367371909102778813e-03,8.577281832695007324e-01
1.085547320966248064e-01,-7.445860315346884972e-01,-7.269004958589633247e-01,3.034411651470956400e-02,4.012523641038424210e-02,5.962245353042189798e-03,8.489833474159240723e-01
2.163600724983855694e-01,-7.258187289799740149e-01,-7.918407840795875785e-01,4.637192087735075158e-02,-1.635697417430024420e-02,3.394907463619383642e-02,9.823317527770996094e-01
-5.224894704701621428e-02,-5.937444614843760959e-01,-7.289487150933526838e-01,-4.017904245896465609e-02,-4.800325087218419717e-02,1.648231490079655748e-01,6.913509368896484375e-01
-4.177600177745288690e-02,-7.774966621205245954e-01,-9.445587065802250049e-01,-2.902097735992723720e-02,-1.048000131371742000e-01,-1.373904072560416245e-01,8.855561614036560059e-01
6.773200686628755296e-02,-9.858648484688881108e-01,-6.828579889332477837e-01,-5.870791548150403050e-02,-4.714131926322752408e-02,1.678995152048940454e-01,9.920735359191894531e-01
3.167998494582773272e-01,-8.613747942248554113e-01,-4.864054170728083770e-01,-4.954238666129422153e-03,-1.971845482168968836e-02,1.256572197043015482e-01,1.065611243247985840e+00
4.730716875845762392e-01,-9.899640002855856213e-01,-5.440424127376068952e-01,-2.886417186469932006e-02,-7.306600757742462426e-02,1.919521358116461629e-01,1.347580194473266602e+00
3.290179851774236441e-01,-8.426712065972953303e-01,-5.717150952749617820e-01,1.149206576906062517e-02,1.451635766047989703e-02,2.194583250203628599e-02,1.063611626625061035e+00
3.229708608818455673e-01,-8.152919664521123266e-01,-6.127887400664887574e-01,-2.193715285618863791e-03,1.246596883143742587e-03,3.770438881316452717e-02,1.053770303726196289e+00
3.161043737368185447e-01,-8.006278602628440488e-01,-6.075568105143027697e-01,2.708914326834637679e-03,-4.703576365551374004e-03,4.127207388386894271e-02,1.036319017410278320e+00
3.684610936061623043e-01,-7.861339689353287197e-01,-7.762261229804376939e-01,7.474162541891917096e-04,-2.597127289688674814e-03,-2.658428602833501006e-03,1.149691939353942871e+00
3.711884139189858822e-01,-7.851198693983627575e-01,-7.755162595577997919e-01,4.511881986085282577e-03,-2.159992479427037468e-03,-6.161892147755020218e-04,1.151569604873657227e+00
3.680237235746772195e-01,-7.842788449820059515e-01,-7.769202100437069269e-01,4.502094781983775364e-03,2.813172791029969894e-03,-1.830845429036021986e-03,1.148682117462158203e+00
3.036920512910323833e-01,-7.761599197126394234e-01,-7.720705109536157851e-01,-5.737572190414634392e-03,-2.051286323347266058e-02,-2.973211491410472987e-03,1.078456640243530273e+00
3.598926099497020692e-01,-7.764569270434488191e-01,-7.684247122959821930e-01,7.504624392168618430e-03,5.894813888584987324e-03,8.070155038377891006e-04,1.132476329803466797e+00
3.529316641916533381e-01,-7.830819369061833291e-01,-7.710028061216825934e-01,1.332508476841307151e-03,-6.662543988756864516e-03,-2.472838185106491973e-03,1.130091905593872070e+00
3.436742186239032382e-01,-7.788841507731188996e-01,-7.761249066787295758e-01,5.996046354648705903e-03,-1.147088988791997860e-02,-3.458059025398398101e-03,1.121421456336975098e+00
3.449520516445617191e-01,-7.718401033167913150e-01,-7.858503253507462816e-01,8.165844928120429697e-03,7.519406425260409315e-04,-7.517006700487403447e-04,1.123953223228454590e+00
3.400415816809077563e-01,-7.757557095487888077e-01,-7.847005632876054015e-01,-5.390634013072847543e-03,3.312716304818476721e-03,-3.076065064442329734e-03,1.120362758636474609e+00
2.965046083383846565e-01,-4.108189082410952930e-01,-9.410026690817157036e-01,-1.277381848872595205e-01,3.407293837972941858e-02,-1.427470160454830106e-01,1.126932501792907715e+00
3.556994561573719738e-01,-7.703874765566631755e-01,-7.831791483437862134e-01,3.556133478574960427e-03,2.995759139019415519e-03,4.476158361663816346e-04,1.132565855979919434e+00
3.591567384827253906e-01,-7.558224800513798636e-01,-7.715029972783611356e-01,-1.384923021047108731e-02,-1.414481291040462115e-02,1.495725432431220352e-02,1.123723626136779785e+00
3.571452393922407986e-01,-7.753787816739219352e-01,-7.882098977095097769e-01,-2.671185767303678460e-03,1.904227689694602951e-03,-1.102436266404623879e-03,1.139009594917297363e+00
3.592581053086449927e-01,-7.547323560676241216e-01,-7.983411653499146166e-01,-1.263804247012688571e-02,-5.328288192094099776e-03,1.088848263939170072e-02,1.136827230453491211e+00
2.390134199170323437e-01,-7.660505267521535711e-01,-7.608513331989853468e-01,4.439726364932165825e-02,1.334084267529304403e-02,-3.901366666088740883e-03,1.005707740783691406e+00
3.421137085014779311e-01,-6.974653680217708374e-01,-8.233173332411035661e-01,-1.336773074407959436e-02,-2.269570443661354017e-03,4.616191314932230338e-02,1.111008882522583008e+00
3.531068279100654239e-01,-7.176792259228297333e-01,-8.131477467345078480e-01,-1.082737062984134510e-02,-6.461976356580087857e-03,3.767584799827109528e-03,1.121803402900695801e+00
3.476635479083488578e-01,-7.205332307850813578e-01,-7.983421043730130062e-01,-1.288665576781491094e-02,-3.920888670753182141e-03,4.351435294394202444e-03,1.109421014785766602e+00
2.790836845978468816e-01,-7.627533105708765859e-01,-7.710150097417061144e-01,1.246602534888499071e-02,-1.074127528172301275e-02,-1.349964096729823525e-03,1.046383142471313477e+00
3.560267234089340427e-01,-7.153888692873694444e-01,-8.160494342986193139e-01,-1.245422397306445404e-02,5.837556526610720130e-03,-3.334206464127898589e-03,1.125395059585571289e+00
2.630205992317801722e-01,-7.590756255135538977e-01,-7.883534659643938181e-01,-8.451204037038773445e-03,-4.672822616618638181e-02,2.742381552334174281e-04,1.040301799774169922e+00
3.473410447819004765e-01,-6.584604913649489966e-01,-8.210037090068706966e-01,-2.373856965512458062e-02,1.175111181289579913e-02,-1.127766266965193540e-02,1.097282886505126953e+00
4.417797325700572042e-01,-4.711838278641698463e-01,-1.023656956949898333e+00,-6.285487717323635926e-02,-1.283981377053736161e-02,-7.837368596863372033e-03,1.286719799041748047e+00
3.641637400570814642e-01,-7.875510131255301083e-01,-7.672128561290560977e-01,6.218095483395988908e-03,4.043580737400007986e-03,-5.230215453451509061e-04,1.141754150390625000e+00
4.907036387417205714e-01,-2.623140680239514078e-01,-1.268393879735339791e+00,-9.627175105072513506e-02,-7.800215169133398185e-02,2.047663586569985761e-01,1.583879351615905762e+00
3.710678819857157196e-01,-7.927507206942918661e-01,-7.616373924952450913e-01,8.467072929231218847e-03,1.916378652692685754e-03,1.046389401162012983e-02,1.148819446563720703e+00
3.684042781023709190e-01,-7.868199948438293623e-01,-7.786839993893925893e-01,6.520371301090860210e-03,-3.320927444215022290e-04,-1.163886765972887375e-03,1.151235103607177734e+00
7.242533979708587477e-02,-3.001199111126151564e-01,-9.722055950187173945e-01,4.002671090584473262e-03,-4.218924491163943136e-02,7.457457051116112663e-04,9.199244379997253418e-01
3.557941633885784993e-01,-7.184487134084943660e-01,-7.936177665439825279e-01,6.332934279093174051e-03,-1.051800815439529399e-02,8.511785159092542102e-03,1.114032149314880371e+00
3.140358000326129440e-01,-7.144987038402138557e-01,-7.163863799463545678e-01,-2.780764360571287585e-04,-1.846067360140515997e-03,2.396508436614026502e-03,1.029493093490600586e+00
3.444740247506418163e-01,-5.886542920418093017e-01,-8.750196395568047292e-01,9.983859279088931962e-03,-2.396353736691130346e-03,-1.349288220867083873e-02,1.104903459548950195e+00
3.355315789210965294e-01,-5.477956614351554565e-01,-8.756217317645361709e-01,-2.576665300355763383e-02,-9.769810615822941552e-03,1.021197440341748905e-02,1.086234569549560547e+00
3.896138229596565750e-01,-7.102005483659890039e-01,-8.030406078900897970e-01,-8.891868577858726141e-02,-7.273289988249267979e-02,1.974332855700282330e-01,1.215256094932556152e+00
3.687093219243093301e-01,-7.024173773345949723e-01,-8.317415635733071966e-01,7.517624086556909738e-03,-6.305011295328804069e-03,1.616522389809625562e-03,1.141427397727966309e+00
2.091829735881132746e-01,-7.552541489606788838e-01,-7.561643536996327519e-01,3.193413985296858840e-03,-4.346009428508366447e-03,-4.450742730777453894e-03,9.649685621261596680e-01
2.605061800124882088e-01,-7.852299257145141098e-01,-8.906371214252033486e-01,-3.807123449517566764e-03,3.244927203257469417e-02,3.915843265295569815e-03,1.103698849678039551e+00
2.932638258430514400e-01,-7.995524619005822675e-01,-8.755202769208527691e-01,7.660723233834405323e-03,2.395953598873399801e-02,1.629137619479548854e-02,1.133901119232177734e+00
1.709419167298021902e-01,-7.492811104455079363e-01,-8.395751759741341136e-01,6.276144433647828924e-02,4.203372367332296883e-02,-2.380743018793271895e-02,9.781983494758605957e-01
1.755921660429715647e-01,-8.706972666232390967e-01,-1.086629898121461046e+00,-2.316158786585886808e-01,3.617667964674364106e-02,-1.445823569532171116e-01,1.262874722480773926e+00
6.801062962011628077e-02,-6.071352591611137717e-01,-1.068986498657380046e+00,8.444210326349819138e-05,5.784473862613869616e-02,1.291922795342983002e-02,9.957330226898193359e-01
3.425238791629671709e-01,-5.495594618579155988e-01,-9.307473626774094289e-01,-6.976335714325668236e-02,2.940382739437203807e-03,3.741090033128391390e-02,1.140172719955444336e+00
1.014306529610868868e-01,-6.837115047205434282e-01,-9.486547512591574360e-01,-8.848670537191583030e-02,1.385100250862037474e-01,6.746886426831090466e-02,9.946668744087219238e-01
3.702131274199640387e-01,-7.738457245898782144e-01,-7.722199760433550164e-01,2.807978873911130564e-03,-2.924984327601660907e-03,-7.084467445516227750e-04,1.143269062042236328e+00
3.690145419876982302e-01,-7.709228161814428715e-01,-7.779787207180761666e-01,3.934404459875326041e-03,-3.429387196019578060e-03,-1.096336823810107209e-03,1.143518924713134766e+00
3.254753501616799438e-01,-7.312524953572935305e-01,-6.881278034929153575e-01,1.218578498239035121e-02,-4.177971493124614868e-03,-6.599888261995438821e-02,1.042366504669189453e+00
3.687449829993917905e-01,-7.786404694806630111e-01,-7.817590776006821951e-01,-2.184946602300939268e-03,1.003653738613180567e-03,2.160183023288762393e-03,1.148961544036865234e+00
3.200654750479989263e-01,-6.102959475379345911e-01,-8.045181509056691382e-01,2.651528880496071064e-02,-1.781342469439066434e-02,-3.548924478425118795e-02,1.044428586959838867e+00
3.698784082518849492e-01,-7.718647418943286320e-01,-7.721588875696330234e-01,2.075686908891850001e-03,-8.092325547336333847e-04,-1.307557259309974525e-03,1.141898989677429199e+00
3.707783471676152631e-01,-7.740584077599411694e-01,-7.774342030742147358e-01,3.227129364398227326e-03,-4.785749507693731405e-03,-3.058299231853459609e-03,1.146584153175354004e+00
3.388638036500146167e-01,-6.717033256435709365e-01,-8.012435865066389606e-01,-1.511858346897328696e-02,9.183145350247773689e-03,-3.209667702119012311e-02,1.083035111427307129e+00
3.133986531880809667e-01,-6.642356298711971085e-01,-7.539464831588016391e-01,1.743414419795691252e-03,2.026772103968972356e-03,-2.481819640905232743e-02,1.026348114013671875e+00
3.689216474816702784e-01,-7.056313552147891466e-01,-8.319579314206679843e-01,-1.437714714225152984e-02,-9.052305129958136340e-03,-7.970094034195790780e-03,1.143426299095153809e+00
3.409423691255057953e-01,-7.422646981658980181e-01,-7.405396077206229943e-01,2.193166783642807802e-02,-9.160327551690088804e-03,-8.823885140163634233e-02,1.093857765197753906e+00
3.224971349383811137e-01,-5.278686130905179130e-01,-8.634306934391609012e-01,1.458723177223185050e-02,-1.355364107936994807e-02,-3.847029213246948298e-02,1.061462998390197754e+00
3.187054870811097951e-01,-6.389828640422816619e-01,-7.823563098413730543e-01,-3.789616408253134415e-03,1.014048869796112425e-02,-2.247918884466972023e-02,1.037736773490905762e+00
3.358251220589231756e-01,-6.769529043566533399e-01,-7.850648153773461813e-01,-1.611581566997675324e-02,1.401637586776279670e-02,-3.265695796401845569e-02,1.073065161705017090e+00
3.353422447728812705e-01,-6.873733223668739845e-01,-7.825710723462520058e-01,4.363911431942580493e-03,1.243902092067557946e-02,-1.481666268031135714e-02,1.074034452438354492e+00
3.332119934837660669e-01,-7.273894424948171844e-01,-6.797079416268800856e-01,-1.542268550612477251e-02,1.415760851452766561e-02,-8.947454613411431890e-02,1.049718976020812988e+00
3.135973480346058162e-01,-5.928788511106870551e-01,-8.112876871273373425e-01,2.463396963825519471e-03,1.004558372213930698e-02,-4.752180448338444441e-02,1.036571145057678223e+00
4.172450396495380187e-01,-7.926224692537644501e-01,-8.596839763112471555e-01,-1.588020250612676501e-02,3.454887423225004583e-02,-1.361370222797008700e-01,1.268601417541503906e+00
4.381732804034270123e-01,-6.396867091029209140e-01,-9.441852392230065671e-01,-3.176299839027829641e-02,2.271232560836774356e-02,-1.705374638222198203e-01,1.294036984443664551e+00
3.418121103199077138e-01,-6.456549627625043364e-01,-7.965723587122923721e-01,-4.147356045575329581e-03,3.104341208779777365e-03,-5.369602154477274430e-02,1.074999332427978516e+00
3.614060075271492423e-01,-7.486972874976768333e-01,-7.842632682401941002e-01,-9.950011862781001082e-03,1.024589678901563668e-02,-9.211710425897043017e-03,1.128690719604492188e+00
3.891216681630949026e-01,-6.436652534407425463e-01,-8.627358962513247409e-01,-4.295818079975999987e-02,3.528477456816557500e-02,-4.356065160860442959e-02,1.164413094520568848e+00
3.657692110216209103e-01,-7.894561564624709149e-01,-7.545197337195301834e-01,-9.859322273507909254e-03,5.092613485095915001e-03,-1.515539110012736196e-02,1.138624310493469238e+00
2.892255786135614071e-01,-7.476845953670412381e-01,-8.009261570913915884e-01,-1.897697871329246180e-02,-1.461948320975689497e-02,8.764512178699264064e-03,1.065446376800537109e+00
1.885922268915295463e-01,-4.903086164304619188e-01,-8.344872758195928109e-01,5.994561810421565606e-02,-6.769932356949519281e-02,-2.439882691734402698e-01,1.008042335510253906e+00
3.509878716200736659e-01,-5.894290324008868431e-01,-6.305752371890742669e-01,-1.528706124296813282e-02,2.555717405276337201e-02,-4.650224256828686675e-01,1.255455970764160156e+00
1.643539654771353220e-01,-7.493937103517395171e-01,-7.474948351014208958e-01,-2.362964517030568395e-02,2.435073190522324751e-02,6.074878471286368140e-03,9.147502183914184570e-01
2.059145440623328382e-01,-7.529960042127554765e-01,-7.512928821381136268e-01,-3.311582577230182123e-02,8.138590811016047089e-03,4.551135451522178577e-03,9.599114656448364258e-01
2.213441679399694162e-01,-7.548998040228196427e-01,-7.526101607865016696e-01,-2.972137320674036326e-02,6.428892758332986970e-03,2.419124996133135269e-04,9.765226840972900391e-01
2.169637449235078952e-01,-7.616101545218105784e-01,-7.615817826334962959e-01,-3.269336511803643680e-02,-6.548060739388595133e-03,-6.803561671266777043e-03,9.803332090377807617e-01
9.284311272694029116e-02,-7.352658797597289020e-01,-7.314492140333823667e-01,6.202463201552607793e-04,6.520196477314734416e-03,-3.530524655060596206e-03,8.263077735900878906e-01
2.374247185899912016e-01,-7.597133703562091167e-01,-7.595513760666223746e-01,-3.173300063974274221e-02,1.893082673574257233e-02,2.519558538271505360e-03,9.991186261177062988e-01
2.448265653329916303e-01,-7.612527008727284494e-01,-7.772342581487252655e-01,-7.054551820518237260e-02,1.819028458627580322e-02,-2.499661392244000024e-02,1.022901177406311035e+00
1.417616476888211019e-01,-7.396449696023608134e-01,-7.339738514845544071e-01,6.005904787336795864e-03,-4.801953830050831318e-03,-2.968573791674411749e-03,8.787007927894592285e-01
-1.140084710823276448e-01,-6.541780418889930893e-01,-7.730829728838994885e-01,-3.916864190753290703e-03,5.612860732590195523e-02,7.527599713773629013e-03,6.162934899330139160e-01
8.962193554426478581e-02,-8.441929363994986613e-01,-8.115823968964668289e-01,1.319284876907426685e-01,1.173694478758959547e-01,-2.478882715418257165e-01,1.058541178703308105e+00
1.300017479815245847e-01,-7.911980170474262053e-01,-7.775789786110295365e-01,-7.088604253937072497e-02,1.157861255981375570e-01,-1.130795075459360005e-02,9.444183707237243652e-01
9.880831638440601417e-02,-9.704525234234122610e-01,-7.267623141441377221e-01,2.836375493683886834e-02,4.450361803635789759e-02,3.138963375068189177e-02,9.764457941055297852e-01
2.155221809187357063e-01,-7.651230810801911142e-01,-7.564923094337848708e-01,6.026421208748389269e-02,4.566131767205890146e-03,-1.185120036739935323e-02,9.821685552597045898e-01
1.064748552479256594e-01,-7.385046088323584668e-01,-7.289407602244135642e-01,8.489385106861431496e-03,7.032882000343957350e-03,1.003990885770683758e-03,8.404570817947387695e-01
2.067714894103053203e-01,-7.563140203276468299e-01,-7.483946825901344191e-01,3.768160624207245873e-02,-9.454625613668778475e-03,-1.775242205810537025e-03,9.615127444267272949e-01
2.400887500364303762e-01,-7.617375056785340437e-01,-7.626601635943495161e-01,3.502445241921693653e-02,-2.359866948399350420e-02,5.498186508805452156e-03,1.004998803138732910e+00
2.957870230770021647e-01,-7.689178541473437045e-01,-7.693734205284921135e-01,-1.086072239566970160e-02,7.713035130160812713e-03,7.711642408155468297e-04,1.065183520317077637e+00
2.816934839635090171e-01,-7.675499777725913741e-01,-7.701438703604432945e-01,-8.815180176480702165e-03,-8.859543917371875618e-03,4.560862937024505459e-03,1.050795555114746094e+00
2.745555082090824217e-01,-7.639377945557631611e-01,-7.707209918978534802e-01,-4.314849746200291603e-03,-5.928597613747865758e-03,4.623774404736784652e-03,1.042009592056274414e+00
2.826532703491212439e-01,-7.730363680378913305e-01,-7.623651037186613966e-01,-6.942653356139178063e-03,-1.046963650179796521e-02,9.159043104872661295e-03,1.050739765167236328e+00
2.865252497551812882e-01,-7.703673001047700586e-01,-7.691025043405994577e-01,8.621750915487457617e-03,9.062084646055837064e-03,1.705295168701825414e-03,1.056486964225769043e+00
3.517893625891007625e-01,-7.879971462040056274e-01,-7.632659205396128410e-01,5.170448841986825111e-03,7.719454187732719720e-03,2.705689613892409834e-03,1.127748847007751465e+00
3.439378290534258475e-01,-7.182328895925145229e-01,-8.000797426517565203e-01,1.458321866038896769e-02,-7.716718579453651743e-03,-5.113671400668590508e-03,1.105773925781250000e+00
3.518059781568902422e-01,-8.139391702642995163e-01,-7.120719509919934964e-01,-3.936708751653078889e-03,1.570596971953285709e-02,-2.859329019076315478e-03,1.118659257888793945e+00
3.007191015197711037e-01,-7.833148198653019367e-01,-7.865757541263662667e-01,-1.046115759057553163e-02,-1.145968080242167411e-02,5.571671923692199380e-03,1.086043477058410645e+00
3.443473069156096078e-01,-7.843560627360659510e-01,-7.727563672058029853e-01,-1.213396534540046824e-03,-7.065633839527643567e-03,7.360682280330405709e-04,1.123017787933349609e+00
3.462909964552046693e-01,-7.852291778803457412e-01,-7.722949295497836264e-01,3.280919553702031904e-03,-4.828038547984212468e-03,1.287646383300731145e-03,1.125156402587890625e+00
3.454617067779473527e-01,-8.012913439451359032e-01,-7.123181346314670925e-01,-6.212480384056529893e-03,1.640184180454890700e-02,1.227874294582457549e-04,1.105373859405517578e+00
3.514558579938819038e-01,-6.453927141357855835e-01,-8.343514110176039056e-01,-3.358947021040032538e-02,1.126010227600215442e-02,-8.159590454274815233e-03,1.105323672294616699e+00
3.653487031518555805e-01,-7.039643371871997513e-01,-8.290959330045952758e-01,1.422647830277559873e-02,1.407503547720098842e-02,-6.821575172574170960e-03,1.137644171714782715e+00
3.665489666004725922e-01,-6.802458473856275445e-01,-9.535788475523552243e-01,-5.433083229258656340e-03,4.771547368054468441e-02,7.712452716163364572e-03,1.209839344024658203e+00
3.797787690294189278e-01,-6.621025030842646597e-01,-8.637130076607028029e-01,-7.004982296203887682e-02,2.258408045046031778e-02,-8.999693765286360947e-02,1.173357129096984863e+00
1.877498598603314917e-01,-6.600136448860294269e-01,-7.900868712142281591e-01,-2.099171729396596660e-04,-1.862326524207427378e-02,3.159531974777228525e-02,9.219158291816711426e-01
3.523248397248588404e-01,-7.122852055519395265e-01,-8.138063238767465624e-01,-1.359474929737885737e-02,1.889976393068142730e-03,-2.944960101002922328e-04,1.119083046913146973e+00
3.564161246979266062e-01,-7.119361570032501918e-01,-8.277567499669087336e-01,-1.329095978034048990e-02,-8.857367828680844102e-03,-5.344447406252975487e-04,1.131058931350708008e+00
2.850362519024383090e-01,-7.606513453110816947e-01,-7.752278959358051003e-01,1.398039281226590505e-02,9.201696867034774366e-03,-1.555679628716344744e-03,1.053453922271728516e+00
3.811941592976565429e-01,-7.083468548046967239e-01,-8.135631833584774375e-01,-4.269772707096951975e-02,-3.431348864130673304e-02,6.865363677956652644e-02,1.155832648277282715e+00
3.840365628929383046e-01,-6.833548801375692872e-01,-8.700360850931837531e-01,-4.512096268844958610e-03,-3.059724911861670584e-03,1.075573892567454823e-02,1.172123074531555176e+00
3.877880019699226355e-01,-5.618519533202911420e-01,-8.639449945804646980e-01,6.397293400855340317e-02,1.541961794427662048e-02,1.219334469707182289e-01,1.156525015830993652e+00
3.497527623400766839e-01,-6.825758485897415184e-01,-8.249749005747579744e-01,-5.444748172902700960e-03,6.090714608762488880e-03,1.450478528516118380e-02,1.110771775245666504e+00
3.614354549617896373e-01,-7.204968786507638390e-01,-8.706387611991051045e-01,-1.345107538251262037e-02,5.444970601291131140e-02,1.279045574149306475e-01,1.189150691032409668e+00
3.430685939803898021e-01,-6.572952727527965333e-01,-8.187453076996027423e-01,-1.352453247151834230e-02,1.692901410025006784e-02,2.264761567538874434e-02,1.091444015502929688e+00
3.389228565793527825e-01,-5.594272615322666287e-01,-8.846623241391098347e-01,-1.998640333740131156e-02,2.306180922352189539e-03,-5.120495900292474506e-02,1.101846575736999512e+00
3.583587592308942193e-01,-6.565023329817133435e-01,-8.352149104785797640e-01,3.483209210725130706e-02,6.012522166380034061e-03,2.000485093775694959e-02,1.117228031158447266e+00
1.762203970898832406e-01,-5.057340860254493364e-01,-1.121989171585151990e+00,5.264327883713738193e-02,-2.011919120447776266e-02,2.343235210828958082e-01,1.199725389480590820e+00
3.269660094240178227e-01,-6.305109425909625198e-01,-8.079154073228123067e-01,2.132278880893857462e-02,3.316984944781695838e-02,4.209722820918077729e-02,1.062109351158142090e+00
3.391686213975677044e-01,-8.086949358240387298e-01,-6.371026058223068222e-01,7.578601759789306905e-03,5.267277601702713592e-03,8.032844630608801384e-02,1.081519126892089844e+00
3.754332947064623061e-01,-8.644103402776437406e-01,-6.672641025166982098e-01,1.169194936957562020e-02,4.841916189385656738e-02,3.827600758042948997e-02,1.159088850021362305e+00
3.875155875931761140e-01,-8.700579852652514656e-01,-7.014788892863845771e-01,-2.365853986629206512e-02,2.048936732911110087e-02,-3.650867971832440911e-02,1.185262322425842285e+00
3.374887464240630686e-01,-1.048293578751549937e+00,-2.981549261216535074e-01,-2.224076218940121419e-02,1.308768316155443923e-01,-1.765373320725275794e-02,1.223673582077026367e+00
3.904024833241017678e-01,-8.717636463724353080e-01,-6.145546836505635380e-01,6.398448353725617876e-02,7.834778707335166015e-02,1.606345932822329514e-01,1.201119065284729004e+00
3.135943158478538551e-01,-8.995743790803272244e-01,-4.729525713259600250e-01,3.490921906799673239e-03,6.714476236502683361e-03,1.577836402612606270e-02,1.066367149353027344e+00
3.482161041555968950e-01,-6.377060190899227488e-01,-8.423317649179844491e-01,3.131439339572220787e-02,5.009743638320445641e-03,6.503160055874162085e-03,1.103994131088256836e+00
3.166631147301919857e-01,-8.534201846123412594e-01,-5.236351243753248896e-01,1.044047777657992025e-02,1.665796977041156257e-02,4.502957189640687669e-02,1.048436760902404785e+00
4.444918614831868120e-01,-5.002603966808623071e-01,-9.741657180754041967e-01,9.110330517227373248e-02,-3.121494329100390694e-02,-1.961892028209871741e-01,1.306965708732604980e+00
3.378205968133729531e-01,-5.595369085713708390e-01,-8.635062532593635876e-01,1.510597230257261329e-02,-9.353115057462526444e-03,-3.532895463280711496e-02,1.084024190902709961e+00
1.899812221101057075e-01,-3.534342567702914994e-01,-9.664756869958361918e-01,6.130798979059470105e-02,-1.600464754301288844e-02,-1.306981931222993554e-01,1.033221602439880371e+00
3.440250051712002710e-01,-5.006997622717064278e-01,-9.199608274301923627e-01,2.383768141204967075e-03,5.398948818796862545e-03,-9.057772710749175185e-03,1.115280508995056152e+00
3.157849960004974199e-01,-4.153347290025583005e-01,-9.273087035024802915e-01,2.251690681491567286e-02,4.239670435339866657e-04,2.990001409922594944e-02,1.084053158760070801e+00
3.361647531207415107e-01,-4.189807466593907792e-01,-9.539850493863544223e-01,5.571833340608449425e-02,-9.372075829000721045e-03,3.639441712731850825e-02,1.128729939460754395e+00
3.248171387390176856e-01,-5.122266333433334040e-01,-9.031168061085901311e-01,-8.592404842003065245e-04,9.692674112887919580e-03,-2.018102256267235300e-02,1.087260484695434570e+00
3.415284211498422207e-01,-5.184615294045318290e-01,-8.905504060555859969e-01,-5.165351379783108925e-03,-1.202603827187185247e-02,-1.621151401569873376e-02,1.095138311386108398e+00
3.774166727913012553e-01,-6.805507889133091126e-01,-8.640990523878062657e-01,-5.003351753099603144e-03,-2.682414360658701963e-05,1.066931869523307002e-03,1.160711765289306641e+00
4.076725999073346762e-01,-4.017029752409007060e-01,-1.022453102985439788e+00,-2.380070956718059044e-02,1.382245779743553928e-02,2.547812032747734379e-02,1.243808507919311523e+00
3.897987973831283370e-01,-6.923249653841461182e-01,-8.753083024060610562e-01,1.272401030120729262e-02,-2.999254054838759211e-03,-8.107781609590617236e-03,1.184565424919128418e+00
3.725808627565117548e-01,-9.217693204700110332e-01,-4.384748976601732240e-01,1.008201533943606405e-02,3.829284467084279053e-02,5.932086164101224579e-02,1.139572024345397949e+00
3.605160852279650219e-01,-7.489302561367479072e-01,-7.996501909636235528e-01,4.012314296396843165e-03,-7.010128288917074312e-03,-8.188478773562071072e-03,1.135830760002136230e+00
3.457510710842138235e-01,-8.652707111539419405e-01,-6.140760467094453778e-01,-8.157231384400305887e-03,-8.257524620171876120e-03,-6.101648515837662830e-03,1.107242584228515625e+00
3.342413057520791098e-01,-8.921145109454952093e-01,-5.050852238426912777e-01,-1.549468308322959854e-03,1.530563185362208978e-02,5.364933433334152964e-03,1.086232423782348633e+00
3.266761390607672566e-01,-5.084983134493709089e-01,-8.876281799122580640e-01,-8.317958884921112378e-03,-1.368095951048132336e-03,9.153133783765705911e-03,1.076271295547485352e+00
3.419893639358246862e-01,-5.277846928055435205e-01,-9.057304995287102090e-01,-3.801427062512623828e-02,-3.147606450540813700e-03,1.640530843416377130e-02,1.110517740249633789e+00
3.161805201483582350e-01,-5.203692487686937262e-01,-8.772992834814263841e-01,-9.435039059603810702e-03,1.231378026549274744e-02,-3.869664985765311482e-02,1.063493609428405762e+00
3.681512979350388126e-01,-7.112505379534121985e-01,-8.280002287233982905e-01,-1.471770258433920814e-02,1.152952889298646325e-02,7.934160689854800885e-03,1.142801880836486816e+00
3.442288363836241705e-01,-5.013281769304390734e-01,-9.246968482412123436e-01,4.535250416500435054e-03,-2.396085024143981574e-03,-1.079305083326876670e-03,1.119049787521362305e+00
3.191340800496359487e-01,-4.156527472763448250e-01,-9.306923256060221084e-01,2.620110962552072223e-02,-2.541036213094677310e-03,-1.208295227482892795e-02,1.089099884033203125e+00
3.116323288267706659e-01,-5.575207189469241209e-01,-8.540633904408145849e-01,-4.955897032370810973e-02,1.936398629363478979e-02,-5.602067660643819669e-02,1.057834386825561523e+00
3.563749034503523871e-01,-6.255475009506270556e-01,-8.741548372980150194e-01,-3.303059716448927818e-02,7.546579547719166337e-04,-2.552589796097406820e-03,1.128443479537963867e+00
4.509034036286843072e-01,-4.732563319541579494e-01,-1.020710982661314770e+00,-3.239375843748053263e-02,-4.667455445831672836e-03,1.123696950104937503e-02,1.289692044258117676e+00
4.402762386319640231e-01,-1.880991612102810295e-01,-1.111345170165224827e+00,9.378145269032198139e-02,-2.250734052140419914e-03,5.894847405891453368e-02,1.365360260009765625e+00
3.721578378448409108e-01,-7.806134436155294232e-01,-7.775642973751706322e-01,2.665541581290887824e-03,-6.341054784131394412e-04,-2.536704759339323493e-03,1.151267886161804199e+00
3.628820680683986222e-01,-7.762499067246289020e-01,-7.748606585338289054e-01,4.918946723299866611e-03,6.556740470692988413e-04,4.158919236212500585e-03,1.138493180274963379e+00
3.748640467480348071e-01,-7.781284450219780879e-01,-7.788530801073838550e-01,-1.521954361022789250e-04,7.614511438614331943e-04,-6.366611249101391526e-04,1.153356313705444336e+00
3.765220668215134014e-01,-7.810953559161184501e-01,-7.783276840024031529e-01,2.506053889619565787e-03,-1.017953669237505084e-03,-6.031142234298471870e-04,1.156246066093444824e+00
4.204839295484619210e-01,-6.440906810339368516e-01,-8.313058832072027782e-01,-2.059412428777574258e-02,-2.574541288481384943e-02,2.170024459564968977e-01,1.229717135429382324e+00
3.173965086690838655e-01,-5.297086943428968020e-01,-6.311421892270714373e-01,2.762417936164204835e-02,-4.541898680865307978e-04,4.449196713549126714e-01,1.187413692474365234e+00
4.322287498127667660e-01,-6.831722591608195838e-01,-8.138684338583614952e-01,-3.465274068330750738e-03,-2.928788598173792321e-02,2.547778514415446338e-01,1.266619205474853516e+00
3.572958804100922481e-01,-8.131720196713425608e-01,-4.340598835415377943e-01,1.708664398429928302e-03,6.981615478974098621e-02,4.031421510440504341e-01,1.253867983818054199e+00
3.415418120650399181e-01,-8.441060070902127732e-01,-5.689620610887872187e-01,-2.614966273674557140e-02,-1.372918805484030051e-03,1.980954057633196597e-01,1.129169464111328125e+00
9.167444065295349276e-03,-1.054390762163033068e+00,-6.977154381624529611e-01,-8.891660498718276240e-02,-8.915612258760252651e-03,1.504619222930818623e-01,9.853434562683105469e-01
4.497171352918530318e-01,-9.909722635229787358e-01,-5.954188105802125097e-01,5.010190240668383616e-02,-6.199342605532472822e-02,-6.505043383762683373e-02,1.301512002944946289e+00
5.335335248383865636e-02,-7.734305760294652998e-01,-7.716661974482157405e-01,4.321266417416456257e-02,2.224683414701514317e-02,2.885182349264768173e-03,8.301973938941955566e-01
1.761821697014046006e-01,-7.856968536349916432e-01,-7.221724244193394870e-01,-2.987012247577383595e-02,-7.515596069152151448e-02,1.324572237051058719e-02,9.424924850463867188e-01
5.837223305245228255e-01,-1.021488429112567209e+00,-6.300511034224811624e-01,-1.296908777361490198e-02,-2.327001662921569791e-02,-1.003310094107061207e-01,1.460792064666748047e+00
1.351186080060570172e-01,-7.920305095340969270e-01,-7.544060512261778761e-01,3.184570077092464119e-02,4.285414573643808733e-02,-3.847038928797171659e-02,9.160400629043579102e-01
5.178575845196453642e-02,-9.807914553215246745e-01,-5.822327778059949166e-01,7.500981424937512576e-02,-9.252281745474492947e-02,-3.031034222028550218e-03,9.252623915672302246e-01
1.091304911265162381e-01,-7.336979108839432051e-01,-7.343951850861454300e-01,-1.066257843004765442e-02,-1.808709263522424379e-02,6.728687982736102254e-03,8.440415859222412109e-01
4.700963941639925148e-01,-2.495379715909412655e-01,-1.300594605153555072e+00,-6.135285484441987958e-02,-7.437083204088523747e-02,1.689870664765817931e-01,1.578773498535156250e+00
3.850880690084571567e-01,-2.272668700644337458e-01,-1.082093210855297416e+00,-8.371632228085006122e-02,-2.469694575905742595e-02,4.562292884634339823e-02,1.287735700607299805e+00
3.468608217867593102e-01,-6.638368568365404787e-01,-8.301420202208844579e-01,-2.126772122615279773e-03,9.875821973974957882e-03,4.057978159154749381e-02,1.105666160583496094e+00
2.477566406281446199e-01,-4.151054287097409867e-01,-9.226292429086898617e-01,1.254066593889802302e-02,3.190242125670675333e-02,1.715191034291567718e-01,1.060738563537597656e+00
3.417647269682699274e-01,-8.321404307604890471e-01,-6.453539548600848441e-01,1.000226715567159412e-02,-3.243452762452125188e-02,-1.484154677194413768e-02,1.094435811042785645e+00
3.530362195066833464e-01,-6.448038308824515230e-01,-8.450767945282953164e-01,2.947492593986143772e-02,1.362100171006079032e-02,1.448395706835433304e-02,1.113295435905456543e+00
3.301808914898915481e-01,-5.738377331007252780e-01,-8.435018381875095672e-01,-5.775923518245267528e-03,8.274803675975696271e-03,1.783316848548354566e-02,1.065368175506591797e+00
3.486900040433721926e-01,-6.308447146203821632e-01,-8.464393338583067194e-01,-1.025196519654487937e-02,2.592277725466867171e-03,1.539423419400086021e-02,1.103720188140869141e+00
3.396103910476130361e-01,-5.605258672473614201e-01,-8.754336606005802546e-01,2.757369241179702044e-02,1.392372924853588038e-02,1.271422026824193044e-02,1.093718290328979492e+00
2.792414371919790805e-01,-7.065656764761676367e-01,-7.679218575956969772e-01,-3.641162991814513635e-03,1.063938870436140390e-02,9.332627126604492451e-02,1.030812501907348633e+00
3.546361118135646917e-01,-7.705923705032198257e-01,-7.941657984903931489e-01,-5.899975392451538292e-04,-9.455971927003647319e-04,-6.720739212666450302e-03,1.137259721755981445e+00
2.942701248818533344e-01,-7.081665387873288253e-01,-6.682465179141241496e-01,-2.539194372632771340e-02,-2.940204942519737685e-02,1.512852694687895905e-01,1.019629836082458496e+00
3.548679979939954321e-01,-7.881357548418477244e-01,-7.729370486976079313e-01,-4.435289758248926739e-02,1.153328721059370017e-02,4.675468336729677876e-01,1.396931290626525879e+00
9.672896551827425693e-02,-5.911141818067432441e-01,-7.911936822414548098e-01,4.075057027380200175e-02,-1.598957432056890768e-02,1.698997322180682001e-01,8.620498180389404297e-01
2.016333218873909705e-01,-9.710304833898086851e-01,-6.873129069402369451e-01,-1.171273892994038543e-02,7.302161825823583197e-02,3.999106832697841840e-01,1.272448182106018066e+00
2.758588176082086285e-01,-9.800019188005968385e-01,-4.279311080504756282e-01,6.797485199512505460e-02,-3.320145392145618796e-02,1.604721721795855927e-01,1.132725477218627930e+00
3.404891055992118609e-01,-8.779829266103322816e-01,-6.070858247260295659e-01,3.790570490918736962e-02,-1.755076765428778031e-03,-7.435958364936448572e-02,1.117535948753356934e+00
2.083220735714359506e-01,-8.537079295549093727e-01,-3.310830392567858937e-01,-1.665690534851770738e-02,1.613245202029779321e-02,-3.578548675122049105e-01,1.109862446784973145e+00
3.602662413914141659e-01,-8.452230764750225944e-01,-6.170326886215411477e-01,2.828836272020333604e-04,7.412949605367025879e-03,-5.258764456314656000e-02,1.112949132919311523e+00
3.347279253290977308e-01,-8.578875872363561639e-01,-6.117599705701645130e-01,2.424107055122350085e-02,-8.448724608616924037e-02,-1.488199258363211430e-01,1.130926251411437988e+00
2.350063515722539131e-01,-7.628320305202640483e-01,-7.614675031650219861e-01,3.452602305259464682e-02,6.456114307288737635e-03,-4.111307514714222441e-03,9.990363717079162598e-01
1.911472676751524991e-01,-7.704115495378962564e-01,-7.484678015947100471e-01,4.840893389132958080e-02,1.546835120942072206e-02,-6.353132046904138609e-03,9.549062252044677734e-01
1.067626263576925139e-01,-7.435673423408319938e-01,-7.302085200078560767e-01,2.394709366344963120e-02,-4.765370654897079818e-03,9.284721284099687472e-03,8.449421525001525879e-01
3.932890673117970248e-01,-9.130251650394787255e-01,-5.248851149542683725e-01,-1.614014737145986686e-02,1.789728508038168284e-02,-6.713576068327646584e-02,1.168478012084960938e+00
4.381859226636181659e-01,-1.016941912388334535e+00,-4.928072951708254990e-01,1.004046909814077307e-02,4.843972198936081358e-02,-5.896054977919854695e-02,1.283433675765991211e+00
3.508806696707834627e-01,-8.126433431106370175e-01,-7.120816810904935235e-01,8.615454923975594587e-05,1.674701422531314765e-02,2.902540195417295955e-03,1.117032527923583984e+00
3.805347645919326394e-01,-9.100790999991159591e-01,-7.272956283413578582e-01,-4.833926480873390608e-02,3.037690950265175410e-02,-8.359714619426364401e-02,1.222266316413879395e+00
3.434374841607422124e-01,-7.969553959985004044e-01,-6.842460079846958143e-01,-2.066833875483345059e-02,2.376970917296901756e-02,-1.611874359392134748e-02,1.090147852897644043e+00
3.002251846627846388e-01,-1.065263597747198032e+00,-4.613017525924507090e-01,-7.059343927791622217e-03,-4.240333361343291696e-02,-6.166641487242686959e-02,1.192299604415893555e+00
3.735871030832073059e-01,-1.235908954143072336e+00,-3.029360680080444013e-01,-1.156209980739773407e-01,5.436871130915067220e-03,-2.625217247233873480e-02,1.414765238761901855e+00
1.334560105272800112e-01,-9.271656502514189491e-01,-4.803964806022018585e-01,6.682636702291147590e-02,-2.424531280081881207e-02,-1.093238775963598919e-01,9.495703577995300293e-01
2.941883738749988542e-01,-9.437592564727559363e-01,-3.318711806090597349e-01,6.822223355654559278e-03,-4.609551482952848472e-02,-1.811316152942911983e-01,1.119989275932312012e+00
3.586969502643965191e-01,-7.729734021569619751e-01,-7.525918235120112598e-01,1.990631709815765277e-03,-1.878651813798222015e-03,1.372546868964045520e-02,1.121880412101745605e+00
3.645666710138771860e-01,-7.642841936866318076e-01,-7.797348466901607988e-01,2.776429053184386979e-03,2.110384240188159163e-03,7.853480978374259569e-03,1.136752367019653320e+00
3.696333637690070728e-01,-7.716888703017406037e-01,-7.775077830287000502e-01,4.574325561413151824e-03,3.658966813112399935e-03,7.535282815953097324e-04,1.144288539886474609e+00
3.588008649882170609e-01,-7.801701614649312333e-01,-7.808155617119760805e-01,4.113640020326690856e-03,1.167780043926429541e-02,3.041651100583838059e-04,1.139495849609375000e+00
3.725680421523318575e-01,-7.786416730897195437e-01,-7.770462305434853167e-01,1.352456571290812978e-03,-1.032704090311288346e-05,-5.310155346710959418e-04,1.150415539741516113e+00
3.703033201211614056e-01,-7.723652329411105910e-01,-7.768680518129826851e-01,3.574302349671714882e-03,5.545014267352366827e-03,8.916261591628420495e-04,1.144984722137451172e+00
3.648323031905049696e-01,-7.768867426396751652e-01,-7.782262119785087195e-01,7.612776640874422459e-04,1.385461164446974858e-03,1.367137870044682606e-03,1.142395138740539551e+00
3.066167610250642439e-01,-7.747560542050559995e-01,-7.676593313671018493e-01,1.021898181080213575e-02,-9.569769803471692496e-03,-7.114082134750054302e-04,1.078115463256835938e+00
2.228876212290711867e-01,-7.652894697168292071e-01,-7.546849121388039539e-01,-1.578667969868423337e-02,-2.297601241359572763e-02,-4.568377783567714387e-03,9.841347336769104004e-01
3.740267187591564402e-01,-7.644873369802875906e-01,-8.083985505730453269e-01,-1.523429717574568314e-03,6.194073522103339322e-03,1.303217025462602777e-02,1.161364555358886719e+00
6.976644749699562054e-02,-3.180057628913834367e-01,-9.391519407551633947e-01,4.174308905408033975e-03,2.935165215460251720e-02,-3.084452279393104859e-02,8.846152424812316895e-01
1.018162010245924898e-01,-6.170443011548445433e-01,-9.456862195385872250e-01,1.408079179730050423e-01,4.906556392447958270e-02,-1.622787913773003909e-01,1.003354191780090332e+00
3.432599590143613488e-01,-7.285416347023208061e-01,-7.568289822781026910e-01,-2.041315695823166590e-02,2.104854821885766142e-02,-3.622813049907507021e-02,1.089217066764831543e+00
3.510146631432334297e-01,-7.495893474805351842e-01,-7.560393460385457232e-01,-9.367663296027966061e-03,1.442906451739180834e-02,-9.558109909241857549e-03,1.104369282722473145e+00
3.443610004599237384e-01,-7.296204905873882041e-01,-7.573428860984285915e-01,-9.706633729554929590e-03,1.439893448375790044e-02,-8.735168882331405607e-03,1.088628292083740234e+00
3.543946260323239672e-01,-7.497716912449947646e-01,-7.587102457274257361e-01,-8.933867168871748032e-03,9.308061413735678816e-03,-9.799989689011766314e-03,1.109017729759216309e+00
3.521768240268665084e-01,-7.729599639129145494e-01,-7.306869886238924749e-01,-1.176095613421940071e-02,-3.191158472299517133e-03,-3.177971269397080953e-03,1.104822516441345215e+00
3.591950900544140790e-01,-7.742656683542059604e-01,-7.436139709415447996e-01,-8.705393920843351729e-03,7.227397817513755464e-03,-8.073375286946377072e-03,1.118709087371826172e+00
3.384473103795233029e-01,-7.367434264654522114e-01,-7.364393467824683626e-01,-1.188547777092660053e-02,7.878050121934878150e-03,-1.823748051398097619e-02,1.075786232948303223e+00
3.194199301093740839e-01,-7.547500641027529156e-01,-6.669724035458970413e-01,-2.868301491130062497e-02,1.777823308821468301e-02,-2.796125406435662555e-02,1.035866737365722656e+00
3.601720214106839957e-01,-7.432987598939908569e-01,-7.840893596887087424e-01,-1.189980458303639514e-02,-1.454936073328312943e-02,5.228173593100753427e-03,1.124928712844848633e+00
3.672615950262028139e-01,-7.834121038106759416e-01,-7.777373696691088911e-01,-3.844742924015106568e-03,-1.831625964116883687e-03,-4.635334114181992814e-04,1.147870779037475586e+00
3.580120032132448893e-01,-7.209533660411605593e-01,-8.118884738680941515e-01,-1.230239577552722646e-02,-8.820551613062489055e-03,3.449677899843996143e-03,1.127508044242858887e+00
3.217267105769296420e-01,-5.896426062914290611e-01,-8.138839563357056495e-01,-2.137163930131949496e-02,-1.019993491485466849e-02,7.444015207749164753e-02,1.050500512123107910e+00
2.092601666956754314e-01,-7.583908460752767366e-01,-7.817324935595444391e-01,6.107664185085392300e-02,-2.237283763788832855e-02,-1.498931178969975693e-02,9.863298535346984863e-01
3.658029342934735473e-01,-7.689752752026977056e-01,-7.847753058891752120e-01,-8.371319384667796210e-03,-4.889431814935278620e-03,1.536061859604365793e-03,1.142886638641357422e+00
3.517916080501272136e-01,-7.782716233762703162e-01,-7.811791569370736266e-01,9.999905223472313476e-03,-7.256875692922977981e-03,-1.934844875417274929e-03,1.131727099418640137e+00
3.490798401008406993e-01,-7.729881515242600365e-01,-7.863847362287146314e-01,6.730076156158330825e-03,2.682648041852261065e-04,-3.427531054952706168e-04,1.128886342048645020e+00
3.567369922157058171e-01,-7.274584402827071195e-01,-8.025148173164436960e-01,-1.529634124073919743e-02,-1.151582490847156623e-02,4.582786165022702252e-03,1.124122619628906250e+00
3.406664931708328070e-01,-8.710194331177507632e-01,-5.374117118489878386e-01,7.021708228249997664e-04,-3.699541929645137547e-04,8.602177517674731988e-02,1.094280719757080078e+00
3.353251090137241985e-01,-9.476731416132830876e-01,-4.507509560488265343e-01,3.067780457000922117e-04,-8.728750504599338406e-03,1.362128597644286787e-01,1.145144820213317871e+00
3.206313898130511708e-01,-8.675595830829674338e-01,-5.174289507160496626e-01,-7.164497712271449860e-03,-4.338390881706157866e-03,5.596964480781672913e-02,1.062061905860900879e+00
3.290529626957748865e-01,-8.388955233765603703e-01,-5.732174192104718680e-01,-1.050952185483433610e-02,-8.296218559486033192e-03,2.415327973382206533e-02,1.061450958251953125e+00
3.407583727177367350e-01,-8.632543412133490968e-01,-5.587172637102689743e-01,-2.305805454133721694e-03,-1.637327598142514218e-02,3.404419053662708500e-02,1.086287379264831543e+00
3.471793104791777163e-01,-8.801851176008194111e-01,-5.713538784767471235e-01,1.065957047408124664e-02,-1.656720652918653933e-02,-5.320939651266333621e-03,1.106345772743225098e+00
3.544580251001491766e-01,-8.242697227418254169e-01,-6.967964839743796546e-01,1.514475759828971986e-02,-6.367339750913844632e-02,-3.030165978175805921e-02,1.127385377883911133e+00
4.430236298012650287e-01,-9.998223507222521178e-01,-5.117527655852136537e-01,-2.372940651658129833e-03,-7.490491212849409441e-02,-9.766759097142552193e-02,1.288903832435607910e+00
3.420738882937602865e-01,-8.421280085208890931e-01,-6.354834538142914990e-01,1.277599752561713563e-02,-3.063320308452417359e-02,-5.041851666299610943e-03,1.097136378288269043e+00
