sxx,syy,szz,sxy,sxz,syz,smises
3.266666666666750984e-03,3.266666666666750984e-03,-6.533333333333057880e-03,9.800000000000001418e-03,1.400000000000000133e-01,1.400000000000000133e-01,3.434882164001464844e-01
