sxx,syy,szz,sxy,sxz,syz,smises
0.000000000000000000e+00,0.000000000000000000e+00,0.000000000000000000e+00,-5.768475396052256654e-68,2.561717680672373667e-83,-5.768475396052256654e-68,0.000000000000000000e+00
