sxx,syy,szz,sxy,sxz,syz,smises
4.483433527472097113e-02,4.483433527472097113e-02,-2.996686705494414071e-01,-7.639435960555675121e-52,-3.841642540207739342e-52,-3.841642540207739342e-52,3.445030152797698975e-01
