sxx,syy,szz,sxy,sxz,syz,smises
-4.833696677218447119e-02,-4.833696677218447119e-02,-8.610957161027064932e-02,1.448196713100372356e-52,7.023754058536792362e-53,7.023754058536792362e-53,3.777260333299636841e-02
