sxx,syy,szz,sxy,sxz,syz,smises
-6.373872529402996312e-03,-6.373872529402996312e-03,7.275574505880692822e-02,1.749701315546876231e-36,8.835921919744884436e-37,8.835921919746681871e-37,7.912961393594741821e-02
