sxx,syy,szz,sxy,sxz,syz,smises
-1.600324697598974610e-02,-1.600324697598974610e-02,-2.829653635105075504e-02,2.878034474821452119e-52,1.424627065036637020e-52,1.424627065036637020e-52,1.229328941553831100e-02
