sxx,syy,szz,sxy,sxz,syz,smises
1.610717148143430560e-02,1.610717148143430560e-02,-1.222143429628685524e-01,-1.929855598698765666e-52,-9.674547739777113637e-53,-9.674547739777113637e-53,1.383215188980102539e-01
