sxx,syy,szz,sxy,sxz,syz,smises
-6.467300882706109033e-02,-6.467300882706109033e-02,-1.156539823458780647e-01,1.541034227126141692e-86,0.000000000000000000e+00,0.000000000000000000e+00,5.098097398877143860e-02
