sxx,syy,szz,sxy,sxz,syz,smises
-1.481649252038809428e-01,-1.481649252038809428e-01,-2.703734462955343920e-01,-6.532627872728110118e-37,-2.972345682091320795e-37,-2.972345682091320795e-37,1.222085207700729370e-01
