sxx,syy,szz,sxy,sxz,syz,smises
4.986431621048684759e-01,4.409417836101653387e-01,-1.068510366598818262e-02,1.361139378831373965e-03,-2.745670817527421596e-03,-2.818576957698807825e-02,4.855587184429168701e-01
5.204243160691600645e-01,4.156025130629062425e-01,-3.031775413092269167e-02,-6.510102196963208146e-03,-4.902134064910342558e-03,-6.041670123351985597e-03,5.068366527557373047e-01
5.559036405621280430e-01,3.717130451797038271e-01,-1.227776926741314112e-02,-2.921651552830072801e-02,-1.843053076860698067e-02,-2.616379786983457495e-02,5.076771974563598633e-01
5.434934974700695864e-01,3.959359509601524385e-01,-3.630268410430625980e-03,-1.411368936906739775e-03,2.048182243585105686e-02,-4.052795801031373879e-02,4.965656399726867676e-01
5.228332218029648759e-01,4.429694470076795954e-01,-1.783123624227489490e-02,1.176578995736676271e-02,-4.082398372256418502e-03,-2.502310660079281115e-02,5.077996850013732910e-01
4.297343871969324658e-01,4.360827407131355749e-01,-2.114517599243637136e-03,-3.978387559740082652e-02,-1.731837651545694093e-02,-1.607286686401368514e-02,4.423780739307403564e-01
4.183910976584817032e-01,3.479222204788464667e-01,6.967789657824075000e-04,-9.492354214501759480e-02,-1.616845845090139969e-02,-1.301380082141059130e-02,4.222839474678039551e-01
4.140409511152847166e-01,4.050126324169823766e-01,-1.516662540533564307e-03,-9.982527797281876003e-02,-1.810315128263699502e-02,-4.671018019280109151e-02,4.543586671352386475e-01
4.308716156170345757e-01,4.149266800226608098e-01,-2.468201968037986305e-03,-4.159549654130337976e-02,-1.668048838117031432e-02,-1.076784557304399405e-02,4.330140650272369385e-01
4.363666494501425852e-01,4.012697664038050172e-01,-3.465991914081867353e-03,-5.500489711626006806e-02,-1.857338321836337833e-02,-1.166886644783748060e-02,4.356234669685363770e-01
3.797932443193637320e-01,4.250100981044090953e-01,-3.726822025899578783e-03,-7.380852285318793837e-02,-1.498299464319426816e-02,-1.789493272392313206e-02,4.294776320457458496e-01
4.078333862554496814e-01,4.362865821595528493e-01,-3.256142728196576019e-03,-9.935132436872931572e-02,-5.851007545974167001e-02,-4.121505202081778008e-02,4.758985042572021484e-01
4.133047867931877173e-01,4.328347425101690682e-01,-1.153118289671245522e-02,-1.039177357102436805e-01,-2.189281130277298884e-02,-2.744244664141141238e-02,4.746133983135223389e-01
4.036646119166679703e-01,4.255198617266573446e-01,9.976328396800238085e-03,-6.745699349372355491e-02,-4.419490730386586158e-03,-7.847599035627069244e-03,4.218612909317016602e-01
4.306389324589403600e-01,4.160245292653566018e-01,-3.031606363824657091e-03,-4.443073752073065097e-02,-1.738985692172607261e-02,-1.173992431689593191e-02,4.349584579467773438e-01
4.074241748887977854e-01,4.671901589863763915e-01,-1.658702218212770862e-02,3.748072882347368295e-02,-2.218656045667445967e-02,1.252993098524447964e-02,4.635310769081115723e-01
4.495582445300712049e-01,4.647573936018531415e-01,-1.516361782575248451e-02,2.593754419582635154e-02,-8.973265878303363433e-03,1.062665139295723010e-02,4.752466678619384766e-01
4.620776774089107031e-01,4.314155597449115254e-01,-9.245132323712601519e-03,3.463776279929308560e-02,-4.610325861718190046e-03,1.256607523914749468e-02,4.612704217433929443e-01
4.386828782605112220e-01,4.457847905117036102e-01,-1.426272977710585366e-02,2.307723743506552919e-02,-7.817163096145130288e-03,7.931715867361566891e-03,4.586901664733886719e-01
4.611498830386230319e-01,4.390999809905254403e-01,-5.999784526003915097e-03,2.569936412197008566e-02,-9.745452318313467532e-03,1.705758983390819744e-02,4.599495530128479004e-01
4.615695535248719450e-01,4.373336976758933070e-01,-1.355565320827567533e-02,2.519064138641012238e-02,-8.651278943237169020e-03,6.883550241036652875e-03,4.659256041049957275e-01
4.558044870138053817e-01,4.403281873674133040e-01,-1.793162464161507375e-02,3.429879682733284058e-02,-1.194233829200082482e-02,1.160163206792314862e-02,4.708445668220520020e-01
4.588936622430054291e-01,4.322786707230332759e-01,-1.503439893680885708e-02,3.334698452514960054e-02,-9.079638454036826484e-03,9.954382493530785150e-03,4.653850197792053223e-01
5.099545724344934916e-01,4.324732360933057906e-01,-2.526228816631237439e-02,1.481679065112439381e-02,3.885560592911597891e-04,1.000203501371143763e-02,5.019465088844299316e-01
4.868827845587315184e-01,4.701777517610871149e-01,-2.901417761371150039e-02,6.977906698895777922e-03,5.955647073264806225e-03,1.220268282660035876e-02,5.084386467933654785e-01
4.995592434225525347e-01,4.693316088548059040e-01,-1.458687242743489376e-02,1.397494827397978596e-02,-1.458695389697697679e-02,2.193406710751545901e-03,5.009562969207763672e-01
5.147644060967037083e-01,4.509412007669378886e-01,-2.216931573614500106e-02,2.431406824908157946e-02,5.749710952330972652e-03,4.242824169711976318e-02,5.151461362838745117e-01
5.065258792672767685e-01,4.055448427907917819e-01,-2.415750049681575362e-02,-1.130726781777227375e-04,-2.463658112138416689e-03,1.264442927163616235e-03,4.881148338317871094e-01
5.574556699919510638e-01,3.823624076302454822e-01,2.417502555493666883e-03,3.123486183552312209e-02,-5.257996815902217340e-03,1.293881587228091871e-02,4.950288832187652588e-01
4.884486238006479630e-01,4.623293747853273183e-01,-3.065937555916853352e-02,-1.365020757488287799e-03,1.464345240134831325e-04,-1.071114521087378722e-03,5.065626502037048340e-01
5.081638188336140560e-01,4.460586879563817608e-01,-1.900390575161309270e-02,3.136221344788849008e-02,-6.714258642946553494e-03,4.508873003933215606e-02,5.081417560577392578e-01
5.081705267177131224e-01,4.034009497287678325e-01,-2.541538166732332238e-02,-3.197648342582859200e-03,9.398566843271283222e-03,4.633513726001761701e-02,4.965113401412963867e-01
4.820234852300684381e-01,4.918799799031998710e-01,-1.650256936890065473e-02,4.317072405489601021e-03,4.866128941858284020e-03,-2.996115756595822601e-03,5.036794543266296387e-01
4.438627242309887144e-01,4.833332114654532718e-01,-2.952205571507859894e-02,-1.064353708638580802e-02,2.641625259318864868e-03,7.002928975637610909e-04,4.946696460247039795e-01
4.656641230868640569e-01,4.823337646322346517e-01,-4.426277031237157988e-03,3.239330422512233434e-03,9.960971975180230292e-04,2.501982041740086465e-03,4.786985814571380615e-01
4.719896580499974292e-01,4.774750572058769071e-01,-4.835632655004029612e-03,-2.491468934919413526e-04,2.189073019902122632e-03,-2.835493175819694760e-04,4.796069562435150146e-01
4.778967251513354109e-01,4.945988669917090186e-01,8.190825232085363616e-03,1.113970138596986556e-02,6.397470030566809653e-04,-3.756898826119400587e-03,4.787102937698364258e-01
4.645395577678776977e-01,4.575327320493436378e-01,-3.237761702908648065e-02,8.484530480225423122e-04,5.742636820878488195e-03,1.245691685112784806e-03,4.935582280158996582e-01
4.820940112802620803e-01,4.957242383346195380e-01,-9.474878164918321133e-03,1.452158896037217609e-02,6.342294111369261092e-03,5.817239740251316064e-03,4.993803799152374268e-01
4.775361504632663068e-01,4.623484869941354436e-01,-2.638049873109571397e-02,2.256469575470090947e-03,4.422628325123677609e-03,-4.524831274987587380e-03,4.966333806514739990e-01
4.888823297050076677e-01,4.392099345506403907e-01,-1.735429525463394462e-02,1.295516012076416805e-02,1.060849116886777507e-02,-1.153059064380760820e-02,4.845997095108032227e-01
4.821554758477159530e-01,4.614036387893718505e-01,-2.840279800380801634e-02,-4.716823081790974905e-04,-2.367840231757443927e-04,-1.594322807322002883e-03,5.005135536193847656e-01
4.716207120253471663e-01,4.824289245130538584e-01,-2.626617268201197897e-02,4.743907829476026392e-03,2.930179756845281095e-03,1.715016478340764981e-03,5.034794211387634277e-01
4.836246677180721654e-01,4.673339295028362539e-01,-1.125827626074832333e-02,1.139835893089126938e-02,5.903667222005678193e-03,-5.985791608821782557e-04,4.874504208564758301e-01
4.843411208873468765e-01,4.734570108557978885e-01,-2.015016423552234981e-02,8.604310476298700563e-03,1.507190822198939580e-02,-1.612188892133410711e-02,5.008216500282287598e-01
5.108756907875190434e-01,3.337187939650867463e-01,3.682869183840808969e-03,-2.779040406441755928e-02,-4.211816042641479928e-03,-1.904223177653972809e-02,4.497047662734985352e-01
4.924315106408931886e-01,3.558572747882701726e-01,4.479118544874816088e-03,-1.561805225513073977e-02,-6.509316851790936630e-03,-1.359642240096359950e-02,4.376320540904998779e-01
4.647505199907237539e-01,3.610354563522867877e-01,3.866770790871498775e-03,-2.994664753874108284e-02,-2.141178111320153274e-03,-8.362764682414798242e-03,4.222369194030761719e-01
5.254544684514445008e-01,2.831713216039929981e-01,7.875651277424733365e-03,-6.080952601279151354e-02,-5.197380956263994618e-05,-3.105884494462863611e-03,4.607718288898468018e-01
4.984594865692804078e-01,3.290599804887395785e-01,1.118349663000761662e-02,-1.132011431719540107e-02,5.944304753127470191e-03,-6.337454744059409749e-04,4.290471076965332031e-01
4.733506730825917663e-01,4.768551614977810660e-01,-3.975875091544661677e-02,2.949091718185822050e-03,1.303022851289506153e-03,2.822470371180737288e-03,5.149241089820861816e-01
4.805564580292124299e-01,3.042833528135505672e-01,7.482959315719350801e-03,-5.832632835381569569e-02,4.674602503263287738e-03,1.749918780779332076e-03,4.263346493244171143e-01
5.106393979581171916e-01,2.909168998388611538e-01,7.784629912407803332e-03,-6.237376731312222616e-02,7.218465328551593348e-03,2.567966563501822980e-03,4.499999582767486572e-01
5.057213287559748638e-01,3.279917987105300803e-01,1.036684499885898170e-02,-1.426182430199840305e-02,2.826888677628037073e-03,-1.486939260476138978e-03,4.353912472724914551e-01
4.335234076289254390e-01,4.415279919617665638e-01,-6.498783655497331058e-03,4.088350794747723504e-02,1.060889586879989674e-02,-4.536438315514466392e-03,4.501328170299530029e-01
3.983100019673060377e-01,4.272633249590576110e-01,-1.741473511824442877e-02,7.785493310450304627e-02,3.255438629230567038e-02,-1.352806323935491425e-02,4.556473791599273682e-01
4.367045162639585643e-01,4.460858546732205943e-01,-2.068112527658710897e-02,3.487735215563960572e-02,1.678383543127765290e-02,-2.698273399950593121e-02,4.693177044391632080e-01
4.985014721745610333e-01,4.166161201566391803e-01,-1.284870202456628308e-02,9.762352156290003691e-02,2.558657849222017305e-02,-1.332691154976474272e-02,5.073460340499877930e-01
4.919120749615563670e-01,3.866828992518209218e-01,-9.561678031176912285e-03,8.117290926596865130e-02,1.429341091860215560e-02,-3.284036254222122420e-02,4.831096529960632324e-01
4.787614635728689727e-01,4.322818879912807555e-01,-9.048247940105835774e-03,5.249137914933953153e-02,2.001296292668564708e-02,-6.889314617372696917e-03,4.765033721923828125e-01
4.308339958449144413e-01,4.993207546551210463e-01,-2.755455347140400857e-02,2.517979523262668922e-03,-6.756164291562865264e-03,3.114617994878841282e-03,4.963759779930114746e-01
4.631649614976106610e-01,4.166953293231461242e-01,-1.661035200753124830e-02,-1.128463153093748651e-02,1.876755986115644786e-02,8.999077205487066022e-03,4.601417481899261475e-01
4.190656927845330948e-01,3.614325327659871356e-01,2.564887227257117708e-04,-7.400976894534107287e-02,7.995466865612950794e-03,4.657467305137820597e-03,4.138533771038055420e-01
4.563274404249245131e-01,4.493861792320873461e-01,-1.753854469881194200e-02,-4.006073929104531778e-02,2.252052990509481947e-02,2.704005318907487174e-02,4.794137477874755859e-01
4.196819924901991072e-01,4.177998727065049822e-01,-6.932217610343016645e-03,-4.319853563516557610e-02,1.412935017287613761e-02,1.381662931608808320e-02,4.335553646087646484e-01
4.273519474245053851e-01,4.910979690324277502e-01,-2.494695426336296373e-02,-1.079949214851410070e-03,-8.950236145081452363e-03,-2.111209437455331250e-03,4.875728785991668701e-01
4.641049815852233418e-01,4.169219268721857108e-01,-1.201125104781863850e-02,-1.928869021998075306e-02,1.501842556619645101e-02,1.395109848367564673e-02,4.569737613201141357e-01
4.432961289779119851e-01,4.510778582428338623e-01,-1.636175309148912849e-02,-3.390631740404890376e-02,2.169033473408967655e-02,2.499381454956270399e-02,4.708048999309539795e-01
4.571733111701282715e-01,4.117031267873284550e-01,-1.272705033890092485e-02,-2.651290037478286690e-02,1.408830618371417417e-02,1.334985068339555707e-02,4.524890482425689697e-01
4.672231224295516627e-01,4.614890753456024619e-01,-2.053011075814847874e-02,-3.223418092579336134e-06,2.628144139362516112e-03,-3.524523965430223504e-03,4.849714338779449463e-01
4.632374818953882700e-01,4.464848259308070166e-01,-1.810591443904047138e-02,2.108291891101792687e-02,1.325737953434998062e-02,-1.234368084540421115e-02,4.756323993206024170e-01
4.704917903587547690e-01,4.490783316083390431e-01,-1.651898366696169518e-02,9.595534537817555429e-03,1.062794497010273280e-02,-8.079316774896339384e-03,4.775147736072540283e-01
4.655260714099336283e-01,4.615350068688911511e-01,-1.542601923832936928e-02,1.116957230539083155e-02,1.265356305090310773e-02,-1.329209653938197809e-02,4.804123044013977051e-01
4.392284109877817588e-01,4.512778433092844432e-01,-1.658266638993793896e-02,1.341269794475148484e-02,7.544772567062161921e-03,-1.505075481136683956e-02,4.634557664394378662e-01
4.522316503302327706e-01,4.266091574856348823e-01,-1.937449541063857028e-02,3.929080576218242637e-02,8.776164666213613283e-03,-8.782307695674042292e-03,4.648428857326507568e-01
5.279062807137937519e-01,3.896264453568953900e-01,3.723817980535115701e-03,5.935697692732754688e-02,-3.603921144209454655e-03,-4.888238420265009904e-02,4.890622496604919434e-01
4.833434662013521566e-01,4.757672268972410468e-01,-1.786509498687377517e-02,-1.412057677629123802e-03,1.822403502427201406e-03,-2.555815987043959063e-03,4.974994361400604248e-01
7.289490680881258733e-01,2.352287229548956082e-01,1.210267667602554775e-02,-3.492401939183237269e-02,-1.331431224592299727e-02,-3.834371942785489568e-02,6.421124935150146484e-01
5.094336256505346272e-01,4.327971582883370916e-01,-2.135035647980454421e-02,3.138830161568278987e-02,1.742758037965532261e-02,-1.685976732047793011e-02,5.016442537307739258e-01
5.079796787014153603e-01,4.433115437341215159e-01,-1.290670798201687397e-02,6.915868844153127103e-03,-1.073777212241411230e-03,-2.664950713852123898e-02,4.940621256828308105e-01
5.039117980562813903e-01,4.495502896028528150e-01,-1.913799472833904725e-02,1.619141772453697864e-02,2.852843327803892843e-03,-8.532372772626702073e-03,4.991310238838195801e-01
4.955067038668952706e-01,4.434843960671956964e-01,-1.650049706500805735e-02,-1.588080947835215223e-03,6.044464220448872958e-03,-1.486978319929554634e-02,4.888787269592285156e-01
4.588667674254167106e-01,4.619431763516105849e-01,-1.849177805633783755e-02,5.714067700488966069e-03,1.609235548498328446e-03,1.131766142524682952e-04,4.790145754814147949e-01
4.780957226069031396e-01,4.757114140680072101e-01,-1.778363944037242295e-02,3.677698415765275584e-03,-6.961568406363989776e-03,5.151178113338315476e-03,4.949598610401153564e-01
4.803813235446626750e-01,4.775406605528708104e-01,-2.501558538617809635e-02,9.103592674021711685e-04,1.157176001489064183e-04,-1.287574261738138638e-03,5.039899945259094238e-01
4.895592807828129667e-01,4.602421877392680050e-01,-1.147141285521108278e-02,8.103695336024334395e-03,3.597146429249738035e-03,1.836682982060553609e-03,4.872868061065673828e-01
4.276049092907133753e-01,4.204726616699117625e-01,6.076373371659393730e-03,-5.096758436859177843e-02,-1.944652148628783078e-02,-3.174910199982926978e-02,4.320675134658813477e-01
4.465499197828314282e-01,4.192899420738024352e-01,-1.159711247000994039e-02,-6.100556065442400144e-02,-4.071793141756576556e-02,-2.975814985414964794e-02,4.657770395278930664e-01
4.354125430313861012e-01,4.557720129538143095e-01,-4.829595389349017331e-03,5.684476392536784266e-03,2.480277110200139728e-03,-5.097046844703360252e-03,4.509812295436859131e-01
4.684667912058267936e-01,4.666682480029992197e-01,-4.071216059487303696e-02,3.747827318025872146e-04,1.707010926244893843e-03,2.680516690087072097e-04,5.082913041114807129e-01
4.476516310060999482e-01,5.007317402584531285e-01,-3.251355841153186210e-02,-3.335838537861810643e-02,-3.134852752375564405e-02,-3.394948265069848425e-02,5.182736515998840332e-01
4.204192044995133104e-01,4.520674743158868969e-01,-2.167623315713829157e-02,-4.864717926200912146e-02,-3.758323063984105039e-02,-3.395129571704764287e-02,4.745911359786987305e-01
4.484152234169791473e-01,4.541169856118089099e-01,-2.983951590899286410e-02,-2.261120887987432687e-02,-1.938106011544760837e-02,-1.812902640511247082e-02,4.849058389663696289e-01
4.455752748084964576e-01,4.673979632118902550e-01,-2.930464789744197107e-02,-2.647127737570408035e-02,-1.895186736299326463e-02,-1.716937892606781174e-02,4.903207123279571533e-01
4.798720254131648710e-01,3.819197131926147515e-01,3.653436648003771658e-03,1.291979861803895478e-02,-3.587324272396478147e-05,-1.045811774849447198e-03,4.361606836318969727e-01
4.208845452061117376e-01,4.260376407929467035e-01,-1.423092959401184299e-03,-8.163150458868196138e-03,-3.894128288133182850e-03,-3.629519615262218665e-03,4.252427816390991211e-01
4.207721521785843244e-01,4.761567721762201000e-01,-2.857987434725234310e-02,-2.269184638094740719e-02,-1.943472669585185122e-02,-1.666459397596854047e-02,4.830971956253051758e-01
4.275184918950948321e-01,4.853926991784590639e-01,-2.475526769006369809e-02,-2.140800851580122732e-02,-1.742734967154419001e-02,-9.609343679771323657e-03,4.864555895328521729e-01
4.714323349014039599e-01,4.706990280830695150e-01,-2.972631264796410377e-02,-1.445080912358018277e-02,-1.492461359873218339e-02,-1.570492873089845975e-02,5.028197169303894043e-01
4.396200463416617965e-01,4.634599609051877067e-01,-2.685006835993086760e-02,-2.086749025535977395e-02,-1.771642665945248260e-02,-1.734759672790048626e-02,4.821141958236694336e-01
4.546047988189425570e-01,4.820953369947723610e-01,-3.418332417226638276e-02,-8.145923180944671799e-03,-1.900042137289528754e-02,-1.927251772909254965e-02,5.054730772972106934e-01
4.519077603607005167e-01,4.476246771141370040e-01,-2.144112756108612627e-02,-2.631876809990976035e-02,-1.291512931735610929e-02,-1.828437501126414094e-02,4.750068485736846924e-01
4.405627521799919122e-01,4.432857696498139211e-01,-2.357625550551517568e-02,-3.574916960915396763e-02,-2.371110522076490604e-02,-3.054893375977205117e-02,4.743592143058776855e-01
4.338339092662745755e-01,4.153672387230421537e-01,-1.993790796547412203e-02,-6.028559221920576361e-02,-2.312742286802281499e-02,-2.931213254423370787e-02,4.614710509777069092e-01
4.661095406869834035e-01,4.511185116557235864e-01,-2.918633553327343311e-02,-1.541711576975227267e-02,-2.027722030381723731e-02,-1.957799207809584816e-02,4.911356270313262939e-01
5.392166412433915257e-01,4.151462923859851051e-01,-2.808483349799328899e-04,1.060986701944960017e-02,-1.029907204000917982e-03,-1.500449465859400415e-02,4.904402494430541992e-01
5.627932905221791904e-01,4.314241212335896969e-01,7.538581526333831828e-02,4.746537593539830457e-02,-8.077285960805459519e-03,-1.226289663215009429e-01,4.928101003170013428e-01
5.352583318122386968e-01,4.549886347719983570e-01,9.151900818653857517e-03,2.535172294219138062e-02,1.971596235650361142e-02,-1.163082041624730577e-02,4.944703280925750732e-01
5.428528272221266882e-01,4.139212162095348146e-01,1.851179829652799258e-02,2.601824568168598778e-02,-1.295440649222809673e-02,-4.974493063873317023e-02,4.836431741714477539e-01
4.998038437164484815e-01,4.248444697797073566e-01,5.254912773299813544e-04,1.491326855995799006e-02,4.124869381729326726e-03,-1.710656906535970925e-02,4.680473804473876953e-01
4.972708354334315906e-01,4.627540913356835706e-01,-1.841010203610404794e-02,9.762682584924348497e-03,8.272559250790246718e-03,-7.752741488903105126e-03,4.999901652336120605e-01
4.967479036952350824e-01,4.657575719517259571e-01,2.762197727630089084e-03,1.139374703590015879e-02,2.461458207681466778e-03,-1.092994168494218141e-02,4.800411760807037354e-01
4.962066552505875472e-01,4.287045674647943505e-01,5.667000077573869365e-03,3.965898163342152644e-02,3.581452311054225505e-03,-1.065049842145316533e-02,4.660155773162841797e-01
4.748096894910127652e-01,4.407631275007729554e-01,-1.812071763520539669e-02,1.909784550305725775e-02,9.432844693064502614e-03,-1.051691026333178083e-02,4.785915911197662354e-01
5.045444804327460231e-01,4.429243340715841026e-01,-2.201042332955061021e-02,2.650997390326898656e-02,1.270897702141548027e-02,-1.769662658395617164e-02,5.021385550498962402e-01
4.726664913180517180e-01,4.643098486143729664e-01,-1.616753971966305992e-02,3.134152234209890142e-02,9.007650315053850054e-03,-3.421897659224022725e-03,4.880255460739135742e-01
4.505094953724528839e-01,4.211418778287293607e-01,-1.462734363523759962e-02,7.833308559888374489e-02,2.742569352554728723e-02,-2.323182710436064516e-02,4.752248525619506836e-01
4.972871134914401137e-01,4.348098775325909271e-01,9.194221967538718232e-03,-3.365894130262823232e-04,-7.923711168799510776e-03,-3.235719954753102368e-02,4.636518657207489014e-01
5.136738479733047313e-01,4.189577925641379541e-01,-1.049644296787610731e-03,1.617549141854477887e-02,2.587849564776166945e-03,-1.391641659057165498e-02,4.759672880172729492e-01
6.376664594873269198e-01,3.831024733827536055e-01,4.997301875161963558e-02,1.193652401337060368e-02,6.038970041052187099e-02,-8.093225682771812424e-02,5.399991869926452637e-01
5.242017460732204537e-01,4.188465740855478181e-01,-3.065752096087553946e-02,-7.907778139098283962e-03,-5.118140427167820403e-03,-7.467052883917950183e-03,5.108274221420288086e-01
5.520816846216564100e-01,4.539523337974309958e-01,-7.575301963370750791e-03,1.164294841126736237e-02,-1.757941284933399462e-02,-1.890597632345309212e-02,5.199351906776428223e-01
5.425842358589205716e-01,3.880020647201821160e-01,-3.008428972167964677e-03,-2.233539922098802186e-02,-1.401830874961716017e-02,-2.081368017886451455e-02,4.905240833759307861e-01
4.757441415316375766e-01,4.581074832718602385e-01,-2.410189898239761819e-02,-9.849574185430875345e-03,-8.358891919690634650e-03,-1.025775541753528620e-02,4.920953512191772461e-01
4.760909587359289930e-01,4.441405360976401484e-01,-3.073734964038565831e-02,-7.842176603194233458e-03,-5.054592413680350504e-03,-6.411588272244292397e-03,4.920232295989990234e-01
4.784180839687738884e-01,4.578514753334131937e-01,-2.423944188927029675e-02,-8.333258589939931613e-03,-2.890645260363093258e-02,-3.073902923660503869e-02,4.982964396476745605e-01
4.663855749485641411e-01,4.641759787499732393e-01,-3.011164871293720013e-02,-7.750471767077880478e-03,-1.119655301923673171e-02,-1.203132608548577315e-02,4.963948726654052734e-01
4.679483604319807366e-01,4.444277425926769221e-01,-3.115832043029909126e-02,-6.246034683575730877e-03,-1.148193326023465993e-02,-1.189551876478940097e-02,4.887314736843109131e-01
4.795085822654447938e-01,4.244343716069661765e-01,-2.620909697584927756e-02,-1.696581191744534964e-02,-1.527843437391799772e-02,-1.360068154189041437e-02,4.827528297901153564e-01
4.588195014412723705e-01,4.776576562638964463e-01,-3.417447549502117266e-02,-8.130752837014413714e-04,-4.065911679483840899e-03,-4.201562730413019829e-03,5.027818083763122559e-01
4.645435971853055235e-01,4.588399647099830059e-01,-3.127639740249510414e-02,-1.122784169398003025e-02,-6.051405496964375186e-03,-4.808904344337667884e-03,4.935579597949981689e-01
1.479018154408112129e-01,5.866559926985757123e-01,-3.060388645854555945e-02,7.919295600861071815e-02,3.419432220120927762e-02,1.746918784856114903e-02,5.709005594253540039e-01
4.487513696703795407e-01,4.387986554728248167e-01,-2.679176089552059992e-02,-3.139623333531084415e-02,-1.521733377938381745e-02,-1.635640314364645090e-02,4.753544330596923828e-01
4.954637767623710221e-01,4.479034997867929468e-01,-1.613665060578362009e-03,-5.518595159890384017e-02,-1.611430615256160756e-02,-2.009726815019394902e-02,4.866559505462646484e-01
4.948006139438266282e-01,4.473474645602855126e-01,-3.290249346600149227e-02,-3.865545728028489669e-02,-1.859670888494322286e-02,-4.079637611097657046e-02,5.159403681755065918e-01
5.020022410622356768e-01,4.551007159927206724e-01,-3.091068653007872369e-02,-9.167697569635337856e-03,-9.341509231848461881e-03,-1.239474663449197447e-02,5.120315551757812500e-01
4.940214463398496791e-01,4.196558057485917370e-01,-2.675604829079453184e-02,-2.121622223120562048e-02,-1.579592058155553785e-02,-3.659345756487074330e-02,4.940927624702453613e-01
4.863892528655824332e-01,4.245370984265897096e-01,-2.293288312457780753e-02,-1.871723323360569013e-02,-1.783396765394737807e-02,-1.261983532032573234e-02,4.839576482772827148e-01
2.832962206412539263e-01,5.875752844940049791e-01,-3.971722683973771817e-02,1.067592990028065764e-01,4.571333599198313703e-03,2.599738715063027518e-05,5.739904046058654785e-01
4.797622745146809531e-01,4.246046992760532657e-01,-2.737753500205825086e-02,-1.684636716865680478e-02,-1.222884495426908823e-02,-1.449415061223897558e-02,4.839326441287994385e-01
4.679525418292785899e-01,4.167495452173133885e-01,-1.917126094908583323e-02,-3.958218852494613943e-02,-3.322140139589359331e-02,-4.027684850969364544e-02,4.773332774639129639e-01
4.907272148797083844e-01,4.430862154782440054e-01,-2.093203616177347071e-02,-2.038360488937794937e-02,-2.276913872496675456e-02,-2.083987523046585202e-02,4.937545657157897949e-01
4.701002852732655279e-01,4.952018948894229000e-01,-2.901569649522589556e-02,-3.402600839072005001e-03,-6.375102757267065573e-03,5.364526918302779408e-04,5.122821331024169922e-01
4.566928528061346970e-01,4.952471013404935452e-01,-1.274631675145243559e-03,1.513276885106921163e-03,4.490715975477862056e-04,1.388196995796099620e-02,4.790228009223937988e-01
4.737957475974265975e-01,4.940380578133797274e-01,-1.584354625684375462e-02,-6.690172612464631401e-03,3.867770122551404677e-02,4.636645383355139302e-03,5.047320723533630371e-01
4.610462321130665009e-01,4.858929027873438722e-01,-2.657740461682656097e-02,8.408268469631820187e-04,3.808744805617643968e-03,-2.821047701702158864e-04,5.005555748939514160e-01
4.651446717601245284e-01,4.850157446797180860e-01,2.565549481311324431e-02,4.748882859420335521e-03,-5.288751696627959050e-04,-2.975266031992401198e-03,4.498597085475921631e-01
4.685065180601130086e-01,4.898613227326392705e-01,-2.523137582871964879e-02,1.571974556770744033e-02,-1.064120935180080420e-02,6.939067213325592585e-03,5.059667229652404785e-01
4.637781700879919367e-01,4.912611047563492095e-01,-1.548868519658180842e-02,1.740765241285597772e-02,-7.381480025113535542e-03,1.193982773739930316e-03,4.946721196174621582e-01
4.498265875540558567e-01,4.759026506823916813e-01,1.288446859181607840e-02,3.329987063450120383e-02,-2.482644970827321135e-02,2.078595910317567602e-02,4.576723575592041016e-01
4.691991144683789750e-01,4.772867923178698568e-01,-2.029744104479669353e-02,4.777223351077985840e-03,-2.980083978921636151e-03,-4.115944651771960040e-03,4.937379062175750732e-01
4.648765441854733060e-01,4.794584757991077195e-01,-1.946723388353954753e-02,8.146133532883535755e-03,-5.648606044364380685e-03,1.094749533467756671e-02,4.924617111682891846e-01
4.721903107192270133e-01,4.992699212436329526e-01,-2.167935718708208226e-02,1.364948957994307002e-02,-3.697087571672754217e-03,2.401923812471615412e-03,5.085583329200744629e-01
4.657147662048861658e-01,4.816959755602038262e-01,-1.714508167872874633e-02,5.490123270170845296e-03,-3.030817264473090449e-03,-5.192987584267628673e-04,4.911664724349975586e-01
4.527113275247246493e-01,4.910636235644377789e-01,-5.393218483878303715e-03,-1.628572619313772840e-02,-9.363999019387338543e-03,-2.329067617160708158e-03,4.795571267604827881e-01
4.501909103404013734e-01,4.771481540275878674e-01,-1.612545696287975838e-02,-1.445035062882374897e-02,-2.922953008710555117e-03,-4.435568226252981604e-03,4.811022281646728516e-01
4.730324437891324507e-01,4.851268846600020890e-01,-2.571558729372036556e-03,3.082521864004720159e-03,-1.173571633223588657e-02,-1.145608331569425951e-02,4.826313555240631104e-01
4.631399302888414282e-01,4.991802634338464717e-01,-2.275217715718258482e-02,-5.520166666759748937e-03,-2.216675896051612665e-02,-2.009457319517324314e-02,5.076205730438232422e-01
4.617626427639268671e-01,4.756875995326210749e-01,-2.551313629409107664e-02,-2.597951068365694002e-03,-1.154632630622699774e-02,-1.290702597160217451e-02,4.953148961067199707e-01
5.300477825052917202e-01,3.506690137359153026e-01,-2.225776376263505218e-02,3.764574785320905660e-03,9.679936753166371380e-03,-4.494758932637033660e-02,4.945004880428314209e-01
5.333409516560141395e-01,3.151647305128409959e-01,-1.242513159849251148e-02,-7.240147583545034722e-04,5.355485501418649763e-03,-3.289639450935340909e-02,4.792936742305755615e-01
5.045811966900319856e-01,3.744932284917165122e-01,-2.079099805064382744e-02,-7.536077840874653294e-03,-5.210490070241477478e-03,-2.104932338650898974e-02,4.755788743495941162e-01
5.189754230092068488e-01,4.060607644303496633e-01,-1.768475119955997821e-02,-2.702466414136676931e-02,-1.706733512492273827e-02,-1.048969394196358138e-02,4.935099184513092041e-01
5.048007315894487146e-01,4.029026502691909761e-01,-2.702384197423746137e-02,-1.809586135736115584e-02,-8.137335565493303540e-04,-2.326990884109108107e-02,4.915663897991180420e-01
4.524566493819518476e-01,4.523767048605022989e-01,-1.760012152893503101e-02,-3.705052506672607687e-02,-2.104309360848025459e-02,-2.982432452507305723e-02,4.785717427730560303e-01
4.184538904299306417e-01,4.458745013665469381e-01,-1.205239887193382264e-02,-4.862298713572961451e-02,-2.656869804234805038e-02,-2.382034591766289330e-02,4.569516479969024658e-01
3.935593512619668943e-01,4.297494486149597837e-01,-5.696006598967240375e-03,-4.475452355676916294e-02,-1.098164757855275148e-02,-1.340091403065287422e-02,4.267002344131469727e-01
4.407905835901447245e-01,4.460572126312774000e-01,-9.346596721080235870e-03,-4.231194559951325512e-02,-2.836600613751930761e-02,-1.956050145438061744e-02,4.625522196292877197e-01
4.312483726858412636e-01,4.724363845413027674e-01,-2.952462700400798612e-02,-1.255491903161078983e-02,-1.628313925298748716e-02,-1.899176721401919440e-02,4.851153492927551270e-01
4.103906650306697323e-01,4.775971246423289518e-01,-2.046180986286127990e-02,-2.443229068033490534e-02,-1.381107814809583861e-02,-1.204812929541040044e-02,4.710680842399597168e-01
3.899098282174831565e-01,4.743621046045116696e-01,-1.605884882743402464e-02,-3.672064478380675234e-02,-3.424006420098923975e-02,-3.138767726770162053e-02,4.655595123767852783e-01
4.954059790841352506e-01,4.579850681801022616e-01,-2.368637435969200844e-02,-2.192123932026326244e-02,9.142256155989092817e-03,1.999323430671417351e-02,5.043053030967712402e-01
4.822652071828266163e-01,4.632854997254264862e-01,-4.241395165398892386e-02,-1.857044876932529079e-02,2.569488192487145994e-02,2.642548444782375286e-02,5.203848481178283691e-01
4.659047981484426004e-01,4.632064623687519589e-01,-2.941056359048027646e-02,-1.159541968996650844e-02,2.714625637822483742e-02,2.106383483005878562e-02,4.979490339756011963e-01
4.720810611477697649e-01,4.167632524270798999e-01,-1.838199279786700835e-02,-2.618906293957592307e-02,3.055780222803311172e-02,3.107879221260359537e-02,4.735391736030578613e-01
5.308080636807163133e-01,4.148032579959070598e-01,-3.112703023952878567e-02,-4.117962619943356384e-02,4.009922234453673628e-02,4.494924514927625681e-02,5.291629433631896973e-01
5.063420890059726620e-01,4.047432016299515878e-01,-1.501010740699959545e-02,-1.601560548351502189e-02,1.635776780835393809e-02,1.274870799175968801e-02,4.808549284934997559e-01
4.593625036688255836e-01,4.789544211237153348e-01,-2.656972636874860294e-02,3.532167726709477002e-03,-2.311522083633721792e-03,3.472214590368115882e-03,4.961088001728057861e-01
4.700488608893830800e-01,4.785298974613635958e-01,-2.578129487811575693e-02,5.462794027781667575e-03,-3.381405251237923348e-03,3.425553621334896312e-03,5.002835988998413086e-01
4.391576254926685685e-01,4.773694831847028475e-01,-2.521539434279307379e-02,1.146432821448688071e-02,-1.611912871658269242e-02,8.500801891235643115e-03,4.860427677631378174e-01
4.713864462567105007e-01,4.775908759948367388e-01,-2.333366713345325083e-02,2.121988266486797906e-02,-1.469073753992167913e-02,8.439677503298480613e-03,5.000679492950439453e-01
4.656731771387817576e-01,4.490343988805690634e-01,-1.859127851269593013e-02,1.383470948141299339e-02,-1.062771826251575000e-02,1.046595479331600964e-02,4.774651825428009033e-01
4.555424894046038453e-01,4.559501429794453609e-01,-2.223207099049423485e-02,1.109057056027555263e-02,-1.210362534478787340e-02,1.070323842102327561e-02,4.791822731494903564e-01
4.881990992964401754e-01,4.542741168313825240e-01,-2.274312681694318217e-02,7.626158805255201997e-03,4.833355176104802732e-03,-2.131213823895281717e-03,4.951134622097015381e-01
4.943680129351682995e-01,4.509066585682385830e-01,1.153227102829834649e-03,3.038092508782997119e-03,-5.334982258524295987e-03,-7.516447064238193643e-03,4.732826948165893555e-01
4.917446019663074264e-01,4.624870183363010145e-01,-2.116298130083077433e-02,-4.003470519959364052e-03,3.027403045880821836e-03,1.056090665442223331e-04,4.989983737468719482e-01
4.825096998598261688e-01,4.518148562565353354e-01,-2.037930761728518059e-02,1.403543636106406416e-03,4.111611918364592964e-03,4.769447234722431930e-04,4.883244037628173828e-01
4.885264670537907694e-01,4.534881314041923628e-01,-2.097889992345375321e-02,2.825875868230435291e-03,7.033323267143856694e-03,-3.751341415941951939e-03,4.931386709213256836e-01
4.935655494485652328e-01,4.523520770718677531e-01,-2.087510429656047606e-02,2.548277874626404555e-03,4.677650181710391736e-03,-1.395167485669938402e-02,4.957972466945648193e-01
4.822844308972907279e-01,4.528921923073925271e-01,-2.517363287980117770e-02,7.738705171324493891e-03,-1.938530763583203118e-03,2.245063163461651599e-03,4.936277270317077637e-01
3.783408987195420181e-01,4.239872198295475125e-01,-1.446976114604620056e-02,-1.089368210239079482e-01,-1.690906641501909238e-02,-1.731219229148764013e-02,4.600790739059448242e-01
4.747481555584255886e-01,4.799979677418590440e-01,4.571136988242013866e-02,8.806056881377225475e-05,-7.562820926532981027e-03,-1.148128734763073124e-02,4.323419332504272461e-01
3.915620090991559499e-01,4.605832694501594826e-01,-4.987018003770105068e-03,-4.804393032559449439e-02,-1.048597864388419072e-02,-9.032482918862713012e-03,4.437168836593627930e-01
4.165525872519822981e-01,3.867212159576478570e-01,-6.947395726677241257e-03,-9.839564499504982464e-02,-1.847209683110333234e-02,-2.057495195096754534e-02,4.460350871086120605e-01
3.700642409659056775e-01,4.174930749888201564e-01,-6.977793536585119583e-03,-1.050750850583758028e-01,-3.158546339923731794e-02,-2.829814782161128861e-02,4.481188058853149414e-01
4.177008683516658105e-01,4.454729451397936857e-01,-1.080359577798961634e-02,-6.045938357395570090e-02,-2.847290596067500804e-02,-2.004462826833345798e-02,4.592290520668029785e-01
3.879191874241675331e-01,4.540246421854481351e-01,-5.073392289918599030e-03,-5.938820125952951057e-02,-2.428000670692583365e-02,-1.350417919450105919e-02,4.446218311786651611e-01
4.252548992636259184e-01,4.336349266881645570e-01,-5.991632247770550812e-03,-6.832557605701382319e-02,-2.460116483027226589e-02,-2.536320647711262644e-02,4.554210603237152100e-01
4.551615495437337788e-01,4.930646483380506373e-01,-2.451488799771583960e-03,3.230563936057360627e-03,1.104639862729395010e-03,3.922431604175181767e-03,4.777786135673522949e-01
4.595569911109460559e-01,4.826328951399404543e-01,-1.711719842349718190e-02,-1.876579822940771048e-03,-9.667643219946545421e-03,-2.088258107510585024e-03,4.889320135116577148e-01
4.488838203280179906e-01,4.970969206894995107e-01,-1.173768378169898208e-02,-4.959094961476783435e-03,-1.214386494217033034e-02,2.859010968768071342e-03,4.870784282684326172e-01
4.524862779411407132e-01,4.889566259785581570e-01,-6.381815747621089052e-03,-5.627339124496145463e-03,-8.252223202387158618e-03,-6.748771835597068731e-03,4.786032140254974365e-01
4.509983685644509133e-01,4.931113121493744256e-01,-2.895639965418617123e-02,2.445731542177751947e-03,1.455020340740727312e-03,-6.601753749192294926e-04,5.023624300956726074e-01
4.526605891949756488e-01,4.890831797184873042e-01,-3.036725381102145516e-02,-1.176652519457157446e-03,-9.067895554870876104e-03,-4.832686222921048907e-03,5.025500059127807617e-01
4.511982172604750985e-01,4.876855946510972317e-01,-2.362280647676978651e-02,-2.761684499774681202e-03,-4.971809467061514241e-03,5.554351365000912430e-04,4.941753447055816650e-01
4.584716714553167538e-01,4.513830912604369638e-01,-3.358493367015435993e-02,3.311348863160931276e-04,-7.715635684042220638e-03,-6.818190532351484524e-04,4.887354075908660889e-01
4.206820785542591534e-01,4.965597855276943084e-01,-1.358550063324776014e-02,5.200369544646710369e-03,-1.077947731563046879e-02,7.588299672221437107e-03,4.773881733417510986e-01
4.433637394493973316e-01,4.941031098629466989e-01,-2.682835170770958566e-02,2.233479805464737029e-03,-1.179908722359353408e-02,2.871071087144012272e-03,4.979655444622039795e-01
4.156955349745877770e-01,4.923597603856880722e-01,-2.226391822054651914e-02,-3.118932175073629246e-03,-2.400891393569347040e-02,-1.017277938855001840e-02,4.830431044101715088e-01
5.310674553003629228e-01,3.637315231679545402e-01,-2.470389510832399216e-02,2.900513127712889619e-02,3.008973374666742799e-03,-2.412499587383193714e-02,4.981763660907745361e-01
4.903236163574076212e-01,4.921761447361694408e-01,4.911715885561496187e-03,6.096587209074100927e-02,-2.028181855058203142e-02,-8.330576278045589284e-03,4.991193711757659912e-01
4.403347246824443895e-01,4.986509186124198911e-01,-2.261224145963636190e-02,4.882995239471935034e-02,-2.478542430675508695e-02,1.423256845189950839e-02,5.043032169342041016e-01
4.741528659920183908e-01,4.195072799227219651e-01,-2.284349039847571872e-02,5.987723887042110255e-02,-1.683095533003381439e-02,3.845424313929450555e-02,4.887481331825256348e-01
4.494547134896686447e-01,5.075325701528120570e-01,-2.470378400732692326e-02,3.931623759754811209e-02,-2.845805595139516524e-03,3.103640290187276163e-02,5.131167769432067871e-01
4.773987643031761818e-01,4.821768835633916117e-01,-1.036245990169798459e-02,1.292176340771674162e-02,-1.225164539274498261e-02,1.749188019973593397e-02,4.920706748962402344e-01
4.883873755119721993e-01,4.850210663662753996e-01,-2.185008907983226889e-02,2.408243933166508838e-02,-1.400432982690388330e-02,6.865136962574263334e-03,5.109849572181701660e-01
4.829995536809609247e-01,4.683996541587656104e-01,-3.214273289648805765e-02,3.342187327688523474e-02,-1.258521274998231423e-02,2.248124717435805858e-02,5.132310986518859863e-01
4.754168648368697347e-01,4.712439992256144405e-01,-3.077249225153971812e-02,-9.238184565499525441e-04,1.027963690333779951e-03,-1.360436038670934751e-03,5.041270852088928223e-01
4.427426419812601210e-01,4.766166592987639006e-01,-1.291947850291347288e-02,4.597837161552024987e-02,-2.124607675924611999e-02,2.914651395529380823e-03,4.815934300422668457e-01
4.595872406068862159e-01,4.645980926161982771e-01,-3.415768856655371222e-02,1.874878827235378423e-02,-1.003091335498671778e-02,2.421456871441592801e-02,4.993983209133148193e-01
4.587990414650570115e-01,4.814904768977609217e-01,-2.624554164858222682e-02,1.053798549955400551e-02,-4.759278148263122732e-03,1.049537023079702772e-02,4.975149035453796387e-01
4.723156860436472648e-01,4.729547812656971217e-01,-2.491549063910925010e-02,3.123869647926393999e-03,5.590147701288674872e-03,-8.854595553772368066e-03,4.979108870029449463e-01
4.706228256576267532e-01,4.497276122294436296e-01,-2.442540067581239205e-02,7.876036368845210772e-03,8.083949497063038295e-03,-8.451021196878308328e-03,4.855529069900512695e-01
4.715356587239969421e-01,4.642868888484535939e-01,-2.855984082516088707e-02,2.625031786549964809e-03,4.720129603969036667e-04,-3.129806955201886939e-03,4.965618848800659180e-01
3.995763151695950754e-01,4.828408640851745703e-01,-4.485186071362390337e-04,9.195255148488687760e-03,7.277833881177152612e-05,-1.611404475852073765e-03,4.477970600128173828e-01
4.585392190117139055e-01,4.881798591395287712e-01,-1.911196899096068158e-02,1.228568499782291441e-02,-1.184818667206854158e-02,-1.962416316074250353e-03,4.940370619297027588e-01
5.253286711205590320e-01,3.950765385668556506e-01,-2.788755781253782207e-02,4.895518128679741954e-03,2.382782760103670933e-03,-1.363295782894786805e-02,5.016001462936401367e-01
5.047590162484097975e-01,3.595568517488568760e-01,-2.716468766554902547e-02,-2.207930534976136894e-01,-5.540471341961877849e-02,-3.092360827100450182e-02,6.205776333808898926e-01
4.409875657938456817e-01,4.774372544674221341e-01,-2.381505688760943151e-02,1.627948562542314362e-02,-1.451449552948230921e-02,1.116065582113527632e-02,4.859143197536468506e-01
4.576401222444625994e-01,4.823836115221029619e-01,-2.858970562428569950e-02,-4.760900337421392135e-04,1.407474495492734437e-03,3.930272332548926176e-03,4.991149008274078369e-01
4.512320754229027786e-01,4.845292732929670221e-01,-2.650725838614920171e-02,-2.165542561195837098e-03,-3.358179805600979787e-03,6.131954570816935610e-03,4.953904151916503906e-01
4.628509985302737273e-01,4.891697231762939801e-01,-3.578093669415471911e-03,1.079044559502432415e-02,5.231675711925804634e-03,5.066882064390793028e-03,4.806589484214782715e-01
3.259969820892972270e-01,5.918660031097833230e-01,1.493183680738113805e-02,-5.053597781171354983e-03,4.038091541934715062e-02,-1.849730708644684724e-02,5.061080455780029297e-01
6.288866179979584192e-01,2.183846028415011575e-01,1.284470179730268224e-03,-1.792574365357356078e-02,1.733208558835862756e-03,1.145424526425142461e-02,5.532910823822021484e-01
4.840570767314400502e-01,4.879913619231762700e-01,1.507180051028733647e-03,9.989007373610150897e-03,1.557273842466847663e-02,4.903332831854360398e-03,4.856617748737335205e-01
3.617644436021291710e-01,6.022590792408595295e-01,1.605299252223219009e-02,-4.928821671070143795e-02,4.137629237343149607e-02,-2.822968239740913238e-02,5.247004628181457520e-01
4.537391507084645448e-01,5.549860320209288878e-01,4.238801751120829797e-02,2.434479004362362711e-02,-6.257509688059706724e-04,-1.498590026349202499e-02,4.728230237960815430e-01
4.873758032420907327e-01,4.859026870344820281e-01,6.390554787568725192e-03,-1.739799755733151395e-03,-3.812009966453176486e-03,6.019433112722244981e-03,4.804183542728424072e-01
3.669225374929827588e-01,4.473467658447496387e-01,3.701663096585261492e-03,-1.530048104182248347e-01,1.562812727405184232e-02,1.860570622602813334e-02,4.895016551017761230e-01
4.549721434316386648e-01,4.902870656040436703e-01,-5.030354124749170097e-03,-8.656911957007212832e-03,-2.276212449148895273e-03,-1.085177021184717885e-02,4.792578220367431641e-01
4.926479385507275266e-01,4.482771791406919837e-01,-3.184813993987062331e-02,-5.505946192699627366e-03,-7.217237211153156203e-03,-8.698192209122953752e-03,5.042487382888793945e-01
4.780595317398111388e-01,4.804430846895249019e-01,1.402919943107566736e-02,4.377545507233637084e-03,8.528383250344660424e-03,-2.852053855952139689e-03,4.655491113662719727e-01
4.797730222100567987e-01,4.689455657419056012e-01,-9.536669234449957067e-03,2.053566375406832949e-03,-3.253650082761060016e-03,1.258812451653592288e-04,4.840327203273773193e-01
4.823291012376101916e-01,4.746891833411404082e-01,7.065904605694783847e-03,1.494175535217374907e-03,-4.833723722984023183e-03,-8.360376886822657935e-03,4.717933833599090576e-01
4.837060020820393436e-01,4.765519588857419775e-01,1.275340631196419938e-02,6.481902900354013022e-03,-8.050837856888517097e-04,-9.512769279648385090e-03,4.678437709808349609e-01
5.019643808491014436e-01,4.599236493254537095e-01,3.556312121001203863e-02,1.720492470481919597e-02,5.710491483400328278e-03,1.243471779520060466e-02,4.484857022762298584e-01
5.049018787528800623e-01,4.165145177350823569e-01,-2.416719197348987658e-02,2.156257509589137346e-03,5.079788802218203336e-03,3.675201559808140717e-03,4.910145401954650879e-01
4.801968795384297661e-01,4.727392610828006214e-01,2.704116735530015525e-02,3.972975374660299430e-03,-4.908143772422193275e-03,1.653495581666171790e-02,4.505175948143005371e-01
4.795354579585491273e-01,4.831541989725064989e-01,2.750452391851693212e-02,4.351717782491845363e-03,-3.198793038079498878e-03,1.044431363810964693e-02,4.543078243732452393e-01
4.718353284281026627e-01,4.827210904735375618e-01,2.632048806766218441e-02,1.344703957971640209e-03,-1.211053686946730450e-04,1.120223534575826192e-02,4.514794349670410156e-01
4.368440234021384039e-01,4.053666007238813096e-01,7.430933350453305941e-03,-7.112154967416689164e-03,-1.938139444396764577e-03,-2.865523465981192897e-03,4.147978723049163818e-01
4.240998151380012682e-01,4.111279138576087178e-01,7.111337003033124660e-03,-9.914223350995576139e-03,-2.760538854480459360e-03,-2.524936235384919216e-03,4.110661745071411133e-01
4.811387301969908270e-01,4.628780404664898374e-01,-3.173487629611049243e-02,-4.425373188469899568e-05,-2.452430587928745419e-03,-2.651165663701369937e-03,5.040302276611328125e-01
4.144895571731816997e-01,3.753652921294933220e-01,9.387983869236005141e-03,-6.773453284288920295e-02,1.055855295085318451e-03,3.937281402766864939e-03,4.044779837131500244e-01
4.326159323351247421e-01,3.869897311786313354e-01,8.455261618932286005e-03,-2.281851873718433732e-02,-1.652443103691274935e-03,-9.037985093126964589e-03,4.055323600769042969e-01
4.498795551844647078e-01,4.196089795763769392e-01,-1.495984657773236082e-02,-2.683198986671029088e-02,-1.604629084839113637e-02,-1.599974852765972955e-02,4.545561671257019043e-01
4.249339391649172848e-01,4.240864839666921293e-01,7.080227030312857828e-03,-1.506233346657911455e-02,-2.802736343504334034e-03,-1.063380181729187959e-03,4.182773232460021973e-01
4.440288997553010208e-01,4.212601834760326125e-01,-1.421824826452799950e-02,-2.664717713624803128e-02,-1.969397878702340565e-02,-1.798233322601485579e-02,4.520387351512908936e-01
3.797043325670272362e-01,4.153387451833694399e-01,8.569960003572907326e-03,-6.863469995287990733e-02,-1.264372820302133577e-02,-7.959989722043378860e-03,4.087022542953491211e-01
4.229782515504931784e-01,4.667528419255962957e-01,-1.947950195448122646e-02,5.644300749299459297e-02,-1.236274168955678321e-02,7.845804700347900826e-03,4.767117500305175781e-01
4.208456741008966828e-01,4.661121828208649731e-01,-2.698052200371836573e-02,6.572686864368104676e-02,-1.617925996043377904e-02,2.457943945460073706e-02,4.882895648479461670e-01
3.933936014402178438e-01,4.983352070862128724e-01,-2.586817491427861881e-02,9.914870570458252097e-02,-1.136680440877745057e-02,5.549111702500327675e-03,5.106491446495056152e-01
4.387590978071509440e-01,4.380915032864012293e-01,-1.594071230593652189e-02,-3.053240822151968500e-02,2.902083292827441902e-02,2.788405874939119816e-02,4.627144634723663330e-01
3.946012544021295643e-01,4.435368610701593828e-01,-1.542327901606832530e-02,-5.903451679075902292e-02,2.424604078220186573e-02,2.749166348628599363e-02,4.528419375419616699e-01
3.824898925170310271e-01,5.048531195895787915e-01,-1.338517442717529482e-02,-8.563586656766813965e-02,1.592989008606508772e-02,3.571432069163973932e-02,4.967078566551208496e-01
4.735601802524574411e-01,4.818023418400615432e-01,3.061675305272931746e-02,2.423633269642352841e-03,5.928775043153504485e-04,5.117806614398332475e-03,4.472302198410034180e-01
4.161234830983726596e-01,4.366890118348852323e-01,3.072477978550647304e-03,-6.811093680709200127e-02,1.289268315995880688e-02,1.323154485458543153e-02,4.409873783588409424e-01
3.935404944740503730e-01,4.043995450635917699e-01,-1.456245020980412308e-02,-9.910598097942431572e-02,4.486719377662677644e-02,5.292550276235118839e-02,4.636874496936798096e-01
3.233615778118603679e-01,4.250034455484933416e-01,2.277670003150017441e-03,-1.187656149266243244e-01,1.985757573505085929e-02,1.565257825417643370e-02,4.362285137176513672e-01
3.698229331860546920e-01,4.771827339880876373e-01,7.212300504253643663e-03,-6.202291427429047072e-02,2.181040848328487033e-02,1.780328174097210725e-02,4.425617158412933350e-01
4.939143015594297248e-01,4.502155415089024171e-01,-1.932811889875551969e-02,3.066975166906210637e-03,-1.078855009236401883e-03,-8.302821413478009803e-04,4.928824305534362793e-01
5.066582198453146724e-01,3.933679358319923658e-01,-2.319241083599449249e-02,8.475905532183696141e-04,4.126065646614622030e-03,-1.062266714464246177e-02,4.836746752262115479e-01
4.992589315367360614e-01,4.122517903648090787e-01,-2.182439454983764460e-02,-5.207144640204121842e-03,2.191741155718016261e-03,-1.753408285440034159e-02,4.845391511917114258e-01
4.961241348149064700e-01,4.564218130276883612e-01,6.584713734783032013e-03,1.103773005722675187e-04,-8.980826664149128835e-03,-1.508450814473452466e-02,4.719257354736328125e-01
5.093367535747609365e-01,4.381209569773396595e-01,-1.013062829401267795e-02,-1.440353671820651660e-02,1.971600870300654895e-03,-2.607069699802854607e-02,4.905067384243011475e-01
4.874443248432559495e-01,4.693750155550492353e-01,-2.223251063173559139e-02,1.317685473006128052e-03,-4.270933591423581310e-03,-1.267772656422683740e-02,5.014275312423706055e-01
4.562605069888371334e-01,4.663088214341959414e-01,-2.537669878541709556e-02,2.522854804540609636e-03,6.684472666554005897e-03,-8.832289551618504458e-03,4.871367216110229492e-01
4.929326615033184922e-01,4.497362510676288228e-01,-2.676665165890351750e-02,-7.547515054567221701e-04,-3.135410789831009556e-03,-1.010285303728138823e-02,4.998415410518646240e-01
4.948745131071704551e-01,4.274140480792893992e-01,-2.693974865159942667e-02,-1.099486288204317049e-02,-1.480832224699626422e-02,-1.872073825805017910e-02,4.936710596084594727e-01
4.982530917868117082e-01,4.461846017157233280e-01,-2.097182759972032740e-02,3.703525021418076994e-03,-1.791405307572572700e-03,1.611233678620377667e-03,4.953069388866424561e-01
4.996449905483498766e-01,4.886410638985698718e-01,1.296749738416991260e-02,1.828960658244257326e-02,1.969483807322877991e-02,-2.247359270440196094e-02,4.850804805755615234e-01
5.098585530189526649e-01,4.566372679134166335e-01,3.819890975054768267e-02,1.688065281017243208e-02,2.706282807389244829e-03,-3.939220015734950023e-03,4.484600126743316650e-01
4.970032994340159438e-01,4.581226358854807446e-01,3.831716831230908005e-02,1.208374020765836006e-02,-2.011966587975874601e-03,1.781868709006488756e-03,4.410559833049774170e-01
5.189294545065703534e-01,4.695689211891998505e-01,8.092072163910940530e-02,1.183727729565627745e-02,5.038593281043807215e-03,-4.460142994336888794e-02,4.232400655746459961e-01
5.133045716784510049e-01,4.672756035746617465e-01,7.989171991233001702e-02,1.637408033581047237e-02,3.179928998547785525e-03,-4.294024158706534477e-02,4.199786782264709473e-01
5.335364833197100420e-01,4.349273669600765557e-01,1.203451900753138570e-02,3.198530624605025463e-02,-1.611558905151494470e-02,-1.464028012232911589e-02,4.845147430896759033e-01
4.181823913689038941e-01,5.053267970917745266e-01,-3.192728523651933159e-02,7.296863412607515974e-05,1.307009788757687065e-02,5.118106351801644111e-03,5.000084638595581055e-01
3.641252763260601211e-01,5.384215087170814984e-01,-1.422708658016341721e-02,5.080109613740914180e-03,2.494022215873553661e-02,3.903713323228002584e-03,4.913901388645172119e-01
3.743868208008135912e-01,5.431480719313502847e-01,-1.591693373030939052e-02,-2.694359128528411862e-02,2.051959912302473918e-02,8.445979710931247192e-03,5.003404617309570312e-01
4.087871110959785392e-01,5.495211842078937536e-01,-1.654277848746765756e-02,2.717938293719363019e-02,1.723198215464785341e-02,-6.869441540523052100e-03,5.136327147483825684e-01
4.526442912396828611e-01,5.059303464894578939e-01,-3.177696470730390077e-02,1.045610450712721948e-02,6.661207773624832316e-03,3.025464293470848595e-03,5.136193633079528809e-01
4.844800783973843838e-01,4.606535492499752582e-01,1.300314135850189068e-03,4.632102086603751001e-03,4.837744542800323511e-03,2.151543029363259772e-03,4.718753695487976074e-01
5.116751735806124302e-01,3.273862851418566922e-01,-7.035264883033687244e-03,-7.340871428097490992e-02,-1.736462972937327653e-02,-3.443972597686192211e-02,4.775559902191162109e-01
5.104080760080944579e-01,2.966737565010807987e-01,-1.077697747801936723e-02,-9.816472385552524327e-02,-8.951574320171689844e-03,-2.680487441567423051e-02,4.870584309101104736e-01
5.050976139667733289e-01,3.108451274877085391e-01,-4.956742543572256743e-03,-6.151093290383530254e-02,-2.053761644228332614e-02,-3.089987738409943896e-02,4.629154503345489502e-01
5.321338987043332525e-01,2.715912102055034749e-01,-1.923669305989506029e-02,-1.002757865925704150e-01,-8.711814343109544265e-03,-4.037360588261168504e-02,5.133419036865234375e-01
4.824780334623579581e-01,4.886360214570715788e-01,2.607188586945086151e-03,9.145134252639677830e-02,-3.224918070518406621e-02,-2.404088250172602224e-03,5.113672018051147461e-01
5.086153543240135022e-01,3.943871818410265018e-01,-8.942355492533193839e-03,3.783205753016728734e-02,-1.651663528298967986e-03,2.294655011688105303e-02,4.771540462970733643e-01
4.779608409678625103e-01,3.811111680016321390e-01,-2.290716634278283648e-02,6.073631703871361365e-02,-1.531275735096211676e-02,3.704098673402089065e-02,4.771016240119934082e-01
5.020054000811046135e-01,4.325455633996304616e-01,-1.223074769538085027e-02,1.460773387754986906e-02,-1.644832056967333173e-02,1.149067252968590316e-02,4.851727783679962158e-01
4.678557207246074046e-01,4.830410147316703817e-01,3.053653826891850054e-02,5.461232644182415635e-03,-5.393143811143309187e-03,-1.245006117719330268e-03,4.453098475933074951e-01
4.815301758573752311e-01,4.963596138740323238e-01,3.349463611880054703e-02,2.677234580340019654e-03,-1.631394154106628400e-02,-6.470318149666465211e-06,4.565301835536956787e-01
4.519683613294148694e-01,4.916041312225352122e-01,1.751447332019651082e-03,2.797124669797325727e-02,-1.744155250280350275e-02,1.569564296810709025e-02,4.755100607872009277e-01
4.441803708037441178e-01,5.609387202865969702e-01,2.303011128905935179e-02,3.340116096813840196e-02,-1.945075119629827501e-02,-1.801724046477919464e-02,4.956093430519104004e-01
4.734213918103357122e-01,5.077401317119691893e-01,4.483181184747664361e-02,2.778352842425814082e-02,2.887854626625409576e-03,-1.922995311549708167e-02,4.505836367607116699e-01
4.833832514612360076e-01,4.650104182461641811e-01,-6.278254106261149659e-03,1.460310680379640468e-03,3.575601047988548765e-03,3.382379545493068712e-03,4.808207154273986816e-01
4.713555591322873273e-01,4.844927294168102638e-01,2.855651085648286402e-02,9.744995983467692052e-03,-6.938062053273078272e-04,-1.445777416982616664e-02,4.505265057086944580e-01
4.923711716436638408e-01,4.515801162615068476e-01,-2.541971625641542554e-02,9.683061039535501360e-04,-5.552935098325458181e-03,-1.180710676917084805e-02,4.991629123687744141e-01
4.861991714339310988e-01,4.620437850054506246e-01,-2.482792993222837641e-02,-2.387805929876153296e-03,-8.246461432540353213e-04,-2.075565257900112426e-03,4.994198679924011230e-01
4.878454317207569502e-01,4.567252796535524184e-01,-2.919407789083822147e-02,1.090927584825283469e-03,7.869953622479725812e-04,-3.350687049481653780e-03,5.022420287132263184e-01
4.882165849295169169e-01,4.507697073469574822e-01,-2.951463181931129887e-02,-1.159875594434215057e-05,2.981736536238252175e-03,2.799934858383956813e-03,5.001106262207031250e-01
4.842710363305624544e-01,4.312848097046985130e-01,-2.075646024162125514e-02,1.950389437375209256e-02,9.236113843793133243e-03,-1.765408042501498409e-02,4.831489622592926025e-01
4.893576344714634097e-01,4.406713927425440769e-01,-2.753117294739082510e-02,2.125558539894088252e-03,6.702936420433909526e-03,-1.317635729414839453e-02,4.950234293937683105e-01
4.796898174822724625e-01,4.667016204347081976e-01,-8.543362310461821707e-03,-4.479475382167250795e-05,1.339545053369290252e-03,1.978806302252211595e-03,4.818881452083587646e-01
4.858888915717957113e-01,4.460750322132082113e-01,5.617431061737676590e-03,-1.046238719241246971e-03,-2.008430340202398330e-04,-3.392297739024987754e-03,4.616950154304504395e-01
5.245216372884549116e-01,4.231119434747359631e-01,-2.385664184560692958e-02,1.124270934356600554e-02,-2.070508622939960883e-03,-9.578724682515185260e-03,5.060228109359741211e-01
5.007886435856164775e-01,4.110853864696172311e-01,-1.723432434890775911e-02,-2.163047697995087320e-04,-2.238334829185051594e-03,-2.390789856868209828e-02,4.813066124916076660e-01
4.569370095707325219e-01,4.540815031907335930e-01,-3.309400201392487251e-02,2.032162384366273302e-03,7.219973798905586189e-04,3.557641727061021364e-04,4.886241853237152100e-01
4.966298502427209938e-01,4.325201061433717742e-01,-1.880586971029479804e-02,4.462994116240998131e-04,6.314825957676986797e-03,-7.933520047130498618e-03,4.868763983249664307e-01
6.235578391042777557e-01,2.353466046023163227e-01,-1.904538171257436074e-02,-1.112770847651472529e-02,1.293606684487475693e-03,4.237558864148587533e-03,5.609023571014404297e-01
5.587663487027503262e-01,2.891856863749081574e-01,3.949890831067504049e-03,7.302586193502640793e-03,-4.049885944484838893e-03,-1.701914212685644995e-02,4.816693663597106934e-01
5.652043234712209596e-01,2.963160081617398633e-01,-1.652466843925670670e-03,1.591778998785173954e-02,7.333233578434349663e-03,4.026259671390298306e-03,4.921142756938934326e-01
6.259617387345817185e-01,2.362453566758361545e-01,-2.471871368464423346e-02,-1.368138261311010323e-02,1.303183280384394120e-02,1.630518642968792863e-03,5.681215524673461914e-01
5.511299945704100089e-01,2.770956202001877977e-01,-1.524154232659613584e-03,-5.479967171921385632e-03,6.822140756678965988e-03,7.566365566013634643e-03,4.790372252464294434e-01
5.550793769828887836e-01,2.621469181527468217e-01,-5.560868233124294235e-03,-2.408132435078045794e-02,3.269561598647970427e-03,-9.856912450025810679e-04,4.875160455703735352e-01
4.721281155429660759e-01,4.670173451860757385e-01,-2.787354338985059687e-02,-5.164682648195657606e-04,2.057517993908544469e-03,-6.437851520663253691e-04,4.974807798862457275e-01
4.639907312567361775e-01,3.963747154715890342e-01,-2.246823914771228781e-02,-6.699602393758868901e-02,-1.458086283920021105e-02,-2.112855887078975148e-02,4.730373024940490723e-01
4.876870588910194870e-01,3.634540415867976160e-01,-2.591650638551085128e-02,-8.182935676318540963e-02,-4.414723926264312037e-02,-4.515423330055240436e-02,4.974612891674041748e-01
5.365704204501102748e-01,2.734564128685777473e-01,-4.975436027953694662e-03,-7.008492453023608404e-02,-3.312847188209007421e-02,-4.151196895102910595e-02,4.931637644767761230e-01
4.861384394764346473e-01,4.024158605169786407e-01,-1.994878923596465903e-02,-5.057571703131549801e-02,-2.537679337136845500e-02,-3.164071696511449455e-02,4.830857813358306885e-01
4.649562526283141928e-01,4.551607339190624213e-01,-2.030319732053675885e-02,7.665131730622747139e-04,-8.153642736208924560e-03,-1.827836865917874135e-04,4.806460440158843994e-01
4.880960821271330685e-01,3.674115500079355168e-01,-8.390741532944112624e-03,-7.008587772227058144e-02,-1.656295377656354789e-02,-3.713080161875519786e-02,4.699370265007019043e-01
5.010915822533779096e-01,2.828186471872514707e-01,-8.107061624768874264e-03,-8.477636830574870885e-02,-1.358863848299917548e-02,-2.444806398627685090e-02,4.687112271785736084e-01
5.297040902243163041e-01,3.446713026219668241e-01,-1.812024861804861775e-02,-3.581199200913182806e-02,-8.099446619312663381e-03,-3.781056968847731903e-02,4.912396371364593506e-01
5.393598689038689997e-01,3.539820964905314726e-01,-2.228585522259562968e-02,3.670705207733195030e-02,9.384032665041671523e-03,-3.330937340118036993e-02,5.033181309700012207e-01
5.191904328142040725e-01,3.571566094039900774e-01,-1.373089174063835127e-02,3.883948719710516445e-02,6.699731556675979187e-03,-2.548320529460564379e-02,4.801220297813415527e-01
5.637451194306810631e-01,2.225006870474270926e-01,-1.674879449402277842e-02,7.742396176252799855e-02,1.964401277141348406e-02,-4.806243894210834172e-02,5.304731130599975586e-01
5.512481829972096792e-01,3.934605966214822503e-01,-2.038672236509558866e-02,7.861863932772830688e-02,2.258853623306174632e-02,-1.707014120438894375e-02,5.314264297485351562e-01
4.761883611636869573e-01,4.858566691215095990e-01,2.010837603546949959e-02,-4.934883362094077963e-03,-3.329354223006252868e-03,-2.463530579843159832e-03,4.611252248287200928e-01
4.729428188401522126e-01,4.231573354437827561e-01,-1.093291925578665502e-02,-4.555883414943995291e-02,3.658028902291778767e-02,2.918225380476558578e-02,4.746791720390319824e-01
4.687626414906589378e-01,4.860427163507179404e-01,-2.426876775409736453e-02,-7.514035984780543208e-03,6.585102759108511956e-03,7.556079738524694792e-03,5.023633837699890137e-01
4.858258105425593554e-01,4.486751473870206341e-01,-3.306361298861681952e-02,9.370744424014317659e-04,-5.049873961469599978e-03,5.500755724048636552e-04,5.014273524284362793e-01
5.890804953026479440e-01,2.657405236468179943e-01,-8.412827612065465477e-03,-5.476524803496133319e-03,-1.487090655501123980e-02,-5.297970771472512025e-02,5.268087983131408691e-01
6.056064406285890378e-01,2.601859956073990787e-01,-1.604463490601903963e-02,-2.420964659317076731e-02,-1.461834500019303096e-02,-3.975276343833498982e-02,5.460536479949951172e-01
5.586629878574264074e-01,3.446952481157634085e-01,-1.973762901521081137e-02,-6.761951553682180038e-02,-1.359631006606444592e-02,-1.555499744464756626e-02,5.211219191551208496e-01
5.272338571585952760e-01,3.550973446862276672e-01,-1.427621018253955043e-02,-5.804411353916297950e-02,-1.051780069363168237e-02,-2.495413864274747401e-02,4.918920993804931641e-01
5.309601780173813790e-01,2.937360896565220370e-01,-1.259309467047287079e-02,-2.173345880238181441e-02,-9.343958975674785186e-03,-3.200810534001852919e-02,4.770052433013916016e-01
5.475440527812247549e-01,3.028634878036907119e-01,-1.062368836981109066e-02,-2.832936398957481075e-02,-7.011243785257996117e-03,-1.247035971303512777e-02,4.877178072929382324e-01
5.973546374164677708e-01,2.729334279302652599e-01,-1.376862823664726232e-02,-2.680138603059189356e-02,-1.749031488969065434e-02,-3.058228771615776470e-02,5.351055264472961426e-01
5.220050469365071777e-01,4.788982374869534264e-01,6.889773023129674989e-02,3.748669428939123416e-02,4.700260310593747798e-02,-3.653142654369036235e-02,4.499772787094116211e-01
5.967891911172855668e-01,2.951187577743327739e-01,-2.419619102801728872e-02,-4.301506982929519107e-02,-4.581135436471715609e-03,-3.314540568712491531e-02,5.460811853408813477e-01
4.637949732545127990e-01,4.699726683325177179e-01,-2.672225718900866909e-02,2.977081873182364866e-03,-5.340760386477111550e-03,4.486293837087300222e-03,4.938098192214965820e-01
4.592536742044195375e-01,4.853431930775582437e-01,5.343321568099801411e-03,7.899243978257872514e-03,-1.700963584097604092e-02,8.041410038101517305e-03,4.688355326652526855e-01
4.601588670520831981e-01,4.845923184410454998e-01,-2.492413914910973638e-02,2.204638158996879548e-03,-4.119566304600572049e-03,5.171066079201544832e-03,4.978960454463958740e-01
4.720988062559897669e-01,4.791001617750069719e-01,-2.364182458127250808e-02,1.055256420434581323e-02,3.102708162890175335e-03,1.044432482348191422e-02,4.999688565731048584e-01
4.601891154791625249e-01,4.808363835256169727e-01,-2.577341540673311338e-02,5.886296060680748683e-03,-1.037074301105262754e-02,7.708757114613382262e-03,4.972168207168579102e-01
4.358688729124942096e-01,4.908154989620172604e-01,-2.465056707096130451e-02,1.278269075254550094e-02,-1.063149676715448126e-02,8.268318810021990650e-03,4.913610219955444336e-01
4.721942970259486172e-01,4.781330573868222134e-01,-2.407690586903116214e-02,-1.964483183263337606e-03,-3.528205781848804418e-03,4.031254323563958353e-03,4.993648827075958252e-01
4.824570195634148018e-01,4.033907594646460315e-01,-1.651158688778608941e-02,4.382109721270766728e-02,-2.424226252087884753e-02,3.210691341875535759e-02,4.758004248142242432e-01
4.296036596973590305e-01,4.682595859698874818e-01,-2.192948578138798066e-02,-2.067316090618868257e-02,-2.460902014300167875e-02,-2.478006871035389608e-02,4.772546589374542236e-01
4.634380520673275772e-01,4.676804002451248055e-01,-2.278699678014373120e-02,8.537592582224859394e-02,-1.144472741854730274e-02,1.030619203016874819e-02,5.109542608261108398e-01
4.788956845914902338e-01,4.708373614834498455e-01,7.608823293961591849e-02,-3.459253596381568503e-03,2.020121284408584947e-02,-8.264593569374612328e-03,4.006718099117279053e-01
4.713332730982522922e-01,4.907370659207588304e-01,-1.586567772908881180e-02,1.770671187436781424e-02,-4.667439497173253744e-03,8.443397214009002198e-04,4.981976747512817383e-01
4.666514069065386683e-01,4.762654917209431238e-01,-1.502316175055407044e-02,2.867270698737058726e-02,-1.219941849008676638e-02,1.412113658821428572e-02,4.901476800441741943e-01
4.849721403409621434e-01,4.651893330868814846e-01,-6.282911186108131041e-03,3.201505423554731541e-03,-4.093752896781332768e-04,-2.759679529627326062e-04,4.817011058330535889e-01
4.755142329969387349e-01,4.447842319131187772e-01,-1.281873412592510197e-02,2.830228634784843697e-02,-7.127549428332983182e-03,1.116060161109689794e-02,4.767977297306060791e-01
4.762827109965698247e-01,4.420607367678573985e-01,-1.064675706091544605e-02,2.882535858108266347e-02,-3.208790313392553654e-03,6.029751022938156443e-03,4.735403060913085938e-01
4.602630822790597653e-01,4.335254364389865556e-01,-2.105095048131194746e-02,3.390580152267452102e-02,-1.834018465694993438e-02,1.864840511313585816e-02,4.743522703647613525e-01
5.988150406384682434e-01,1.699715643205933491e-01,-2.475359673969895757e-02,7.892174528333381622e-02,1.025689729422573325e-02,-3.662201307823342682e-03,5.695375204086303711e-01
5.645892164760106802e-01,2.380674914835202438e-01,-1.609927280204459521e-02,1.598226742342809953e-02,-5.065779990069424303e-03,-5.657310853458585084e-04,5.050271153450012207e-01
6.313190319922722393e-01,2.677872205228811753e-01,-2.368499558502501490e-02,5.247721301892163681e-02,-1.865512070921686652e-03,-4.070351199592479874e-02,5.799251794815063477e-01
6.306468072649029644e-01,1.325991640631994095e-01,-3.195793871179891665e-02,1.521070057622526950e-02,7.255565945145703299e-03,-2.090238615963562613e-02,5.993751287460327148e-01
5.835331105829864029e-01,1.244418566358365258e-01,-1.302251108543993618e-01,-3.223248212719848071e-02,8.606421575329160911e-02,2.919872432841418355e-02,6.484065651893615723e-01
6.649033828132052681e-01,1.091526026527571691e-01,-1.112011332634372796e-01,-3.570407385578439757e-02,3.233329701588241040e-02,-1.623003631332059146e-03,6.977428197860717773e-01
6.154192955704630430e-01,9.466898739704696086e-02,-2.783175618915312288e-02,-1.100259499158822152e-01,1.751176050351978611e-02,2.389088552924500605e-02,6.236417889595031738e-01
6.288334038574610041e-01,9.038549701025647143e-02,-3.486286832935175939e-02,-2.186215718455616908e-02,2.934452692838080204e-02,3.207156894513926715e-02,6.165678501129150391e-01
6.225790140197273725e-01,2.041362907498272539e-01,-1.601950527021611670e-02,-3.039549511263113513e-02,-5.597097393072228942e-03,-4.613031453011984251e-02,5.700308084487915039e-01
5.601939107310887067e-01,2.183234636177932009e-01,-3.175468767682709803e-04,-3.213478290534694387e-02,7.131023387602603882e-03,1.303695629410493197e-02,4.931395053863525391e-01
5.396023226018491492e-01,2.095066280172966644e-01,5.667611797489924275e-03,-5.751679433849263973e-02,7.859898717331415766e-04,-5.906024957293899702e-03,4.773163795471191406e-01
4.870530195151477892e-01,3.958661833587363565e-01,-1.364260097736841315e-02,-5.305633997092307208e-02,-1.440348196614635486e-02,-2.814316668732315396e-02,4.741283655166625977e-01
4.761644864000526556e-01,4.369229559847210287e-01,-2.695406919359838449e-02,-4.129903811433713323e-02,-1.959444921653866883e-02,-2.892795006116025483e-02,4.936640262603759766e-01
4.895428942194712252e-01,4.285710649097826397e-01,-2.334148124710327954e-02,-3.855402399061288315e-02,-8.580483516576755190e-03,-2.317682502314774226e-02,4.917194843292236328e-01
4.621088621291428722e-01,4.400500476960620411e-01,-3.161505248768176068e-02,-6.296485683620471965e-03,-1.150857774832171783e-02,-1.222733032257811332e-02,4.840699732303619385e-01
4.501635211872616615e-01,4.526890884701613715e-01,-2.566039864840580220e-02,-2.329479583761067188e-02,-1.810760528434260733e-02,-1.975965227218543646e-02,4.810399413108825684e-01
4.590485633805574395e-01,4.439579218382322945e-01,-3.176196060368308149e-02,-1.097300305952129962e-02,-1.238879313128437437e-02,-1.261350086223351000e-02,4.847834706306457520e-01
3.532371857421013894e-01,4.591430280754152382e-01,-2.257949252415403230e-03,-1.307707797264969496e-01,7.845388306804211564e-02,5.681559469219334135e-02,5.046721100807189941e-01
4.131802825515890065e-01,4.267361974000307145e-01,-1.882194221992511407e-02,-1.178515891898890833e-01,5.794844439263546754e-02,5.149516394387093632e-02,5.023566484451293945e-01
4.520914036468880459e-01,4.944901176831125733e-01,-3.157980930061837777e-02,-6.114261606228113544e-02,7.320220416822509346e-02,5.789777555907687362e-02,5.418394207954406738e-01
4.969257788509469642e-01,4.901502084167337348e-01,6.394725369536380377e-02,3.770761506457358248e-02,2.793633508434286913e-02,-4.739376952723052538e-02,4.448910653591156006e-01
4.619001012249474014e-01,4.598814753578062131e-01,-3.478019844429852681e-02,-6.796909227942643517e-02,7.300140375188414466e-02,5.084793299618373813e-02,5.322558879852294922e-01
4.806445847270962579e-01,4.785420294059659629e-01,-2.440233377790740343e-02,-9.475022749615782253e-03,-2.878439557743980165e-02,-2.297380070385649647e-02,5.082846283912658691e-01
3.943370424539562880e-01,5.017375921195358357e-01,-1.498922605406699526e-02,-4.079060968316101932e-02,-4.437198080946214152e-02,-1.388811280849445301e-02,4.842743277549743652e-01
4.068813638099993968e-01,4.905004490900835012e-01,-1.345066875344602675e-02,-4.190660549356740178e-02,-6.008106905181216650e-02,-3.586383332575472649e-02,4.886463880538940430e-01
4.802510558246355643e-01,4.765979671678928220e-01,-1.649913132302266439e-02,6.148960703720771949e-03,4.707276164655950154e-03,-1.085186797960221257e-03,4.951190352439880371e-01
4.560246706687405283e-01,4.449675245817092395e-01,-6.253975684113399769e-03,-4.263597557448791514e-02,-2.943188487133795161e-02,-3.073576112358770290e-02,4.686134457588195801e-01
3.965451207204327977e-01,4.801916519771612379e-01,3.376107301105601977e-03,-4.716138231338726228e-02,-2.301393934987277373e-02,-2.401283224511273351e-02,4.521694481372833252e-01
4.337706245022466822e-01,4.923606876674559985e-01,-2.783541695901425861e-02,-7.233561685024819665e-02,-2.211356548101516689e-02,-1.741162205526174123e-02,5.115000605583190918e-01
4.807686613599693182e-01,4.746738914815702981e-01,1.227076949678501672e-02,4.373543032459799090e-04,-2.896876256229659937e-03,-1.034458830716081593e-02,4.658527970314025879e-01
4.647516451127520209e-01,4.790057861050430743e-01,-2.429178557464778399e-02,-5.173237707462659436e-03,-2.302543162816875905e-02,-2.594387189569733257e-02,5.000275969505310059e-01
4.746132552043170194e-01,4.716288370896802862e-01,-3.121071518965906622e-02,2.897074905524543801e-05,-1.934926204073790588e-04,-1.278807849147933469e-03,5.043433904647827148e-01
4.659203184218081439e-01,4.758704801739703782e-01,9.780918000943272794e-03,-7.155563624778749077e-02,-4.489657301194981132e-02,-9.602622186185466244e-03,4.841334223747253418e-01
3.789298443318364629e-01,5.271521891524219017e-01,-2.428884961345417759e-02,1.613565018175414437e-02,-1.975010872672169210e-02,1.259425348460280897e-02,4.967376887798309326e-01
3.629506158467228349e-01,4.952439110126522492e-01,-4.839149400451825400e-03,2.853897856998406299e-02,-1.080576241176641264e-02,6.477659886845846954e-03,4.520470499992370605e-01
3.923135399295435422e-01,5.012819386377864728e-01,-2.310431725436007389e-02,3.152968386756765246e-02,-2.603965956516507765e-02,5.093739459470364439e-03,4.845698177814483643e-01
3.566997427869262327e-01,5.328364916768416615e-01,-2.405439843315371196e-03,2.250224060364624384e-02,-1.015639114591216328e-02,1.413543679280485597e-02,4.750370979309082031e-01
5.173643154051096316e-01,3.403765428550259431e-01,-2.933368873772768115e-03,-1.057478504445968914e-01,-2.042236201273887539e-02,-4.094776065779040519e-02,4.997771680355072021e-01
4.877444951372685300e-01,4.284733747509431590e-01,-2.361538487138764575e-02,-3.916737943421369494e-02,-2.705374476429016004e-02,-3.406976677796903080e-02,4.949478209018707275e-01
5.262421399264832766e-01,3.097758596451219981e-01,-3.808716433063130680e-03,-5.285361136511339264e-02,-3.344425859921464159e-03,-2.011806305384108984e-02,4.719128012657165527e-01
4.606596983360833342e-01,4.862085232155746728e-01,-2.579843763425104797e-02,-1.442245626079491621e-03,-9.403129175699635918e-04,-5.796051190828028273e-04,4.997325241565704346e-01
5.078347360417380107e-01,3.350405524318006423e-01,-3.487516225754883070e-03,-4.874924597405739385e-02,-6.462328153490258520e-03,-2.126206604742405734e-02,4.599627554416656494e-01
4.855673799900251386e-01,4.098377363043193000e-01,-2.385482488327850259e-02,-2.111787970626381739e-02,-2.365317452804393747e-02,-3.448567584589312673e-02,4.829613864421844482e-01
5.294239166471335079e-01,3.900924556092630890e-01,-2.347501249969358161e-02,-5.506286487672960167e-03,-1.472956825142311861e-02,-2.365775544132475705e-02,5.004949569702148438e-01
4.577007448335478346e-01,4.824613415999010613e-01,-1.618390017419013560e-02,6.177968223608215972e-03,-7.177504945119020721e-03,2.138378804228001275e-04,4.870139658451080322e-01
4.676755080887438076e-01,4.777265076428184321e-01,-2.784754354326424153e-02,-9.505553320349911448e-04,-1.888871402873835070e-03,3.324543755529928233e-03,5.006707310676574707e-01
4.290204260560120941e-01,4.572279288797687080e-01,1.774276704829935714e-03,4.942534451896902353e-02,3.732538073228313475e-04,2.026220556741548280e-03,4.502530395984649658e-01
3.700751916031197464e-01,4.347902347400973699e-01,-5.155060422908086526e-03,8.877210410060913659e-02,-1.034216647054900934e-02,1.800247320753284655e-02,4.406851828098297119e-01
3.131041770785541467e-01,5.067828668017503313e-01,-1.269044662850155047e-02,9.803457907122171966e-02,1.478350498613714703e-02,3.670887072910244964e-02,4.901873767375946045e-01
3.643509496409784720e-01,4.666324460399570162e-01,-2.601427514832999055e-03,8.962437140147780368e-02,-1.124959332856618338e-02,2.589314949139075173e-02,4.573145508766174316e-01
4.377898745301470051e-01,4.557529032336455899e-01,-3.141136361471175142e-03,4.831224024487596608e-02,-1.322242741093597289e-02,1.536546926886753033e-02,4.592366516590118408e-01
4.063003381231518052e-01,3.267722294867432264e-01,-1.176492089665104324e-02,1.859702577192939021e-01,1.748353317941845134e-02,-1.922227204080883406e-02,5.036225318908691406e-01
3.489669661656928379e-01,5.843351639525866670e-01,-1.655155204468083951e-02,1.780999225736372982e-01,-8.922018218560652525e-03,9.923118368480319043e-03,6.088730096817016602e-01
4.088546890189296845e-01,5.107132987056766105e-01,-1.391636655673778034e-02,1.541162558292321072e-01,1.033625365252723201e-02,2.249122393936873673e-02,5.525096654891967773e-01
3.956389210182266747e-01,4.431463225063158040e-01,-7.297851858982629114e-03,1.021851079886736541e-01,-8.120295567433483477e-03,6.631608063981351241e-03,4.641256332397460938e-01
4.342056329055299368e-01,4.933364900810925935e-01,-2.415524024029280792e-02,-3.072840465102495006e-02,-1.963792192094167971e-02,-1.660301551478721507e-02,4.954907000064849854e-01
4.735825754570753277e-01,4.747673802580083535e-01,-9.460922882269851009e-03,-1.531369595824551115e-02,-1.128133585955306412e-02,-7.596396886616128656e-03,4.849362671375274658e-01
4.533056587079486444e-01,4.771033242534431507e-01,-2.271491670746411673e-02,-7.138344202388761592e-03,-6.473150565507142414e-03,-4.164012897046416237e-03,4.886928200721740723e-01
4.504597992544211449e-01,4.902521748884888231e-01,-2.493792977621345219e-02,-2.400232473689325151e-03,-2.948713363711497060e-03,-2.445172364108128427e-03,4.965530633926391602e-01
4.618081782698861826e-01,4.826855048870529741e-01,-2.395071142419485932e-02,-5.239766131908485738e-03,-1.293006018814593476e-02,-9.859032687697236175e-03,4.974077045917510986e-01
4.754162241186523641e-01,4.715800536389743725e-01,-1.702589077502758563e-02,-6.359938537199636213e-03,-6.720114614024264715e-03,-1.450173757606631510e-02,4.914393126964569092e-01
4.799552346824968452e-01,5.047185616373811579e-01,-3.119250910957493961e-03,6.521067953264997503e-03,-8.836370553403119846e-03,-2.886659208344896643e-03,4.963099062442779541e-01
4.515713579698223956e-01,4.777807413843350171e-01,-1.090691586594150220e-02,-9.474759721628501011e-03,-5.813733068203963059e-03,-1.004420404813806747e-02,4.768309295177459717e-01
4.715372788996840536e-01,4.546488356947161469e-01,-3.056024894343267739e-02,-1.045344429003835195e-02,-1.533437220270371208e-02,-1.472172738698162425e-02,4.955713152885437012e-01
4.572503242066081053e-01,4.856707737800087243e-01,-2.357848291386571704e-02,-4.599999333329749668e-03,-8.551329291327767340e-03,-1.238829541796941137e-02,4.963997304439544678e-01
3.440371355345057114e-01,4.993681354096438652e-01,6.388143331006956860e-03,-1.160834807430473695e-02,-1.514287857515185173e-03,-2.525699627359164791e-03,4.370494186878204346e-01
4.415182727864749301e-01,4.578988050269998111e-01,-2.139675262793672150e-02,-1.173881354364948726e-03,-1.610743276759649253e-03,-6.375399307834459656e-03,4.714608192443847656e-01
4.683330169485927508e-01,4.826841843389025333e-01,-2.557852655536962949e-02,3.389867703593749202e-04,1.487445112028547029e-03,1.688053087716974649e-03,5.012567043304443359e-01
4.715676834761718395e-01,4.748793229074301792e-01,-2.960677399546818300e-02,-8.534986513773101802e-03,-1.850920738182878708e-02,-1.694913379423241065e-02,5.049303174018859863e-01
4.759925156728020967e-01,4.759404473999291341e-01,-2.903809983817551288e-02,5.962253943236253684e-03,-3.149712127857723799e-03,-2.842808991805192281e-03,5.051636099815368652e-01
4.686140020246348792e-01,4.745977749843253157e-01,-2.398800876305084984e-02,-1.001375679552992011e-02,-1.560445898760643053e-02,-1.705804706977036289e-02,4.975383579730987549e-01
4.570004270573850835e-01,4.592135274711617310e-01,-2.971560449894988798e-02,-1.048337698193805428e-02,-1.846825274466278380e-02,-1.428039419578859201e-02,4.898359477519989014e-01
4.658438583450258963e-01,4.355340758850243521e-01,-2.124885959453021167e-02,-4.061494215687104503e-02,-3.041027448407135694e-02,-2.906599769559213564e-02,4.833962023258209229e-01
4.371457003900711125e-01,4.322376729044632993e-01,-1.558463185685049490e-02,-4.545604987407724645e-02,-1.606808719663340920e-02,-1.628123211819037727e-02,4.588413238525390625e-01
4.628291664109611125e-01,4.315728498401345536e-01,-2.904870317778673883e-02,-3.164624055507456873e-02,-2.608483091931397546e-02,-2.450525217905722558e-02,4.841422736644744873e-01
3.671907475206682703e-01,3.720434734281209410e-01,-2.273992648152850515e-02,-1.706314954010520468e-01,-1.402241471587896415e-02,-2.308465292070412123e-02,4.934527575969696045e-01
4.387137559371142026e-01,4.283646351083882919e-01,-1.952496420018534629e-02,-5.191093830439646312e-02,-2.379631017602088644e-02,-2.583689322467246779e-02,4.659754633903503418e-01
4.492799771525841646e-01,4.150792144684198881e-01,-1.583142312049751199e-02,-4.301267710740085126e-02,-1.769281658285296391e-02,-1.845093222371551114e-02,4.572765231132507324e-01
4.692509472745054477e-01,4.265181465248949477e-01,-1.831187893467567385e-02,-5.225772776311597007e-02,-2.137300377827621931e-02,-2.544418097154830041e-02,4.798061251640319824e-01
4.387632659337130647e-01,4.003289027410261713e-01,-1.001836304414993606e-02,-9.651622160037891252e-02,-3.737405449679593455e-02,-3.924546487253233185e-02,4.715832173824310303e-01
3.644267658315242797e-01,4.521201087754742609e-01,-1.379629692197620328e-02,-1.048319494209987157e-01,-4.960762787582025796e-02,-5.096077938899162829e-02,4.817192256450653076e-01
3.675399243382040937e-01,5.295100614350527479e-01,-1.972924605552683897e-02,-2.585807500841387843e-02,-2.514728643208781478e-02,-8.390367602018352841e-03,4.930031001567840576e-01
3.848306329506393508e-01,5.597684096061570358e-01,-1.734524903068157542e-02,2.278584688614043990e-03,-1.583793471224986468e-02,-7.809346302031569672e-04,5.132974982261657715e-01
4.197208483868490880e-01,5.280204917337567583e-01,-2.866825705154230075e-02,-3.416667094730616548e-03,-3.138027534773711602e-02,-1.656460134773110647e-03,5.141394734382629395e-01
4.204691810085908754e-01,4.998273489640474576e-01,-2.479209633450485395e-02,2.668157899970543395e-03,-3.085652998898144247e-02,3.024465584249489119e-03,4.927429556846618652e-01
3.877016326370905097e-01,5.159077567995586922e-01,-2.994968162238209608e-04,1.155515616628871589e-02,-2.135385855723724927e-02,-9.428607496133063759e-03,4.677189588546752930e-01
4.355529036098093609e-01,5.049182618530729805e-01,-2.338226087619765803e-02,1.302306434997390662e-02,-2.780183371319828317e-02,5.186190160679561047e-03,5.001755356788635254e-01
4.694728153857218866e-01,4.808891524906858672e-01,-2.162835433737420043e-02,1.025820471404135549e-03,-4.358960284732173868e-03,-3.635893984200914519e-04,4.969686269760131836e-01
4.556455707594926907e-01,4.828290039807794365e-01,1.509094510137709566e-02,1.698474726137058903e-04,-7.473555540846926054e-03,-1.232503479451853680e-03,4.549453854560852051e-01
4.482823506280907977e-01,4.907625114944541567e-01,-1.368253518118667245e-02,-5.063188487768623385e-04,-1.589261496706193336e-02,-1.010280167791393745e-03,4.853885173797607422e-01
4.545125987372589660e-01,4.731064282277360755e-01,-2.511445350756102979e-02,8.478697850858453022e-04,-3.749525508811239749e-03,5.083010156255844854e-03,4.893136024475097656e-01
4.550332243354756057e-01,4.733210304321332496e-01,-2.506762080580610119e-02,1.473560440434038693e-03,-3.753424046520896073e-03,5.082275877250919290e-03,4.896299839019775391e-01
4.675308527867712560e-01,4.754965234209606040e-01,-2.949938037432431326e-02,-2.224650715273779767e-03,-2.635913839387719199e-03,2.725098144467114503e-03,5.011184215545654297e-01
4.697097401465185618e-01,4.738472512024817784e-01,-2.950751541223489705e-02,-2.403908909933754386e-03,-1.891229157429828202e-03,1.975097509659611266e-03,5.013384819030761719e-01
4.660500888269666353e-01,4.759878421626648759e-01,-2.959275920882531441e-02,2.170704840762695547e-04,-2.317878612301640159e-03,2.564288454114873380e-03,5.007216334342956543e-01
4.369034757637084154e-01,4.011472402624568501e-01,4.776343042131314665e-03,-8.112082197441576603e-03,-5.424929711612764584e-03,-3.038947787993969080e-04,4.157488644123077393e-01
5.021922757877441690e-01,4.592075058869254933e-01,-1.538064916136600013e-02,1.111564899131850005e-02,-1.143934767667584545e-03,-2.153691320924672886e-02,4.992472231388092041e-01
4.828620059459404756e-01,4.756864772109177242e-01,-2.356965859191273438e-02,4.311359344782549584e-03,6.686253436933452168e-04,-3.544034027370026544e-03,5.029765367507934570e-01
4.613017762605461369e-01,4.824398358000251408e-01,-2.827444244451815525e-02,9.070294943251829521e-04,2.889015327855176804e-04,1.044760903465643057e-03,5.004861354827880859e-01
4.862794906854915888e-01,4.356266164665723029e-01,-1.470373147450726448e-02,1.066519841793286613e-02,9.426517384915390069e-03,-1.146605118253438485e-02,4.787231981754302979e-01
4.836236165816903965e-01,4.609669187555043290e-01,-2.227623543414447571e-02,6.383647461457352471e-03,2.835718608981307098e-04,-5.816200545116170621e-03,4.951867759227752686e-01
4.841275595959387834e-01,4.601313875317778468e-01,-2.359806968699756924e-02,5.436184204781199097e-03,3.249734339909310550e-03,-4.373010891445039405e-03,4.963419735431671143e-01
5.046374725158722097e-01,5.330489438481500475e-01,8.943787795545965480e-02,1.375016851592660884e-02,-5.194401361817438390e-03,-2.613362230613096998e-02,4.332336485385894775e-01
4.669110314647095805e-01,5.513032382199566372e-01,5.523077542847326660e-02,1.626515599004470583e-02,-1.484186068777080224e-02,3.953872865095775166e-03,4.613531231880187988e-01
4.644026479287575171e-01,5.490001977804365163e-01,4.290313410262108773e-02,2.100576927861198470e-02,5.328769317254792443e-03,-3.244343048444780532e-03,4.710805714130401611e-01
4.315849974957193802e-01,5.436845425532385034e-01,7.562010633638643897e-02,-4.208614565305722650e-03,-9.942350266641193646e-02,-5.085671812605069286e-02,4.654549062252044678e-01
4.793620860603770573e-01,5.289259385804567781e-01,1.118916660271258023e-01,3.029756450550827665e-02,-6.262316010848761882e-02,4.026474108427541276e-02,4.184338450431823730e-01
4.656602919153901010e-01,4.946489867765242465e-01,4.264620831893034536e-02,1.669061339501200225e-02,1.907342763828683008e-02,-1.747911397368737086e-03,4.404318034648895264e-01
5.062320132932309757e-01,3.673461176231961334e-01,-2.650883466070891314e-02,-1.006884717193938239e-01,-3.376094778441394301e-02,-5.359934125811248451e-02,5.211185216903686523e-01
5.054162485749160716e-01,4.505221278877752367e-01,-2.894979572500167020e-02,-1.615359111230886893e-02,-1.259244745954468843e-02,-2.289874446507823499e-02,5.119164586067199707e-01
4.880572207542143714e-01,4.485988984269886903e-01,-2.396238697323183064e-02,-8.118327456345489010e-03,-1.403253579278643248e-02,-2.406086572134244136e-02,4.960270524024963379e-01
5.007463313503709434e-01,4.445759528210325717e-01,-1.960297063311261523e-02,-7.530862101600692415e-03,-4.179085144621761533e-03,-1.986930880362873519e-02,4.960818290710449219e-01
4.538451806050645132e-01,4.728091515723160665e-01,-2.831968405620510776e-02,-2.479201313855976599e-02,-2.065875346685655187e-02,-2.307085651695339745e-02,4.966965019702911377e-01
4.871464242548874113e-01,4.456506057866707060e-01,-1.068152033638347653e-02,-6.602496896409661142e-02,-1.293700116417359665e-02,-3.204722592736589104e-02,4.955379366874694824e-01
4.834666876400032232e-01,4.628969516798390194e-01,-2.712709643299365814e-02,1.722328131100552689e-03,-3.989450856020656340e-04,1.634235025219960176e-03,5.006433129310607910e-01
4.821095073993765245e-01,4.656827998444562633e-01,-2.163074717113971923e-02,9.903915840811130904e-04,-1.253458190771149141e-03,-6.095946946962161987e-03,4.958512187004089355e-01
4.827600632519871704e-01,4.676262296547172292e-01,-1.929891011245837840e-02,3.013178773197732439e-03,-2.982630276993460724e-03,-4.708067313130218610e-03,4.947874248027801514e-01
4.696908357853489258e-01,4.846908273190176919e-01,-1.830436337191487794e-02,-7.958966938393571009e-04,1.078298706450112228e-02,1.361972146985527925e-02,4.965797364711761475e-01
4.724587797120428645e-01,4.523018529936775889e-01,-8.497546435727032499e-03,-1.088448567619086996e-02,1.564047118450675664e-02,1.621511652447030563e-02,4.731899797916412354e-01
4.803282918669062873e-01,4.716811814359042621e-01,-3.379562843625261159e-02,2.918762166643956539e-03,9.689936738044050910e-03,8.413293485207501421e-03,5.103646516799926758e-01
4.699918511304251867e-01,4.768664266637181459e-01,-3.090740444812262178e-02,-6.967136586518340915e-04,-7.340028632636618183e-04,1.426940786975604931e-03,5.043807625770568848e-01
4.846946903419171448e-01,4.827871598491255689e-01,-3.437930370968711458e-02,1.401054134068769989e-02,4.895068804053302920e-03,6.942184732540475009e-03,5.188994407653808594e-01
4.351306264541241475e-01,4.739021525634394827e-01,-3.106592227877652546e-02,-1.355810152396362935e-03,-6.097995492814476878e-03,-1.052625923493349068e-02,4.872033298015594482e-01
4.236873462812552615e-01,4.722953231580681588e-01,-2.406336217209481543e-02,-4.039021440670066687e-03,-3.878441756015957461e-04,-1.210560322233732167e-02,4.744435846805572510e-01
4.209751586442577187e-01,4.519356711683543137e-01,-2.054906964990715901e-02,-2.412217133390885671e-02,-7.937141211087690718e-03,-1.187998218459366054e-02,4.603586196899414062e-01
4.381445780467274620e-01,4.559539216902066538e-01,-2.581402328497289789e-02,-1.507783059332364235e-02,-1.015935295081181466e-02,-1.247892498340184841e-02,4.746539592742919922e-01
2.789582592831349461e-01,5.263166489086185118e-01,-9.538647022123036834e-03,-1.252222567109020357e-01,7.111485309538742583e-03,1.195952094866042578e-02,5.132264494895935059e-01
4.100224422345688513e-01,4.730748272756426509e-01,-2.006129067979262048e-02,-4.109389332989004176e-03,-6.017635774302278022e-03,-1.253878738393302689e-02,4.655065834522247314e-01
4.184869510621535005e-01,4.569210855036978103e-01,-2.038654592313515757e-02,-7.225758272458720176e-03,-7.361632736314176195e-03,-1.275379511804827781e-02,4.601761102676391602e-01
4.779038827024047476e-01,4.793394346055270816e-01,-1.854100432019212263e-02,-2.017196536093490700e-02,-2.318183299604376774e-02,-2.600251791487579248e-02,5.020294785499572754e-01
5.016669596361681416e-01,4.529137885447841461e-01,-3.774986727454410218e-03,-9.908584183555960156e-03,-9.789528663140806622e-03,-6.524933783804600339e-03,4.836489558219909668e-01
5.323394112119039789e-01,4.769812735296091732e-01,1.176350678173471165e-02,-2.249683437976655181e-02,-1.606575358798835451e-02,-3.611608856507785709e-02,5.014493465423583984e-01
5.070158834813720539e-01,4.594413170868992813e-01,-2.461969580718370576e-03,-3.134170395499436511e-03,-1.255776786975184960e-02,-2.525786359606175743e-02,4.899074137210845947e-01
4.717399517564088152e-01,4.636298500110569432e-01,-4.761144127591709907e-03,-7.192191548638143285e-03,-6.509913092837738349e-03,-9.069192714474681033e-03,4.730577766895294189e-01
4.393787906457639059e-01,5.065096855112827257e-01,-1.897013074786779718e-02,-9.063713400082509808e-03,-2.185386340847393638e-02,-7.661868072764144166e-03,4.972071945667266846e-01
4.514052437873588564e-01,5.083741303987299176e-01,6.236921296616404486e-03,-1.658038161124558707e-02,4.959732356892527366e-03,-1.639909412405706965e-02,4.780024588108062744e-01
4.542944460370175186e-01,4.895729481126548932e-01,-2.265425695161787933e-02,-3.333217234577238314e-02,-1.523110330673827645e-02,-1.458149750527439233e-02,5.002175569534301758e-01
4.078290996179551597e-01,5.090840865966770323e-01,-1.198540775902040556e-02,-2.717179069460733815e-02,-4.903462814050967705e-02,-2.280672284695730093e-02,4.898914694786071777e-01
4.219785923002062900e-01,5.044641551899480270e-01,-2.639532923671517040e-02,-1.977293858604672883e-02,-1.411852077470045035e-02,-9.462512136930015250e-03,4.968570470809936523e-01
4.583607271705185671e-01,4.834456341936250734e-01,-2.727717899935144796e-02,-9.452243872080556136e-03,-2.502130698969678296e-02,-1.010564746288918243e-02,5.011069774627685547e-01
4.430196617968671369e-01,3.471176634303667630e-01,6.955788700828025028e-03,-1.038880056797899520e-01,2.798779319023302504e-03,-2.627468149663918402e-03,4.358346760272979736e-01
4.781315768190796955e-01,3.602534309515973976e-01,8.100608638837270004e-03,-5.651147775485665381e-02,-6.445256219152074861e-03,-8.715869188216473010e-03,4.351449906826019287e-01
4.180543790039027430e-01,3.716834763665422536e-01,7.185068275960271311e-03,-1.072902957745302394e-01,2.632644703452560481e-04,-2.041963197298220668e-03,4.318076074123382568e-01
4.550512101729773384e-01,4.840866710403883832e-01,-2.569072018216395081e-02,-2.676763706569958764e-03,-3.435798463128969093e-03,-3.937335247265544768e-04,4.959554374217987061e-01
4.122245090684283353e-01,4.238526257696135779e-01,9.129673375704583371e-03,-7.632730673806217836e-02,-3.512235047590372451e-03,-4.140304617589188156e-03,4.299696385860443115e-01
4.727228425203221507e-01,4.580723066621852912e-01,3.940004397253460411e-02,2.384559484633308468e-02,-8.185153053990651059e-03,-4.666366389427378282e-03,4.284939169883728027e-01
4.787123336642113425e-01,4.728451024701724181e-01,-2.297093372849973170e-02,4.544768509911054598e-03,9.734352974131650280e-03,-8.055442064547696512e-03,4.993174672126770020e-01
4.830280898480054375e-01,4.911090100671500758e-01,6.921210457607018807e-03,1.560619344993019637e-02,3.955608252509557748e-03,-2.053998780983771685e-02,4.823211729526519775e-01
5.653646407711511168e-01,3.648830858465874627e-01,-3.647959936666222980e-03,4.252660800928137474e-02,-1.429871368083110959e-02,-4.005819450090608580e-02,5.106315016746520996e-01
4.591357394480666265e-01,4.769118280274497468e-01,-2.549804163219021591e-02,3.305222251256675643e-03,-8.484652297859100745e-03,7.889720394339343537e-03,4.942026734352111816e-01
4.632479341941789230e-01,4.751187533520404571e-01,-2.455906587764683513e-02,5.340873453737341424e-03,-1.433100663382857846e-03,2.693099373484932231e-03,4.939643144607543945e-01
4.684565183449005965e-01,4.679990540454420644e-01,-2.252890688534936459e-02,3.966907495254940776e-03,-5.211014372514721250e-03,1.137875457001369254e-03,4.908918738365173340e-01
4.655891560236110616e-01,4.738573806033423708e-01,-2.597935107387694398e-02,4.159862832170536484e-05,-2.993673497985731725e-03,6.297916864303762866e-04,4.957826435565948486e-01
4.522597925523035300e-01,4.826023421746251651e-01,-2.548968921479516370e-02,4.913670560364571775e-03,-8.284895017424933478e-03,7.091096252925762657e-03,4.940552413463592529e-01
4.742976745981021258e-01,4.740275126349124957e-01,-1.970210479417128235e-02,-1.718377097793932990e-03,4.136675128579056504e-03,1.768739150657166722e-03,4.939351975917816162e-01
4.680478682707003291e-01,4.736005694561158386e-01,-2.663752590508394746e-02,2.179391559705272721e-03,-2.931955557800738736e-03,7.494174421439566986e-04,4.975269138813018799e-01
4.698451710739055542e-01,4.779383372191340351e-01,-2.293445475483768536e-02,2.552355886515077135e-03,-5.123885913423144312e-03,4.053615575501964656e-03,4.970241487026214600e-01
5.182403006366684828e-01,5.311574666726345262e-01,7.870932637926858488e-02,9.623552743028193288e-03,5.656434027632700062e-02,6.053340260704294373e-02,4.689361453056335449e-01
5.250578665956404656e-01,5.383974436483416337e-01,9.554402161136499316e-02,1.784909834689779248e-02,-5.844914834852116790e-03,-9.019980455163723043e-03,4.378263950347900391e-01
5.153355887980032302e-01,5.068295452263700263e-01,7.572340479210731834e-02,2.553828216374072913e-03,-4.340319640155567565e-02,3.610785428707298517e-02,4.462894499301910400e-01
5.187841556453405278e-01,5.043708017194745707e-01,1.088875838195920154e-01,9.303475600243514250e-04,-8.870871248608845974e-03,-2.191939053891103426e-02,4.049629867076873779e-01
4.742526424606616775e-01,4.781152733427362356e-01,-2.608894328895478010e-02,1.194263599482519927e-03,3.156470726031234027e-03,-3.025427626409701691e-03,5.023453831672668457e-01
4.633835039816642243e-01,4.823471767101901175e-01,-1.717020065770524795e-02,1.595634820992754537e-03,-1.144764870436984841e-02,-3.590152743279796319e-03,4.907585978507995605e-01
4.709951993745634669e-01,4.765514121483989118e-01,-2.380298286150439591e-02,4.733985787253361908e-03,5.988847032508987957e-03,-3.686373251292931075e-03,4.978161454200744629e-01
4.699851605294226853e-01,4.759441108423853040e-01,-1.437354640939769723e-02,5.912824082928916890e-03,6.088539451459361665e-03,-1.238479739591155041e-03,4.875918626785278320e-01
4.844127693006181068e-01,4.614376822679611134e-01,-2.064999381374332810e-02,3.317684047850869011e-02,1.366669605082190472e-02,-1.151888493908481519e-02,4.982698857784271240e-01
4.823106126855168374e-01,4.772318685898114254e-01,-2.260846349684703105e-02,1.218867099322254628e-02,8.293715507983297902e-03,-1.471360003873922913e-02,5.036925673484802246e-01
4.692677278808874419e-01,4.706565844625265616e-01,-2.431046322341900989e-02,3.046920097503724983e-03,4.471932206408979395e-04,-3.046311695192433031e-03,4.943310320377349854e-01
4.376734063923574114e-01,4.340358314437439136e-01,-7.750815640070740642e-04,-7.620471865722422411e-02,-2.835464697590575275e-02,-3.572757047453609808e-02,4.629451632499694824e-01
4.940690639989414601e-01,4.367964650934226256e-01,-7.540995487837875988e-03,-4.277049212060585193e-02,-1.291995320780599081e-02,-3.608991731721468421e-02,4.858605265617370605e-01
4.898806554237766786e-01,4.212110741714138462e-01,1.367821870624591485e-02,-5.475165953836172439e-02,-5.477514538293155877e-02,-5.112592087873069763e-02,4.739403128623962402e-01
4.671691784754653520e-01,4.273544295298866702e-01,-2.135510758192932235e-02,-4.330044514804817779e-02,-2.334133689467971645e-02,-1.949206755122236470e-02,4.787376821041107178e-01
4.774031753278933365e-01,4.570523279032024933e-01,-3.237934576926659869e-02,-1.767437834014435813e-02,-1.383222237636832878e-02,-1.992565458533300526e-02,5.026133060455322266e-01
4.701418316801784236e-01,4.813449703703570615e-01,-2.312065892493553321e-02,-4.343776412676223419e-04,-4.803735255767368172e-03,5.058462462960120441e-03,4.991052448749542236e-01
4.545557179089259048e-01,4.602413483098518610e-01,-1.535803322309209351e-02,-2.643163130703812119e-02,-1.706297556545101346e-02,-1.257165349664964363e-02,4.764100015163421631e-01
2.684317988662224819e-01,5.283993560635041886e-01,-1.350053216057413574e-01,-2.520469003672504704e-01,2.527704741621412260e-02,1.013601776970822314e-02,7.266588807106018066e-01
4.880928810482998426e-01,4.543829231594288531e-01,3.780958379421606175e-03,-3.780931412674814855e-03,2.698839238517094716e-03,-1.326856678571922132e-02,4.690001904964447021e-01
4.836157912472056064e-01,4.520630084179905750e-01,-2.270617682439318719e-02,-1.008426417525890538e-02,-1.290324494335462653e-02,-8.998644448453923389e-03,4.923709332942962646e-01
4.802143379397580958e-01,4.633752337078032579e-01,-2.960832557796450049e-02,-2.715158238313649264e-03,-4.897091425133368731e-03,-7.756676936529581859e-03,5.018887519836425781e-01
4.998116837270539237e-01,4.392267310899958810e-01,-1.827156986307154618e-02,-8.487603568308865060e-03,-6.758542532431325786e-03,-2.263470029780511109e-02,4.925270378589630127e-01
4.866702199272376905e-01,4.281910022347129585e-01,-2.710812533003198466e-02,-1.203976897667849953e-02,-1.600951146505978293e-02,-1.845842141268294948e-02,4.894574284553527832e-01
4.720550336436822869e-01,4.813156289028929224e-01,3.311594855109234459e-03,1.702552599626579915e-03,-7.000151357815074908e-03,9.345233687209714363e-04,4.736088514328002930e-01
4.827557352482781949e-01,4.471776024870296462e-01,-3.052201660801306948e-02,-3.855912839836055702e-03,-4.034161438054342450e-03,-5.495465253893055610e-03,4.966310560703277588e-01
4.859001359312359325e-01,4.462332156747954026e-01,-3.104806794874676035e-02,6.183604441652836633e-05,-8.487832366851754545e-03,-6.213017939081363385e-03,4.986332356929779053e-01
4.190397426447569629e-01,4.237016433404681703e-01,6.348039960112961122e-03,-2.299348817298596959e-03,-1.923507934108874317e-04,-7.712565240896006053e-04,4.150636792182922363e-01
4.823389158597690685e-01,4.622082136756080484e-01,-3.046164371772580592e-02,-3.818649472287330741e-05,-1.843000002779059338e-03,-4.444639945026751526e-03,5.031064152717590332e-01
4.822815190795336493e-01,4.593675285772502725e-01,-2.737978041105615379e-02,-1.209945165814705096e-03,2.066723228082719289e-03,1.504763349876714297e-03,4.986234307289123535e-01
4.816677005728966510e-01,4.684677450324972736e-01,-2.153318154377348304e-02,-1.189535617313781501e-03,2.151739644714557517e-03,-5.781049291352753465e-03,4.968516230583190918e-01
4.863736901329226425e-01,4.520517178058245378e-01,1.835053518419615948e-03,4.532835414995850000e-03,-2.644053196356176052e-03,-6.609461174928706571e-03,4.685499370098114014e-01
3.991911056679751657e-01,4.500997667789596313e-01,-1.586019545753658555e-03,-1.999864070811991495e-02,-1.038661202338319982e-02,-1.377823569816382689e-02,4.309408664703369141e-01
4.796879806617411757e-01,4.672032307567165477e-01,-9.654294507776217671e-03,9.348949801835991329e-04,-1.213732952771934184e-03,5.193535894246020974e-03,4.833118915557861328e-01
4.822372378424973904e-01,4.667055038353927765e-01,-8.161624580918902527e-03,6.457607599773314971e-04,5.906330403127397132e-04,4.995305977888774528e-03,4.829002916812896729e-01
4.610859870948557093e-01,4.599963215588418475e-01,-2.803987662014117976e-02,-2.317880071244911473e-03,1.534066005116619703e-02,1.823479144568660587e-02,4.903386235237121582e-01
4.555780383703647018e-01,4.710413774458092617e-01,-3.530405050568946601e-02,-5.463985394251428575e-03,8.828682343705776536e-03,1.020533874849281417e-02,4.994305372238159180e-01
4.702603259542093017e-01,4.633557013349550724e-01,-2.472233371449500394e-02,-5.555126583092429016e-03,5.944718497061334678e-03,8.678181901750778304e-03,4.919983446598052979e-01
4.760945207302254012e-01,4.718436842157617828e-01,-3.433724437670815366e-02,-1.087237715168981947e-02,2.181820109943243338e-02,2.194326383588667342e-02,5.114842653274536133e-01
4.522167003877649583e-01,4.566328052611314803e-01,-2.434796160542018750e-02,-3.419949066953027056e-02,2.534722114608187887e-02,1.900304573872859532e-02,4.855487048625946045e-01
4.252819467247507257e-01,4.189556387798861747e-01,6.386494499905137623e-03,-3.201373899337269999e-03,-4.970500254763342242e-04,-2.673634059510866649e-04,4.158065319061279297e-01
4.729074804774551222e-01,4.775566218310318689e-01,-2.738639802123610245e-02,-1.458650825442164411e-03,-3.406069393121425020e-03,1.422166616519551438e-04,5.026755928993225098e-01
4.666108996278600096e-01,4.761629359253306548e-01,-2.939291122424175784e-02,7.195896138794834586e-04,-1.279441971850787648e-03,2.856124774220100606e-03,5.008790493011474609e-01
4.517015203646825294e-01,4.324328893514771677e-01,-2.664959098368746560e-02,-2.209841480345100043e-02,-1.840501888605894018e-02,-1.954137990767223707e-02,4.728644192218780518e-01
4.688119371499979149e-01,4.752063290167781728e-01,-3.121264894925834810e-02,-6.987055798492716654e-04,-1.128666314898558900e-04,6.759967991323878406e-06,5.032537579536437988e-01
4.688960179905302117e-01,4.773356629348098901e-01,-3.026567400013829845e-02,-1.480834317528077716e-03,-5.758506489661601455e-04,1.291937975432988668e-03,5.034470558166503906e-01
5.003222742912987187e-01,4.603279145201175648e-01,-3.894706785354473677e-03,-2.463455338044135898e-03,5.331055480791905762e-03,3.035609845488540168e-03,4.855920076370239258e-01
4.792583233340078075e-01,4.725142906880832605e-01,-2.070481282618458208e-02,3.599496067628230153e-04,6.520594967380896959e-03,1.315301903078057964e-02,4.972763955593109131e-01
4.955958923777522562e-01,4.554937623576861272e-01,-1.710680975237593993e-02,6.239936789838372404e-04,-4.151613593814108306e-03,5.177880876266499621e-03,4.940091967582702637e-01
5.071982288090042257e-01,4.184042484790622685e-01,-3.076096056630656106e-02,-1.296665512483541512e-02,1.692899869621314335e-02,2.822905946198332391e-02,5.032610893249511719e-01
4.964819512467870677e-01,4.591637620879610582e-01,-2.781411892161395061e-02,2.687178731166096554e-03,-1.294951721108222962e-03,8.771022968065447095e-03,5.069227814674377441e-01
4.833960330647465442e-01,4.555207403980913727e-01,-3.190967183779780392e-02,-2.976019008429123605e-03,5.658533937035655978e-03,6.723518344398484933e-03,5.022060871124267578e-01
4.549062586264423502e-01,5.045451408173776686e-01,-2.459685623450297287e-02,-1.277967911314649430e-02,-1.797659817049130151e-02,-1.375516679554133169e-02,5.081498622894287109e-01
4.826802945672344913e-01,4.754141397707353778e-01,-2.159339822038297552e-02,3.811743102721131329e-03,-1.815086396672739404e-03,-3.154008714786313283e-03,5.007633566856384277e-01
4.833350672632213962e-01,4.566111063209680188e-01,-1.136380102338424569e-02,2.023952780681750885e-03,2.274438718179673871e-03,6.951654273728040921e-03,4.820722043514251709e-01
4.828452469561583804e-01,4.759244064658959550e-01,-3.409039959630627559e-02,3.687561467938081303e-03,5.288125598728387472e-03,-6.227863577060304421e-04,5.136327147483825684e-01
4.540103789973842785e-01,3.594744693903885180e-01,-2.544377662000829599e-03,8.327196357601225618e-02,9.875535115641142017e-03,-3.063913483503637875e-04,4.419434070587158203e-01
4.814320534988814071e-01,3.924617009845098314e-01,-4.914301793512931837e-03,3.903477204489618629e-02,1.114372867659056861e-02,-4.858252341210561945e-03,4.540843367576599121e-01
4.972062757377339604e-01,3.610455928740330389e-01,1.642863895825796838e-03,2.458639240368569456e-02,5.556095786520269964e-04,-4.594002164772928616e-03,4.455606341361999512e-01
5.096895098346478914e-01,3.484575717699583408e-01,-4.384941806385156404e-04,2.405547243723723042e-02,1.175847636195770374e-02,9.354238286432968452e-03,4.543024003505706787e-01
4.655900581782800307e-01,4.095293579807648965e-01,-3.341516808934186233e-03,1.195900537581768945e-02,4.457502387756062841e-03,-2.207299344899438676e-03,4.441331624984741211e-01
4.700901022560930453e-01,4.141153074163062553e-01,4.765564157598878303e-04,3.776080224070128138e-02,-3.159567108972490164e-03,-6.392563488860089974e-03,4.492368102073669434e-01
4.659939365783136722e-01,4.024175179780108413e-01,4.989924609840046266e-04,1.150140383216352938e-02,3.623925268884171935e-03,3.045789400597042436e-04,4.376865625381469727e-01
4.575387000891381062e-01,4.527455079197698629e-01,-2.942140658221492622e-02,-6.124746666544974953e-03,-8.248443561616639746e-03,-4.976999109672977477e-03,4.849845170974731445e-01
5.221753059302250977e-01,3.843180626538420519e-01,-1.192010942201826573e-02,3.668607211687990172e-02,1.093850072617365797e-02,-1.114570421172403868e-02,4.851832985877990723e-01
4.967165057931329231e-01,4.147091341959008304e-01,-1.296968002548037902e-02,3.006217733129791861e-02,1.136435263923802307e-02,-8.342491249526025332e-03,4.775087833404541016e-01
5.367095607550786962e-01,3.907064795849777283e-01,-1.201232901886262194e-02,6.975732070860564404e-02,7.943586965605504285e-03,-1.996983287702707582e-02,5.082139968872070312e-01
4.765593872930904418e-01,4.193665874032722063e-01,-1.665651933997341905e-02,3.087054120952764658e-02,1.027266829809212779e-02,-8.113583760886325033e-03,4.708477258682250977e-01
4.508808266112214191e-01,4.216686363256201275e-01,-1.718276979660604553e-02,7.887406411843707332e-02,3.086362889830330733e-02,-2.058815017158591165e-02,4.785983562469482422e-01
4.751270372370632322e-01,4.450590472662115382e-01,-2.575348198303933911e-02,5.171921969562322252e-02,2.960812748229487562e-02,-1.722010498950603610e-02,4.982660412788391113e-01
4.033836650855969763e-01,4.678892039183027984e-01,-8.360981146886270476e-03,3.507837225129448178e-02,-7.311209481598923872e-03,1.006749187102536774e-02,4.521175920963287354e-01
4.230980934637326718e-01,5.130106143535370089e-01,-4.466308833105947507e-02,4.387400870954250715e-02,-6.210254467145428364e-03,1.720041904972546484e-02,5.250908732414245605e-01
4.225056424779445319e-01,5.101397001267866660e-01,-1.483750961501778542e-02,4.609412048240105197e-02,-1.477108603174451945e-02,1.837859048600801876e-02,4.952946603298187256e-01
3.852605543162231916e-01,5.233930753603450725e-01,-1.619667651647116458e-02,2.788484235389253676e-02,-9.341494866960467491e-03,7.243928837553441705e-03,4.883182346820831299e-01
4.503286083444159038e-01,4.722586189664114142e-01,-3.145373957880792659e-02,6.305207606381223184e-02,-3.308255261733446945e-02,3.528042671696739185e-02,5.119617581367492676e-01
4.578326050827609128e-01,4.610936506812537417e-01,-1.091862784946573406e-02,7.081429237822907397e-02,-1.591163857285474506e-02,2.784478690325015854e-02,4.892816245555877686e-01
3.949443904204398281e-01,4.458797360395575504e-01,-2.150574939492988502e-02,1.092999063061503573e-01,3.641832046443787847e-03,1.737064919475653571e-02,4.837577641010284424e-01
4.415419058395415042e-01,4.597926012604141022e-01,-1.877309515562930464e-02,2.496986537306178366e-02,8.699089433625396134e-03,-9.496692607221621230e-03,4.722204208374023438e-01
4.800341295730305435e-01,4.703691524028951187e-01,-2.130856507198636285e-02,5.929931557436286631e-03,-6.757370360157355718e-04,-4.866020770717376619e-03,4.967598319053649902e-01
4.275760057142891646e-01,4.362471119915919404e-01,-1.988120148244920671e-02,-5.473302145849068961e-02,-2.750168677767831152e-02,-2.595592627428498084e-02,4.663157165050506592e-01
4.773210727821051158e-01,3.876326041718839988e-01,-1.952636237690674736e-02,-4.951912748949475335e-02,-2.092452241478853087e-02,-2.497637849545650962e-02,4.699801206588745117e-01
4.684854464667615459e-01,3.809911396712241660e-01,-5.648151917139909717e-03,-5.398577333598747474e-02,-2.610467397894176284e-02,-2.826348597829772546e-02,4.518386423587799072e-01
4.328704691737375043e-01,4.012908330886280073e-01,-6.317374242494400161e-03,-4.402144601495019960e-02,-1.513050301118223917e-02,-1.393466527131625131e-02,4.325469136238098145e-01
4.466595326369740548e-01,4.814309070556835879e-01,-2.838335765419763845e-02,-8.100846178429009503e-03,1.792165681545042051e-03,3.502340001030506897e-03,4.935949742794036865e-01
4.555696927590966450e-01,4.835682096679705388e-01,-2.240381440665772939e-02,2.590506628409221159e-03,-3.148805327493073639e-03,4.492114041168167034e-05,4.926205575466156006e-01
4.644252712691526730e-01,5.085289333392661870e-01,1.275062478793709264e-02,-1.560776311887692239e-02,-3.055226864895467520e-02,-2.082408911278352693e-03,4.789778292179107666e-01
4.563543192958176009e-01,4.906062770774817228e-01,-2.266564342815147182e-02,1.181546097792987365e-03,6.548241084731262589e-03,4.977787918649023181e-03,4.972402453422546387e-01
4.531744918230492525e-01,4.876761897620427444e-01,-1.191245742194774193e-02,1.145905684217716353e-02,-2.421986922019406588e-02,8.148648622885196202e-03,4.856907129287719727e-01
4.528964781030083708e-01,4.908416925282219623e-01,-2.312586562647989119e-02,9.139268915855903140e-04,-5.971898908669077272e-03,2.682894527529732041e-03,4.962166547775268555e-01
4.723148756592592812e-01,4.793258680465753985e-01,-1.810286477627021107e-02,-3.428883455003094421e-03,-1.915831852117962130e-03,-7.175878278775913062e-03,4.941637217998504639e-01
4.639478291352763240e-01,4.840919153633508332e-01,-2.026992649348041686e-02,4.981771397223565094e-03,-4.511840362442703705e-04,-4.516890577413988986e-03,4.947353005409240723e-01
4.198092499686644219e-01,5.222847244886186235e-01,-2.115139688730005574e-02,1.021974122951918584e-02,-1.499454769040721620e-02,-2.647456162976225685e-03,5.011427402496337891e-01
3.833635158265216725e-01,4.647985763474886678e-01,-1.727170736183669675e-03,-9.657325601425391717e-03,-9.789817263279638679e-03,-1.385578862601768470e-02,4.329314529895782471e-01
4.761346258591100944e-01,4.944880247343712565e-01,-4.961939171947982175e-04,9.718772482276066826e-03,-6.527991786635723923e-03,9.380978159676848019e-03,4.867615401744842529e-01
4.449966465801562521e-01,4.364403125773141934e-01,-1.637124888301150216e-02,-7.996843528333212256e-03,-7.780765760638404076e-03,-6.074486021150556601e-03,4.576790332794189453e-01
4.780421180447507190e-01,4.802703701251943569e-01,5.918847270132143734e-04,2.419681828623693881e-03,-4.776512429119585471e-03,-2.097741757730878231e-03,4.786718785762786865e-01
3.301545932870266764e-01,4.547239306185141272e-01,-8.508794778027967132e-02,-2.841637403523361582e-01,5.900235234771310927e-02,6.292016491523613753e-02,7.100972533226013184e-01
4.636198951772120269e-01,4.780309844208213699e-01,-9.034003325433193066e-03,4.852737365325020258e-02,4.094158611163241195e-03,-9.270849173451722663e-04,4.873791337013244629e-01
4.622310547925959634e-01,5.537135361610048268e-01,-3.466948411286363552e-03,1.324228908463257436e-02,1.784641181663221146e-03,3.407000360273986297e-03,5.180900692939758301e-01
5.076543763393708275e-01,4.369704329960338862e-01,-1.543031621721652202e-02,2.439645689635406775e-02,1.681429007225970773e-02,-3.366613358036722736e-02,4.976686537265777588e-01
5.040495237907838266e-01,4.174463905731224944e-01,1.982924041262862369e-02,1.376059328048694248e-02,1.496697127214393491e-03,-2.250365869804708124e-02,4.495869278907775879e-01
5.457866887908644493e-01,3.606022435074313637e-01,-2.205108644969633325e-02,4.134310413469482332e-02,7.656640918745862522e-03,-2.839390776649530768e-02,5.092156529426574707e-01
5.011235179686516217e-01,4.150872887850865500e-01,-1.578980882780434136e-02,7.343513232699404314e-03,5.635998362143162382e-03,-1.810503008214333492e-02,4.810081124305725098e-01
5.670349462383519334e-01,3.465129286995254909e-01,-3.656776386042165372e-02,4.903390466711229911e-02,6.417175210021885089e-03,-4.842203115785412293e-03,5.359714031219482422e-01
3.678243586603514581e-01,4.877524008769106856e-01,-1.213351227493408846e-02,-1.008574831309694414e-01,-6.015416095060839574e-02,-4.300898679369168781e-02,5.012383460998535156e-01
5.132036170198976954e-01,3.844883348266489032e-01,-1.434037319392245102e-02,3.035069120579120955e-02,2.023819430663253982e-02,-3.110883209974220701e-02,4.835936725139617920e-01
3.455186170612468688e-01,4.709192099589143421e-01,-7.128899164589919124e-03,-8.444704921826876043e-02,-3.020872087133710110e-02,-1.431959833626756870e-02,4.572248458862304688e-01
3.585607357008290808e-01,4.728654787685449001e-01,-5.618788347358460999e-03,-1.170467677743634721e-01,-2.477212372138860863e-02,-1.937374423810095739e-02,4.810265898704528809e-01
2.883412362860420242e-01,4.858437855820437745e-01,1.777825000138955058e-03,-1.357611546266815628e-01,-9.503048041528277395e-03,-3.199744267153567089e-03,4.830297827720642090e-01
4.918048708611499342e-01,4.227869282453349253e-01,-1.834370718031347325e-02,1.389978358832276092e-02,-5.523483983114244565e-03,2.593668134592951036e-02,4.821772575378417969e-01
4.878028098584177297e-01,4.807082216981116707e-01,4.278788358721158369e-02,1.341804928217028847e-02,-1.996680655325510159e-02,3.628938163011249940e-02,4.479043781757354736e-01
4.893051755206834219e-01,4.645567699537002659e-01,-1.998396612934544292e-02,7.340932326129709709e-03,7.808080024556227506e-04,7.345375777080965889e-03,4.977039098739624023e-01
4.831802873777955587e-01,4.716702296093265301e-01,-2.132519177062214277e-02,3.325352809677587732e-03,-4.656332229618828297e-03,8.464604323079960926e-04,4.989506304264068604e-01
4.761934171541647443e-01,4.756252305930336322e-01,-3.605644918565287238e-02,3.000557092126724702e-03,-3.392102431594362709e-04,1.111652332095265303e-02,5.123546719551086426e-01
4.889685397182707005e-01,4.702756386895527996e-01,2.020479972586308737e-03,1.589865426778870258e-02,-5.395604475906580662e-03,2.404636948514284403e-03,4.787779748439788818e-01
4.783395099991696320e-01,4.799696358188475509e-01,-1.128691440026668991e-02,1.800884318694368630e-03,-1.263834786003028643e-03,-4.417853139517168015e-03,4.905180037021636963e-01
4.770408176052230997e-01,4.697793247090635838e-01,-1.947510492676995941e-02,7.994206211662273007e-03,-1.110572672104645497e-02,-2.450534581295709356e-03,4.935130178928375244e-01
4.768602949203638031e-01,4.681334203896848623e-01,8.971102760620741634e-03,8.167834073093301062e-03,-1.054050772180441589e-02,-4.705052070160831504e-03,4.642338752746582031e-01
3.644139710373943131e-01,4.707882691771664851e-01,-2.527782216202201226e-03,-2.367756000689498139e-02,-1.149897131724316943e-02,-1.372441833406674340e-02,4.331726431846618652e-01
2.889693164831548811e-01,5.142255590102274843e-01,-5.474371300330682644e-03,-5.375472399159944570e-02,-2.431620642448192871e-02,-9.384776198281010590e-03,4.631085097789764404e-01
3.581813422903067368e-01,4.249214104284008697e-01,-2.671757969390287091e-03,-1.021765154025414124e-01,-2.192202246433250235e-02,-2.100591314919588240e-02,4.391334056854248047e-01
4.031565377658034577e-01,4.242885885521520128e-01,-6.542282059284143525e-03,-4.760806487729184189e-02,-1.736771740488136928e-02,-1.703938084478834325e-02,4.307354092597961426e-01
3.887861459495761673e-01,4.776342106803168619e-01,-8.876393170843543956e-03,-8.019314424263500329e-02,-4.350088968636200287e-02,-1.712556362029282742e-02,4.766662120819091797e-01
3.878538039428391371e-01,4.990456377420063316e-01,-1.883962454878074233e-02,-3.093509673119424278e-02,-3.014812949765141234e-02,-2.695321782468728528e-02,4.803761541843414307e-01
4.105851626016180367e-01,4.484387016450293029e-01,-1.301363447520170746e-02,-1.289187713593646645e-02,4.630004458668354229e-03,1.065545541384271822e-02,4.447550773620605469e-01
4.344011497456152782e-01,4.770189988702807082e-01,-3.256970383092305799e-02,-4.864299890521833238e-03,1.033172725667790351e-02,1.316943761415608968e-02,4.906025528907775879e-01
4.714711382301471909e-01,4.736179580733670402e-01,-4.810282505433971512e-03,7.636090606911896499e-03,-1.011604692329377657e-02,-1.690159807562832250e-03,4.778719544410705566e-01
4.922317814341997666e-01,4.555553224902733067e-01,-2.471937053814921015e-02,7.257963593472755402e-03,-7.314347262532331067e-04,3.217815485455646340e-03,4.998143911361694336e-01
4.994880884891227391e-01,4.831482851479772522e-01,2.964445081441779983e-03,2.953597049180460912e-02,-1.646024040257476964e-02,-1.286815447481932419e-02,4.925609827041625977e-01
4.814916781891726560e-01,4.688769734211016837e-01,-2.184916337246622930e-02,5.763267316226832783e-03,-4.084140066319797736e-03,3.533328283633640089e-03,4.973417222499847412e-01
4.809549015831769969e-01,4.849280820284214144e-01,-2.277683993250134709e-02,2.947981970463399437e-03,-4.385214791277783006e-03,3.127308697420784402e-03,5.058418512344360352e-01
4.972161291171148800e-01,4.370543206040805595e-01,-1.082194936242147909e-02,1.491285196552862187e-02,-1.837928183284416248e-02,1.464998076058016477e-02,4.831998348236083984e-01
4.811510398817789858e-01,4.712623330730789650e-01,-2.835153327670403289e-02,5.177711287913893019e-03,-6.693987686059968585e-03,6.254578690267069419e-03,5.049599409103393555e-01
4.838763827428170794e-01,4.660726470392063669e-01,-1.141564607356687633e-02,1.067612725518600134e-02,9.883339858544412312e-03,-2.991097161402637202e-03,4.873140156269073486e-01
4.832945816601424971e-01,4.746480726689439877e-01,-1.033939418900348128e-02,2.047330876301187152e-02,9.403629525573140718e-03,-8.401402115805161122e-03,4.911369979381561279e-01
4.191902995486628813e-01,3.892917425092436434e-01,1.069397863414867089e-03,-6.519116571385408232e-02,1.304958116660185144e-02,1.292708870215336647e-02,4.206895232200622559e-01
4.233102674060819082e-01,4.226520896934850002e-01,9.088902652928998460e-03,-7.934852778767957637e-02,9.602707620950383383e-03,9.487557126017584150e-03,4.367406368255615234e-01
4.154155453247442287e-01,4.481788333145079184e-01,4.028141130027584893e-03,-2.202467678691413452e-02,1.288503199293815349e-02,1.416530199907271859e-02,4.316789805889129639e-01
2.742359189203782410e-01,4.454251732836420063e-01,-8.838504126568164088e-02,-2.615026249551068993e-01,3.514829621363590312e-02,1.075870267893461879e-02,6.573286056518554688e-01
2.536901624461816440e-01,4.767830836596741451e-01,8.703268044813777804e-03,-1.654739593389621122e-01,2.708060934019426019e-02,2.294632009948745568e-02,5.003682971000671387e-01
3.439543784103036295e-01,5.010823812685238909e-01,-6.618084821173597643e-03,-2.460934099200116632e-01,1.842693370808626274e-02,-9.114309518787286693e-03,6.209901571273803711e-01
4.758111403890571411e-01,3.643319260944050120e-01,7.021647844940082095e-03,-1.295787612186513338e-01,1.415285977589838748e-02,1.086506300639507143e-02,4.808928668498992920e-01
4.201195237252787762e-01,2.311908517218992098e-01,-3.919203097461049223e-03,-2.391580402324996191e-01,2.478293779706654265e-02,2.349566514980650639e-02,5.572057366371154785e-01
4.023412402651305175e-01,2.532629502625372564e-01,-1.329192386855834740e-02,-2.330558368921437085e-01,7.088632676262736007e-03,1.653312498582149015e-02,5.449121594429016113e-01
3.435962384025705862e-01,4.832296138078884251e-01,-9.177541563308688755e-03,-1.382223033033873338e-01,2.572222553205930073e-02,2.480993354710151963e-02,5.043347477912902832e-01
4.747481105037965055e-01,3.567161491828894637e-01,-1.449444278403061448e-02,-1.348301073819590801e-01,4.259430256778364010e-02,4.619670202268741366e-02,5.117872953414916992e-01
4.812914996962753822e-01,4.724412324630919979e-01,-2.942256659151865072e-02,5.167602273838640438e-03,5.755723351195011356e-03,5.909342027090432048e-03,5.066275596618652344e-01
4.930793867664204910e-01,4.811684269903939160e-01,-1.335974639957199228e-02,-7.114489980401698997e-05,-3.418215269202186206e-03,1.360449850254674339e-02,5.011792182922363281e-01
4.757041401068616837e-01,4.730772756376104837e-01,-2.762100789516358512e-02,2.302801060921674543e-03,4.636267955875258626e-03,3.173373767199760918e-03,5.021269917488098145e-01
4.844067120261653647e-01,4.587374244496689180e-01,-3.494516241027079140e-02,4.947402335944571690e-04,1.215198144115281834e-02,1.396175342159988036e-02,5.080181360244750977e-01
4.793191093791036028e-01,4.193314395676970285e-01,-3.041516644852026996e-02,-1.792407622994660749e-02,1.353546110926611389e-02,1.527202907184320793e-02,4.848328828811645508e-01
5.066850665640805218e-01,3.999810203547848331e-01,-2.378093110680506994e-02,-2.146791839133093543e-02,8.262798286066153422e-03,1.934189992765958030e-02,4.887605011463165283e-01
4.824756148267899669e-01,4.707458848498587978e-01,-3.483760168646732325e-02,6.583144013807541023e-03,4.349844253802504467e-03,8.080284122822422232e-04,5.117336511611938477e-01
4.858194073391682855e-01,4.732541922630693065e-01,-3.507258120502237952e-02,7.086403178211213814e-03,1.119531987812521882e-02,1.004753454971310175e-02,5.155295729637145996e-01
4.858332082305579780e-01,4.763051897065108120e-01,-2.767168529949093347e-02,4.439977129027667356e-03,3.253046530379382663e-03,3.354454972564945882e-03,5.089302659034729004e-01
4.879603889742147871e-01,4.625709826650522549e-01,2.969649589312894911e-03,1.923572457004733664e-03,1.042467700732055066e-02,-1.771838561482172794e-03,4.731739163398742676e-01
4.972476138375818699e-01,4.614240214174260002e-01,-1.855847838151120088e-02,1.840612340048502962e-03,-6.164145635497550631e-04,3.896079590492867919e-03,4.989168941974639893e-01
5.007015596038484340e-01,4.113155530530008819e-01,-7.946345678190191997e-03,5.529520308139997467e-03,-4.815838296321318414e-03,3.095743433910979822e-02,4.735851883888244629e-01
5.098190369348289952e-01,3.967988737940298938e-01,-1.435401342075132147e-02,2.488040786706014265e-02,-1.742249466774173534e-03,1.013591397380779122e-02,4.800658822059631348e-01
4.382828565784078201e-01,4.072400074041783169e-01,6.332471448921295210e-03,-3.805680390667004476e-02,5.696798732668198993e-03,4.873356859841444268e-03,4.226693809032440186e-01
5.395516177932360158e-01,3.046616327810854896e-01,-4.651032606164839933e-03,-8.816376403885203177e-04,4.845388965376739437e-03,2.041601003887310445e-02,4.741574525833129883e-01
5.408687831811604951e-01,3.627554334540754599e-01,-1.131869246159933340e-02,7.519945136431298305e-02,-4.046823422622933784e-03,8.233456099960956287e-03,5.054708719253540039e-01
4.521158966276465074e-01,4.266341514751117447e-01,-2.980266869010339548e-02,-2.732631170482098179e-02,2.277970702826991045e-02,2.229053685490548983e-02,4.752917289733886719e-01
5.197139349072745773e-01,3.656895038068143644e-01,-8.623563650806076453e-03,2.942506144946150509e-02,-1.159493614494264482e-02,1.704893182630480564e-02,4.747209548950195312e-01
5.138174472452075037e-01,3.864562146497542150e-01,-1.604770861323667752e-02,1.436117605629809099e-02,-3.409623778873219040e-03,2.394593259732458873e-02,4.815262258052825928e-01
5.140473900250631667e-01,4.063361440310737649e-01,-6.777775489445025947e-03,3.879418816373899487e-02,-8.619822268895554335e-03,-3.821561374690194898e-03,4.811896979808807373e-01
5.031279398957482218e-01,4.133500308290746772e-01,-1.421637047019536082e-02,6.931912459252436570e-03,1.195839421038679372e-03,3.714083886625175329e-02,4.832658469676971436e-01
4.766763346910194432e-01,4.536553956271284216e-01,-3.482897332155465708e-02,-1.677606849756260255e-03,-7.629498719410074230e-03,-7.841719624176844358e-03,5.007593035697937012e-01
4.821263545558284180e-01,4.630394289998920332e-01,-3.458114628781094879e-02,8.602700790461320548e-04,-4.974706920461807215e-03,-3.014609426372704629e-03,5.075355172157287598e-01
4.236369571922036781e-01,3.809397930574333624e-01,1.530507982834772296e-03,-6.222691363729074276e-02,1.054827828377665616e-02,7.899958290528643137e-03,4.172669947147369385e-01
5.107985056230613941e-01,4.157494288648549974e-01,-2.336940342518450953e-02,3.076249098388338793e-03,3.719554425257102018e-03,1.770243167566456707e-03,4.936363101005554199e-01
4.465588707452108896e-01,4.254234115506211333e-01,-6.480409062802228171e-03,-2.963849309886219460e-02,1.059750175318691957e-02,7.709769871846152561e-03,4.463929533958435059e-01
4.467266574909387611e-01,4.348745821885583451e-01,-1.723969327137164775e-02,-1.484175767839853929e-02,1.956702782676136149e-02,1.789751962474945418e-02,4.611688256263732910e-01
4.367166148761064126e-01,4.068555024795554864e-01,-1.192719609443682049e-02,-4.533660085728204170e-02,3.174372127414848421e-02,3.464466564845346958e-02,4.489609301090240479e-01
4.425540876013127622e-01,4.621268564807171075e-01,-1.551410715481765790e-02,-1.260295741652166755e-02,1.993249182642528594e-02,2.115961544590620053e-02,4.713669717311859131e-01
4.271468186005769052e-01,4.556491882950928218e-01,-1.699205551536459025e-02,-2.585375491530534850e-02,1.679480964288599179e-02,1.764104557105748011e-02,4.631585180759429932e-01
5.068324773638060998e-01,4.080105520250587592e-01,-2.931841969837828410e-02,-1.197852068379108917e-02,-1.311416940460499204e-02,-2.736000760698249420e-02,4.974255859851837158e-01
4.878582281951713839e-01,4.484201284095833406e-01,-2.416155562575605931e-02,-6.224114005604268994e-03,-3.630761856109151163e-03,-7.718042851014369696e-03,4.938228428363800049e-01
4.879345811905167474e-01,4.621302279877843588e-01,-2.796702869434164462e-02,2.301536375759737855e-03,-4.815026247668814305e-03,-6.237250482082505598e-03,5.036963224411010742e-01
4.807257799457481662e-01,4.537945440271204389e-01,-4.471490299810421121e-03,-1.235074318650668419e-02,-1.229896635827859184e-03,-6.125760024630206788e-03,4.729159176349639893e-01
5.087578252257057843e-01,4.350532156209812040e-01,-7.884910253096399924e-03,3.191556276199850745e-02,1.713805833778672336e-02,-2.302013937015540135e-02,4.896936416625976562e-01
5.092928001332430732e-01,4.243817956459856044e-01,3.629851089248115059e-02,-8.277695642113850867e-04,-7.354114758589143895e-03,-6.624828249418798255e-03,4.371121525764465332e-01
4.990466872721974201e-01,4.173106946654641658e-01,-2.517663740877662537e-02,-4.839995819959416919e-03,1.561168526868469790e-03,-8.913832570786695692e-03,4.888342320919036865e-01
5.007401791185539519e-01,4.724516239813721374e-01,1.784079766649065979e-02,1.581335579836911157e-02,-1.745553046179989414e-04,-2.074727496701270213e-02,4.715645909309387207e-01
5.092568518235087716e-01,4.305513049999621922e-01,-4.157744350935632660e-03,-2.029066720579429401e-03,-3.498533367832228069e-03,-2.570408143174013164e-03,4.790087938308715820e-01
5.724374576339227305e-01,3.552308722853127487e-01,7.154447329397217725e-02,1.737389407305897637e-02,-4.019799171455325226e-02,-1.147923801899283780e-01,4.843142628669738770e-01
5.634349703101053652e-01,3.188422141389804509e-01,5.480815310126158080e-02,-4.138445696560343057e-02,-4.905439005155631110e-02,-9.551266664555922714e-02,4.835757017135620117e-01
6.119692856388625479e-01,3.835983910057573221e-01,4.958540045319842493e-02,-1.074745548730822037e-01,-5.090968790886695600e-02,-7.728792330720721249e-02,5.480372309684753418e-01
5.727862148743179116e-01,3.095986034223958683e-01,4.578504800687316356e-02,-4.524241309626432506e-02,-2.034699415802421890e-02,-1.003165418095764566e-01,4.958534240722656250e-01
5.839125910343905268e-01,2.273669238710302465e-01,4.178894681467934524e-02,-4.520051912737409194e-02,-2.393918106569328449e-02,-9.234257934012377045e-02,5.110391378402709961e-01
4.326733244578306326e-01,4.646490845146730164e-01,-1.676232415944833853e-03,4.181825700342335639e-02,-6.527347179356559302e-03,1.328173406694907292e-02,4.576832652091979980e-01
4.285379925196974860e-01,4.274553405012158080e-01,-5.239741650397977679e-05,3.139157404042486332e-02,7.636871291034201883e-03,-3.286181582739490774e-03,4.317297041416168213e-01
4.218709148993096125e-01,4.246044227010817851e-01,1.027887832717955252e-03,3.552544637755676582e-02,3.429155722770930157e-04,9.232680769298084273e-04,4.266799688339233398e-01
3.853746801667711219e-01,4.359395471171546022e-01,-2.599073547416452801e-03,7.462214492821690748e-02,3.807332490363745346e-03,2.346662224157226861e-03,4.352742731571197510e-01
4.276581361470935261e-01,4.559706710072107261e-01,-2.625640541341711653e-02,-2.556636462248386421e-02,2.193515436963822812e-02,2.016522405524653547e-02,4.736198484897613525e-01
3.939151421549808019e-01,5.073423921713715590e-01,-1.912842824202032332e-02,-2.334224289755838008e-03,3.237711604430068557e-02,4.497055754479580177e-03,4.832628369331359863e-01
4.596969518513521757e-01,4.877988833635062971e-01,-3.063846724493241025e-02,-1.256487941235386160e-04,4.215324455087684011e-03,-2.601375716622944968e-03,5.050461292266845703e-01
4.803660438005584732e-01,5.132509084941756505e-01,-1.143194811987491288e-02,8.399745084988006344e-03,2.811522328231752521e-02,-5.529861102070253789e-03,5.116582512855529785e-01
4.818386970593147578e-01,4.782594860823911054e-01,-1.404907412840372682e-02,1.272609480541789587e-03,4.614063072521190287e-03,9.964926673518876719e-05,4.941774606704711914e-01
4.827583731590595617e-01,4.801543174160596283e-01,-1.351129373453457960e-02,2.791898263343210642e-03,3.708081506853753637e-03,-1.339157597646234909e-03,4.950434863567352295e-01
5.247394940481220349e-01,4.090659832462983925e-01,-2.581137196157323732e-02,4.259575141141742753e-04,-6.392251378002192751e-03,-2.400615759553056602e-02,5.046330094337463379e-01
4.826105938695488540e-01,4.575155617322084201e-01,3.837319896638324845e-03,1.949347526699756654e-03,1.475023905143388141e-04,-9.936431864037042344e-03,4.670614898204803467e-01
4.828759950567515502e-01,4.278629177667531702e-01,6.268754359660122510e-03,3.181941377238294705e-02,2.941423630878169451e-03,-1.294904051112957637e-02,4.555520713329315186e-01
4.848764581839304366e-01,4.517458460967940237e-01,4.065415584132764382e-02,-6.093117793961140213e-04,-7.369308118725453709e-03,-1.809447298647993106e-03,4.288211762905120850e-01
4.883525682623165998e-01,4.522413876826631984e-01,-2.205264892620190098e-02,3.649017083938217981e-03,3.339697699655510155e-03,-6.859008682107316365e-05,4.934162497520446777e-01
5.218005724844427817e-01,4.468339877867638643e-01,8.264115254058457261e-03,-5.480490749465116024e-03,-1.702171884416882677e-02,-1.754349586848630294e-02,4.824150204658508301e-01
5.413132175515673605e-01,3.887364789380179375e-01,-7.588105136504319503e-03,8.630470568636560910e-03,-2.198134620393305764e-03,1.210148594824677661e-02,4.914265275001525879e-01
4.970095005557306767e-01,4.500745616074173783e-01,3.930874545351215055e-02,1.012986473759086656e-03,-2.903009450550652574e-03,9.462806951342050531e-04,4.361671209335327148e-01
4.498509993183359423e-01,4.435520746827348315e-01,-4.654147479911052709e-03,1.021004858807972177e-01,-3.320898849655886959e-03,2.254032649580801906e-02,4.863975048065185547e-01
4.506544107113061859e-01,4.419312131875479110e-01,-3.152350794189517913e-03,2.748797491449786815e-02,-3.612454940760472313e-03,7.064380197687160357e-03,4.522318542003631592e-01
5.008525982750275940e-01,3.749934838158673900e-01,-3.319081257522671358e-03,6.254570262491790378e-02,-1.485242257386511905e-04,2.134902483060283768e-03,4.672522246837615967e-01
4.858509816377188928e-01,4.263616484582775090e-01,-8.308230726215282136e-03,3.213271812518522785e-02,-9.559955844951426723e-03,1.083039644400486667e-02,4.712310731410980225e-01
4.512425369907524519e-01,4.085294112429258551e-01,-4.892641202981440340e-03,2.026668105851128776e-02,-4.441550014150606740e-03,4.157558087632703611e-03,4.378858506679534912e-01
5.056335099227033947e-01,3.611979473107677086e-01,-1.721835739669108634e-03,3.499126015308699766e-02,4.696509529842571480e-03,-3.103319342013790769e-03,4.569016993045806885e-01
4.865678514153067846e-01,3.848201307739908539e-01,-8.996236169772742208e-03,2.177256018037606808e-02,-1.186964068731788738e-02,6.413179464483736818e-03,4.555019438266754150e-01
4.804604962560811710e-01,3.966701358489566620e-01,-2.828445082619701623e-03,1.307078622724367790e-02,3.275891732443342048e-03,6.288740778574720448e-03,4.480596482753753662e-01
4.829555248252164201e-01,5.040723691968818088e-01,9.989725843052404963e-02,-6.703168455071110803e-03,1.039100276339832533e-02,-1.923644574355007700e-02,3.960269987583160400e-01
5.040835201849029890e-01,5.292044101753879959e-01,8.785715443882519127e-02,-7.266760703269869569e-04,-8.236334258755120818e-02,-3.258938902891090478e-02,4.559280276298522949e-01
4.992917687200098542e-01,7.064253493514929261e-01,7.878029381796292085e-02,1.119568530690306513e-01,-2.644567299159138532e-02,2.549250151607294901e-02,5.903278589248657227e-01
4.924471200218359934e-01,5.012643134241464571e-01,6.567921173803892287e-02,5.199435393938408451e-02,-2.266540898318996841e-02,2.987925756403845071e-02,4.453102350234985352e-01
4.904065025574040337e-01,4.887842762254610562e-01,6.978536166054383205e-02,2.448066488262615192e-02,-2.433902737727355273e-03,-1.439081429160077481e-02,4.227048754692077637e-01
6.540556842720028907e-01,5.381729169974345250e-01,8.346634193921032008e-02,4.576962220773717754e-02,-7.488842712215998398e-02,-3.344669560496790761e-02,5.471242666244506836e-01
4.465776218442973344e-01,4.732680181643242334e-01,-3.050970195269936402e-02,-3.957853012308823991e-03,-5.524326990144910049e-03,-1.035884268591446243e-02,4.914456307888031006e-01
4.619578395223484790e-01,4.683672838766391733e-01,-3.641347985251264241e-02,8.706703369500835409e-04,-4.608720507418712260e-03,-6.286417870331519400e-03,5.017907023429870605e-01
4.547178775296754627e-01,4.570709627059124092e-01,-3.411475815096620678e-02,-5.505315290296434669e-03,-8.907436776281116991e-03,-9.918287012904057620e-03,4.906497895717620850e-01
4.563386906463291481e-01,4.388111658818827365e-01,-2.482216531995745656e-02,-1.325691793840278777e-02,-1.485524238766986783e-02,-1.372875004906118530e-02,4.744935631752014160e-01
4.585280488652530573e-01,4.580702257075745520e-01,-3.723820513692016609e-02,-2.136145409256237290e-03,-4.759492403631235789e-03,-4.950923972449279391e-03,4.956940710544586182e-01
4.538910516546006413e-01,4.535556872400008377e-01,-2.884850981087438981e-02,-7.473508338897663639e-03,-7.268590602947642455e-03,-7.410025178854552468e-03,4.830802083015441895e-01
4.807594929863847066e-01,5.275364410469852716e-01,3.298114370859794864e-02,-6.082216206750046001e-04,-4.640935962567677153e-02,-3.404686383953639539e-02,4.833005368709564209e-01
3.821878427754317187e-01,4.383208876174081725e-01,8.676780141304463179e-03,-1.951450942241220524e-02,-6.679637897384338701e-04,2.103725615837125952e-03,4.059369564056396484e-01
4.915756265306413519e-01,5.231101055795147614e-01,8.398885057404698040e-02,-1.833919882720617955e-02,-7.292733027490286291e-02,-1.067844999127865596e-02,4.441629052162170410e-01
4.197432141983349352e-01,5.299162294441915888e-01,1.205622706111925124e-02,-5.040897267244988378e-02,-6.215338254538804036e-02,-4.563069737582171881e-02,4.987200498580932617e-01
4.467483507156475020e-01,5.299964080072621098e-01,6.631079887263935380e-02,-3.420553510117035206e-02,-9.650506093575075828e-02,-1.783919477334013418e-02,4.644761681556701660e-01
5.130216102256472954e-01,4.200406047186127645e-01,-1.797165668362626922e-02,-4.498130182984177647e-03,3.770442239947357360e-02,7.130224572086789336e-02,5.106903314590454102e-01
5.017835212239543097e-01,4.223771173097986553e-01,-2.911783432148107309e-02,1.589019971932202255e-04,1.717667978343981328e-02,2.048163053516550633e-02,4.981448948383331299e-01
4.924109237775139980e-01,4.226793952930643083e-01,-2.970923075773995725e-02,-2.221433459613478961e-02,1.941778969840126171e-02,2.389031142016790482e-02,4.953660666942596436e-01
4.832171293855834771e-01,4.195186732912997152e-01,-1.843165261588852744e-02,-1.539427206655857513e-02,2.309150163141200640e-02,2.041350473470843196e-02,4.767761230468750000e-01
4.535445361635153660e-01,4.598773279653351476e-01,-1.764344082784380374e-02,2.013996194553434316e-02,1.397013468352186448e-02,-1.178006897359535135e-02,4.767187833786010742e-01
4.643933100882244869e-01,4.676607541713868610e-01,-1.050155634425709028e-02,1.224593173450379442e-02,8.214814026203940897e-03,-1.704169701678550503e-03,4.772300720214843750e-01
4.640173930520787859e-01,4.829763581193416422e-01,7.923777691104527676e-04,8.255687721659045464e-02,2.209675923514488674e-02,1.434621308501037203e-02,4.962340891361236572e-01
4.811018780507820836e-01,4.786378432556014917e-01,-2.478213960909247948e-03,2.532348393749496093e-02,6.824614691654798870e-04,-1.934163305291046117e-02,4.855015575885772705e-01
4.634860911910254622e-01,4.715151310806637852e-01,-1.703017660456068727e-02,1.336509697934652567e-02,-1.003242569505252181e-02,1.432113135920840691e-02,4.860777258872985840e-01
4.377732485772628523e-01,4.563389615250530440e-01,-1.367058361789447174e-02,4.826807746850055730e-02,-1.115654082909032195e-02,1.392029288217952118e-02,4.695442020893096924e-01
4.225073675461540335e-01,4.894124734746239658e-01,-7.893054257925968820e-03,5.742501596087239146e-02,-1.575651548157065013e-02,2.767990405708381941e-03,4.787248671054840088e-01
4.181310215321294432e-01,4.711681801197276642e-01,-2.548413512989100571e-02,7.143258262016036197e-02,-4.349027080146214419e-02,2.991931513795843822e-02,4.967927038669586182e-01
4.193860305588664739e-01,4.589417120285138041e-01,-1.173145388566582126e-02,1.268682948185853032e-01,-8.396819206472869212e-04,2.027686025442804532e-02,5.039864778518676758e-01
3.740873295732868309e-01,4.982766791013143459e-01,-3.438535964119748822e-03,4.029698014450815852e-02,-2.231112802479183130e-02,4.929373396040863213e-03,4.596425294876098633e-01
4.403436050769746757e-01,4.783816999574405093e-01,-1.967122582384533969e-02,3.827642710084121214e-02,-1.147924638564646986e-02,1.779979894973434187e-02,4.861066639423370361e-01
4.467464407495495005e-01,4.861905428684427655e-01,-1.116163745969156462e-02,8.845360672853498640e-02,-1.044243359363032425e-03,2.637296112164042722e-02,5.048360228538513184e-01
4.423870475575227279e-01,3.851929896720849289e-01,-8.923861491560602932e-03,8.229672507630947376e-02,-1.065842563183097558e-02,2.749334553372287382e-02,4.517378807067871094e-01
4.108643879687434719e-01,4.536723435279998995e-01,-2.006967057963215950e-03,3.318642470249035664e-02,-1.499739559567572593e-02,1.788162706235571150e-02,4.414832890033721924e-01
4.498672634959873795e-01,4.320159926748833312e-01,-6.562353203463600071e-03,3.877042998217144348e-02,-2.040612723544773036e-02,1.787200893257089376e-02,4.552095234394073486e-01
5.094130904104500202e-01,4.546484998157545587e-01,-1.789748726512646604e-02,6.440058102311876920e-02,-2.335845720043239204e-02,1.919790705673185896e-02,5.170710682868957520e-01
4.871800730580626571e-01,4.137909676858321784e-01,-2.558427537736995827e-02,2.823885875866878267e-02,-1.396293561953652548e-02,3.358283411373452071e-02,4.868701398372650146e-01
2.720941489524070223e-01,5.259026458481806943e-01,2.510651042772926722e-03,-5.996808236555731253e-02,-5.386588117004523571e-03,3.116728729880605640e-03,4.652110338211059570e-01
4.671781936254701950e-01,4.614954019835973975e-01,-2.772880352696133199e-02,-8.232523540837021273e-03,1.489606477463766357e-02,1.781117664635010686e-02,4.939367175102233887e-01
4.207328088161181867e-01,4.743636515767135631e-01,-2.249481028313371489e-02,-2.322636602947584714e-02,2.411283164211680888e-02,2.790699839822441755e-02,4.783270359039306641e-01
4.566517244213141868e-01,4.839839206611675215e-01,-3.654511629567269715e-02,1.200056402353175243e-05,6.634495022194463083e-03,6.763246768908697665e-03,5.076805949211120605e-01
4.335458235190814968e-01,4.440412923440515414e-01,-5.118865965309082888e-03,9.231077011859269502e-03,-1.973157999344697829e-03,4.774578007075673189e-03,4.443833529949188232e-01
4.465066097394750355e-01,4.868838248672116564e-01,-2.420825312244728744e-02,-6.489282483309916257e-03,6.291007258190702695e-03,5.849118813747710213e-03,4.925004243850708008e-01
4.657161823491531294e-01,5.030142403451272060e-01,-3.328463815868426545e-02,-5.537392667945734452e-04,1.925086963354711439e-02,1.746218882729074981e-02,5.206075310707092285e-01
4.654500180108245289e-01,4.010878810737680267e-01,-1.951577761554018631e-02,-3.232146253983428363e-02,-2.337376083512221828e-02,-2.739606061808077392e-02,4.638378322124481201e-01
4.779634872201517504e-01,4.242845068567757671e-01,-2.600742780778503294e-02,-1.802696977472603712e-02,-1.892278903903724455e-02,-1.793642405269418871e-02,4.825243353843688965e-01
4.559968809023726699e-01,4.640283830217916128e-01,-3.079581874849390832e-02,-4.872913253413010612e-03,-8.390981676908021436e-03,-1.167335501609948444e-02,4.915613532066345215e-01
4.665215653103081950e-01,4.638269879323440037e-01,-3.433755830068979664e-02,-4.392400772132944685e-03,-8.300319604792875949e-03,-9.186962223431544006e-03,5.000352859497070312e-01
4.681716053797576604e-01,4.810807862155972447e-01,-3.192879897493350327e-02,5.524320288945971632e-04,-9.149972237154574764e-04,-7.248639405802290072e-04,5.066832900047302246e-01
4.645361399411334080e-01,4.685612359759133705e-01,-3.094871803912968566e-02,-4.248415212778326386e-03,-4.969455760029216004e-03,-3.449780656936816091e-03,4.976743459701538086e-01
4.665015828687571475e-01,4.625530940473100983e-01,-3.403292364348170507e-02,-8.060602201683758281e-03,-1.084822260841267552e-02,-9.401396937943989202e-03,4.993867874145507812e-01
4.446877335708151469e-01,4.656677442336625838e-01,-3.134053646762574585e-02,-7.585277097788564217e-03,-1.220355776413021252e-02,-1.221176096732464605e-02,4.879517555236816406e-01
4.747560601107519984e-01,4.597301034932219643e-01,-2.801920960220988244e-02,-4.839271332607795496e-03,-1.127326277292070057e-02,-7.140263489777863223e-03,4.960428774356842041e-01
4.740679919802909259e-01,4.648958966328993192e-01,-2.995855548841130922e-02,5.815811913227019852e-05,-4.194561899614454895e-05,-9.030663588654391045e-04,4.995061159133911133e-01
4.582076994819659910e-01,4.667349442942069215e-01,-3.083263282192921784e-02,-9.194940736793492941e-03,-7.352507689235510124e-03,-6.628358835965564994e-03,4.939139187335968018e-01
4.902715300177398206e-01,4.609693035843723807e-01,-1.730427234085596400e-02,6.443328323399469433e-03,-7.969138012710567801e-04,2.253023970608724301e-03,4.937209784984588623e-01
4.982592127932334858e-01,4.620903057835524796e-01,-2.757725250837927966e-02,7.130159241124552245e-03,2.146401469287384164e-03,3.356829566656388888e-03,5.089139342308044434e-01
5.349907553050048392e-01,3.974750974035440865e-01,-1.574196175758812988e-02,3.053513832404656722e-02,6.785646995967183938e-03,2.600058774327997091e-02,5.014440417289733887e-01
4.984460572080161023e-01,4.844614450882014367e-01,-1.082640213670166274e-02,1.770551766152950179e-02,-5.918166602786573138e-03,2.288625135984148629e-02,5.050236582756042480e-01
5.029528614609746207e-01,4.623337877720676836e-01,-2.793903738527486746e-02,9.537697248397810496e-03,-7.195316018570478700e-03,2.222947790732415167e-03,5.122253894805908203e-01
3.276260008535825663e-01,5.739617917836685734e-01,-1.659398762409342032e-02,-3.760932412633030426e-03,-3.690352346839347736e-02,-9.889408285979695359e-04,5.177773833274841309e-01
4.102616526695062049e-01,5.071361665690033993e-01,-2.248176704308801899e-02,-1.263774694636523796e-02,-1.170294849603680486e-02,-2.583582914191844253e-03,4.893704056739807129e-01
5.010644298924453732e-01,4.215105642655010976e-01,-2.859406310711193333e-02,-1.657317978556840585e-02,2.816845573674052125e-02,3.118753931551119726e-02,5.008522272109985352e-01
3.939749069567821116e-01,5.517840332680985505e-01,-1.913030210460608949e-02,-3.417988190716193808e-02,-3.755212624460955301e-02,-5.295773837445640758e-03,5.182381868362426758e-01
4.657699805933877002e-01,4.821704655958595209e-01,-3.201986054632038892e-02,-1.868314860992781399e-04,-1.695735072380382584e-03,-4.086789845594951767e-04,5.061985254287719727e-01
5.097955394535436113e-01,4.559089706262062780e-01,-1.544815811592370469e-02,7.520155923764408439e-03,-3.712171140618909099e-03,8.498198341671456962e-03,5.009079575538635254e-01
4.526155109091386519e-01,5.084278124636485430e-01,-2.493849954791443890e-02,-1.435620585044486766e-02,1.841137409683219275e-02,2.572996437679967927e-02,5.113194584846496582e-01
5.079962993798865512e-01,4.206672633841887499e-01,-2.835119052715356913e-02,-1.140973915499502236e-02,1.368027496292067990e-02,9.692067264460927506e-03,4.996899962425231934e-01
4.574332570250618235e-01,4.219507547253146806e-01,-1.937730874509774326e-02,-4.446887573693540652e-02,2.191675224642244263e-02,2.251510320719759747e-02,4.696628153324127197e-01
3.514367707730585710e-01,5.454354570029549265e-01,-1.342014783242034826e-02,-5.612043290444295590e-02,-5.453411726558007877e-02,-1.739869289341625797e-02,5.107018351554870605e-01
4.518922589938144108e-01,4.860385384361447514e-01,-3.219342098241961825e-02,-2.956124699793073393e-02,4.199434120519515007e-02,3.999594273348008183e-02,5.145345926284790039e-01
4.362996956994953379e-01,4.463735607755173751e-01,-1.590672017704791719e-02,-4.659748983708583009e-02,3.166140406745570485e-02,2.754340728523191340e-02,4.700476825237274170e-01
4.467314080151905120e-01,4.569195188371008576e-01,-1.683126648421690019e-02,-3.445988156039041239e-02,1.877894402911654131e-02,1.775707156066719250e-02,4.746401906013488770e-01
4.769190884730943880e-01,3.678923057101299299e-01,-1.794179245908666953e-02,-5.775192140069129038e-02,3.695931427172107625e-02,5.035897393854529835e-02,4.738490879535675049e-01
5.251745376943344201e-01,3.666307082567619169e-01,-1.898443675959493593e-02,-6.613394651635168264e-02,4.162327555896126741e-02,4.983706941247315059e-02,5.106288790702819824e-01
4.499628923715462414e-01,4.227278713851102543e-01,-1.472746581042833069e-02,-3.035794497568342423e-02,2.033829475406575410e-02,1.733055212007451190e-02,4.570884108543395996e-01
4.831970275933781256e-01,4.195336160214103716e-01,-1.559188001462097350e-02,-1.536237329603021111e-02,2.134248216508754376e-02,1.885184108375293974e-02,4.735287725925445557e-01
4.484996431825113428e-01,4.236557382266248895e-01,-1.772436417601264136e-02,-2.961658088331864738e-02,1.826327036202688228e-02,1.804399051390350589e-02,4.593561291694641113e-01
2.544764498434745614e-01,5.529070220338928587e-01,9.520932516909663690e-03,-1.029009260544345578e-01,-4.415982322295985280e-02,-3.780641841920930057e-02,5.138776898384094238e-01
4.921554543566872830e-01,4.239636784978993433e-01,-2.825139290225031630e-02,-2.282887464118833754e-02,1.930937341683789180e-02,2.578293009000682395e-02,4.946334362030029297e-01
4.218210420507213509e-01,4.768125193964442565e-01,-3.330828099214577787e-02,-2.150259215384503486e-02,2.163636049590850555e-02,2.190714313424559079e-02,4.893120229244232178e-01
4.502802384203475894e-01,4.438756469836699914e-01,-2.790586339508321911e-02,-2.771427070374323995e-02,2.257783562245485945e-02,2.631183790764584501e-02,4.811972975730895996e-01
4.253016651093952660e-01,4.291231178297644222e-01,-1.061646975696106665e-03,-2.366223191383042424e-03,-4.095413905516038892e-03,-3.594563146622344312e-03,4.284104108810424805e-01
4.846460617216510336e-01,4.786773726308040100e-01,-1.015442678923250686e-02,7.833189584745265180e-03,5.651636554118424569e-03,9.166927509117855574e-03,4.923838376998901367e-01
4.738839876342006985e-01,4.842640445213500788e-01,-3.809522719865937601e-02,-6.685318527464872984e-03,2.532819603909887071e-02,2.234520101951683810e-02,5.206739902496337891e-01
3.968049178828892964e-01,4.369071038177710364e-01,-1.378589567641836378e-01,-2.579270479180539311e-01,3.835048360573755505e-02,1.405958819523007129e-02,7.165886163711547852e-01
4.692897404505327330e-01,4.510052553734762992e-01,-3.069735880044732745e-02,-3.909849300808052042e-03,1.541874152028680292e-02,1.180612788816935016e-02,4.922973215579986572e-01
4.848012486604944549e-01,4.886027517990110258e-01,-2.355749344143909241e-02,4.824463852722262673e-04,1.253686578672394587e-02,1.014362408898129668e-02,5.110347270965576172e-01
4.882654373579536911e-01,4.689327266777206793e-01,-3.201625213662717684e-02,-1.292217784676285251e-02,2.258454244145955900e-02,2.082971092686164774e-02,5.141411423683166504e-01
4.807524805521171674e-01,4.185943225864205419e-01,-2.643033580990267195e-02,-2.637355766054813935e-02,-1.445300497992924038e-02,-1.392785849057283885e-02,4.825637936592102051e-01
4.741844921897317988e-01,4.720629228672050814e-01,-2.875421440083270053e-02,7.920941319558711660e-04,-1.408549891698789372e-02,-9.199973228297655264e-03,5.027284026145935059e-01
4.719292816666259549e-01,5.019020478762392656e-01,2.316973272475464363e-02,-2.893596369974564889e-02,-2.187613368114947523e-03,-2.122782092344593051e-03,4.671978354454040527e-01
4.514336307994482600e-01,4.935047423484626439e-01,2.301848570697984098e-02,-1.415056329301801925e-02,-9.505057724868859080e-04,-2.377440874291849617e-03,4.516124427318572998e-01
4.572760378489415523e-01,4.382037586694165210e-01,-2.657264288481325787e-02,-1.312571576621086172e-02,-1.629096974046527826e-02,-1.239820268854202948e-02,4.764655232429504395e-01
4.431351990892591908e-01,4.616564401310068178e-01,-3.112592678065156937e-02,-9.551453490272365787e-03,-7.619099432984822312e-03,-8.624515393260923091e-03,4.844807088375091553e-01
4.809302189314175191e-01,4.680086800041943218e-01,-2.854294761172404549e-02,-2.037565675842735371e-03,1.730225703647412421e-03,-1.222316966529887793e-03,5.031626224517822266e-01
4.695818452151051536e-01,4.254533006291787989e-01,-2.971789981270722691e-02,-1.920676383202685883e-02,-1.680095420467549172e-02,-1.596690748449091160e-02,4.815937578678131104e-01
4.747515876595840845e-01,4.484426219307720007e-01,-3.468586763076225710e-02,-5.199249942195255381e-03,-8.429781282324064207e-03,-6.834550822870870401e-03,4.972427189350128174e-01
4.525796178256847879e-01,4.782963639768541553e-01,-2.093742773957674164e-02,-3.030262757330395504e-02,-1.948021333228032101e-02,-2.468939242490783906e-02,4.927260279655456543e-01
4.107711928941563118e-01,4.153438143855877618e-01,-1.768548755392174154e-03,-3.763385668177444271e-02,-1.227586924610603140e-02,-1.197618445372575224e-02,4.209841191768646240e-01
4.298859079527213578e-01,4.124212302905141958e-01,-9.635015667209589907e-03,-7.367934822392982475e-02,-8.022637806387756046e-03,-8.738387689752120241e-03,4.500174224376678467e-01
5.328145291746384515e-01,2.963200248834566009e-01,-4.524427007006892598e-03,-5.764380350080238608e-02,-2.265331323788055684e-02,-3.620489773881635509e-02,4.827270805835723877e-01
4.661677098137010367e-01,3.742476350433748822e-01,4.652145408959140749e-03,-5.168903115435472678e-02,-1.687360303746842510e-02,-1.416790718276247744e-02,4.341600835323333740e-01
4.796910695543279424e-01,3.636013188593138490e-01,-6.747791604700292822e-03,-5.203234133398176864e-02,-4.994363463706677150e-03,-1.378775553530439853e-02,4.498847126960754395e-01
3.406161162589825819e-01,4.801770337008931522e-01,-3.056007842294999888e-02,-1.600459372592143437e-01,-3.747346821601103828e-02,-2.193791168945798120e-02,5.399550199508666992e-01
3.890307089079921843e-01,4.702375656230114442e-01,-4.683524464570321122e-03,-7.710135995054366587e-02,-2.864696381195885530e-02,-2.082609334769850926e-02,4.638693034648895264e-01
3.762466764642766748e-01,3.757896301512490544e-01,3.493614789750160154e-03,-1.307210240463024253e-01,3.156213959634390775e-03,1.018169555716725780e-02,4.363250434398651123e-01
4.583399376750799115e-01,4.749109801939515596e-01,-2.661159238372301505e-02,-1.850933341231143781e-02,-2.559031162613881541e-02,-2.477501283555525943e-02,4.983196854591369629e-01
3.603567229477088740e-01,4.622090766845456944e-01,-2.789557906964557077e-03,-1.471183706729613239e-01,-3.235978857514311413e-02,-3.726780229759572155e-02,5.014738440513610840e-01
4.575194280412584469e-01,4.420234930480697599e-01,-1.275881974235876237e-02,-9.599236994412119195e-02,-5.162327297369309620e-02,-5.424335556798867003e-02,5.085074901580810547e-01
4.490083747662393376e-01,4.703020456608578148e-01,-2.915123969039540297e-02,-2.053274429949088903e-02,-2.356227922455018248e-02,-2.156209163474536936e-02,4.935553669929504395e-01
4.476093176840016952e-01,4.785735377876255137e-01,-3.493366962669491871e-02,-3.387166983302235636e-05,9.534255665924195071e-04,-6.444403624416087002e-03,4.988741278648376465e-01
4.309628467766651871e-01,4.807553028820170660e-01,-3.444943946896156239e-02,-2.064199655041465149e-03,-1.125677362443239585e-02,-1.171579955499047095e-02,4.930178523063659668e-01
4.238609888149242888e-01,4.940306721682570235e-01,-3.258457205782150368e-02,-2.360929222522705883e-03,-1.609890364369743337e-02,-8.318869748491801094e-03,4.962830245494842529e-01
4.564591563645621353e-01,4.780321104465510840e-01,-3.237433480828988408e-02,-1.927502748206797725e-03,-3.368698873472981276e-03,-5.109627320395252262e-03,5.000926852226257324e-01
4.599146378228388676e-01,4.798834299111519597e-01,-3.374443608135929695e-02,1.202420574480560179e-03,-5.081584916866314743e-03,-5.139244610588972022e-03,5.041000247001647949e-01
4.643190001687663160e-01,4.622344716043499391e-01,-3.691603806393634057e-02,-6.359559662383807398e-03,6.510241046985708671e-03,7.449457386957458738e-03,5.006106495857238770e-01
4.593977092857683964e-01,4.632958619673345768e-01,-3.668839848172461560e-02,-7.835846603738892691e-03,6.630219895679398401e-03,8.214005987771650849e-03,4.985668659210205078e-01
4.725326990225686696e-01,4.699056962719300179e-01,-3.816864637861694387e-02,2.262406373782585838e-03,7.429521761861668499e-04,2.352249877762106756e-03,5.094259381294250488e-01
4.639467119203178891e-01,4.715142335141133678e-01,-4.159010439065913278e-02,5.966572676631008883e-04,1.437435954656233767e-03,1.978330308564650326e-03,5.093814134597778320e-01
4.671565491821243477e-01,4.665307657433953037e-01,-3.783503101062007934e-02,2.036821623362660393e-03,5.133520157954605916e-03,5.916513715430367706e-03,5.048736333847045898e-01
5.362147053422849918e-01,4.133229748698945549e-01,-3.147009857967841828e-03,1.369607055049203333e-02,1.042761068773986541e-02,-1.436099527007919478e-02,4.911598563194274902e-01
5.895542016355759252e-01,3.954089732857224981e-01,-8.704094137242934792e-04,1.724753985963252412e-02,-9.902995849098081282e-03,-6.119262777768982864e-02,5.329969525337219238e-01
4.959323373506532295e-01,4.170037591116834141e-01,-1.667535964441635432e-02,6.155286627713214137e-03,8.329017284834268342e-03,-1.870283886261996792e-02,4.794873893260955811e-01
4.975607602875196100e-01,4.657359965414359371e-01,-7.322311881228005248e-03,-2.078542933766845333e-02,-2.820934855364346308e-02,-3.617841178299450317e-02,4.974555075168609619e-01
4.831151625530490934e-01,4.743619900530833267e-01,3.671381312015387088e-03,2.402134653769326215e-03,-7.518408617951596873e-03,-2.048228783218834781e-02,4.766463637351989746e-01
5.225041858392319716e-01,3.928089355320135700e-01,-4.273854665738208158e-03,-3.216249976950715222e-03,-1.609895019640927849e-02,-6.339989578940559423e-02,4.887356758117675781e-01
4.536477261150455575e-01,4.566773628284930830e-01,-2.773842760084754833e-02,-2.021067553055464969e-02,-2.044577407886340181e-02,-2.548650860089170592e-02,4.874714612960815430e-01
4.905595650957427223e-01,4.021020599055381561e-01,-2.332688678714334163e-02,-1.270822940800622573e-02,-1.433696932622387579e-02,-2.301556233932843670e-02,4.786827564239501953e-01
4.760988111182569149e-01,4.803909764484401990e-01,2.334541018247737743e-02,1.161814437791660812e-02,4.655335585102371963e-03,-1.582389388930985352e-02,4.562548696994781494e-01
4.855027488937920799e-01,4.860350731318622830e-01,-8.158372970042016004e-03,-2.271090454640980593e-03,-8.456760696355977019e-03,-5.271935887435981634e-03,4.942446649074554443e-01
4.248191260577643957e-01,4.436092380143188407e-01,-2.579028322214022007e-02,-6.177837046476149230e-02,-4.620167277576642251e-02,-3.171761103071833038e-02,4.824317693710327148e-01
4.874910562669669822e-01,4.825323539711578458e-01,2.832478580684061331e-02,4.153892514337737506e-03,9.684615355186911717e-03,-1.131603627027000757e-02,4.574917256832122803e-01
4.669669662968478629e-01,4.673126533124278836e-01,-2.755602269987234010e-02,-1.692944202462261964e-35,-1.728953038485622816e-04,-1.646091737289488656e-04,4.946961104869842529e-01
1.737062369662889239e-01,5.898935893047594359e-01,-2.673442727813601927e-02,-1.141437172035889569e-01,-4.193850068647554663e-02,-2.554417539671299461e-02,5.857726931571960449e-01
4.940488388272833986e-01,5.037160856118430008e-01,2.862748162897016391e-02,2.859975821654675565e-02,7.056262939749510625e-03,-9.121237393106012073e-03,4.733525514602661133e-01
4.776776259209560838e-01,4.829761490638552202e-01,4.280706647614090921e-02,2.286185855039975928e-03,4.567543945384729999e-03,-1.436162043504648871e-02,4.383396804332733154e-01
4.840469831511103882e-01,4.689363358726114095e-01,5.848633456074747716e-02,3.088813102756660101e-03,-1.291098179121208389e-02,-2.003241399033689561e-03,4.188561141490936279e-01
1.941968862889755232e-01,5.930910000174067775e-01,-2.852362443462885810e-02,-5.220438265189534383e-02,1.368336445653871823e-02,1.575017450893878915e-02,5.541160702705383301e-01
4.769182618342930891e-01,4.822697260100047290e-01,5.837360120612034020e-03,2.349775715847651682e-03,-3.090655780616123269e-03,2.422015434981110178e-03,4.738456010818481445e-01
5.188692164307907584e-01,5.343313989346767379e-01,7.973206963525797386e-02,2.920895851304472143e-02,3.526432608173891287e-02,-2.397096738638460761e-02,4.559435844421386719e-01
4.493016130070296987e-01,4.447673199528568988e-01,-2.181144582835548018e-02,-2.981765968920376680e-02,1.961041135412536565e-02,1.618990008414055576e-02,4.737501740455627441e-01
4.601381749583571823e-01,4.606986215666445394e-01,-3.045127842629347104e-02,-8.504012859000955465e-03,8.695392115546263234e-03,7.323101731064844341e-03,4.914854466915130615e-01
4.607258195103418608e-01,4.484388117615373259e-01,-2.381979614547358182e-02,-1.001090418441313336e-02,1.151475192913799760e-02,1.793711716070912204e-02,4.802556037902832031e-01
4.555297265574886900e-01,4.847657946405289908e-01,-2.597292671312917411e-02,3.272228295623775315e-03,-7.055101729845245258e-03,1.346479310388717801e-03,4.969544112682342529e-01
4.458790896970359352e-01,4.664694489266966726e-01,-2.483463836003702019e-02,-8.236077413590149122e-05,1.013999158840842192e-02,1.469422523313148633e-02,4.823316037654876709e-01
4.764661971238647320e-01,4.514708649954428665e-01,-2.310812257313726858e-02,1.193807411700440607e-02,1.090081207383591932e-02,-7.064438563706874723e-03,4.885140657424926758e-01
4.501989528147597452e-01,4.787870751769929267e-01,-2.135502573770509116e-02,1.570258262718106715e-02,1.479324787621999482e-02,-1.488771948797498225e-02,4.885922968387603760e-01
4.728204196217750122e-01,4.856943158955601136e-01,-2.795816602940892626e-02,6.761257712853412268e-03,1.012408604926343450e-02,-4.030399208614680699e-03,5.078240633010864258e-01
4.643334260971134775e-01,4.939916394329844640e-01,-2.603157642002945638e-02,6.584130808537510052e-03,5.278918201608549798e-03,1.984594074868330400e-03,5.060694217681884766e-01
4.642048043152874337e-01,4.861472607379989097e-01,-2.167652665967267911e-02,5.607748744076494068e-03,1.755998014279099321e-03,-6.607253653417984214e-03,4.974516332149505615e-01
4.812972337282297453e-01,4.878115313368820982e-01,-9.702373025005872620e-03,4.098205778427396057e-03,1.344851419471311191e-03,3.328573937728567141e-03,4.943790137767791748e-01
4.771882434532581096e-01,4.764388905114360084e-01,-1.840467049329941318e-04,1.451989262589800135e-02,-5.484015957214119670e-03,-1.083247198855602500e-02,4.781232774257659912e-01
5.178661138892433069e-01,3.555046190895990721e-01,-1.011909934823568280e-02,3.058448427182134180e-02,1.110646497543544588e-02,-2.792636777923614491e-02,4.742584824562072754e-01
4.962513551503545672e-01,4.724572267301070383e-01,3.020078435335138423e-04,2.833066928177954604e-03,-2.254622619584875989e-03,-1.011201325884388338e-02,4.848477244377136230e-01
5.181512305970036314e-01,3.874235160424639446e-01,-3.596131162068555431e-02,-2.060966915376559461e-02,-1.630182114313208711e-02,-4.638734090735320559e-02,5.101171135902404785e-01
5.878032733277644972e-01,3.159540224178888357e-01,1.446607393755627857e-03,4.194766771262545962e-02,-2.195629444999653603e-03,-4.393131526560638961e-02,5.190362930297851562e-01
5.247815814643554955e-01,3.741676991444235489e-01,-1.684858691419383048e-02,-1.726577135750924016e-02,-1.347154092336707090e-02,-5.267057262148812369e-02,4.941984415054321289e-01
5.701570008164444925e-01,3.417536540479441665e-01,-1.883499218643097661e-02,-3.263259534266812339e-03,4.906986086804046056e-03,-4.011199058150866081e-02,5.191175341606140137e-01
4.485537625803935335e-01,5.050046390443173605e-01,4.367792480574994585e-02,-1.977292244438060703e-02,3.873461343976103161e-03,-1.578004639812635723e-02,4.381000995635986328e-01
4.641152964620413046e-01,4.759709065946644557e-01,-4.173945365281928055e-03,-6.103107264914994431e-03,-7.839992625788598513e-03,-2.971261440380316195e-03,4.746681451797485352e-01
4.156664117554377813e-01,5.018915259141943919e-01,1.568987078063888152e-02,-2.863748114377767315e-02,-6.644503908231855216e-02,-8.887826878548985010e-03,4.667399227619171143e-01
4.398513663712099730e-01,5.036186717043802386e-01,3.232238957407923552e-02,-3.730484488372779600e-02,-4.091390204205325870e-02,-1.722706350562096256e-02,4.541148245334625244e-01
4.521432033838800324e-01,4.709098991353686259e-01,-3.739450977262998022e-02,-6.825576403919280701e-03,4.436811205581626949e-03,6.354687007493801942e-03,4.995060861110687256e-01
4.448881031579600132e-01,4.625195466789612242e-01,-2.421371787123627328e-02,-7.496178087741223184e-03,1.330338881046939752e-02,1.472650431669670842e-02,4.795711040496826172e-01
4.760961726681308681e-01,4.742532612584756113e-01,-2.986929774263269444e-02,-4.216719523716394320e-04,-2.296078876063036142e-05,-1.658284775581904142e-03,5.050552487373352051e-01
4.344734404084596990e-01,4.425716127563219526e-01,-8.256542442336922694e-03,-9.224981570885403340e-03,9.181059917867084516e-03,7.319667993790628970e-03,4.475819766521453857e-01
4.461541223361088493e-01,4.216597059392260816e-01,-1.792450645042964474e-02,-3.047882442752606474e-02,2.116364663296210757e-02,1.824608789766946765e-02,4.579639136791229248e-01
4.619273846339581602e-01,4.401625874958050577e-01,-1.830995326072021312e-02,-9.172050439470913821e-03,1.880072303437885922e-02,1.409519162022431632e-02,4.717606902122497559e-01
4.359087633977196119e-01,4.558674774670349872e-01,-1.741711358718173175e-02,-1.637891184577247236e-02,1.065597079176236472e-02,1.046078393351520565e-02,4.652141928672790527e-01
4.353412660490360020e-01,4.443833592710996205e-01,-2.315770527727972761e-02,-1.082710351224949047e-02,1.006406957743374506e-02,1.001601751647123069e-02,4.641178250312805176e-01
4.585296646287002620e-01,4.961052661495212179e-01,-4.786436291566553702e-03,9.767346959873760004e-03,8.024509335305700288e-04,9.689481634216724065e-03,4.837901592254638672e-01
4.809633431953807547e-01,4.754284579560997814e-01,2.057224685965131084e-02,9.264774952106518769e-04,-9.237917286764122868e-03,-6.767458453006571992e-03,4.580811858177185059e-01
4.596622796301520486e-01,4.851342148395969001e-01,-2.104072674619428263e-03,-3.197804074963363479e-03,-1.493922536270003406e-03,1.211446238181239539e-02,4.755173325538635254e-01
4.774999828123864809e-01,4.817628559408889677e-01,3.982203256632266264e-02,4.221440034043753842e-03,4.638708219545701131e-03,1.075803936078830727e-03,4.399629533290863037e-01
4.306539046820331285e-01,5.284986390895232145e-01,-2.193303268804663864e-02,2.097554341223344457e-02,-1.333489639838919029e-02,1.248854870580442568e-02,5.108943581581115723e-01
4.863096542253452781e-01,4.809791556695667825e-01,2.097020039248220780e-02,9.879086802336416520e-03,4.335573994903365105e-03,6.911175296235450537e-03,4.632291197776794434e-01
3.352726429224689997e-01,5.630129372855342540e-01,-1.960755348549531041e-02,3.644620051961284385e-02,-1.257740748607199220e-02,2.789329425632026960e-02,5.151890516281127930e-01
3.153996871029228766e-01,5.177095946965450945e-01,-1.245965795991210712e-02,5.624114363601995237e-02,-2.429642861610601876e-02,1.247284141407481450e-02,4.758961200714111328e-01
3.433289127828947906e-01,5.584004273574341148e-01,-3.163476282212196455e-03,2.992660644086177213e-02,-5.009500632795865771e-02,2.019864409184881152e-02,5.022675395011901855e-01
7.098807239342024289e-01,6.511109474020425614e-01,8.815076105390995398e-02,6.243143386323464494e-02,-3.930541831744211595e-02,-6.171507975458791900e-02,6.174278259277343750e-01
3.637514295891615679e-01,5.015182209191743068e-01,-3.011708194126327953e-03,-9.482554844623278245e-02,7.492236671362990930e-02,5.370703967045858257e-02,5.064501166343688965e-01
4.207803364994138207e-01,4.986412247541046061e-01,-1.101929438114490623e-02,-2.080635800870175162e-02,3.296965559806471630e-02,1.693791540111026783e-02,4.812005162239074707e-01
4.378320746174798606e-01,4.950152562094094488e-01,-3.979330969690653141e-02,-1.559861288390982856e-02,3.177974103267097034e-02,2.805363833842687213e-02,5.146152973175048828e-01
4.413852815042086375e-01,5.083231561273757748e-01,-1.309791462852294419e-02,-3.875730218741058747e-02,3.373746049969691962e-02,1.933577438812801932e-02,5.005002021789550781e-01
3.860849046558556541e-01,4.662682852300842340e-01,-1.911186964522976206e-02,-7.185106588749229362e-02,1.646448375697585897e-02,1.142826837751644703e-02,4.688247442245483398e-01
5.229254308706490217e-01,4.137448666408878317e-01,-1.470717735858695363e-02,8.629174159796761112e-02,2.023478048780321184e-02,-1.799044177118390778e-02,5.165348649024963379e-01
4.651249448809308129e-01,4.469056901541736404e-01,-7.457938251603846158e-03,5.580764232262685337e-02,1.707932989696083620e-02,-1.226777480559568430e-02,4.751068353652954102e-01
4.904021467460059069e-01,3.935552267096802947e-01,1.501955352870565363e-03,5.791550772352305892e-02,1.292615847949344331e-02,-2.621947436498101719e-02,4.622558951377868652e-01
4.231776487170307854e-01,4.827297608010762131e-01,-1.261965234958006832e-02,4.967552251014582809e-02,4.017840482955802733e-02,-6.021184799207617358e-03,4.814281165599822998e-01
4.214008313863028543e-01,4.899797407239556146e-01,-2.477907249226796171e-02,4.808471173680728405e-02,3.604171087233902504e-02,-1.064833910435809307e-02,4.955317378044128418e-01
4.620159642083215834e-01,5.117805669486283904e-01,-5.455102583524662485e-03,6.984703904514852346e-02,1.325903085641294381e-02,-1.754529616117674051e-02,5.102508664131164551e-01
4.537369291857976661e-01,4.772287095284814540e-01,-7.947432278975374853e-03,3.339141138163378986e-02,1.554104779831755843e-02,-4.902868981135427573e-03,4.782172739505767822e-01
5.075701188404511122e-01,4.170079519388226741e-01,-7.798230065552691492e-03,-7.450624091178810471e-02,-4.816847072378789563e-02,-3.406001983646692044e-02,5.042098164558410645e-01
4.987648882665727257e-01,4.430783741798474118e-01,-2.898970677126921913e-02,-1.688676551956212572e-03,-1.034023978019917023e-02,-9.608165524204034455e-03,5.028353333473205566e-01
5.505992289761749703e-01,4.292497138965205017e-01,2.605667565288621867e-02,-1.373969925582481724e-02,4.852726131403628344e-03,-2.663411764311224630e-02,4.785214066505432129e-01
5.043590006352234312e-01,4.722088044505288185e-01,1.543682552166081301e-03,7.262391912814257272e-05,-1.342415691577484790e-02,-1.522315818295650290e-02,4.888017475605010986e-01
4.813383404898180506e-01,4.817447513652826085e-01,1.206577463705560405e-03,-8.455177875784409755e-03,-1.603932852451165833e-02,-1.364816846928960936e-02,4.819407463073730469e-01
4.812467681846895884e-01,4.630699635013323379e-01,-2.246429785834191950e-02,-6.322100931337126979e-03,-1.207779218228967853e-02,-1.150060520784076598e-02,4.958363473415374756e-01
4.720084076967431264e-01,4.658610362603416988e-01,-3.080393601235964507e-02,-1.740057270495770246e-03,-9.640951714074691772e-03,-9.286699611468732241e-03,5.003136396408081055e-01
4.765407955865219036e-01,4.483471140154061674e-01,-3.030056757896154584e-02,-4.121345586253742817e-03,-1.154299198529465040e-02,-8.465580523395464449e-03,4.940232932567596436e-01
4.610195278096506089e-01,4.517164687128406575e-01,-3.117396611774081450e-02,-3.836361811656865961e-02,-3.734678764734389311e-02,-3.176480040526576815e-02,4.993883669376373291e-01
4.861351718085294982e-01,4.097737506340961011e-01,-2.413092734989646937e-02,-4.712797753526576372e-02,-2.900565533444937963e-02,-3.443844581879004080e-02,4.898806512355804443e-01
4.877877693588098529e-01,4.182677774816515592e-01,-2.461683411553050593e-02,-2.518304248310095431e-02,-1.601343266543438573e-02,-3.566218904187704042e-02,4.881151020526885986e-01
4.743604066797811880e-01,4.281097778020849787e-01,-2.538511895193895640e-02,-1.494100710058092127e-02,-2.158750534902947882e-02,-1.935420989219389931e-02,4.816250503063201904e-01
4.781469563380744137e-01,4.729400551389503216e-01,-2.472805125549593086e-02,-1.868087305441177605e-03,5.522361781562312201e-03,-3.772795506596893136e-03,5.004364252090454102e-01
4.851274245247443884e-01,4.485317323183075633e-01,-2.634750609807279265e-02,-1.465717669503044862e-03,5.380367338507161153e-03,-3.900831009382265801e-03,4.943349063396453857e-01
4.812240266593103000e-01,4.548466054253120783e-01,-2.839497931874546133e-02,2.053418596519188642e-03,1.797693241060396418e-03,3.101075799554557991e-03,4.970071017742156982e-01
4.834644123650575498e-01,4.606059948108404134e-01,-2.253451682737223072e-02,-8.906959696408640707e-04,4.819089713494591892e-03,-4.510079355153031287e-03,4.951001405715942383e-01
4.878200088529586198e-01,4.608846009770256602e-01,-2.488382614377443458e-02,1.656792810895503553e-03,2.796106609690052376e-03,-6.325913234221625450e-03,4.999325871467590332e-01
4.202227995402594285e-01,4.166267193856846851e-01,5.287407741305261144e-03,-4.260530193838089202e-02,1.086791450342769472e-02,1.376018766091914938e-02,4.207851886749267578e-01
4.788875935260148431e-01,4.682998075148586681e-01,-2.519018740041839566e-02,4.736336058869868026e-03,4.243863852750567162e-04,-4.467449554102636243e-03,4.989961385726928711e-01
4.694062035698986501e-01,4.406295765801274689e-01,-1.479222386524203792e-02,1.918713948287265741e-02,-1.115776989708254334e-02,9.432636876218649172e-03,4.723213613033294678e-01
4.543669849161506291e-01,4.487537067050592077e-01,-1.364309308959626987e-02,2.971072072123379700e-03,-7.565186758267616017e-03,6.006322631668011870e-03,4.655580222606658936e-01
4.608765932918192920e-01,4.350065831022907892e-01,-1.370110773640920154e-02,1.222678771631900002e-02,-6.916163730781939648e-03,7.121343851327784774e-03,4.629903435707092285e-01
4.542786076581642463e-01,4.570704979623598230e-01,-1.854983771475399168e-02,8.104719070255025568e-04,-5.060455946043617738e-03,9.368283147314077205e-04,4.743163883686065674e-01
4.557472858146586203e-01,4.606018766835428546e-01,-1.985934716755238805e-02,6.042768947661322256e-03,-5.668623942703760778e-03,5.806163732884469728e-03,4.783734977245330811e-01
4.797327382223786629e-01,4.718343605948698838e-01,-2.037121622010451549e-02,-8.636539139850432818e-04,3.433801955411142776e-03,-3.768549364410699910e-03,4.962827265262603760e-01
4.689304199058933476e-01,4.610007778920538479e-01,-2.520368284262786140e-02,1.512519964966954579e-03,-6.942605749596552495e-03,3.532415813652625865e-03,4.904100000858306885e-01
4.783396642729319526e-01,4.616116718438305622e-01,-2.554533599605024463e-02,6.013664904735959056e-03,-3.473028735304014691e-03,3.295578652616015444e-03,4.959114789962768555e-01
4.524161568004557155e-01,4.612604235144023290e-01,-2.205713489602556532e-02,4.313865979186696370e-02,1.377016058656417921e-02,1.519521565070577592e-03,4.853432774543762207e-01
5.256975347023218337e-01,4.813426380566258045e-01,-1.099156007052126682e-02,6.152281543953790760e-02,-1.564098052614654177e-02,3.191011463236437251e-02,5.304164290428161621e-01
4.840064930763866569e-01,4.680904540593172625e-01,-2.268536278993399380e-02,4.622803475939947157e-03,-5.171187708443224056e-03,3.904379600450749808e-03,4.991147220134735107e-01
4.979887507595159857e-01,4.834265277586486942e-01,-1.646560156342175008e-02,1.565849224336021348e-02,2.018290809452492722e-03,5.345372963277206409e-03,5.081508159637451172e-01
4.884706347974555607e-01,4.385559492568918971e-01,-1.586678995258644642e-02,2.635273896044923198e-03,4.324494558945209794e-04,-3.839769809612836771e-04,4.813477993011474609e-01
5.206750960402096728e-01,3.912750295920540688e-01,-2.877589929872359509e-03,2.834368453429471010e-02,1.941611943219603842e-02,5.291547474321327618e-03,4.761607944965362549e-01
4.807803140165769484e-01,4.589398360018667189e-01,1.971341285865013671e-03,4.023445819353184405e-02,-1.134573715811511979e-02,4.309569962021295164e-03,4.738944470882415771e-01
5.057998230861301403e-01,4.631956179835010068e-01,-9.402631632174918153e-04,1.727387130592500722e-02,-8.296974511615732781e-03,4.242352814203115101e-03,4.880236089229583740e-01
4.787971396952336312e-01,4.343096997673220883e-01,-1.931884931873062428e-02,2.049200144825537306e-02,-4.689473082090537918e-03,2.941682039429391327e-03,4.788428544998168945e-01
4.414733457222315138e-01,4.780268595400275489e-01,-2.326622156676266817e-02,4.930975264985872769e-02,-2.500280860736838612e-02,1.348267357364672271e-02,4.939858317375183105e-01
4.263241558741740489e-01,4.706697517958449151e-01,-1.554841044728505484e-02,5.696305544898108697e-02,-2.713041639142807146e-02,3.175010345725709504e-02,4.814350903034210205e-01
4.735261157691406653e-01,3.775621877324000231e-01,-1.817907288857206760e-02,6.728502333972735672e-02,-9.496819574943573747e-03,2.207732392498756163e-02,4.680937230587005615e-01
4.088977421648155031e-01,4.678643442551040921e-01,-6.922448674917203171e-03,1.307010343010317835e-02,-3.537690490473937958e-03,8.172884649203611060e-03,4.490583539009094238e-01
4.278764013864281290e-01,4.206451281809835963e-01,-2.030014376431743539e-03,-1.006199944557943128e-02,7.894281363035148338e-03,2.151789684696083123e-03,4.269281327724456787e-01
4.413765897405134697e-01,4.463926379313570836e-01,-1.410633510307535143e-02,1.654605958943041952e-02,-7.805530798290064888e-03,7.076719637816894330e-03,4.592699706554412842e-01
4.646666174379797121e-01,4.670289664557222276e-01,-2.475965305106803127e-02,7.861002975175068741e-02,-1.498854916310458744e-02,2.447642805878100236e-02,5.115756988525390625e-01
4.628124850658467127e-01,3.846760142414897832e-01,-5.580551187927162982e-03,6.030853850783432502e-02,6.515628220219037321e-03,1.582257738556772488e-03,4.471521079540252686e-01
4.548913637700930379e-01,4.661941672716286567e-01,-1.707328272404784464e-02,3.823752711093180573e-02,-1.176993583867302212e-02,1.231709221121132791e-02,4.831872880458831787e-01
4.308462801052053148e-01,4.993114952075679014e-01,-2.674591960412581182e-02,7.392784855986723677e-03,1.089653566013596732e-02,-7.258010384840726630e-03,4.960699975490570068e-01
4.688279668966528480e-01,4.190995150610266062e-01,-3.232967188345758913e-03,3.816923685266415678e-02,3.345468146449212445e-03,4.726248897267187367e-03,4.542145431041717529e-01
4.836248794433488651e-01,4.787909150490987642e-01,4.104574268661859149e-02,3.076953561183360091e-03,-7.843264466616057173e-04,-1.135627523991260615e-02,4.406556487083435059e-01
4.785790848982433565e-01,4.765634983023807059e-01,9.696330019128762689e-02,3.748109334250339549e-03,-1.194285705381145212e-03,-1.045843194262467170e-02,3.811037242412567139e-01
4.722987112316504588e-01,4.795866316386623862e-01,8.770261106823418196e-02,5.962694681033301088e-03,8.275832096180922061e-04,4.405471249015219682e-04,3.884320855140686035e-01
4.759065191492897196e-01,4.778516142586815008e-01,6.362429903240068851e-02,4.786775033636183306e-03,1.101126249769656881e-02,-1.057013464768934326e-02,4.141859710216522217e-01
4.807661048365511336e-01,4.772059486441666554e-01,4.538165243824626716e-02,-8.858665002413451109e-04,6.506133867919888618e-03,6.560226387358387284e-03,4.339132606983184814e-01
5.245365477472914151e-01,3.734083990330046010e-01,-2.209627183318435550e-02,-1.449342814588411993e-02,-2.597305733640560468e-03,-2.164876058106113277e-02,4.910111725330352783e-01
4.891277536123299630e-01,4.462447492831913554e-01,-1.608218821020979128e-02,-2.012005710136616048e-03,6.534909308341650160e-04,-9.722666374261628016e-04,4.852086007595062256e-01
4.782666816121194930e-01,4.693331592944942066e-01,-1.709118801051046077e-02,-5.160435797090693688e-04,7.062786649785097190e-04,1.987861831516341514e-03,4.909664690494537354e-01
4.766947758294777238e-01,4.665472089568092340e-01,-2.224850201325551113e-02,-4.570776511716689340e-03,-9.528689780759116990e-03,-6.946796663755115848e-03,4.944331645965576172e-01
4.610077772139704599e-01,3.688436546252978898e-01,-1.782735824650405476e-02,-8.351014028061760908e-02,-4.503283941550498964e-02,-5.136742020108184953e-02,4.780872464179992676e-01
4.836067299782129680e-01,4.143107287633524538e-01,-1.925010208638583409e-02,-2.694680954043588914e-02,-1.153388809818886758e-02,-1.791757886146879211e-02,4.757747054100036621e-01
3.780400510851009699e-01,5.306865000374199060e-01,6.093175309842879805e-03,6.713612253954549802e-02,-6.653072651740535304e-02,1.105018611417061874e-03,4.952032268047332764e-01
3.338468404136565315e-01,4.878785241075042078e-01,-8.393740926143977710e-03,4.486427205957658343e-02,-3.298796147708814991e-02,1.326839948174650743e-02,4.510004818439483643e-01
3.854211136601233267e-01,5.041418212513261166e-01,9.471125578054961913e-04,6.805169840689753724e-02,-6.587769146702482370e-02,2.888042015789094724e-02,4.868006110191345215e-01
4.356516326185174703e-01,4.667980425561801816e-01,-1.430016349558699273e-02,2.320431859514760636e-02,-1.463904669539549223e-02,1.217623722875596677e-02,4.691951572895050049e-01
2.847870857985466686e-01,5.859108883415731217e-01,-1.275344293489383274e-02,2.068506503287992696e-02,-1.313145817057592181e-02,1.600355608791336273e-02,5.209335088729858398e-01
2.905691157297474181e-01,5.902991743972746397e-01,-1.525632680777855299e-02,-3.849736908519191259e-02,-1.656752163318752497e-02,1.413190722846904336e-04,5.294355750083923340e-01
2.899987666962042243e-01,5.757064797591205929e-01,-2.421396238736450712e-02,-4.424540584972810192e-02,-1.389882494027916242e-02,1.345079551915881987e-02,5.264283418655395508e-01
2.071423615569217835e-01,6.182808482013815166e-01,-2.176094442202947121e-02,-2.223992046197167255e-02,-3.492381335198147668e-02,1.158108497563476065e-02,5.666460394859313965e-01
3.098034615835717487e-01,5.971560631131493935e-01,-1.127156132839124414e-02,4.156580513266993487e-02,-3.046643779022761844e-02,7.136209225677943475e-03,5.348298549652099609e-01
1.785362183643802170e-01,7.351946422777753121e-01,-2.076598070716401123e-02,-4.904750307809532806e-02,-4.807077616686715460e-02,-4.037021754309246674e-02,6.925112605094909668e-01
4.518807558208571828e-01,4.275484253630629228e-01,-1.249329947503752258e-02,-1.825911758447222588e-02,-1.019715329316114166e-02,-6.741929732356438318e-03,4.542956352233886719e-01
4.288905830169513766e-01,4.495150770834761556e-01,-1.767020033055399786e-02,-1.918543010402521884e-02,-7.165424737379844783e-03,-1.006880247011707023e-02,4.589274525642395020e-01
4.467434601278288397e-01,4.122115800911122507e-01,-1.859095194845883370e-02,-3.024367491192874596e-02,-2.970516523163757583e-02,-2.784981082436085303e-02,4.575781524181365967e-01
4.493413435810417189e-01,4.206885491741514382e-01,-4.241161341285382136e-03,-2.316968423527810544e-02,-1.445229596516617830e-02,-1.322582843336484078e-02,4.430841207504272461e-01
4.559536639206883679e-01,4.230271359610057180e-01,-2.123572677020357791e-02,-1.910042549838131265e-02,-1.365384562819291735e-02,-9.174403401120153831e-03,4.636679291725158691e-01
4.418435549522838346e-01,5.142593950579362749e-01,-2.389556065698833498e-02,1.176721139374500499e-02,-2.239610723048381449e-02,-9.649752615419091711e-03,5.080190896987915039e-01
3.905124166396794494e-01,5.422651748816261774e-01,1.051136707366379097e-02,-7.219491920032470970e-03,-5.243068411968249826e-02,-3.360870132166111912e-02,4.867112338542938232e-01
3.171597552433813583e-01,5.670851536474665888e-01,-3.982890385754722651e-04,-3.851991382511724821e-02,-4.514972793692200587e-02,2.919157877844105742e-02,5.057617425918579102e-01
4.669136195350429563e-01,4.565869952176814239e-01,-2.426412595719290577e-02,2.210596618404920589e-03,3.482568294287993402e-03,-2.564071235226604920e-03,4.861694872379302979e-01
4.514992506108048698e-01,4.920159525308476223e-01,-2.858175059310558153e-02,-1.338510085990153153e-03,-1.021776303504741412e-02,4.894280846321739237e-03,5.019572973251342773e-01
4.781602741964662839e-01,4.757931903761785097e-01,-9.344530187964994461e-03,1.207329540576027212e-02,-9.485934676111053981e-03,-5.699936133464149736e-04,4.870531558990478516e-01
4.547235659583662160e-01,4.718400096432919244e-01,-1.238448856326074266e-02,1.794152883130691739e-02,-8.120970127293659913e-03,1.125708579163161444e-02,4.775163233280181885e-01
4.923875061806952114e-01,4.815819738842503361e-01,-8.354882359138893211e-03,4.913872485293094977e-02,5.997201571372770025e-03,6.326159957338921280e-03,5.029122233390808105e-01
4.909695264752870214e-01,4.607719731010514463e-01,-1.899676255436261174e-02,3.482712789380371099e-02,-3.006219913537418881e-02,9.434677573784022719e-03,5.021899938583374023e-01
4.578430878798669390e-01,4.711293540562833115e-01,-2.102787299379083041e-02,1.989351561699170823e-02,-1.288569466018806009e-02,1.361681981836974399e-02,4.879528284072875977e-01
4.540089598529502002e-01,4.985601876994413262e-01,-1.265510218250542884e-02,1.672375287326814675e-02,-2.614885883923975113e-02,6.396548766545277070e-03,4.935217499732971191e-01
3.935601523031213023e-01,6.990737672432392191e-01,2.725746421063446334e-02,7.166309690205552307e-02,-7.385272974359356757e-02,-1.511137001188035504e-02,6.098206639289855957e-01
5.023904512372321385e-01,4.546315253300182713e-01,-5.379800924293132169e-03,1.224274220346400002e-02,-6.878259379214062127e-04,-4.723095409610405561e-03,4.861882030963897705e-01
4.913105992440157666e-01,4.549621651860950022e-01,-2.098762278398436099e-02,6.949418182242319934e-03,3.175782519918683017e-03,-6.146865560279138677e-03,4.954169392585754395e-01
4.955256281974165233e-01,4.355728208120335232e-01,-2.571528536626105366e-02,-1.524219605093914695e-03,4.609887715519416299e-03,-5.797477392433489016e-03,4.941741824150085449e-01
4.850879913890194239e-01,4.597309188261111679e-01,1.125530039338501487e-02,3.958719533256644003e-03,-1.675495687139168851e-03,-1.275910057003342389e-02,4.622653126716613770e-01
4.708843795952651901e-01,4.712506238611793297e-01,-2.873874625333833199e-02,1.810866521264850246e-03,9.023867801865897065e-05,-3.812576665500122704e-03,4.998598396778106689e-01
4.819425867702913369e-01,4.726187764705043204e-01,4.888679019816183358e-02,6.443544606651571693e-03,-1.626378661398851164e-02,3.047970830370907991e-03,4.295724332332611084e-01
5.077742329578472935e-01,4.855172339092384548e-01,2.850288180627724710e-02,2.166784818748749425e-02,-4.939146057838291609e-03,-4.505448911228095848e-02,4.765507876873016357e-01
5.637285816794150861e-01,4.589374588302262414e-01,3.059018701918181371e-02,1.910535128637024307e-02,2.714638476620271149e-02,-2.482836301310760788e-02,4.944741725921630859e-01
5.385793975456880656e-01,4.199039031944820088e-01,-2.313279090344388944e-02,6.355661467208893745e-02,-1.060071167304741345e-02,1.951525545268418399e-02,5.258716344833374023e-01
3.803190876729050096e-01,3.934871963748358126e-01,6.987450067694356282e-03,-1.130224543238290691e-01,-2.286056275364040102e-02,-2.888791786937262851e-02,4.322725534439086914e-01
4.759374951891848227e-01,4.692883536784837606e-01,1.309912480230984722e-02,1.075831244784156019e-03,-5.941246877745931347e-03,8.905178889560856972e-03,4.599275588989257812e-01
3.674271721408690072e-01,4.618423506987113791e-01,1.120292282683416074e-02,-6.498840034145880740e-02,2.541409971466767823e-02,2.582660281624587009e-02,4.313375353813171387e-01
3.702644533243738545e-01,4.246377988914946666e-01,9.507134804497829883e-03,-7.137841689540325163e-02,1.961577192280482967e-02,9.149859956384757617e-03,4.115920364856719971e-01
3.570453510211490933e-01,4.750694514831162452e-01,8.783737857883722189e-03,-1.380923745023661109e-01,3.057099139983903129e-03,3.813506580976256527e-02,4.877688884735107422e-01
3.673214526366912480e-01,4.284194660840434654e-01,5.985841565881000470e-03,-6.047434593878434766e-02,-8.233702500660218873e-03,-7.955551560906347353e-03,4.095582664012908936e-01
3.493696872707235945e-01,4.747634165185029009e-01,6.158264850980088578e-03,-5.433308787355579927e-02,-1.261857186902798182e-02,-3.432338389974606482e-03,4.311884939670562744e-01
3.134194355026836409e-01,4.773082629194845827e-01,3.754590215601150138e-03,-8.550283526888216579e-02,-8.603204530977065848e-03,-1.909868554304281190e-03,4.423433840274810791e-01
4.257697267986387812e-01,5.101331101062398510e-01,1.052967669784066196e-02,6.127670314280864346e-03,-4.352306817423422930e-02,-1.080532119676111055e-02,4.698065817356109619e-01
4.726455084538606632e-01,4.993998978018651114e-01,8.684248735488120374e-03,2.051570100888052556e-02,1.367804694601660286e-02,-8.774725753176013457e-03,4.800456166267395020e-01
4.895586268163327759e-01,4.803746689018673077e-01,-1.315404762471256150e-02,5.254445233337275145e-02,-2.530918550317086749e-02,1.210105127800850493e-02,5.087545514106750488e-01
5.010209616119672971e-01,4.790343524579767642e-01,-5.451772659027687151e-03,5.330625030897232636e-02,-6.726893922962163576e-03,9.109931113754438092e-03,5.047492384910583496e-01
4.757215061265663847e-01,4.707364732302456445e-01,-3.039278301016457018e-02,-6.583286537796663798e-04,1.481125031849831494e-04,-2.020363156374234154e-03,5.036537647247314453e-01
2.701190004565094394e-01,5.056576204220900594e-01,-1.892942315329104730e-03,-8.406069363673472628e-02,-3.245153776330965412e-02,-1.428984638437664871e-02,4.674492180347442627e-01
2.812813253708794092e-01,5.367983073824849072e-01,-5.855210789787124170e-03,-1.082778747025937849e-01,-3.238262119193431599e-02,-2.119269227862371693e-02,5.106565952301025391e-01
3.453361477953342806e-01,5.122284450286060942e-01,-1.468028417955735687e-03,-4.959725752478721245e-02,-1.466164275741135142e-02,-7.927671852218398998e-03,4.628371298313140869e-01
3.809646727505540675e-01,5.072922629593513699e-01,-1.425713884165152878e-02,-3.463679525116575980e-02,-3.978610343774145047e-02,-3.140924467173636381e-02,4.831085801124572754e-01
3.697547118707915637e-01,4.484374851761874226e-01,-1.299595888762533624e-02,-1.064473852833836137e-01,-5.945360636329090342e-02,-3.853674376504863386e-02,4.815158545970916748e-01
3.594027147569514025e-01,4.678899084880222548e-01,-7.693849922249196283e-03,-6.248932715040954322e-02,-1.909133439564715887e-02,-1.277430240092027741e-02,4.468247592449188232e-01
3.507216824038997260e-01,4.715898912918338182e-01,-4.730589888665148735e-03,-6.634946473748669360e-02,-2.684046155042569409e-02,-2.344294840741647720e-02,4.482577741146087646e-01
4.199453234397932389e-01,4.782015559446046726e-01,-1.390842141841702739e-02,2.876073858578480358e-02,9.007511293941797281e-03,-8.796656544495271707e-03,4.688865840435028076e-01
4.708466437411383820e-01,4.733089107919071781e-01,-2.531956905400989388e-02,2.033881087477736830e-03,3.171656052685621618e-03,-8.883575810122099070e-03,4.976826310157775879e-01
4.643198623352345900e-01,4.624980944574583752e-01,-2.307437138655699105e-02,8.416761652559244522e-03,3.969363609316188708e-03,-7.222616585233996092e-03,4.869135618209838867e-01
4.769639243846057752e-01,4.601846113168031049e-01,-2.689780709372563416e-02,2.973581450757848028e-03,5.756577091372869909e-03,-5.914351275604736065e-03,4.959179461002349854e-01
4.806564866439396733e-01,4.755751584502170282e-01,-2.711249759323730579e-02,1.924657907271466479e-03,4.452999639249469351e-03,-4.887291584426677396e-03,5.053882598876953125e-01
4.732391224835514887e-01,4.407685802682172471e-01,-1.595038663462805539e-02,1.584027433210888347e-02,5.342858490727485365e-03,-7.242117490918162197e-03,4.748391211032867432e-01
4.542189753456402079e-01,4.804666072582789438e-01,-2.635380686629457125e-02,1.195888503236354483e-02,-4.529683747336472714e-03,-5.290635015166063847e-03,4.948005676269531250e-01
4.189266148840367077e-01,4.759544396227482488e-01,-1.696061357588074525e-02,-3.515718747882180806e-02,2.085608839307181300e-02,1.803571265730340850e-02,4.733882248401641846e-01
4.210703190219192704e-01,4.224118692881263515e-01,4.512334822884711549e-03,-2.077328849471809374e-02,1.610689602022596228e-02,1.221777492619626967e-02,4.202402830123901367e-01
4.134312291084898394e-01,4.306745048322815350e-01,1.881259967078441342e-03,-1.113850624444544524e-01,5.431714207032638936e-02,2.774114034580088886e-02,4.744963943958282471e-01
4.959090746208243417e-01,3.634675791698800396e-01,-7.623087103255099528e-03,-5.484975430432401100e-02,2.762319548145109396e-02,2.910106924788342583e-02,4.671745598316192627e-01
3.642810542561322196e-01,4.201622975905222601e-01,7.152677645255789418e-03,-6.992612493318861588e-02,-5.494310359871424840e-03,-4.359460000955570590e-03,4.067391455173492432e-01
4.609135903191173833e-01,3.602387519775583913e-01,7.121770642822933262e-03,-6.272627511186226745e-02,-1.063721943157674987e-02,-9.291892956816224722e-03,4.275268912315368652e-01
4.587951279267482585e-01,3.187853101411426415e-01,-2.097427523339157052e-02,-1.099901921249565179e-01,-1.772039289151192826e-02,-5.141000257207649013e-03,4.689604043960571289e-01
3.799375984898336611e-01,3.630726384364619808e-01,3.818704580346332644e-03,-1.390891035561328259e-01,5.330275729492411560e-03,5.328011592993019824e-03,4.400162994861602783e-01
4.697979943828769489e-01,3.691477776733631533e-01,8.662161752122476965e-03,-6.503680393510964663e-02,1.098287197507013049e-02,7.627203511391062243e-03,4.354182481765747070e-01
3.812692368925305608e-01,3.760951971448854847e-01,-1.259990091656554290e-02,-1.342338661911041398e-01,6.019664174567975617e-03,3.039682734677311756e-03,4.553179144859313965e-01
4.750745997944973986e-01,4.759653910239413643e-01,7.799663082954710891e-02,8.323470138434620885e-03,-9.670883121628380888e-03,-7.896164375233861998e-03,3.983727991580963135e-01
4.699637612273689369e-01,4.702586577868940187e-01,-2.778215570640513166e-02,-2.332633571753050476e-03,-1.012720857673329622e-04,-5.709987106646582759e-03,4.980080723762512207e-01
4.780381114262046149e-01,4.817384121730937663e-01,9.245335382241731681e-02,8.962082878222190838e-03,2.352948590194649334e-03,-5.806558831087225807e-03,3.879108130931854248e-01
4.746906433816510118e-01,4.824273873029047977e-01,1.131399214149119425e-01,5.505718702999790916e-03,-5.339941324931865227e-03,-5.883478658787895908e-04,3.657232820987701416e-01
4.743390311286596051e-01,4.770351178281325710e-01,8.996032199259507145e-02,5.511331887176151509e-03,-7.347571804718983079e-03,-4.080965569100319153e-04,3.860623836517333984e-01
4.734691923913927347e-01,4.725402428916444242e-01,8.209839820824138545e-02,1.868309518366975284e-03,9.354565953453963800e-03,4.848952108451327903e-03,3.913463056087493896e-01
4.487165493611063316e-01,4.910708015983958896e-01,-1.296517370621974585e-04,1.660376798538566734e-02,-7.353515099979811027e-04,-2.354367041290710005e-03,4.723480045795440674e-01
4.601215753305616385e-01,5.023391425409975408e-01,-1.802373357047221125e-02,1.130283342303212493e-02,-1.982269531717891550e-03,-5.114393034863193993e-03,5.010637640953063965e-01
4.674636812776475914e-01,4.807047218695361668e-01,2.506771774474114700e-03,2.119596716130719895e-03,1.589550680536707403e-03,-2.624268263043422460e-03,4.717610478401184082e-01
4.822899506141598014e-01,4.779551242188663229e-01,-1.732773469858867044e-02,-5.457064189023620943e-04,-1.191114487876770512e-03,-5.112164403314869987e-03,4.975484013557434082e-01
4.714548597040273403e-01,4.924895742841739477e-01,-2.940076961660376131e-03,1.444693885612128789e-02,2.481595447973262286e-02,-1.263650074288779832e-02,4.882872700691223145e-01
4.637582271696435443e-01,4.788429890198238059e-01,-1.528486481289997867e-02,2.981657805506491773e-03,1.962593103116011279e-03,-4.389932696911492960e-03,4.868594408035278320e-01
4.701642862805359702e-01,4.529725086560543179e-01,-1.682992628170981719e-02,2.084661535940772470e-02,9.848153598390384234e-03,-1.391614535375087364e-02,4.808973968029022217e-01
4.302265675145338641e-01,5.288399870158300153e-01,-2.351452968941192267e-02,1.684788086877331628e-02,4.627351786904969344e-02,-4.507744393368142907e-03,5.173845291137695312e-01
4.682813723278475004e-01,4.807715794420257538e-01,-1.075026014255098250e-02,2.125592929684442644e-03,-5.279320845415962603e-03,-2.615066025533571443e-03,4.855184853076934814e-01
4.678542272106447908e-01,4.912275857783235944e-01,-1.522526830576015344e-02,6.906260632935704285e-04,-6.630692794307564697e-03,2.349148283176887442e-03,4.953314065933227539e-01
4.669683776779186557e-01,4.616657441941440787e-01,-3.690888889181986876e-02,-4.807078422790604937e-04,-5.683843961921263184e-03,-3.402675176889177321e-03,5.013790130615234375e-01
4.627233989844757311e-01,4.622903615958964818e-01,-3.800141483868824110e-02,-1.838493156108723513e-04,-2.341212792271006246e-03,-3.484619982087400550e-03,5.005613565444946289e-01
4.644676445726261260e-01,4.664852584457697127e-01,-3.573769534304732653e-02,-1.740465044154829600e-03,-9.684849775950218941e-04,-2.235904797524134770e-03,5.012440085411071777e-01
6.343918326809674380e-01,6.820309489961097205e-01,6.597493062041870360e-02,1.194838325858100236e-01,2.524342669664803723e-02,-3.880835869660684279e-02,6.338022351264953613e-01
4.547912486121155062e-01,4.458319278399951457e-01,-1.285052289825239225e-02,1.208977359803869479e-02,5.929101916356643333e-03,-4.501959156055624842e-03,4.638794064521789551e-01
4.625670944476035218e-01,4.621004166875929409e-01,-3.805468777157500204e-02,-3.808988321946867083e-04,-2.618808845479842200e-03,-3.749010588751003781e-03,5.004517436027526855e-01
4.622410602979586391e-01,4.666509087924987087e-01,-3.866767414783284229e-02,-8.280501644904625803e-04,-1.469375291879181826e-03,-9.644742275258191442e-04,5.031394362449645996e-01
4.560914381622793168e-01,4.829480319740835359e-01,-2.865737948027319293e-02,-1.119533713638117380e-03,2.163274542498920972e-03,4.755381409178454505e-03,4.988056123256683350e-01
4.657076352678095610e-01,4.665157565083852820e-01,-3.888463723485791057e-02,-2.895730259057484129e-04,-2.054956694107515965e-03,-1.019150448159317516e-03,5.050126910209655762e-01
4.840826981525149231e-01,5.314337986821995319e-01,-1.793967325888840003e-02,4.264650012289122882e-03,3.190983699729242618e-02,1.032407051053767753e-02,5.305364727973937988e-01
4.787208652274852483e-01,4.713791563409849283e-01,-2.602836537064467937e-02,-2.104438160068085231e-03,1.333551985695182688e-03,-2.695421882209327654e-04,5.011374950408935547e-01
4.685264746311245121e-01,5.261222236205110869e-01,-3.742677678204880953e-02,3.367244083814874278e-02,5.157171691018678367e-02,7.247147999244443056e-03,5.477085709571838379e-01
4.811775987549858358e-01,5.168069539663967538e-01,8.720347664957328604e-03,1.828634219969578131e-02,1.667754119411838515e-02,2.148187551576207985e-02,4.945105314254760742e-01
4.624496153437265278e-01,4.776824974652070233e-01,-3.678929118648638363e-02,-2.506786460752682532e-03,1.753671735930386992e-03,3.205037115452665213e-03,5.070850849151611328e-01
4.628763686640359754e-01,4.792461057190351426e-01,-1.071949139566619191e-02,-1.466560139198898446e-04,6.490547831441404597e-03,8.195361625258143837e-03,4.823293387889862061e-01
4.755308048405875176e-01,4.796896819050382454e-01,-3.689372148455066780e-02,4.894617765269743820e-03,1.063237566339294594e-02,4.833004721445191033e-03,5.149838924407958984e-01
4.521504897958818492e-01,4.757012931294117286e-01,-3.166519424576708097e-02,-7.431858275040391891e-03,1.011929318433160870e-02,1.285715132155498819e-02,4.969862401485443115e-01
4.312969902868405425e-01,4.373925232260879037e-01,-1.319897981197337700e-02,-6.673261678716139490e-03,-6.985285502171175234e-03,-7.280115718344705965e-03,4.480650126934051514e-01
5.011405507354416144e-01,4.797843908924179779e-01,-2.581026416527770762e-02,-3.572239483380896131e-03,8.953796712208623651e-03,2.227485705366770170e-03,5.168880820274353027e-01
4.735669295819128211e-01,4.690254665778871290e-01,-2.874020907387919710e-02,1.036599876335316190e-03,2.145048120687317005e-03,-4.126077981263975153e-03,5.001199841499328613e-01
4.743404462171433300e-01,4.647974788704731242e-01,-2.892010504716607810e-02,-3.844090602661514970e-04,2.306242558327412095e-03,-4.442523489279145282e-03,4.986333847045898438e-01
4.737916428477364494e-01,4.710898676313551858e-01,-2.854653904162074429e-02,2.866631847331823268e-06,2.026629140019605996e-03,-3.819587744231321257e-03,5.010487437248229980e-01
4.750979271636922574e-01,4.726284719046982552e-01,-2.822375257979153895e-02,-9.994594424086213069e-04,2.340935113659203294e-03,-5.229387113826354863e-03,5.021925568580627441e-01
2.807851948039998269e-01,4.048837983962101372e-01,-2.396821533079682154e-02,-2.439587291345926556e-01,-5.934225735523983303e-03,1.733772845465753054e-02,5.706571340560913086e-01
2.853043465942531332e-01,4.753570143643717771e-01,-7.117133755527749184e-03,-1.074326788543832761e-01,-3.226852563832677961e-02,-1.853221345693687946e-02,4.647421538829803467e-01
3.126850811890623527e-01,4.393201168190623562e-01,1.062228691258632063e-03,-1.127655585786472847e-01,-1.142016039697547197e-02,-7.147256010469111957e-03,4.373789429664611816e-01
2.353536725520798678e-01,5.138345506824244513e-01,-4.088899192432926544e-02,-1.602470861357560006e-01,-2.034072692670014365e-02,-5.274020860304052746e-03,5.560143589973449707e-01
2.479881844635347943e-01,5.254964507448646183e-01,-6.274813902063758331e-02,-2.408532951118309007e-01,7.027012549813502901e-03,1.631189318425435575e-02,6.593763232231140137e-01
2.722545889006284248e-01,5.225657070399620796e-01,-3.307805077684300432e-03,-2.413519853215776167e-01,7.700448135347058576e-04,-3.887297753475670026e-02,6.219759583473205566e-01
4.759531694144432112e-01,4.710796917010271478e-01,-3.064379782108739292e-02,-9.712021940488030705e-04,8.753698370215494840e-04,-1.578864964458384168e-03,5.041903853416442871e-01
4.624220739480663367e-01,4.054773436322879343e-01,-2.168384662818767517e-03,2.456107830794194286e-02,-1.976336638131587047e-03,-4.289770175449552497e-03,4.410302639007568359e-01
4.957282143553242704e-01,4.104016005867581196e-01,-1.152698600687435126e-02,2.533455208771093203e-02,1.149172676827175076e-02,-1.239197504566233975e-02,4.733798503875732422e-01
4.905314030814614257e-01,3.429406501363435611e-01,-1.211503779639067080e-02,5.999421963564473270e-02,1.878198287386485810e-02,-2.743444628762481408e-02,4.629953205585479736e-01
5.039111756834113720e-01,3.663891468090332282e-01,-6.698893502984193393e-03,3.377964139354736051e-02,1.779881196464275575e-02,1.125928033882384527e-03,4.623766839504241943e-01
4.793266405846853262e-01,4.083776162869982018e-01,-1.588136816509100324e-03,1.026200355356664123e-01,1.372060669414086782e-02,-7.615654299765696987e-03,4.842765033245086670e-01
4.665320853700852810e-01,4.315285418059352507e-01,-1.953896715330222245e-02,9.628058532965882987e-02,-3.142942545593599944e-03,-3.355886721347733914e-02,5.016913414001464844e-01
4.438804367328276768e-01,4.394409835482000481e-01,-8.881178731588945663e-03,4.660408655066028416e-02,5.266879392587359675e-03,-2.461066767629074923e-03,4.578427672386169434e-01
4.846971050339873299e-01,4.373563773557414547e-01,-1.956873911676570987e-02,1.129553998908699730e-01,1.638931272678780318e-02,-4.182388353225235944e-03,5.213328599929809570e-01
5.030886678865729156e-01,3.949409267819571911e-01,-1.156129584533893695e-02,1.125826004563212634e-01,1.250510333233856471e-02,4.338765814894109292e-03,5.093647241592407227e-01
4.933502611617700540e-01,3.261095495867752381e-01,2.599623717938204237e-03,6.008889517421738685e-02,2.221425012088416862e-02,-2.198902315082603212e-02,4.477668404579162598e-01
3.478402364610801989e-01,5.577971291913932372e-01,-1.754044935088927559e-02,-5.006601501417640848e-02,-3.870367826358372260e-02,-2.004445176563850878e-02,5.172216296195983887e-01
4.153562775038759924e-01,4.948456422327651705e-01,-2.698938291559399572e-02,-3.920073722214719933e-03,1.117696750001969221e-03,-6.904523002433949827e-03,4.871785044670104980e-01
4.623199010004078735e-01,4.810278666892524035e-01,-3.264612720546328228e-02,-2.480335411107888145e-04,-1.021227024950223730e-03,-1.498598075791414451e-03,5.045901536941528320e-01
3.938602292511081404e-01,5.290837278586253412e-01,-2.238435953183021132e-02,-7.406337156722166311e-03,-1.690883747590921082e-02,1.961534909053785664e-04,4.988520741462707520e-01
3.832047414188082812e-01,5.643617276880726896e-01,-2.286424603039266534e-02,-3.735862554274337315e-03,-4.011875061259024405e-02,7.975531407755663549e-03,5.256741642951965332e-01
3.447888369730768843e-01,4.860502844313177584e-01,-1.990983483404556997e-02,-6.693825862862555487e-02,-2.722778992532192202e-02,-2.086606011958008419e-02,4.705849587917327881e-01
3.335005175122802146e-01,6.781057928912678223e-01,3.784644503142420291e-03,-5.832649618004047409e-02,-5.977840489796638207e-02,-2.948824265115748341e-02,6.038395166397094727e-01
4.776284998554302663e-01,4.757353510917122774e-01,2.490659937970607363e-02,3.355635127767302422e-03,1.094485390988016518e-02,-1.042153271730772521e-03,4.522168040275573730e-01
4.684281886247827487e-01,5.033992007465151186e-01,8.020191320494973741e-03,-2.087169278633916984e-03,-1.350143626179612331e-02,5.639322773596871022e-03,4.795359969139099121e-01
4.511545943147863280e-01,4.899766381187805608e-01,-3.189427308993370014e-02,-2.581838029880050185e-03,-1.073685344635197728e-02,-6.529973173937033727e-03,5.040734410285949707e-01
4.328533633438370054e-01,4.888059306020089423e-01,-3.173430921150521833e-02,-1.365220291095982190e-02,-2.363032643447007461e-02,-2.086525075267202725e-02,4.985054433345794678e-01
5.638550246775656527e-01,4.327897136012301971e-01,-2.062413041320210194e-03,-5.311889614374726634e-03,-8.733244153719644035e-03,-3.914000453106939587e-02,5.178588628768920898e-01
4.765090611945478893e-01,4.738121642828316826e-01,-2.303060410841062389e-02,6.326919649158365376e-03,8.362022116552091100e-03,-1.672456328873792725e-02,4.993685483932495117e-01
4.722750722995975314e-01,4.719150105385850891e-01,4.670978521693325280e-02,-2.386063597573759038e-03,-1.391140791078296357e-02,-1.414889616783166458e-02,4.267914593219757080e-01
4.815518789306433289e-01,4.753682303265777120e-01,7.427587175012351217e-04,-4.306039391772574997e-04,-3.322440998651801734e-03,-1.191907527872706346e-02,4.782283604145050049e-01
4.614682542299857748e-01,4.832642427471957047e-01,-3.345558139797139008e-02,7.148780671010954678e-04,6.026557919156303031e-04,-5.276306367035281863e-04,5.061773061752319336e-01
5.623520367934478070e-01,4.650157051646169326e-01,5.676598828917850392e-02,4.020466906519159535e-03,1.310823207037921552e-02,-3.540441425367484712e-02,4.692591130733489990e-01
5.164438325055342727e-01,4.763078672509880040e-01,3.832674428036192404e-02,1.266550434183289810e-02,-1.835670203238089909e-02,-2.160779708871824606e-02,4.625040590763092041e-01
4.198914362197050387e-01,4.824002083296426990e-01,1.206373059660237335e-02,-5.847379524624091163e-02,-1.960024874431544328e-02,-2.992184173129541769e-02,4.580607116222381592e-01
4.383997474713920983e-01,4.444944248514580143e-01,-2.352243478448096115e-02,-7.983267712417430051e-02,-2.971050117435423271e-02,-3.041962232360220786e-02,4.906816482543945312e-01
4.680309823555553472e-01,4.548215837735421485e-01,-2.854461107135558562e-02,-4.986023580189480331e-02,-2.506292547336106194e-02,-3.456077081893901143e-02,5.031185150146484375e-01
3.868479538600790857e-01,4.876588950912509324e-01,-1.263786357992596754e-02,-9.231110049757143554e-02,-4.553090048259694766e-02,-3.459254937131919783e-02,4.953760504722595215e-01
4.343978991305378345e-01,4.096160225374492203e-01,-1.460090914816120078e-02,-1.042412996790332697e-01,-2.984584260652308960e-02,-3.016589165845882242e-02,4.786314368247985840e-01
4.673697392360713909e-01,4.773916179216467492e-01,-1.494549330137490140e-02,-1.141883926976336867e-04,5.446148795118816322e-04,-4.008357634953023906e-03,4.874538481235504150e-01
4.163827679139547877e-01,4.968370228438825364e-01,-1.519083640088780829e-02,-5.335766044487195298e-02,-6.679926659362971086e-02,-3.376092490756733844e-02,5.027897357940673828e-01
4.195270959443694325e-01,5.027879380566722123e-01,-2.633967613974064204e-02,-1.386059053589711737e-02,-2.038838512847727241e-02,-8.518664495734795672e-03,4.948675632476806641e-01
4.473671578416057448e-01,4.912845715000038194e-01,-2.202514503113189859e-02,-2.016517478591324346e-03,-1.637148326433592125e-03,-4.144695405848717804e-03,4.928936362266540527e-01
5.135400471644462339e-01,5.074267601077029344e-01,6.609054993031671099e-02,2.420273757463420328e-02,1.011915989412305594e-02,-4.926639321302479432e-03,4.468225240707397461e-01
5.123167873594099975e-01,4.793528428796460794e-01,9.237297872084276884e-02,-1.108402204325272845e-02,-1.269050125405551087e-02,5.801599333309310005e-03,4.056465327739715576e-01
5.066233871630471119e-01,5.269380344037246644e-01,8.302441986962305620e-02,-1.040320574263787308e-03,-3.517352578005981945e-02,-7.264343329367731195e-02,4.560701847076416016e-01
5.461953686220744064e-01,6.763966107284269391e-01,7.728666511959225716e-02,8.458305020210171721e-02,-4.423692345868351222e-02,-7.543445285953884194e-02,5.850511789321899414e-01
5.100810248775887734e-01,4.780984418765922284e-01,7.971519342440325229e-02,1.235448346147618656e-02,1.629444042549437269e-02,5.435725136539062800e-04,4.168078005313873291e-01
4.366653948415767372e-01,4.556192496602321507e-01,-2.839655496603976648e-03,-1.663536195323610245e-02,7.095405971053232556e-03,1.163058365514323816e-02,4.508229196071624756e-01
3.617793931712482425e-01,4.254475098283068135e-01,9.391299180658507773e-03,-7.183181891324617874e-02,8.546598507533044106e-03,6.700987449563047642e-03,4.080443084239959717e-01
2.666177619311715929e-01,5.294503703305792897e-01,-4.258648900586636810e-03,-5.724616779021907131e-02,-1.184850982309236175e-02,9.267700571493819525e-03,4.734557569026947021e-01
3.635694292876403000e-01,4.253608343979585760e-01,3.122045381773186357e-03,-1.617314874517990220e-01,-1.283316880267878178e-03,-1.973354216950159307e-03,4.842529296875000000e-01
4.157347658489251030e-01,3.667046326366006914e-01,6.845790760364511840e-03,-7.306591142823870566e-02,-3.535192278669805482e-03,-5.891116415605543097e-03,4.070672690868377686e-01
4.034154200005635182e-01,4.434525787671570463e-01,-5.642304557887167782e-03,-4.127663016593246387e-02,1.461040489956607485e-02,1.837865762640584349e-02,4.382621347904205322e-01
5.257513612760270627e-01,4.346448195328156960e-01,-1.734465576196980718e-02,1.962217238607439837e-02,-1.894853901410477673e-02,-8.160912937243660487e-03,5.061680674552917480e-01
4.101128803580714743e-01,4.367969684213593995e-01,9.808849348252435263e-03,-3.246803266896858969e-02,-3.003586048247976399e-04,-3.564169312424580408e-03,4.181363582611083984e-01
5.292208084925116296e-01,3.401706205460707233e-01,-1.289951745936673833e-02,1.148256512010754904e-02,1.374160385730874290e-02,-1.335484431671477706e-02,4.781668782234191895e-01
5.788273044556468960e-01,3.404072914941568273e-01,-1.160169183918885460e-02,6.582472292368962696e-02,1.303915656273829139e-02,-3.035312712109561328e-02,5.300500988960266113e-01
4.800133979719222177e-01,4.682219490555376007e-01,-2.766887384961652652e-02,1.070008311965486110e-03,5.411895002283578391e-04,-1.671832541424847713e-03,5.019031167030334473e-01
5.326822702113713781e-01,3.402183931951999751e-01,-1.547492860946753090e-02,5.585665322271209099e-02,2.578704924030759613e-02,-2.828421524376062771e-02,4.957549870014190674e-01
4.467072769020778433e-01,4.918218162671578186e-01,-2.560656592495935691e-02,4.664863675201614407e-02,2.490081661627335796e-02,-8.686745210876365905e-03,5.050135850906372070e-01
5.915935362043391876e-01,2.925644191965408591e-01,4.607618755662090670e-02,7.300417390190688804e-02,3.796265443485147967e-02,-4.061796927406798735e-02,4.991430640220642090e-01
5.030211817997202184e-01,4.267784092840702925e-01,-1.814833174277058481e-02,7.861942219692871769e-03,1.045522148554244718e-02,-6.092127486544272018e-03,4.881802201271057129e-01
5.093194812569930008e-01,3.972915064327936507e-01,-1.997579031720236875e-02,2.924353443792449686e-02,8.309886250348822237e-03,-2.727307278150421788e-02,4.882745742797851562e-01
4.517470383753724450e-01,4.801321414569398316e-01,-2.755962228571706696e-02,-2.272329916699777300e-03,-4.674769981277745318e-03,-4.469257377037709131e-03,4.942537248134613037e-01
5.356583364877067766e-01,3.103674456292248585e-01,-1.426277263868508394e-02,2.486089354789193170e-02,9.150649199222798263e-03,-3.287173752364767887e-02,4.843800663948059082e-01
4.650735942411355905e-01,4.755074218201572056e-01,-3.272801681219056347e-02,-2.066711943512408440e-04,-7.876139325395754495e-03,-8.968475109309400131e-03,5.035244226455688477e-01
5.294895543175481833e-01,3.938734622051683343e-01,-1.989105508393806954e-02,1.077657216577414083e-03,5.288163813197383802e-03,-1.749672777055018627e-02,4.967008233070373535e-01
4.700933861627872301e-01,4.747884462268663341e-01,1.031822168744861434e-01,5.023067861749740126e-03,-6.879982867525001253e-03,1.867115745586908973e-02,3.709879517555236816e-01
4.760863216231007167e-01,4.764779037391352334e-01,7.340907374859140244e-02,1.418558272102390418e-03,1.109268607650044404e-02,9.440635192376015464e-03,4.036698639392852783e-01
4.675999318414361117e-01,5.314983624403784024e-01,5.768682775679268016e-02,2.365107522903125634e-02,-2.094849383104026297e-02,2.955220061558300713e-03,4.486930072307586670e-01
5.032982395195044756e-01,5.187743487455205305e-01,5.142415308185932510e-02,2.292310740418712287e-02,-1.849890539407574724e-02,-1.250677679172964261e-02,4.631363153457641602e-01
5.228690958684039103e-01,4.954420708290289688e-01,8.209929200474580524e-02,2.924889618230798807e-02,-1.900192741453850254e-02,-5.362129318748989903e-02,4.418333470821380615e-01
4.870913985541308611e-01,4.720306547746238035e-01,9.942222323669919204e-02,4.425142822999482764e-03,-9.154183393320745746e-04,-3.839531897366315455e-04,3.804436028003692627e-01
2.357496985423324642e-01,6.562138641191795907e-01,-5.818690223925154781e-02,-1.289476049850306061e-01,-2.042934235581857216e-02,-2.257970546341526302e-02,6.629047393798828125e-01
4.922030156728415262e-01,5.160032611382290302e-01,1.122814233032082831e-01,-3.462553844818820527e-03,9.036476642332950601e-03,-1.983454733350424257e-02,3.942210972309112549e-01
4.682998386925198986e-01,4.464735313018011187e-01,-2.839789465171549399e-02,-1.782201507940348040e-02,-1.678286782745183267e-02,-1.742267866850525510e-02,4.889299273490905762e-01
4.714118794439831062e-01,4.815580427295181876e-01,-2.888484843520960910e-02,-1.135539393673814981e-03,-2.551452871878960148e-03,1.775593828282235774e-03,5.054786801338195801e-01
4.930973856641843178e-01,4.977965224660679255e-01,-5.047232013862257283e-03,7.093517810324260521e-03,-1.839311297520213051e-02,-1.869375294668382606e-02,5.027178525924682617e-01
4.153816938897497701e-01,5.024440478964574686e-01,-2.856358512916273851e-02,-3.008666078653470660e-02,-2.961001726232638520e-02,-3.380024196160937716e-02,5.020870566368103027e-01
4.362311518238455310e-01,4.082683387370665828e-01,-1.269712780068854574e-02,-9.419760124395908096e-02,-3.210549706651914803e-02,-4.941025783005747324e-02,4.762364923954010010e-01
5.078022432043646228e-01,4.254658912541640081e-01,1.042985836852666770e-02,-6.681663584012878521e-02,-5.749147841292321509e-02,-4.571339527632279492e-02,4.927322566509246826e-01
3.265994110248943150e-01,5.909565602743895862e-01,-8.819629581554799813e-03,5.533426253691203604e-03,-1.532422576138605004e-02,5.316974260309577198e-03,5.214807987213134766e-01
4.439137662702345999e-01,4.942363106439534026e-01,1.118545323283637316e-02,-9.144305502383815246e-03,-6.063347707703423822e-03,4.709668805339695292e-03,4.604235291481018066e-01
4.515275710046537383e-01,4.867001639128086810e-01,-2.491200448785424459e-03,-7.835181669674217211e-03,-4.733005451410838595e-03,2.565566359529669084e-03,4.728744924068450928e-01
4.275278199820032876e-01,4.929432208946056271e-01,-2.138516449049315815e-02,-1.406065404957391497e-02,-2.970796534103264594e-02,-9.628414656662118848e-03,4.885558187961578369e-01
5.292291249254277297e-01,3.338543398079473201e-01,-1.373630186646218609e-02,1.691040580726440798e-02,-2.914926036544633614e-03,-1.312308884738323279e-02,4.778085649013519287e-01
5.313115151111085233e-01,3.546389498044348332e-01,-2.036279220957903924e-02,8.411428649848168640e-03,4.866212771926973699e-03,-4.783496700832891996e-02,4.952169954776763916e-01
5.284620731894784651e-01,3.750937144523134315e-01,-3.404294490061027245e-02,8.176188308620919998e-02,1.992691503758643387e-02,-1.980920557505259569e-02,5.254395604133605957e-01
4.098661824072170057e-01,4.931807466336263213e-01,-2.540437213723301113e-02,-1.980959231355827396e-02,-1.771204133020149243e-02,-1.048570326288076997e-02,4.848859608173370361e-01
5.131855383914465385e-01,5.212514600170459200e-01,5.073466963853490164e-02,6.815246159179620504e-03,-1.074635200329043631e-02,-1.328584305215667338e-02,4.676230251789093018e-01
4.717498248757273638e-01,4.818106262658929384e-01,2.477515789530798651e-02,5.022752280469135015e-03,-1.154893253629460251e-03,-9.222410496495928088e-05,4.521771967411041260e-01
5.799716462115991344e-01,1.603916198995686271e-01,-1.324313802722432154e-02,8.763515894354589886e-02,8.627837757445602079e-03,-1.005613887164318390e-02,5.501059293746948242e-01
5.430347169792741902e-01,3.181153689383193206e-01,-1.592578112458620243e-02,3.896814705555058655e-02,1.739247833366318330e-02,-2.051590695276533233e-02,4.939942061901092529e-01
5.676748849134963804e-01,3.032685436501214027e-01,-1.715606132887903534e-02,3.439839172450080695e-02,1.773474768664186352e-02,-1.629296707591280577e-02,5.124399065971374512e-01
5.266115516766951554e-01,3.341531978176556228e-01,-7.487769653508391521e-03,1.793935481045613733e-02,4.692771448359037492e-03,-1.217137500128221382e-02,4.700918793678283691e-01
5.932460283333521600e-01,2.480211258707193389e-01,-2.213071780094966190e-02,2.080424865575170989e-03,6.690708670417900954e-03,-4.785235151729776149e-02,5.407792925834655762e-01
4.826604811861577859e-01,4.732204691545185415e-01,2.444058650178970726e-02,1.878147137365308080e-03,4.821835780262068291e-04,8.236079742971665410e-03,4.538102746009826660e-01
4.420342221756233814e-01,4.162288037922117212e-01,-9.290539232923944457e-03,9.419168752959734825e-02,-8.896938463004318981e-03,2.592558252329134338e-02,4.707264900207519531e-01
4.346875508496125251e-01,4.647001026636654597e-01,-1.700942559246376717e-02,2.693952289178923321e-02,-1.680876678945363717e-02,1.380923339334596579e-02,4.712583124637603760e-01
4.741656017699166226e-01,4.818979642922157636e-01,-2.789616534529232306e-02,1.255550883787316793e-03,-4.524781627668802639e-03,4.019234170425820159e-03,5.060855150222778320e-01
3.964247957370390374e-01,4.925471605492924287e-01,-1.687824884976940609e-02,3.589790621450571900e-02,-1.278397731386321338e-02,6.610697712193184215e-03,4.735757112503051758e-01
4.604831825605210649e-01,4.685940933710073808e-01,-2.495834825981019245e-02,5.576454145174440831e-03,-3.587846320248281456e-03,4.017666735929407290e-03,4.897315204143524170e-01
4.599101171082502493e-01,4.789158857971701488e-01,-2.624406629123132717e-02,3.837626786013029201e-03,-3.067908547246390397e-03,3.416512776560378523e-03,4.960385859012603760e-01
4.648071473490118510e-01,4.486830305956662213e-01,-2.538446662310073210e-02,1.830800724871427254e-02,-8.045782216538789958e-03,2.220354707770700459e-03,4.835891127586364746e-01
4.525358062003994597e-01,4.744383365899120797e-01,-2.108651268607281137e-02,9.060260922576151427e-03,-1.247846306404873894e-02,1.263857407326555646e-02,4.861727654933929443e-01
3.632654725032583576e-01,5.044339426178763297e-01,-1.741847824807957190e-02,7.252657673552997952e-02,-2.782586519191499255e-02,2.782074791363777638e-02,4.888910949230194092e-01
4.418765386640681747e-01,4.499002990251776968e-01,-8.261888767199077055e-03,-8.887565231520529142e-04,-3.872088829825071489e-04,4.939679885003452672e-04,4.542073607444763184e-01
4.586221091602703526e-01,4.667273928767058377e-01,-2.300907366874471727e-02,3.203155255866613118e-03,-4.748112170476158876e-03,3.997245906704464946e-03,4.858851730823516846e-01
4.565900151965887055e-01,4.577459429345802633e-01,-1.176294607553307614e-02,2.109855136935904693e-02,-6.761621395433133064e-03,5.540543931250476242e-03,4.705973863601684570e-01
4.614952201669033638e-01,4.855903660816692780e-01,-1.879914833505724747e-02,-2.113886968745965541e-03,1.894647386037375848e-03,9.378366862941583601e-03,4.930761158466339111e-01
4.840327992251930445e-01,4.623701572622415656e-01,-2.988889180373377474e-02,-2.103134155305934772e-03,1.349103405114837444e-03,1.516682518251285736e-03,5.034654736518859863e-01
3.962409538157585231e-01,4.981518992147586644e-01,-1.798991470631383649e-02,2.915239058682179626e-02,-1.754091486416262113e-02,7.839682073369968682e-03,4.773308336734771729e-01
4.471376780050304589e-01,4.559935756467904944e-01,-1.696235599442474928e-02,1.375535657603529568e-02,-6.132377759022181532e-03,7.017362908237763722e-03,4.694736003875732422e-01
3.851147327264907716e-01,5.478150014587408467e-01,-1.846346018183425697e-02,4.391732515971314040e-03,-2.943684980820322414e-02,-3.494145914424111668e-03,5.076446533203125000e-01
4.044524080264109145e-01,4.843295176765104459e-01,-2.378836277876050787e-02,6.824380952989259064e-02,-3.543754800886649015e-02,4.119331297829090244e-02,4.967966675758361816e-01
4.164380355094274844e-01,4.807978982062390272e-01,-5.291452906063809358e-03,2.794775045078493059e-02,-7.634251576916648019e-03,1.343837074421399061e-02,4.606519937515258789e-01
4.005032616121260158e-01,5.179245693949178220e-01,-1.629223318127376308e-02,1.675982896434779004e-02,-1.158805331396597568e-02,9.596336534035802140e-03,4.878203570842742920e-01
2.996030909794903940e-01,5.693208771065230156e-01,-1.400816224292017464e-02,2.939526247882005491e-02,-2.024096759835787573e-02,3.152320044210457639e-02,5.123364925384521484e-01
3.536398505674497317e-01,5.695423120335829648e-01,-1.557443970200655947e-02,6.416415490308033376e-02,-2.449688880359672874e-02,2.435416282789249626e-02,5.278050303459167480e-01
3.396537039152630055e-01,4.971553156473413893e-01,-1.794816996400139253e-02,1.161630554573701984e-01,-3.090249381999776376e-02,-6.868215160340737646e-03,5.024905204772949219e-01
3.896825191614923245e-01,5.013840532886365553e-01,-1.253309992550666330e-02,-2.960985957140657709e-02,-4.420718534650756870e-02,-2.216884941075026455e-02,4.786963164806365967e-01
3.929017441745105144e-01,5.169818083423534105e-01,-1.936955028229220277e-02,2.305384237942018771e-02,-2.832618724719290423e-02,1.221150405710403133e-02,4.908839464187622070e-01
3.485133501393710698e-01,5.886644832149210416e-01,-2.435698946440073565e-02,6.493981382745526998e-02,-2.757491915846580627e-02,2.298094741162385116e-02,5.502427816390991211e-01
5.271973935235435560e-01,4.877646015554839565e-01,5.606491801795981944e-02,8.551425322451311484e-02,3.165549245278324875e-02,-2.077005911901673788e-02,4.808129966259002686e-01
5.376149439459609880e-01,4.835819166376689182e-01,3.447204314580532003e-02,7.142155835259261787e-02,4.275510566620491920e-02,-8.526451408727335479e-02,5.210405588150024414e-01
4.800626386009175239e-01,4.829364828984386016e-01,3.949130956822038963e-02,2.198590112205736288e-03,-9.846596111909933571e-03,8.590061251734617057e-03,4.426106810569763184e-01
6.720705171152610014e-01,3.691977760507584305e-01,5.443554912111520094e-02,8.385412638401266994e-02,-2.642700095096493090e-02,-7.372263160524103465e-02,5.706442594528198242e-01
7.243785374093787421e-01,4.417903437867618521e-01,5.851526063578244008e-02,1.524468632621212572e-01,-1.369627664896811391e-02,-6.588675181305329864e-02,6.468160152435302734e-01
4.885913464932761796e-01,4.728555726043891516e-01,2.744851868880432422e-02,8.749184814171058824e-03,1.075812717688864190e-02,4.602054937583394123e-03,4.541852772235870361e-01
6.815802348670955135e-01,3.691345876736110698e-01,3.134727153812866263e-02,7.985880606551498673e-02,-1.638082348937197272e-02,-7.311389894539799261e-02,5.943374037742614746e-01
7.888740822267878983e-01,3.791064362078743200e-01,3.595731637044757845e-02,3.628981283280612036e-02,4.211980245382179570e-03,-7.287228703754522474e-02,6.679875850677490234e-01
4.543510988728375333e-01,4.743819627840095698e-01,-3.520492672162078840e-02,-3.274647942945593023e-03,-1.046024332053923679e-02,-9.212415698445044696e-03,5.004873275756835938e-01
4.548942743500182795e-01,4.664059479206946746e-01,-3.064316022745111612e-02,-4.061863271562659488e-04,-1.281377614377167407e-02,-1.289988665568528835e-02,4.924030601978302002e-01
4.784350503045228797e-01,4.761304458876509660e-01,-4.928826369978211996e-03,-1.923491918006796928e-03,5.964620350232843933e-03,-8.874615541698447144e-03,4.825827181339263916e-01
4.466394916909167123e-01,3.723830318155038066e-01,-1.438976375364098281e-02,-9.181245139772283015e-02,-2.805119380269838897e-02,-3.854647806836626611e-02,4.646872878074645996e-01
4.351047693795858651e-01,4.589994446461662658e-01,-2.575138977633556481e-02,-4.050446029212865368e-02,-2.075561078542399393e-02,-1.986748051251045061e-02,4.810090661048889160e-01
4.545348686201655664e-01,4.760967163494378984e-01,-3.176413431597591153e-02,-2.139086571997093466e-03,-7.140141220660718019e-03,-5.635322047592320610e-03,4.976937770843505859e-01
3.205703799511089302e-01,4.791597652378092320e-01,-6.969339773312982489e-02,-2.557568360611603975e-01,9.233415678360489334e-03,-9.299647333452530640e-03,6.603771448135375977e-01
4.426814337765173635e-01,4.972370738152652736e-01,-2.054194049698082614e-02,6.263483962906928049e-03,-1.432380246653285234e-02,1.190888403674806618e-02,4.939456880092620850e-01
4.573226019374388995e-01,4.803612332143292196e-01,-3.229348563022388374e-02,-1.033784177028656583e-02,-6.837014519444813317e-03,-2.551678194165525604e-03,5.020111203193664551e-01
4.679751818415653908e-01,4.775186626614845720e-01,-1.640415764866859361e-02,-4.114860881839182277e-02,4.900296821336686676e-02,1.978070519550165912e-02,5.027866363525390625e-01
3.927397191469232940e-01,4.746835060230559789e-01,-1.114766660767485540e-03,-4.452566961504333259e-02,1.106756190386955913e-02,1.778009156976098279e-02,4.487466216087341309e-01
3.698513162966523549e-01,4.856126963168065913e-01,-5.908781081962410919e-03,-5.492544351485983967e-02,3.628479284186604537e-02,2.095046799195271481e-02,4.608815312385559082e-01
3.732423390616373959e-01,4.868328325518003208e-01,-2.796527518970903792e-02,-5.342231362459694266e-02,3.455043686300643402e-02,1.907026045806500120e-02,4.823668599128723145e-01
3.083271411193782008e-01,4.657089083277876629e-01,-6.345318642173858326e-03,-1.680610861933950484e-01,1.347707468280080409e-02,1.068058773631648702e-02,5.088537931442260742e-01
3.558502602950955884e-01,5.036842439097092283e-01,-1.599881005821501834e-02,-5.838292862632795538e-02,5.054794379471459764e-02,3.541289990693512885e-02,4.865714311599731445e-01
4.015231324681883818e-01,4.622866657301877291e-01,-1.886763821640141670e-02,-3.191202363898407168e-02,-2.563945189599712085e-02,-2.520016107985305689e-02,4.614081084728240967e-01
3.995612816404321421e-01,4.717684770687533558e-01,-2.061645117527083348e-02,-3.305795963811229699e-02,-2.382717382923037891e-02,-2.499841154045171626e-02,4.679310917854309082e-01
4.857452262009734900e-01,4.787620805470154672e-01,-1.039989402470303803e-02,3.538462720160881481e-03,1.084926856986395509e-02,-6.944489968100740936e-03,4.932336807250976562e-01
4.562496739649163358e-01,4.853408878259485304e-01,-2.076613320356007764e-02,4.065154298973200873e-03,-9.974186948458887286e-03,-1.072834147017576222e-03,4.925635159015655518e-01
4.722142566153760823e-01,4.782649092299269822e-01,-4.986970260938083932e-03,1.244421235919816997e-03,-9.791238977854612238e-03,4.086186120708216324e-03,4.806114137172698975e-01
4.702652880116258149e-01,4.830846210552368625e-01,-1.575684554442136065e-02,-1.295925850390020192e-03,-2.481927722222897897e-03,-4.800573647795223532e-03,4.926509857177734375e-01
4.741772731750253378e-01,4.810048241068979880e-01,6.241417246060643187e-03,4.199646165096690247e-03,-8.665334891532488690e-03,-7.025365676168141005e-03,4.718386232852935791e-01
4.698318163085472010e-01,4.800255526615433976e-01,-1.696915094302081650e-02,-8.665002027250557311e-06,-3.006799325510939487e-03,-6.256228544153712504e-03,4.921239316463470459e-01
4.248235134193741880e-01,4.236293790096637979e-01,-5.254920660408557431e-04,3.629752676488780250e-02,2.687939854010275992e-03,-3.671266028057084069e-04,4.294064342975616455e-01
4.094373693315938034e-01,4.413593542627400890e-01,-1.114043800538633278e-02,6.569294911347665911e-02,2.800583879251304989e-02,-5.682652798631747382e-03,4.546723365783691406e-01
4.492383125004228428e-01,4.699226075513064926e-01,-1.933013952249429401e-02,3.562680137769955874e-02,7.620157774599339330e-03,-1.347747537980559067e-02,4.839454293251037598e-01
4.413061604856914899e-01,3.993877306148126971e-01,-7.597333626380431415e-03,6.586158689085934437e-02,-6.337083089007756326e-03,1.440371132880770982e-02,4.452081620693206787e-01
4.651863707392577263e-01,4.276470345007467588e-01,-1.344833699672653982e-02,8.265505531664821270e-02,2.230577818781220162e-02,-1.820883981405052587e-02,4.852995574474334717e-01
4.747899002723175998e-01,4.749999679613332582e-01,-3.369360782100211393e-02,4.286228843781440118e-03,5.178485577875575549e-03,4.961218255619876706e-03,5.087944269180297852e-01
4.523599991720077540e-01,4.205747097035839044e-01,-4.358075669150140996e-03,6.920039077256175120e-02,2.483243980114269167e-02,-9.038504591531987611e-03,4.599412083625793457e-01
4.588871911441521068e-01,4.781905567698632176e-01,-3.789032204822440075e-02,5.049632998458832538e-05,-3.808004728183103963e-05,-2.077417477482825219e-03,5.067178010940551758e-01
4.259990049098171250e-01,4.620487161124192110e-01,4.253352993680070693e-03,3.731809927551368866e-02,7.851825329494976219e-03,-3.722062612708638106e-03,4.458443820476531982e-01
5.256227503547538094e-01,4.269845444246366806e-01,3.460366568257067232e-02,-1.677512222963237487e-01,-7.759863265749061823e-02,-6.650051865337598678e-02,5.640469789505004883e-01
3.921707754571479021e-01,4.965412858112929206e-01,2.963905210418282810e-03,4.905540940081497964e-02,-1.209694205245615299e-03,7.311033422200819212e-03,4.586730301380157471e-01
4.174282762739306429e-01,4.634001344423552271e-01,-5.514434571287030185e-03,2.275780512210684101e-02,-7.390609294924178202e-03,7.692585238096859117e-03,4.498139023780822754e-01
4.005724095094247428e-01,4.662791942524535660e-01,5.233795136749264110e-04,3.298487976319278148e-02,3.168350327859391444e-03,4.368007356365621180e-03,4.404473900794982910e-01
4.673356478968789252e-01,4.186320980886750753e-01,-9.709118268601601986e-03,7.604503846523397170e-02,-2.135692681375315344e-03,-3.112002780324609613e-03,4.733933508396148682e-01
4.690981251342803415e-01,4.107503989618835893e-01,8.147215513722438907e-04,3.363686326355778966e-02,9.440566166391549038e-03,7.457121517155787310e-04,4.461321532726287842e-01
4.610636777916672369e-01,4.045913250528265781e-01,-4.470131270432609050e-04,2.967591748731886886e-02,-1.228344049319528633e-02,-2.814514667953270117e-03,4.395873546600341797e-01
4.667669266877074730e-01,3.982815742506331524e-01,2.062294744157533444e-03,1.902012279028884867e-02,7.889690520236441150e-04,-2.742206320177456341e-04,4.357781112194061279e-01
4.722877198175032265e-01,4.012355548447528730e-01,2.396743993884231649e-03,2.709697353328889904e-02,1.502460939330343102e-02,2.999280823708232267e-03,4.420023858547210693e-01
4.812659856748681131e-01,4.728086290657724788e-01,1.100079996991953912e-02,7.119573979735422916e-04,-1.165381878752221913e-02,9.082200785498361142e-03,4.667976796627044678e-01
4.943969133207112843e-01,4.807860633275820028e-01,4.988210102119411404e-02,8.781895173363831603e-03,-8.340037736628991977e-03,7.883825681159223331e-03,4.385828971862792969e-01
4.778368895686161411e-01,4.706152512687113987e-01,-3.054908448945287125e-02,-1.729751276970125675e-04,9.730906518576324564e-04,-1.596988456010525487e-03,5.048243999481201172e-01
4.784830127335319983e-01,5.021780393760768568e-01,3.043870696980310875e-02,5.494522922126198264e-03,5.573031909777538886e-03,9.539353156449244600e-03,4.608452320098876953e-01
4.985168710990812713e-01,5.237512359560341224e-01,1.173272417146092872e-02,-4.721438279834569256e-04,-1.392484135513526698e-02,-2.420161976243667169e-03,5.004789829254150391e-01
4.661969767410936161e-01,5.178595594894347398e-01,6.790160193328764748e-02,1.707413686605665018e-02,1.964637512749253107e-02,-8.439896147343773150e-03,4.291053712368011475e-01
4.825704664627730178e-01,5.228034953092262072e-01,8.533753610258332234e-02,2.087166357052816848e-02,-1.963812958755324634e-02,-2.278723392504402798e-02,4.235754907131195068e-01
5.217278697832025136e-01,5.094090653411585956e-01,8.084385673327298960e-02,9.429761746444822665e-03,3.646649249417981825e-02,-1.285221861903547425e-02,4.402851462364196777e-01
4.624102986433056284e-01,4.765946666745007887e-01,-2.513521385512518247e-02,-7.147179995263852614e-02,-3.357301630351986615e-02,-1.099645998901244842e-02,5.136985778808593750e-01
4.648426096879542113e-01,4.399859437738685153e-01,-2.661747062804309394e-02,-5.147349262417802440e-02,-3.424006775141080067e-02,-2.393111917006496281e-02,4.930706024169921875e-01
4.580841784848554976e-01,4.723760612157306693e-01,-3.062331302491216878e-02,-4.813142634753867811e-03,-5.235308040528212012e-03,-4.777982031904637848e-03,4.962298274040222168e-01
4.845208394149261855e-01,4.808790587669821148e-01,5.181668583787052418e-02,8.796166228542517604e-03,-1.185846165399889220e-02,-8.540004559023289810e-03,4.319063723087310791e-01
4.641713437328269798e-01,4.722916160974002797e-01,-3.497410564049363568e-02,-3.707717046047375028e-04,-1.531261530757143437e-03,-3.977656389839687862e-03,5.033092498779296875e-01
4.619326994536463449e-01,4.780854663298411134e-01,-3.040889496658516489e-02,7.906702439865461807e-04,-5.852207198951011810e-03,-6.143720648655968432e-03,5.008310079574584961e-01
4.507575743115306288e-01,4.770348330829280448e-01,-2.631482280082558800e-02,-5.070215366035480883e-03,-3.506318989838073507e-03,-5.968214002090591053e-03,4.909639358520507812e-01
4.506637991186249748e-01,4.890487185358290967e-01,-3.164846128599813069e-02,-1.952407066083785550e-03,1.472709708408524330e-03,-2.999310315650655285e-04,5.026233792304992676e-01
4.673684465956793321e-01,4.898202710704375185e-01,-2.350692148175759222e-02,1.404403666684765802e-03,-8.550456513518855592e-03,-3.106475229003889237e-03,5.027304887771606445e-01
4.567862718722539572e-01,4.870790631489573252e-01,-2.057640121957726720e-02,-4.946079821887359312e-03,-1.508945535428390071e-02,-9.071929741446894610e-03,4.942234158515930176e-01
4.330855469491559084e-01,4.562850795322942465e-01,-2.653828794336665631e-02,-2.060410848535836406e-02,-2.310306329949868634e-02,-1.709449728510231345e-02,4.756120741367340088e-01
4.624406914433766835e-01,4.799336750300419174e-01,-2.796402629980970778e-02,-1.191198688015466080e-03,-7.382206947054843066e-03,-3.976547728347641295e-03,4.995964467525482178e-01
4.738882269891653287e-01,4.495451181528236084e-01,-3.203318990785170017e-02,-4.848443036044352422e-03,-9.315680355166968546e-03,-8.528239403483175649e-03,4.947549104690551758e-01
4.537684733323352759e-01,4.677855009368623307e-01,-2.730547858507248460e-02,-1.090975050010160527e-02,-1.767578388391358168e-02,-1.846360530791561066e-02,4.906005859375000000e-01
4.692332039383034781e-01,4.168457303567469352e-01,-1.857068060263605824e-02,-2.941419184237004103e-02,-1.571379808082483398e-02,-2.092926593113407507e-02,4.688205718994140625e-01
4.418601059259775754e-01,4.396651430666850269e-01,-2.560750635808134446e-02,-1.249014486380641865e-02,-1.174699032733999074e-02,-1.380744976115445138e-02,4.679301679134368896e-01
4.237824549598799839e-01,4.526305325642083766e-01,-1.076971505917473371e-02,-7.572064947570852911e-02,-4.852302921192240548e-02,-6.163900562040645903e-02,4.877152740955352783e-01
3.488532300125782859e-01,4.769039569508286558e-01,-3.792206709606538162e-02,2.004269522533559666e-01,5.153158643326238159e-02,-7.503155427849379257e-03,5.866577029228210449e-01
4.676674504550766831e-01,4.722871405830073588e-01,-3.387417796930136671e-02,-5.718720272000778725e-04,-8.001206314006607465e-03,-7.134111621119218830e-03,5.042102932929992676e-01
6.454905673718704939e-01,2.981383691710743356e-01,7.906474618380454622e-03,1.657552836590306666e-01,8.589226014470707771e-03,-7.147565249578723134e-02,6.353525519371032715e-01
4.463503923875199453e-01,5.629413969933487749e-01,-1.312629494703199118e-02,4.226692910208420390e-02,-2.130201020479435825e-02,-4.286065324347249398e-04,5.338581204414367676e-01
4.221193739872540207e-01,5.415944732284275753e-01,-9.188926890727311392e-03,1.307686042769049505e-02,-3.648607101137830294e-02,-1.719965772833971507e-02,5.071744918823242188e-01
4.496224811984679270e-01,5.005410051467494847e-01,-8.730218269646039531e-03,-6.696714214900526506e-03,-1.240886457250726764e-02,-7.365629521639789797e-03,4.865981638431549072e-01
4.554199010687682847e-01,4.860563245192599524e-01,-2.766095417272879109e-02,2.847945869461170759e-03,-2.640376270056224179e-03,-3.875422604939975611e-03,4.991952180862426758e-01
5.173665361025510112e-01,3.624278482217657693e-01,3.329281362189795423e-03,7.771024373035335768e-03,6.213061404786096760e-03,-1.189543934855252436e-02,4.575123190879821777e-01
4.114523332422012070e-01,4.733886996535419112e-01,-2.111621504285321471e-02,-2.525903682137995224e-02,-1.214982871665070893e-02,-1.466573320123946284e-02,4.698356688022613525e-01
3.987881646215185039e-01,4.969980600701852658e-01,-2.117938094344196109e-02,-3.079160181737200519e-02,-2.222421204256357780e-02,-1.119021223459718169e-02,4.816271066665649414e-01
4.393251663192295764e-01,4.468258131149244194e-01,-7.128256045965730703e-03,2.280576364185904481e-02,1.073670141019498862e-02,-1.629032620998523140e-02,4.532415270805358887e-01
4.388529010699631083e-01,4.253677670497211238e-01,-1.176413920127572510e-04,-3.031109180649599333e-02,-6.605669787770858739e-03,-6.264252986206155470e-03,4.358466863632202148e-01
3.582271541125383596e-01,4.687871653472282518e-01,-1.155706697531011518e-03,-5.725996824087583453e-02,-3.204998995484553692e-02,-2.667729276996051724e-02,4.429059624671936035e-01
4.342520960343430603e-01,4.608447308551068544e-01,-1.721098494899758746e-02,-3.682758116303924689e-02,-2.312474321793344875e-02,-2.553796761731160631e-02,4.734567701816558838e-01
4.883703011406669847e-01,4.308746833025963729e-01,-7.458831304191615441e-03,1.831497262615467553e-02,1.709561818139307410e-02,-2.098705090914724028e-02,4.731265604496002197e-01
4.930683056118336793e-01,4.240721286022861580e-01,-2.941474656480802530e-02,3.241977323377760040e-02,2.164097461421774990e-02,-1.895524454706347048e-02,4.973285794258117676e-01
5.336988829048130434e-01,4.357093829964070464e-01,-3.109642132215895138e-02,9.401386427191182893e-02,2.649869901014283505e-02,-3.232569372942310088e-02,5.522760748863220215e-01
4.768793064981426966e-01,4.766648961227540893e-01,-1.145278448501163560e-02,9.523575915500560179e-03,-2.706093146701359087e-03,-7.850038294962027180e-03,4.887151718139648438e-01
4.884816403912689564e-01,4.373448627094491670e-01,-2.102235735411278617e-02,1.315513516835697949e-02,1.199416084953683348e-02,-1.125221750133705879e-02,4.873248338699340820e-01
4.666917280534196855e-01,4.821257504558061902e-01,-3.450013728398426682e-03,-1.612342291475738626e-03,1.702569712913437183e-03,1.218522283128047577e-03,4.780675768852233887e-01
4.291852233361816982e-01,4.919249134550743863e-01,-1.570433221913480892e-02,-1.508217314083173596e-04,-1.184432924890765557e-02,-1.097492867591893552e-03,4.797913730144500732e-01
4.741447004050663994e-01,4.815879383242628875e-01,5.937033290704274435e-03,-1.571132874535371895e-03,-8.538677888628339041e-03,5.299547671231686057e-04,4.722136855125427246e-01
4.702743129728822469e-01,4.816941234486971091e-01,2.330766248620635972e-02,-1.462784532637275607e-03,7.397790710927990530e-03,-8.057055079970675731e-04,4.529750645160675049e-01
4.784647376879039293e-01,4.816627478680057250e-01,2.197913985589566854e-02,3.212220648318019501e-03,7.425390101168765668e-03,-2.689429689276783778e-03,4.583309292793273926e-01
4.432850185913413954e-01,5.086739629513095107e-01,3.856658462171091983e-02,-1.092773442009225410e-02,3.511799586655582964e-03,-5.846523177552620347e-03,4.416272342205047607e-01
4.787113152772246027e-01,4.767300116551237421e-01,-3.082873657607732021e-02,1.223628805697315114e-03,7.631627233765364690e-04,-2.159121365363226609e-03,5.085721611976623535e-01
4.560037703179957158e-01,5.042904754500806552e-01,1.369104403034782091e-03,-1.070756690177668453e-03,1.777040935175933567e-03,2.694905688907745563e-03,4.806368649005889893e-01
4.990171985539220145e-01,4.705430418734105613e-01,-1.038060845969418500e-02,-3.629513727369646403e-04,-2.040677614256551729e-03,-1.393130347832317525e-02,4.963742196559906006e-01
4.777054278486878580e-01,4.610342170586049226e-01,-3.373834912171352896e-02,3.647798648510908333e-04,-2.661943259049197406e-03,1.506617666943191021e-04,5.033368468284606934e-01
4.592440456684596106e-01,4.770901189142917609e-01,-3.728780943829129724e-02,2.662956201685131121e-04,6.700638074517464545e-04,-2.944372503863611212e-03,5.057183504104614258e-01
4.089468287200533902e-01,4.927656702319309079e-01,-1.360249261141310839e-02,-6.792141079675208248e-02,-2.019166182153703595e-02,-1.081516116855356716e-02,4.862150549888610840e-01
4.988691293631172807e-01,4.386322084279983269e-01,-3.880885544913836860e-03,-2.291415312751858471e-03,-3.643194676335307844e-03,-5.388932675351613966e-03,4.756518006324768066e-01
5.440978931037091515e-01,4.583288618043389606e-01,2.944202219554797884e-02,-9.513899395280642560e-03,-1.128023980137777063e-02,-3.301178955896255651e-02,4.816721677780151367e-01
5.535544415844878552e-01,3.876658880783507843e-01,-2.872598096038736504e-03,-3.325686964598742468e-02,-2.061429854687017379e-02,-6.271057884908012858e-02,5.110929012298583984e-01
5.013460402151801443e-01,4.356304194536999574e-01,-3.578849696246733103e-02,2.145175716971035960e-03,2.580798643566193425e-03,-1.135720306381499470e-02,5.078923702239990234e-01
4.772963949858588517e-01,4.703746328085830486e-01,-2.639489827551400047e-02,-1.763373214452346183e-02,-2.433190965816168366e-02,-1.936615987466802982e-02,5.040838122367858887e-01
4.905964242227151551e-01,4.303139941043693795e-01,-3.017746657492181850e-02,1.809056890302940821e-03,-7.642262222234841133e-03,-8.529905154400113307e-03,4.938108921051025391e-01
4.893287763322214379e-01,4.430489521034937095e-01,-2.922491354478240488e-02,-3.895124770031056956e-03,-8.269306901701469273e-03,-7.009808672092290860e-03,4.974326491355895996e-01
4.807568695394213720e-01,4.604616493397330479e-01,-2.643377244815914295e-02,-6.963085507608289537e-03,-4.192579538133877834e-03,-1.174765943437873841e-02,4.979687929153442383e-01
4.228294144364686535e-01,5.042474512968344591e-01,-1.790425013467977777e-02,5.907090269664285603e-02,6.068374187678922393e-02,-2.249035785130871698e-02,5.096977949142456055e-01
4.693208358252275447e-01,4.515397777815226554e-01,-3.446345117691063109e-02,7.057868653412625350e-04,9.975288381429038218e-03,6.754245014829258131e-04,4.954375326633453369e-01
4.814066444123223931e-01,4.722422155873370331e-01,-1.610066083458239206e-02,4.127510371340171319e-03,-1.151136525428046904e-02,-1.284420325416163640e-02,4.939450323581695557e-01
4.579390680504147326e-01,4.892869481713944535e-01,-2.354910269642673804e-02,-5.562589449431238698e-04,1.537580920731201027e-02,1.947494595262787634e-02,4.997551143169403076e-01
4.730884532592938285e-01,4.816549576769293406e-01,-3.155147559559912107e-02,1.749284151120438467e-03,1.281350315532397456e-02,7.421303170529685612e-03,5.096320509910583496e-01
4.638284720845767817e-01,4.823654368175245843e-01,-3.205259070750887673e-02,-2.140972532640406274e-03,7.732041623428955422e-03,7.563198428305494513e-03,5.057652592658996582e-01
4.807825374917557570e-01,4.577937141138874177e-01,-3.578120783596311361e-02,-9.341206675259175517e-04,1.063318529266118161e-02,1.154877577628916907e-02,5.061949491500854492e-01
4.625675859739005746e-01,4.551463639537425276e-01,-3.062569538768250554e-02,-1.547362208499853016e-02,3.078374952598975089e-02,2.088876446923432217e-02,4.944742918014526367e-01
4.497809440019456817e-01,4.283796180111977270e-01,-1.926221070332345686e-02,-3.211377193391924678e-02,2.088393654799477681e-02,2.191646797942673613e-02,4.650426208972930908e-01
4.705288584209766922e-01,4.218141591072049890e-01,-2.923625891900172302e-02,-2.393609404996260848e-02,2.501917756639154139e-02,3.026043419677570609e-02,4.838761687278747559e-01
4.801023921889875368e-01,4.328379936553735652e-01,-2.955781816700270292e-02,-5.924952221120856691e-03,1.414388589041370124e-02,1.017455425458757903e-02,4.887890219688415527e-01
4.802543821295273685e-01,4.735915756102639929e-01,-2.126348900647662132e-02,6.967926595457449995e-03,-4.907964819081095387e-03,4.543641866084991224e-03,4.985006451606750488e-01
4.747836745828014071e-01,4.779096000386923726e-01,-2.458124782109105677e-02,1.967643247218315520e-03,1.460425454930922538e-02,8.527463774556629655e-03,5.018024444580078125e-01
4.705825965998624572e-01,4.478274847341086051e-01,-3.076131476124849273e-02,-7.875326033350197805e-03,9.398157953841475287e-03,5.839253728344527897e-03,4.909263849258422852e-01
4.729026204092083852e-01,4.861687194396135947e-01,-3.467555948102257757e-02,8.243012662565952706e-03,4.671179616189537025e-03,5.656209116316085819e-03,5.146945118904113770e-01
4.649829107020129748e-01,4.762160944720339462e-01,-3.252087135987408173e-02,-2.241386875710884609e-03,1.021245111263669597e-02,1.080446821182107046e-02,5.038877725601196289e-01
4.381404985769544180e-01,3.726991144109550458e-01,-2.719218961706237891e-03,-1.458104655960313079e-01,-5.860965295423332597e-03,-2.241796436608329678e-03,4.834145307540893555e-01
5.109706641075907330e-01,3.255609678380554373e-01,-6.606518031304020599e-03,-4.192056090683694142e-02,3.336260091387326793e-02,4.097617700645439509e-02,4.689854979515075684e-01
4.778012065691030763e-01,3.312389418744929870e-01,-1.008427423214869334e-02,-1.200600709672589167e-01,3.196117630927963055e-02,5.183368157478653038e-02,4.923160970211029053e-01
4.556508387798745563e-01,5.163782091418409603e-01,-2.583750865492040472e-02,5.914706206773937859e-03,-2.359621924758113082e-02,-1.228367138240124556e-02,5.167071819305419922e-01
4.511886970587662971e-01,4.854017617774566973e-01,-3.571287589760174797e-02,-2.961047861546129648e-03,-1.227899136350249845e-02,-6.043509364904946397e-03,5.054604411125183105e-01
4.838237898868092413e-01,4.591004849028965107e-01,-9.184743364070657723e-03,-1.836766324917944032e-02,-1.494119919897764215e-02,-1.339367390335998581e-02,4.834251403808593750e-01
4.051046116577770029e-01,4.883114808017104402e-01,-1.519895240273710924e-02,-3.963438012355800094e-02,-6.456138279160525406e-02,-3.972318788356216795e-02,4.904096126556396484e-01
4.745749984092212381e-01,4.718241333458674802e-01,4.637906383801854160e-02,-4.975672617738182216e-03,-1.706821901074297848e-02,-6.359406434918419594e-03,4.280782341957092285e-01
4.641922565676253054e-01,4.810911682641931808e-01,-7.162002673718304013e-03,2.367809945932643212e-03,2.139128277558040043e-03,-1.816111576009508998e-03,4.800689816474914551e-01
4.398925878784097909e-01,4.840147872541239460e-01,-2.491828432971254781e-02,-1.835844994716117132e-02,-2.131454922645830558e-02,-1.212305630823254377e-02,4.912426471710205078e-01
4.636975626806736916e-01,4.843885399734580988e-01,-2.964253160278762511e-02,-1.465854758573573500e-05,-7.498128046905288419e-03,-4.223535202508423708e-03,5.042245984077453613e-01
4.733892370132993799e-01,4.671233516069362435e-01,-3.323770324264163634e-02,-2.321172021731628034e-03,-9.025644732353572952e-03,-9.517411052632067034e-03,5.040515065193176270e-01
4.863721686305440550e-01,4.834876776477649019e-01,1.766522803855269386e-02,-5.591142676025678826e-02,-5.457026420292292179e-02,-4.442458342426136575e-02,4.925191998481750488e-01
4.798878115153346613e-01,4.757047923609735163e-01,1.898693128501105498e-03,-1.845611065504283352e-04,-1.646856570737962461e-02,-6.035071984818804990e-03,4.768801331520080566e-01
4.701395526994157636e-01,4.733524331094162152e-01,2.092521305979427870e-02,-1.927464984500626768e-02,-1.184248469835628243e-03,3.005259385156814136e-03,4.520983994007110596e-01
4.129260044783227279e-01,3.709876385449783487e-01,8.154734534466023810e-03,-7.230501779474168833e-02,-4.086352274252299274e-04,-2.066220491616407862e-03,4.053646624088287354e-01
3.765102712779004324e-01,4.249798660888521873e-01,7.616870023841149084e-03,-6.179306929818850769e-02,-1.149535600089595993e-03,-5.395505383016979337e-03,4.097050130367279053e-01
4.238815466712886337e-01,4.205632405236845450e-01,-1.855686536115358498e-02,-1.285256166670458722e-01,-2.385039333392223113e-02,-2.157844030001130481e-02,4.969452023506164551e-01
3.886218727002448969e-01,4.304801204684869376e-01,7.118016645289992894e-04,-4.758372200660997836e-02,-3.167946060642777562e-02,-1.049507127769146696e-02,4.226078689098358154e-01
4.849956717238055326e-01,4.604473236206620967e-01,-1.507524158991091490e-02,3.754789524154228397e-02,2.113298254791741958e-03,-1.122911468911202103e-02,4.929693937301635742e-01
4.876322731857786197e-01,4.884788060663927123e-01,-2.333047576426389158e-02,2.104303672565348976e-02,1.257389665547380825e-02,-9.806894433306680495e-03,5.134271383285522461e-01
4.787899771792001880e-01,4.614583648444915420e-01,-2.341644854624364003e-02,1.059007458118165846e-03,4.257165022041387199e-03,-3.203486731438890105e-03,4.938584268093109131e-01
4.840967329616453485e-01,4.695318869760448655e-01,-1.475916369517665805e-02,1.030242707718348992e-03,2.549192949666245853e-03,-7.297725850664744940e-03,4.919207692146301270e-01
5.147384432547719157e-01,4.778101643755242600e-01,-2.268644817240184075e-02,-3.063886452528634050e-02,2.905171425830706949e-02,3.949726101459902217e-02,5.295010209083557129e-01
4.695596318329313679e-01,4.759790819118580041e-01,-4.007372651431123645e-02,3.134527294963023207e-04,9.842456901280459847e-05,2.477748458125148164e-03,5.128914713859558105e-01
4.671559467810438848e-01,4.726956240788185437e-01,-4.069499095701945013e-02,2.653329127557061545e-03,6.008066093154638412e-05,3.110619162630814429e-03,5.106924176216125488e-01
5.946017438761024287e-01,3.377389301978478420e-01,-2.019685050191560860e-02,1.235278654074305725e-02,1.769953423873970103e-03,-2.590871983162258696e-02,5.371385812759399414e-01
4.309321222107637128e-01,4.458905782001626461e-01,-2.144653668839352489e-02,9.476449048158763766e-02,1.641212073805869628e-02,-1.269840680483813947e-02,4.897650778293609619e-01
5.239269281246972110e-01,4.448035783846820967e-01,-9.824150432875655703e-03,6.295945480503627179e-02,1.301479372367757813e-02,-1.233134229170221134e-02,5.116391181945800781e-01
4.778122559253096258e-01,4.386236667964937830e-01,-1.124547292425104317e-02,1.896447887828975332e-02,-1.178585922686339361e-02,1.277443071997904842e-02,4.727927148342132568e-01
5.121359640632276999e-01,4.790626672757317683e-01,-2.223462944388870932e-02,5.659664411664609707e-02,-6.866051475208804350e-03,3.159808698132268029e-02,5.307717323303222656e-01
4.657506161987002846e-01,4.717123990163260006e-01,-2.707672702479757554e-02,1.013481203449214697e-02,-8.338902568545273827e-03,4.936132596631955839e-03,4.964295625686645508e-01
4.657430176790330334e-01,5.127744363685227125e-01,-3.062599024217571575e-03,7.663974258089950586e-02,-3.278878528377964039e-03,3.231218135084047011e-02,5.146111845970153809e-01
3.748154419629664558e-01,3.697170650862315888e-01,-1.975299786099338206e-02,-1.696295577852462710e-01,-3.723762085771734759e-02,-1.416018748127008571e-02,4.947550892829895020e-01
3.496310755438920559e-01,4.716662503104374626e-01,6.194217221951403562e-03,-7.282016565354709758e-02,-3.774066026559787213e-04,3.562868450862108783e-03,4.366917312145233154e-01
3.569672166650760259e-01,4.379262992840137203e-01,5.043625044791166800e-03,-1.196095634410054565e-01,-7.127442502666496427e-03,-4.810757157635509387e-03,4.494854509830474854e-01
3.562954820283413815e-01,4.509989485975928192e-01,1.216098233656759398e-03,-1.394621155117578004e-01,-1.600607514672412052e-02,-5.493506154946706938e-03,4.773735702037811279e-01
3.524863488650770149e-01,5.010436668692899165e-01,-1.173071654069235414e-02,-4.095066904689832060e-02,-4.658306886446782896e-02,-2.905847984811136056e-02,4.721275866031646729e-01
4.097269683703064769e-01,4.721578845537411917e-01,-2.351920684591807253e-02,-4.623846140761207063e-02,-3.264324047713532129e-02,-3.727270711790722779e-02,4.821061193943023682e-01
4.141005593312195310e-01,4.734746274231429464e-01,-1.977441956238851217e-02,-1.739220639036975768e-02,-7.789603890237218123e-03,-1.228875018664094161e-02,4.680558145046234131e-01
4.174829810634381744e-01,4.897777688507790050e-01,-2.820902451845908043e-02,-1.527416428515757096e-02,-2.244813557888324790e-02,-1.894196471748831739e-02,4.892618656158447266e-01
4.453559636330944871e-01,4.251804210954687191e-01,-4.370434817783930281e-03,-6.575352786273828964e-02,-1.380273072710936147e-02,-1.787672405367589368e-02,4.561669230461120605e-01
4.821003120846144574e-01,4.616457580517300818e-01,-2.293399545968943798e-02,3.232202092279529062e-03,3.287645652008237395e-03,-3.977037764608863310e-03,4.952363073825836182e-01
4.250470914968865754e-01,5.007052653602577230e-01,-2.550011758395337447e-02,4.601055410333500413e-03,2.151820140242248296e-04,-2.912426400560761720e-03,4.928423762321472168e-01
4.422510429370987706e-01,4.980031999886501692e-01,1.356691520362546255e-02,4.163877317198852110e-03,-5.995600903762631807e-03,-1.132493928893966127e-02,4.596988856792449951e-01
4.520262941538147894e-01,4.920924516503958346e-01,-8.310284440506243708e-03,-1.301863657144497304e-02,-1.772047292053253661e-02,-1.830713376544509594e-02,4.841641485691070557e-01
4.461860442488720935e-01,5.290805625387917654e-01,-2.686929020260397927e-02,-6.556998702964080689e-03,-7.335641121885919276e-03,-3.941380203454325840e-03,5.198110938072204590e-01
4.807787821093791880e-01,4.716788159329165508e-01,-2.467483232207845489e-02,3.150565399399986636e-04,-1.720623992915923102e-04,3.591360477333771506e-03,5.010046362876892090e-01
3.872776263194336321e-01,4.767790520167413115e-01,-1.335103092648470824e-02,-1.191767267059765517e-01,-3.646068181126439767e-02,-3.292563992665897138e-02,5.042027235031127930e-01
5.310321875883338150e-01,3.469157774146960360e-01,-1.134113234869393860e-02,-5.397926339159916237e-03,-1.475805652504855875e-03,1.409391117098147874e-03,4.778155982494354248e-01
4.879873311187462592e-01,4.670275345634806730e-01,-3.453864216354601835e-02,1.715951427565904405e-03,6.211985880986733814e-03,1.474219254918514473e-02,5.131250023841857910e-01
3.939520751832232270e-01,4.714406639814773259e-01,-1.029928109768113442e-02,-3.239841998063715950e-02,-3.975781071437400893e-02,-3.301194893238096340e-02,4.603356420993804932e-01
4.074972941384126246e-01,4.962440607903496614e-01,-1.962436184820037788e-02,-2.539890771825670246e-02,-1.272507247962230935e-02,-1.479875257447540483e-02,4.809289574623107910e-01
4.328248334926607099e-01,4.676540013767057635e-01,-5.627126280185468232e-03,2.300725601366053821e-02,-5.462255031364087604e-03,8.075293211044826461e-03,4.589087665081024170e-01
4.516851432833534075e-01,4.750329172373520814e-01,-1.939802805279905451e-02,8.937217278196504799e-03,-3.535207825303943088e-03,8.213433915252060791e-03,4.836762547492980957e-01
4.557009320430612243e-01,4.655107356984857780e-01,-2.639265980031912928e-02,1.048885971599838179e-02,-4.108075188662374880e-03,2.331577317392832110e-03,4.874799549579620361e-01
4.770459737182135562e-01,4.671083886972163812e-01,-1.993189634834874324e-02,2.256427533972195105e-03,-4.951797469752766169e-03,1.908885870191210895e-03,4.921857118606567383e-01
4.664581245440581059e-01,4.833488527198297469e-01,-2.650689456517119069e-02,-5.898468451765319408e-04,-2.919136457384337562e-03,4.305294075594242979e-03,5.017056465148925781e-01
5.123015240021659977e-01,4.893155373044907330e-01,-1.747720350111819920e-02,1.728935111322805335e-02,-2.862823673627205856e-02,8.573329019840559076e-03,5.221037864685058594e-01
4.617948239485044626e-01,4.749445928357591828e-01,-2.471695785211913687e-02,3.647736670280378457e-03,-6.873833550976327263e-03,7.315636531316626473e-03,4.935649633407592773e-01
4.685867022574956575e-01,4.813092392388181873e-01,-2.769690891195475402e-02,4.335713731492896357e-03,-7.529849611851864230e-03,5.821936551833108500e-03,5.030918717384338379e-01
3.904265553688126555e-01,5.102070509098201034e-01,-1.695150494252384288e-02,3.083827152571138805e-02,-1.824540940762836919e-02,1.808063716021234696e-02,4.836657941341400146e-01
4.925625684052175601e-01,4.677088240445365641e-01,-3.512497705149275617e-05,1.784363767042329574e-02,-7.804990707940434938e-03,-1.821650372882315915e-03,4.818456172943115234e-01
4.958876196328015906e-01,4.756646908035938592e-01,-3.166188378068734988e-02,8.092579492508704397e-02,-3.916432076941914892e-02,3.106273541187104872e-02,5.433157682418823242e-01
4.307402817250272631e-01,3.082798189962405733e-01,4.841453583753235757e-03,-1.167165481381157444e-01,8.542075221752114603e-03,1.117276125136279497e-02,4.309202432632446289e-01
4.744709116355294021e-01,4.004517644978765611e-01,-1.046772501612114326e-02,-4.437130720300289793e-02,3.169335591589059198e-02,3.393204785221303615e-02,4.659652113914489746e-01
4.735195479428767618e-01,3.528878566870192746e-01,-1.320663364653129612e-02,-6.759621324055174740e-02,1.045688360751756071e-02,7.211628325147143893e-03,4.548973441123962402e-01
4.378216579297025124e-01,3.645335977174121722e-01,5.362543940770958528e-03,-1.552184454437346706e-01,4.060304953282988828e-03,5.617688772835673951e-03,4.828253984451293945e-01
4.700425117245238260e-01,4.691088815497879150e-01,-2.662325931809511603e-02,3.030526352437835826e-03,-3.732969551849518383e-03,1.993726230198076231e-03,4.962815046310424805e-01
2.642234297320633085e-01,5.709641299636877276e-01,2.980381790789177199e-02,-5.857443838817511655e-02,-5.317899819962765978e-02,-3.575500573802196241e-02,4.935186207294464111e-01
2.497088102200216986e-01,6.019330018069841692e-01,-9.444025623861762586e-03,-8.304322573211853076e-02,-2.352892657008134880e-02,-3.056998894808201500e-02,5.546664595603942871e-01
2.450864867817574011e-01,5.547887776277418137e-01,-3.307054315539681433e-03,-1.142494479859851586e-01,-3.776753242909149100e-02,-3.760858576699967204e-02,5.312476754188537598e-01
3.935274721833506573e-01,5.244565545434018983e-01,-2.274414354800963212e-02,-1.039529513507156389e-02,-1.661841930703779682e-02,7.865883115679969456e-04,4.960656166076660156e-01
3.474633571625632134e-01,5.149662651527251445e-01,-9.967457694898596010e-03,-3.575989180007094637e-03,1.115537282545162826e-03,5.602281636938956193e-03,4.645653367042541504e-01
2.378481404419991452e-01,5.712792797975217995e-01,6.696623262486323114e-03,-7.318724316187062706e-02,-8.126782273182148186e-02,-2.538839502341497939e-02,5.286744236946105957e-01
3.326805491554177263e-01,5.277231316390945670e-01,-2.125015852420869544e-02,-2.626256904850904003e-02,-4.405486568188366620e-02,-1.332519100414601872e-02,4.906775355339050293e-01
4.207480126289546707e-01,4.297549814482515274e-01,-7.750124249472634119e-05,-1.985204228794166040e-02,-7.229613250712283584e-03,-8.730229799194069371e-03,4.272392392158508301e-01
3.946440112495409602e-01,4.425708116022644134e-01,-3.595818935417216533e-03,-3.804610719148233955e-02,-9.848607024901053983e-03,-1.390635915381233274e-02,4.303393661975860596e-01
4.654015847312374943e-01,4.736285260154441401e-01,-3.252029886792778823e-02,-4.001526730196252463e-03,9.605087552248377236e-03,1.062860611867274402e-02,5.027464032173156738e-01
4.441711448119495809e-01,4.484412504075212524e-01,-1.395297564846964544e-02,-1.482653444223700802e-02,-1.044940157072173775e-02,-1.262223280915425461e-02,4.618627429008483887e-01
4.405763107190170946e-01,4.421104489763019174e-01,-1.621700307997675505e-02,-7.133783539424095980e-03,-9.349616289708546912e-03,-7.720079963941315140e-03,4.582106471061706543e-01
4.424757819089002453e-01,4.334755537064021169e-01,-1.521785668383551782e-02,-8.215327355339833645e-03,-1.148985286757894970e-02,-1.034445332882568021e-02,4.542737901210784912e-01
4.396735441974424785e-01,4.427692314142349650e-01,-8.929508929498564118e-03,-9.907461064552358643e-02,-2.649607152863080531e-02,-5.081000226349261656e-02,4.918754398822784424e-01
4.395837264472309824e-01,4.699389569895905949e-01,-2.343329000936855699e-02,4.931325583419898795e-02,3.511225088891807566e-02,-4.064040816441033543e-02,4.952879250049591064e-01
5.370860933326636610e-01,3.599901433579203447e-01,-1.614053388169578440e-02,4.316840956512035116e-02,1.697835763739243345e-02,-1.115452752303955700e-02,4.962631165981292725e-01
5.637202662743762138e-01,4.652361865848769207e-01,2.742059906762545074e-02,1.144131422435253238e-02,1.042261666237810809e-02,-1.435046156068893984e-02,4.958184063434600830e-01
6.006429693014521121e-01,4.272549878565001791e-01,7.791890742965051908e-02,3.276826235563587431e-02,-8.062926859261763946e-02,-1.477655215735278194e-01,5.485419034957885742e-01
4.824924650472645626e-01,4.800806280628209244e-01,8.332026518169666218e-03,7.122847221500826220e-03,-5.628896896320913744e-03,7.159443354683367455e-03,4.733828902244567871e-01
7.310108008047084827e-01,5.140065978141123981e-01,9.245113162752693903e-02,7.782544701242528895e-02,-1.158847529318333611e-02,-1.448385998138012609e-01,6.307036280632019043e-01
5.137643977328404388e-01,4.552768393552615311e-01,3.432939614722452237e-02,3.738495681145839744e-02,-8.806152015488547327e-03,-4.440758024163592513e-03,4.579546451568603516e-01
5.351267900523273280e-01,4.912712202818232399e-01,6.567342386767766049e-02,8.618392495883572813e-02,5.536685894870534835e-03,-8.976843482726374474e-03,4.736436903476715088e-01
7.197157154197280082e-01,3.987340065913356213e-01,5.239001504845280932e-02,3.075567179322161171e-02,-6.380450158898903767e-03,-1.025558048305031389e-01,6.071791052818298340e-01
4.072780419567506582e-01,4.374642467101970689e-01,5.276437694530122791e-03,-3.441234493499636948e-02,5.383412938683871697e-03,3.380113572597820849e-03,4.222857356071472168e-01
4.538642957221393215e-01,4.754449474288559019e-01,-3.076442122798522805e-02,-5.277645851278617989e-03,-2.010669617137393270e-02,-1.668823864087682143e-02,4.979168772697448730e-01
5.168502922904456565e-01,3.368339415756133048e-01,-1.671673362736270096e-02,-1.182063230115905361e-01,-8.824080591205618954e-03,-2.939876324895891041e-02,5.155516862869262695e-01
4.795301467663419803e-01,4.563842901221576431e-01,-2.479277969265197834e-02,-1.259834622627636902e-02,-8.411386572945300441e-03,-1.426741188929149008e-02,4.944728910923004150e-01
4.657234785070865080e-01,3.996633155770701884e-01,-4.882687720830614087e-03,-4.695464616757983461e-02,-1.406351122275602446e-02,-1.384953681552330423e-02,4.500319659709930420e-01
4.870120817679665093e-01,3.835632078283297552e-01,-2.195907907199051712e-02,-3.615224586967941828e-02,-2.406524213396084994e-02,-3.766366987222440066e-02,4.764607548713684082e-01
5.331364230375391644e-01,4.703230165504748150e-01,-3.171493006608350207e-03,-2.244626158958897347e-02,-1.853145223862315630e-02,-2.237181168864748465e-02,5.117886662483215332e-01
4.830393815577332384e-01,4.588800876575800380e-01,-3.224839087313141617e-02,-2.977694924272498728e-03,1.343532339457857369e-02,9.501273454837649499e-03,5.044751167297363281e-01
4.797608125229972931e-01,4.798135086129080573e-01,-3.267235711163396505e-02,6.831716728997843692e-03,1.034315041441896676e-02,4.638338526665969179e-03,5.129719972610473633e-01
4.653830152978940538e-01,4.767184437439346834e-01,-3.646469502713617361e-02,-7.053873659672327831e-04,5.635721239311461059e-03,1.016707200658854317e-02,5.080109834671020508e-01
5.078756741482547410e-01,4.532272607025936706e-01,-8.442071819511398623e-03,-1.472570487715927842e-02,3.443029547187430317e-02,1.959001176807268624e-02,4.967018067836761475e-01
4.122128305314537444e-01,4.051854645046537584e-01,-9.817266865177087798e-03,-9.001128206432965073e-02,3.923750165983141275e-02,4.496427306745459651e-02,4.584574401378631592e-01
4.776389955888059591e-01,4.738096602714714223e-01,-2.948911865086495387e-02,-9.596951344402506997e-04,7.733522195810349324e-04,-1.945147469052207383e-03,5.052400827407836914e-01
4.949488310491238496e-01,3.828663341330608150e-01,-1.711535348283221847e-02,-8.456398086161841937e-03,1.831606956351944371e-02,1.333039017811354920e-02,4.681162834167480469e-01
4.786871723660809375e-01,4.027227663524686196e-01,-1.679247428695235245e-02,-2.655591163402144794e-02,1.835040410096793959e-02,1.348843474790048166e-02,4.661582708358764648e-01
4.786777440163096919e-01,4.980100482419762553e-01,-9.080087452259633096e-03,2.592609225204656198e-03,6.825182532948979169e-03,9.517492058954064513e-03,4.981391131877899170e-01
4.501228100965990464e-01,5.102745418958135604e-01,-8.745106675699887422e-03,-1.675048935707760395e-02,3.077592923168264924e-02,1.929273843379059050e-02,4.965677559375762939e-01
3.063431436618215264e-01,4.644454837813544179e-01,3.262335689586781662e-03,-9.285528179709862107e-02,5.258957798487638724e-03,1.376377206328685716e-02,4.373667836189270020e-01
4.570792285161192625e-01,4.960796252079884283e-01,-2.459404090139127863e-02,3.889388205015732822e-03,5.795429727659659469e-03,1.988869027289362056e-03,5.024675130844116211e-01
3.858175195017357062e-01,5.586678827573861028e-01,-2.168533706832498353e-02,-7.141840646650423306e-03,4.614075318786936553e-02,3.366410289377721327e-02,5.256544351577758789e-01
4.807170873947647083e-01,4.817068570853710319e-01,-7.407760810813901475e-03,7.201492147222179202e-03,1.158114549697913942e-02,3.964879618930632586e-03,4.892393052577972412e-01
4.904774427647565771e-01,4.683084885873944891e-01,-2.169481557564595375e-02,5.580576925999533415e-03,2.184108829541215376e-03,-2.866044068572474405e-03,5.015874505043029785e-01
5.105814449019993040e-01,4.042861525837113668e-01,-2.152459872589990164e-02,1.170967198441187629e-02,6.622060978187039974e-03,-4.434749624480462116e-03,4.883411526679992676e-01
5.119018096501093407e-01,3.813757293676964810e-01,-2.181322735266344459e-02,1.360345340954659775e-02,7.873070207222877120e-03,-2.438077151568074016e-02,4.845094978809356689e-01
5.234178666884958808e-01,3.372440611461770543e-01,-1.867975021523760049e-02,-3.188059737052801462e-02,-1.713194609343794347e-02,-4.520126188329737921e-02,4.875092208385467529e-01
5.776686896329228382e-01,3.118755812455485943e-01,-2.266246066016036620e-02,-8.934984732190787149e-03,-4.072158835264180939e-03,-2.858882373141657246e-02,5.236609578132629395e-01
5.728892977939696873e-01,4.239354496312265352e-01,-9.383743549134349049e-03,7.578112303055057307e-03,-1.194755560085102378e-02,-1.047058211864934814e-02,5.248111486434936523e-01
5.518464429838689789e-01,4.259467246283941688e-01,-1.829304103646178792e-03,-6.437850009928293600e-03,6.437495755724314400e-03,-6.143964206576139897e-03,5.030525326728820801e-01
5.225805318129342902e-01,4.090913922266580793e-01,-2.186619765190156439e-02,-1.398188515894152346e-03,-9.237662558368222102e-03,-2.076457282863952702e-02,4.990677237510681152e-01
4.063095148732089879e-01,4.438611516171022675e-01,8.908307897209921666e-03,-2.927449140423221685e-02,-4.546926172179937588e-03,-5.947138885000186233e-03,4.207137227058410645e-01
3.507249010275470535e-01,4.710923875777832670e-01,8.562048679108369420e-03,-2.811155666969267219e-02,5.068643880226083274e-03,3.589693350443178520e-03,4.186114370822906494e-01
3.825357329121509276e-01,4.381167848929528041e-01,5.128748478074152128e-03,-1.757104554750373374e-02,-2.208094843680290091e-04,-2.132532909947343954e-03,4.091967344284057617e-01
3.821188417956216110e-01,4.412524131101915881e-01,8.075335654223303461e-03,-1.398274934715522909e-02,-3.683313880622804837e-03,-5.112171669257817123e-03,4.077125191688537598e-01
4.735962353135534930e-01,3.191041031198098565e-01,2.531420426599911844e-02,-1.620838974324410042e-01,-1.710991336849582850e-02,-5.299755056172512913e-02,4.936462044715881348e-01
4.047407617772619259e-01,4.427779415192126811e-01,9.479891283900976351e-03,-3.543502843749454095e-02,4.231672876436646039e-03,7.961272535590192129e-03,4.203847944736480713e-01
3.372858262669778395e-01,4.754884625460905623e-01,8.325818094020720483e-03,-5.829059704247677859e-02,1.374242908851537994e-03,5.628085208152363954e-03,4.278689920902252197e-01
3.642192076369071829e-01,4.254149423840507538e-01,-5.899244910401724162e-03,-1.611058112360197747e-01,-2.787924306189974201e-03,2.563771784458751166e-04,4.911934733390808105e-01
4.514538110965267137e-01,4.727554495771933984e-01,-2.961819322775932628e-02,-1.854175531477631660e-03,9.792743321317217212e-03,1.389895766871179945e-02,4.929596483707427979e-01
4.422930427028460842e-01,4.621739276971634225e-01,-2.962970571587247859e-02,-1.301731749101299289e-02,6.230111149491204987e-03,1.054269200428047115e-02,4.831633269786834717e-01
4.442102617981393275e-01,4.444251009523882967e-01,-2.488436486902784184e-02,-1.254904855309910312e-02,9.986925314008032045e-03,7.537303754263210455e-03,4.702049195766448975e-01
4.410590122542458191e-01,4.766882008727474362e-01,-1.415724159271147808e-02,-2.625680437916160653e-02,3.467992875944741343e-02,2.190074090037872484e-02,4.814826548099517822e-01
4.593547176197377846e-01,4.840430470016382491e-01,-3.321533831755868471e-02,-2.303268627633591175e-03,3.046755125531470151e-03,5.596290220917184144e-03,5.055029392242431641e-01
4.360369562143749933e-01,4.361241654816165325e-01,-3.112628736781025696e-02,-5.357441302227471114e-02,4.212847839619585089e-02,4.075479624351342062e-02,4.870320260524749756e-01
4.510981206653301157e-01,4.866118304073979717e-01,-5.832725076990619151e-03,-1.989729544289954230e-03,-3.505888672192319141e-03,-8.366494615224460280e-03,4.759549200534820557e-01
4.940604064891800373e-01,4.609702816671349956e-01,-4.940095689339507601e-03,-2.652941074262593277e-03,-7.286051187718926652e-05,4.020064935940655115e-03,4.833777844905853271e-01
4.711213131518780517e-01,4.536364604540729650e-01,-3.574117681864108498e-02,-5.875539260297592443e-03,1.100199559394528237e-02,8.130298369653529353e-03,4.990169107913970947e-01
4.814756280688744505e-01,4.494793063086542917e-01,-1.623644420753911355e-02,1.876574967341408662e-02,-1.535991035844001470e-02,9.082560511399991737e-03,4.845903813838958740e-01
3.596243837639042651e-01,5.211439875678278710e-01,-1.757441779278284821e-02,3.437126388525191950e-02,-3.579990120400600856e-02,5.682977359174981938e-03,4.865988790988922119e-01
4.532574697847364109e-01,4.742651488604747168e-01,-4.175211747788987182e-02,3.368964142883284357e-02,-3.793359816638034593e-02,6.075850007240727810e-03,5.135244727134704590e-01
4.587644538841811892e-01,4.926182605351441257e-01,-2.800932339350997724e-02,4.846570739108947701e-02,-2.843005410597437485e-02,2.831355610583650637e-02,5.161884427070617676e-01
4.022293862495079364e-01,4.659829373930270968e-01,-2.473531694315966867e-03,3.243482245419037485e-02,-1.275558325851201651e-02,1.744426990805509475e-02,4.452047646045684814e-01
4.824162473490395953e-01,4.981130725095869183e-01,5.044129728821622471e-03,1.612492096820902429e-02,1.695259302394186429e-02,-4.374663937705447481e-02,4.929576814174652100e-01
4.436753479952103563e-01,4.608440794041508970e-01,-7.231988535948086216e-03,1.969383113993071824e-02,8.028989877032766120e-03,-2.392574826136928141e-03,4.612242579460144043e-01
4.769443239110793265e-01,4.703434930682544035e-01,-2.640214898978882063e-02,7.309659374392860932e-03,5.533087849074120809e-03,-9.429631627504604652e-03,5.005972981452941895e-01
2.973164351954164508e-01,4.671280442101140018e-01,-3.945408523334104078e-02,1.894974450343893391e-01,9.817251082188354142e-03,-1.916777021775333640e-04,5.544862747192382812e-01
5.283927255681040158e-01,4.562073042638601361e-01,-3.715896463353085544e-02,2.237585305838636629e-01,4.810754962071053104e-02,1.239191104726595008e-02,6.647121310234069824e-01
4.748760805587165512e-01,4.749945059426994298e-01,-2.382134921677314665e-02,1.043193548042979093e-04,1.876201681492096563e-03,-3.750013958631487950e-03,4.988095760345458984e-01
4.494019933056851990e-01,4.570001098604450918e-01,-1.774546898440942932e-02,2.413658045881861280e-02,6.411923149641660970e-03,-6.431430826569637521e-03,4.731057882308959961e-01
4.705496700468407845e-01,2.853800927701428125e-01,4.487906726582224781e-03,1.116966180622995936e-01,2.907980482773651898e-02,-1.034084289276738025e-02,4.533067345619201660e-01
4.240395092286807777e-01,5.251828285588510115e-01,-1.872935715433693415e-02,8.402397686663712340e-02,4.805551572476720462e-02,-2.635191342029151798e-02,5.303288698196411133e-01
4.686630949753108899e-01,4.713964397431331665e-01,-2.375393504894257601e-02,3.152573480727215724e-04,1.897912760112020281e-03,-5.123379290746147598e-03,4.938803613185882568e-01
4.776259483334466260e-01,4.602750043518100687e-01,-2.480468419453940587e-02,1.284669211484900991e-03,4.058642978686880128e-03,-3.829070696288569726e-03,4.940832853317260742e-01
4.804046175870478885e-01,4.618895349153395169e-01,-1.603449662997114000e-02,3.122983538493445677e-02,1.632620094990291232e-02,-1.025438059125888084e-02,4.915729761123657227e-01
4.707128992673899615e-01,4.736023351503320100e-01,-2.642529287455352982e-02,1.924059975083971131e-03,3.802922483183226749e-03,-7.532550351579390437e-03,4.988144934177398682e-01
4.708063449067629858e-01,4.683339902815168987e-01,-2.744106329916079501e-02,-1.387419443618244223e-04,3.437965416897491647e-03,-1.068698482326573516e-02,4.973961114883422852e-01
4.727672419622855893e-01,4.537335540420331936e-01,-2.384293833951262043e-02,8.923416388641683059e-03,4.270039646005054784e-03,-3.077342172019042078e-03,4.877023994922637939e-01
3.964256956966281664e-01,5.172615145310204277e-01,-1.885686518658202804e-02,-3.313560973049241298e-02,-4.910523719021663014e-02,-3.050538933321002635e-02,5.005612373352050781e-01
4.254087237901714724e-01,4.261494504528562377e-01,-7.064315882829297344e-04,-2.565211318111245559e-02,-7.073375482158734615e-03,-6.372493767184631702e-03,4.291110932826995850e-01
4.697898886231757221e-01,4.634908635030622337e-01,-2.214518361307993288e-02,-6.992578337879494510e-02,-2.802244425498688629e-02,-4.696539137160737898e-02,5.124284625053405762e-01
4.646733560761901471e-01,4.753424570998576737e-01,-3.312180972918749022e-02,2.328650583485948130e-06,-1.111669981600093421e-02,-8.290929020479863298e-03,5.037875175476074219e-01
4.295622082597805313e-01,4.221381564151642785e-01,-5.260208912786890068e-03,-2.036625935252543360e-02,-1.600772699518920872e-02,-1.316794321092995025e-02,4.340861439704895020e-01
4.339580998494683151e-01,4.003846640967287374e-01,-4.158884903216475415e-03,-5.109470901850484553e-02,-1.305531667535937516e-02,-1.269164487321791136e-02,4.326559007167816162e-01
4.302361473716500018e-01,4.365809776490726102e-01,-1.512473056080154699e-02,-3.947136358190490163e-02,-1.761413449277529977e-02,-1.777496832363200524e-02,4.558123350143432617e-01
4.076169260465786759e-01,4.296243355632429761e-01,-1.989886259429696214e-03,-5.848219759607958118e-02,-5.132408087557540494e-02,-4.003174125931477367e-02,4.474897384643554688e-01
4.371834272561772039e-01,3.918152236752672213e-01,2.379988162373725125e-03,-1.995268109003843146e-02,-9.572315158394229667e-03,-2.450494176060864782e-03,4.157803356647491455e-01
3.546602652230622654e-01,4.846415861359522070e-01,9.209367652613764665e-03,-6.331579544246458691e-02,-4.652085035770827520e-03,-2.670045422564826677e-03,4.395982325077056885e-01
4.069569063724406965e-01,4.114807016983371701e-01,6.256989981041238824e-03,-3.205836000268971753e-02,-2.510586362767666582e-03,-4.482840554339179466e-04,4.068123698234558105e-01
4.134155523214229078e-01,4.140129524434372210e-01,1.027498499377021979e-02,-3.698378999649325205e-02,-3.654627475606512209e-03,-6.298607900472041020e-03,4.086881577968597412e-01
3.856277192573975832e-01,4.317465023023625559e-01,1.605208045630246438e-03,-5.047449440177188829e-02,1.226217323953603978e-02,1.345568305761030148e-02,4.194617569446563721e-01
4.390972187338728627e-01,3.775069956719289133e-01,-1.075935383786313926e-02,-1.506367837181743496e-01,3.482450949837463672e-03,3.729581226687827405e-03,4.965983927249908447e-01
3.835889727722867071e-01,4.208762323556871632e-01,-2.659702798756546915e-03,-6.854469146752377451e-02,-2.993238256665159067e-02,-2.100785089867064637e-02,4.278872311115264893e-01
4.371377976569645329e-01,3.613553556027620517e-01,6.429552791516801591e-03,-5.915798629292660926e-02,-8.256843122303656607e-03,-1.012517858386273450e-02,4.118537902832031250e-01
4.618082398998167859e-01,3.141569983541164790e-01,7.631158617824151946e-03,-1.059384243568169404e-01,-2.901058534113713306e-04,-9.466892174663468773e-03,4.415380656719207764e-01
4.728439573004937779e-01,4.624551633024486241e-01,-3.656614509234229482e-02,3.629898518348093723e-04,7.098211151437451225e-03,4.694355420873267543e-03,5.045117139816284180e-01
4.610968296411295797e-01,4.802514844835905627e-01,-3.039223543678343242e-02,-2.588048559734580862e-04,-1.158629542315134202e-03,-1.256402525824239398e-03,5.013498663902282715e-01
4.709460330886350299e-01,4.807525543705717386e-01,-2.558519344841930776e-02,-2.046847653436147281e-03,-4.115906141481137474e-03,2.339923061287436327e-03,5.015859603881835938e-01
4.646448621602092821e-01,4.626038124598046974e-01,-2.504901931925290759e-02,3.140820531155273741e-03,-7.244747817528441811e-03,4.141684412832956699e-03,4.889205396175384521e-01
4.634879774153802812e-01,4.611668309709517910e-01,-1.551682702873141695e-02,1.946512736036651618e-03,5.386681694597098523e-03,-7.826938528772366468e-03,4.781436622142791748e-01
4.506287452297025320e-01,4.665206067052970473e-01,-1.655307788591747764e-02,2.921325557042329154e-03,2.715493843763067041e-03,-8.043043889542071667e-03,4.755813181400299072e-01
4.162253809022521400e-01,4.556129577468240321e-01,-1.660199460848110764e-02,-9.756134654363495320e-03,3.424165816211829742e-03,1.448902085066109367e-02,4.548510313034057617e-01
4.257373587268467041e-01,4.090630742992657498e-01,7.570309184916690359e-03,-9.400651581612490260e-03,3.312228627367444413e-03,1.366928283124089821e-03,4.104542732238769531e-01
4.206817566567492284e-01,4.649031077849304916e-01,7.655788118279827081e-04,-6.413761224171724007e-02,-9.851103762601572111e-03,-9.443654262874575517e-03,4.579890370368957520e-01
4.698297899393836241e-01,3.482536081109760540e-01,5.750819559795450342e-03,-3.000320857858848611e-02,-7.494449533462914717e-03,-1.143099385051841175e-03,4.202405214309692383e-01
4.623538309160460935e-01,4.807274825888800951e-01,-3.442555789620460605e-02,2.188815490674712384e-04,-1.493550482788201083e-03,-5.500316318458491668e-04,5.062240362167358398e-01
4.526823948127574049e-01,4.826579191087132514e-01,-3.549091903275541915e-02,-1.662956840841602231e-03,-4.049197501046537633e-03,-3.677829144975820492e-03,5.039275884628295898e-01
4.616547005217651045e-01,4.739439921892032448e-01,-3.727691130504262595e-02,-1.450790101306605770e-04,-1.097321701110001713e-03,-4.881990407275522774e-04,5.051926970481872559e-01
4.604222469691405251e-01,4.766398570797331091e-01,-3.392848947786786251e-02,4.403644594177287953e-04,-2.885969219649762939e-05,-2.492516872995348496e-03,5.026749372482299805e-01
4.270144251765956023e-01,4.226065779398472388e-01,2.554006720128232377e-03,-1.400595385062498345e-02,-5.650566109231937827e-03,-4.745039287012554723e-03,4.231630265712738037e-01
4.298033115388678604e-01,4.263026760328262332e-01,-1.633882580492906911e-04,-2.228721541126130364e-03,-4.382169464435752872e-03,-2.810148335122224835e-03,4.283394217491149902e-01
4.225475861157477198e-01,4.215108409316059568e-01,6.467810940523788243e-03,-1.360865697756171800e-03,-8.920439000088424336e-05,5.039613841397144311e-04,4.155699908733367920e-01
4.138508178225371315e-01,4.245992847836178030e-01,4.114637053720338056e-03,-1.010784624178729871e-02,-7.125611799232206469e-04,-2.643947958235607406e-03,4.156107604503631592e-01
4.683581319801525256e-01,4.803685869035975720e-01,-2.952638362790582782e-02,-3.097822292958737748e-04,-9.527819969206450862e-04,9.836655741088211335e-04,5.040029287338256836e-01
4.680173762365075207e-01,4.805821407448397364e-01,-2.683377975883244337e-02,-1.120538408482927737e-03,7.781337185080986927e-04,6.514533090176039031e-04,5.012584924697875977e-01
4.681465612638735507e-01,4.821526671896250171e-01,-2.748974845265783618e-02,-5.883102068420921569e-04,-3.656103679066317023e-03,3.016714921669454066e-03,5.028537511825561523e-01
4.672388906562007227e-01,4.818731767770392249e-01,-2.865212869443894972e-02,5.374162178177007988e-05,-9.208655386983593443e-04,6.894086682599368313e-04,5.033717155456542969e-01
4.796857539501096501e-01,4.759071135005853437e-01,5.422813011918165005e-02,6.912624833537038029e-03,-3.227995026272727479e-03,-1.326431301056677121e-02,4.244093000888824463e-01
4.796800481385583015e-01,4.769502268513114429e-01,5.117402167159745829e-02,7.272758069129437244e-03,-1.166017917095945938e-03,-1.011449261888205248e-02,4.276970624923706055e-01
4.852078413380190858e-01,4.846127764063167254e-01,1.080862205471395665e-01,9.992491270008039411e-03,-1.716492822590520370e-02,-1.221703892653792228e-02,3.789826929569244385e-01
4.798743131991222155e-01,4.791067577305885283e-01,7.547027069366885055e-02,5.768474568655973002e-03,-1.040984943898715098e-02,1.792667990487964826e-03,4.045582413673400879e-01
5.227752876817095551e-01,4.991759206363618473e-01,2.991965361641096832e-02,1.563459072180362064e-02,-1.259168693907573161e-02,-1.590065254980870674e-02,4.835286736488342285e-01
4.205140879073833160e-01,4.325844314274561730e-01,1.010070583438771319e-03,-7.684918707639174472e-03,-4.121258236458922794e-03,-7.360671752398076188e-03,4.261262118816375732e-01
4.192068994017966732e-01,4.293959471735479538e-01,3.060719892465868508e-03,-2.879142666784387586e-03,-1.049550229965323048e-03,-2.879718247133662354e-03,4.213960766792297363e-01
4.619095146374197491e-01,4.813859121646149042e-01,-2.667249683268557714e-02,1.143492988669091550e-03,2.108691570518601757e-03,-4.136410322550594285e-04,4.986234009265899658e-01
4.195094464032610437e-01,4.237213750616598551e-01,3.493234110021337102e-03,-2.009951604930363886e-03,-9.530595900946336628e-04,-4.045267124273760947e-04,4.181564152240753174e-01
4.765281106968540792e-01,3.479254349327955964e-01,2.671863947958530439e-02,-1.248479772588738657e-01,-4.297701529730359876e-02,-3.218983863588159577e-02,4.652216434478759766e-01
5.428035987387502814e-01,3.951367418344332028e-01,-1.446600985073553947e-02,-3.988166535873476082e-02,-1.650009158222117550e-02,-4.964909172755411354e-02,5.128822326660156250e-01
4.834778347763248885e-01,4.739574664039799545e-01,1.047793034775368337e-03,-4.587647063400319427e-04,-2.602017109271976322e-03,-1.174704895885005963e-02,4.781959652900695801e-01
5.445802086288085153e-01,3.793080941019480457e-01,2.515367447628291675e-02,2.515718240947557166e-02,-1.233429821546631541e-02,-6.538563519092806253e-02,4.758707582950592041e-01
4.836903782043672773e-01,4.781213526511939316e-01,4.195899311104606122e-02,2.081960582406898962e-05,-7.265811262997466310e-03,-2.142190729192377900e-03,4.391694068908691406e-01
4.935673543166089194e-01,4.841927884378433022e-01,3.028793661251849567e-02,-3.841685275045145925e-02,-5.257577221275772051e-04,-1.316786161431843585e-02,4.640271961688995361e-01
4.668736362132246409e-01,5.067872210983601633e-01,-6.544801488283791269e-03,3.318659522650984489e-02,1.192658461008793075e-03,1.260400271791218413e-02,4.983962774276733398e-01
3.607218139730472561e-01,5.063159174173514909e-01,1.922022083095281664e-02,9.770015017425917603e-02,-5.941271669252794208e-02,3.020610109743600454e-03,4.762295186519622803e-01
2.329925079320810943e-01,6.579157964940707259e-01,-1.994520424851436990e-02,5.170983155148425880e-02,-3.762897591182306350e-02,-3.416816353665989153e-02,6.064555644989013672e-01
2.377453421214245077e-01,5.895907969442240049e-01,1.370997357703918063e-02,4.506937327474609678e-02,-2.462965993773821513e-02,-5.987188577674473853e-04,5.106148719787597656e-01
4.492401168552607182e-01,3.341316409945558341e-01,2.400185809144528282e-03,-9.902041182415297071e-02,-1.931075813103292835e-02,-3.312275978388063563e-02,4.419344067573547363e-01
2.519120090858696370e-01,6.572287437702614143e-01,-4.844064319297514132e-03,1.019744529934454164e-01,-1.415278929761409725e-02,-2.071625198342122789e-02,6.061003208160400391e-01
3.433539153506832697e-01,6.026293519468970405e-01,-3.027844449721506237e-02,5.997570325121312496e-02,-9.433494410717561257e-03,2.257538050848961059e-02,5.623928904533386230e-01
4.630760301043172489e-01,4.796398738567366760e-01,-3.331024652519648521e-02,4.314684592966901004e-04,-2.795272658583460024e-03,-2.293314771792811808e-03,5.049114227294921875e-01
4.514955927478754294e-01,4.846772031679347226e-01,-3.382972561187153060e-02,-1.970018029180505264e-03,-3.969101345308310644e-03,-2.836396010014965996e-03,5.028206706047058105e-01
4.684574530522580549e-01,4.758575713385133077e-01,-3.060836088124341270e-02,-3.602275381335537418e-04,-2.090731163722548726e-05,1.395423031500098556e-03,5.028129220008850098e-01
4.788966424319643367e-01,4.482245358823297998e-01,-3.376546460161472529e-02,-6.337033255080516117e-04,-7.475632155615642184e-03,-1.018635777977728538e-04,4.982044398784637451e-01
4.607965504269266321e-01,4.793021968302555447e-01,-3.358034581683316810e-02,-9.657598251344153917e-04,-3.612427796280310004e-03,-2.996720123744504687e-03,5.039529800415039062e-01
5.029397811039044708e-01,3.456631639368519249e-01,1.522371561650193161e-03,1.644201913917708521e-02,7.424224019230104589e-03,2.967202615168810045e-04,4.452760517597198486e-01
5.376474620273508087e-01,3.116012057682048808e-01,-5.029838013271281660e-04,1.845226340965837319e-02,1.077834652977270602e-02,-1.045870109673799515e-03,4.694988429546356201e-01
5.075940390489903642e-01,3.805753519809061958e-01,7.297699513946209748e-04,7.092278606282301223e-02,-7.090128078642447818e-03,-8.597435618877130592e-03,4.734200835227966309e-01
4.896938018820269911e-01,3.445509382043183133e-01,1.035389444954326610e-02,-3.011403775782357101e-02,9.223215207040588986e-04,-2.538381482985197987e-03,4.289555549621582031e-01
5.075588560922326131e-01,2.996639502641411101e-01,-2.843208106382999478e-03,5.813028709500820540e-02,6.316206171051332377e-03,-7.803347558675001634e-03,4.561362862586975098e-01
5.162110881051246158e-01,3.507006055570645042e-01,-1.374539074990688281e-03,1.024187559561975103e-01,6.765363369317803702e-03,-1.525548370859584023e-02,4.918608069419860840e-01
5.177891248218895459e-01,3.175812097703514247e-01,-3.627239269983872916e-03,8.993910169490139730e-03,3.443201401886126275e-03,-4.145420170295783906e-03,4.559565186500549316e-01
4.631923774288818629e-01,3.881401175350510102e-01,-5.460301335099781994e-03,-8.812789584706177265e-03,-1.446515634398491505e-02,-1.058283137683511607e-02,4.373687803745269775e-01
4.677793509610054801e-01,4.790241457380634005e-01,-5.833134671750173084e-03,-5.426939370054363653e-04,2.438566962369154070e-03,-1.340823221333175630e-03,4.793589711189270020e-01
5.078878853005708294e-01,3.541542353774356222e-01,1.698912948732922423e-03,2.640210282213203974e-02,1.959731114865289302e-03,-1.558725570605404515e-04,4.518250226974487305e-01
4.988368566230257928e-01,4.658145190956515247e-01,2.134847522384919483e-02,1.310829634866112793e-02,-6.130234250021213832e-03,-7.708834675306677243e-03,4.627357125282287598e-01
5.072538830004693633e-01,4.865483279844435294e-01,-1.056396225884603801e-03,1.922127893627646744e-02,-2.993911376442519659e-03,2.595804370134961042e-02,5.014378428459167480e-01
4.684381854962338387e-01,4.780712679304037760e-01,-2.702285759594558190e-02,-1.144741412806765451e-03,7.764892484428565639e-04,1.139642576726463200e-03,5.003567934036254883e-01
4.791300736813651762e-01,4.753293010597088863e-01,3.813405205730607817e-02,3.804503082407682552e-03,-3.914724770994431995e-03,6.489489625038683332e-03,4.393535554409027100e-01
4.658180194722392198e-01,4.702748542536748788e-01,-2.740029725367532087e-02,-1.085625067802062577e-03,-3.809674767004778140e-03,3.634015567426799112e-04,4.955096840858459473e-01
4.788169097039691735e-01,4.870510655148854173e-01,6.119349508366150880e-02,-4.146677076062414702e-03,1.647722903293414101e-02,-1.323195232404587342e-02,4.234468340873718262e-01
5.003028678922027961e-01,4.012378242017473617e-01,-1.699184596902930666e-02,7.567046634413074173e-03,-1.180535930735706306e-02,1.396529456067533738e-02,4.767985343933105469e-01
4.873614082743658038e-01,5.022591810568275417e-01,9.594448877457351088e-02,3.181049672654024524e-02,-6.248341727983242055e-02,2.117099608999899532e-02,4.187520444393157959e-01
6.583174834737882675e-01,5.489086845304055329e-01,5.332996235031156607e-02,1.298375611060337831e-01,-5.822859023013824895e-03,5.914127332196291581e-02,6.107023954391479492e-01
3.580836031630901806e-01,4.880205674299057383e-01,-1.238567879165097807e-03,1.018813506746288171e-02,-1.261475654870733128e-03,5.594779478754206663e-03,4.394261538982391357e-01
5.148125580413380753e-01,4.879217297576499135e-01,-3.826108464846789126e-02,1.556695074425981824e-02,1.665807968678527373e-02,1.857411657162379159e-02,5.425269007682800293e-01
5.748797423200513457e-01,3.473119310535765503e-01,1.001584824668605433e-02,5.307226769749674028e-02,1.592541335360604313e-02,3.503192886596151467e-02,5.051792263984680176e-01
4.864438742870171861e-01,4.673032438737191319e-01,-2.708487472412296482e-02,-1.373140199665805281e-03,-2.965494373265954980e-03,-1.009960750244829003e-03,5.042657852172851562e-01
3.472869211913576781e-01,4.713058186983338782e-01,-1.818554204307570865e-02,-1.428775325892521209e-01,-8.958217967680268470e-03,-2.578515927320119624e-02,5.076944231986999512e-01
4.519545482552031479e-01,4.675138244697953360e-01,-3.353096284961837314e-02,1.038420002989234696e-03,-6.746325188296520801e-04,-7.199755919420990254e-03,4.936113655567169189e-01
4.996814536859209843e-01,3.596306713011140355e-01,-2.352149162363104118e-02,-3.248863634993184868e-02,-2.206185693562669886e-02,-3.175239749201827499e-02,4.772126674652099609e-01
4.280323243432587743e-01,4.494055865772919600e-01,2.326763345000681937e-02,-1.205430183342165451e-01,-6.953063275914603270e-02,-2.431111440038307564e-02,4.825048148632049561e-01
3.601092054192537861e-01,5.138190098860102584e-01,5.063273547487279203e-02,-1.868436561881966218e-01,-7.100713094237608158e-02,-1.095616473069406238e-01,5.681909322738647461e-01
4.792018200112507786e-01,4.690483343603554789e-01,-2.845092041604369015e-02,-2.390355297230078806e-04,1.514210184061546161e-03,-7.339721923576783416e-04,5.026615262031555176e-01
4.253108813844199698e-01,4.185159966726531011e-01,6.089128632564999588e-03,-3.343381601169792203e-03,-3.245320938007691157e-04,1.215234584460853290e-04,4.159066975116729736e-01
4.752728381972251004e-01,4.693357617098229406e-01,-3.127672476763720955e-02,-4.195625482523908118e-04,5.759006265268647434e-04,-5.812787592783759177e-04,5.036097764968872070e-01
4.755361026315784723e-01,4.229129033789112979e-01,-7.732429492233794388e-03,7.918393342512907926e-03,-6.140675866941718887e-03,-2.010908224586623874e-04,4.595518410205841064e-01
3.873320714109588225e-01,4.902085332556314068e-01,-2.187463224974883769e-02,-1.051653618183905244e-02,-1.425275595115430352e-02,-1.401891164742276839e-02,4.708102047443389893e-01
5.307185054204970331e-01,3.692109947766790135e-01,-7.139393277834138463e-03,1.893676336366243189e-03,5.388123313959888340e-03,9.393559994216729020e-03,4.784038960933685303e-01
5.620552009317801856e-01,3.498290540189021303e-01,-2.143003107288804499e-02,3.420763235700443466e-02,-3.437223589678550014e-03,5.567728791847827846e-02,5.239369869232177734e-01
3.904111674233296525e-01,4.746359154487617693e-01,-6.022671689301595244e-03,-3.655255982453013003e-02,-1.728896641265699474e-02,-1.383395207388048685e-02,4.506908655166625977e-01
5.507010908481941858e-01,3.061871489528593671e-01,-1.595685764712662102e-02,-2.154839029906985282e-02,2.107810464920764106e-03,3.749930899624508845e-02,4.979532659053802490e-01
4.792537468049630212e-01,4.773657571616748418e-01,-2.910136287875531025e-02,-6.333885372933147398e-05,-1.190312512101303864e-03,-1.119150900673870517e-03,5.074216723442077637e-01
5.276051873473510678e-01,3.712930708805387559e-01,-2.089619603496162270e-02,-1.216282972727048704e-05,-2.446915863044665275e-03,-1.774700965999677707e-02,4.904209077358245850e-01
7.057080683215362082e-01,1.830851502776231765e-01,-1.462103441797479864e-02,-6.543618786910325447e-02,-1.850698676227436040e-03,3.573251706398133942e-02,6.574455499649047852e-01
5.562478431567795534e-01,4.086864987071903710e-01,-1.943705853530786065e-02,3.090864903929281884e-02,-1.169022218835237477e-04,3.748719616748433930e-02,5.247099995613098145e-01
4.773489645023287209e-01,4.726324381631110683e-01,7.018641627396349225e-03,1.628018315411736139e-02,8.656505847309354726e-03,-6.251282109942605733e-03,4.692032635211944580e-01
5.411634882835358873e-01,4.035510143300198860e-01,-2.323826245489279962e-02,-1.273293085268264492e-02,1.504236915995278527e-02,4.508343891227111627e-02,5.167983770370483398e-01
4.787589695142064894e-01,4.686848736298385720e-01,-2.835752379616862662e-02,1.129563954013268218e-03,-2.692105336905109472e-03,-3.837926604594025636e-03,5.022246837615966797e-01
7.562897088760003328e-01,3.076048583666480263e-01,2.252892929367827923e-02,1.228011066100515580e-01,-2.286340653146326854e-02,-6.043045450581310124e-02,6.842950582504272461e-01
5.425483028217957804e-01,3.973208642695859050e-01,-1.366370660230492584e-02,2.633882893499000372e-02,-6.996782985569325588e-04,3.358851047295624819e-03,5.017988681793212891e-01
4.710821143582664683e-01,4.774356836100231982e-01,7.591476960947884933e-02,-5.696487377861072371e-04,2.736846251771514037e-03,4.388136127890002354e-03,3.984840512275695801e-01
4.752199837241147251e-01,4.801631324687590796e-01,1.113887142062990887e-01,3.797023652346144616e-03,-2.538080414199577264e-03,-8.905331899907413182e-03,3.667377829551696777e-01
4.740635929779630220e-01,4.731507778095683792e-01,-2.865388979243277401e-02,1.146772141043821483e-03,1.958419546824302290e-03,-4.125630226494126328e-03,5.023279190063476562e-01
4.770686410066047878e-01,4.819279747109254108e-01,1.141442243392868372e-01,7.646086252751694429e-03,-1.192556100724738010e-03,6.904746149444885087e-03,3.658196330070495605e-01
4.780268446825365891e-01,4.820443571548641559e-01,1.054944457959657300e-01,9.313488525943618493e-03,1.071038405858108257e-02,7.225818557502558179e-03,3.755718171596527100e-01
4.657532236081585175e-01,4.824015344739892019e-01,-3.112194164166864896e-02,-7.641644787935258877e-04,3.326106558115998518e-04,8.659399332899723545e-04,5.054093003273010254e-01
4.958696178698129842e-01,4.940420949491548530e-01,9.626852654916062679e-02,-7.799734013126629131e-03,1.247798170581715729e-02,4.708153791088336517e-04,3.995051383972167969e-01
4.823052672289411813e-01,4.782571994541532368e-01,-3.836745707177396936e-02,7.603593998303120362e-03,7.437641195836354989e-03,7.651014566588363285e-03,5.191568136215209961e-01
4.675874392650546385e-01,4.825571385935412683e-01,-3.855468481084328713e-02,4.364993295840297743e-03,1.729708487672018376e-03,7.272629440117099955e-03,5.140092968940734863e-01
5.195287956694635279e-01,3.313182790296960722e-01,-1.106891495889161803e-02,6.564185424338986850e-03,-4.731261905353349208e-03,9.092323258559813562e-04,4.661458432674407959e-01
4.645155123656331542e-01,4.789156375920012865e-01,-3.102317692676143102e-02,-1.121575720229907704e-03,6.931493385029964885e-03,6.936403810404153346e-03,5.031839013099670410e-01
4.640170090174539075e-01,4.744425718303735273e-01,-3.431269405375858561e-02,-6.615848250844976863e-04,1.151268475326438882e-02,9.062402714525654573e-03,5.042636990547180176e-01
4.914628043334108298e-01,4.423333564347484703e-01,-1.771780275833839680e-02,2.306348065433130520e-02,1.173206759532145586e-02,-4.383954516932724726e-03,4.885992109775543213e-01
4.811198167651024593e-01,4.663386706535004311e-01,-2.709529093001911138e-02,-6.915448158753014461e-04,1.362702049955237787e-03,-1.878684515726373972e-03,5.010056495666503906e-01
4.839085099477375973e-01,4.748912286381540282e-01,-1.791344891655854976e-02,3.802009917639268249e-03,2.334250217800392692e-03,1.438010831919617812e-03,4.974408745765686035e-01
4.585970532768746111e-01,4.736225318924788263e-01,-3.829792630395645325e-02,-1.622928125252427831e-03,6.098562719198511589e-03,8.549075508923005898e-03,5.049110651016235352e-01
4.187678526542614188e-01,4.616502401103917963e-01,4.780685303378828799e-04,5.105220918197548099e-03,1.144914902473325558e-04,3.565787116452678613e-03,4.414282143115997314e-01
4.791480037983544826e-01,4.744711227734673686e-01,-3.050088890398872099e-02,-6.126110951505358269e-05,1.486169630648452155e-03,-1.617407462394403325e-03,5.073409080505371094e-01
4.608257106068213149e-01,4.700195651277808695e-01,-3.689326327691810903e-02,-1.416120501587215868e-03,4.378640040958809744e-03,6.468724437879711138e-03,5.025671124458312988e-01
4.618691257146633200e-01,4.809808434629296303e-01,-3.532353467747428866e-02,3.535787886237836027e-03,3.594697703405789341e-03,7.765480275864672204e-03,5.072723031044006348e-01
4.541976926742241072e-01,4.769156847112138164e-01,-3.319044569299262060e-02,-1.215143399622470441e-03,8.230893723552472688e-04,1.031424453011678052e-02,4.994611144065856934e-01
5.141490516746771711e-01,4.131423831857861106e-01,-7.096310146904760696e-03,-6.667364217224687473e-02,6.487584185781213042e-02,7.030576154372927822e-02,5.196549296379089355e-01
4.390669209233656334e-01,4.563370826761697918e-01,-2.308141116236123169e-02,-3.310258575084558809e-04,-5.319036170927173316e-04,-1.126283861929244443e-02,4.714259803295135498e-01
4.334454857021596830e-01,4.601463022592752194e-01,2.565075325300292253e-02,-6.331413417947161226e-02,2.686641692557703229e-02,7.552677708401333082e-03,4.384752213954925537e-01
4.652864158094310865e-01,4.686514286367644555e-01,-4.116811568300887680e-02,9.264248952520236832e-04,6.722367328364236986e-05,2.210348858143211873e-03,5.081623792648315430e-01
4.537479734866236569e-01,4.846655985817225343e-01,-3.272737556575616713e-02,1.011491557034398421e-03,1.074607870088239081e-03,1.076351547185242646e-02,5.029999017715454102e-01
4.532390109084114549e-01,4.687975802204646936e-01,-3.327778227647776310e-02,1.787379420846139369e-03,1.546277971830743031e-03,9.759895047532007178e-03,4.947854876518249512e-01
4.798577721147134767e-01,3.996427684569505701e-01,2.209060060653167401e-02,-9.198378563238066019e-02,3.798626742929299069e-03,2.239842448357631452e-02,4.540890157222747803e-01
4.288243717471901251e-01,4.799559539271891495e-01,-3.445380181102020156e-02,-7.286865266623564381e-03,9.106484702984729215e-03,1.006427579655509892e-02,4.915701448917388916e-01
4.071370840156957049e-01,5.209832938422258586e-01,-4.436893766512761683e-02,-6.225829329643868537e-02,5.110692193176692710e-02,5.398990380748079632e-02,5.444535613059997559e-01
4.823749595616027008e-01,4.801817375765923268e-01,2.496315606930443742e-02,9.073464551724358743e-03,-2.078857689461159966e-02,-1.616181262526693307e-02,4.588619172573089600e-01
5.267083415650115619e-01,4.778373410416889011e-01,-2.746009432958923524e-02,-2.529671992880704740e-02,4.052843426575259561e-02,3.950044474409701578e-02,5.421591401100158691e-01
4.671660709569033232e-01,4.605553513281288591e-01,-3.824957326653882772e-02,-1.669181368596321267e-03,-1.843173730143554158e-03,-1.042058120286807211e-03,5.021646618843078613e-01
4.620661108387412730e-01,4.624163912212593819e-01,-3.913590919878456864e-02,-5.281430789828956513e-04,-9.769019867671190419e-04,-8.187676287493661324e-04,5.013829469680786133e-01
4.656470210978126412e-01,4.786626531900586290e-01,6.882359071234966930e-03,-1.276482202569354961e-03,5.660499772817013768e-03,9.615960819132689198e-04,4.655204713344573975e-01
4.307473829404289689e-01,4.657166160475527672e-01,-2.304349629692686863e-02,-3.306096362063172533e-03,-9.788246954051007913e-04,-1.145002656589618265e-02,4.727014899253845215e-01
4.671575217351476850e-01,4.595950667839350245e-01,-3.845471553357265870e-02,7.592054607543516570e-04,-2.466375680547809330e-03,-2.108538600815423316e-04,5.018937587738037109e-01
4.651567229449030672e-01,4.615967739033016715e-01,-3.905739938052010807e-02,1.697369179718592551e-04,-1.960400322208081560e-03,-1.235442449567222866e-03,5.024597048759460449e-01
4.231000028196455487e-01,5.008367522680643447e-01,-2.395050060408054904e-02,6.535871948690642058e-03,-5.505931875293471750e-03,4.323802011108976440e-03,4.908407032489776611e-01
4.739452377041412645e-01,4.817588044819700599e-01,-1.643644106440256270e-02,1.406797530017441390e-03,3.934438191104181262e-03,1.449324252662228911e-03,4.943941235542297363e-01
4.664406764746337197e-01,4.745984643773142331e-01,-2.708694253011073583e-02,-1.314127116435801596e-04,-7.279095745904331756e-04,-4.912048611150675662e-03,4.977310299873352051e-01
4.770104938361650060e-01,4.785836808286860755e-01,3.456380114051804675e-02,7.980900095082336942e-03,-1.207537443056729866e-02,3.179370381848221818e-03,4.439779818058013916e-01
4.829643485770969136e-01,4.785110387883597660e-01,4.507623525408566145e-03,-2.130401937272963751e-03,-3.506875696477255544e-04,-8.157625598767608358e-03,4.764699041843414307e-01
5.442861567740553408e-01,2.932735142546828988e-01,-1.172724381296247342e-02,-1.884929032669246246e-02,-4.778468618964662636e-03,-3.647765325877631165e-02,4.875634312629699707e-01
3.215653565892384602e-01,7.392758773769196878e-01,-1.924285980196188683e-02,1.711930469993380166e-01,-3.148211160310149248e-02,2.216861720857423584e-02,7.248175144195556641e-01
4.782934068152868701e-01,4.743842522983386933e-01,6.608883168042478662e-03,2.778384465409013473e-03,-3.968973422315416784e-03,-5.450873371561736416e-03,4.699119329452514648e-01
4.804487283850087387e-01,4.843312692330979941e-01,-8.774000189714581399e-03,4.892360535200927958e-03,-2.189136111021610851e-04,1.120958581693361558e-02,4.916322827339172363e-01
4.877342697167559860e-01,4.697854967884227961e-01,-1.773667356714292431e-02,1.504483894417100315e-02,-3.819478399502470884e-03,8.075153637565097783e-03,4.976634085178375244e-01
5.146496540255183216e-01,4.677094497854937249e-01,2.238820930310780888e-02,2.895183662579305095e-02,1.961496559966974945e-02,4.287583887538085753e-02,4.802100956439971924e-01
3.395012178584045359e-01,6.527280775239789889e-01,-1.132016752308864782e-01,2.508077179836623039e-01,3.608083480536162374e-02,9.390876946482948698e-03,7.985820174217224121e-01
4.379738807431988734e-01,4.431723798071516285e-01,5.886986918499093058e-04,3.015419121180773401e-03,5.787116391893198366e-04,-1.284295414949950236e-03,4.400452375411987305e-01
4.299687183232203669e-01,4.191846821129406875e-01,3.775261512670768926e-03,-5.620563594810482413e-03,-6.820079638571922929e-05,-1.322688052423390314e-03,4.210238754749298096e-01
4.680844874926876620e-01,4.824537803452809692e-01,-3.095949893512950357e-02,1.132112038640345703e-03,1.241087550326982522e-07,6.815930460681025437e-04,5.063867568969726562e-01
4.667149868733896367e-01,4.738904414107214524e-01,-4.051247230458571158e-02,2.628177410288172998e-03,1.593337149225287571e-04,3.221027554403945933e-03,5.109037756919860840e-01
4.667503788839484358e-01,4.686854964560096537e-01,-3.664835030606050648e-02,9.318298416313983753e-04,3.954929429134125193e-03,4.181744470052209221e-03,5.044701695442199707e-01
4.689766742985220227e-01,4.715762767661493826e-01,-4.148972716247589787e-02,1.848582245545671559e-03,1.916309669439579229e-03,1.937315450275038393e-03,5.118029117584228516e-01
4.744353743842563143e-01,4.669218878178333365e-01,-3.153693134754714800e-02,-1.364594605998754222e-04,3.276354416307864685e-04,-1.444912549916967884e-03,5.022643208503723145e-01
3.770506060116737279e-01,5.114687650634116567e-01,-1.201005721059406062e-02,-3.132751441079854524e-03,1.909117445602858537e-03,-2.191941159402979733e-03,4.709437787532806396e-01
4.789249453332631301e-01,4.768348794588540551e-01,-2.728193560485570046e-02,-8.280000865392725612e-04,1.207199627690812467e-03,-1.617521399456207714e-03,5.051792263984680176e-01
4.787903806489280933e-01,4.749063425745471134e-01,-2.018712522286414401e-03,-1.692091405563207968e-03,2.357959403494159275e-03,-6.247302278139534558e-03,4.790275096893310547e-01
4.661601644590918636e-01,4.683306348803737973e-01,-4.064691652224544649e-02,1.552100725320321650e-03,1.113909998128361623e-04,2.223852002383126802e-03,5.079175233840942383e-01
5.983477700589452386e-01,2.150494294404232676e-01,-1.089023656961307651e-01,1.322963493298722759e-01,3.037123586351311508e-02,4.619698984787465323e-02,6.615960001945495605e-01
4.171598953727260195e-01,4.555618034853164966e-01,-1.947264785025470957e-02,-8.273204775287831478e-03,-1.420229616191353607e-02,-1.588844566437373415e-02,4.587570130825042725e-01
4.634663242875765032e-01,4.607191307324733920e-01,-3.888849155678675285e-02,-1.864953702742651158e-04,-2.962735728723228656e-03,-7.235918335211221231e-04,5.010148286819458008e-01
4.702506229349748823e-01,4.769621934306749744e-01,-3.000664835867972169e-02,-6.104368377116043028e-04,-1.217055189304333800e-03,8.337604164525753460e-04,5.036541819572448730e-01
4.691835357510807381e-01,4.828672407525315124e-01,-2.828360197005985732e-02,1.322324975342823805e-03,-2.850968145637390767e-03,3.547096908397416766e-03,5.045149922370910645e-01
4.779933022290133726e-01,4.453722563216394037e-01,-2.552227623568559256e-02,2.325747737762831700e-03,-5.522575593066959311e-03,8.022617818798405062e-03,4.883315265178680420e-01
4.601139799183572299e-01,4.805938124930504984e-01,-2.811940383864958148e-02,1.862933671237557121e-04,-3.914832540328992520e-03,2.124165700121306757e-03,4.988484978675842285e-01
4.795105945669971281e-01,4.519819179640694462e-01,-4.668103155872649346e-02,-7.080152661974328798e-02,3.289614186188483808e-02,5.765959509531849020e-02,5.398231148719787598e-01
4.655553094638443246e-01,4.641542704930008423e-01,-4.079996780363204234e-02,1.057119706076634471e-03,5.049536268805973740e-05,3.082231803829379633e-04,5.056598186492919922e-01
4.193573385631834682e-01,4.239292207296740944e-01,4.892088578662523446e-03,-2.543819128572776997e-04,9.133824603686464339e-04,-4.866031365664703749e-04,4.167740941047668457e-01
4.657635765073439016e-01,4.812748598313267290e-01,-2.764729888088196530e-02,-1.713846236359451315e-03,-1.099184748908518978e-03,2.318955114418218538e-03,5.013750195503234863e-01
4.624933279514862328e-01,4.795467192855241700e-01,-2.887272396170587063e-02,6.514362070538351522e-04,-3.475815093026786082e-03,3.941069296592993390e-03,5.001949667930603027e-01
4.858622447744854189e-01,3.763173427068615684e-01,-7.672502263370073461e-03,2.247173276960511695e-02,-7.338522758563690261e-03,1.114757555709769248e-02,4.511781334877014160e-01
5.373314848680208478e-01,4.225743009477505030e-01,-1.620558396086480002e-02,6.831743599897882602e-02,-5.216977941517699988e-03,4.829800374635182664e-02,5.264329910278320312e-01
4.650843441035331649e-01,4.711971256149307674e-01,-3.830840606086555189e-02,-3.456657609430434635e-03,5.001165466684042230e-03,7.872696794021546637e-03,5.067697167396545410e-01
4.895493484592980393e-01,3.679364063920146366e-01,-7.317543790558878047e-03,4.698258766224655547e-02,-1.062457496867747625e-02,8.630622074807428601e-03,4.565360546112060547e-01
5.175823935527299469e-01,4.131989535265037650e-01,-2.778485461179425187e-02,5.312338799609993972e-02,-2.096112158894548189e-02,3.719421228683850167e-02,5.151005983352661133e-01
4.809854401158637494e-01,4.785646166767769660e-01,-2.042167131016303649e-02,3.651071134348236186e-03,4.455834191962135087e-03,2.865005636226519714e-03,5.003252029418945312e-01
4.757825789009666462e-01,4.802391862325897653e-01,-2.322231875501434839e-02,9.236647852337374464e-04,-1.993292079186011288e-03,2.853439744969350246e-03,5.012868642807006836e-01
3.255268207698088778e-01,5.019564144979156151e-01,7.624575911753028734e-03,-1.614470486779411018e-02,-5.467079176718948625e-04,3.887998897123691455e-03,4.348618090152740479e-01
4.826938558993087991e-01,4.088538251121581202e-01,-1.924464010003934522e-02,1.822925871732705011e-02,-1.006581441973429004e-02,1.118768976298637960e-02,4.711770713329315186e-01
4.698241013784458797e-01,4.760676577424737821e-01,-3.151804087378551333e-02,-4.518413822846338796e-04,-2.993145708917173235e-04,1.510148455802927034e-04,5.044938325881958008e-01
4.713036624425026577e-01,4.776608514119313753e-01,-2.913666230306682925e-02,-2.677948357175540970e-04,-4.868814941139031570e-04,4.763285910002843936e-04,5.036506056785583496e-01
4.692825919254554057e-01,4.736107272325820183e-01,-3.005685978276789738e-02,1.047376992094726719e-03,-2.805947819944635668e-03,1.508976486207749173e-03,5.015511512756347656e-01
4.844000466387793358e-01,4.600405482129598100e-01,-3.550604038666321793e-02,-1.987225053225602760e-03,5.402555428232145782e-03,4.819991634726645408e-03,5.083307623863220215e-01
4.798978594365349570e-01,4.708749174852719932e-01,-3.609810338703078880e-02,3.406141322554610742e-03,1.442751677735791245e-03,7.848358849973515556e-04,5.115861296653747559e-01
4.563013231685980609e-01,4.646071898640051767e-01,-3.258418958947073563e-02,1.154726667977953782e-03,7.274946127072336611e-04,5.493380363933457119e-03,4.931883811950683594e-01
4.805688228430016196e-01,4.708366913804750142e-01,-3.421198793358321000e-02,3.103226016682869223e-03,2.676585015959641149e-03,4.907784165581799678e-04,5.100345015525817871e-01
5.400731414043552503e-01,2.903796904146727642e-01,7.498824175394103175e-03,-1.117913503434248392e-03,4.206803406928250923e-03,-2.612438120575281009e-03,4.616050422191619873e-01
4.788055699497122397e-01,4.721733722919263521e-01,-3.861191886785853011e-02,1.982308229666778117e-03,1.568544836530716934e-03,1.524475202254753055e-03,5.141589045524597168e-01
4.468535104187038032e-01,3.943756877723367804e-01,-5.782131444251104035e-03,-1.203382509330369436e-02,-1.411514201399533507e-02,-1.136208880333532296e-02,4.304637610912322998e-01
4.667542573088787061e-01,3.893805984862382386e-01,-1.210959133457145676e-02,-2.366522483687720849e-02,-1.293657738918320421e-02,-1.019431058180222038e-03,4.476953446865081787e-01
4.655088561086310750e-01,4.750873024078319240e-01,4.763698846124464481e-02,7.438167963639290281e-02,7.519242792433203024e-03,-3.067355805183551165e-02,4.453103840351104736e-01
4.677975354089462523e-01,4.014458272573455666e-01,-1.740744969199298220e-02,-1.878808322734524736e-02,-1.958862445902090008e-02,-1.974724365567653156e-02,4.593606591224670410e-01
4.734562089694269726e-01,4.049807612068188067e-01,-2.120832514902243338e-02,-1.167942067086011164e-02,-1.588868686406451694e-02,-1.040172760279586134e-02,4.658333063125610352e-01
4.498795288664089176e-01,4.196317228705128688e-01,-1.295796864501175261e-02,-9.209202145009868362e-03,-1.027816554680192375e-02,-5.523297798913394570e-03,4.492176771163940430e-01
4.680768771155098817e-01,4.715730788192007972e-01,-4.173551940030600926e-02,-5.747129719564352131e-05,8.027123805110377396e-04,2.618246753448023878e-03,5.115914344787597656e-01
1.707171710088256633e-01,6.257950219808038339e-01,-2.497870233759075242e-02,6.024479483581967471e-02,-1.296892198351432511e-02,2.339240356372992297e-02,5.894777774810791016e-01
2.311673118760994849e-01,5.583156818155072809e-01,3.642549582918763740e-03,-4.986267362851974638e-02,1.323374702657539523e-02,1.928811801968467049e-02,4.922685027122497559e-01
2.699505189150460116e-01,5.717591179088010733e-01,-1.129699702049463683e-02,1.671765862901826438e-02,1.599318071427296289e-02,3.090957265977685702e-03,5.066615939140319824e-01
2.936226786174764292e-01,5.512145737634297493e-01,-1.011366090044557575e-02,6.697407618116624564e-03,1.498954796529206046e-02,2.764794063372244624e-03,4.875253140926361084e-01
4.620164678114571100e-01,4.630160793495860516e-01,-3.948277895395968518e-02,2.941461063914019942e-04,-6.953987178113533920e-04,-9.457045175800916437e-04,5.020041465759277344e-01
4.621125488799925352e-01,4.617019474420610003e-01,-3.736578289730013713e-02,-6.164281213937126015e-04,-2.241550996606846667e-03,-2.166251308182678276e-03,4.993034899234771729e-01
4.596378154808946626e-01,4.591907999011123898e-01,-3.768895097014202111e-02,-6.038003081965161991e-04,-2.145934755288231646e-03,-2.028603515770947569e-03,4.971308112144470215e-01
4.745381945281704761e-01,6.759942273492050013e-01,5.623824333887550431e-02,1.540102067336548142e-01,-7.231656772505733188e-02,3.293223251522528483e-02,6.244425773620605469e-01
4.584694312634527980e-01,4.601497172689991144e-01,-3.769200457216503874e-02,-4.601184703105616288e-04,-1.982978093722592445e-03,-2.222800060988572302e-03,4.970311224460601807e-01
4.763771163033747036e-01,4.790531299964135847e-01,-2.912991223187316736e-02,-1.015080043440894347e-03,-6.446004488121678247e-04,-1.606964305860947035e-03,5.068622827529907227e-01
4.776700569608990365e-01,4.782792080671156576e-01,-2.819246378843370815e-02,-2.000673335879660686e-04,1.287020660517695708e-03,-1.537617156114405494e-03,5.061793923377990723e-01
4.724530739396938794e-01,4.788588702012400722e-01,-2.627038710113449582e-02,1.084204108538659115e-04,3.202258494760079621e-03,-3.894155691254379530e-03,5.020329952239990234e-01
4.770041986108634058e-01,4.752010808375818351e-01,-2.898589372965787447e-02,-1.572130784181101273e-03,-3.859242975498253822e-04,-1.659985634179926561e-03,5.051069259643554688e-01
4.585012157731761517e-01,4.649370605937361844e-01,-3.732496864520085111e-02,-1.589298191306770395e-03,7.189033166734219368e-03,4.384699683525104287e-03,4.992958903312683105e-01
4.316455485962166772e-01,4.421105221155677834e-01,-3.711073687766575091e-04,1.097320936265644940e-02,8.823868602746153022e-04,-9.327361854148545671e-04,4.377614855766296387e-01
4.161281408767977252e-01,4.553805730928011664e-01,-5.528034952214933018e-03,-9.236529386547606690e-03,1.952779809921083515e-03,1.280251838396765686e-02,4.434465169906616211e-01
4.725622365663609270e-01,4.670640527630010030e-01,-3.874548223118023937e-02,-7.896162919907911482e-05,1.942341908298552246e-03,7.779203623023857707e-04,5.085938572883605957e-01
4.693858753518029836e-01,4.759698128949575446e-01,-3.828751924612583402e-02,1.520385248307483264e-03,6.639231255756412138e-04,3.931806663483430886e-03,5.110506415367126465e-01
4.718791323181443786e-01,4.684694756496693424e-01,-4.130537999596767262e-02,1.793382454170323794e-03,2.095165472702600548e-03,1.757872249284601809e-03,5.115195512771606445e-01
4.730530339194181089e-01,4.667839982518497410e-01,-3.978720140410857420e-02,2.135172798886177115e-03,3.204536743915543766e-03,3.101352942577518027e-04,5.097785592079162598e-01
5.017081862542052129e-01,4.393538184455026974e-01,-2.476141206203208434e-02,-2.532310239655924302e-03,1.199264443278848322e-03,1.118667149891496406e-03,4.982548952102661133e-01
4.247665126787208978e-01,4.909592986745715537e-01,-3.005121441411273686e-02,-6.803038703279520524e-03,1.966423599777559345e-02,8.364606941210904478e-03,4.928033053874969482e-01
4.839546167231242313e-01,4.681655575560113025e-01,-2.966509136791090073e-02,1.128834404524026690e-03,-1.378128030304592334e-03,6.444471597027067768e-03,5.060425400733947754e-01
4.858482309956093648e-01,4.368424129290290336e-01,-2.299217801571490361e-02,4.005603200309504168e-03,-4.443020475757988343e-03,8.675246536888951004e-03,4.865358471870422363e-01
4.838463481949886180e-01,4.707174859112803755e-01,-2.254247627116173769e-02,4.864366967548867590e-03,-4.212183593462938934e-03,9.190772013876264551e-03,5.003312230110168457e-01
5.376817528871383756e-01,3.576356204007510864e-01,-1.540598622648148286e-02,3.191798776754359301e-02,-3.014492230710795646e-03,3.912052820532296860e-02,4.964031875133514404e-01
4.446937267209476463e-01,4.305554611716854718e-01,-1.372052299380865925e-03,8.043561934620553980e-03,3.621205076013524204e-03,-1.970337235718435233e-04,4.394331872463226318e-01
5.282329091353618056e-01,3.168454390344082605e-01,-1.898305302365038694e-02,5.936637600186206454e-02,-1.372985824722147523e-02,5.111844111725532408e-02,4.974266588687896729e-01
5.305545168481222706e-01,3.638137472622638979e-01,-2.006308350911201188e-02,-2.492138007499859753e-03,8.637835329891345101e-03,2.604990583547658542e-02,4.913757145404815674e-01
5.491354380124967571e-01,3.058236551901134526e-01,-4.133866728009583102e-03,-4.978184400243312532e-03,5.798138767123587299e-03,1.998194629109339635e-02,4.817298352718353271e-01
5.396748322770907880e-01,3.120721695853554412e-01,-4.960837725444311452e-03,-2.609919362447467653e-02,1.669606173084672157e-02,7.202257534969865038e-02,4.928610324859619141e-01
5.564066425476462685e-01,2.350723789802617869e-01,-7.889649901542450383e-03,-2.942604814201904215e-02,9.220896028250448115e-03,2.416492237532040857e-02,4.949372410774230957e-01
4.634628631053542280e-01,4.841950618104147175e-01,-3.149846234659242628e-02,4.423774318129295260e-04,-2.540134071063500452e-03,1.682809992336480520e-03,5.056744217872619629e-01
3.521392329507651020e-01,4.746672121131250144e-01,7.123903157071453940e-03,-5.491948023820864694e-02,-9.596330453507689873e-03,-4.338166968211241287e-03,4.309337437152862549e-01
4.749370367204184817e-01,4.693839711331329045e-01,-3.114242758740015660e-02,-5.880484634462330822e-04,7.627069248297950064e-05,-1.123545196801024795e-03,5.033307075500488281e-01
4.732192841942194361e-01,4.671886018465970514e-01,-2.967670012710987848e-02,5.611323878267738359e-04,1.213923505658687447e-03,-2.037729434454352544e-03,4.999257624149322510e-01
2.675855612043665510e-01,5.364812170705914873e-01,3.528270288016777112e-03,-1.167031088592084855e-02,-2.717125045384259641e-02,-2.806519787275034601e-03,4.644157886505126953e-01
4.627638511055311987e-01,4.968370575712702797e-01,-3.464537137025580638e-02,-3.051402649574293160e-03,-1.547143933840751211e-03,5.967729868597214729e-03,5.154291391372680664e-01
2.782094317491075053e-01,5.372433393129754098e-01,-7.854169965584301139e-03,-3.918601619151915183e-02,-2.286776370241905276e-02,-1.162661876117840679e-02,4.791785478591918945e-01
4.752430336810973266e-01,4.794439877905147807e-01,-2.923597468273564370e-02,-2.166545687997684783e-04,-8.810606284012271290e-04,-7.964879692862610831e-04,5.065968632698059082e-01
3.234359402513160564e-01,5.352989421435465633e-01,-7.780013041436162347e-03,-6.587414776460562282e-03,-2.151345615274082024e-02,-3.511108705189467348e-03,4.757288992404937744e-01
2.988850654196816281e-01,5.177768996724447792e-01,1.810777619249859249e-03,-3.268932302628953235e-02,-1.361399266311379315e-02,-1.679783951324205146e-02,4.536542892456054688e-01
3.434618205014764447e-01,4.977102311904181287e-01,-7.671274093301760910e-03,-1.794246810544131848e-02,-1.415765049075698619e-02,-1.288510262720534913e-02,4.509034752845764160e-01
5.866114318443602649e-01,2.639040300152848961e-01,1.645175774396334667e-02,2.394596557905937645e-02,-1.383241181760672296e-02,-5.319165285133641008e-02,5.059739947319030762e-01
4.566148433908102100e-01,4.809233224272038143e-01,-3.475133533052410240e-02,1.358714401521596803e-03,2.569545984544428958e-04,7.814859754601147582e-03,5.041477084159851074e-01
4.763997204369211369e-01,4.792809266828896853e-01,-2.945962558914527740e-02,9.785728680845220528e-04,1.376249710734116054e-03,1.585223623431630726e-03,5.073219537734985352e-01
4.728199867873549844e-01,4.810010210202242398e-01,-3.618763122471052585e-02,1.730402294953210752e-03,-1.328501850076089759e-03,6.426692591284947128e-04,5.131621956825256348e-01
4.728542270378490731e-01,4.794205347181638155e-01,-3.840033479425536411e-02,2.393692052091771650e-03,1.982509090339510966e-03,9.608169577924952423e-04,5.145999789237976074e-01
4.630168121893443178e-01,4.593615227095561027e-01,-3.346034615280268909e-02,4.301705160337098051e-03,5.929637087308955827e-03,1.011777407057613039e-03,4.948254525661468506e-01
4.735080952592553016e-01,4.789589394808042577e-01,-3.071517974668008799e-02,2.564871025765287724e-03,-2.269803559560023675e-03,2.509733913024066610e-03,5.070239901542663574e-01
4.596909809878436670e-01,4.834371856059690997e-01,-2.880130070101616369e-02,2.917212042937651129e-04,-3.205770076389855526e-03,3.620301992702407937e-03,5.008581280708312988e-01
4.680278100506393146e-01,4.749438560665267262e-01,-2.837016066510406054e-02,1.929312027480858602e-03,-2.794834480726573079e-03,3.364025308704820367e-04,4.999268352985382080e-01
4.695818054777857187e-01,4.786183643541568888e-01,-1.620507436650397981e-02,9.750925286083832427e-05,1.511375342473112067e-03,2.218213628765551039e-03,4.903896749019622803e-01
4.712026188161089757e-01,4.805742853851586727e-01,-1.990112637780400151e-02,-1.862093971851117372e-03,2.870455706650768338e-03,6.353465475295280761e-04,4.958926439285278320e-01
4.802376421147638297e-01,4.765170096564857460e-01,-2.692849709556910387e-02,2.076413748356326929e-04,7.605865848102347964e-04,-1.447498956451931948e-03,5.053241848945617676e-01
4.660748956610980542e-01,4.800335179723368983e-01,-2.675500373395195419e-02,9.393521858477368999e-04,-1.010205586610341162e-03,-5.619860182432149208e-03,5.000558495521545410e-01
4.443868606445732228e-01,4.587175546575497087e-01,-1.838496670978634340e-02,8.364066014606066218e-03,-8.573314626493161233e-04,4.949926548429403779e-03,4.704046845436096191e-01
4.786361270919677890e-01,4.743823330536506289e-01,-2.734977767683804961e-02,-2.826978988470138163e-03,1.832561930496646877e-03,-1.879260818154779604e-03,5.039168000221252441e-01
4.655602926017552434e-01,4.817090027841489652e-01,-7.303979320986697665e-03,6.577493040667621192e-04,-4.696794334996341660e-04,-2.257371774354882937e-03,4.811598360538482666e-01
4.205012977869649893e-01,4.932406795740444938e-01,-1.344025442191665309e-02,7.934218473473886660e-03,-1.072175036404263322e-02,4.771293681049487874e-03,4.751451909542083740e-01
4.726969362840591771e-01,4.684004099504497920e-01,-3.120978253722950235e-02,-8.632522699020650069e-04,-1.919249980767710523e-04,-6.052472673256352074e-04,5.017756819725036621e-01
4.629459447948753859e-01,4.793517527077366114e-01,-1.091600165101769271e-02,-2.220956620868089638e-03,2.506134059053446734e-03,8.087969777633795656e-04,4.823110997676849365e-01
4.524511359826802193e-01,5.623487015354393659e-01,-1.090152271543548546e-02,4.251533861805944364e-02,-2.506190186999483413e-02,-1.011913441920714134e-03,5.338581204414367676e-01
3.249995886518359800e-01,5.611282958586590874e-01,3.719582130638515727e-02,8.811277445015960885e-02,-5.571597075523569004e-02,3.515465649613434135e-02,4.928067028522491455e-01
4.003007122131813089e-01,5.502872547172621420e-01,-1.751943515086229475e-02,7.284372448529469191e-02,-3.647903030051499740e-02,5.623002768678162996e-03,5.289070606231689453e-01
4.393887333297996078e-01,4.926243332328320568e-01,-2.280437532646700793e-02,1.571205711936188992e-02,-2.055679889686157918e-02,2.561225112923668987e-03,4.930412471294403076e-01
4.804507113219640968e-01,4.795118091617117662e-01,-2.860070874976788913e-02,1.687524221649970221e-03,2.336752340526847705e-03,-1.152775329615467496e-03,5.086110234260559082e-01
6.219546674292349975e-01,2.527924509913799245e-01,1.800411880776420226e-02,2.255448238718746334e-02,2.980486960307695068e-02,-9.918212447909875717e-02,5.583758950233459473e-01
4.888087853556644102e-01,4.858697057766528937e-01,-1.326009019658169752e-02,5.075893693465244327e-02,-4.001540006111425907e-02,3.458511156247436741e-02,5.164568424224853516e-01
4.387110589072149569e-01,5.161521832636224438e-01,-2.876924307023354110e-02,2.126123435822749319e-02,-2.124480576065525261e-02,9.562370963704158733e-03,5.135383605957031250e-01
4.798534187704318610e-01,4.798954183774327698e-01,-2.588413243690290688e-02,-7.078538908829600006e-04,-1.040953061723698479e-03,2.029787100737677659e-03,5.057754516601562500e-01
4.831649714123226191e-01,4.704768020656611149e-01,-2.534816184308608111e-02,3.616493846565224337e-05,-2.348536378244854735e-03,2.095715997089001373e-03,5.023188591003417969e-01
4.816889914910808534e-01,4.746566171731309014e-01,-3.076793576214709169e-02,8.336906395004489018e-04,-5.700399478947477689e-04,-8.867759798684037758e-04,5.089824795722961426e-01
4.748768371940250144e-01,4.682681234846282070e-01,-3.067454932625390818e-02,-9.387952586296196460e-04,1.074455082456226944e-03,-6.174918116113011293e-04,5.022868514060974121e-01
4.800622868972241331e-01,4.830743831414431311e-01,-1.599981365612568318e-02,1.786218989844507582e-03,-2.237041232065377640e-05,4.229116271387757531e-03,4.976385235786437988e-01
4.384411902909265413e-01,4.470815661030732580e-01,-4.021815285912277993e-03,1.390261706412072992e-03,-2.400236303886200528e-03,3.618043076559828396e-03,4.469156265258789062e-01
4.512022775969837807e-01,4.553696314112518628e-01,-1.312880148283224191e-02,1.458240632283559464e-03,-3.733607147512399763e-03,3.264029384882157284e-03,4.665146470069885254e-01
4.476173473232120115e-01,4.437984689576462971e-01,-8.897729976333645929e-03,8.327623140498278953e-03,-4.964762907118647726e-03,6.433912771923067531e-04,4.549290835857391357e-01
4.778454944352856781e-01,4.751815292599196328e-01,-2.908092443795889936e-02,-7.765688272993397610e-04,4.183189483672541281e-04,-3.933751202782703044e-03,5.056478977203369141e-01
4.370500998479849297e-01,4.874630136084477927e-01,-1.955385549677313151e-02,4.094140640533564142e-03,-2.359282036267843202e-03,-7.073476827853189194e-03,4.840087294578552246e-01
4.778895359516011077e-01,4.756690611201959129e-01,-2.855432643820654537e-02,-4.155255398474427667e-04,-5.750776429459670928e-04,-4.795156383494871347e-03,5.054070353507995605e-01
4.197025670286417820e-01,4.688637619539581802e-01,-3.417267685707381375e-03,3.864543856218317919e-02,3.175527339786801597e-03,1.057034679415662717e-02,4.550759792327880859e-01
4.778632823410206010e-01,4.716719748113769595e-01,-2.772455099810494650e-02,-7.563068816253368546e-04,-1.472857596037997329e-03,-7.034153088708206165e-04,5.025304555892944336e-01
4.777754747858461992e-01,4.737775733134440559e-01,-2.689455198317325380e-02,-1.078376525796003772e-03,-1.302679709508229025e-03,-1.876764999327694547e-03,5.027020573616027832e-01
4.873598230039610790e-01,4.373638390309971813e-01,-2.231983539552317986e-02,3.735415141174771810e-04,1.112223211139015851e-03,-2.040873378154492868e-03,4.866288602352142334e-01
4.801973758417570903e-01,4.838754757752231628e-01,-2.843193725823878193e-02,2.088233787312055497e-03,1.957826520363165068e-03,-3.234884977365761610e-03,5.105330944061279297e-01
4.758410605415141492e-01,4.615317235727579570e-01,-2.727035910086034187e-02,-1.751359266814474073e-04,4.207142795342997711e-03,-3.276116306104454316e-04,4.961654841899871826e-01
4.714685395399843548e-01,4.797320933583205105e-01,-2.831924142862052296e-02,2.055413912086388913e-03,3.672981816284875273e-03,-3.575771461884813106e-03,5.040611624717712402e-01
4.800773820351524890e-01,4.793217808271837965e-01,-2.688686853576405245e-02,1.403228793185140686e-03,1.552427663514008597e-03,-5.580911294338475716e-04,5.066007375717163086e-01
4.823217527387992920e-01,4.222024649919199901e-01,-2.226247542507769905e-02,2.495772259393106915e-02,1.493339150259234173e-02,-1.836883651135145373e-02,4.810761511325836182e-01
4.882098883484610186e-01,4.375024520012626983e-01,-1.944923415906690822e-02,1.339821032474115131e-02,9.519814505184185857e-03,-1.202039461412937604e-02,4.855829775333404541e-01
4.483357283562803275e-01,4.747135775714773076e-01,-1.773518107268257094e-02,4.694544843251480942e-03,7.774074110291403356e-04,-6.645683765808053575e-03,4.800127744674682617e-01
5.282455810644708372e-01,4.031258500247683063e-01,-1.629436482927604235e-02,7.990807635810780055e-04,1.373425679666613304e-03,-2.174497210479689469e-02,4.954514205455780029e-01
4.982241370303948647e-01,4.384131950324186011e-01,-2.521652512509103827e-02,7.262292265118449816e-03,4.281854950570661983e-03,-3.276102598866508821e-03,4.964931309223175049e-01
4.901440650061134052e-01,4.045768166328520543e-01,-1.743256530154818629e-02,1.017517168907719136e-02,1.056708958544539875e-02,-1.209672857823447176e-02,4.718139767646789551e-01
4.375879852518220758e-01,4.677934730842671085e-01,-1.826496034872021612e-02,4.165324470800995174e-03,2.067322488818148954e-04,7.038478187060603040e-03,4.718944132328033447e-01
5.022761709810066311e-01,3.916350233192883445e-01,-2.133702595895942133e-02,1.812675000245223900e-03,6.631381052747827368e-03,-1.872292770648324028e-02,4.792415797710418701e-01
4.851925158570311591e-01,4.582091388443878532e-01,-1.848714812538709840e-02,6.552599644289831653e-03,1.035636481856489800e-02,-7.286814806077220562e-03,4.913656413555145264e-01
5.020775505102414993e-01,4.195253795967857080e-01,-2.362462582648411358e-02,9.760357295213839372e-04,4.264095146823099550e-03,2.258353324285195321e-03,4.897473752498626709e-01
4.715257061056470911e-01,4.085129234031946721e-01,-1.900867047555221401e-02,-6.107422681549898313e-02,2.415232534214583476e-02,3.673190403670903437e-02,4.802837967872619629e-01
4.698916375673041212e-01,4.331736573157218828e-01,-3.628385521441862549e-02,-5.455548220011034732e-02,4.493029935985773382e-02,4.924132293191377241e-02,5.111118555068969727e-01
4.737564289539050733e-01,4.663398106219681649e-01,-2.944222505620153196e-02,6.638064887963858202e-04,2.653887905835795868e-03,-1.987778104226467241e-03,4.995659887790679932e-01
5.062677426357681254e-01,4.788785118419537912e-01,-2.181804624670574677e-02,1.028053087488999505e-02,2.278064549581853074e-02,4.275986905791861331e-02,5.220345258712768555e-01
5.086380847286803286e-01,4.774552316195950219e-01,-1.989243634515902581e-02,-4.227209350548035913e-03,4.892232572674818508e-02,3.967927127450490699e-02,5.251598954200744629e-01
4.747914444480024754e-01,4.699318603979915632e-01,-3.179404525249068802e-02,-3.792777105278339104e-04,5.798580600105875810e-04,-7.714826950396846440e-04,5.041764378547668457e-01
6.209722281125842347e-01,1.072440632817291822e-01,-3.484500167042531293e-02,-5.413043846741005111e-02,5.218493635913492266e-03,-2.868418975359647832e-03,6.049774885177612305e-01
4.977469639872525997e-01,3.798035260546814840e-01,-1.438905818919494761e-02,-1.126076807759450286e-02,2.129424031350313565e-02,1.732204090950660927e-02,4.673668742179870605e-01
4.825035709494368552e-01,4.298405240771721036e-01,-3.306041504534440456e-02,-8.418266178379736533e-04,1.237680314725023850e-02,1.313423125394224886e-02,4.923491179943084717e-01
4.855999684710329278e-01,3.829204890242398074e-01,-1.436669321118072551e-02,-1.445315736799469147e-02,2.440349906964377549e-02,2.009617954289815919e-02,4.613006114959716797e-01
4.408920335336050655e-01,4.548098371645196702e-01,-1.728485667615015098e-02,6.913122526554778356e-04,1.455524514345260968e-03,7.778833968536491214e-03,4.654953181743621826e-01
4.755068234034856567e-01,4.698415123029176521e-01,-3.146711886342912212e-02,-3.639723683286646104e-04,5.172455835671825857e-04,-3.849533519892579434e-04,5.041667819023132324e-01
4.678654131173886066e-01,4.806742124485235967e-01,-2.853622940563882437e-02,2.916290182453632699e-03,3.940823286664314230e-03,1.516193053121890448e-03,5.030069351196289062e-01
4.750956340366340735e-01,4.800602783593175271e-01,-2.846105260844566942e-02,1.784365850028596552e-03,-2.822039291095276067e-03,-4.195257245025061309e-04,5.060908198356628418e-01
4.720969291671880397e-01,4.805009386964537166e-01,-3.337738035835274841e-02,3.309052066173660128e-03,-2.198264972447082236e-04,1.489900812698024494e-03,5.097671747207641602e-01
4.763861208209433373e-01,4.800424871173311070e-01,-3.264916920546034884e-02,1.930203673910047468e-03,2.125327365447221301e-03,6.564358632549112383e-05,5.108975172042846680e-01
5.303278833730580288e-01,3.133607143324563249e-01,-4.979098125323605517e-02,-2.142535644803688910e-01,-5.144773456995684058e-02,-3.672836611819831759e-02,6.383159160614013672e-01
4.788792511410481789e-01,4.812058762054939320e-01,-2.816354344399124576e-02,1.393557129538953044e-03,2.263549691482610871e-03,-5.078914643548180721e-06,5.082309842109680176e-01
4.621836733598442826e-01,4.804697889514483178e-01,-3.483409766620160219e-02,4.617991757100793409e-04,5.952047798928612743e-03,8.168726369495600201e-03,5.067116022109985352e-01
4.653150255343316832e-01,4.699846229060067326e-01,-3.512271048932391615e-02,-2.365980473460613763e-03,4.869101649785661720e-03,7.357160392315257279e-03,5.030376315116882324e-01
2.775052379426146132e-01,6.757133092220815040e-01,-2.611936682958282407e-03,-8.338311278425794559e-02,6.770733578892797200e-02,6.880611718326587467e-02,6.303920745849609375e-01
4.585381758181572565e-01,4.767075223628622349e-01,-3.811781839450972820e-02,-2.980474679747619187e-03,4.365551646447755202e-03,6.647820033311135565e-03,5.061991810798645020e-01
4.785041768396179340e-01,4.795349477216983014e-01,-2.592631255926453049e-02,3.743912032315754358e-05,-3.885918057045165933e-04,1.462428860465272810e-03,5.049534440040588379e-01
4.662812171542126682e-01,4.741196049911719501e-01,-3.999782593130141173e-02,9.020047753272611392e-05,9.493362727044545642e-04,2.138933973003586536e-03,5.102595090866088867e-01
4.676708568733720095e-01,4.771851394513023092e-01,-3.976647227719737332e-02,2.495498121445201192e-03,1.943466388609044930e-03,3.316473602108009622e-03,5.123222470283508301e-01
4.149739378681331359e-01,5.002037419120435313e-01,3.245474342283505287e-03,2.647086054282953710e-02,2.660120448152800826e-02,-9.989768515109122618e-05,4.648666381835937500e-01
5.087314979894312916e-01,5.044738624671707417e-01,3.889360379814249535e-02,2.367830202978433302e-02,-2.418173181108360104e-02,1.415248093812401884e-03,4.713890552520751953e-01
4.657947292511935844e-01,4.559937387238622852e-01,-1.791273781015723099e-02,4.107207324061670599e-03,-4.638335089242526937e-03,1.180233542496445702e-03,4.790067672729492188e-01
5.007449929607402650e-01,4.711502131202839894e-01,6.654599110292813702e-03,5.466879955297138799e-02,-2.226198494273476727e-02,-2.254961844275234911e-02,4.922976195812225342e-01
5.059473364256715788e-01,4.711218739942308886e-01,3.299180690126113369e-02,2.830671025757311096e-02,-2.001393246656574948e-02,-2.870789845058268914e-03,4.604986906051635742e-01
4.857638082367634613e-01,4.066229777510650956e-01,-2.455539397876799201e-02,-3.440571277051465010e-03,-1.264997342687174640e-02,4.362040315788558902e-04,4.762541651725769043e-01
4.691594669063945400e-01,4.716788022992832174e-01,9.889598014408076954e-02,3.822285853612975362e-03,-7.818804533517780680e-03,-3.819664349237125722e-03,3.718940913677215576e-01
4.623189802130541759e-01,4.844294931242056901e-01,-2.772947151425769752e-02,-2.085597710201621377e-04,-7.923225357385440572e-04,-3.494506594897309887e-03,5.015079379081726074e-01
4.841964985346621786e-01,4.985231423574749132e-01,5.829236864659637085e-03,5.860083748677019644e-02,3.429000167260496529e-02,-5.180964456178256336e-03,4.998039603233337402e-01
4.577341950103974155e-01,4.708001291827375590e-01,-2.031170094615603050e-02,2.709843553690010481e-03,1.040601558923074862e-03,7.371156676250339816e-03,4.849051535129547119e-01
5.018956421417613001e-01,4.040605796054740906e-01,-1.910203132494819878e-02,6.825217089773591081e-03,6.418130955823411928e-03,-6.773990109230068266e-03,4.800410568714141846e-01
5.054813177527445189e-01,4.584158078713322926e-01,3.703726435819326701e-02,1.509421884493087306e-02,-1.410174914414577367e-02,-4.313831316506794473e-03,4.482670426368713379e-01
5.317406102419010017e-01,3.582896905178826752e-01,-2.152993018846754980e-02,4.387303927291544975e-02,2.488397703346454520e-02,-1.968842294485727284e-02,4.990223348140716553e-01
3.788258841908784813e-01,4.626387196140359093e-01,5.203937407458503195e-03,-1.204049666049795270e-02,-1.910289583903272866e-03,-5.568145685405473735e-03,4.224584698677062988e-01
4.248020618015295735e-01,4.950745778834578781e-01,-2.083896729476958365e-02,-4.922363004868688698e-03,-7.527076631495889817e-04,1.699652339278887384e-02,4.855836629867553711e-01
5.264945642505249879e-01,2.976790773085193909e-01,3.788616466211869316e-03,4.512094576334965343e-03,4.165621971294706551e-03,-2.187880082261965155e-03,4.539849162101745605e-01
4.716079169202075372e-01,4.744979746167157786e-01,-2.817794730702211092e-02,9.254207413625631764e-04,2.830015612245671223e-03,-3.634094206256500200e-03,5.013031959533691406e-01
5.259519320614848281e-01,3.259155468488442731e-01,-8.049877359267987309e-04,2.411481532481209167e-02,6.486132934515153117e-03,-1.760967535690117006e-02,4.635924398899078369e-01
3.314643662310754468e-01,5.155047511489445622e-01,-5.340580713657727685e-03,-8.320009432948487563e-03,-7.695545338525773636e-04,2.962696080684442974e-03,4.577443897724151611e-01
4.780842459753334439e-01,4.767028797509249571e-01,6.023475684296175636e-03,-1.549842910016853382e-03,3.945417128172236387e-03,-5.482004516131689861e-03,4.715243875980377197e-01
4.428831044676277973e-01,4.410825118432676883e-01,-2.472443245811306589e-03,1.560324165949336650e-02,6.310773708554509760e-03,-6.236028208668686294e-04,4.454143345355987549e-01
4.825354863020645535e-01,4.768833748884707679e-01,-2.043118849535041637e-02,3.577712239952262306e-03,3.939420958126407107e-03,3.430720563831159229e-03,5.002847909927368164e-01
4.805590061588672635e-01,4.746549072381130441e-01,-2.266083406874702666e-02,-1.738956573451620660e-03,1.808086991280229757e-03,4.474193311364846131e-04,5.003134012222290039e-01
4.451655072481465747e-01,4.493065405823514769e-01,-1.340748198560515192e-02,6.284225645502605415e-03,-3.501886341419608358e-03,2.974033228565111341e-03,4.608547389507293701e-01
4.668529744757076161e-01,4.706987933773336685e-01,-2.677160719177329451e-02,2.026637447960717969e-03,6.489613054942352242e-05,-2.784223903490382936e-03,4.955945909023284912e-01
5.284224071118787114e-01,3.558132753937151560e-01,-1.421817760553817367e-02,1.383753793525198048e-02,1.397315228346132990e-02,-6.279153656680992561e-03,4.815251529216766357e-01
5.031067812409266704e-01,3.691105261846021057e-01,4.379140309346829518e-04,3.403176293614752074e-02,1.204947851851591312e-02,-1.002689168713872744e-02,4.555073082447052002e-01
4.770100033200211920e-01,4.712086249239827440e-01,-2.696853278226013506e-02,-7.343926640731702040e-04,3.960669839604660152e-05,-2.024001268029248634e-03,5.011169314384460449e-01
5.195238847132720439e-01,3.405566773281578641e-01,-1.394326911445586958e-03,2.731207096080282698e-02,3.343334299084855729e-03,-1.283793357132028204e-02,4.614364504814147949e-01
4.769150764683481869e-01,4.687715837576846845e-01,-2.976919444796044534e-02,-1.389338729717049534e-03,1.277437272053647595e-03,-2.246820874419215705e-04,5.026727914810180664e-01
4.920742153999823065e-01,5.839909987081493004e-01,-1.262369932280116291e-02,2.198094163095371256e-01,5.840685331352667847e-02,-6.900457746854805896e-03,6.818242669105529785e-01
3.480217992643752090e-01,4.842941293911744438e-01,-4.335338826287671310e-03,5.609425680715036250e-02,1.759153718176553662e-03,9.951874241461359030e-03,4.477592408657073975e-01
4.404496296545641343e-01,4.555208668767639635e-01,-5.832746030015822924e-03,9.289970673021634776e-03,1.650072293609027322e-03,-7.422033806990109908e-03,4.544815421104431152e-01
2.489912611524385255e-01,5.413607061354186456e-01,-8.932724193277896685e-03,1.199778576685669174e-01,-7.218814844247678497e-02,2.701433887311988774e-02,5.370479822158813477e-01
2.551477547210752039e-01,6.071526755169321943e-01,-8.167176126727121455e-02,1.607460168492833297e-01,4.778142805021982908e-02,3.287725813012248172e-02,6.659780740737915039e-01
4.742764908238531474e-01,4.695226907957491536e-01,-3.103077450936680970e-02,6.545219365353856233e-04,4.218006217955262618e-04,7.563334845848136316e-08,5.029489994049072266e-01
3.005781480455519961e-01,5.151715029048860028e-01,-2.531878329034992214e-02,1.812605509412351656e-01,7.830413286588887864e-04,1.725020431549997499e-02,5.671464800834655762e-01
3.998087674957229720e-01,4.785463703869676788e-01,-6.962014976435448865e-03,9.660590315529285141e-03,1.555653872402706439e-03,-8.256959191911984047e-03,4.518650472164154053e-01
4.208215472929009993e-01,5.903649152418591894e-01,-8.967301783114756120e-02,2.615992230796989060e-01,-1.209599323192892331e-02,2.361105398193348581e-02,7.637502551078796387e-01
3.944027866247521441e-01,5.413432809273810431e-01,-1.618563082235119355e-02,1.067709784270323981e-01,3.660482196175195505e-03,1.537519500366943577e-02,5.342807769775390625e-01
3.112192340118004052e-01,5.567902307130740969e-01,-1.090782577009952181e-02,4.538101272630330751e-02,-2.974570036024197853e-02,1.429246560834832470e-03,5.020108222961425781e-01
3.173443677568418830e-01,5.341767311491991688e-01,-1.163562756414870947e-02,4.895948253120095683e-02,-2.268604359899738937e-02,2.211661835113380367e-02,4.866005778312683105e-01
4.482273216034957097e-01,4.703337506456195527e-01,-1.985316073221310429e-02,-2.549546825600125782e-03,-2.738864548053503763e-03,7.416115814314372910e-03,4.797318279743194580e-01
4.298945459179829287e-01,5.064551141434475712e-01,-2.492781646559560915e-02,-1.384723795793032196e-03,1.342397345150098467e-02,-1.050190221373474130e-03,4.980923831462860107e-01
4.026160602896239338e-01,4.427118783325122431e-01,-1.380229442788571959e-02,-3.593075783208889151e-02,-2.274354745551255413e-02,-2.128668705444508591e-02,4.455252885818481445e-01
3.582173872180958729e-01,5.060411304261180909e-01,-2.125222692464195928e-02,-2.776098874100271785e-02,1.858001685724001290e-02,1.257992187236391980e-02,4.751484990119934082e-01
4.410219322980173384e-01,4.927234803302934507e-01,-2.867379795794844366e-02,1.223443874788532467e-03,-2.910593030233307450e-04,6.624444956367298888e-03,4.977022409439086914e-01
4.181900531993058001e-01,5.593704418939169365e-01,-3.876652031133520637e-02,-1.153986295823907458e-02,2.141035548185669588e-02,1.280714382744374373e-02,5.436187386512756348e-01
4.387164847636226828e-01,4.163065840065222067e-01,-1.267811861815076879e-02,-1.818542020741930124e-02,1.574096695246020652e-02,8.054301757938350792e-03,4.428020417690277100e-01
4.628556781265769082e-01,4.962020323088082718e-01,-2.161428098844847545e-02,9.290640258194956050e-03,4.877697662030742141e-03,8.264165166422841186e-03,5.025073289871215820e-01
4.667001883304506826e-01,4.508890799164900764e-01,-1.952680079044782913e-02,6.475429273611170607e-03,-6.738324601419098947e-03,8.332237381814250993e-05,4.787910878658294678e-01
4.391485685709048403e-01,4.991571166785194746e-01,-2.866476672327161745e-02,-3.429094778027069572e-03,-1.151339793365362043e-03,2.000203672504344624e-03,5.005740523338317871e-01
3.644562502731081288e-01,5.051248986362386617e-01,-2.094567122236778989e-02,-2.746029382492084971e-03,2.605277249437093837e-02,1.238799562561395361e-02,4.744001626968383789e-01
4.837420194770096216e-01,4.588161200676941220e-01,-3.087792993484961279e-02,-3.452699898218658785e-03,8.885693305419190002e-03,9.451862100375440709e-03,5.031582713127136230e-01
4.816183870032348935e-01,4.348648272164034045e-01,-3.302587818608565540e-02,-9.529224341578606747e-03,1.287602351066048124e-02,8.041382737579974224e-03,4.939098656177520752e-01
4.840493300298778223e-01,4.514994697417277214e-01,-3.257067089396320503e-02,1.055516561759492489e-03,1.148565500556579522e-02,3.320058482897838116e-04,5.015369057655334473e-01
4.827679730187592888e-01,4.675347525365142198e-01,-3.179428832231129265e-02,2.151740826443708683e-03,1.341775994567216863e-02,1.257924581838019799e-02,5.081305503845214844e-01
4.088878879523499821e-01,4.690543079182809549e-01,2.195761556276765170e-04,-6.887769039043288750e-03,5.186494558777402213e-04,1.768193236182089706e-02,4.430564045906066895e-01
4.827745814763783061e-01,4.676065427647234096e-01,-1.499424066337623485e-02,3.616881078728243631e-02,-1.310197038978933547e-02,1.055609532193213431e-03,4.948702454566955566e-01
4.896006654317393014e-01,4.123052416209919691e-01,-2.516083863873952442e-02,-9.307997202279936003e-03,9.386071671211587350e-03,-6.640003268657587287e-04,4.813427329063415527e-01
5.016515857890556651e-01,4.292665539371495198e-01,-4.859665239554550320e-02,-2.033418211320482324e-02,2.557045513882907906e-02,3.407202510708614435e-02,5.242782235145568848e-01
4.795389108065225003e-01,3.902210178586135725e-01,-1.740658537651007531e-02,-1.167861371417911256e-02,1.862736674993226149e-02,1.398017397799177809e-02,4.610670506954193115e-01
4.722043297835277209e-01,4.761045392989717295e-01,5.204796126854960292e-02,7.364529894826193912e-03,4.069760183283911877e-03,5.168605545662329284e-03,4.224663674831390381e-01
4.365424335118396337e-01,4.851968331340902885e-01,-2.812011482998993950e-02,-1.194376888323889739e-02,3.425996425346702207e-02,2.877202101144307397e-02,4.973118603229522705e-01
4.712969366631311052e-01,4.746233620419431087e-01,-2.575412186368403189e-02,3.617642489782403831e-05,-4.315446643472553578e-03,1.603989916486873914e-03,4.987863302230834961e-01
5.014559137838636715e-01,3.407643209912950000e-01,-7.333469087034361067e-03,-1.417675858639477933e-02,-1.091667344696743529e-02,-1.108051617956925389e-02,4.519502818584442139e-01
4.774116393013968507e-01,4.767873557374814331e-01,-8.004503647067784389e-03,-1.245643700413140518e-03,2.504252650941885244e-03,-1.694672905969648626e-03,4.851373732089996338e-01
4.721538108102423248e-01,4.737184410337439977e-01,-2.898379872168738158e-02,6.903513327024414069e-04,-4.851056005542146894e-03,2.620909243961867027e-03,5.020140409469604492e-01
4.386789334402545482e-01,4.460699371047506245e-01,-2.104729142374306416e-03,1.820234613543898414e-02,-6.828129447548417219e-03,6.310807698038426415e-03,4.459327459335327148e-01
4.310305481426693897e-01,4.480268826023328099e-01,-4.391135458921335832e-03,9.856542995957095696e-03,-2.398330128345137636e-03,3.609097505553298790e-03,4.445551335811614990e-01
4.269487866283746547e-01,4.484861619034886671e-01,2.364864692847024052e-04,9.658287065977183561e-03,-4.763366897860447447e-04,2.384585895681022669e-03,4.382180869579315186e-01
4.056373957797367313e-01,5.111435792151155511e-01,-2.295774407009160134e-02,-4.878988706144464851e-03,-5.230453909264012533e-04,8.596956606498146192e-03,4.902435541152954102e-01
3.514967710460046302e-01,4.991831579498852700e-01,6.827028528721967859e-06,-1.429752906932272791e-02,4.398671169378998288e-04,1.486233150115461553e-02,4.455819129943847656e-01
4.360843013138561153e-01,4.414969570147810884e-01,1.779247659119631564e-03,1.857296722292025486e-03,1.149442689725858110e-03,1.023356801551077687e-03,4.370564818382263184e-01
4.135380364997191527e-01,5.070533826135648070e-01,-2.690633584014806567e-02,2.661861590723479595e-02,2.101127872271543739e-02,8.549428850699479152e-04,4.973700344562530518e-01
4.659008911301675271e-01,4.666219470679627834e-01,-2.356835853999511565e-02,2.076215359438003411e-03,-3.348425295738148306e-03,3.658673725723947390e-03,4.899186789989471436e-01
4.698377055713661710e-01,4.757547798991190735e-01,-3.102318138865217678e-02,-1.272787792354762582e-03,-1.061265754494732571e-03,2.468674614585934573e-04,5.038538575172424316e-01
4.700070817272585799e-01,4.749927079762853444e-01,-3.106248537847117186e-02,-8.400822174710641851e-04,-1.318946401322418317e-03,4.582792237447714839e-04,5.035887956619262695e-01
4.234587028370279116e-01,4.986937618526985361e-01,-2.177796771380052787e-02,2.106756216594726523e-03,-3.661572419418696045e-03,-3.956483474898448913e-03,4.873334765434265137e-01
4.691335695138605377e-01,4.771908484874373135e-01,-3.794041278778581550e-03,3.416761702175093716e-04,-6.839392851834537497e-03,-4.336608250040135774e-03,4.772138595581054688e-01
2.853156053302570161e-01,5.336710885945952221e-01,7.220928566171957996e-03,-1.002238788819538075e-02,1.020863577870083491e-03,3.309625980921240135e-03,4.565312266349792480e-01
4.666242989147366127e-01,4.731772970226386654e-01,-2.969413142672555628e-02,1.148268943871198984e-05,-1.165738539628215524e-03,1.100683832379598060e-03,4.996348917484283447e-01
4.379133136242739366e-01,4.603601334274528001e-01,-9.545199319677399874e-03,2.580352034599804091e-03,-1.158383911642825925e-03,5.633966031022837745e-03,4.592235088348388672e-01
4.689265848209472898e-01,4.752544652103950495e-01,-3.125548800560123963e-02,1.013909925416050199e-04,-3.818930081760638952e-04,-1.062365321746548519e-08,5.033763051033020020e-01
4.769920995681025122e-01,4.770217349067172874e-01,1.956516366268701290e-03,5.003325906332334143e-03,-9.991444349170640685e-03,2.491267487893022124e-03,4.754640758037567139e-01
4.699533613429270895e-01,4.748300600508956748e-01,-3.142536477974805509e-02,-3.379243558524926811e-04,-6.003375321111381873e-04,3.419636497000164751e-04,5.038365125656127930e-01
5.007560645513240427e-01,5.315702693832706771e-01,6.016291433380543952e-02,9.273913945697122990e-03,-4.438088473337400280e-03,-9.327332142767175496e-03,4.574128091335296631e-01
4.778384525330962029e-01,4.829723531928634683e-01,9.010810711751593427e-02,8.807478613952688913e-04,-2.293321656488384996e-03,3.253362501042120648e-03,3.903864920139312744e-01
6.617353880399808874e-01,6.998449820344198047e-01,1.051353273598744642e-01,8.809031956425308896e-02,-5.695643971623314677e-02,2.975315763540194516e-02,6.067416071891784668e-01
4.147646387480066199e-01,5.456348125170675800e-01,6.628526784936050742e-02,2.709999869264390418e-02,-9.678034635948661035e-02,-3.069979507122026774e-02,4.661549031734466553e-01
5.679358769564261111e-01,5.484853424216826756e-01,7.807737143294418702e-02,6.600209408860209515e-02,-7.128514341090769202e-02,-2.630712219493318293e-02,5.110786557197570801e-01
4.987466402359285178e-01,5.140612127165240519e-01,9.329077707175315037e-02,1.406092795052235438e-02,-8.118250089795621058e-03,-1.820226076409162119e-02,4.154794812202453613e-01
4.802411470115222070e-01,4.700136539872986075e-01,1.061361387637256848e-01,-1.768939718147606241e-02,3.215111483491701633e-03,-8.469910610824990180e-03,3.706993162631988525e-01
5.138937629723258071e-01,3.146761141692082098e-01,-1.880623276840126534e-02,-2.145210805419923705e-01,-3.233599856046923821e-02,-7.388677124479943459e-02,6.122958660125732422e-01
4.756851526815246145e-01,5.404318472519455963e-01,7.711918448322568898e-02,1.730264629296670090e-02,-9.891415754371558899e-03,6.029573129415516375e-03,4.360659718513488770e-01
4.795369856843065826e-01,4.719348977153094427e-01,-2.158828917355781751e-02,2.656273726774090573e-04,-3.756106640391561986e-04,-3.915771960968057915e-03,4.974146783351898193e-01
5.020097418960998148e-01,4.998143106927710466e-01,7.418344548053129595e-02,-6.054236175516987395e-02,-7.533864761653852327e-02,-1.062002891889572281e-01,4.939233362674713135e-01
5.060477316429680128e-01,3.476395930358959774e-01,-7.022631069695917105e-03,-4.120722026672737903e-02,-8.697371681152480521e-03,-1.066418705859765656e-02,4.612179696559906006e-01
4.847647122669513919e-01,4.764768872983575765e-01,2.126013188174324942e-02,-6.015018072482528760e-02,-5.102331534269897301e-02,-3.459372257061429923e-02,4.830302000045776367e-01
5.589197519137771852e-01,3.952191125582458775e-01,-4.312500355484638614e-02,-4.472482473726531460e-02,-1.181038829236310747e-02,-5.330903111002650852e-02,5.528522729873657227e-01
5.187004649222610730e-01,4.164712815739260443e-01,-1.796349231216393116e-02,1.103693893640783803e-02,7.070370494906393945e-03,-2.566246899551550414e-02,4.960719645023345947e-01
5.151163743012869833e-01,4.404378428322641148e-01,3.668157358375379040e-02,1.649522498585460732e-03,-1.763486065570995034e-02,-1.783495750151977560e-02,4.479322731494903564e-01
4.863074476018631742e-01,3.521887075798718070e-01,3.514494663612194314e-02,-1.372206844972805595e-01,-4.805169620107365563e-02,-9.842969002071789986e-02,5.034945607185363770e-01
4.780994490199378388e-01,4.788799773798610437e-01,-2.118834914415484993e-02,4.591286138311767508e-04,-4.658756511750761567e-03,-1.116146826151835679e-03,4.997480511665344238e-01
4.750117646002551264e-01,4.819091670172997444e-01,-3.179215738185608986e-02,2.579984403938456370e-04,-1.245464540571680464e-03,-9.517664205797780029e-05,5.102923512458801270e-01
4.779746911095961726e-01,4.803557748408693318e-01,-3.120939398813327159e-02,1.382039486789888726e-04,7.413295054431081471e-04,-5.919465096468376313e-04,5.103815197944641113e-01
4.789326995157081601e-01,4.682815116434173586e-01,-2.966800250796874927e-02,-5.302331809139065400e-04,1.344760202550885101e-03,-1.566332182554952903e-04,5.033659338951110840e-01
4.786127994646675599e-01,4.630379355211006187e-01,-3.325847321317115801e-02,-4.498268444663286914e-04,-6.148722426308930560e-04,-2.422070548774600540e-03,5.042834281921386719e-01
4.268478192868816468e-01,4.403889833567214418e-01,-2.466527182973798915e-03,-1.678819667631957979e-03,1.618198560683679768e-03,6.431239035490884590e-03,4.364034533500671387e-01
4.705791911239500247e-01,4.682142482312862675e-01,-4.074888482480865104e-02,3.614922103513577389e-04,3.380868581901644038e-03,2.127607472259119940e-03,5.101970434188842773e-01
4.690652658093837912e-01,4.837928378740222746e-01,-3.113683889306123609e-02,-7.001749243649027857e-04,6.421776102152052142e-03,-1.544907359795607681e-03,5.078564286231994629e-01
4.593062914207260428e-01,4.653795645639153822e-01,-2.223675641731892583e-02,5.266898526121256479e-04,-3.444843517285094050e-03,2.128560110773880781e-03,4.846598505973815918e-01
4.654786721874479838e-01,4.700716939128489757e-01,-2.921841494274818318e-02,2.763211255919047031e-03,-2.157419881468742445e-03,1.588797364963764804e-03,4.970542192459106445e-01
5.295571891737912429e-01,3.403391984406385351e-01,-5.857270805478431708e-03,-3.661024810893099765e-03,6.894908159740395330e-03,9.613568809673658051e-04,4.704759716987609863e-01
4.666892692647234275e-01,4.699374850143059890e-01,-3.006813753407627798e-02,2.467723042504991939e-03,-2.722148399149131471e-03,1.323936723063246597e-03,4.984353482723236084e-01
4.605902341224171748e-01,4.705595951145800648e-01,-2.701884863070824760e-02,2.409627411336932520e-03,-4.334977855998740264e-04,2.573320399884429423e-03,4.927078187465667725e-01
4.030270854429239824e-01,4.368944985970916739e-01,6.219693167848427962e-03,-6.683765954785357913e-03,3.532386308728892158e-04,1.356209923045725288e-03,4.149480164051055908e-01
4.441628841378529313e-01,4.395568829021584412e-01,2.868112664084265795e-03,1.619313611548228379e-02,4.220946961102965168e-03,-9.312334091480697603e-04,4.399686157703399658e-01
4.093003501315582437e-01,4.621823429997543586e-01,-5.549638752417929144e-03,-4.071587744033375485e-03,2.551772405989522277e-03,1.159369936179045248e-02,4.441932141780853271e-01
4.122555106604463004e-01,4.038159270026161485e-01,6.581123740599770233e-03,-3.255966850408657798e-02,2.077930474524463961e-03,1.192386796212808932e-03,4.054834544658660889e-01
4.287748128444205942e-01,4.382320953340742009e-01,1.209194650218459177e-03,1.139925197862130118e-02,1.247013273805546536e-03,7.272007292159992200e-04,4.328296184539794922e-01
4.300951059444022007e-01,4.399026898136410013e-01,-2.607364691076252683e-05,1.314699752552088950e-02,4.112420498780862302e-04,-9.239709806557998154e-04,4.357068538665771484e-01
4.436011119962989246e-01,4.429228048283638253e-01,-3.951597893134151107e-03,2.149046609196607165e-03,3.079795123818877649e-03,-2.486427955901305848e-03,4.472819864749908447e-01
4.522208486839553454e-01,4.693549836686272680e-01,-3.426679764930162797e-02,-7.237931860838264352e-04,-8.684502496106566828e-04,-8.451080102152161433e-03,4.954971671104431152e-01
4.893892462798511978e-01,4.770299239498410060e-01,-3.201865636812756266e-02,4.770940476592652052e-03,1.173667414204902348e-03,2.619137794558959540e-03,5.154296159744262695e-01
4.821958146284168745e-01,4.774523154468689468e-01,-3.179003470638225304e-02,4.645383948613150162e-03,2.411703317312746241e-03,2.753666534437835232e-03,5.117331147193908691e-01
5.205210878775955452e-01,5.832529162648181220e-01,-2.417349890005426882e-02,2.540356428047939596e-01,-1.558022241506965347e-02,3.188217143286815186e-02,7.295047044754028320e-01
4.399633963138460113e-01,4.404593861734305005e-01,-1.917956029016215647e-02,2.025748740874355821e-06,-2.858608939107725073e-03,-1.942779104269937033e-03,4.594301581382751465e-01
4.828962124605242767e-01,4.730752210916275846e-01,-3.492095787915261429e-02,3.407383909186377166e-03,5.298404237315649384e-03,7.813945761160397824e-03,5.132716894149780273e-01
4.223581054650391575e-01,5.004054948867534547e-01,-2.515214280371286248e-02,2.713908810203407955e-03,-1.645275837413983852e-02,7.389663418066526150e-03,4.922213256359100342e-01
5.109748689358398765e-01,3.203753303367780081e-01,3.728237251172772382e-03,-1.906599629919303665e-02,1.583094726383822010e-02,1.172674538544499732e-02,4.463197290897369385e-01
4.319475236943497998e-01,4.245865629564750110e-01,-7.708731963441295409e-03,-6.622077824410687805e-03,-7.175869192502896086e-03,-2.688852417838360521e-03,4.363751113414764404e-01
4.793384583246331210e-01,4.777510657874818878e-01,-2.372383336509192864e-02,3.285122352073290789e-03,9.430461577025284550e-04,-4.098249898801272113e-03,5.023555159568786621e-01
4.802961714280663541e-01,4.568196192173135106e-01,-1.982217037432504325e-02,-8.643077911098958309e-04,5.804149896611043857e-03,1.207474860116728929e-02,4.893558621406555176e-01
4.800274682217884337e-01,4.815103135285805358e-01,2.493687646482323217e-02,5.084321920780893525e-03,-1.068184625183864200e-02,5.707665336735489106e-03,4.564011991024017334e-01
3.380390499726027009e-01,5.366907532068275755e-01,-4.055138290337989559e-03,-9.895659826874509193e-04,-4.957148316487706464e-03,6.526955157482005818e-03,4.739757180213928223e-01
4.728985643211868206e-01,4.761462739434362823e-01,4.660172337494444816e-02,6.315097924598586480e-03,3.665657594646676200e-03,-1.274011100477059552e-02,4.286850988864898682e-01
3.124136871199012511e-01,5.532050925020106646e-01,-2.020312784427530373e-02,8.904739549576590196e-02,1.982162257753887144e-02,1.203842655111931649e-02,5.235527753829956055e-01
5.086969351433524578e-01,3.437148226957428276e-01,-4.682591972500066424e-02,-2.240377808037494478e-01,-1.833990050628806281e-02,-2.209570755868576694e-02,6.302586197853088379e-01
4.772317245532220475e-01,4.777403011220768825e-01,-7.725982676688447626e-04,5.710617244181530328e-03,2.567197286567659588e-03,-6.611257229137164695e-03,4.785187840461730957e-01
4.824057408558222182e-01,4.775267812552412283e-01,3.972304357171996259e-03,4.838620112798044416e-03,-2.112817558564077276e-03,-5.924269662088562163e-03,4.762111008167266846e-01
4.895289169711430910e-01,4.859284011891504274e-01,-2.486375476767738180e-02,-3.299867601792660227e-02,1.635891280878029250e-02,3.270868337595524145e-02,5.196536183357238770e-01
4.822645580076482252e-01,4.821234281693805857e-01,-1.565424025777378825e-02,4.655749180501300363e-03,-1.379253305067466070e-03,3.588322879518192777e-03,4.979580640792846680e-01
3.680700185409507830e-01,4.949970516214305949e-01,1.988528242761189446e-03,3.542067348746975874e-02,-1.218860227819105156e-03,1.083917169591335546e-03,4.476199448108673096e-01
4.807299696276218226e-01,4.846503187383708333e-01,8.043798728159917699e-02,9.560185672854160099e-03,-6.733158068787983494e-03,-1.118499020485076885e-02,4.032416641712188721e-01
6.126087634416530481e-01,2.207100664175194460e-01,8.373665774603245016e-03,2.334409573010789649e-02,-2.930369077543481388e-02,-2.755857754615973973e-02,5.370056629180908203e-01
4.608986738177591191e-01,4.323495790506707293e-01,-7.411239386489631986e-03,2.462830437018675208e-03,5.724041526897615841e-03,-9.979935122580820602e-04,4.548394083976745605e-01
4.756324462084716154e-01,4.487017947802521833e-01,-2.411011651731559402e-02,3.508330747602457847e-03,6.022619901019741345e-03,-5.665766655648924073e-03,4.870847463607788086e-01
5.232327394610725158e-01,2.199433334345750612e-01,1.178751514578338377e-02,-1.240777902634570551e-01,-1.154102306582520561e-02,-4.925467299843211411e-02,5.023030042648315430e-01
5.015330420788035592e-01,4.759458884575075155e-01,-4.440470855614497836e-03,9.010574173934048081e-03,1.433444514613115060e-04,-8.129422992414578331e-03,4.941248595714569092e-01
4.880622032910249541e-01,4.277554196065340708e-01,-4.179761507862322922e-02,5.004941048916290713e-02,3.897364498211515829e-03,1.747548634058462488e-02,5.107942819595336914e-01
4.362082570096030287e-01,4.435612864713632808e-01,-1.818589007042403782e-02,-8.040965305018273404e-03,1.405370048859991543e-03,7.699577341972455545e-03,4.585270285606384277e-01
4.489105638787607155e-01,4.499413774187632220e-01,-7.596869675282946766e-03,3.585646011513857201e-03,1.505447388676822099e-03,7.048742202663369361e-04,4.570749700069427490e-01
5.677301388706224028e-01,4.430118214417844147e-01,5.567450210451196924e-02,3.089796457843896338e-02,7.955559609045783492e-03,-8.915469175130889476e-03,4.660314321517944336e-01
4.236749547473334099e-01,4.568874761520823613e-01,-1.822679505248392395e-04,6.693262679252430514e-03,-8.234469055477195223e-04,3.034874683690906311e-03,4.415874183177947998e-01
5.249756061275905328e-01,4.526428464874814872e-01,-9.813920019671074080e-03,-1.669035853662197838e-02,1.838464221824433545e-02,2.194141427934305846e-02,5.058093070983886719e-01
5.586740361182211956e-01,5.160308992723491306e-01,6.383032347280209740e-02,3.032093531847749809e-02,7.998197741337552402e-03,4.568610123822430466e-03,4.781209528446197510e-01
4.796720379824028768e-01,4.665464320082868266e-01,3.191297280250809942e-02,-8.103520016378864751e-03,-6.579030201733886141e-03,-9.522576633792397514e-04,4.417158961296081543e-01
5.099408999514686291e-01,4.436653472534851650e-01,3.898232064129730778e-02,2.266525643789074618e-02,-1.885626758350547258e-02,-1.286490981936761098e-02,4.450682401657104492e-01
4.014769929717799668e-01,5.002276147758535352e-01,-2.123762669309198214e-02,8.853756117844960305e-03,1.672893094594191804e-02,-9.913043337589123177e-03,4.811987280845642090e-01
4.085624395957790922e-01,4.721571903947059945e-01,-3.997623112206305507e-03,5.648121645476131963e-02,4.101595088217595102e-03,-2.379323735137204091e-02,4.602238237857818604e-01
4.029151315734857408e-01,4.783409944728836405e-01,-1.427552252971775459e-02,2.335795784509343137e-02,7.024505672499123561e-03,-1.019833583073043691e-02,4.618450999259948730e-01
4.382986106672331905e-01,4.780484947005260721e-01,-1.325530009527109421e-02,1.930439784195943712e-02,9.401764606381887365e-03,-7.665971199400458541e-03,4.743307530879974365e-01
4.804770176149904537e-01,4.821403539458152254e-01,-4.477724285423312356e-03,1.753384214448388276e-03,-1.389155298116533793e-02,2.315673999845193048e-03,4.864100515842437744e-01
5.006830945259351795e-01,3.781371930828678618e-01,-2.197530075024672902e-02,5.771144631576125006e-02,9.643836143245860734e-03,-2.080979157449151448e-02,4.854993820190429688e-01
3.801898940852429520e-01,5.008349889512641040e-01,-1.532470839940847096e-02,6.278613226461728656e-04,2.545375948538297281e-02,-4.233437243905970558e-04,4.697332680225372314e-01
5.607624342986206045e-01,4.592068850815414494e-01,7.674644843181899212e-02,6.592545787177181947e-03,-4.746951263777400565e-02,-5.215223913125732746e-02,4.587815403938293457e-01
3.696368560248032287e-01,4.641498146102139843e-01,1.119689930109168952e-02,-1.286278474460852972e-02,-2.143899150218717185e-04,3.555936201351625470e-03,4.145160317420959473e-01
4.966478138998152159e-01,3.676507896665891506e-01,-1.701779163186367683e-03,-1.050249962820417465e-02,1.402386867218025253e-02,1.636496401097930998e-03,4.490388333797454834e-01
4.501465014681260701e-01,4.980218923218333593e-01,-2.828905954712551685e-02,2.623397269451712907e-02,1.605850513023427892e-02,-1.193694033665983201e-02,5.073102712631225586e-01
4.794589231856014599e-01,4.815762136136327864e-01,-2.326602222596169112e-02,1.808300609825283468e-03,-3.220947280607054999e-03,-3.842776232206008115e-04,5.038279891014099121e-01
4.795809322722465740e-01,4.817257033413080980e-01,-2.946976247456667419e-02,4.269023756503092203e-03,5.360203525654230229e-03,4.248604079804711026e-03,5.103175640106201172e-01
4.737526756461519217e-01,4.808618977932936911e-01,-3.057715805513627760e-02,1.263758997875676863e-03,7.299006649544377730e-03,5.250073559259169423e-03,5.081651806831359863e-01
4.795423809265771387e-01,4.790612324446277825e-01,-2.408341331328528456e-02,2.811237997623284614e-03,-3.697176197313013953e-03,8.559078204182636422e-04,5.034518241882324219e-01
4.711363703948026616e-01,4.702366675637371096e-01,-4.094478636876625055e-02,2.312036627968256774e-03,3.313835400207030494e-03,2.952318035057307534e-03,5.117053389549255371e-01
4.197937478547567047e-01,4.239164979619011731e-01,4.375697596747163409e-03,-3.438139384391435561e-03,-7.724421558385034803e-04,-2.768950942908595877e-03,4.175668358802795410e-01
4.627056973404252704e-01,3.588881425791198843e-01,9.754532531133508488e-03,-1.758996214127996754e-02,5.856988478750725299e-03,-7.302067321565911678e-04,4.122515022754669189e-01
1.398377966800206096e-01,5.666313717502677871e-01,-1.901505961787489096e-02,-1.493311626129536496e-01,2.058203257203345196e-02,1.314026708155605072e-02,5.864065289497375488e-01
4.633235111109191839e-01,4.538659298122335595e-01,-2.591379272358640407e-02,-1.458942604352430825e-02,-6.645618175672864981e-03,-7.722230730897149294e-03,4.855569303035736084e-01
4.306212878005625244e-01,4.339037022104811347e-01,3.649030645706097253e-03,-1.134023520792254783e-02,6.798065245720031832e-03,8.198980318640348292e-03,4.294690787792205811e-01
3.696895487640221578e-01,4.632699082149311920e-01,9.121707487017904903e-03,-1.309752173341627475e-02,-6.661718711813826915e-04,2.090005126872413431e-03,4.159778654575347900e-01
4.235750266300791766e-01,4.265155629393303505e-01,3.767442750116423156e-03,-1.262025848703175832e-03,2.502447718647496638e-03,4.175019124774198218e-03,4.213755726814270020e-01
4.395395737919126078e-01,4.376765136632203568e-01,-9.641782201083692883e-03,-1.918064666352886204e-03,5.321631203266842004e-03,3.773521797542936373e-03,4.484074413776397705e-01
4.311947325748997084e-01,4.230736234882366276e-01,-3.089342192086064198e-03,-1.089550723436277617e-02,5.694518717055465327e-03,1.105449462685290573e-03,4.308118224143981934e-01
4.800514638985194926e-01,4.672171989605764519e-01,-2.583381453862154675e-02,2.320309849870999327e-05,2.907697211593446101e-04,1.066598821772534768e-03,4.995954632759094238e-01
4.857111806003931442e-01,4.679996588747009079e-01,-2.686956051686023583e-02,2.394013279106643570e-03,2.764110189147862915e-03,-1.631023838018658915e-03,5.040061473846435547e-01
5.332087554570436039e-01,2.882065270690926662e-01,7.136726394477377333e-03,-1.144848532516691900e-02,6.071782771431404394e-03,-5.023924823216583584e-04,4.565014839172363281e-01
4.804343652532701570e-01,4.668561381649796171e-01,-2.487866169667801719e-02,-2.636242748549444230e-04,1.027689167289484382e-03,1.072507973794859740e-03,4.986694157123565674e-01
4.463063919128278934e-01,4.597011721996213662e-01,-2.111086944992468517e-02,-3.677941632193818672e-03,5.284185767448205083e-03,1.098733688163384264e-02,4.747691750526428223e-01
2.797983694899872087e-01,5.418713079130980104e-01,-3.563652785648241395e-03,3.770752514829309870e-02,6.303395489712150870e-03,7.382253263328340115e-03,4.772693514823913574e-01
3.844123794544313522e-01,5.295912959436748224e-01,3.862746124820448657e-02,-2.150512275323804845e-01,-9.212198725623031714e-02,-1.045915622338910167e-01,6.227868795394897461e-01
4.794715828084927800e-01,4.688509497976137141e-01,-2.806180213603393092e-02,7.939025397862376019e-05,3.567479670386951925e-04,-1.098601193466019078e-03,5.023112893104553223e-01
1.628591233619591239e-01,5.981236366226408974e-01,-9.503203133850279816e-03,-6.508049663885751013e-02,-1.795419119552282491e-02,1.044821030326952005e-02,5.551469326019287109e-01
4.826036629920196774e-01,5.834408098981156421e-01,-2.643103440404120930e-02,2.430903388436261026e-01,-5.808912578326358434e-03,3.777356235149870178e-02,7.087132930755615234e-01
4.819500665496457836e-01,4.753036650678459929e-01,6.596192718358778739e-02,2.486855822085117917e-03,-3.986891078961870248e-03,1.148798625256009474e-02,4.132646024227142334e-01
4.819986539074111453e-01,4.800285042837127425e-01,4.816636270487789639e-02,6.055493725369157434e-03,-1.164109691197025634e-02,2.838147713860003402e-04,4.334471225738525391e-01
4.732619269498324899e-01,4.801751528937607261e-01,7.832042111358583636e-02,4.486924071215646001e-03,4.822758920410969569e-03,2.765417775033118027e-03,3.986352086067199707e-01
4.907546612533825181e-01,4.780535420394647628e-01,8.033695092823006645e-02,5.480140703069838123e-03,-3.049044217612194210e-03,-6.819962450960092779e-03,4.045352637767791748e-01
4.783705519058988331e-01,4.706738232142485545e-01,6.570660875185779792e-02,7.299323677466244484e-03,6.944655496878730967e-03,-9.338367580117539271e-03,4.095616638660430908e-01
4.821460247995738579e-01,4.800459660407577767e-01,1.006769172346965169e-01,5.776480824922873569e-03,-1.545979107126164639e-02,1.377717887402189582e-03,3.815033435821533203e-01
1.879467460259988121e-01,5.860655347943284355e-01,1.693191169416577435e-02,-2.500159483994852591e-02,6.863116341716375690e-02,2.054518511382931456e-02,5.225907564163208008e-01
4.741821989473821164e-01,4.803155287197339307e-01,1.091430050457420364e-03,5.779036559184488409e-04,-8.909528012033996955e-03,3.221330687210506496e-03,4.764707684516906738e-01
4.785474283794179939e-01,4.751946328431347344e-01,1.844939383022603518e-03,-2.654764926183770298e-03,-1.645811674843996805e-02,-6.487998184864522157e-03,4.760443866252899170e-01
3.416039470821770063e-01,5.220872234901061670e-01,-1.879402561583809472e-03,1.613215774424664808e-02,9.552922351575076493e-03,5.969502550964356398e-03,4.622871875762939453e-01
3.333769466111457525e-01,5.179003762261904509e-01,1.294177060548129532e-02,9.866531454375677967e-02,-3.885224579160943825e-02,-7.812695885310801808e-03,4.793449044227600098e-01
4.657905635859991289e-01,4.808706812745950909e-01,-7.275374688151647895e-03,3.157161445163339151e-04,1.686025060034170736e-04,3.184753799822671438e-03,4.808154404163360596e-01
4.650147354249603016e-01,4.793414192631041404e-01,-1.755437696161232797e-02,-6.501478702734231037e-04,1.243417242864462398e-03,-1.196400079664837034e-03,4.898999929428100586e-01
4.597933213429952759e-01,4.401162083945838743e-01,-7.727094163606895716e-03,5.933584169022025970e-03,-4.055989312678986297e-03,7.451994030289072228e-04,4.581699669361114502e-01
4.560338817239335540e-01,4.899111206213306868e-01,-2.146733941156586667e-02,-3.413093248613261344e-03,-1.958188133412589252e-02,-9.967109884135500961e-03,4.968046247959136963e-01
4.707099335780438043e-01,4.784239047297274006e-01,3.417592052877782560e-03,-1.116280111296635352e-05,5.078440820780745490e-03,4.468541852771254139e-03,4.713423252105712891e-01
4.749473228800515923e-01,4.685621598701318336e-01,-3.065029673621078032e-02,-1.278920915949180231e-03,8.428832750596095295e-04,-5.018240388104990837e-04,5.024432539939880371e-01
4.749402130932567356e-01,4.699381442249636054e-01,-3.105853517570489331e-02,-1.009209097983265876e-03,4.015251024086892917e-05,-2.532666485928258067e-04,5.035195946693420410e-01
4.747814076455731391e-01,4.699296467780413877e-01,-3.152227871044510632e-02,-7.580491988567460713e-04,3.065645816089170614e-04,-6.043472126229679307e-04,5.038983821868896484e-01
3.994463217925949827e-01,4.853472231629040179e-01,3.467529279313930068e-03,8.027142733191749632e-03,-1.464232877260129764e-03,1.521361489414698809e-03,4.454209208488464355e-01
4.769135714932217218e-01,4.704290147157119684e-01,-3.008165331458650948e-02,-7.926669476461372646e-04,8.679347952058254516e-04,-7.364045683548618368e-04,5.037899613380432129e-01
4.263695001099201409e-01,4.231692763956932390e-01,5.194127364775535938e-03,-2.860890095832967477e-03,2.374504700885667381e-05,2.042533467969181115e-04,4.196138381958007812e-01
4.167846835783333148e-01,4.471793642804124946e-01,-4.763045831978174327e-03,2.323614022953127134e-03,5.877859889296634631e-03,1.047018865274544457e-02,4.380500614643096924e-01
4.392825876756557557e-01,4.088908822562578038e-01,9.955708377125671582e-03,-3.640853236829750400e-02,-1.996161827923744522e-03,-3.348052326258068104e-03,4.197851419448852539e-01
3.427081338632399499e-01,5.621462957550174000e-01,-5.967830819162522893e-03,-3.665896178900238112e-02,1.632493988159820081e-02,-1.579972956021127861e-02,5.018175840377807617e-01
4.389111564966997614e-01,4.292951094834576153e-01,5.080806766855072709e-04,1.113512762674033311e-02,8.385837790259603351e-04,1.018933582459894413e-03,4.341096878051757812e-01
4.251458804972121919e-01,4.494877599729902862e-01,-7.381097686957882598e-03,-3.015048871947203883e-03,-1.707344747282433161e-03,-6.879289003474971416e-03,4.453971385955810547e-01
2.360858567245707751e-01,5.308857038490012448e-01,6.021795585457734301e-03,-5.148527513496944930e-02,8.098525473934442553e-03,9.628614668090985929e-03,4.648509025573730469e-01
4.600346600114589846e-01,4.796616594973264203e-01,-3.204525697712590215e-02,1.174859903628990747e-03,-7.550642112781971466e-04,-4.278902222372784367e-04,5.021875500679016113e-01
4.780746951546676060e-01,3.669289254301388858e-01,-6.730601190517049304e-03,-2.292848110373683218e-02,-1.144020307748905112e-02,-1.344757820331693443e-02,4.427389800548553467e-01
5.152328064203222091e-01,5.058726972350962026e-01,4.576947433455386127e-02,9.071629790120994130e-03,-2.429588466712569172e-02,-1.922388027808951197e-02,4.682046771049499512e-01
3.788189375623054467e-01,4.628289307002620978e-01,4.805099792978551054e-03,-1.201552745247644848e-02,-1.963121600774314374e-03,-5.676584519606908859e-03,4.229731559753417969e-01
4.685127416151312896e-01,4.303192532857738617e-01,-2.244992353318109313e-02,-2.686836895402978063e-03,-1.186778488465493712e-02,-9.800881516220908037e-04,4.734961092472076416e-01
4.922804450264035570e-01,4.849869369330666036e-01,9.057011201941356227e-03,-1.509339354371275546e-02,1.081310786949693688e-02,1.700395398128249844e-02,4.815966188907623291e-01
4.551513699271192426e-01,4.858694693877577686e-01,-1.448749421694817130e-03,-4.272074081636221925e-03,-6.312782209615365936e-04,8.565755010576958997e-03,4.730002284049987793e-01
4.195443073200687545e-01,4.285125301750398186e-01,4.463065099709562222e-03,-4.183397689725329958e-03,-7.533663838888080000e-04,-5.445699462449191813e-04,4.197028875350952148e-01
4.510901040105046444e-01,5.143249786498121923e-01,3.189460233404406431e-02,6.269085954837267174e-03,-2.048295753182359860e-02,-2.556559401748999261e-02,4.577866792678833008e-01
4.883343900143429783e-01,4.685477311987480409e-01,4.074575381407541386e-05,6.813563999382820768e-04,1.262646443315353431e-02,4.411632209803778050e-03,4.792687892913818359e-01
4.696304133824249494e-01,5.209090329840898592e-01,8.259152985604811814e-03,1.874247804617124383e-02,3.217492650514591074e-02,3.633550817987013775e-03,4.933057427406311035e-01
4.827061228760314293e-01,5.115347356226584985e-01,5.594548893271411583e-02,1.063251734337749416e-02,5.384648707777849042e-03,-2.304958729000026671e-02,4.441605806350708008e-01
3.047886556933427360e-01,5.085293163715013387e-01,8.032532430974070881e-03,-2.673722322542176552e-02,-5.910167265683586267e-03,-2.459102777074861825e-03,4.385240077972412109e-01
4.941088737011131160e-01,3.292215110344434148e-01,6.386515807194070860e-03,-1.803033667781024987e-02,-4.246693303383049754e-03,-1.878515296936243695e-03,4.309079349040985107e-01
4.301397556711721304e-01,4.402290231900459760e-01,-7.641407843922476406e-03,-4.326260136016084855e-03,-1.530620966985152221e-03,-5.667140020217985904e-04,4.429844021797180176e-01
3.657261513319304824e-01,4.884330732152796228e-01,-9.775233283990214517e-03,-2.518596390606729976e-02,-1.623503045780779266e-02,-1.547811835970100240e-02,4.533732831478118896e-01
4.659123028117699850e-01,3.440138149896858621e-01,9.334231879162158130e-03,-3.408285437272933621e-02,-1.112766480723143166e-02,-9.859911493853332209e-03,4.145053029060363770e-01
3.812400629632695659e-01,4.949603072466419174e-01,-8.721335116149864231e-03,-1.254464264733680390e-02,-1.697759136358537035e-02,-1.547404438847155457e-02,4.597867429256439209e-01
4.932875678980322975e-01,5.054996669530543718e-01,5.823849451343504624e-02,-1.732479640737662474e-01,-6.910911389972947128e-02,-1.045186940493932765e-01,5.760858654975891113e-01
3.307127748725935401e-01,5.001429522024574137e-01,9.039413008775032399e-03,-1.278539216622125857e-02,-5.478712388224925463e-03,-3.534933674758805773e-03,4.327810704708099365e-01
2.726387088079427756e-01,5.094432778418234165e-01,6.125347305420580923e-03,-6.410676982666425883e-02,-8.738952535592314774e-03,-2.525216922125473901e-03,4.503272473812103271e-01
3.713192085604668513e-01,4.694422430525691525e-01,-7.980359130140113333e-03,-4.951482465548386058e-02,-1.771373768656070435e-02,-1.734058855676576597e-02,4.471161961555480957e-01
3.440905051239702139e-01,4.975689556033533467e-01,-9.565737169632104742e-03,-1.146200605902496401e-02,-1.149574498855572514e-03,-1.120306732741916354e-02,4.513109922409057617e-01
3.753042712434320749e-01,4.703500971090750493e-01,-9.813099148834159013e-03,-4.726393177742456431e-02,-1.397782524838096091e-02,-1.566834003809300033e-02,4.494186937808990479e-01
3.680032532715871718e-01,4.720622958903359367e-01,-9.869748656744781190e-03,-2.218094459310354996e-02,-1.507537285847872915e-02,-1.663055337649545565e-02,4.426340460777282715e-01
4.708757046280278580e-01,4.682984403705583998e-01,-3.816978499973200378e-02,6.369868744695571803e-04,8.893697082635143407e-04,2.559705835477795680e-03,5.077846646308898926e-01
3.273342338344645830e-01,5.308684864125975400e-01,1.706125307189776397e-03,3.504789554592500737e-03,3.264417525149428210e-03,1.406657043647295807e-03,4.623970985412597656e-01
4.805533331811475128e-01,4.659642551533840216e-01,-3.181417289120275216e-02,1.624951649910495342e-03,-1.333659382626272523e-03,-1.563061267003407369e-03,5.052513480186462402e-01
4.726674632042597302e-01,4.653072199297686451e-01,-3.641992382816433560e-02,6.583330956055285805e-04,7.103065464797500388e-03,3.960378708509304686e-03,5.056449770927429199e-01
4.815080839978502225e-01,4.669673108538712203e-01,-3.658042410698664204e-02,-1.649496583101244885e-03,4.812272733348033592e-03,3.819353043427515648e-03,5.110920667648315430e-01
4.801894572681655315e-01,4.640552021212329681e-01,-3.650401541102582526e-02,3.499874447861273715e-04,5.643023397706915627e-03,5.224350469162493578e-03,5.089929103851318359e-01
5.135177491681007789e-01,2.778808998277026432e-01,6.478737295333714119e-03,-8.088261774794415493e-02,-5.753119443275179915e-04,-1.823314830071417775e-03,4.612734317779541016e-01
4.701871532322223768e-01,3.662925677464202723e-01,-2.139219939085568178e-02,-1.444756752405558786e-01,-8.005314985395639571e-03,-1.122266349256985374e-02,5.143555998802185059e-01
4.752180464849450336e-01,4.613632706118498961e-01,-3.719677361533646476e-02,-2.089973530176998835e-03,5.170860885865585961e-03,2.729098236128377382e-03,5.057441592216491699e-01
4.553049485566316723e-01,5.094354714853100985e-01,-3.814724824036330730e-02,8.973464604753896012e-02,-3.689760154869514003e-02,4.407147224451089806e-02,5.542599558830261230e-01
3.566987959447391887e-01,5.188749097942553234e-01,1.845236109219827725e-03,7.210621409241245450e-03,-6.625833154485621370e-04,6.307488997204097926e-03,4.583094716072082520e-01
4.698693997142321388e-01,4.796218577205756395e-01,-2.932497416418866631e-02,4.178954468689917304e-04,-1.483540323809713407e-03,1.185106389117874864e-03,5.041525959968566895e-01
4.683925438604587543e-01,4.779106036574851113e-01,-3.047663910847331348e-02,-1.438424555970019367e-03,9.167189940875379681e-05,1.277541283143070715e-03,5.037066936492919922e-01
4.670496537361503719e-01,4.791742983784684773e-01,-2.687345647242367352e-02,-8.320494647601825574e-04,7.022693253850236612e-04,1.499752288645930104e-03,5.001059770584106445e-01
4.775632517951440281e-01,4.785901967450396088e-01,-2.797873697357844414e-03,7.787036178418764790e-03,7.491530098494501280e-05,-6.235844637785122827e-04,4.810657501220703125e-01
4.863100563710107127e-01,4.705920830521509446e-01,-3.638554583684472377e-02,8.463779768984193430e-03,3.672946354563276592e-03,3.028417869577513990e-03,5.152910947799682617e-01
6.771136814007848725e-01,4.654903555311923347e-01,5.051609705423720786e-02,1.466830941276346112e-01,4.446960007466868071e-03,-1.010812632281505030e-01,6.325074434280395508e-01
4.258238004356699191e-01,4.871025818107997951e-01,-3.287798839581057564e-02,-5.556983394605187650e-03,-1.573580121397342296e-02,-7.895153428152140718e-03,4.932480156421661377e-01
4.743332776051394917e-01,4.768180129370865883e-01,-1.177021608207212688e-02,5.273592696244570367e-03,4.664246514901669409e-03,5.595577835977394096e-03,4.875994622707366943e-01
4.699044671231895620e-01,4.749295865154544716e-01,6.740869681120642554e-03,1.816509102761931348e-03,-7.286393879351431464e-03,-7.474136536766574045e-03,4.660579264163970947e-01
4.564354227334821434e-01,4.348701869434476452e-01,-2.352440395730920342e-02,-4.951936062922489799e-03,-1.099528306933976810e-02,-1.128968494980868084e-03,4.700171649456024170e-01
4.377586040769134712e-01,4.416282250426419864e-01,-2.007245748774505456e-02,-5.937731734918461285e-04,-4.324200010899611341e-03,-2.807143672290847349e-03,4.598659276962280273e-01
4.499867244670695543e-01,4.468940647745294203e-01,-2.747915253765326193e-02,-2.389256894658032312e-03,-3.822815122702540210e-03,-7.422195988696547730e-03,4.761646986007690430e-01
4.189988668369162839e-01,4.924031489376686221e-01,-2.359351400205544902e-02,5.059738828615003257e-04,8.957201237301177545e-04,1.670689409811877083e-03,4.835038185119628906e-01
4.557118060549980587e-01,4.816684559293560319e-01,-2.634383906336462688e-02,1.843645569928001207e-04,4.853488305649756576e-04,6.078466364034853728e-03,4.956567287445068359e-01
3.903725452261008755e-01,4.439210643200722783e-01,-2.482924672854158743e-03,-3.766238757135701581e-02,-1.120451430072006219e-02,-1.518635727955605294e-02,4.284431934356689453e-01
4.494240359757211145e-01,4.567688087999629554e-01,-2.849839733809023112e-02,-1.574379588429829701e-03,-4.718875663794084782e-03,-4.881184057935083163e-03,4.817880690097808838e-01
4.419307202817703839e-01,4.587131993158409804e-01,-2.726749650162513250e-02,-1.214261559618572475e-02,-5.869317417558252495e-03,-9.471346834483574534e-03,4.786624312400817871e-01
4.785409502179107655e-01,4.961293607842479636e-01,-1.415808822664454958e-02,9.503687776229249526e-03,5.077951650069475499e-03,-6.638560618724466574e-03,5.022031664848327637e-01
4.654367466104707418e-01,4.733856196654888659e-01,-2.966774021763135538e-02,1.014956363132311348e-03,-1.388302849177484519e-03,1.019474823373185636e-03,4.991384148597717285e-01
4.695579056107431204e-01,4.746549572899574354e-01,-3.053071370222232295e-02,-8.102445886793530972e-04,-1.055519719049258729e-06,2.690609176252317701e-04,5.026587247848510742e-01
4.772757145139743251e-01,4.647753222327390965e-01,-3.153367394415740321e-02,8.451454007959277506e-04,-2.991892015012336328e-03,-2.596620808095198834e-03,5.027247071266174316e-01
4.586836018439988116e-01,4.541086360840934644e-01,-1.775953287871973041e-02,9.344564216630395562e-03,1.756648321242122940e-03,-4.453378171714499414e-03,4.745208024978637695e-01
4.696440673534634236e-01,4.731408154388520027e-01,-3.023869431111825268e-02,8.061568755669154497e-04,-3.002753777373203502e-03,1.230253719802568623e-03,5.016736984252929688e-01
4.694775352133474522e-01,4.777779033577261858e-01,-3.019066417208404740e-02,-3.267606077680558756e-04,-2.689153892385475093e-03,2.647184442903077403e-03,5.039123892784118652e-01
4.256310182277084908e-01,4.407701807259922222e-01,-8.729722300598763418e-03,-5.337536117676567639e-03,-1.931493779919776386e-03,-1.167960574090619839e-02,4.426965117454528809e-01
4.693707964670092991e-01,4.777500095010348558e-01,-2.783427827656687059e-02,-2.548874734877285453e-04,-7.083554318822730305e-04,-2.987228359569697343e-04,5.014491677284240723e-01
4.069058252615018745e-01,4.673807928555798741e-01,-8.393707102763936501e-03,-5.927683100679138201e-03,-1.777484958406361400e-03,-1.118194126649004437e-02,4.491504728794097900e-01
4.698032103616442967e-01,4.773258948238741084e-01,-3.088941753663093648e-02,-5.443284957820866731e-04,-7.014241308812921034e-04,1.336598329969185695e-03,5.045036673545837402e-01
4.683976567902845556e-01,4.769612081196891173e-01,-3.101343431481151658e-02,-2.997493904590369353e-04,2.687147298097475192e-06,1.081984345252811177e-03,5.037512183189392090e-01
4.699295994371948670e-01,4.778294864870541447e-01,-3.019698444382945546e-02,-7.187463614829324877e-04,-7.150157630542080872e-04,6.506794543803639912e-04,5.041272640228271484e-01
4.592579163442538914e-01,4.563023879818960404e-01,-2.959613760726736986e-02,-3.002286275938400879e-03,-7.732126027843931777e-03,-4.905481909188697150e-03,4.876687228679656982e-01
4.562046681853649255e-01,4.602175073149035178e-01,-3.277648664071203255e-02,-1.596121394042189544e-03,-1.140819036268557983e-03,-1.798266016696013303e-04,4.910117387771606445e-01
4.679141714882716907e-01,4.614621754460773717e-01,-3.882552774199660162e-02,-4.631192019434552938e-04,-4.204162175330494701e-04,-8.803390178348792462e-04,5.035482048988342285e-01
4.713990941373451538e-01,4.601353929940941168e-01,-3.755429417892852673e-02,-6.348608963944330765e-04,-2.905635162712861576e-03,-1.580363988102081920e-03,5.034498572349548340e-01
4.583070321268688518e-01,4.596100096211652719e-01,-3.665617087455980139e-02,-3.867926510688488506e-04,-7.858590408183816324e-04,-1.264657125462261217e-03,4.956231415271759033e-01
4.610379093806825646e-01,4.575351795502804464e-01,-3.570488793984283316e-02,-9.411999874733543731e-04,-3.595985590315707667e-03,-2.123652123815402120e-03,4.950562715530395508e-01
3.636160772866585122e-01,5.204758197253605001e-01,-1.241879465897915980e-02,-5.151929657500424302e-03,-2.606385636675933020e-03,-4.100311915305714615e-03,4.744917154312133789e-01
4.572653048169682544e-01,4.548812121061932556e-01,-3.383860766334273462e-02,1.254645367421861361e-03,-4.947286986352648387e-03,-4.667799034544059707e-04,4.899966418743133545e-01
4.626077993997246285e-01,4.618624380903202375e-01,-3.972499240101895479e-02,-2.081436325870941327e-04,-2.150876084415173390e-04,-5.140929919348752319e-04,5.019615888595581055e-01
4.614943732151033928e-01,4.617226888193047829e-01,-3.885579350677231814e-02,6.637616155196008542e-05,-2.812257495097352194e-04,-1.355789109739041895e-03,5.004701018333435059e-01
4.974188105228211088e-01,3.894326709457942570e-01,-2.093727206795892304e-02,-2.269775546704125291e-02,-8.686148857780313232e-03,-1.071232411275146144e-02,4.759148359298706055e-01
4.622908407016373955e-01,4.593983508528592941e-01,-3.880913059596347026e-02,1.099542825982983410e-03,-4.274236580199847093e-04,-6.902803808653969035e-05,4.996641874313354492e-01
5.041527515153568784e-01,3.969422426021674832e-01,-2.096754196711253515e-02,3.059442660610972500e-03,1.105717799245125622e-02,-1.466983363110137793e-02,4.816507697105407715e-01
5.275382929573412261e-01,2.973713564216957650e-01,1.920780236816244102e-03,-1.422301168870523588e-02,1.093936321010874129e-03,-1.625350284028591460e-03,4.570440053939819336e-01
4.627193686186864552e-01,4.624438485945229216e-01,-3.954996335576593802e-02,6.936947796780003340e-08,-2.675590709452742907e-04,-8.190449868462899071e-04,5.021338462829589844e-01
4.578766842303462203e-01,4.323915614183683753e-01,-2.294587406759462933e-02,-2.224889756072953671e-03,-1.003243038368146003e-02,-1.225632325018558878e-03,4.689427614212036133e-01
4.666424358835576935e-01,4.818059850574574199e-01,-1.394754665191988430e-02,1.568420611129494073e-03,2.184883987545665780e-03,-1.052047214109382966e-03,4.883739650249481201e-01
3.652354023298824415e-01,5.141283266392597806e-01,-2.209839762018667164e-02,-2.031113427904926785e-02,-3.374017495808466494e-02,-6.632354257855551175e-04,4.842746853828430176e-01
3.762522332924075896e-01,5.281642108179498418e-01,-1.521350304178153978e-02,4.207191137487261909e-03,3.127436225606812135e-04,4.165887303898112466e-03,4.856917262077331543e-01
4.631765050346455803e-01,4.921850960084804272e-01,-2.288793282357010073e-02,1.591526873422131286e-03,-7.043976171770033497e-03,3.105584965884636587e-04,5.013551115989685059e-01
4.150284414299253433e-01,5.101792125105645281e-01,-2.561171576200205191e-02,-1.562356292213849676e-03,-8.479462378398699637e-03,-3.419695141688960417e-03,4.953814446926116943e-01
4.634157279866111812e-01,4.822745534467284267e-01,-3.167443940752706633e-02,2.285018919461592247e-04,3.768162570929599635e-04,8.894877737289975418e-04,5.047867894172668457e-01
4.780553482557270417e-01,4.680973828504164658e-01,7.178710494200196690e-02,2.547814907828736906e-03,2.736464006613855381e-03,-2.054804187968497890e-03,4.014499187469482422e-01
4.534989199517467373e-01,4.889193671011389242e-01,-2.854058386840097050e-02,2.086180255423762415e-03,1.493861411520855127e-04,5.874850232798063633e-04,5.007044076919555664e-01
4.758921178668292784e-01,4.728543153318165992e-01,-6.965887354753397265e-03,2.503428016384800885e-03,-5.179737401414385468e-03,-7.007240557715484555e-03,4.816023707389831543e-01
4.213590076905688320e-01,4.835263371549021194e-01,-2.357329039214084432e-02,-4.312168055110842009e-03,-8.090728220410170523e-04,-1.105512071957469485e-02,4.794936776161193848e-01
4.275292278999197615e-01,4.706580216824512997e-01,-2.193251804251450388e-02,-3.608812374972804413e-03,-9.678138326423535963e-04,-1.011321409476687201e-02,4.728735685348510742e-01
4.538912111837685170e-01,4.837287240728248006e-01,-2.419037063034529256e-02,3.226638165389295997e-03,-7.416012320512622991e-03,5.290686630514329289e-03,4.939607679843902588e-01
4.462281683748545724e-01,4.841675270486505700e-01,-2.097375081668600982e-02,2.331744612195690586e-03,-1.020819628672795529e-03,7.056893765938803548e-03,4.874537885189056396e-01
4.616869964404436422e-01,4.768097419960298788e-01,-3.563548030597929461e-02,-1.105731414557975149e-04,-1.264893154094998704e-03,-2.497484106383602350e-03,5.050770044326782227e-01
4.303489977031270675e-01,4.917522897409160043e-01,-2.714259006739211388e-02,3.047393965156445819e-05,-1.245519696117537191e-02,2.771032713482822398e-03,4.915779232978820801e-01
4.586982449130898587e-01,4.570933344600697223e-01,-3.716186659340914300e-02,-9.676634551936623939e-04,-3.258560267382840450e-03,-5.073869719588119942e-03,4.951726198196411133e-01
4.305537690259471084e-01,4.181258791554101073e-01,3.614500338593840123e-03,-8.737494053951794584e-03,4.304992755962203099e-03,3.154671001460299714e-03,4.212364256381988525e-01
4.204395421732318727e-01,4.247957716162202857e-01,7.409951843824480466e-03,-1.698885319890982779e-02,-2.966883841349019987e-03,-8.820942460675768385e-04,4.163007140159606934e-01
4.139235709669797925e-01,4.248320033281616781e-01,6.152247040389691168e-03,-7.981604174193655810e-03,-5.050986696938359168e-04,-1.472250727621349491e-03,4.135734140872955322e-01
4.589354801955598528e-01,4.769767809378807621e-01,-3.563474439664959803e-02,2.232553143790005166e-05,-8.829042580231565810e-05,-2.615694880813544936e-03,5.038535594940185547e-01
4.237313521569712194e-01,4.112436345402848969e-01,6.530860520336356778e-03,-1.371824279771083691e-02,7.894424758324130849e-04,-5.331555227670305109e-04,4.117883145809173584e-01
5.618387231508329416e-01,4.599547783742073404e-01,1.524919815777264764e-02,2.109663885874787578e-02,-6.698926691615178335e-03,-2.892810380662018746e-02,5.073776841163635254e-01
4.425987256502967870e-01,4.903914691464958953e-01,-2.684226991016008812e-02,4.061896072873071029e-03,2.970249295541277975e-04,1.945158024952816289e-03,4.951322972774505615e-01
4.501238964537438436e-01,4.490387338869102907e-01,-8.138723074070486341e-03,2.604058036423793476e-03,-3.486731827912798072e-04,6.583936844984604724e-04,4.577450454235076904e-01
4.870608086209470278e-01,4.784552176943348556e-01,-1.143177319209648379e-02,4.394562154731136185e-03,2.279183805575520083e-02,3.983279196396696809e-02,5.006549358367919922e-01
4.595690174860774802e-01,4.750426181166698680e-01,-3.804906417216818992e-02,1.486202374400060920e-03,2.902566371470233133e-04,-2.400825256176076540e-03,5.055564045906066895e-01
4.935966833930702236e-01,4.751749127536407658e-01,8.743848322395886274e-03,1.132298400415171144e-02,-3.935822631599037238e-03,-6.555234236812590431e-03,4.764974415302276611e-01
5.459055610544903958e-01,5.235625459944790450e-01,-2.812129465789292571e-03,3.593240656727357540e-02,1.753812012218377431e-02,1.783243234408017977e-02,5.432130694389343262e-01
5.112162811488301095e-01,4.732487697569116580e-01,4.620844768012116743e-02,1.840957039943856913e-02,-2.959601957729427607e-02,-1.510242552583882999e-02,4.520480036735534668e-01
4.552622753323176674e-01,4.634227870107179292e-01,-2.272365044613311458e-02,3.931889618531946191e-03,-4.743028407720753688e-03,2.841296146980646069e-03,4.822611808776855469e-01
6.135448523034187085e-01,4.004879002126925380e-01,5.741133608921872300e-02,-6.184526930857763699e-02,3.827661920296943077e-02,7.228513919980313063e-02,5.174310207366943359e-01
4.520099549171699982e-01,4.560108180790036214e-01,-1.800781589419159223e-02,-7.460877515520700221e-04,-1.306695284381872079e-03,-2.263702746066073265e-04,4.720382690429687500e-01
3.045547145453233462e-01,5.320471431884823410e-01,4.041061752926289330e-04,-9.889758335478190596e-03,-1.271287751534711918e-03,-1.025876823288392539e-03,4.623351395130157471e-01
5.656558747769463436e-01,3.080666900427737609e-01,-2.533936180712142994e-02,5.667432683292036172e-02,1.209455638881542887e-02,5.105726575660713557e-02,5.303667187690734863e-01
5.028099744740284205e-01,4.888510562957427141e-01,4.019299075226079321e-02,2.471201285240712600e-02,-1.895372162644226935e-02,-1.044715064519415731e-02,4.593352973461151123e-01
6.095409834757476997e-01,4.505023857605364168e-01,6.487490592902844799e-02,4.683848970201620610e-02,3.529811412167851298e-02,-5.219163627557916324e-02,5.038082599639892578e-01
4.305877179469287386e-01,4.683722289189780619e-01,1.507562015269398037e-02,-8.570274680596780270e-02,1.457550979231533872e-02,6.775633760451855005e-04,4.609245955944061279e-01
4.690228896549592519e-01,4.755442722989203785e-01,-2.883740489677444341e-02,-1.034401762924478481e-03,-3.015380551746040579e-03,2.962452751035448209e-03,5.012094974517822266e-01
4.668100740318865127e-01,4.729641818003637033e-01,-2.906069085174023403e-02,2.632339912643750929e-05,-2.060173503273655601e-03,1.838715962105470477e-03,4.989992082118988037e-01
4.565617525735604643e-01,4.761828138553722001e-01,-2.663547048628417402e-02,-7.145814392863039958e-04,-3.948354896751370916e-04,4.339411184441846828e-03,4.933597743511199951e-01
4.665797797089880072e-01,4.638190001211477398e-01,-3.416902046114239644e-02,1.522653687617574539e-02,-1.311385927394572749e-02,1.203444318226243662e-02,5.010194182395935059e-01
4.052961242210083581e-01,4.528810718082993958e-01,-6.112843955883795477e-03,2.230001694203422383e-02,-9.875273654542689530e-03,1.606585549690677656e-02,4.400651156902313232e-01
4.414980867875096249e-01,4.513088669687489451e-01,-2.085768032610846312e-02,-4.161067970458747281e-03,-1.319462174418998537e-03,-1.245100834530889883e-04,4.673995971679687500e-01
4.255219748850720407e-01,4.930874184233615676e-01,-1.555729112266868164e-02,2.311116696680039218e-02,-7.267392823466231958e-03,1.240609725709785477e-02,4.807704985141754150e-01
4.524383625173474810e-01,4.640519472680115776e-01,-1.978281289620659189e-02,7.378363263759201741e-03,-4.796588767414133175e-03,4.369986711098576039e-03,4.784365594387054443e-01
4.613454448313367706e-01,4.624064565004866734e-01,-3.736079441290279801e-02,-6.582354744315896790e-04,-2.003027016192487561e-03,-2.393180600923346633e-03,4.992681443691253662e-01
4.571543634701482617e-01,4.602909105708279935e-01,-1.980788565829288972e-02,2.549912241804378268e-03,-3.886791489666449866e-03,5.885971703288105095e-03,4.787145256996154785e-01
4.337677022454748954e-01,4.748654746429902818e-01,-2.052864222459821475e-02,3.825657118990618243e-03,-3.686918188207113922e-03,8.233224844568478445e-03,4.764795899391174316e-01
3.966095023879384063e-01,5.093884047522345693e-01,-2.347160089171634878e-02,5.022187102464084098e-03,-1.477709520241441039e-02,-2.257386984762701186e-03,4.871442615985870361e-01
4.587478418181851758e-01,4.826623795681231899e-01,-2.807782571972949892e-02,-4.657957983309903802e-05,-3.570305087987336781e-03,2.621568237344656417e-03,4.992716908454895020e-01
4.685032064403737428e-01,4.801150267353066492e-01,-2.776518039409953120e-02,-3.681879971276025092e-04,-3.325295128070722677e-03,2.138549428873721698e-03,5.022220611572265625e-01
4.595302405299054316e-01,4.844395685110243766e-01,-2.789743143443174089e-02,-5.159420363215458426e-04,1.155181365343175117e-03,-3.378268318952052946e-03,5.003865957260131836e-01
4.684073116467412645e-01,4.664786433207338545e-01,-2.955757146064680319e-02,-3.000560649013326144e-04,-4.149306755773005118e-03,7.906128070443036717e-04,4.970574676990509033e-01
4.211167616838369931e-01,4.884079592399496739e-01,-2.699573735859062129e-02,-3.157782401755134406e-03,-1.605985215867700979e-03,-1.043428467310801924e-02,4.856451451778411865e-01
4.683679938352344196e-01,4.803438735135808768e-01,-2.976394896470990759e-02,-8.424026583202201849e-04,-1.223311517615110425e-03,9.464496480601115739e-04,5.042358040809631348e-01
4.591725049547874526e-01,4.855233541201715020e-01,-3.302312395473494533e-02,3.131189627463699856e-03,-2.324944665550920161e-03,-1.348127844675143811e-03,5.059365034103393555e-01
4.649173208983250483e-01,4.861760409319786369e-01,-2.415487808174798801e-03,4.436984834081185783e-03,3.069143862059501237e-04,2.581633173312652702e-03,4.783995449542999268e-01
4.593986504123333536e-01,4.704416708122947099e-01,-3.770458363178014194e-02,-3.213269884823558432e-05,-1.797486597280278779e-04,-2.411631920979638924e-03,5.027331709861755371e-01
4.913520373117365447e-01,3.803257424349965055e-01,-1.141023309419431087e-02,-1.034970578419840657e-02,-1.301567457484038501e-02,-9.824545053996199505e-04,4.583768844604492188e-01
4.769538144939826085e-01,4.774940555288180177e-01,-2.869122503395088453e-02,-4.389507753293803594e-04,-2.050501330262479837e-03,-1.036899283614552830e-03,5.059316158294677734e-01
4.603367217849677617e-01,4.815811742239319293e-01,-3.188624762295017012e-02,-5.761078348702505336e-05,-1.056434867694710627e-04,-1.100878495683152956e-03,5.031853318214416504e-01
4.578263474653305187e-01,4.937150357579263016e-01,-1.051655886712504762e-02,1.340078876490578223e-03,-2.596190891746716356e-02,1.130294999576797119e-02,4.897468686103820801e-01
4.972852352352171157e-01,4.231999235096494116e-01,-2.680905520667348219e-02,-5.620350980926624735e-04,-3.593799394189681716e-03,-9.479845849646810138e-03,4.915740787982940674e-01
4.590794734470099447e-01,4.885949596129575134e-01,-1.183872638727989646e-02,7.142783770008285203e-03,-5.667936987110011073e-03,4.270760662177301020e-03,4.866607189178466797e-01
4.647257593150575516e-01,4.824967849698430511e-01,-2.863588589807664064e-02,-1.352547709253093381e-04,1.898728931676899013e-04,-4.570864563342913662e-04,5.024836659431457520e-01
5.053659757103592387e-01,4.939186300572756538e-01,4.412821452210108353e-02,1.087903289226854614e-01,4.288952371792827817e-02,-6.265152801453356679e-02,5.102857351303100586e-01
4.750551746897366812e-01,4.799926741095271177e-01,-2.833430102775758019e-02,1.702954258910375574e-03,4.972006791672781590e-05,1.112210170986462814e-03,5.058885812759399414e-01
4.742823369586621207e-01,4.779790794610084825e-01,-2.654188713439464831e-02,1.895063504868617615e-03,1.039123674421881319e-02,8.801970151775846338e-03,5.032466053962707520e-01
4.336658237904820190e-01,4.916338071763221018e-01,-3.329905581306896734e-02,1.512259404329669744e-03,8.162896031239763595e-03,8.562014529065513357e-03,4.989109933376312256e-01
4.684336145682906349e-01,4.873121102926508685e-01,-3.488921977045200684e-02,-7.716846186542049247e-04,-9.150390709727206258e-04,5.352280613883901236e-03,5.131105780601501465e-01
4.732464705601572286e-01,4.782409619828966729e-01,-3.763896742069855472e-02,2.081071694711179084e-03,1.833645927773684117e-03,8.942490543139782920e-04,5.134257078170776367e-01
4.700805516803262529e-01,4.788761383076859390e-01,-3.804474660007001185e-02,3.224708945270360425e-03,-9.367424790211377895e-05,2.443113318682574916e-03,5.126276016235351562e-01
4.935196392800352827e-01,5.004441330450335457e-01,1.109062414438643507e-01,-1.135089945434240334e-02,7.994996208371683497e-03,-2.223075186366521225e-02,3.887817859649658203e-01
5.412100177267653578e-01,5.277340835694854793e-01,1.094125381848269352e-01,2.888674374082173327e-02,-4.307553129410154023e-03,-1.952127750924675595e-02,4.295509457588195801e-01
4.184109901489793115e-01,5.031941879486103719e-01,-1.849675859954369450e-02,3.330849538092570811e-03,1.954021194691381302e-03,9.245318190218201199e-03,4.852011799812316895e-01
5.563215098823715010e-01,4.758264081701690240e-01,1.132849419020526271e-01,2.435663493684381634e-02,-2.938883411474031704e-02,-1.257343147375686657e-02,4.146609604358673096e-01
5.210776421305181039e-01,6.042871223613794918e-01,8.790865667087244262e-02,1.541968348077911270e-02,-1.950071895852852413e-02,-5.088661769738897500e-02,4.901279807090759277e-01
4.342271520653273043e-01,5.080813951922361627e-01,-2.164289269234581647e-02,5.060736662924319312e-03,1.651698140185952094e-03,4.677619013386149008e-03,4.970820248126983643e-01
4.477746166409228845e-01,4.146221284608447299e-01,-9.757607990115435559e-03,-5.105301557145370227e-03,-1.160398866539080580e-02,-1.024286096316554245e-03,4.424384534358978271e-01
6.725341732346772350e-01,5.289848988496439475e-01,7.543341857408192297e-02,-1.400400530717291897e-02,2.980845427856871482e-02,-8.599030194508833214e-03,5.430452227592468262e-01
4.739997931530081088e-01,4.703018231361421053e-01,-2.934532907858816708e-02,-1.011714784843696256e-03,2.857754914802878958e-03,-2.097638926305898498e-03,5.015470385551452637e-01
4.697597333221666949e-01,4.674204990265992121e-01,-2.679525090831308409e-02,9.372439053191523655e-04,1.660908763327855300e-04,-2.708046102960743207e-03,4.954144656658172607e-01
4.757111432291479258e-01,4.695287291982084277e-01,-2.887196807497605100e-02,-3.450712232010138950e-04,2.858840295276742372e-03,-3.892732367835427792e-03,5.015906095504760742e-01
4.755329321059571512e-01,4.694572663427732384e-01,-3.177654779238309191e-02,-2.291768780342639644e-04,5.752093712459824433e-04,-7.686474904963197909e-04,5.043019652366638184e-01
4.744164298545638370e-01,4.698344891306296955e-01,-3.134399393229342357e-02,-1.065566704104702273e-03,9.768836809418434167e-05,-9.782933063485095820e-04,5.034913420677185059e-01
4.601358393541322700e-01,4.770892628473185626e-01,-3.448563866657561316e-02,4.385686168760172471e-04,-1.489844649953675883e-03,-2.841145319620742415e-03,5.033436417579650879e-01
4.575265920776199757e-01,4.755896596786529096e-01,-2.661053841367672090e-02,-1.028016804691338172e-03,-6.900093425456248946e-04,4.676156960859576689e-03,4.934878349304199219e-01
4.334828661456756604e-01,4.470392345633700804e-01,-1.738587364658500389e-02,-3.608686684121071696e-03,-5.341310682893545686e-03,-8.433921690445572716e-03,4.581665396690368652e-01
3.963441021717059032e-01,5.138673047479014322e-01,-1.275853717463826253e-02,3.697750664446992734e-03,1.032708398654745736e-03,1.087071937896339456e-02,4.792227745056152344e-01
4.418586786832751634e-01,4.489254790779783066e-01,-2.189102286526456442e-02,1.100549054391039344e-03,-1.418805622414716968e-03,-6.842975506705892795e-03,4.674837887287139893e-01
4.404656514350547836e-01,4.381448250733416816e-01,-1.408162192609785368e-02,-1.663380450369145950e-03,-5.027938870333678416e-03,-3.215904445974301657e-03,4.535183012485504150e-01
3.754895743037831579e-01,5.431265519833525790e-01,2.017275605196622301e-02,9.080912513170902312e-02,1.127786127996669996e-01,-1.875410237490648946e-02,5.271314382553100586e-01
4.590342513407932312e-01,4.563883877389499633e-01,-1.965523970499116757e-02,4.279568988208971338e-03,-8.643245965003650694e-03,1.212184179686770285e-03,4.776688814163208008e-01
4.781930266877030267e-01,4.790339112328260152e-01,8.010663647149796063e-02,8.475229783985904763e-03,-4.104771370314672270e-03,-7.433584825642921244e-03,3.990489244461059570e-01
4.513261588765360433e-01,4.680461672238540594e-01,-1.739845631765407630e-02,-1.308475709093470272e-03,-1.299894173303571803e-03,5.667025200419280144e-03,4.774159193038940430e-01
5.231698081782079068e-01,4.971824385757154241e-01,8.312981788187367993e-02,1.781822653859756883e-02,-1.490412057752443786e-02,8.600349197077422278e-03,4.297857880592346191e-01
4.669395452449778827e-01,4.700272380690529994e-01,-2.727659744288668531e-02,2.100335064688270414e-03,3.825534606713553186e-05,3.975608964404172673e-04,4.957810342311859131e-01
6.445092840303594528e-01,5.991011050028903773e-01,9.662750169444622728e-02,5.297233088326359918e-02,-4.499240721729953763e-02,-4.721809576712042433e-02,5.463861823081970215e-01
4.696384407714329079e-01,4.768227551595366487e-01,1.063917409376720635e-01,2.062620269581489328e-03,1.033001909146814227e-03,-7.569207161457061801e-03,3.671475052833557129e-01
4.800751536547501197e-01,4.760186754877226978e-01,1.103042033798638799e-01,1.244308390921855393e-03,-5.108945818024438271e-03,-6.523205168611666965e-03,3.680457174777984619e-01
4.761922740564428214e-01,4.696821609537110698e-01,8.548871699845006500e-02,2.568141229327823138e-03,6.440666382337446047e-04,2.887550983322459928e-03,3.875489234924316406e-01
4.768677675841717090e-01,4.721488547038787398e-01,9.909221939969797832e-02,7.331854609423326535e-03,3.384758164929597187e-03,-4.660652364462948799e-04,3.756996691226959229e-01
4.607373484625632565e-01,4.659500624503191690e-01,-3.867458803831047565e-02,-4.967205355852264250e-04,-7.814394843615860876e-04,-1.253746561260703956e-03,5.020458698272705078e-01
4.915718186160121794e-01,4.915365771426406516e-01,7.193202059290532135e-02,8.020530954038797289e-04,-1.547838262248285102e-03,-7.719134401207011949e-03,4.198459684848785400e-01
4.519895952171731901e-01,4.636993352941723989e-01,-3.271434429939978905e-02,-1.966899516444599143e-03,-1.200172322927939381e-03,-4.918311325856008706e-03,4.907537996768951416e-01
5.161602778387743840e-01,3.338019781515635387e-01,-3.713205853481316154e-02,-7.038164805093297983e-03,1.250487615071667058e-01,1.058314595786592621e-01,5.649341344833374023e-01
4.802632172743411254e-01,3.201867886191461232e-01,7.585465251347456306e-03,-9.321734327285974286e-02,2.422766027009272405e-02,8.226641833520825092e-03,4.487945437431335449e-01
5.060356943280298614e-01,3.336788711354448655e-01,-2.072957961475541122e-02,-3.529298319273969226e-02,1.661116489277197558e-02,2.992674129025644017e-02,4.729147255420684814e-01
4.604614763043766712e-01,4.600476918118251435e-01,-3.906576516622678463e-02,-6.921957174912557215e-05,-2.176941398015654451e-04,-1.436265046709272455e-03,4.993268251419067383e-01
4.615097184381867779e-01,3.781631565854292609e-01,5.100235314089929251e-03,-1.187682183032260676e-02,-5.641508310747737377e-03,-1.230419698839821689e-03,4.215914011001586914e-01
5.666896694814553825e-01,3.772287204177078301e-01,-3.207485783271574187e-02,1.619637672661827441e-02,2.373892941730884956e-03,1.185979075505772320e-02,5.312228798866271973e-01
5.122195594578471400e-01,2.842546073389932704e-01,-6.792413413772568909e-04,-6.247469211239398829e-02,1.178054561087888905e-02,1.469000741857464688e-02,4.592202603816986084e-01
4.816666651361543039e-01,4.570628790735754565e-01,-2.404043918348902631e-02,5.868967356863592603e-03,9.834222182262793502e-03,-6.250171569745836993e-03,4.943818151950836182e-01
4.667979808532170538e-01,4.728951416539770580e-01,-2.955162124905130749e-02,-1.759360929190552261e-05,-2.463152088591085559e-03,1.250546017413124277e-03,4.994490146636962891e-01
5.452099627734671161e-01,2.541978121005061264e-01,-1.387724209854779289e-04,-1.106167581872844752e-01,2.018133526102664985e-02,3.527898350537132105e-03,5.112314820289611816e-01
5.112432449583218519e-01,3.322937716699196908e-01,-1.838338139756945377e-02,-3.871993528813520019e-02,2.133479532429227027e-02,2.946947512946161349e-02,4.756253063678741455e-01
4.697350605891958963e-01,4.724375833867627827e-01,-3.001924186874438405e-02,7.079459551563443975e-04,-2.700731963570115676e-03,1.735685479790828644e-03,5.011433959007263184e-01
4.702625827053821261e-01,4.747719093487328124e-01,-3.001156990921305390e-02,-8.143739789386696733e-04,-2.603214005140067587e-03,1.897319885950870567e-03,5.025769472122192383e-01
4.521257176476992101e-01,4.708314102636435572e-01,-3.331473280158148143e-02,-2.538031564888519154e-04,-6.215139534711472749e-04,-7.295296372376199913e-03,4.952210187911987305e-01
4.693108643109799583e-01,4.748293836154643954e-01,-3.139197552472650088e-02,-5.723081587413553434e-04,-6.415452550966216534e-04,4.136007759599591264e-04,5.034874677658081055e-01
4.685097653013983177e-01,4.749620256290230103e-01,-3.159927728529882129e-02,-6.230049420260023703e-04,-2.269280242529355497e-05,1.020191006800519502e-03,5.033704638481140137e-01
4.689903759804281425e-01,4.751107596106495801e-01,-3.146208610391604266e-02,4.744563624938631587e-04,1.098588127821973737e-08,8.454173943010658378e-05,5.035412311553955078e-01
4.654023852732529498e-01,4.742441643331960499e-01,-2.917146035116213731e-02,1.480072869094483040e-03,-2.853128461186485616e-03,2.859550441498083951e-03,4.991091191768646240e-01
4.692020181874572704e-01,4.546359162485004157e-01,-2.800666210575558646e-02,4.517080459258352582e-02,2.814041221624045269e-02,-1.016434249816796677e-02,4.989920258522033691e-01
4.792373138271306399e-01,4.740060314694978794e-01,-1.291943916547688698e-03,-1.297716557087619715e-03,1.875654505820585323e-03,-6.740492349772188481e-03,4.780939817428588867e-01
4.719719680515438998e-01,4.580650974110599405e-01,-1.671374943874442964e-02,1.776094190771981829e-02,3.114916031863084779e-03,-1.268436239293527050e-02,4.833934009075164795e-01
4.429496847029426032e-01,4.354143009075346349e-01,-9.633940003137664299e-03,-1.029270160841487536e-02,7.003028004529563040e-03,7.103785945680446759e-03,4.495494067668914795e-01
4.463278623608267770e-01,4.849860588752982760e-01,-3.273982335627856344e-02,-1.288398429060710090e-04,6.765431433726049569e-04,-6.239561903161876255e-03,4.996382892131805420e-01
4.460412014253186119e-01,4.513194684015156000e-01,-2.453261647371424159e-02,-7.756583370757510684e-03,1.048476507125896580e-02,7.824570733667195882e-03,4.739676713943481445e-01
4.533567726432989331e-01,4.521688550849398691e-01,-2.576647162732353946e-02,-1.589372253550413441e-03,5.434799627484504167e-03,3.868391221114095887e-03,4.786777794361114502e-01
4.420647060915478543e-01,4.512426144629949065e-01,-1.802281758283685864e-02,-4.847342897935709330e-04,1.850251426679997997e-03,8.199775207298785201e-03,4.649732112884521484e-01
4.354711325056085380e-01,4.891873999596880740e-01,-2.245207438345209194e-02,7.465149734963318073e-02,-3.933904100662067443e-03,2.137783508944822788e-03,5.039401650428771973e-01
2.809196512205887619e-01,5.533022171527731681e-01,-1.842091848463672799e-02,-8.432029446756666123e-04,-5.421724916482231066e-02,-1.423626589225071397e-03,5.041418075561523438e-01
4.676142114109134162e-01,4.804425844228280562e-01,-2.689359498404786386e-02,-6.413309413972527549e-04,9.489003788891096740e-04,5.914454222157545593e-04,5.010501742362976074e-01
2.061329120673925375e-01,6.085366501017228646e-01,-1.634023339517731710e-03,7.755725798985851904e-02,-2.717372936069441941e-02,2.193639069386831703e-02,5.571411848068237305e-01
4.353657342126176499e-01,4.874065390751156635e-01,-2.862857420009623510e-02,1.677604940060932383e-03,5.679717283632742218e-04,-2.200143750652985408e-03,4.921072423458099365e-01
4.756906720190557381e-01,4.741739571016231891e-01,2.063416308558052581e-03,1.033967976773514938e-03,-2.419735618550754135e-03,-7.697804191777820985e-03,4.730806052684783936e-01
1.980433079945294605e-01,6.339460006257064961e-01,-5.426757771711143707e-02,7.176562741920512745e-02,-4.457675792421180588e-02,1.080360607442987231e-02,6.208198070526123047e-01
4.455445985509832174e-01,4.389897328468408411e-01,-4.616520362868137273e-03,5.030990406077595969e-03,-3.356028210612494508e-03,2.353728877869204657e-03,4.470610618591308594e-01
3.992667671672051610e-01,4.901772037715327879e-01,-1.410675864609006736e-02,3.467580598205040332e-02,-2.367948519330951782e-02,1.891154052512565575e-02,4.723184108734130859e-01
4.594383056560643608e-01,4.744381192176761464e-01,-3.574920545724491472e-02,-1.240332811973250595e-03,-4.869513045442365158e-04,-1.179016906908862856e-03,5.028646588325500488e-01
2.050987318489667366e-01,5.578437197856378482e-01,1.765677984409408374e-04,9.126523082876178417e-02,-2.674299724228126895e-02,1.392807282341945556e-02,5.161617398262023926e-01
4.670617971044811467e-01,4.792948686520327461e-01,-3.046475858799796432e-02,-5.592496676345714863e-04,5.590958306617678985e-04,1.672349422792323128e-03,5.037646889686584473e-01
4.502809128590338217e-01,5.063629929648973960e-01,-9.955651953321820180e-03,-5.162432877799104890e-03,-1.546746436899177832e-02,3.739765406504498395e-03,4.915420114994049072e-01
5.164158572779031786e-01,4.239998498980663832e-01,-2.295887562359338885e-02,-1.294173240806611221e-03,2.321654138010733302e-03,-3.806148561802835673e-03,4.996835291385650635e-01
3.554659273485784587e-01,5.545801796226133007e-01,-7.213470232122987102e-03,1.235589920916159434e-02,-4.141214843911555921e-02,2.876883009340393607e-02,5.014811158180236816e-01
4.413268039276030397e-01,4.652187077168672968e-01,-1.550297293715136027e-02,1.172646511918860879e-02,-8.868773709754692453e-03,9.526590398730650638e-03,4.702122509479522705e-01
4.621993110332885957e-01,4.830866483946900658e-01,-3.341761045026070409e-02,3.639816440567915519e-04,9.413807683751658105e-04,-8.964539423080318059e-04,5.063892006874084473e-01
4.294112460030152789e-01,4.307230538696408262e-01,-1.346150710892146662e-02,-1.660455654535628392e-02,-9.395420109979939899e-03,-7.204443203882451331e-03,4.449343979358673096e-01
4.663262346334158259e-01,4.728718580608936017e-01,-2.990211405118903265e-02,3.251758354232048200e-04,-2.886069330925404922e-03,1.426817806682870388e-03,4.995647668838500977e-01
4.715629498826172661e-01,4.749048127234392624e-01,-3.021597891645011469e-02,2.850548564407455509e-04,-1.631150189804408566e-03,-3.508414383087404419e-04,5.034667253494262695e-01
4.449156530113028141e-01,4.559174626926724150e-01,-1.266290969976496816e-02,8.503163199042712214e-03,-3.226743679734585257e-03,5.041193012586227436e-03,4.635275304317474365e-01
4.713115120373828071e-01,4.711472094956983825e-01,4.299895464726721794e-02,6.029879110241047118e-04,-2.525725773266857595e-04,-4.800071485186243984e-03,4.283126294612884521e-01
4.597220098265352162e-01,4.571375061440972054e-01,-1.747395500643023070e-02,4.605142174761120075e-03,8.321511271988725239e-06,1.240160653969704044e-03,4.759806692600250244e-01
4.582074104422326766e-01,4.677077498089662333e-01,-2.235688173913974452e-02,1.156830564776289505e-03,-2.175764082148145661e-03,3.319989887323850000e-03,4.854370355606079102e-01
3.905745364004519771e-01,4.419369957840575402e-01,9.184931373652671649e-03,-1.962370880005876242e-02,1.826926587512725736e-03,7.274438656530934043e-03,4.111073911190032959e-01
4.686310589315090258e-01,4.728868125251617371e-01,-3.163310345903591614e-02,-6.553463574854502148e-04,-2.137452881395971913e-05,4.561087289095565512e-05,5.024068355560302734e-01
3.998311408519197863e-01,4.475064754653433341e-01,-2.300410196103885863e-03,-3.838634140554106344e-02,1.211880265280219741e-02,1.483634455087694086e-02,4.343684613704681396e-01
4.627199118617785212e-01,4.731770477223893323e-01,-2.671214072403060857e-02,-8.396185613498497249e-04,-5.645572802800603732e-04,2.848392245203212707e-03,4.947712123394012451e-01
4.166558032893789010e-01,4.237971113118009225e-01,3.346248150909447716e-03,-9.101169771744264947e-03,2.811154442544669049e-03,1.822510308563373913e-03,4.172643423080444336e-01
4.272153738845702042e-01,4.340383329324159489e-01,-4.551704843401060963e-03,-1.048870217079924359e-02,7.521243339426703263e-03,9.149520555547244888e-03,4.360804855823516846e-01
4.099043891980036491e-01,4.385386364991272767e-01,5.108793987212922882e-03,-5.355428300060961939e-03,2.591316228721685880e-03,4.934580253164869319e-03,4.200591146945953369e-01
4.429895374742394143e-01,4.429905693728564686e-01,-4.539397765442210186e-03,1.721343801921013496e-03,-3.049259600514532109e-03,2.240775135884137681e-03,4.475873708724975586e-01
4.006653412930282210e-01,4.560879183346444044e-01,-4.769987238923245609e-03,-7.459253267124985216e-03,5.122487188251833613e-03,1.248765967354939499e-02,4.366156160831451416e-01
4.778176108185607784e-01,4.293476355845671777e-01,-3.139118061422158101e-02,-3.386740727001786959e-03,-1.165831680288167103e-02,-9.342338723420181776e-03,4.875095784664154053e-01
4.495331866031836432e-01,4.595672443280819364e-01,-1.132083945663836522e-02,-2.939461985389786244e-02,-1.541033490015870748e-02,-1.341400987289875953e-02,4.700592756271362305e-01
4.801247028288059271e-01,4.619040423467055678e-01,-3.466375539182270371e-02,-2.729611651653074877e-04,-5.148391219632327508e-03,-2.935378314542186774e-03,5.060285925865173340e-01
4.792405059897059116e-01,4.688958853997388099e-01,-2.590510849043836661e-02,9.425286309717662491e-04,-7.271254263971637516e-03,-1.074089402474448507e-02,5.005606412887573242e-01
4.880846104327211665e-01,4.435269469449323876e-01,-2.937434050335652191e-02,-5.670449441426870900e-03,-9.061525216521867238e-03,-9.177176144657267498e-03,4.972804486751556396e-01
4.781160673063957756e-01,4.543642682436200286e-01,-3.505575271972083407e-02,-1.319530509973150046e-03,-5.184948297939266995e-03,-4.613526469381619248e-03,5.018669366836547852e-01
4.832473151917433540e-01,4.214208879632688753e-01,-3.315983637929159622e-02,-2.623755102849311543e-02,-9.930433845442235979e-03,-3.424594855748513966e-02,4.944195151329040527e-01
2.065239201334392871e-01,7.304928081349587599e-01,-5.610102597065963481e-02,1.159962323844106885e-01,1.995572461777772241e-02,2.238023060819753496e-02,7.240064144134521484e-01
4.736215526753059235e-01,3.770275394174289474e-01,-6.715017926302968565e-03,-5.668246089304664059e-02,-1.424860423149414655e-02,-1.761932105651763114e-02,4.525870978832244873e-01
4.032226740458337844e-01,4.749128123033974358e-01,2.523007527578835507e-02,-1.269782695665295225e-01,-6.190526405821033390e-02,-3.315175850496267229e-02,4.881398975849151611e-01
4.217748296340142478e-01,4.247834952727316260e-01,6.463251236668465793e-03,-1.483558853145008904e-02,-2.534885037857451725e-03,-7.841594309018273335e-04,4.176406264305114746e-01
3.804283964247665573e-01,3.747816608739684696e-01,-2.582761129842031655e-02,-2.112731634609344156e-01,-4.485745195180385753e-02,-4.065197693131111095e-02,5.546937584877014160e-01
3.475949904963206993e-01,4.721035485081416239e-01,-1.591215276175989013e-02,-1.241343841085511129e-01,-3.596131820083277308e-02,-2.782977251513166564e-02,4.953087270259857178e-01
5.560954894558720607e-01,2.069986711003155289e-01,-1.682720924621389225e-02,-3.361493235253184414e-02,-6.691523065815397839e-03,-4.635594921036544774e-02,5.099748373031616211e-01
5.571300921042843246e-01,3.109197502923354839e-01,2.286782396721476207e-03,1.483079670239949820e-02,4.144622950446715838e-03,-2.515433415459626416e-04,4.822593331336975098e-01
5.467693581887418386e-01,2.809880370966733043e-01,2.420114362672864949e-03,-4.645042409340305843e-03,-4.813365930248095573e-03,-1.435348003298371478e-02,4.722607731819152832e-01
4.620272230887305653e-01,4.858253764788413864e-01,-3.153450487763104215e-02,-3.230085808139183988e-04,5.554776514400355629e-04,1.285843827307434420e-03,5.058869123458862305e-01
5.536994991482657724e-01,3.022210525801681813e-01,4.569759113399296524e-03,2.833555050643775820e-03,5.872324539441439381e-03,8.814956654347680734e-03,4.764989316463470459e-01
4.666313040192426875e-01,4.726954135811793356e-01,-3.507171319358420858e-02,5.730638322629165275e-05,-3.161665785482665591e-03,-6.644770248884839751e-04,5.047934055328369141e-01
5.843643225652108697e-01,2.688482017481073627e-01,-1.799377780657535064e-02,-5.212531385027340675e-02,1.321029678351544681e-02,2.756368327082249145e-02,5.322461724281311035e-01
5.355260855542687271e-01,2.717514027627541684e-01,8.604403329219356689e-03,-6.674182923613831975e-03,-2.310890502547758684e-04,7.038994415065664804e-03,4.566370248794555664e-01
4.609391009390985672e-01,4.811459882014961775e-01,-3.519843862639787657e-02,3.799970460917585302e-04,7.953051707672980373e-04,-2.367417165993550201e-03,5.065622329711914062e-01
5.417441639083795391e-01,2.950520008664694327e-01,1.016738098323999306e-02,-2.157700589412107559e-02,3.845622901059625280e-03,-1.790184753028852167e-03,4.623264670372009277e-01
4.658847447289045096e-01,4.822694724323901561e-01,-3.040225191149742434e-02,-5.949822113999308484e-04,6.387229935952613933e-04,1.867320654814560001e-03,5.046914815902709961e-01
4.322462779781806042e-01,4.549872665141463379e-01,-6.272893015294489505e-03,8.051162689095579805e-03,-3.585576257961353274e-03,7.363834633099897685e-03,4.507596790790557861e-01
5.470347379274047572e-01,3.149799970283816974e-01,-8.940623269812486562e-04,-6.349876247511639614e-03,5.134497313267660963e-03,-8.619142258595245687e-03,4.768110811710357666e-01
4.944048092721083920e-01,4.416012606262021967e-01,-3.023774199343720603e-02,1.119044918037378697e-02,6.979866826679933210e-03,-2.909413605035574175e-04,5.008563995361328125e-01
4.690319005644642547e-01,4.617810802836688211e-01,-3.728716414529614775e-02,-9.348211421667309022e-05,7.477582886280010298e-03,5.801690230554904133e-03,5.030000805854797363e-01
4.788643085100688368e-01,4.579246509411919464e-01,-3.154544546777132696e-02,-8.799988834198260073e-04,1.082958501604886978e-02,8.609746206191542725e-03,5.008445978164672852e-01
4.836870025502867376e-01,4.731678253045896732e-01,-3.454554806459164684e-02,1.442284152379833201e-03,5.828777678987140214e-03,6.082172784965643973e-03,5.132673978805541992e-01
4.698894747887123469e-01,4.770096911796043448e-01,-3.050040045314766912e-02,-1.132795820066254079e-03,-1.592740220882631454e-03,-6.727300375607798746e-08,5.039990544319152832e-01
4.715161966147598527e-01,4.395202310778323351e-01,-2.847223147602706561e-02,-3.164473820552625959e-03,1.451001343199756488e-02,7.255762111681557901e-03,4.856275916099548340e-01
4.798481817718559528e-01,4.718887080796853040e-01,-3.604555106335155523e-02,4.565379048015902504e-03,8.155015570396589170e-03,3.928909901075524486e-03,5.122614502906799316e-01
3.964340312058004523e-01,4.383383379714003714e-01,-1.335744369147962018e-03,-3.758908927269330458e-02,-1.187035755366768093e-02,-1.334625556142138812e-02,4.264281094074249268e-01
4.666810210059603725e-01,4.752476149867402855e-01,-3.152809941836365315e-02,-9.647642597725708665e-04,-1.097004832865113196e-03,1.293901954016825795e-04,5.025535821914672852e-01
4.451300770686285047e-01,4.467322875830702644e-01,-8.556828285001982781e-03,-1.427484661879314942e-03,-5.983516557069919629e-04,4.205442343389544004e-04,4.544986188411712646e-01
4.499211458216962334e-01,4.407540381742157121e-01,-1.983823970019077398e-02,-1.373101187978953636e-03,-7.356975996236702481e-03,-2.127416755955390329e-03,4.654386937618255615e-01
4.599576022211099291e-01,4.575093668625527243e-01,-3.394780998649282733e-02,-1.626755201655172723e-03,-2.362285082783761609e-03,-2.387908361011535120e-03,4.927282631397247314e-01
4.591336768752954933e-01,4.433653966366806753e-01,-1.865473747279861039e-02,-1.068782768345541076e-02,-1.488825571409944232e-02,-1.208401813175464211e-02,4.716378450393676758e-01
4.670987020392610156e-01,4.786696477681832707e-01,-3.055880824304180177e-02,-4.184500193219690533e-04,5.704293823166639056e-04,1.338263004195942765e-03,5.035495162010192871e-01
4.752131890880134657e-01,4.796220469318033253e-01,4.944719620314508290e-05,-2.392601131459061795e-03,-2.482325238140058957e-03,3.226538465310832115e-03,4.774535000324249268e-01
4.152847150372711016e-01,4.388667002853803289e-01,1.039680341393178775e-03,-4.653242211251041975e-03,-3.840174743904106736e-03,-7.505229947434102940e-03,4.268512129783630371e-01
4.252984865137519055e-01,4.326073885563399557e-01,-7.887810106460724224e-03,-8.972003072913840860e-03,-2.198990323654591468e-03,-6.596834346353657764e-03,4.373287856578826904e-01
4.147026205926075959e-01,4.505634620301605109e-01,-1.546846137447399627e-02,-1.575947385716389496e-02,-4.308209094777989620e-03,-1.326343362777218995e-02,4.506528377532958984e-01
4.681093646171874401e-01,4.762813865633098720e-01,-3.059409838235621626e-02,-9.361655515019519412e-04,-2.363234873880497668e-04,1.646848365118089644e-03,5.028501749038696289e-01
4.653986732044981256e-01,4.715189879285276442e-01,-3.819276113973024689e-02,2.796556079185912990e-04,-2.307312210722907604e-03,-2.594200524819146540e-03,5.067152380943298340e-01
3.705925900266641704e-01,5.275768986457197718e-01,-1.442750900987055385e-03,2.702912007778673562e-02,7.431379669352193573e-03,-2.755605550347047178e-04,4.730916321277618408e-01
3.262736975369827652e-01,5.249402472583191148e-01,6.590309957646978134e-04,6.798608157000969772e-03,3.316888272210296446e-04,4.230287010994226472e-03,4.586662650108337402e-01
2.546429051153334400e-01,5.880460787460448646e-01,-1.354214788542396075e-02,1.654591707427159608e-02,2.386396034037191471e-02,1.604715296094169977e-02,5.251637101173400879e-01
4.693084176625301751e-01,4.749152007546820209e-01,-3.164007082578640384e-02,-3.783688314372295235e-04,-7.540476327172524916e-04,5.826587461541406481e-04,5.037783980369567871e-01
2.681697858624569331e-01,5.592714634420929976e-01,4.417035913805877900e-03,-7.548362562899775703e-03,1.094305910267508175e-02,1.150635313442918001e-02,4.816761910915374756e-01
3.018727034066889803e-01,5.399154582477450059e-01,-5.285602442031689385e-04,-1.934563578165789588e-03,7.352074974109096446e-03,-1.791558013352733368e-03,4.693381786346435547e-01
3.044601872206987303e-01,5.503729065929534592e-01,6.711310091115196830e-03,-1.200701398231041571e-02,-2.415617305147686310e-03,7.323945306160842446e-03,4.721849560737609863e-01
4.759242873234713622e-01,4.704933910605931802e-01,-3.084976446140430539e-02,-1.075385950840325629e-03,1.683054158362497395e-03,-5.204475640938837451e-04,5.040932297706604004e-01
3.372734537195423155e-01,5.191398368691670928e-01,-3.890318482085930452e-03,2.056149508287535062e-03,2.557524760978827777e-02,4.941801958853839216e-03,4.621282815933227539e-01
4.890649657359940061e-01,4.274386525309623597e-01,-1.903336461221011300e-02,1.167234319443846181e-02,7.257517361369816671e-03,-6.027354317299889880e-03,4.809628129005432129e-01
5.750572887452854998e-01,3.414804199450479083e-01,3.645093410305022541e-02,1.221812900782744691e-03,1.152591636435276734e-02,-6.994112947578358386e-02,4.836602807044982910e-01
4.661243244346917614e-01,4.626793392739222410e-01,-2.503021618616740884e-02,1.020929050860814973e-02,4.955681191099485169e-03,-8.116089088650390790e-03,4.900373518466949463e-01
4.821450751483207786e-01,4.622657529725179293e-01,-3.110697988903421418e-02,6.045549674368401504e-04,-1.270313559092776760e-03,1.048177069296490167e-03,5.036159157752990723e-01
5.172059800716987121e-01,4.050173670964762329e-01,-2.264379603333332991e-02,1.851177656218631895e-02,3.077390019829109001e-03,-8.887015434787396903e-03,4.947246313095092773e-01
4.481133579501971331e-01,4.799764532063640621e-01,-3.261180765180982100e-02,1.063676690977989614e-03,-3.907669587626453581e-04,-8.229631302089913253e-03,4.976307451725006104e-01
5.279821769632918604e-01,3.338826528466364851e-01,-1.021040662133693155e-02,-2.051307801894983185e-02,-1.370326014439821570e-02,-4.468489892813140574e-02,4.802904129028320312e-01
4.832716162577453956e-01,4.572017665409833787e-01,4.343857905037790124e-02,2.280605113874309767e-02,-1.712941379335793839e-03,-5.810919566922016603e-03,4.293446242809295654e-01
5.260643800249307223e-01,3.210641030583361588e-01,-8.857488870015306492e-03,-3.193993391762571174e-03,2.001118825591344935e-03,-2.200109073035115201e-02,4.690438807010650635e-01
4.633738053962707659e-01,4.814619472614727336e-01,-3.444856406875129728e-02,9.216061825074467083e-04,-1.729595920847400506e-03,-6.594845210989171667e-04,5.071210861206054688e-01
4.797781615058164806e-01,4.691910271495829399e-01,-2.724564861845374386e-02,-7.752645969120558174e-04,2.118789658877477146e-03,-2.760570190461178030e-03,5.018519759178161621e-01
4.748941798880231824e-01,4.658254436519628783e-01,-2.949867204584649683e-02,7.533923191556290890e-04,2.488955590097118465e-03,-1.770007845957508345e-03,4.999498724937438965e-01
5.158609631016370933e-01,4.800870386508702126e-01,4.140730635195272180e-02,2.617024631260368543e-03,-6.297691436946513920e-03,8.243644970836379662e-03,4.579916894435882568e-01
2.963059115903060037e-01,5.181825508647533995e-01,5.129032015307455339e-03,-7.303597819299145755e-02,5.299417322901602001e-03,1.988733738080768199e-02,4.646418988704681396e-01
4.781574705528988667e-01,4.602915907901820591e-01,-3.457356851822146471e-02,3.961884464562336452e-04,-1.358438870960759466e-03,5.396683846856720809e-04,5.040424466133117676e-01
4.663768214225944009e-01,4.766967474688381667e-01,-3.314528897234397808e-02,1.457182491005455053e-03,-3.857559695640841359e-03,-3.226471494734601663e-03,5.048426389694213867e-01
4.849850850151967152e-01,4.398948472169646462e-01,-2.088937299628190747e-02,2.541371945838725218e-03,8.953293094749422906e-03,1.682274003310160401e-03,4.851808547973632812e-01
4.907934038761472828e-01,4.555376924622858148e-01,-2.800047006957329110e-02,7.967242082768703163e-04,5.644960064884801607e-03,1.652093153855661595e-03,5.022004246711730957e-01
2.663694410252817613e-01,4.467570261811826260e-01,-8.613846416644360682e-02,-2.091228810798980986e-01,7.382019948862444947e-02,5.781110788815260054e-02,6.147856116294860840e-01
4.646795636265497742e-01,4.685791651295358462e-01,-4.122023163543336866e-02,-6.279734572407549018e-04,2.064643821096363765e-03,1.753715551632805498e-03,5.078836679458618164e-01
4.285122284232021350e-01,4.486800156956856078e-01,-5.186950588594751999e-03,-5.341438954650478028e-03,2.585665788354793351e-04,1.095434087311606894e-02,4.446282088756561279e-01
4.388263539093466559e-01,4.416046732283397391e-01,1.579136155061000579e-06,3.122794609356184786e-03,6.320262506145151934e-04,-4.117932903908069200e-04,4.402556717395782471e-01
4.279651771661807658e-01,4.607049175775511651e-01,-1.565377174638821201e-02,-1.721651893703577763e-05,2.672583644285089766e-03,1.362583405946578285e-02,4.614889621734619141e-01
4.771128689742195617e-01,4.659254783247380183e-01,-2.893801064009782209e-02,1.277909069174640441e-03,2.729910987887210726e-03,-2.219140376605673384e-03,5.005929470062255859e-01
4.666795024190665275e-01,4.737584669722969544e-01,-2.712655226776261586e-02,4.267647307184438648e-04,-4.176015517262682709e-04,-5.129786658798754159e-03,4.974637627601623535e-01
3.753415505035699873e-01,4.619332117372401125e-01,-1.058065225743859417e-02,-1.075956374339834820e-01,3.358464297405253096e-02,3.240696688291445221e-02,4.807458817958831787e-01
2.862791162637887132e-01,6.249755113494015468e-01,-5.577108454320273134e-02,1.930494506368770347e-01,2.057549571115275394e-03,2.863920616102333047e-02,6.795898079872131348e-01
3.904060827130137468e-01,4.280937194282423697e-01,-1.589916030174359785e-02,-8.767074648820388783e-02,-4.594169769073905979e-02,-4.287182753939225432e-02,4.655334353446960449e-01
2.871647266319941050e-01,3.540689304254565073e-01,-1.398632319866346951e-02,-2.616395868881730147e-01,9.319958843535151166e-03,8.110432002029347928e-03,5.666922926902770996e-01
4.316388084958953097e-01,4.336654136299522011e-01,-1.191418777069924717e-02,-2.624637650377467657e-02,1.249008244122459116e-02,1.117637876842942322e-02,4.478299021720886230e-01
3.673343948111626456e-01,4.266196706021493923e-01,-8.726704169934268451e-02,-2.837264796815437973e-01,7.050007967209427628e-03,-4.763982447794377038e-03,6.919882297515869141e-01
3.740695854093564754e-01,4.266217492300862779e-01,6.462937609767127611e-03,-6.593521416351841302e-02,-7.699010544971481192e-03,-4.521405751201097029e-03,4.129121005535125732e-01
4.827940307672085041e-01,4.657675933467801954e-01,-2.882293643052935561e-02,-3.728994047087578752e-04,1.712311481749508122e-03,8.085322999472465549e-04,5.033308863639831543e-01
4.760869754643270446e-01,4.688829155574222307e-01,-3.108348722451298451e-02,-3.316366754151987666e-04,3.827252995512199214e-04,-5.085795556838433379e-04,5.036085844039916992e-01
3.714984871160673663e-01,4.982251683841031342e-01,-8.353374815791236863e-03,2.195289515082191750e-02,1.572637262160302835e-02,2.585148774146534423e-03,4.590122401714324951e-01
4.762413943080976986e-01,4.689215371728470139e-01,-2.873710845883870046e-02,-7.940285620679572894e-04,1.989965865995117419e-03,-2.436488504797871581e-03,5.013901591300964355e-01
4.771833689269959211e-01,4.712263480481573286e-01,-3.005036057046284181e-02,-1.916005605964744667e-03,1.452366948366208121e-03,-9.277238310473043042e-04,5.043013691902160645e-01
4.772765775108103181e-01,4.697775923428629818e-01,-3.080774242653760986e-02,-7.174346598944661944e-04,1.779727016972573132e-03,-5.674343078123987409e-04,5.043885707855224609e-01
5.003811503815445150e-01,4.225662708757266239e-01,-2.321619004602959446e-02,2.365719160117278012e-03,7.314151606891709269e-03,2.953483226748023806e-03,4.895601272583007812e-01
4.199116559874542798e-01,4.571112054927155555e-01,-6.059676074770536935e-04,8.492232087598422172e-03,1.300386859374078790e-03,-2.177144288928868729e-04,4.405491054058074951e-01
4.753372681318881465e-01,4.682328405137448635e-01,-3.123908759582583183e-02,1.580486226883301675e-04,-2.071890536411633318e-09,-4.777695428747500762e-05,5.030618309974670410e-01
4.757628900354094470e-01,4.694168007263099796e-01,-2.883599810137454922e-02,-8.395399895413284755e-05,2.268257382615128468e-03,-2.514189235869702683e-03,5.014902949333190918e-01
4.779230260867252111e-01,4.674244009180115178e-01,-3.005083528527319192e-02,-1.232814616686993617e-03,1.234655852470148809e-03,2.533063728448815052e-04,5.028160214424133301e-01
4.758655020043506823e-01,4.651696884766629569e-01,-2.920427343531434294e-02,1.400423225823103359e-04,2.484476693088549012e-03,-2.334139458542965149e-03,4.998426437377929688e-01
4.527071934580006451e-01,3.570501163363059005e-01,-1.307262152860683146e-02,-8.272819752798403481e-02,-3.551355494520024025e-02,-4.146002948585422732e-02,4.593672752380371094e-01
4.311663372298937258e-01,4.493084685803264700e-01,-1.731059837405884982e-02,-1.711253168218754934e-03,-5.063142289175476610e-03,-9.302875347106887016e-03,4.581946730613708496e-01
4.118375860912968922e-01,4.189397117443717233e-01,-3.477885845392214570e-03,-2.961621094617249497e-02,-8.401562257098893829e-03,-9.633397761484061711e-03,4.226210117340087891e-01
3.580431481798875826e-01,4.888015720730007896e-01,5.971226146823105374e-04,1.042878021819297965e-02,-7.746935117276340264e-04,6.899014002945435750e-03,4.382640421390533447e-01
4.816057266466307052e-01,4.792926358740614012e-01,-2.823592063203916869e-02,1.823508893572222452e-03,-9.649975372917603625e-05,2.285478844700379597e-03,5.087142586708068848e-01
4.843306820784227251e-01,4.558970683840588567e-01,-3.139359371223104933e-02,-6.932718922149146579e-04,2.047733843014609332e-04,5.896276072243801644e-04,5.021142363548278809e-01
4.862218339219446239e-01,4.797957441627097586e-01,-2.833657873654782389e-02,2.847299837199560729e-03,-1.046171090294710114e-03,1.337469428677592323e-03,5.114079117774963379e-01
4.808237656981538821e-01,4.658878004516746607e-01,-2.975052686138229818e-02,6.699280666815248040e-05,3.525810767066721329e-04,9.709595159112014264e-04,5.032757520675659180e-01
4.364999267819098527e-01,4.980388399740608429e-01,-2.094897557768754526e-02,2.272281597379313678e-03,-2.042436499610820067e-03,-2.808771864917578368e-03,4.911711812019348145e-01
4.792287995959216840e-01,4.799766735315736943e-01,-2.656675246052370154e-02,5.501523632110970905e-04,-9.846849515363369134e-04,1.592847610092712127e-03,5.061811804771423340e-01
4.768779343560721751e-01,4.731932549437678492e-01,-2.445077344604290603e-02,-1.430016408314950527e-03,4.718407044516474691e-03,-4.689959735312509287e-03,4.996356070041656494e-01
5.643851877745761358e-01,2.151839235142757600e-01,-6.787302067038059050e-02,-9.643301891231996492e-02,-6.157669444616306609e-02,-1.671486848575347642e-02,5.839673280715942383e-01
4.778015782802340627e-01,4.792047861342360604e-01,-2.124455305293143637e-02,1.306100108122457094e-03,-5.315750572237271186e-04,-4.364599984535354540e-03,4.998123645782470703e-01
4.657883373365618862e-01,4.667986117827863657e-01,-2.321201958339552673e-02,2.843164964426048592e-03,3.894344998102219034e-03,-4.594891022330534376e-03,4.896422028541564941e-01
4.821214952028117784e-01,4.617826009917516683e-01,-3.005443531222901088e-02,-1.561478562874596149e-03,6.735900163804010030e-04,4.075897456776858075e-04,5.023245215415954590e-01
4.759385004906414585e-01,4.696872881309405168e-01,-2.917538236060990275e-02,2.931143296412946474e-05,2.472290959751502048e-03,-2.294064143108723829e-03,5.020514726638793945e-01
4.645239721762483009e-01,4.524831898092582794e-01,-2.435247528462125555e-02,4.313165890725519265e-03,4.499938256914457792e-03,-3.173495055715269339e-03,4.831205606460571289e-01
4.707940207666876931e-01,4.578306170591962543e-01,-2.366520716817593906e-02,1.680656648132118278e-03,4.943646469893211472e-03,-3.477303209019457723e-03,4.882275760173797607e-01
4.731039112064863161e-01,4.656714610855123837e-01,-2.730679487747356138e-02,3.214030505445484610e-03,3.692701441406533776e-03,-2.828980015309334891e-04,4.968087971210479736e-01
4.791471353479513917e-01,4.714455477095014779e-01,-2.185729124884089325e-02,-1.350602711936212032e-03,1.057890434248670792e-03,-2.694992656107767295e-03,4.972291588783264160e-01
4.666244413682291148e-01,4.747827117004247421e-01,-2.746336171585489483e-02,3.360790720877608422e-05,-2.779396685474217377e-04,-4.818177768503367590e-03,4.982871711254119873e-01
4.658188289257827464e-01,4.373837993226370457e-01,-2.584769629093403021e-02,8.216455331955091479e-02,3.539588159033386222e-02,-3.248240496928812143e-02,5.057083368301391602e-01
4.402017156437332823e-01,5.857431658154281795e-01,-1.789078127819754283e-03,1.585307139115413192e-03,-2.987026051131584301e-02,-2.843491383552432944e-02,5.347672700881958008e-01
4.688048948686421302e-01,5.018414831809488996e-01,6.327796266823504379e-03,4.790657665576961849e-03,7.003053114865926201e-04,-1.756879010339524195e-03,4.799320101737976074e-01
4.606522027439453604e-01,5.006817102165238564e-01,2.482616667502562935e-02,8.505340045552286024e-03,-1.199897519995583167e-02,5.903932330110164654e-03,4.579804837703704834e-01
4.685234611852786002e-01,4.843233574132169150e-01,-2.437917778204623520e-03,3.006301243867088701e-03,-1.052517828529133358e-02,-7.332884168326425298e-03,4.796000123023986816e-01
4.706998741483330306e-01,4.827348885915596632e-01,4.821594230226167177e-02,9.052405766659128022e-03,1.345738508147337545e-02,1.554048629880676845e-03,4.295561611652374268e-01
4.549140892308922157e-01,5.075847712695505942e-01,-2.864047186963158964e-02,4.886671309069631416e-03,1.333890954887477802e-03,1.011858454417270334e-03,5.120043158531188965e-01
4.589030961762804450e-01,5.196718872133336831e-01,1.396672927650521867e-02,2.655553731579349264e-02,-3.427910944629617568e-02,-5.951292389407785918e-03,4.841967225074768066e-01
4.506923201717268901e-01,4.846664639180321421e-01,-3.627027122538650783e-03,-2.718598857850638637e-03,-9.901485827223303546e-03,-7.190956663507722807e-03,4.727227985858917236e-01
5.312332646731690033e-01,5.296050948908186395e-01,8.583577340564974012e-02,2.835605597591833033e-02,5.342802562195031468e-02,-1.520710608782105573e-02,4.575216174125671387e-01
5.354924281662530872e-01,5.296062416542210993e-01,8.286579614317901576e-02,2.649504117755331623e-02,-6.728116765694228639e-03,5.243210782383623918e-03,4.522891938686370850e-01
5.417282400134346698e-01,5.073771877100090588e-01,8.002977063373239996e-02,5.452646085076416627e-02,-7.382302405332965417e-03,-1.121557062430381634e-02,4.560108780860900879e-01
5.228599161289778641e-01,3.439883445538233775e-01,-1.616027106041001415e-02,-8.952035780791485833e-03,-3.881646103339948892e-03,-1.054917417216025017e-03,4.758270382881164551e-01
5.054925321199711385e-01,5.116241685989135757e-01,4.657053295222413070e-02,2.791263857416941691e-02,-9.631724775343649889e-03,1.264050589020512642e-02,4.653557240962982178e-01
4.843434050466765006e-01,5.290307720532665403e-01,4.298681058133085875e-02,2.159581898565843608e-02,8.995152668543229812e-02,1.931674574122646884e-02,4.932626485824584961e-01
4.827214758414711815e-01,4.536383688417641169e-01,-3.514695245395560441e-02,-2.544983706308812663e-04,-4.964607204934832346e-03,-4.269824873246555116e-03,5.040844678878784180e-01
6.461782532155211367e-01,6.230767568643114096e-01,5.991605089850626786e-02,1.348181679976191982e-01,3.150103402355303173e-02,-4.741715958260856595e-02,6.284452676773071289e-01
4.803751712882061153e-01,4.651524011045957696e-01,-3.163181431055012149e-02,8.071574468907358668e-04,-2.365075409020334432e-03,-2.956897376578178360e-03,5.046123862266540527e-01
4.833391117416236948e-01,4.479802517871543377e-01,-3.477370858351147564e-02,-6.044062173753651443e-04,-5.891412388227926754e-03,-1.092560313345220527e-04,5.014743208885192871e-01
4.789969121526854168e-01,5.152728739101015698e-01,6.654789543544337160e-02,6.198270755158970594e-03,-4.727690824007571048e-03,-3.355047309920804622e-03,4.319817125797271729e-01
5.305281280907259145e-01,5.024826203964153359e-01,6.738433882228167526e-02,9.219641948647237795e-03,-9.376444853811876506e-03,-8.618398151588655895e-03,4.506009519100189209e-01
6.394124477049198951e-01,1.031322222499639618e-01,-2.942683643896537582e-02,-5.898897791581617783e-02,-8.658351068768315589e-03,4.669466288310151515e-03,6.220824718475341797e-01
4.442942887571372790e-01,4.399597129944158302e-01,-1.054498337181847267e-02,-9.833734189547842924e-03,1.015438497752756304e-02,9.629535462328364659e-03,4.536558687686920166e-01
5.488618010126047331e-01,3.018403675325244118e-01,-5.559147337828196367e-03,1.629771646357219134e-02,1.737489480295335885e-03,-1.257057123799674991e-02,4.824191927909851074e-01
6.264918118565994121e-01,1.587096622735215956e-01,-3.362456406930336428e-02,6.635247571503213870e-02,-3.765598918222843455e-03,8.859420858475425958e-03,5.993905663490295410e-01
6.394701436827838759e-01,1.087612432852855804e-01,-2.154549643448877561e-02,1.214209912090394305e-01,3.216435363723674917e-02,-3.109947875230632385e-03,6.443202495574951172e-01
2.421626074419756247e-01,5.129218046944149512e-01,-7.147746187310116683e-02,-2.240347535346560726e-01,-4.132323616833401964e-02,3.005293251613020550e-02,6.442116498947143555e-01
4.400848263929447723e-01,3.954785729103111880e-01,9.519301602728402756e-03,-3.648672897611072996e-02,-1.417208018805260180e-03,6.846841051092210535e-03,4.151035845279693604e-01
4.088130203293487419e-01,4.154302101804286385e-01,5.119708359871799619e-03,-7.629356575134026153e-02,8.550812955377054894e-03,1.774094256049738375e-02,4.293123483657836914e-01
4.253122107860194401e-01,4.194471025651570484e-01,3.040662648983394334e-03,-4.978759750330347469e-03,-2.641274722780813378e-03,-1.257409634260906730e-03,4.194889962673187256e-01
3.460133269347227536e-01,4.713304396214092473e-01,7.885051907966011964e-03,-2.454876796716811208e-02,-5.291252664500945349e-03,-1.805046547862933660e-03,4.175045788288116455e-01
4.711294904241425940e-01,4.593560456924300484e-01,-3.777306723414303180e-02,9.443662837800669409e-05,-2.637806472248419541e-03,2.200964785148913682e-04,5.031400918960571289e-01
3.368210658690916071e-01,4.921743456390113014e-01,5.590405632267314573e-03,-5.507694998465204744e-02,4.240754545899651229e-03,1.476937794251781400e-02,4.417181611061096191e-01
4.414338993771119712e-01,4.552973865970367795e-01,-9.627802175717903310e-03,4.639730742835694761e-03,-1.317680713026907159e-03,5.323398527259680379e-03,4.583196938037872314e-01
3.514318370083264198e-01,4.712601176649715562e-01,-3.333296050537448707e-03,-2.753972924007908399e-02,9.205928535031335583e-03,1.859699932594856622e-02,4.316191673278808594e-01
4.053435027807124058e-01,4.194346192782164584e-01,6.975434545872682968e-03,-9.425224468674826828e-02,2.576476373669652625e-02,2.350810268894024460e-02,4.413716793060302734e-01
3.407459681001911989e-01,4.715971826059007777e-01,1.000045180919068022e-02,-2.721372958217090424e-02,1.935098512920686777e-04,4.044314457594296031e-03,4.148060083389282227e-01
4.704439275748323879e-01,4.724333779442878578e-01,7.127173651973472968e-02,1.646220645414831710e-03,-2.131651356191715477e-03,4.042780623213401182e-03,4.002590775489807129e-01
4.657859757325431005e-01,4.653892028278427961e-01,-3.971004521200593995e-02,-1.381027274024391723e-04,-1.922799618777966358e-03,-1.933432145490689277e-03,5.053198933601379395e-01
4.778149851189444353e-01,4.806223572359677454e-01,8.462327383883649912e-02,9.813983557843779931e-03,-3.336302718134358161e-04,1.199915514442745704e-02,3.955156803131103516e-01
4.716518801540221517e-01,4.612276371288160925e-01,-3.792263962678821265e-02,-2.048005297662758482e-05,-2.435021247870729905e-03,-1.245883431939539404e-03,5.044654607772827148e-01
5.148177344893731799e-01,4.641139812940536791e-01,4.414673327597834485e-02,-1.489127115193704110e-01,-8.481836060175707015e-02,-8.167490888883299771e-02,5.552991032600402832e-01
4.863129991155274445e-01,5.101221626340888271e-01,1.129172317942420678e-01,3.050137339642257708e-02,-5.940991633825355028e-02,3.863192407287516228e-02,4.083361327648162842e-01
4.666939571266539577e-01,4.721764855231378455e-01,-3.806398440822189588e-02,1.382015457673629573e-03,-1.996582411412616866e-03,-2.421839949908974679e-03,5.075562000274658203e-01
5.275351727559973725e-01,4.738558431828223116e-01,7.379413275676999229e-02,1.923752981563117345e-02,-4.734732363868960855e-04,2.699000243886458782e-03,4.307419955730438232e-01
4.590334341366878457e-01,4.542661145077443452e-01,-3.313279823741438479e-02,1.313957009293625694e-03,-4.541491641696279377e-03,-1.334943730728848635e-03,4.898738861083984375e-01
4.657729540603005591e-01,4.605711064073170213e-01,-3.814557225986914268e-02,-2.870535210810466970e-04,-1.528518032051023705e-03,-7.469112556040708459e-04,5.013467669486999512e-01
4.674332416926090250e-01,4.599665661765742763e-01,-3.868454275753302474e-02,1.410002738301218165e-03,-2.285311841906760826e-03,-1.102766450286021718e-04,5.024476051330566406e-01
5.261875089015091156e-01,5.211466390666938953e-01,9.572834230773696884e-02,2.314036153730992390e-02,-1.899888659821500139e-02,-2.427453743536854211e-02,4.331370294094085693e-01
4.834767056262531115e-01,5.340689278620263103e-01,1.044119522740445394e-01,2.963186817043746146e-02,-1.361251762630129574e-03,-1.614778532551107426e-02,4.109128117561340332e-01
4.754303203701435443e-01,4.797451501284033526e-01,6.566992090448797725e-02,7.146600228299028901e-04,1.272749450373849948e-02,8.252695602999668423e-03,4.127736389636993408e-01
4.768309133307392367e-01,4.723728144163761300e-01,-2.858611705470448516e-02,1.180607674802083102e-03,-3.614687812070915395e-03,2.771619196016172383e-03,5.032687783241271973e-01
4.727651781887433069e-01,4.801156704325796332e-01,-2.284109918343701917e-02,-1.641953473004797472e-03,-7.712185701550554502e-03,3.865890094822267090e-03,4.995537102222442627e-01
4.564417409076800825e-01,4.554288167812809429e-01,-3.287972876308659087e-02,9.583691516252521069e-04,-1.176918646618222829e-03,-4.600358863521541303e-03,4.888877868652343750e-01
4.686008516202218033e-01,4.739341358599415965e-01,-2.958476064309328857e-02,6.878131546376371232e-04,-2.976731450372023351e-03,2.603553427002800943e-03,5.009217858314514160e-01
4.759117938239619816e-01,4.788461560713821452e-01,-2.730421192831394839e-02,-3.924793528066312888e-04,-8.734184165086825158e-04,8.505911187957294808e-04,5.046944618225097656e-01
4.735882470719066095e-01,4.774263831384264467e-01,-2.562268655194582800e-02,-1.144442197775303585e-03,-2.080915631563970414e-03,-1.759462630122083033e-03,5.011671781539916992e-01
4.700766705769831022e-01,4.821431208564301851e-01,-2.528643646826145286e-02,1.915473447857676944e-03,-4.054141948845941743e-03,-1.380872745567858972e-03,5.015710592269897461e-01
5.277129084774395684e-01,5.347076531534026289e-01,7.375858409204494315e-02,2.452100377575705537e-02,-8.987680339375976601e-03,4.554623388954686519e-02,4.664421677589416504e-01
4.627963440148341046e-01,4.609817445041081152e-01,-3.867678647428890448e-02,-2.513212961825238073e-04,2.767808631109147041e-08,-4.030742856942695217e-04,5.005689859390258789e-01
4.478912148713127817e-01,5.161518782074245859e-01,6.795226385062125285e-02,-2.452354128009280945e-02,-1.011066640717323273e-01,-3.055364659239408198e-02,4.584980607032775879e-01
4.484804086151173985e-01,4.561455316208387623e-01,-1.269247338724194263e-02,1.427195285114786841e-03,-3.233166736601606958e-03,3.700462788291882573e-03,4.651372730731964111e-01
5.070781928327413590e-01,5.239449394797168758e-01,6.039282877520790738e-02,1.499673005587498107e-03,8.140063080057819214e-03,-2.187991613893976259e-03,4.555944800376892090e-01
4.779166422966781846e-01,4.720159756163814224e-01,3.667617951519691610e-02,-1.853267780773325789e-04,5.001746420482853887e-03,1.549612252624608943e-02,4.392264783382415771e-01
6.822350441786190212e-01,2.323249962790262801e-01,-2.092262796122862367e-02,-1.009263915463852329e-01,-1.247116773638482119e-02,-4.380028920256646280e-02,6.459662914276123047e-01
4.928384607753356628e-01,4.940508879768946704e-01,7.275713068638656189e-02,1.980197733983389205e-02,-7.130779395673246188e-03,9.398746011905944470e-03,4.225790202617645264e-01
4.509373274498902351e-01,4.414362370711130690e-01,-2.061712879855714942e-02,-6.011463076153172186e-03,1.362529646905089042e-02,2.275461865960613003e-03,4.676050543785095215e-01
4.743440717271433238e-01,4.604188494484013350e-01,-3.662307149948040852e-02,-1.391361275758426215e-04,-4.680194512973490442e-03,-2.849945968423614300e-03,5.042381882667541504e-01
5.062181162656793632e-01,5.105094259767866127e-01,6.883107390434922701e-02,3.765093593458608383e-03,4.263853027276312026e-03,-4.054579058724281510e-03,4.397149085998535156e-01
4.714482178703076620e-01,4.601237832662370408e-01,-2.716171062066380371e-02,-1.525537042726093917e-03,2.564630721609950756e-04,-3.148969933345719882e-03,4.930827021598815918e-01
3.936800057677748987e-01,4.900223677421305934e-01,-2.071807840873862716e-02,-7.338212643238070654e-03,-1.386566100262656871e-02,-1.510739566681174387e-02,4.715450406074523926e-01
4.550663697540352493e-01,4.497651367946077228e-01,-2.436119515424178816e-02,-1.751840114257142630e-02,-1.508697303117327408e-02,-1.451201383302612967e-02,4.791374206542968750e-01
4.241211580035791906e-01,4.886541998329908543e-01,-3.110982106871473807e-02,-5.667660438926727141e-03,-7.611352005410486343e-03,-9.287884092254531862e-03,4.912292361259460449e-01
4.136691920374832576e-01,4.672207152776785555e-01,-2.011948086408849035e-02,-4.844830748478656281e-03,-6.982047462929588666e-03,-1.352422299901035428e-02,4.637195169925689697e-01
5.564542144345357988e-01,3.719502865735309638e-01,5.770523600922777829e-02,-1.135742405831024690e-02,6.025284108337383704e-02,4.543362994681450495e-02,4.563353359699249268e-01
4.833923878275280250e-01,4.559696657426614008e-01,-3.002715005624306821e-02,7.984491429234520567e-04,1.233273498849878948e-03,1.655678762816524627e-03,5.002868771553039551e-01
4.234480032727885312e-01,4.610192214743625838e-01,1.124878192348854888e-03,6.737137913390676275e-03,-8.096906420428007147e-04,5.621770567506421956e-03,4.425703883171081543e-01
4.670058133299703207e-01,4.320164193844350242e-01,-6.848895943702248967e-03,2.459058330153761178e-03,8.854750308349673693e-03,-9.964647893758906815e-04,4.576450586318969727e-01
4.402682897971529341e-01,4.299932809952485835e-01,-5.877138006538107362e-06,1.283396494655965683e-02,-1.153509835230748974e-03,6.569444771280349071e-04,4.358009994029998779e-01
4.974601198163584037e-01,4.821301502485004220e-01,-2.040793873430141181e-02,7.888478972371456774e-03,7.504636384947005120e-04,5.798149832689325316e-03,5.106590390205383301e-01
5.216024692964486009e-01,4.359672535984848163e-01,-1.007382921961941236e-02,4.838818044530990986e-02,-1.841978685133742813e-02,1.186998941609611682e-02,5.029390454292297363e-01
4.803543770801256274e-01,4.765132863584398137e-01,-2.118913724880433502e-02,7.292042926887737234e-04,-7.373426692268788716e-04,-2.196164545063635735e-03,4.996517598628997803e-01
4.286688165534200956e-01,4.488710208046879924e-01,-1.831009420252543984e-02,-4.113846376415853344e-03,2.030199092472022553e-03,6.776360532577088702e-03,4.576342701911926270e-01
4.898601217258287122e-01,4.680184917044136195e-01,-3.232487707968145774e-02,3.182092027398207915e-03,1.228094796477656068e-03,6.829312011675242079e-03,5.117847919464111328e-01
4.940803930154999968e-01,4.500795639425090311e-01,-2.973841557225676002e-02,1.041646643501764700e-03,2.414968678180699508e-03,1.904656685317057240e-03,5.032945275306701660e-01
5.352856456869384827e-01,3.923078646721878671e-01,-1.701625148890967276e-02,2.411703403051579028e-02,-4.181138697679713523e-03,1.363493149555459506e-02,4.988669157028198242e-01
5.088671337765984237e-01,4.241076604491163526e-01,-6.850441106686977477e-03,-3.122601630138314814e-03,7.052619049714312950e-03,2.177810391074999977e-02,4.806642830371856689e-01
4.819113421724263713e-01,4.775044981586547554e-01,1.751793695383196958e-03,6.038656264472070864e-03,-1.245672318787451049e-03,-7.444088349792795170e-03,4.782644808292388916e-01
4.861584981018329255e-01,4.505397201798447826e-01,-3.228242202544545636e-02,1.158026034811397622e-03,-2.508067937108695872e-03,1.935956736499581336e-03,5.016149878501892090e-01
4.470018805505962534e-01,4.412008335976600470e-01,-1.873558736643349265e-02,8.330132403190638720e-04,8.057977073999708292e-03,1.459385165712164369e-03,4.630837440490722656e-01
4.437428479401916426e-01,4.753565920312596282e-01,-2.093246696940864737e-02,9.280321805802595886e-03,2.898664995157739649e-04,8.247761791874157547e-03,4.817420542240142822e-01
4.804878958702936131e-01,4.603015097069068640e-01,-2.705273534259322599e-02,1.809171761677768074e-05,5.312518523198052171e-03,2.262935123770018530e-04,4.978397190570831299e-01
4.819303569729593839e-01,4.809657132712606975e-01,-2.637448562352090464e-02,6.416833835457822974e-03,-1.575147704697155496e-03,4.450687104480197109e-03,5.080106258392333984e-01
4.735085342417546528e-01,4.723951271471846791e-01,-1.260889967715961291e-02,7.247090761811988578e-04,-1.330986303486948828e-03,3.931507356604297190e-03,4.856165349483489990e-01
4.829031370092328190e-01,4.106434743092291506e-01,-7.266383912463814099e-03,7.142992587796729610e-03,1.039611988347352925e-02,1.332475196207684443e-04,4.588523507118225098e-01
4.843801915409581271e-01,4.559142118387707332e-01,-3.417565791639859407e-02,-1.621768111432953137e-03,-5.077943941161611012e-03,3.722632045052033092e-04,5.050098299980163574e-01
4.951118324822253447e-01,4.865704913354549355e-01,-2.659283403074758079e-02,-1.121461721975113707e-02,9.619512181730415640e-03,3.784396836355341520e-02,5.222490429878234863e-01
4.686039008675348949e-01,4.507893682009244118e-01,-3.424168394028270779e-02,-2.082564173280045117e-03,-9.034995675806109516e-03,-1.231595666165707058e-03,4.944446682929992676e-01
5.134117262844829499e-01,3.720763903614582313e-01,-1.485437256961674723e-02,4.785232312695009149e-03,-2.709474148410491272e-03,2.745280968253022581e-03,4.738052487373352051e-01
4.369203163829781245e-01,4.697662389924175952e-01,-3.160153578301899691e-02,-3.968669307992154539e-03,-6.455053138009742182e-03,-1.107619359779942608e-02,4.863341450691223145e-01
4.913749589579289312e-01,4.555005917158423401e-01,-3.160705497514937345e-02,1.402828418039586515e-03,-5.745888891549421739e-04,1.199912818895586351e-03,5.060105919837951660e-01
4.470620129738532844e-01,5.013718762850577493e-01,-3.153245382615932346e-02,-5.061942555966755103e-03,-1.129195314241438972e-02,-6.480799161993181651e-03,5.085076689720153809e-01
4.570835561580469664e-01,4.726444361340140787e-01,-3.215278647964764369e-02,-1.881980310724577039e-03,-3.956607428864358095e-03,-6.959703197040802321e-03,4.974034428596496582e-01
4.625301751914657755e-01,4.727510644419929964e-01,-3.678087408958097271e-02,6.856400361750866366e-04,-4.565857336367873213e-03,-5.383926024818103118e-03,5.046486854553222656e-01
4.533422185661040160e-01,4.784690259664632350e-01,-3.352473590342874843e-02,-1.323063392865047976e-03,-4.285247660548891467e-03,-4.640647770468048217e-03,5.000291466712951660e-01
4.286941871639046719e-01,4.811955187224064567e-01,-3.260439427216998975e-02,-3.045810241564404254e-03,-1.122502464766582039e-02,-1.286833494869024826e-02,4.905855357646942139e-01
4.622249552148244844e-01,4.642990889075691574e-01,-3.638577468117853986e-02,-6.832922356074405158e-04,2.193795920572626495e-03,3.565838511037382978e-03,4.997050464153289795e-01
5.767918909529036187e-01,6.028072022194813639e-01,8.535849418081714601e-02,-4.615303415448045177e-02,-9.335756067119277413e-02,-9.717133371787080309e-02,5.619896650314331055e-01
3.136279475786590831e-01,4.985098692251108687e-01,9.364499857044128461e-04,-1.918183079387896298e-02,-2.099507761742109777e-02,-1.127021886207447976e-02,4.388343095779418945e-01
4.588223905698527449e-01,4.422937592886497238e-01,-2.114934875885871035e-02,-1.952505092838048226e-03,-6.050963332896890957e-03,-1.820845868726082579e-03,4.720635712146759033e-01
5.142414602195928275e-01,3.862078602969965524e-01,-7.757308713992161486e-03,1.058953932709700979e-01,7.189841005506935820e-03,1.459201275553703367e-02,5.064358711242675781e-01
5.254189691588970756e-01,3.126655544145788279e-01,-1.748876985751718349e-02,1.843744874425345404e-01,1.245806598413437376e-02,-3.487951320628670301e-03,5.718315243721008301e-01
4.997061610094832851e-01,3.703336467039066160e-01,-1.289924068145303915e-02,6.125575087185899936e-02,6.581657082946369697e-03,-1.736691724864438194e-02,4.748432040214538574e-01
6.179339393422476068e-01,2.476143663543411699e-01,-2.239342746751099567e-02,4.608581870974234190e-02,-2.668965366955083213e-03,-4.590380173563967520e-02,5.681060552597045898e-01
5.796157096395853081e-01,2.551664834196813447e-01,-5.159753475527606437e-03,5.749199762465574681e-02,3.203226660342220131e-03,-1.053382263721584083e-02,5.174739956855773926e-01
5.355499776359129438e-01,2.984330830729346462e-01,-3.540801158118944691e-04,5.362327054198530452e-02,1.506589914334289897e-02,-9.751134747559635566e-03,4.753296077251434326e-01
4.818658052510518264e-01,4.776957728068801923e-01,1.468404845153459259e-02,7.369743159404701892e-03,8.570500559232313229e-03,1.438562722614906454e-02,4.661889672279357910e-01
4.817393246099839765e-01,4.757661552098632618e-01,-3.383164135852967380e-02,1.616207870186505465e-03,4.644067287672349795e-04,1.745318078657841134e-03,5.126276612281799316e-01
6.642435022741859374e-01,2.603646741692013378e-01,-9.015669473518189703e-02,2.748327930134658592e-01,8.584976165413942331e-03,4.387953638375388654e-02,8.124949336051940918e-01
4.621034979013237676e-01,4.624711503153730030e-01,-3.876976202589532683e-02,8.335475134332102475e-04,-4.383349009924235947e-04,-1.513586325641345194e-03,5.010666847229003906e-01
2.749551570186742344e-01,5.990258182818904986e-01,-4.305583081307684523e-03,5.543270213101088306e-03,7.697903431264285432e-03,-2.170205475884113763e-02,5.245869159698486328e-01
1.914473628737501376e-01,5.573674450174962436e-01,2.195221805623454037e-03,-2.380932141651297129e-02,3.680896108047615901e-03,5.404610813565142134e-03,4.907076060771942139e-01
4.971297749128025800e-01,4.570820172846034590e-01,3.807407737159140826e-02,-3.669790754494769991e-02,3.531447938681740034e-03,-1.210935743201717145e-02,4.454989731311798096e-01
2.613866366590649193e-01,5.504422979315991560e-01,-1.280561244161115830e-02,-2.339479457843583396e-02,2.624865261525031329e-02,1.299888811615004629e-02,4.921455383300781250e-01
2.745173592164295018e-01,5.485900692944511992e-01,-5.907086027467922662e-03,-1.881205896133310990e-02,5.171657210423432662e-03,1.355602823762208295e-02,4.819788634777069092e-01
4.901257441253413227e-01,5.112280906413226855e-01,-2.871376149941656797e-02,-2.679630867939982244e-02,3.395125399664828542e-02,3.580926480966325348e-02,5.385606288909912109e-01
5.005238030186875964e-01,4.852147150854658753e-01,6.529915466119196044e-03,-3.823526942860873412e-03,1.321357916266656385e-02,3.687796658380119216e-03,4.871449470520019531e-01
5.115191256762965377e-01,4.720165130735637926e-01,6.777732071714087647e-02,-4.571004521650040911e-03,4.896495331617357200e-02,4.658836350334027987e-02,4.412539899349212646e-01
5.018408306100892169e-01,5.208235137734467113e-01,5.214142020549777934e-02,1.916938539260498384e-02,3.204036838263361886e-03,-1.597973284444299466e-02,4.615470170974731445e-01
4.838973868196712047e-01,5.020132039807143620e-01,3.061699398414569062e-02,-3.414111502711318809e-03,2.782061966903578987e-02,3.235095785814263818e-03,4.651786386966705322e-01
4.659202780582648584e-01,4.538746923405946321e-01,-1.928404882565681877e-02,4.478045880298038833e-04,5.670871227639077798e-03,-8.965886074472690552e-05,4.793963432312011719e-01
4.710105392584824635e-01,4.536033462024839924e-01,-2.086140213350407002e-02,4.474545498347856816e-04,7.259030920648549233e-03,-8.958882283801991228e-05,4.835675954818725586e-01
4.816382568783051932e-01,4.400962380169824439e-01,-2.318711438415449466e-02,2.647784593517417753e-03,6.271986530918521180e-03,1.742835403015700110e-03,4.855420589447021484e-01
4.440236144603461055e-01,4.556521479173522016e-01,-1.275252840631829754e-02,5.892033859830840721e-03,-3.584031208423031113e-03,4.933873814968470391e-03,4.629330635070800781e-01
3.832471583152744499e-01,4.050810021724227661e-01,-3.186340744874704978e-02,-2.582397954226203218e-01,-2.191372988576042666e-02,-5.348269552500361373e-02,6.260528564453125000e-01
7.136767056557434818e-01,3.317711641451262516e-01,2.402317683130916759e-02,-2.341905546148605882e-02,-2.424450869520313953e-02,-6.772753905700941435e-02,6.125856041908264160e-01
3.881253980701941941e-01,5.279432596046123027e-01,1.476022139719096460e-02,1.348903314311969137e-01,-6.076014156708298142e-02,-1.126852986426442847e-02,5.264942646026611328e-01
4.927124918030467704e-01,4.229787533641175545e-01,-2.394320359648771657e-02,2.922791612303871772e-03,3.366862702038265175e-03,2.979377404032025351e-03,4.856478571891784668e-01
4.960619652164354187e-01,4.165193580151106967e-01,-2.403456477992815810e-02,-3.798129203037719256e-04,-3.543663000828489902e-03,1.804977588989352443e-03,4.852890670299530029e-01
6.806708237456264854e-01,2.957656572518765348e-01,-9.307829428622849122e-02,2.268962125984195777e-01,2.323380551025377994e-02,-2.418483838823221044e-02,7.789990305900573730e-01
3.651577712692498645e-01,4.634327107254312406e-01,-3.004143800786585050e-02,-1.454803412036378696e-01,-1.965514732169842960e-02,5.349041192234353995e-03,5.190538763999938965e-01
3.776645683636801198e-01,3.393661617063651326e-01,-1.529314093026340471e-02,-2.072579824056363096e-01,-2.245641468208278008e-02,-6.445811406596778023e-03,5.209011435508728027e-01
4.446099451384660228e-01,4.563221059608959518e-01,-9.380450414228302947e-03,9.457411407554465205e-04,-9.002611016371299922e-04,4.496216730545121720e-03,4.600298106670379639e-01
4.055268740132970118e-01,3.598800054623237377e-01,-4.945300012104697496e-02,-2.403791654040517145e-01,-3.015314448538632813e-02,-1.841831238553593916e-02,6.044945716857910156e-01
6.273914563414084711e-01,2.540785900528029218e-01,-2.443658449301039370e-02,2.736126941054795904e-03,2.025025978502383028e-02,6.758614901181722590e-02,5.795367360115051270e-01
4.943610745939964746e-01,4.061745031436496678e-01,-2.508053942439647521e-02,-4.436141901498895715e-03,-8.698429692866358615e-03,1.178046202779893655e-03,4.817456603050231934e-01
4.973015872423990902e-01,3.458225114883837215e-01,-2.448715266604506446e-03,-1.184649027243283789e-02,1.410665992959243484e-02,3.749974478358177607e-04,4.449865221977233887e-01
5.032964321978010691e-01,3.725656011765650644e-01,-1.226324081457202952e-02,2.745732540939375185e-03,4.558821884234058597e-03,2.203802483296818295e-03,4.643191993236541748e-01
5.505353129886076946e-01,2.836227164051845495e-01,-1.386204561496706678e-02,1.629545643324841267e-02,1.719243137255194046e-03,-3.059160167312418156e-04,4.898445904254913330e-01
5.331833670684265059e-01,3.043553497982550704e-01,-6.016041941635241752e-03,2.385713553132456227e-02,6.978182504020631963e-03,-3.401772681663285235e-03,4.707468748092651367e-01
5.305726192372450800e-01,3.655257318614564821e-01,-3.190245741363451071e-03,-1.633905873989899824e-04,6.052917340529347448e-03,2.397584964938717991e-02,4.752703309059143066e-01
4.833151606331539396e-01,3.886607257802886517e-01,-9.058136496639113133e-04,9.279824824629606672e-03,5.232890316014423421e-03,5.138324329431085379e-04,4.449011683464050293e-01
4.802686706261773408e-01,4.714280729691805449e-01,-3.893988466537795512e-02,1.640904984863483622e-03,3.804324302839833059e-03,-6.789058854905073541e-04,5.148965120315551758e-01
4.899656698716568504e-01,4.064046473080147881e-01,-2.531241024135999496e-02,-4.888057934165292336e-03,-1.102480007468249236e-02,7.404034175016441970e-04,4.794525504112243652e-01
5.429225114926862217e-01,2.911540455552392714e-01,7.160454952448269683e-03,-1.883204085091219962e-02,3.723058053970159514e-03,-8.032547572101748912e-03,4.656602144241333008e-01
3.516949810506686536e-01,5.009293038887360217e-01,1.183457180017777333e-03,3.647968858303072409e-02,5.042169059799798785e-03,-2.732140618762582060e-03,4.489192962646484375e-01
4.802093026023590561e-01,4.720766868302320174e-01,-3.736396254449619869e-02,6.544387914276001295e-04,2.813974140806161338e-03,3.515402710429848892e-04,5.135800242424011230e-01
5.426214594944180902e-01,1.877700720703774917e-01,-3.496646007832449055e-03,-1.618706489344199917e-01,-5.742033284487649270e-03,1.852174687006806963e-03,5.559579730033874512e-01
6.026967552002737705e-01,1.180601819502251210e-01,-3.150706955364696027e-02,1.591072916580507646e-01,8.351443389060148742e-03,3.262601189919221017e-02,6.395910382270812988e-01
4.696741229516052663e-01,4.302934626932642947e-01,-2.304816061518283332e-02,-4.125312725873777654e-03,-1.111130551768048022e-02,-1.057716743582505460e-03,4.747074246406555176e-01
6.227497281225820025e-01,2.262498761333577302e-01,-1.747624135251762967e-02,5.097589945211727230e-02,1.071937301969152351e-02,6.841300498708920326e-03,5.670385360717773438e-01
5.037888570263397980e-01,3.852843479226940593e-01,2.105306671538353935e-03,3.944443556223569541e-02,3.717466332585610093e-03,-9.708840123803565836e-06,4.593332111835479736e-01
4.960434773548610954e-01,3.423825360820708097e-01,3.984732001984403471e-03,-1.127730725997852859e-02,-6.402412109880305062e-03,-1.852237000446697217e-03,4.366212189197540283e-01
5.810128417760083153e-01,2.236171889790579403e-01,-1.806640630883482590e-02,4.677246053519508624e-03,1.301772136674689620e-02,1.381097838340095835e-02,5.231304764747619629e-01
4.399737683099723684e-01,4.203474791434674840e-01,-8.002722796469907696e-03,-6.570830777657829351e-03,-1.158607714853309920e-02,-2.924920686571219272e-03,4.391285777091979980e-01
4.109391234781848423e-01,4.256379890208462635e-01,-7.905835817545109334e-02,-2.658545011917285428e-01,-2.762627709738170456e-02,-2.234049194412670442e-02,6.806899309158325195e-01
4.942814778521448238e-01,3.768301293538062202e-01,-1.079357089695598404e-02,-8.801740326078571000e-03,-1.154468126728539108e-02,-1.826357773297559474e-03,4.584933221340179443e-01
5.631242322398799516e-01,2.283103576982512539e-01,-2.135379047881802439e-03,2.152114766875494814e-02,3.806706755704086526e-03,2.899993018854805753e-03,4.937815070152282715e-01
5.527444339604898893e-01,2.767784008049217759e-01,5.211876659030612036e-03,3.879574715599371643e-03,7.646755492331557338e-04,-9.449185586979124730e-04,4.742344915866851807e-01
5.320158306171605123e-01,3.165199163598446663e-01,-1.231305097275159355e-02,-4.710476490466478962e-03,1.077379240707456234e-02,-8.008526927065192161e-03,4.754355549812316895e-01
5.380340403653977033e-01,3.193487829688594903e-01,1.679167358404787258e-03,1.901036345288022525e-02,8.965990872050726840e-03,-6.672253691181799680e-03,4.686851799488067627e-01
4.289550062682113696e-01,4.183057778412480054e-01,7.130645711398375663e-03,-3.935583918420862241e-03,1.918096284652627851e-03,-1.040751604842428099e-05,4.166708588600158691e-01
5.444256435738717981e-01,3.338660502100209149e-01,-8.883750122416322892e-03,1.348788064263184254e-02,5.542993916469412911e-03,-1.465070792728023590e-02,4.850400984287261963e-01
4.119338786118818541e-01,4.740521061145797077e-01,-1.865850103675498195e-02,-2.609821987275678240e-02,-1.098938707367207342e-02,-1.611475765687070752e-02,4.681888520717620850e-01
4.371824849208204578e-01,4.388687688301914358e-01,-1.148712534734902535e-02,-2.324685760809892896e-03,-3.959172668657187297e-03,-5.706906761492451866e-03,4.496940970420837402e-01
4.111456348808945060e-01,4.879030509340322452e-01,-2.042102282863811347e-02,-2.134982521608121825e-02,-1.231227242014438714e-02,-1.469245434153500403e-02,4.772182404994964600e-01
3.806288161780121415e-01,4.928961207616145979e-01,-2.204663423401748146e-02,-1.851587765802738955e-02,-2.123127785470142054e-02,-1.293874201439568564e-02,4.720612168312072754e-01
4.016050342833814568e-01,4.762161516709132458e-01,-1.934040786765767184e-02,-1.262391197666238099e-02,-1.376947990642885845e-02,-1.571785172830833868e-02,4.647118747234344482e-01
4.775534059443691248e-01,4.767898328466715352e-01,8.637150689662975722e-02,4.941659388590620774e-03,-1.360422882567064763e-02,-1.123031355019693360e-03,3.916087746620178223e-01
4.771384281300551367e-01,4.827173326408243925e-01,6.818337946652086590e-02,6.598777266796090543e-03,6.117872482041294795e-03,-8.094071205196999574e-03,4.123061299324035645e-01
4.182816660493888783e-01,4.479151452416516577e-01,-8.217913042611990626e-03,-4.947634282033074211e-03,-1.476624146139532932e-03,-1.203370105916004400e-02,4.426433145999908447e-01
4.199365326134316678e-01,4.565726980611114483e-01,-2.483166523540858428e-04,8.427901895624574299e-03,1.343105504358142526e-03,-2.954914485569339944e-04,4.398979842662811279e-01
4.399877312741302671e-01,4.646161270378631469e-01,-7.934551168399639476e-03,7.443968229820958731e-03,2.126147395749619813e-03,-4.178376779902507297e-03,4.609823226928710938e-01
5.232083135632573656e-01,7.106325673723142833e-01,8.996599793268100775e-02,1.266435434191782727e-01,-9.050907198110264007e-02,-3.817221324337921606e-02,6.173245906829833984e-01
5.117701229589005640e-01,5.076098502175980798e-01,5.638981627939831931e-02,7.959343303128829997e-03,-7.294208258725642414e-03,-2.707664204745078435e-02,4.561174511909484863e-01
4.813017860164825468e-01,3.811285910541873378e-01,7.157962226985170595e-04,8.809337379651571015e-03,-9.867857577560746902e-04,1.782692286440223321e-04,4.394218325614929199e-01
4.612930411439888356e-01,4.233524619180607518e-01,-3.398447509522783960e-05,4.663024349937695129e-03,5.516901286607561739e-03,-2.261073054709830579e-04,4.437519609928131104e-01
4.377437734666651536e-01,4.416481335780966244e-01,1.087093232614744220e-03,2.296639589271522262e-03,1.490468482778019603e-03,1.227560587911192972e-03,4.386526942253112793e-01
5.130909020242929719e-01,5.039965270436039813e-01,6.557023308762255365e-02,2.212938985596234198e-02,7.802146575489787156e-03,-1.971440645852800058e-02,4.462121129035949707e-01
5.202402170656451608e-01,3.189801159903866701e-01,3.011391490744586008e-03,5.608085094076097239e-03,7.518843625609758323e-03,-1.146926319318383302e-03,4.518867731094360352e-01
4.430801469877403420e-01,5.061870430277338739e-01,6.032682520717930208e-02,6.045740081946331113e-02,-2.260220361383946663e-02,7.875295346533474697e-03,4.328058362007141113e-01
4.718014487083643793e-01,4.828965808600227394e-01,6.622950336295507778e-02,3.311252562945557996e-03,-6.873779408750411123e-03,4.196531357121388757e-03,4.115082621574401855e-01
4.764459478521549940e-01,4.732325699022832399e-01,-2.453228477303998067e-02,2.822251431222830460e-03,-4.197640162891466686e-03,-4.252657398820245023e-03,4.995104670524597168e-01
4.836980994455406524e-01,3.810093813149603159e-01,2.208925028283625913e-03,9.277139786059523247e-03,9.071599179630833064e-04,4.257814189758364143e-04,4.395389556884765625e-01
3.322394342519450761e-01,5.405650877282339728e-01,-1.671161870183174303e-02,1.299942811456986612e-02,3.269010591200629395e-02,1.741213724360026957e-03,4.915117919445037842e-01
4.217890798988660483e-01,4.847757821735392825e-01,-1.655033717719867070e-02,4.748493888978380824e-03,-8.818355169667271495e-03,1.065121146620469361e-02,4.736661314964294434e-01
2.558095968182088065e-01,5.843085198623536591e-01,-2.013982893852617195e-02,6.531306153505107848e-02,3.272296059588258865e-02,5.264549987337169799e-03,5.392602682113647461e-01
5.102384414379550481e-01,3.445841024317124468e-01,-1.195418235545647745e-02,-8.742622112428696801e-03,-7.872605523807939265e-03,-1.134195520956899966e-03,4.626468718051910400e-01
3.954417623768260448e-01,4.659241780665285826e-01,-2.266230371698707557e-03,-1.003333278097254082e-02,-2.260477493019497509e-04,1.505558097993682856e-02,4.383526146411895752e-01
3.706222958252550770e-01,5.115326034042827485e-01,-1.648192804468873174e-03,2.263845657501879077e-02,8.702342325611440652e-03,2.170491322875737952e-03,4.611687362194061279e-01
3.603914754484014438e-01,5.279349735459215598e-01,-4.332777256438324898e-03,9.208662621124220904e-02,-1.896614853843079859e-02,-1.206287589360076178e-02,4.991565942764282227e-01
4.747406615471065350e-01,4.361124147408261820e-01,-3.167967350218975353e-02,-2.293253539157939086e-03,-1.148248412809843577e-02,-5.680096764961506395e-03,4.887736439704895020e-01
5.213196325115830865e-01,3.189211310410270395e-01,7.566931429477397053e-04,5.120636156772949248e-03,6.890876499493167086e-03,-1.209535739886967340e-04,4.547646939754486084e-01
5.459645156794037391e-01,2.923295899011085219e-01,2.402508441262884986e-03,1.009354821179728315e-04,6.419192389557401741e-03,-8.881989524439659091e-04,4.712218642234802246e-01
5.282004671173485821e-01,3.713985891129534256e-01,-1.111437879323018407e-02,-1.337976189824599668e-04,6.231200998473060415e-03,1.829467105990645499e-03,4.806332588195800781e-01
4.027914320742261856e-01,4.793841821233715272e-01,-5.705561610944709372e-03,1.063419187809354870e-02,1.322810098700449855e-02,-9.813988675325810082e-03,4.529650211334228516e-01
5.167514481333129739e-01,3.674059757283723027e-01,-1.371394048165458512e-02,-1.388675290934403631e-02,1.824478555594433518e-02,1.763613310345488530e-02,4.764296710491180420e-01
3.708048955323064999e-01,4.966373207528765321e-01,-6.865050976627762314e-03,2.591165067429408025e-02,1.170059890966309440e-02,-9.381793775715385406e-03,4.568156301975250244e-01
5.419315047676988017e-01,2.751909288799785358e-01,2.979458967152071036e-03,-1.034792128318500620e-02,2.037028177496456524e-03,-3.514789820123705860e-03,4.671511650085449219e-01
4.950683617597601560e-01,3.424325518709053218e-01,7.601063518615225334e-03,-1.145979565502749584e-02,-5.040671275931203274e-03,-1.115919659928125973e-03,4.324246048927307129e-01
3.949189926465949130e-01,5.264122910246383791e-01,-7.945947871047298605e-03,9.688885552654316613e-02,3.284068527796631803e-02,-6.014598039356250370e-03,5.138784646987915039e-01
4.269529029532517783e-01,4.217098186505136015e-01,2.478899252021826705e-03,-6.868643695622597516e-03,-5.802862351514248909e-03,-3.747528209491764618e-03,4.222141802310943604e-01
4.914268466000236701e-01,3.769643170245464692e-01,-8.380712162886660987e-03,-9.500646966733809068e-03,-1.170918717937960950e-02,-1.250784863981534980e-03,4.542981684207916260e-01
4.713067871014849919e-01,4.715044117709416005e-01,-2.920300168546097197e-02,9.225436384092775433e-04,-1.947694800758750355e-03,-1.226525926329275016e-03,5.006270408630371094e-01
5.343523744586804458e-01,2.881448904810699485e-01,9.647042340048261888e-03,-1.351086964073401273e-02,6.879998952522023078e-03,-1.702481443636190547e-03,4.554621279239654541e-01
4.144359972072720333e-01,4.503296489368223687e-01,-3.774126079794715150e-03,-2.128832374650648299e-02,-1.155220605910339295e-02,-1.388796082727011827e-02,4.399292171001434326e-01
4.318829709239754289e-01,4.330538829495433339e-01,3.606810781846547798e-04,-1.165535486874549366e-02,-5.306128101293065315e-03,-6.484035935025356592e-03,4.328235983848571777e-01
4.076373547138039677e-01,4.370264598157104219e-01,6.475044552449071844e-03,-3.009974382965073178e-02,-3.154321384842323234e-03,-1.467711273422537882e-03,4.199273884296417236e-01
4.960294062952811389e-01,3.260076542510424447e-01,1.138308762798861951e-02,-1.794742729676401111e-02,6.587668521058426090e-03,-1.015550244670527185e-04,4.271833300590515137e-01
3.784984221297310603e-01,3.870529296138742748e-01,-3.737077127672794319e-03,-1.178619435024440693e-01,-1.671855065404305105e-02,-1.899388435256460159e-02,4.393655955791473389e-01
4.408486626896437333e-01,4.083384324129366028e-01,3.262328387449664469e-03,-3.469626177680330825e-02,-9.046994392888146538e-03,-5.122530807882865779e-03,4.269056618213653564e-01
4.632862917408558379e-01,3.835057036303528011e-01,3.690679434795229863e-03,-1.125128140509138938e-02,-5.102889354022742754e-03,-1.015295006079186243e-03,4.258958101272583008e-01
4.119079367888736076e-01,4.219552392694804199e-01,6.091878418415241914e-03,-9.112585716233899749e-03,-1.237835052889381523e-03,2.798882823322551778e-04,4.112407267093658447e-01
4.262919550641459665e-01,4.250965084661324500e-01,3.384500411043378509e-03,-1.167791754799697409e-03,2.609944567892231830e-03,1.167418095513251750e-03,4.223448932170867920e-01
4.097209585002875021e-01,4.241157028433840681e-01,5.952786664393749927e-03,-9.601728221950264069e-03,1.081719298852510530e-04,1.845591011221616893e-03,4.115032553672790527e-01
3.767193071963371720e-01,5.143059903899293017e-01,-1.227611875028977728e-02,1.261575945105764159e-02,1.378540308400642150e-02,-6.434191226448225318e-03,4.742783010005950928e-01
4.481079294020315351e-01,3.913763884198679377e-01,-1.828943728850340733e-03,-1.983435719756070428e-02,1.083307286393496438e-02,1.400659287289097521e-03,4.262325763702392578e-01
3.066818779826191443e-01,5.483054810364802467e-01,5.498933866766420042e-03,1.865988503893391617e-02,-6.827750413269117330e-03,1.047676311006460158e-02,4.726306796073913574e-01
3.687718242192660756e-01,5.194471862893681458e-01,-1.647759290800654419e-02,-9.352243606041926380e-03,2.651954287927390380e-02,1.544947531425211983e-02,4.819295406341552734e-01
3.271439410807083226e-01,5.244261258288264171e-01,-6.727255955329913828e-03,1.165801039480382842e-02,1.547094788647896541e-02,4.069475104495508082e-03,4.662966132164001465e-01
4.588748030444375070e-01,4.138468929885705805e-01,6.967420886072051012e-04,3.188893741574382046e-02,3.480676316730370052e-03,-1.081615611234461934e-04,4.409205615520477295e-01
4.478642400579012084e-01,3.716606677849100260e-01,-1.306332583080556664e-01,-2.469940100140579631e-01,2.022173974885215636e-02,1.061432428571217924e-02,6.935168504714965820e-01
2.858643216180285496e-01,5.632745347619920739e-01,-6.091651167647649245e-03,7.345955170560011793e-02,1.173221567211932964e-02,7.441141813590122431e-03,5.098570585250854492e-01
3.821888981545882302e-01,5.038748668243238082e-01,-2.405056203379241087e-02,-5.055076947508695129e-03,-1.521723526914454255e-02,-1.453616968883501880e-03,4.796345531940460205e-01
4.555681045113368910e-01,4.209344869451210336e-01,3.096452507902469620e-04,7.898328081849667268e-03,-1.408537368075197561e-03,5.291147041668635073e-04,4.391883909702301025e-01
4.650721498857069980e-01,4.705164332581838749e-01,-2.758860414930547345e-02,1.162796271085844539e-03,-5.953973598534586902e-03,5.354224034750916864e-04,4.955176115036010742e-01
3.122271789094180905e-01,5.181439758169270604e-01,-3.640763090319770745e-02,1.521242869921540508e-01,-9.867670955965362686e-03,3.408909486662062976e-02,5.558249950408935547e-01
2.921560355339236081e-01,5.105269598449172497e-01,-6.118359033044029616e-03,5.140000907382100137e-02,6.152405567785526608e-03,4.040677671246354838e-03,4.581226408481597900e-01
3.813759933704317096e-01,5.195742511589813706e-01,-8.502459989741306678e-03,1.902184983396602511e-02,-1.316094834542796098e-02,1.166865900473246405e-02,4.764431715011596680e-01
2.722011928650340251e-01,5.330723822830987224e-01,-4.120094669257667874e-04,2.599446492217855412e-02,-7.207442638129069219e-03,1.150109029798839682e-03,4.644088745117187500e-01
4.737923000141133212e-01,4.712028214130539183e-01,-2.877880250694075936e-02,2.972143726007076770e-05,2.004781537003496976e-03,-3.847506939320329521e-03,5.013377070426940918e-01
5.329365744519148906e-01,2.928711809164532553e-01,5.488767384724924092e-03,3.302388108765683377e-03,1.607034038435923521e-03,-1.673623202403514256e-03,4.574488997459411621e-01
4.681520301275537976e-01,4.683344100948038102e-01,-2.516312437749995690e-02,5.273374622912877473e-03,8.762445660080756329e-03,-9.102671248780499352e-03,4.939759075641632080e-01
4.734933054255839879e-01,4.787146658749836803e-01,-4.055390141965264927e-03,-2.553705210908480648e-03,-7.664042812867775945e-03,9.242682372709989718e-04,4.803871512413024902e-01
4.784026644079630852e-01,4.751015555998238105e-01,-1.383080023247945656e-02,1.083682744159358141e-03,-3.278768750185057351e-04,-2.419470166614234516e-03,4.906130433082580566e-01
4.907243194872151770e-01,5.126974465202694953e-01,1.880672103647040849e-02,-1.234185434552079533e-02,-6.032875426041425099e-02,-4.073528792107206087e-02,4.999122619628906250e-01
4.303649086985980032e-01,4.254072636314456535e-01,-3.803726271355223343e-03,2.758153830339199128e-02,-6.338175894618709554e-03,1.434927074968751423e-02,4.351953268051147461e-01
4.808817525372982571e-01,4.766237296646061439e-01,-9.740872285149582144e-03,-1.308274282056180390e-03,-5.832043189187719606e-03,3.884683551727195500e-03,4.886635243892669678e-01
4.550505662048347499e-01,4.310910974079988911e-01,-3.439209364663298185e-03,4.742249781190230155e-03,-4.484728871848833905e-03,3.723230262582213901e-03,4.471813440322875977e-01
4.815311107187443262e-01,4.748641630221497323e-01,-2.184015978073067243e-02,-1.113046313257913230e-03,2.255553466582912482e-03,-2.731444643714459855e-04,5.000903010368347168e-01
4.773887707569685612e-01,4.609250694221849187e-01,-2.659008871203677460e-02,3.046898170382146467e-03,1.870613370424779529e-03,-1.482827162826570516e-03,4.959973096847534180e-01
4.776638562681703726e-01,4.702137613983282116e-01,-1.836116002668142233e-02,-7.146877087460880328e-05,-2.725270130461037062e-03,-2.080587682971177178e-04,4.923650324344635010e-01
4.654477321866689055e-01,4.858309318769138407e-01,-2.953504952246671644e-02,1.469185899094632318e-03,-1.195264394083379780e-03,-3.986446400847502153e-03,5.055404901504516602e-01
3.968108625261679290e-01,5.044653088978904298e-01,-1.511975736243825752e-02,3.697738522019248467e-03,1.033698880125199929e-03,5.260739211583205337e-03,4.751312732696533203e-01
5.211615406972353037e-01,3.189572646492090380e-01,4.739118949198983799e-03,6.153178419183751545e-03,4.063535347186402955e-03,-7.911632163665678922e-04,4.509111344814300537e-01
4.790170625883599653e-01,4.770189805255492521e-01,9.639651661428327856e-04,1.033158289920509294e-02,3.414724230346811561e-03,-5.700898772613199363e-03,4.775314331054687500e-01
5.256000432434955183e-01,2.923417704626669611e-01,5.978466615404243178e-03,-1.289369550093916530e-02,-5.452090897273683887e-03,-2.135382118837199101e-03,4.514549374580383301e-01
5.639110066031974844e-01,3.804136167099316235e-01,-3.152966268816431716e-02,5.944617520327288851e-02,2.396533662660220703e-03,5.172214696085424002e-02,5.455303788185119629e-01
2.682254708122520648e-01,3.926707014491112036e-01,-1.506170109840823668e-02,-2.482938285049238469e-01,-2.369308338413205275e-02,-2.785678181841204012e-02,5.656443834304809570e-01
4.306746985633892466e-01,4.879410706299879830e-01,-2.638867361125446509e-02,1.375838103653823910e-03,1.384482784253471960e-02,-4.895994528283866172e-03,4.888899326324462891e-01
4.955056060310505384e-01,4.172080759610038436e-01,-2.163829665943878267e-02,-5.360706874598164529e-03,1.477783121129668843e-02,7.593061497683983776e-04,4.835497140884399414e-01
4.608482458896273615e-01,3.836178133410844682e-01,4.692268828668577640e-03,-1.184223447076785188e-02,-5.773678873983742986e-03,-7.697131115000741420e-04,4.234810471534729004e-01
4.911742873211648597e-01,4.808407732111942279e-01,-2.184729448388034179e-02,7.972201119803576722e-03,9.869440719241185864e-03,8.670089281804115380e-03,5.086305141448974609e-01
4.683723753488368557e-01,4.822968193401671044e-01,-3.206589536143933383e-02,4.727652959681003875e-04,5.637092364475361148e-03,-4.356282031694256977e-04,5.076388716697692871e-01
4.347866422734294467e-01,4.930761042238030467e-01,-2.865968363008364328e-02,5.434988897916562690e-04,9.753450684731469755e-03,6.830829969522628047e-03,4.956010878086090088e-01
4.291332604597023481e-01,4.078358188392497974e-01,3.070376080462344781e-03,-1.390494399859995914e-02,-9.276839392722486741e-03,-6.189090260868530292e-03,4.169679284095764160e-01
5.093084208919849143e-01,3.494563740692394060e-01,-2.202773711699801407e-03,-1.504929482618050894e-02,1.175692262458703959e-02,-4.196656812402893870e-04,4.544501304626464844e-01
5.030693029997346244e-01,3.260576019500427969e-01,2.087345754493263872e-03,-2.089251182046865107e-01,-5.205587465188950269e-02,-6.034021149348983704e-02,5.862062573432922363e-01
3.836187354209923406e-01,3.318353822247990803e-01,-2.981656265995363819e-03,-1.991884560087268385e-01,-7.438597464314919416e-02,-5.820274345811190381e-02,5.271741151809692383e-01
4.151798766342765790e-01,3.007610028183826389e-01,-2.809239695573667595e-02,-2.022058996964701261e-01,-2.999752726651283910e-02,-4.585682331952806168e-02,5.390111804008483887e-01
5.013545933826778489e-01,2.825573942628856750e-01,-4.666315972021356506e-02,-2.139092449346294278e-01,2.344634240489123795e-03,-7.146678073023160493e-02,6.171721220016479492e-01
4.905247101755969008e-01,3.851477144594570023e-01,-3.219101963508613773e-02,-1.007818939761000593e-01,-4.313812868486575913e-02,-2.837685303123618080e-02,5.174198150634765625e-01
4.777204021908759146e-01,4.682954577312561373e-01,-3.028158207443054639e-02,2.100465690049080087e-03,-3.325049328253964868e-03,-1.314904944203829085e-02,5.039167404174804688e-01
4.909874306366047714e-01,4.220754041606419316e-01,2.359100874452957353e-03,-3.083313902891267680e-02,-2.006870074196008200e-02,-3.619579673712370466e-02,4.667170941829681396e-01
4.751079836990804717e-01,4.696052761452082502e-01,-3.253809738109519900e-02,2.877615548886295824e-03,-5.356422966068474789e-03,-8.248513491644056048e-03,5.052290558815002441e-01
4.772586790811663704e-01,4.681503297823428333e-01,-2.864698980635016490e-03,-1.212478509341626291e-03,-2.158717094665035894e-03,-3.177389440323472210e-03,4.756857752799987793e-01
4.766378770415840016e-01,4.654197379104312859e-01,-1.517330505884917358e-02,2.894346920042606777e-05,1.360990716718073418e-03,-1.699724375444919082e-04,4.863049685955047607e-01
4.297589382957079929e-01,4.243416622515889802e-01,-1.037895886893847042e-03,-2.238387342285996090e-03,-4.636978600620154239e-03,-3.236863142481234256e-03,4.282434880733489990e-01
4.696091051257678117e-01,4.717131627946018479e-01,-2.222665313466559711e-02,4.427468899964291942e-05,-5.543362682153408008e-03,-3.541731368247223299e-03,4.930228292942047119e-01
4.868123130330453963e-01,4.870819425034576544e-01,3.689634428989896353e-02,1.202864787772494129e-02,1.356999333419337851e-02,9.991379463741401068e-03,4.514772891998291016e-01
4.848606534286099001e-01,4.781565974610076375e-01,4.650656741384523452e-02,7.485239471138070699e-03,-4.086705225221646393e-03,8.061753211224206156e-03,4.355154037475585938e-01
4.815930888433522239e-01,4.820385181186322421e-01,2.914453586781551309e-03,8.280210048346137511e-03,5.813040086996705200e-03,9.845465332239712597e-03,4.795252978801727295e-01
4.875799056719043456e-01,4.897483992253907070e-01,1.039589870615620359e-01,1.207014840245802974e-02,2.563089992776838334e-03,4.818088763574850802e-03,3.853933215141296387e-01
4.776911886799624085e-01,4.851739070437736112e-01,7.115658865497570540e-02,5.487261140824338523e-03,-4.657855904551467391e-03,3.036929926217120639e-03,4.105501770973205566e-01
4.912089425963298561e-01,5.011124793381926956e-01,9.957765855437694658e-02,-1.018822796786161833e-02,7.571034612338899995e-03,-2.061030914592624011e-02,3.988851904869079590e-01
4.566807535636420723e-01,4.208644234904375114e-01,1.722288631763657651e-03,7.883640118716780248e-03,-1.861372825854590307e-04,5.178664750792855544e-04,4.383633732795715332e-01
3.916813034806535532e-01,5.090724678904590128e-01,-2.313251528943577329e-02,2.606376179074053421e-03,-1.643643941688182827e-02,6.127040247452651299e-04,4.851583540439605713e-01
3.838445616492799917e-01,5.782998105564444158e-01,-4.086576291703841735e-02,1.024970754649457555e-02,-3.281360604320069513e-02,-1.757309093816808790e-03,5.516642928123474121e-01
4.426811800379755191e-01,4.494508649860574634e-01,-8.162335176430945971e-03,2.525283766497932528e-03,-3.841488358020467980e-03,6.634268240489900152e-04,4.543374180793762207e-01
3.793444383309548251e-01,5.230407357359159182e-01,-8.320274387024151341e-03,7.748375417595036729e-03,-1.892716845804002027e-02,8.805948629547134116e-03,4.776253700256347656e-01
6.334877655295492183e-01,6.928591531114078883e-01,7.883082158024357078e-02,4.494959464734844812e-02,-5.980384012985409670e-02,-3.470232113007048341e-02,6.037414073944091797e-01
3.389379107826629989e-01,5.572150271329908700e-01,-2.037604964961720055e-02,3.783799897826834596e-02,-3.117593311547472643e-02,1.220316214070540743e-03,5.122469067573547363e-01
4.792582468853631150e-01,4.187779540700200531e-01,-9.227402561817144022e-03,7.594615265812690308e-03,-6.335013772189124724e-03,-3.430510362132277620e-04,4.615475237369537354e-01
4.827923066688492582e-01,4.753745322274186558e-01,-2.739963638377213018e-02,3.152800257813678699e-03,5.849210620536445231e-04,-2.653293152059242078e-03,5.065751075744628906e-01
7.661209121039260772e-01,3.093774655449959554e-01,2.091740289456689439e-03,1.110280031179772531e-01,1.438763384237932291e-02,-6.249570267868653772e-02,7.019327878952026367e-01
3.280537140726845768e-01,5.329487654653740636e-01,-9.285133315660720754e-03,-1.501927056339803085e-02,-4.240249752818012891e-02,-7.130027904545442607e-03,4.807511866092681885e-01
2.872282950886195785e-01,5.330595786959677618e-01,5.073334958473341150e-03,-9.802159739593542184e-03,-9.267018764933236674e-03,-9.267542275418017093e-04,4.582089185714721680e-01
4.659967227874084461e-01,4.805057457300727641e-01,-3.161643955841808573e-02,-3.447976305739306759e-04,7.800306726090853147e-04,4.636116109862209846e-04,5.050268173217773438e-01
5.007019654209148296e-01,3.921725594021566175e-01,-9.720235040710678565e-03,8.919816981693416344e-03,-6.821679181907034338e-03,-3.058384262470993219e-03,4.661759138107299805e-01
3.330443583006190700e-01,7.288855477057494259e-01,3.398168145410007668e-02,7.516864155645626433e-02,-8.859276421434111870e-02,-3.763750921922549147e-02,6.397318243980407715e-01
2.873819376329001529e-01,5.323306184238638661e-01,2.311537504690042155e-04,-9.898872538131592638e-03,-7.130209971196159284e-03,3.799130774775461190e-03,4.618251025676727295e-01
4.558275661002357815e-01,4.799376641191024362e-01,-2.837571563632601546e-02,3.909009095003184429e-04,6.910542990946289205e-04,4.287793310079107169e-03,4.967548251152038574e-01
3.130864604472833879e-01,5.318252803528449313e-01,4.989737882289901894e-03,-1.090196539354077246e-02,1.017711535205634288e-02,2.565266484303079918e-03,4.591840505599975586e-01
1.843428516606460399e-01,6.033202441173698416e-01,-4.291547514776561378e-03,-3.947896450860020889e-02,-5.882716444610244788e-02,-3.196524323228941422e-02,5.552310943603515625e-01
4.882581911485462389e-01,4.353252660473608260e-01,-2.031577112402971341e-02,3.146047485159701815e-03,-8.470012410706209346e-03,-1.615049188423102119e-03,4.845428764820098877e-01
4.744272832052065514e-01,4.760281816005295652e-01,4.571623926767909296e-03,7.015333263520895108e-04,-6.481359015937061471e-03,-2.641034052705962861e-03,4.708158075809478760e-01
4.035108136066459794e-01,4.921964825643231345e-01,-1.765802408504330012e-02,1.297073898338565144e-02,-1.146386409618768351e-02,1.114745262272772396e-02,4.731508791446685791e-01
7.511514174629588814e-01,4.953161008238308183e-01,9.556230728505310523e-02,6.092443146904488738e-02,-5.353780401285632845e-02,-4.908571711846888841e-02,5.953893065452575684e-01
3.256219374541006739e-01,3.894078451274174957e-01,-1.619099180379390823e-02,2.008687069591842123e-01,5.510704373107293275e-03,2.266259450663524883e-02,5.151544809341430664e-01
3.070367072236307449e-01,5.235343955350590939e-01,4.553012293946778755e-03,-1.973638073579008639e-02,-3.758912426137388935e-03,2.444017430442367664e-03,4.528614878654479980e-01
3.116364760257338551e-01,5.329814387185771718e-01,7.940770888542281192e-03,-2.773828942285879937e-02,-1.025462666449369203e-03,5.093003645741334129e-03,4.591681659221649170e-01
1.186761628783479239e-01,7.208801817218765118e-01,-7.161258046732010829e-02,-1.201037457317828960e-01,1.773560249923108317e-02,-5.959580924958986052e-03,7.468447685241699219e-01
4.614788681133107362e-01,3.711771216828042563e-01,9.813026121949286473e-03,-1.578489333267890649e-02,3.731081591640812972e-03,8.616487921194474148e-04,4.149237275123596191e-01
1.638596526733516745e-01,6.573772942005944309e-01,-7.611220130564166908e-02,-9.358703686705981128e-02,1.806611395830607855e-02,2.558551980106688745e-02,6.699216961860656738e-01
2.795064290468697310e-01,6.127832506489312436e-01,-1.891317551511945139e-02,3.945593977798472068e-02,1.928846752705959400e-02,9.204515604855896191e-03,5.528333187103271484e-01
5.316604787112823027e-01,2.882281650503800696e-01,7.569244118730722448e-03,-1.332281129966500499e-02,4.477794752308703399e-03,-1.571941011116050014e-03,4.549178183078765869e-01
4.823928673489800145e-01,4.650195671725093627e-01,-3.461103677919530330e-02,2.291138365662596411e-03,3.435828141542392102e-03,3.574565230480933093e-04,5.085905790328979492e-01
5.160584288134831832e-01,3.428541581093841328e-01,-4.392576098121103723e-03,-8.664401425504101098e-03,7.699839814042618025e-03,-3.367543364511494525e-03,4.595233798027038574e-01
4.714373914145902345e-01,4.803513134457593203e-01,-2.375296120555075996e-02,-1.235529684441728738e-03,-2.423590659771387469e-03,7.217127156715776688e-04,4.997307360172271729e-01
2.306249583789439506e-01,5.959429147963641871e-01,-1.816014628880369131e-03,-3.327670470870088687e-02,1.572485533468674299e-02,6.947366587263082739e-03,5.259367823600769043e-01
2.825233517378951120e-01,5.907221318723820946e-01,-1.942259990959122051e-02,4.165339084039029055e-02,1.403233082600381827e-02,2.253195809990372889e-02,5.352905988693237305e-01
4.779248949712145977e-01,4.751406619482280158e-01,-2.467259422451650863e-02,-3.928463890036932703e-04,-1.935910896209816316e-03,-9.072650752900939105e-04,5.012252926826477051e-01
2.677275370460073245e-01,5.531940797309272684e-01,-1.697924341521622749e-02,-5.811732870808186853e-03,-2.129607407049559364e-02,5.027270862848782357e-03,4.953393638134002686e-01
2.522585714699248638e-01,5.868492216974972031e-01,5.728575771545618700e-03,2.775847643707653536e-02,-5.885921407159432593e-03,1.866093939147937461e-02,5.086008310317993164e-01
4.134615511488031192e-01,5.715286079325987423e-01,4.517771551107774286e-03,-1.117715472488661592e-02,-5.183596277184182241e-03,-1.849108806300684207e-02,5.082734823226928711e-01
5.116332762127843159e-01,4.654263740281235351e-01,5.123754809093400420e-02,-1.154272539096369218e-02,-8.157211861221003515e-03,-1.250492533592201770e-02,4.403342902660369873e-01
4.647269606589910507e-01,3.710081520920061049e-01,1.248963839686273447e-02,-1.504519895156978398e-02,6.634534734498223618e-03,1.365917267568310736e-03,4.144096970558166504e-01
4.738739772633594471e-01,4.834450137871509900e-01,4.046220244552606315e-02,-2.846955947316889401e-03,-2.663797133006236967e-03,1.093470714763762446e-02,4.387366771697998047e-01
4.855906203381589181e-01,4.702447277795863689e-01,3.983653468716463752e-02,-1.872982287945611831e-03,1.060216504930041985e-02,-2.370777728374683611e-03,4.386984407901763916e-01
4.807855053118235134e-01,4.639057006671382100e-01,6.184561809560673584e-02,8.672619646773013953e-04,6.567131576781536952e-03,6.237008169410826128e-03,4.110623598098754883e-01
4.756208116689637500e-01,4.643530610010292436e-01,5.755650106177051528e-02,-1.655279998656087681e-03,-7.043723014637576739e-03,-1.325312539847244356e-02,4.133740365505218506e-01
4.369823423963205000e-01,4.032282326205970380e-01,6.763957272278742217e-03,-8.410982211362362515e-03,6.651057138396260096e-04,-4.785869537516372119e-04,4.146321415901184082e-01
4.576036053217697464e-01,4.350786184166876014e-01,-1.356722332195681169e-02,-1.910002370452081391e-02,2.077283943262792781e-02,1.778833382095217075e-02,4.639336764812469482e-01
4.444771429521606754e-01,4.750071969199040067e-01,-1.575110455206596427e-02,1.048228238284602647e-02,-7.248670399673758959e-03,9.906355982994007742e-03,4.770477712154388428e-01
4.375441944606715539e-01,4.784986184090869177e-01,-2.331724697254322631e-02,1.560379402910817143e-02,-7.779704581961408884e-03,1.005056439152664065e-02,4.839006960391998291e-01
4.645937211009280032e-01,4.511061094657786708e-01,-2.057744013231671554e-02,3.249328496956089673e-03,-7.651225257872009550e-03,-6.933698464959515625e-04,4.787879586219787598e-01
4.305240018468691199e-01,4.700545526186715728e-01,-2.528600316327550557e-02,-3.370385974866288003e-03,-1.012860819861696087e-03,-1.236812146512366629e-02,4.773257970809936523e-01
4.562006306396643729e-01,4.327762035894436310e-01,-1.327024312483671142e-02,1.379754581936403282e-02,-7.074592771776536115e-03,4.650477027319598923e-03,4.590649902820587158e-01
4.546066325694495536e-01,4.403980382151390094e-01,-8.187820078277840974e-03,6.865740699207769325e-03,-6.718043739627576130e-03,7.750915565045715877e-04,4.561617672443389893e-01
4.804679627027569899e-01,3.900159289754620007e-01,-1.043450558934666539e-02,-1.328767840903064164e-02,2.238753695797309970e-02,1.244195878618405485e-02,4.552596807479858398e-01
5.966919439516592538e-01,1.512983339969605212e-01,-1.602458149669494514e-02,-1.290396536934929339e-01,-1.978671989199543360e-02,-2.260482699827431538e-02,5.946075916290283203e-01
5.723472089779771954e-01,3.020913835948360604e-01,-8.127694807699314961e-03,-7.601686453512100997e-03,8.973882024971562010e-03,-1.433429463575927945e-02,5.041269063949584961e-01
4.602668268723446587e-01,4.828906577019380642e-01,-3.566035620869889566e-02,2.619904270178892436e-02,-1.011297527334246299e-02,1.837365973302087716e-02,5.109345912933349609e-01
5.130517679755071114e-01,3.915886649276012488e-01,-8.729021533992908921e-03,6.140587173116041769e-03,-4.546279218625197340e-04,-3.124112502441054977e-03,4.730479717254638672e-01
6.152014566863146516e-01,2.242722944989469502e-01,-8.780567296845509517e-04,-2.592061254703283135e-02,7.108729690606777757e-03,-5.368664982088410149e-03,5.420238375663757324e-01
5.645245780854026840e-01,2.245887814876940669e-01,-1.548759481506734037e-03,-1.745474685670666409e-02,-2.036360018663149231e-03,-4.072224369445182936e-03,4.945128560066223145e-01
6.035699703043115871e-01,9.770088751791940196e-02,-3.627161896946745623e-02,-9.885967679578684664e-02,2.434147234169932797e-03,-1.579140877458738712e-02,6.096804738044738770e-01
4.767437591139078168e-01,4.468583567487168784e-01,-2.026863151434760146e-02,3.908589030446416729e-03,-8.083480241812095179e-03,-2.067151475156256120e-04,4.830145239830017090e-01
5.506553911866902684e-01,2.796036851224718012e-01,2.246263944860271700e-03,-4.704443769738144744e-03,2.139959359313041865e-03,-1.428544904329800969e-02,4.756750166416168213e-01
4.510187448948532740e-01,4.831053703819309098e-01,-2.673708905548161097e-02,1.138428315407746501e-03,9.031197919502256376e-04,1.134925152834739392e-03,4.945906996726989746e-01
5.372028912305506498e-01,3.464995983990686312e-01,-3.231874426103897857e-03,-5.089373878338587960e-03,7.909823590569348487e-03,-4.231928430580605277e-03,4.750725328922271729e-01
5.841811258397234807e-01,2.487780729132570146e-01,-9.068883663462645739e-03,1.301555386921009368e-02,-1.758846427351153444e-02,-3.984284246449141392e-02,5.212116241455078125e-01
4.532239150407122441e-01,4.584270427224776956e-01,-1.342907675954668756e-02,3.053986558957647816e-03,-7.096992048992741171e-03,6.704925191827801507e-03,4.696105718612670898e-01
3.326183236229348639e-01,5.197167869005250296e-01,-5.091342259260556169e-03,4.861462290011653309e-02,-3.191562729047561775e-02,2.230519932370226416e-02,4.731565713882446289e-01
5.288163028582694158e-01,3.293323542037300267e-01,-9.336017254561235212e-03,-4.146401462182922049e-02,-2.461999777212496056e-03,-1.673551505895421246e-02,4.775617420673370361e-01
5.457683494387637335e-01,2.801196613712790828e-01,2.201186279366162957e-03,-4.803228154063129973e-03,8.537902613643281796e-05,-1.379726569540111643e-02,4.714625179767608643e-01
4.697064479507918056e-01,4.753762106607332116e-01,-2.945577343120964198e-02,-3.625827083235479468e-04,-1.953420636941633967e-03,2.464521206772709422e-04,5.020331144332885742e-01
5.493924419106244184e-01,2.976476883405121399e-01,4.585098049747771132e-03,-9.762328081566098298e-04,2.876718474372115704e-03,-2.044114755857228457e-03,4.723116457462310791e-01
4.831961249626662291e-01,4.709454931086157758e-01,-3.420085589252469527e-02,3.571760542089084337e-03,1.683034371046253754e-03,-9.572815311837530551e-04,5.114301443099975586e-01
5.284189728877171088e-01,3.423016887401401087e-01,-3.858072845280557939e-03,-9.932197092439837283e-03,1.390301508519914062e-02,-3.362401438583013328e-03,4.688307642936706543e-01
4.810719907698707276e-01,5.420112194360238167e-01,2.130162507268679173e-02,1.797495716776957575e-01,-6.990308289304485168e-02,-1.781320944233561257e-02,5.963735580444335938e-01
5.432730781945092069e-01,3.199351030730750445e-01,-8.422860167267343101e-03,-3.181219273527737673e-03,-8.574518257955802275e-03,-2.033469764730235982e-02,4.822084903717041016e-01
5.476415344123579665e-01,3.321830580733735050e-01,-7.074956796201348208e-03,1.159905701259133538e-02,6.431551700994657915e-03,-1.705032463707727847e-02,4.858129620552062988e-01
4.874691596344975508e-01,4.826685429242865144e-01,-1.727482917322420430e-02,5.169359286885502440e-03,8.939889489549940858e-04,5.152812126161077783e-03,5.025222897529602051e-01
3.959430725635002535e-01,4.860262040595049737e-01,-8.783896054375017748e-03,3.251971079583994284e-02,-4.482856172598379506e-03,8.564756060016404798e-03,4.602509140968322754e-01
4.732780899589930090e-01,4.826965232048127108e-01,-1.148897803521564676e-03,7.399748282373900350e-04,-9.003175166236122504e-03,-2.830881161383728799e-03,4.794860780239105225e-01
4.782984193964394670e-01,4.869427987095365506e-01,5.122275743197785003e-02,7.177892297721074309e-03,-4.179050704539352657e-04,-9.107367488755313892e-03,4.319306313991546631e-01
4.848309252175069806e-01,4.727530653377024494e-01,6.149248521787531452e-02,7.855946220853986944e-03,4.313898654546995635e-03,-1.584374955178907262e-03,4.177281260490417480e-01
4.949942816943478374e-01,4.794557905583636259e-01,4.141202677102362451e-02,-4.402288535153770117e-03,-8.028907272083131040e-04,-7.476523425829565729e-03,4.462713301181793213e-01
5.210979563596767061e-01,3.471608247417302118e-01,-1.112206881500016342e-02,-1.075950048839352698e-03,-3.842947294018879325e-03,-2.646216679596960150e-03,4.701151251792907715e-01
4.635063076772251156e-01,4.828055833801019325e-01,-3.176004603801180215e-02,-3.372788273509439588e-05,-1.256859316532416958e-03,4.659000397092749254e-04,5.051978826522827148e-01
4.596563360444805291e-01,4.827681922784848867e-01,-3.467214134598661790e-02,-2.321531218079707446e-03,6.174793094987437655e-03,1.282726974781027082e-02,5.068962574005126953e-01
4.461513645831708397e-01,4.959817291432878084e-01,-3.127183628445656671e-02,-9.218140812031880207e-04,-5.979763998077877209e-03,-7.110936055630664998e-03,5.044478774070739746e-01
4.554588286086482252e-01,4.888800896476700464e-01,-3.248840151908471974e-02,-3.127614496429364328e-04,-6.146110077906985318e-03,4.995798776443819691e-04,5.056002736091613770e-01
4.855494241530656230e-01,4.580100317704915991e-01,-3.164662095188630619e-02,5.348853503110482079e-04,1.571533394762059587e-03,-1.953165641309925933e-03,5.040105581283569336e-01
4.961779853270196217e-01,4.872134734829506875e-01,2.999248914561825075e-03,2.542522137660993900e-02,-1.607141507918404683e-02,-1.227268177365277262e-02,4.919863641262054443e-01
4.100795342331068349e-01,4.150590927039444211e-01,1.654967821674901973e-03,-3.349367447328383679e-02,6.559004483276363595e-03,7.973781620694880140e-03,4.153967797756195068e-01
4.225916347311468035e-01,4.944243948126046950e-01,-2.946506668040493881e-02,-4.139262931407009134e-03,-1.084990129206339464e-02,-6.056817478662894841e-03,4.924452304840087891e-01
4.307194419675887676e-01,4.408123865892088489e-01,-7.171440057533562396e-03,-7.048652901414424960e-04,-1.709464352931283539e-03,-5.666242213473063165e-03,4.431438446044921875e-01
4.238397848449340088e-01,4.844086899314351546e-01,-3.007467152852877357e-02,-2.712111419282888913e-03,-1.038259747680563179e-02,-7.513863079978760559e-03,4.875601232051849365e-01
4.746754194819480244e-01,4.243984329165541025e-01,-1.425293229926954952e-02,3.873863083152680187e-02,3.685625289158381800e-03,-8.682637973644449780e-03,4.709201753139495850e-01
3.258479638768053133e-01,5.611628805542150378e-01,-2.356860050172165932e-02,1.042590961177947834e-01,-1.838061202618102366e-02,1.752770618957118914e-02,5.424325466156005859e-01
4.286860885968155621e-01,4.263416658294010286e-01,-2.835598256256344207e-03,-3.034655706760378338e-03,1.049962498299055217e-03,6.631176364703618778e-03,4.305434226989746094e-01
6.700881183178777345e-01,2.459465020919937850e-01,-3.443238989092073377e-02,2.791677459590092281e-01,-1.324600367352300224e-02,2.458970226117169339e-02,7.833090424537658691e-01
4.718673441733466367e-01,3.943173241393329032e-01,-8.906135203372023135e-04,-1.101354371686133829e-02,1.472997263701309942e-02,3.637028069392661479e-04,4.403032064437866211e-01
4.557530939730861097e-01,3.799320842876677262e-01,-1.056364302257384313e-02,6.709570844624708486e-02,-3.478112299945956419e-04,7.021859550235239403e-03,4.488845169544219971e-01
5.121591728245488140e-01,3.738217490030167345e-01,-1.920896615553313591e-02,6.881052575122378889e-02,1.772636757168769006e-02,-1.129153849490086535e-02,4.934684038162231445e-01
4.473715342989922350e-01,4.282490274829293675e-01,-2.762923986123322351e-03,3.686120806174326969e-02,-9.163908772672963929e-03,1.223798024680701653e-02,4.462695121765136719e-01
4.682679783138010698e-01,3.886961916286779672e-01,-2.811314392355113156e-02,1.789220047453914109e-01,5.753864447849619396e-02,-3.129267650312050897e-02,5.675711035728454590e-01
3.001139903322285196e-01,5.961613381662096423e-01,-1.500729397293137923e-02,3.136647024139149753e-02,-4.960458028367340649e-02,4.574155784386115843e-03,5.391033887863159180e-01
3.894351936861032426e-01,4.964113029226256968e-01,-8.376413744134558748e-03,2.756499697970104384e-02,-8.746070277381475314e-03,1.197426569930692443e-02,4.638894498348236084e-01
2.927382008470557073e-01,4.930720363249325722e-01,-5.289010617908301848e-02,-1.970478717472200769e-01,4.981119138472985680e-02,4.560448766746936361e-02,5.991660952568054199e-01
2.894694871812359960e-01,7.012181409590937387e-01,-6.587534470618716664e-03,2.243973043452167915e-01,-5.413731558988946896e-02,-9.556147390708835676e-02,7.525548338890075684e-01
2.894711919948815271e-01,5.951249061634698023e-01,-1.669982838229044919e-02,-2.677259764135013487e-02,-4.853173324849154729e-02,-6.874594275641745904e-03,5.386142134666442871e-01
4.487552014675008638e-01,4.690582133931341935e-01,-3.353056254471653563e-02,-6.955404656052411282e-04,-6.329122990539145675e-04,-7.411904989541505569e-03,4.929209649562835693e-01
3.341725401300902898e-01,5.629055224449255324e-01,-1.733835379702824975e-02,8.790941496633862540e-02,8.870530920512126327e-03,1.310847133610774581e-02,5.293548703193664551e-01
3.164408743334404250e-01,5.357668540407558577e-01,-1.979414193646861220e-02,4.165966068864845884e-02,1.476976185019322763e-02,1.782047236246250485e-02,4.916468858718872070e-01
4.835220348630593357e-01,4.759536546466938134e-01,-3.152475580389935139e-02,5.038485431825590359e-04,-1.242245540217177255e-04,-1.279179427678290648e-03,5.113102197647094727e-01
4.398502671096549688e-01,4.403523285819634925e-01,-1.096603502931164931e-02,1.050083548302709952e-05,-4.947091144948726447e-03,-6.401471980030857406e-03,4.512851536273956299e-01
4.395538195460007014e-01,4.294879500913829640e-01,-1.568584957473456720e-02,-9.441801675159209456e-03,-9.004388990933524795e-03,-1.162136942887988938e-02,4.513069391250610352e-01
4.497688480801553812e-01,4.577198009392444700e-01,-1.878370650135824382e-02,1.774607557442832006e-03,-5.267127913977108326e-03,1.051247462525585269e-03,4.726797342300415039e-01
5.658480648395115553e-01,4.972620529052578231e-01,5.426290797435029400e-02,-9.980168447688104669e-03,-2.646367993581649758e-02,1.004771721595534018e-01,5.138313174247741699e-01
2.155162158383704396e-01,5.563026152103134336e-01,-3.997883314784789199e-03,-1.117958131502011163e-02,-2.220312803697874551e-02,3.273697415595066065e-03,4.909330606460571289e-01
3.448544683842831304e-01,4.979805029227497570e-01,1.111726029278725658e-03,3.381689718628436842e-02,1.350876609193884994e-03,9.810759684260794353e-03,4.449355006217956543e-01
4.844648060271419254e-01,5.162496211919829214e-01,1.991850747053935944e-03,1.125609162733781227e-01,-7.054869374444946994e-02,2.254120239032158385e-02,5.509911775588989258e-01
4.687454825698804672e-01,4.733276330286421141e-01,-2.521652748866520799e-02,4.267696356977025707e-03,-7.777387470549304571e-03,7.593744273761214580e-03,4.966809451580047607e-01
4.839914471090638326e-01,3.886151756312582473e-01,3.135654114596486686e-03,9.170751249663461335e-03,7.569717410769081188e-03,4.799890730368358988e-05,4.414531886577606201e-01
4.640460319714457271e-01,4.712102468686355516e-01,-2.436801578631397902e-02,2.429909846588309066e-03,-7.293577541305135137e-03,5.326927788380953800e-03,4.923018813133239746e-01
4.594495525205402608e-01,4.476019495638370316e-01,-1.345361973762243535e-02,3.689350506202700077e-03,-7.836218988067682190e-03,5.736309541953681784e-03,4.674385190010070801e-01
3.441544105546118781e-01,5.111394360720500352e-01,1.024478789974136994e-03,3.493337312870185840e-02,-4.647867682548134627e-04,1.480837984865151493e-03,4.545194804668426514e-01
4.798031653890189596e-01,5.548042055194571942e-01,6.614132946336304109e-02,-1.141625610923487424e-02,2.482190534948662541e-02,6.725814919199780972e-02,4.728389680385589600e-01
3.996618341909334848e-01,4.587620347594784653e-01,1.628316663729034719e-03,3.816587308559838548e-02,-1.065041052005421532e-03,7.476249656475036573e-03,4.358765482902526855e-01
6.252952888167802037e-01,2.705881996681953061e-01,-1.576568520607229962e-02,-6.758652748682278909e-04,1.637186812516595175e-02,2.252866595403654054e-02,5.583149194717407227e-01
4.295921140056109810e-01,4.292078503097966902e-01,-7.588188224931846637e-03,-2.827419838983682727e-03,-5.467454662566536422e-03,-1.768632781821326445e-03,4.371290504932403564e-01
5.170993995384879360e-01,3.662766896094693525e-01,-1.836754799944356753e-02,-3.750479818249842045e-04,1.256195107563389500e-03,1.642922157964442700e-02,4.790894389152526855e-01
4.798017814131119163e-01,4.676757785390840416e-01,-2.713449901488618199e-02,3.839745366634157806e-04,-6.062494887034135249e-03,-1.100380917558125161e-03,5.010974407196044922e-01
4.732852654567092365e-01,4.747546178545627438e-01,1.684589825434729127e-02,3.089666923321626214e-03,-8.520684729396012930e-03,-7.940947289910888982e-03,4.576520025730133057e-01
5.343631595206370655e-01,3.000702393059385686e-01,-1.472968296902366081e-02,2.372345770945705548e-02,-5.908322046391631562e-03,9.967207858656205663e-03,4.794149696826934814e-01
5.323882366263471555e-01,3.141976529020362729e-01,-9.684587248948051119e-03,2.583296727029213077e-02,-6.847616388854447719e-03,2.319349379224563273e-02,4.763731658458709717e-01
3.225305438590265750e-01,5.894042853533125736e-01,-2.428636954472374043e-02,1.891439203205396158e-01,7.695948017948685271e-02,-5.288174940880762710e-03,6.397174000740051270e-01
4.681930397080476536e-01,4.750170598983569636e-01,-3.161666969968313090e-02,-8.129106233008380478e-04,-1.534536021308635710e-04,5.670503950440310571e-04,5.032594203948974609e-01
5.945917947404605330e-01,1.801897728499488038e-01,-7.085623675385177567e-03,1.642069628009560495e-02,1.899815325211385783e-02,4.844565213757522776e-02,5.416097044944763184e-01
4.741938341291679904e-01,4.702999251964815053e-01,-2.700241227644833986e-02,9.053767510586195394e-04,-5.578672230142039772e-03,-2.116142458762382034e-04,4.993567764759063721e-01
5.656836135095284490e-01,3.475872272742752678e-01,1.766189949281266047e-02,-2.949142305724652274e-02,1.718684923157382666e-02,3.149311462385643440e-02,4.846061468124389648e-01
5.262605357215577317e-01,3.502716078426378332e-01,-2.875497587103353903e-02,2.205896710372574898e-02,1.088040629449221579e-02,6.028581327472611745e-02,5.040395259857177734e-01
5.182207095456766721e-01,3.682020657493762505e-01,-2.264037976690280729e-02,5.969254049849773841e-03,1.276443097210583051e-03,2.738730587821492160e-02,4.860648512840270996e-01
4.705603606945718553e-01,4.725144047451222962e-01,4.900629132366662866e-02,-1.245878560850648435e-03,-2.488904064528752250e-02,-1.678425892673582331e-02,4.257270991802215576e-01
4.286330385819417943e-01,4.696158228475064700e-01,-1.696608502910035288e-02,1.063887859109541138e-02,-9.229721841417796308e-03,1.027478795209335778e-02,4.684142470359802246e-01
4.885709286183471667e-01,4.175926570772147128e-01,-2.314369258461002055e-02,-4.021586361644367835e-03,1.079832829809843076e-02,9.630523425492771867e-04,4.805936515331268311e-01
5.334810554280887684e-01,5.229154084355456256e-01,7.403533523812416695e-02,1.442230931380369084e-02,-3.161794712395911422e-02,-6.175907635849030991e-03,4.583505094051361084e-01
4.858939637460684136e-01,4.728295979369095958e-01,6.878894335099539070e-02,5.024787843015401587e-03,-1.476594517347598785e-02,-1.313829825731926970e-02,4.122447669506072998e-01
4.969657589637243578e-01,4.250007946617321841e-01,-2.176561390095410609e-02,3.165523519263102950e-03,-6.188595144532208978e-03,-4.298743015748734617e-03,4.869610965251922607e-01
4.773991903586234375e-01,4.791679951845644325e-01,6.716162168503025942e-02,5.971070695489151710e-03,5.439275825896405445e-03,1.299110789058188775e-02,4.119777381420135498e-01
4.525857856629741383e-01,6.159731436580209163e-01,8.652290634504278266e-02,2.257346711462182229e-02,-4.454965704347418898e-02,-5.925481400221101203e-02,4.883887767791748047e-01
3.094297215920321364e-01,5.240324000399680937e-01,-1.126734044669175372e-02,-1.101003057505191458e-02,-3.011106409272568465e-02,-5.088556918811242523e-03,4.699837565422058105e-01
7.035277648053795962e-01,6.895898360914132219e-01,9.864559220754121061e-02,7.806911085675020956e-02,-1.825020236000050519e-02,-6.132058985468481771e-02,6.230651140213012695e-01
4.823496959333922751e-01,4.630773133641715167e-01,-2.561614295917707951e-02,2.461690747150567429e-03,1.147802795452146493e-03,-5.936776397306962015e-03,4.987372756004333496e-01
5.013366135919363753e-01,5.479439283815581430e-01,8.364936169356884665e-02,1.814595292747403499e-02,1.800532334690749248e-02,1.642141808935368083e-03,4.450512826442718506e-01
4.793299322705150689e-01,4.811723951999139492e-01,3.582624888217766923e-02,1.718914514089320365e-03,1.015484567563960938e-02,-8.059671086891023045e-03,4.450046718120574951e-01
4.769801592605193985e-01,4.794029793313959176e-01,5.723033522460785338e-02,5.252793097165917198e-03,-9.176340081397541329e-03,-1.244359037049706969e-02,4.219155013561248779e-01
4.693863177154945499e-01,4.800901213846232585e-01,5.038282125417792301e-02,-3.028646888229860612e-03,-2.287058679425211204e-03,-1.794524154093100898e-02,4.256439208984375000e-01
4.589178010906750371e-01,4.512919066122473843e-01,-2.542371913157481789e-02,-4.527509893629089871e-03,5.578946628496329191e-03,6.457975659947908301e-03,4.808651804924011230e-01
4.715890221146114003e-01,4.824194652501685443e-01,1.030593653685854538e-01,1.177710885495775357e-02,-5.781846105329928147e-03,-4.974161273190523536e-03,3.748511075973510742e-01
4.522104888661903077e-01,4.762020622654017377e-01,-3.267890113697896615e-02,-1.588538678698176668e-03,2.800988653804104521e-04,9.271668913721409569e-03,4.975864589214324951e-01
3.341549120465239775e-01,5.308005289031844098e-01,-9.671107830236447267e-03,3.189394893942059175e-03,-1.666917782008002502e-02,3.238708467229147164e-03,4.747560322284698486e-01
4.261868711518077557e-01,3.364599311947878979e-01,-2.341297951800336286e-02,2.014633294866611524e-01,3.371873021848466323e-02,-9.442231393055179264e-03,5.434063673019409180e-01
3.785078334584353610e-01,5.090226475433392572e-01,-5.041073302205378859e-03,7.440215003972774910e-02,3.852303418146113545e-02,8.203335293462706360e-03,4.852460026741027832e-01
4.423727404239600203e-01,4.234502393016796873e-01,4.341243365950653299e-04,2.255373505173094081e-02,1.092764842372513472e-02,-8.397157437875576872e-04,4.349615871906280518e-01
4.056498291933847700e-01,4.377851300853825567e-01,7.380450577684438684e-03,-5.357218923695605643e-03,-2.338171226168878764e-03,-6.215183951533919358e-04,4.153954088687896729e-01
3.045348530401233433e-01,5.030410722507572263e-01,-2.402731206692126920e-02,1.654712472173164584e-01,3.952589271954579466e-04,9.299889714080295314e-03,5.431220531463623047e-01
4.717075917326420953e-01,4.714155634766554748e-01,-4.191916801871486964e-02,1.436942059138585385e-03,1.923360809279069583e-03,1.757953150441429963e-03,5.135066509246826172e-01
4.702023582034611793e-01,4.279749301631419200e-01,-1.926258446008655145e-02,-3.774207612384513667e-03,1.424149325530023498e-02,1.016388529250269492e-03,4.704726636409759521e-01
3.634573461732500399e-01,4.807204317340951771e-01,-3.256875078325421891e-02,2.077334110304275561e-01,-1.350964093822666114e-02,4.460887725803203835e-02,5.941409468650817871e-01
4.431060372264959968e-01,4.275409879346603326e-01,-6.156166561345655097e-03,9.973315637930338373e-02,-1.964167870276205957e-02,1.130890422577677037e-02,4.758856892585754395e-01
4.701199453841780063e-01,4.866480673342211127e-01,-2.496160410729114654e-02,-1.646191260154041946e-03,-5.892832958628910385e-03,4.207025466243838980e-04,5.036610960960388184e-01
4.536393494962865369e-01,4.455050685470771654e-01,-1.781302457549066576e-02,-1.673086827389008604e-04,7.416132530901958439e-03,1.780577861095973807e-03,4.676250219345092773e-01
2.988681305342561489e-01,4.983318665498426836e-01,-5.429914835532900774e-03,8.484539068571465836e-02,-2.494592540538799127e-02,1.520049963432538488e-02,4.660856127738952637e-01
4.348873059160244803e-01,5.573417044007579202e-01,-3.263095456348358292e-02,2.406180961598236752e-03,3.895787261039120042e-02,3.303102504469151296e-02,5.464995503425598145e-01
4.294801670389726267e-01,5.135502531342603927e-01,-3.134602006885917058e-02,5.098294970923513206e-03,1.380981713814075432e-02,4.667290022447517957e-03,5.088081359863281250e-01
3.687560779122464050e-01,5.091186051417160296e-01,-1.680621807629356645e-02,-6.193557377907740399e-03,2.705053066954823948e-02,1.080527407322659679e-02,4.744881093502044678e-01
4.950386307834104826e-01,4.591404732681964029e-01,-3.094255585958938237e-02,-2.953876563069212161e-03,-4.422114521025867842e-04,-2.887723758791734549e-04,5.090090036392211914e-01
4.524589395124380964e-01,4.890731918732721395e-01,-3.121602378247084753e-02,-5.849480627116428882e-03,2.025761689778100491e-02,9.101669215024369569e-03,5.045530200004577637e-01
3.568277748320249909e-01,5.574411772590146530e-01,-2.333320484013523544e-02,1.308372568679109539e-02,3.905197986682611838e-02,2.204006326609382269e-02,5.172808766365051270e-01
4.684447067987740909e-01,4.702071516900975245e-01,1.015551838355179259e-01,4.470233112326719646e-03,-4.178205539623386713e-03,1.895689147187103749e-03,3.679412305355072021e-01
4.739851682255682430e-01,4.789638843625829701e-01,-2.799727287652226115e-02,-1.218595241365869563e-04,-1.890478810332356461e-03,9.855794188884763052e-04,5.045037865638732910e-01
4.584893925404571191e-01,5.129079371556646283e-01,-2.884900768574788499e-02,-2.436485688874269646e-03,3.125269574386941186e-03,8.640350788313148900e-03,5.169636607170104980e-01
3.739349933684996685e-01,5.062499918447140868e-01,-1.912602974078753126e-02,-5.627638002082145131e-03,2.258345288197016049e-02,2.199210025661939641e-02,4.765376150608062744e-01
3.616894749438478440e-01,5.137880080386720838e-01,-1.639869604622851140e-02,-5.096702564989791760e-03,2.728886366569369462e-02,9.138316786870517155e-03,4.755562841892242432e-01
3.812203757407088278e-01,5.052642476071763644e-01,-2.233699898495261627e-02,-3.594213715059416808e-03,-1.833850056245710930e-02,-8.925639078031349580e-03,4.791564643383026123e-01
5.014073644130563334e-01,4.008186899102930134e-01,-2.538316297696702195e-02,-4.147706134518772125e-03,4.693020601680284593e-03,-4.835417153987543910e-03,4.845874607563018799e-01
2.395575190151188472e-01,5.462769157319058433e-01,-5.693724882983031144e-04,1.224097388561102076e-02,-1.639955641379723869e-02,7.140446542521917093e-03,4.762337803840637207e-01
3.049914007452881881e-01,5.409759017995336983e-01,3.737129482664913738e-03,1.097075000167746506e-02,-9.121782870329289694e-03,6.999941528570923985e-03,4.672171473503112793e-01
4.862148003572156485e-01,4.586892122152791407e-01,-3.359490202196135922e-02,-1.042281391535871370e-03,9.538060818940211766e-03,2.026131806360958229e-04,5.068807005882263184e-01
3.251446189338906834e-01,5.467768094558156378e-01,-5.670901970961650385e-04,1.811784053511715162e-02,-5.120091118044654220e-05,8.021919608432168114e-03,4.780951440334320068e-01
4.798266092317048370e-01,4.978237527015630937e-01,1.116547565100150519e-01,-2.607498826642553214e-03,-9.158810600724338197e-03,6.840654336040013356e-03,3.780381977558135986e-01
4.732212529945843960e-01,4.745669490212511832e-01,4.184011267241438681e-02,4.821507809511418885e-03,-7.966120581125496827e-03,-5.358627277292754218e-03,4.324560761451721191e-01
2.986677180398487064e-01,5.959432892377610758e-01,-2.423351939620926876e-02,3.346344323064975174e-02,-2.430472555089661577e-02,1.864568010058184969e-02,5.429577827453613281e-01
3.399618946896645344e-01,5.208965471619638743e-01,-6.420656548554448673e-03,2.893538172756223228e-02,-2.546889766072711267e-02,7.349187077358061010e-03,4.690529108047485352e-01
3.921596466446995999e-01,4.996692878483466327e-01,-1.343048552954417829e-03,5.137732163676170249e-02,-1.288762013734794445e-02,1.426845478397111011e-02,4.666218459606170654e-01
3.314938845835647130e-01,5.178333886971842048e-01,2.042467386443147515e-03,5.547648136835205352e-04,-3.061189021438923737e-03,1.883592310419017479e-02,4.535899758338928223e-01
3.555705152124478130e-01,5.318507960983339666e-01,-5.547047499755763944e-03,2.101600308895807886e-02,-1.350694927200091384e-02,1.199965876558599723e-02,4.769096672534942627e-01
4.886675612772428678e-01,4.491452704131713158e-01,-2.683193664221367181e-02,-4.192048690466377084e-03,-6.280560774507383710e-03,-1.542982698154836234e-02,4.978085160255432129e-01
4.807621744158114829e-01,4.732897784732665869e-01,-3.189853050369140242e-02,6.056098770031484967e-04,1.131406766211273630e-03,-7.879465340652017655e-04,5.089723467826843262e-01
4.833767047689545016e-01,4.711494198935852751e-01,-2.128125006805892117e-02,6.831498407816343930e-04,2.069207012135296014e-04,-3.420328828639705287e-03,4.986934661865234375e-01
4.804644244548547105e-01,4.635363089394196612e-01,-3.707666047411734001e-02,1.798681479388918860e-03,5.627291854127505245e-03,3.020210796315322879e-03,5.094177126884460449e-01
4.792796278260786358e-01,4.632500114558852911e-01,-2.165378799729333892e-02,-5.519018152563972624e-04,7.077009848570139927e-04,-7.903707505180274833e-04,4.931184053421020508e-01
4.530890091065746805e-01,4.582213538486594739e-01,-3.267975971372027999e-02,1.798911724162314358e-03,2.802344452558169449e-04,1.221914247182689841e-03,4.883699417114257812e-01
4.838155312991716528e-01,4.606267976367016681e-01,-6.436525945088811262e-03,-5.859611269588510752e-05,-4.916286972356943407e-04,-1.139674476864678846e-03,4.790835976600646973e-01
4.779314986734799486e-01,4.741634139792886282e-01,-3.595312683401613585e-02,4.799802689921934401e-03,9.073631861027808485e-03,9.924460930500852984e-03,5.126078724861145020e-01
4.890301085076930176e-01,4.511552790807582536e-01,-2.683366672622355953e-02,-7.501898079507557339e-04,-3.695270365049779099e-03,-8.029307633865608723e-03,4.982446730136871338e-01
4.736325657379731879e-01,4.587819678907032461e-01,-3.372439803981647222e-02,7.539013621194023528e-04,9.694655658588013925e-03,3.486751275066974796e-04,5.003809332847595215e-01
4.837731456796006135e-01,4.650522667314546665e-01,-2.542840087342584932e-02,1.337805175913929110e-03,-9.660050668667280612e-05,1.677179140518267808e-03,5.001177787780761719e-01
4.838153685372569290e-01,4.648574778151860487e-01,-2.804236739977566950e-02,1.332477847204264956e-03,-3.187383903289206575e-04,-2.421956816225041831e-03,5.026701092720031738e-01
4.325949766719774381e-01,4.688546026885587192e-01,-2.189204557988438937e-02,-3.370908230849597401e-03,2.898124594571874126e-03,1.561229381124975245e-02,4.744926393032073975e-01
4.847150132376554232e-01,4.635715011834129484e-01,-2.817921513078763818e-02,2.214589535066316221e-04,1.154465672008801822e-03,-1.645579061430095481e-03,5.026683211326599121e-01
7.796218058103545623e-01,1.478218008176940823e-01,-2.264452093956381695e-02,6.013307660956830614e-02,3.285512400478093377e-03,-6.711153257284456844e-03,7.395580410957336426e-01
6.065677813357002179e-01,1.469405094463231976e-01,-1.187565548579672114e-01,-4.650726602789111847e-02,-4.073556319104876949e-02,1.214045458709336368e-02,6.448898315429687500e-01
5.672653162977072672e-01,3.182451036120079735e-01,-1.557188915941098983e-02,4.196488875214815506e-02,1.488695723579901153e-02,3.117164396708128546e-02,5.152038931846618652e-01
5.567361510410496761e-01,2.358546477176697853e-01,-8.781151390223618236e-04,1.575566476010215392e-02,4.465903564317528704e-03,1.822763504154614137e-03,4.855770170688629150e-01
6.018142165773455732e-01,2.423026072577335044e-01,-5.110795999248629595e-03,4.588810598266218621e-02,1.539389564487922760e-02,1.710503889636318803e-02,5.360184907913208008e-01
5.616178019236912622e-01,2.231091412989704426e-01,6.176549424539601318e-03,-4.986530524366611372e-02,1.841637030357172640e-03,-2.872924796097752614e-03,4.925200641155242920e-01
5.601181803045320873e-01,2.264913199832155888e-01,-1.331477494740829215e-03,-4.610360957495238804e-02,5.614065057263533005e-03,-8.443258062749198559e-03,4.958860278129577637e-01
5.880006255912189062e-01,3.111963929811039642e-01,-2.763078305232985477e-02,7.362707237423909978e-02,9.896259707451610446e-03,3.369329127397739654e-02,5.524269938468933105e-01
5.462307588486366994e-01,2.775251476872866441e-01,-3.025241669240341658e-03,-5.476110516635312835e-03,1.109987781403790237e-02,6.816971616621050022e-03,4.763356745243072510e-01
4.695879942400991713e-01,4.750661901759909433e-01,-3.064982147832934212e-02,-6.726235972330827729e-05,-1.580566984472890190e-03,-1.786535141811419511e-05,5.030067563056945801e-01
5.489667702170966113e-01,3.285848473621455490e-01,2.723227029561348100e-03,2.673106965794825457e-02,4.973100509578780477e-03,-8.805020426298088834e-04,4.783180654048919678e-01
5.490401208948072487e-01,2.365706987188154753e-01,-1.966176308871803169e-03,-1.620602448072485866e-02,8.610867377251179428e-03,1.381489872697688574e-02,4.802659153938293457e-01
4.704971240107873598e-01,4.205165327036170519e-01,-2.067491912443497615e-02,-2.124563524018658472e-02,-1.520823709043318123e-02,-8.229014134203250716e-03,4.705848693847656250e-01
5.380664419016654154e-01,3.313512185613562977e-01,-7.428358707580795528e-03,-6.389827215522243982e-03,2.696175055209813157e-03,4.368970221255225527e-04,4.771567285060882568e-01
4.752086140216719712e-01,4.730179888109637965e-01,-3.098983522972259541e-02,-1.766952294417884622e-03,-1.141182410466815646e-04,-2.011012676611133396e-03,5.051280260086059570e-01
4.770519479262796958e-01,4.745929649458368038e-01,-2.884032803267383427e-02,-1.312233984986393336e-03,-3.868305453407423528e-04,-1.691551985724713131e-03,5.046813488006591797e-01
4.790727079263394361e-01,4.754757525804375051e-01,-2.882596358648731316e-02,-8.268722952871562521e-04,8.300926841457784882e-04,-3.198869206287511505e-04,5.061141252517700195e-01
5.521854781824745428e-01,3.406959214909873190e-01,-4.048881229276840577e-02,8.600852949984044704e-02,7.425508833142349663e-02,6.222986005928479725e-02,5.665666460990905762e-01
4.778174737392837934e-01,4.748866721800883428e-01,-3.085996454723938243e-02,-1.583869171733427944e-03,4.355462863316550241e-03,-2.307283588765911709e-03,5.072976350784301758e-01
4.751678226251415671e-01,4.701562281407621890e-01,5.401067731972558628e-02,3.650988877824417516e-04,-7.480743092479047625e-03,1.639625513524542520e-04,4.188748598098754883e-01
4.791094582799222401e-01,4.794245241499706656e-01,-2.707483020517426064e-02,7.882030949913411974e-04,-8.845809986439903688e-06,1.628416026454498683e-03,5.063515901565551758e-01
4.533078499952410967e-01,4.742668452700714576e-01,-2.622152340700634188e-02,4.710593514060760871e-03,6.065837930818255945e-03,-8.900387791854900282e-03,4.907675087451934814e-01
7.364037800778859832e-01,8.580244313890195151e-02,-3.605740097951215528e-02,-8.740421064416160901e-02,-7.762453404743778311e-03,3.005897795637829314e-02,7.370373010635375977e-01
7.098795044555142875e-01,1.832967198940495257e-01,-6.558615457367494850e-02,9.587222111542982594e-02,1.876960132473788970e-02,5.743779030090363780e-02,7.133149504661560059e-01
4.846780736085647412e-01,4.730811365338120078e-01,-3.395097315760209344e-02,1.242066768929654978e-03,1.937148952155540909e-03,-1.128371351241266732e-03,5.129480957984924316e-01
5.830287087848464722e-01,2.826402718009556891e-01,-2.244477323524607382e-02,2.931864671083644902e-02,2.225288149868306919e-02,5.866406236344205022e-02,5.379059910774230957e-01
5.267820424996019213e-01,3.870027108198886290e-01,-2.201006321162507495e-02,1.791226458244781633e-02,1.720286267535472199e-03,2.670000206573496307e-02,4.971029460430145264e-01
5.847130206378809980e-01,2.424601464712123899e-01,-2.546157624274048015e-02,1.522739200996297559e-01,2.653344016431825707e-03,-9.540963684552247531e-04,5.917786359786987305e-01
6.198555257440730992e-01,3.114851035275771340e-01,-2.183064632870190813e-02,7.439446588497751478e-02,-1.124022600282485046e-02,4.355081671347070527e-02,5.758898258209228516e-01
5.586565402862281315e-01,3.821017422924866125e-01,-1.337171655523200497e-02,2.907607833689345930e-02,-7.512489791869855944e-03,1.075538472486413551e-02,5.103393197059631348e-01
5.016948668871027417e-01,4.785101284190871329e-01,2.247955209963908851e-02,7.347509959346448100e-03,-7.799545680158151764e-03,-6.768607572024582485e-03,4.685683250427246094e-01
4.810345530846628082e-01,4.695066404854568720e-01,-3.725051431072795571e-02,8.320152967961984801e-04,2.600538374650700549e-03,-3.890867055744783140e-04,5.126405954360961914e-01
4.927893427630606338e-01,5.102525483337173595e-01,9.555069747524624901e-03,1.184364287289067438e-02,-1.181608173915866221e-02,-7.331743182458255910e-03,4.932140409946441650e-01
5.001802855238448586e-01,4.924291076182282234e-01,8.185656034663585379e-02,4.555637908729655294e-02,-5.228843299191519162e-03,-3.988243311151885157e-02,4.276591241359710693e-01
5.170894927567947219e-01,5.292078759310485658e-01,1.052162371055488377e-01,3.473713462703065941e-02,-2.171580364646082464e-02,-1.086240979939495296e-02,4.244601130485534668e-01
4.778061519186158623e-01,4.726030181660170748e-01,-3.661121698058106277e-02,3.702138207297668397e-03,4.200257282150400909e-03,3.991662842395829296e-03,5.119741559028625488e-01
5.523057428254837253e-01,3.914172984790810217e-01,-2.278730789164740145e-02,-9.127727122857524911e-03,-1.823871757877403021e-02,-2.438156600135967314e-03,5.151281356811523438e-01
4.804201985465842428e-01,4.845487010124295280e-01,6.753826605323248744e-02,1.390681173000464380e-03,4.430925820647268511e-03,-5.810000317683960795e-03,4.151615202426910400e-01
4.817133412013011595e-01,5.116845598667696393e-01,6.528344758812626436e-02,2.101421690906605383e-02,-6.401217306878024572e-03,-5.042667404589901321e-03,4.339551329612731934e-01
4.791755942089783726e-01,4.695893470067774578e-01,-3.456519025999443828e-02,7.683463642567773481e-04,3.048514665368608299e-03,-3.008692470371830772e-04,5.090447664260864258e-01
4.776141516568765955e-01,4.751012185844830649e-01,-3.645420266663912390e-02,4.999947773688943019e-03,4.209769540917945342e-03,3.263065432099312383e-03,5.129725933074951172e-01
4.561354366450818265e-01,4.709888223414786523e-01,-2.235733007996187904e-02,2.162422014158435057e-03,-2.547576398231978390e-03,3.634627357886980551e-03,4.861648976802825928e-01
4.668793739807162169e-01,4.683053156492144598e-01,-4.075682526192353494e-02,2.332359569219246263e-05,1.288877643642580111e-03,8.014290487664394412e-04,5.083574652671813965e-01
4.590740666970896111e-01,4.704929412520399978e-01,-2.782391973987463629e-02,8.417858655451110122e-04,-3.867241224985681122e-03,3.888274901705812713e-04,4.927548170089721680e-01
4.850656029511209999e-01,4.068562607913756013e-01,-1.205391556564283650e-02,-4.609691048311949889e-03,-9.716343989996130762e-03,5.464507461273236362e-04,4.633713364601135254e-01
4.630578269398893942e-01,4.674887135802593408e-01,-2.769167994025251156e-02,-1.498120999219598693e-03,-6.320653336220967596e-04,-2.602169044320349245e-04,4.929881393909454346e-01
4.483668121503713300e-01,4.339845959724177860e-01,-1.877496183800048124e-02,-3.507677833015615532e-03,8.477557973945131289e-03,1.551639721137491575e-03,4.604014456272125244e-01
4.736019797447327262e-01,4.683156475833462062e-01,-2.320097864976372604e-02,1.714715171608796954e-03,-6.547746326672458303e-03,2.285017312539600835e-03,4.943358898162841797e-01
4.753586471148493198e-01,4.586862468842528573e-01,-3.430069709422878255e-02,3.345650807276280255e-04,1.020882605552426992e-02,4.990128417614057626e-04,5.018436908721923828e-01
4.800298946598748895e-01,4.792657002275076961e-01,-2.775776316722766701e-02,-2.933833745764586834e-05,1.934564856385136145e-03,-3.280247098633318008e-04,5.074173808097839355e-01
4.824648722332590678e-01,4.765782584809614697e-01,-2.036167122013671227e-02,-7.849534837330671838e-04,2.677454602600770617e-03,-1.631965502676224408e-03,4.999405741691589355e-01
4.644756700829696383e-01,4.760809749621788267e-01,-2.722152051223125646e-02,-6.538711494718259362e-05,-7.677936067901769282e-04,-2.781090082353429582e-03,4.976264536380767822e-01
4.737799555357458670e-01,4.805370373471283818e-01,1.978760013564134779e-02,-6.764673212070933532e-05,6.473602287304177152e-03,-7.380339593671407690e-04,4.575475454330444336e-01
4.677689432768930011e-01,4.822315582281944124e-01,-2.204785200434861148e-02,2.041689393109464429e-03,-4.912339363347814451e-03,-1.201733184641960977e-04,4.972912967205047607e-01
4.391675416675853705e-01,4.463508332089541897e-01,-1.850719240263720700e-02,2.201619519559912599e-03,3.191313135223555427e-04,1.774942006897498687e-03,4.613346755504608154e-01
4.546433862032202566e-01,4.785245440413535833e-01,-3.645729746769937885e-02,-2.049426818997964524e-03,-4.323108575434506454e-03,-5.473491326425665611e-03,5.036236643791198730e-01
4.525906690162359580e-01,4.826327719914655368e-01,-3.019085828765843971e-02,-3.067224411709964203e-03,-9.504939777809423215e-03,-7.578709904098888950e-03,4.989547729492187500e-01
4.665143213194197780e-01,4.768754529610343962e-01,-3.397133424351322928e-02,2.379338453049701426e-03,-4.308762181478924605e-03,-2.041808410000263332e-03,5.058300495147705078e-01
4.606888735308133365e-01,4.821532155557478605e-01,-3.494540516670074926e-02,-1.595103797903536054e-03,-3.107749845805845863e-03,-3.689171584248006949e-03,5.067839622497558594e-01
4.640922715350203065e-01,4.667040009255821742e-01,-4.077383920673427475e-02,1.172007446700800782e-03,1.059220190383387426e-04,-3.444649220567183861e-05,5.061811208724975586e-01
4.388741491709561848e-01,5.493789257847230267e-01,-1.826108430562234375e-02,-4.495028763491991071e-04,4.097870473946674946e-02,1.875017080789137189e-02,5.270603895187377930e-01
4.342704517735236358e-01,5.319683235057730553e-01,2.579992184479529271e-02,9.792945309185294156e-02,6.343022560045742664e-02,1.766327143964381563e-02,5.080122351646423340e-01
3.630655695355050616e-01,4.935900649409086238e-01,-5.895019383960697912e-03,3.121767421578477281e-02,-1.594825374747916094e-02,8.423956359697462593e-03,4.530193209648132324e-01
4.598868690400481629e-01,4.520845301013710626e-01,-3.300503388339753874e-02,-8.614866376585665316e-04,6.315175383101881076e-03,9.788576367016524164e-04,4.891649484634399414e-01
4.803754095480460284e-01,4.464202940605934700e-01,-2.562346237169821350e-02,-1.629871697444545877e-03,-6.382793735943957138e-03,-6.104773385384215829e-03,4.901515543460845947e-01
4.813175380118373536e-01,4.647218331736430175e-01,-3.631925361597676538e-02,-6.461685090601206874e-04,5.922659898902013845e-03,4.986562956947018094e-03,5.097193121910095215e-01
4.873890660550998510e-01,4.569281074528137587e-01,-3.574425197381853048e-02,3.753856610269822383e-03,1.022460755985833865e-02,8.644371960942469346e-03,5.091574192047119141e-01
4.829623517062391902e-01,4.747359748161182891e-01,-2.988998073419807389e-02,7.798826760602162872e-03,7.320077648798844865e-03,6.610247499463605542e-03,5.092549324035644531e-01
4.883617914688409001e-01,4.660504030911868378e-01,-3.192377078516400735e-02,-6.960740384516282513e-04,1.244446320890643231e-03,7.109132385683009613e-03,5.096511244773864746e-01
4.877921630584715063e-01,4.755698897411945181e-01,-3.088133248236890616e-02,1.559446321104870263e-03,1.160508338305387159e-03,1.810491855240758214e-03,5.126922726631164551e-01
4.790124782786865931e-01,4.716522757345666950e-01,-2.482266545589484341e-02,-1.321501460678963825e-03,1.638269391244440631e-03,-2.058604848931957620e-03,5.002216696739196777e-01
4.760629247188552515e-01,4.693191984258162641e-01,-3.122532919790593775e-02,1.570687627804454297e-05,5.333046170682978959e-04,-5.827627771418257335e-04,5.039520859718322754e-01
4.801421696295313235e-01,4.655669672687929861e-01,-3.544726757551797114e-02,1.626974988742393513e-03,5.403576385683892154e-03,1.692059992327210084e-03,5.085608959197998047e-01
4.818885258127836302e-01,4.732438601648506493e-01,7.590894326730951436e-02,5.968010760196548227e-03,-9.108340220697726947e-03,5.795545895504754155e-04,4.021707773208618164e-01
4.953994965011912499e-01,4.660538107130937080e-01,-1.444327108049370256e-02,3.820492513756038998e-04,6.842522225951594428e-03,1.397197684097497075e-02,4.965538084506988525e-01
5.057839198045825935e-01,4.582652087581918776e-01,-3.129824045519813414e-02,5.565679269185647322e-03,7.712539932863893798e-03,7.534245007870545539e-03,5.153983831405639648e-01
4.292715186644483483e-01,4.829701768614748092e-01,-2.044902707478335468e-02,1.575136814625101300e-02,-1.042037915260836736e-03,-8.147466592948732558e-03,4.798210263252258301e-01
5.002978829775870384e-01,4.185306935343912627e-01,-2.700520280337104229e-02,-2.907407590739836695e-03,7.126484008779044102e-03,1.367682584188036586e-02,4.922978878021240234e-01
4.758368719336205643e-01,4.689143002330518062e-01,-3.111407004312305435e-02,-4.833858599966153378e-04,9.544415796733840465e-05,-8.325462691583865316e-04,5.035281181335449219e-01
4.873714173533512106e-01,4.578058767150474662e-01,-1.820634194814368945e-02,2.073496280911751085e-03,-1.940339825331156354e-04,9.378723341630706631e-03,4.917440414428710938e-01
4.765730318581633540e-01,4.764643075605069500e-01,3.339089798059635683e-02,-4.653577611364489086e-04,-5.384949479229407011e-03,1.094999792980468111e-03,4.432307183742523193e-01
4.964072868987648435e-01,4.345028599035708483e-01,-2.333264318160127582e-02,3.156793982146511874e-03,-6.166737200245924269e-03,7.395568605231651188e-03,4.920321404933929443e-01
4.794243757447472776e-01,4.745384325074891163e-01,-1.158412837485733871e-02,-2.489179787368911607e-03,2.557657997184151297e-03,-4.292803309809957620e-03,4.886795282363891602e-01
4.887641139515430666e-01,4.583975682006471430e-01,-2.743248107580448236e-02,-1.186694939466671631e-03,7.491715366324584735e-03,1.535729780387448153e-02,5.025794506072998047e-01
4.345036237520711331e-01,4.275182955352165304e-01,-3.641660936471002863e-03,2.969166881046326339e-02,4.179412012886930643e-03,-1.588499095169813380e-03,4.377947747707366943e-01
4.102199072646413591e-01,4.695817337925451973e-01,-5.114204401486799334e-04,1.071238558760341346e-02,1.229337239359752122e-03,-1.204345828489163399e-04,4.437957406044006348e-01
4.771119678288131549e-01,4.718522795161513850e-01,-2.840532645679999524e-02,-1.820990425349968767e-03,1.571336349084711441e-03,-1.406053776238017214e-03,5.029312372207641602e-01
4.408037806253097823e-01,4.494585949138918402e-01,-2.140869421928814909e-03,1.191554364084026867e-02,4.408161141232379808e-03,-3.330658224335378195e-03,4.479129314422607422e-01
4.768503562633643611e-01,4.691991832926193373e-01,-3.017285299025335155e-02,-6.505724622032588254e-04,1.307908132640832550e-03,-6.307289826660863021e-04,5.032488107681274414e-01
4.002485932275874347e-01,4.513352210065315062e-01,1.770980494227691882e-03,2.383538951426560776e-02,-1.507948751611312200e-04,4.490508543147322951e-03,4.283877611160278320e-01
4.419128669318787006e-01,4.417575785017084922e-01,-9.618209484029693890e-04,1.368289647639420702e-02,5.566226480723227357e-03,1.450008660376071994e-03,4.435427486896514893e-01
4.442872730826565864e-01,4.329586449063730358e-01,-4.969345770465816159e-03,6.980384434974790629e-03,2.538880421376298307e-03,-3.174470137471815164e-03,4.439213275909423828e-01
4.435804366169350810e-01,4.415201106629009775e-01,1.503131182938099997e-03,1.506131867388772923e-02,3.397382336949196849e-03,-9.885464512059570150e-04,4.418640732765197754e-01
4.931266528453677189e-01,3.707944071399250641e-01,-1.383712002399722918e-02,-2.247402643560190635e-02,-9.715152397310815660e-03,6.069244684293386176e-04,4.601727128028869629e-01
4.537824492543853783e-01,4.447111906063564435e-01,-3.445019515577352198e-03,1.099473991962365838e-02,6.664163568035455336e-03,-3.397934850032844484e-03,4.533455073833465576e-01
4.566362453976050562e-01,4.217865421956342176e-01,1.120512345527735487e-03,5.646918142180739307e-03,3.922481513301194316e-03,-2.030039447740133031e-04,4.392908513545989990e-01
4.621441907539053928e-01,4.193105160145285670e-01,1.408809741404837279e-03,2.572692506140000432e-02,9.860234840526612560e-03,-3.958589448745023984e-03,4.435100257396697998e-01
4.637941486632876087e-01,4.001717603958401259e-01,-6.662791027871040050e-04,1.518704827924350145e-02,5.360459957044116409e-03,-3.245656720707741725e-03,4.370708763599395752e-01
4.777632334974309947e-01,4.818016184723360462e-01,9.389103261613740425e-02,9.126686876193126907e-03,3.770725129101922619e-05,-2.823574866442946172e-03,3.862618505954742432e-01
4.821405107507718002e-01,4.833248655392978765e-01,-2.516852036871669585e-02,7.236614381500587785e-03,2.040260720783217737e-03,9.150150444191018292e-03,5.083162784576416016e-01
4.737171128234673456e-01,4.813985870387527122e-01,3.832375163280637986e-02,4.543674016036671273e-03,1.767725959603220825e-03,-3.797261601954772612e-03,4.394148588180541992e-01
4.708520778900150416e-01,3.555463290132316323e-01,8.243610882973095855e-03,-6.559189608360750656e-02,1.196906823068934027e-02,1.338187480321951714e-02,4.333987534046173096e-01
3.441313347561666403e-01,4.970795458871460903e-01,4.393839715059189022e-03,-1.235836802032326889e-02,-2.058104048539423619e-03,-4.648773551969358382e-03,4.373930692672729492e-01
4.784748020336638819e-01,4.755939210118880212e-01,-1.157653510336464908e-02,-2.430557609307564763e-03,2.532439755744447102e-03,-4.264414175939369202e-03,4.887109100818634033e-01
4.591602596765083089e-01,4.782284336947800751e-01,-3.550688504303595172e-02,2.153900842654067957e-05,3.440354537988684052e-04,-1.548091869344212857e-03,5.044790506362915039e-01
4.792633626784991163e-01,4.741955775545740881e-01,-1.788167130617501765e-02,1.182408293444416362e-03,1.363051487251837291e-03,-8.916761051139469874e-03,4.948815405368804932e-01
4.593663353580367259e-01,4.711913912507314506e-01,-3.877782267785773174e-02,-5.868454743743299341e-05,-1.432352327839396869e-04,-2.586462455071404914e-03,5.041806697845458984e-01
4.432843004254725106e-01,4.004347473048934791e-01,-2.189716050930434754e-03,-1.548227909445982174e-02,1.031496526910648595e-02,4.497330926133056542e-04,4.268884360790252686e-01
4.567859320354838437e-01,4.505847452757274496e-01,-3.321979040904921021e-02,-1.022599080254071738e-03,-1.149605404535870888e-03,-4.887090216220508695e-03,4.870156049728393555e-01
3.758239521823696361e-01,4.232654634915411496e-01,5.307534638467892307e-03,-6.235807915004291935e-02,2.200420877688990737e-02,1.742406025891940491e-02,4.136905968189239502e-01
4.434391069020193199e-01,3.890293731094754959e-01,3.062830277231476384e-03,-1.803916894245075758e-02,1.052933576350035053e-02,6.069796594963669176e-03,4.175527393817901611e-01
4.140785647127677160e-01,4.350149943702440458e-01,2.870459490638188615e-03,-9.062703796764734129e-03,4.992430326022168421e-03,8.164298357868703809e-03,4.226828813552856445e-01
4.799480379509729611e-01,4.908567255289167930e-01,-1.066114758514263849e-02,7.814921565412654911e-03,-2.977892311400436899e-03,2.405693618638276091e-02,4.981107413768768311e-01
4.607534339886898422e-01,4.841063388832711478e-01,-3.344852673251230701e-02,6.600694541548272421e-04,9.275682932205696037e-04,-1.441269154508604167e-04,5.062864422798156738e-01
4.913902170618833498e-01,4.690098631924516370e-01,-2.439552704775627134e-02,7.710610488451816007e-03,-6.568170445325024163e-03,5.780849613170158975e-03,5.053715109825134277e-01
4.601138182543912936e-01,4.673699022370445544e-01,-3.897358358518365762e-02,1.699149390300734499e-03,-3.584687358030444948e-04,-2.375279328051625033e-03,5.027805566787719727e-01
4.815095695328766023e-01,4.603249909905113846e-01,-2.990362901174226096e-02,-7.314252745101907944e-04,1.388210501940449672e-03,1.831809759269780076e-03,5.011742711067199707e-01
4.719281115758401923e-01,4.783460472571706146e-01,5.810815403785696276e-03,4.530473226324607632e-03,3.085824702950870288e-03,-1.834044868262840701e-03,4.694659411907196045e-01
4.798906162913731954e-01,4.689218504702632462e-01,-2.931310777509221754e-02,1.972846440678352692e-04,-9.642374783458969138e-04,7.187618030428266462e-03,5.039655566215515137e-01
4.840608354587621065e-01,4.681957478840761411e-01,-2.832409197374935461e-02,2.239937399825756275e-03,-3.746164826949513384e-03,4.627831748420071362e-03,5.047597289085388184e-01
4.762970625437124017e-01,4.825233199777350657e-01,-2.139099117364645641e-02,-8.313072665589916642e-04,-4.463923926257732690e-03,2.962021307965653858e-03,5.009182095527648926e-01
4.781932187824112779e-01,4.773109473763933464e-01,-7.797729047515633560e-03,2.927173888405455900e-03,-3.167885024430543150e-03,-5.392680721368031671e-03,4.856977164745330811e-01
4.713281284571095298e-01,4.686634350211800748e-01,-1.120784560338533575e-02,-8.459172725094761189e-03,-1.309215740346882442e-02,-3.999201668859978659e-03,4.820156991481781006e-01
4.421884199361485468e-01,4.397644312456314708e-01,-2.238719279622386482e-02,-1.599075003726115919e-03,-1.137474460926431001e-03,-6.298407917564100879e-03,4.635092318058013916e-01
4.878101145142537676e-01,4.439666993716055998e-01,-2.530306893740880136e-02,3.482214048472472533e-03,-7.540168381387640957e-03,8.888201998703550502e-03,4.931071698665618896e-01
4.945919170377981455e-01,4.088117934596044445e-01,-2.653745931091439081e-02,-5.605056582928994759e-03,-2.673708323927870539e-03,1.192197237049080543e-03,4.840986132621765137e-01
4.765647820887844999e-01,4.784328127223444471e-01,-2.641058254534089933e-02,-1.089278825629621476e-03,-2.489669947982157960e-03,4.189987958108819981e-04,5.039345026016235352e-01
4.497422186127807420e-01,4.787931584022179221e-01,-3.383721020884455921e-02,-7.737915989264955484e-04,-5.563762032833540448e-04,-7.734195529263835148e-03,4.989224672317504883e-01
4.881457376073956578e-01,4.498852211229679710e-01,-2.363079720659100325e-02,4.721221628159809162e-03,-4.603604310289766827e-03,-1.110527898692070976e-02,4.942657947540283203e-01
4.774565712896293168e-01,4.788396951252081868e-01,3.128067395298572695e-02,8.693751073350883957e-03,8.433550822192629678e-03,4.505723552991888932e-03,4.474292993545532227e-01
4.607231026918257588e-01,4.798149266384144074e-01,-3.247838289442883664e-02,-5.677501822038381754e-04,2.436299722621784085e-04,3.716100581743835246e-04,5.030207633972167969e-01
4.458535642621512252e-01,4.929329768086110897e-01,-2.758567194773053899e-02,1.800255125285101258e-03,1.689009258250601889e-03,-1.047430768735512901e-05,4.986669123172760010e-01
4.765311031621272120e-01,4.774998954202629431e-01,-2.814272542284645962e-02,8.238074136304437750e-04,-3.599017492893205779e-03,1.065700426181230218e-03,5.052027702331542969e-01
4.784018878634529459e-01,4.450985065953770303e-01,-2.551860079539741699e-02,2.350001092971261332e-03,-6.725874085889258988e-03,9.504893444355295984e-03,4.885550439357757568e-01
4.204311212861215341e-01,4.571044913464363257e-01,1.387854280462730294e-03,5.925638794874012530e-03,1.159469555105898091e-03,5.086487073512357439e-03,4.387446939945220947e-01
4.279755926505652841e-01,4.475222240243404981e-01,1.336034031139632372e-03,1.138538688115197685e-02,5.482973982160358828e-04,4.236452342407028872e-03,4.372486472129821777e-01
4.361166578692340368e-01,4.238827650624323873e-01,-3.476765378459534261e-03,3.094237498758244803e-02,-6.871885905756690456e-03,6.068931734324573869e-03,4.371939599514007568e-01
4.064864443167954255e-01,4.626187325631129221e-01,-5.721635052269802291e-03,1.398534302353629521e-02,-6.429289363764547488e-03,6.922100469262832192e-03,4.439133107662200928e-01
4.029382162610539719e-01,4.627538832461635665e-01,8.360670210655896106e-04,1.403684683554298936e-02,1.722435068525060868e-03,5.982612645968484431e-03,4.359167814254760742e-01
4.772899534503338703e-01,4.636844144900712505e-01,-2.732036610245286434e-02,2.398865532976611058e-04,-3.467560424479130404e-03,-6.052411942340555576e-04,4.979844689369201660e-01
4.804388201850114948e-01,4.648078004389347706e-01,-2.729612985087759292e-02,9.786452882130328591e-04,-7.675989844582599420e-03,-1.362090742936226777e-02,5.008382201194763184e-01
4.771678890455645083e-01,4.658818660665533518e-01,-3.443900714603348456e-02,9.228521072134894358e-04,-2.913426841798815760e-03,-3.146403295429768630e-03,5.061153173446655273e-01
4.804027445173199018e-01,4.678050580217794074e-01,-2.830773034834666024e-02,1.558538743926784912e-03,-2.348271460673612403e-03,-4.006076089964173172e-03,5.026016831398010254e-01
4.804746273904795251e-01,4.629119444093899860e-01,-3.202512144221536516e-02,-1.383120132987713450e-04,-1.297629869977247373e-03,-1.134927714738335775e-03,5.039569139480590820e-01
4.808089141303125702e-01,4.593688509883501192e-01,-2.812616754684615916e-02,-2.617720343564107423e-04,4.689714212477251280e-03,2.164495165991933148e-04,4.986274242401123047e-01
4.277779142268396395e-01,4.664371652836366566e-01,-2.414777050065552988e-02,-4.605307383099837767e-03,-1.387914344858879375e-03,-1.320373881769109151e-02,4.730696380138397217e-01
4.749459448557191710e-01,4.721993606860541703e-01,4.179910348625703875e-02,4.469157074772606153e-03,-8.264146534331344787e-03,-4.939482593726784131e-03,4.321713447570800781e-01
4.754531196552690409e-01,4.649961024323217007e-01,-3.476245077762663005e-02,1.095455373722486721e-03,-2.360671122307421573e-04,-2.672565424830440801e-03,5.050932168960571289e-01
4.624054466088933224e-01,4.610100909648626177e-01,-3.863732319415785765e-02,4.811561567255641663e-04,-1.416636942496246609e-03,-2.539868730253129481e-04,5.003534555435180664e-01
4.746323711463363848e-01,4.762670958721948455e-01,2.461123371624324152e-02,4.203423017368804714e-03,-6.842503022749559828e-03,-8.619881118553366153e-03,4.513022601604461670e-01
4.681254291248269084e-01,4.617266416707767052e-01,-3.678656741703578703e-02,2.930466912888673352e-04,-5.457208253341585408e-03,-3.284679929335530390e-03,5.018647313117980957e-01
4.653527235806753648e-01,4.618214787018946055e-01,-3.370218632321630992e-02,-6.177514722742354948e-03,-1.059270609282979801e-02,-8.850902738302473746e-03,4.979880452156066895e-01
4.648270488574365311e-01,4.676547273237653957e-01,-3.536971565428331798e-02,-8.564318661838999421e-04,-6.911894836923134118e-03,-8.096405379572412658e-03,5.019575357437133789e-01
4.670639941386228733e-01,4.531939969738459917e-01,-3.458348004994893365e-02,-5.511035440624070282e-03,-8.239452512623103228e-03,-8.367429922966924255e-03,4.953680932521820068e-01
4.183891981034135732e-01,4.383714839993734236e-01,1.030682141049177325e-03,-6.530138263209765703e-02,-1.703037415090749573e-02,-1.925792690113767650e-02,4.446377456188201904e-01
4.752194872138859605e-01,4.708783211898471266e-01,-1.290969673271319396e-02,6.084274975641313157e-04,4.070664422902295528e-03,-1.545608090869524543e-03,4.860328137874603271e-01
4.404533114211951483e-01,4.285901826603934484e-01,-6.673394644183816560e-03,-4.708803648261840162e-03,1.185967600066889987e-04,-1.825121545203371894e-03,4.414014816284179688e-01
4.801610401265418160e-01,4.752193030888182124e-01,-2.806325161790712563e-02,-3.774660654874300615e-04,1.488924114872501895e-03,-3.875105118300712324e-03,5.058230757713317871e-01
4.453606150261031904e-01,4.870225659209526103e-01,-2.332726834631565493e-02,3.777548722763087591e-03,7.811896626139486211e-03,-7.798138010603967822e-03,4.912624657154083252e-01
4.670408866411684956e-01,4.608531597610250330e-01,-3.667122500681568864e-02,-1.292429867109702720e-03,-5.115591693049151983e-03,-2.506098620100280592e-03,5.007491707801818848e-01
4.771960808327118109e-01,4.590366811039691686e-01,-3.565647481328193535e-02,3.621329427220644964e-05,-2.813214478653247759e-03,-4.071749998338328614e-04,5.040423274040222168e-01
4.634410985293910268e-01,4.849090252379703037e-01,-2.762151538352236591e-02,1.155746635734772364e-03,-6.949528895459603124e-04,-3.297964749801763230e-03,5.021787881851196289e-01
4.313890532919470999e-01,4.288743373468014708e-01,-7.124764847790066025e-03,1.232683090182647796e-04,-1.673960875000456150e-03,-6.993760161503894638e-05,4.372715651988983154e-01
4.802632195489215383e-01,4.747211741639364435e-01,-2.764863756982588461e-02,5.820753287444836071e-04,-4.365502602348913207e-03,-3.622034582220537945e-03,5.052601695060729980e-01
4.471966401143945835e-01,4.805839333136678881e-01,-2.578244681707969610e-02,1.355494227041830792e-02,1.315030416789831659e-02,-1.056459801076738668e-02,4.919555485248565674e-01
4.769962449628949441e-01,4.748709472435435064e-01,-2.443967869934593473e-02,-1.345749557696046496e-03,-5.570886337328677948e-04,6.315542562784353135e-04,5.003842115402221680e-01
4.534160644368173121e-01,4.848291635656404308e-01,-2.571299471848326190e-02,9.413891640293317251e-03,-4.224747717721123036e-03,-6.836465744839124309e-03,4.960463643074035645e-01
4.746005998815361338e-01,4.590475119889245725e-01,-3.770411562915071402e-02,1.589491350081188165e-03,-2.637394884813306761e-03,1.223301068327280509e-04,5.047361850738525391e-01
4.591359953158195006e-01,4.843370344659733706e-01,-1.402967715974184904e-02,8.587625559087444516e-03,3.780618583797185853e-03,-8.061237655022869888e-03,4.867280423641204834e-01
3.910387568544412273e-01,5.029312905007395917e-01,-2.199672083377729459e-02,3.134858524250758866e-02,-1.612875402123780527e-02,7.304063357936075272e-03,4.829311370849609375e-01
4.554565304469982423e-01,4.681665355865554656e-01,-2.361790053794182720e-02,-8.693725463557917116e-03,-8.111296276574701120e-03,-6.648848864574613896e-03,4.861271679401397705e-01
4.641890254761529278e-01,4.676374260306358499e-01,-3.767227055637911715e-02,7.213907396499062404e-04,-2.158184676663377731e-03,-3.257242750724500830e-03,5.036413669586181641e-01
4.682822336349746761e-01,4.819863663798302778e-01,-3.052051860180104992e-02,6.102398802573128379e-04,-2.559143411509647806e-03,5.641230626736744433e-04,5.058155655860900879e-01
4.744672862068238794e-01,4.809759410977072491e-01,1.431622560557005430e-02,5.710221638282118699e-04,8.389346443971729822e-03,-2.337292604624248166e-03,4.636861383914947510e-01
4.620474885463576875e-01,4.624166800289362111e-01,-3.907752317470863934e-02,-1.864116456134793048e-04,-9.197604640650907607e-04,-6.705865713476733079e-04,5.013136863708496094e-01
4.775169239512748187e-01,4.778669952177083680e-01,1.668976378347980516e-02,-6.000940969649169081e-04,4.379747536684882973e-03,2.544114080780494804e-03,4.610869288444519043e-01
4.664498128737345484e-01,4.818473144298602850e-01,-2.303167509605252850e-02,4.963766539619115115e-04,-6.020345673061491820e-03,-1.111707419180800720e-03,4.974727928638458252e-01
4.579376167333335523e-01,4.831055970503126407e-01,-2.804441542087665606e-02,2.599278665300852826e-04,-3.687057970404036301e-03,2.857234031177055458e-03,4.991078376770019531e-01
4.783307000581529800e-01,4.835945850172460037e-01,-1.289057632304313472e-02,4.721534944640943914e-03,3.571585116277277254e-03,-2.059166119754087584e-03,4.939935803413391113e-01
4.762881920673116554e-01,4.834789515223717471e-01,2.968918990310814854e-02,2.954273837004721057e-03,1.027779067208987353e-02,4.655837710753372299e-03,4.506904482841491699e-01
3.736638687349340127e-01,5.237151862097646493e-01,-2.622318122627032011e-03,3.090555888217430894e-02,5.518376336893509801e-03,2.083385301109530203e-03,4.727988541126251221e-01
3.329710273089628303e-01,5.334191058610003866e-01,-1.006309057623921976e-02,-1.092440825308280128e-02,8.022131680323096089e-04,5.056312052181760955e-03,4.764966070652008057e-01
4.703512535172184039e-01,4.552577079385218273e-01,-3.684592951995352417e-02,-1.866327633091910366e-03,-6.031806983919539393e-03,-3.965356917887513134e-03,4.999881684780120850e-01
4.622790886344171346e-01,4.587647828891999180e-01,-3.754926687205600855e-02,-3.014102022123347699e-04,-2.264098387296653494e-03,-2.004197626371518551e-03,4.981082975864410400e-01
3.199950036113112795e-01,5.318516136259299198e-01,-9.779990005838679057e-03,-2.571895432140368885e-03,-2.187022425045005367e-02,7.501327038870800584e-04,4.742955267429351807e-01
2.779770585905232405e-01,5.277442072361013814e-01,-1.071613642710322889e-02,-4.191931636664337352e-02,-2.111862103380245798e-02,-5.028515642157616906e-03,4.738343656063079834e-01
3.184812468861001333e-01,5.323820100764844465e-01,-2.013215734470774620e-02,-7.655298237402806405e-02,-4.672409686492370873e-02,-2.070333836180573289e-02,5.081915259361267090e-01
2.660494250774851910e-01,5.393587830530193195e-01,3.038737494612253620e-04,-1.490781598340189772e-02,-2.345868275538676509e-02,-2.656699243645639467e-03,4.693487882614135742e-01
4.626368161522815825e-01,4.665898253547983154e-01,-3.989157155310474323e-02,7.974880333330731236e-04,-4.369733739306909414e-04,-1.596348389692220154e-03,5.045265555381774902e-01
2.981845352112917902e-01,5.469873848481265899e-01,-7.254200004136235336e-03,6.446295174837441723e-03,-9.815424136654289991e-03,-2.548920918060292376e-03,4.812721610069274902e-01
4.604639548699946960e-01,4.798110972435119526e-01,-2.771813021154551082e-02,1.101275274809400146e-03,-3.257266053932831706e-03,6.700471092240788140e-05,4.981731176376342773e-01
3.940959157886770869e-01,4.501714537313670217e-01,-5.039558447371195182e-03,-1.045278360059937080e-02,-9.434620225258025239e-03,-1.484855514733550257e-02,4.313833415508270264e-01
4.328284317611800214e-01,4.352694014667055078e-01,-1.561799427245436078e-03,-8.607102983396437354e-03,-7.913898678789738766e-03,-9.132281385778729180e-03,4.363731145858764648e-01
4.340206956439761621e-01,4.355063742472790045e-01,-1.281900113813283504e-02,-5.184129810976026778e-03,-8.853687842661687665e-03,-4.785889384902698891e-03,4.480137228965759277e-01
4.133955743116377590e-01,4.487851500449225872e-01,-8.976483358670128698e-03,-7.721636981318307467e-03,-1.677618225746045849e-03,-1.144378581426137853e-02,4.417899250984191895e-01
4.129438233963885208e-01,4.413762729783334837e-01,-2.279264928842339444e-03,-4.041472094739836582e-03,-4.753467316785563862e-03,-1.050972488699179058e-02,4.306652843952178955e-01
3.946242824130072879e-01,4.412694991129632038e-01,-3.226570922054361468e-03,-1.440512987257339464e-02,-5.685702719059815106e-03,-1.147580737526800870e-02,4.244213700294494629e-01
4.124763379228246762e-01,4.092375673747461473e-01,8.747790767168583947e-03,-3.033035320227747689e-02,-5.624431387159187787e-04,-3.775562155355833335e-03,4.055898785591125488e-01
4.480508888152827107e-01,4.221706005740502032e-01,-4.280355720744977166e-03,-2.327891110907823885e-02,-1.371472132958226169e-02,-1.241809238301338179e-02,4.429667294025421143e-01
4.337403045481275088e-01,4.378148069165734846e-01,-1.281822467081977779e-02,-1.019757923137710673e-02,-8.989902550573559969e-03,-6.739576326238601832e-03,4.493788182735443115e-01
4.574464239431684787e-01,4.410351295606039779e-01,-7.909630413529433746e-03,4.186887290962192955e-03,1.625094666990512025e-04,-7.762078244810069081e-04,4.574308395385742188e-01
5.164757886364319539e-01,2.819698236811993275e-01,-1.059330571949612665e-02,-8.383024386915371995e-02,-1.206386806450703182e-02,-2.810114274463947764e-02,4.827858805656433105e-01
5.286854991637207624e-01,3.635068825957178396e-01,-1.464786466783613017e-02,9.229238378999388148e-03,2.031437648815604628e-03,2.816924755737376922e-03,4.827419519424438477e-01
5.377339424501933474e-01,3.196911400938957648e-01,-1.905857102216412802e-03,-9.200962287738293291e-03,-2.624729779462283905e-03,-1.615430129611698795e-02,4.713244438171386719e-01
4.998116815313013994e-01,3.826491041101699464e-01,-1.959346097746733628e-02,-1.248206019256762125e-02,-1.137975012380317875e-02,-1.877626839321347441e-02,4.738855063915252686e-01
4.729272004910271554e-01,4.849490670959053507e-01,-2.284068552468598856e-02,4.719262228539631426e-02,1.269505739506971917e-02,-5.505415074888346874e-03,5.090640783309936523e-01
4.701097829527534633e-01,4.790500665244825651e-01,-2.877685621436892882e-02,3.942977113525931727e-05,-7.776983230228688227e-04,-5.162572895977201974e-03,5.034975409507751465e-01
4.776236173256608319e-01,4.785923399093742203e-01,-2.706170665830281985e-02,9.472725515227407595e-04,7.690387573677928213e-04,-2.693687563117768725e-03,5.051963329315185547e-01
4.816314024607180611e-01,4.735391061758850162e-01,-2.453620226157920969e-02,-1.740293984716931221e-03,1.675224806853496239e-03,-2.182199522785149923e-03,5.022020339965820312e-01
4.532457496281073750e-01,5.199635281526060471e-01,4.155583934493722875e-03,2.040680573574936429e-02,2.893401412448094647e-03,-7.285363629814321784e-03,4.873696565628051758e-01
4.795457700494777376e-01,4.716000676346711051e-01,-2.201380955505982673e-02,-1.139279530690030318e-03,3.925878552889995230e-04,-2.896995563074750753e-03,4.976639747619628906e-01
4.289976801329522527e-01,4.978349431686575066e-01,-2.534628070910982522e-02,2.797151711743369861e-03,1.349197493555785547e-02,-1.825441616888985553e-03,4.929729998111724854e-01
4.997960672590844311e-01,5.080673834345987849e-01,4.451122914142019438e-02,-3.646935482854450454e-03,-9.164094262437010724e-03,-2.554757395580643450e-02,4.619181454181671143e-01
4.776819472044501191e-01,4.781991565190264470e-01,-1.988570223315333507e-02,-2.413515460337697948e-04,-1.300035422214205604e-03,1.110636269756019303e-03,4.978354275226593018e-01
4.871041522729369078e-01,4.082333993178165477e-01,-2.532842455342687593e-02,-2.101287813651100608e-02,-1.141952305917148455e-02,-1.967071847523742256e-02,4.809037744998931885e-01
4.647997495520759248e-01,4.541134007058612032e-01,-1.395319152751339775e-02,3.877762964781311574e-03,7.466354780738088462e-03,-6.849717311258695859e-03,4.738729298114776611e-01
3.539432723339565046e-01,5.167307125817397484e-01,-2.280459454022110144e-03,6.190229502557163636e-03,-3.215777523891384659e-03,7.253929716494638899e-03,4.600952863693237305e-01
4.798244969814656757e-01,4.662789207851643081e-01,-1.816425988578329598e-02,3.494001860899048606e-04,-1.428655077106884275e-03,-5.159723462285169954e-03,4.914439022541046143e-01
4.768018668331945875e-01,4.720143796156817673e-01,-2.369120047213613134e-02,3.851773722954575721e-03,-4.128282221943399902e-03,-4.248405473280930308e-03,4.982669055461883545e-01
4.705063518841576253e-01,4.672479076649695418e-01,-3.688037909889285704e-02,1.122909620118030987e-03,-3.791285277156975463e-03,-3.380430947398008808e-03,5.058456063270568848e-01
4.522866777358900414e-01,4.437656928029429793e-01,-6.882503933862527123e-03,8.448102084522936261e-03,7.084313888173957192e-03,-4.122561699637442879e-03,4.554251134395599365e-01
4.529963297434371761e-01,4.307056650284397659e-01,-7.599155502816257179e-03,9.351826466178174771e-03,7.082725655808190524e-03,-3.785733587303071086e-03,4.503709077835083008e-01
4.548155282358145590e-01,4.424221658031927129e-01,-1.394768812958285809e-02,7.319927212032427584e-03,4.402887781489783769e-03,-2.654815239220041818e-03,4.629503786563873291e-01
4.675148822917272184e-01,4.268701949379781202e-01,-1.545697003543677894e-02,9.488493046309758733e-03,9.137504434800238634e-03,-5.277896291854747637e-03,4.646371901035308838e-01
3.852319823019563216e-01,4.853828235233067501e-01,-6.878322712705275954e-03,5.329294142705491566e-02,1.097610701983467787e-02,-7.759118358467689304e-03,4.605576097965240479e-01
4.768104340599822466e-01,4.680667318703208846e-01,-3.431592133629857155e-02,1.952265836230399499e-03,-2.956772166067483422e-03,-2.716331955736206970e-03,5.068700909614562988e-01
4.753597181037889641e-01,4.277131031396049776e-01,-2.212344721503733957e-02,-4.086425128055192618e-03,1.523267206611708321e-02,1.191594724915678730e-03,4.762423336505889893e-01
4.534461847569093984e-01,4.448803715133369807e-01,-1.209591397244053068e-02,4.029068775697420592e-03,3.655085244370562172e-03,-6.687256440866988678e-03,4.615603983402252197e-01
4.049264311028398788e-01,4.466436494016740588e-01,-4.267451883606054874e-03,2.750904704979012516e-02,4.593340787595021762e-03,-3.860843461276763835e-03,4.343139827251434326e-01
4.417297845199449902e-01,4.406280552935519235e-01,-2.512557764268563698e-03,8.949902404140411272e-03,6.254579852586392673e-03,-2.663015937800977846e-03,4.441193342208862305e-01
4.739563049649422322e-01,4.723508947922806511e-01,8.209344252651989970e-02,7.294671403571132209e-03,4.314444689831825955e-03,1.628514768393927005e-03,3.913482129573822021e-01
5.331783400456920896e-01,3.027747207816051667e-01,-9.638391632520226793e-03,-2.494174026947787448e-02,9.192820294314222500e-04,-1.469905402272793198e-02,4.745375514030456543e-01
4.729899674118224762e-01,4.610279056223838823e-01,-3.667345681089212439e-02,2.490827447794465282e-04,-6.091943563282369370e-03,-3.622042776891619843e-03,5.039386153221130371e-01
4.765248210174884980e-01,4.709602709303454260e-01,-2.378063109445505141e-02,3.106415456011838924e-03,-4.278260885973217409e-03,-4.719749367173074577e-03,4.976979196071624756e-01
5.688600147503259929e-01,2.367914686464765717e-01,-6.403813320888962490e-03,5.634340701981039971e-03,5.590712944770859921e-03,-4.920263506437897068e-03,5.004324316978454590e-01
5.809105954037985242e-01,3.003694103158239814e-01,-1.891177009936600983e-02,-4.596896345363257058e-02,-2.703539158314584127e-03,-3.809951332994974266e-02,5.300296545028686523e-01
4.621539523916895487e-01,4.070906540563548059e-01,-8.092998075512225498e-03,-7.514255423270261788e-03,-1.286562301032704268e-02,-2.137800363111042132e-03,4.460386633872985840e-01
5.327407840555531404e-01,2.936480099992232473e-01,8.797068838193811136e-03,-9.094815944249937806e-03,3.615971524591851671e-03,-3.969699724105980182e-03,4.546931385993957520e-01
4.673781329287023389e-01,4.468313969663312291e-01,-3.062466064049229608e-02,-5.865109264779540602e-03,-1.090753527413273680e-02,-7.042398158232920750e-03,4.886773228645324707e-01
5.156733006676190723e-01,3.376438422695153818e-01,-8.560832330290091274e-03,-2.281944647163991133e-02,-9.233221023919531076e-03,-2.074703633421954088e-02,4.650763869285583496e-01
4.681504643503157093e-01,4.699129145886716818e-01,-2.440094599431380518e-02,-2.701385521973943176e-04,-4.158397929108685262e-03,-4.485894695572115350e-03,4.935489594936370850e-01
4.623221415933524980e-01,4.624720189630014966e-01,-3.905655166956450985e-02,2.150682893736778160e-07,-9.874440233995024699e-04,-6.881344302690312010e-04,5.014579892158508301e-01
4.609570148333166362e-01,4.626042389566417112e-01,-3.916691398925858936e-02,-7.730443482532885864e-04,-6.943154225758565046e-04,-1.367350801994936206e-03,5.009583830833435059e-01
4.793622180245144526e-01,4.629424159923839488e-01,-3.259469246520985131e-02,-5.834316327927030347e-04,9.079195334529086697e-04,1.718451766411123981e-03,5.039599537849426270e-01
4.618933637574556550e-01,4.702371542333835253e-01,-3.892828989844243637e-02,-3.439229280126009330e-04,-1.272835927143744746e-03,-2.948183745862352836e-03,5.050762295722961426e-01
4.393728413564509383e-01,4.150161186449215500e-01,3.261493919071878356e-03,-4.791499627155419022e-03,-8.549399614410551143e-03,-3.275648370063281162e-03,4.248346090316772461e-01
4.661226511994506216e-01,4.675312592144240109e-01,-3.857418157550868143e-02,1.821492281518960130e-03,-1.905791443934063984e-03,-2.371635333267234531e-03,5.054399371147155762e-01
4.659443526192130758e-01,4.699494462758077029e-01,-3.557015254309725538e-02,4.040269611218170998e-04,-4.770886960960045269e-03,-4.705910431768774160e-03,5.036632418632507324e-01
4.589529366709954594e-01,4.461428468653508839e-01,-2.939544571633234682e-02,-3.730126161008819833e-03,-7.759937820423987165e-03,-4.467945967479614727e-03,4.823637008666992188e-01
4.603004318720886889e-01,4.625878015346841510e-01,-3.854050099276651320e-02,-7.445582614788183971e-04,-3.077160080867440898e-04,6.260061789747555213e-08,4.999904930591583252e-01
4.776883002134454936e-01,4.689629559151374805e-01,-2.818089969061321476e-02,-2.058754551566275334e-04,3.745875968764723462e-03,-3.061802158374130837e-03,5.016335844993591309e-01
4.493676268660481976e-01,4.509365143834142553e-01,-2.703161006472742933e-02,-2.353274747128597251e-04,-2.486965961555363380e-03,-4.062560289754303666e-03,4.772571027278900146e-01
4.503118546341680073e-01,4.575461235031267337e-01,-3.330227022061277298e-02,3.257665064403115086e-03,-4.468483694337271146e-04,-8.844773705493974222e-04,4.873072206974029541e-01
4.410498447557608670e-01,4.464118961607350666e-01,-3.958107737704108509e-03,9.132242767849766893e-03,1.887716952255344242e-03,-5.632556779507851864e-03,4.481105208396911621e-01
4.814883803366394877e-01,4.754096931800152470e-01,-2.050894331845981577e-02,-1.986086955044000235e-03,2.658590619078917208e-03,-1.656695212124173174e-03,4.990271031856536865e-01
4.434532431356190685e-01,4.454903412651443073e-01,-8.822552136948991208e-03,8.478713781649589373e-03,1.528536770083075043e-03,-3.318965237237839292e-03,4.535797536373138428e-01
3.530302893223018490e-01,5.367004319839316917e-01,-8.628613202058932341e-03,6.648100282150648001e-03,-3.048867793388991467e-03,8.333149898063661395e-04,4.807498157024383545e-01
4.591968496313451054e-01,4.665065075275651729e-01,-3.798428110857537954e-02,1.056101569770997572e-03,-2.009315841528950923e-03,-3.497360153164114343e-03,5.009280443191528320e-01
4.531835983235664722e-01,4.497764329072033718e-01,-1.340436991793941823e-02,-1.147533797358024312e-04,2.258717908387572124e-03,-4.068059968220019522e-03,4.649636447429656982e-01
4.545178731272148664e-01,4.326058258020693548e-01,-4.100207123727384051e-03,8.567656869890903984e-03,6.681169449060504750e-03,-2.428838195686125294e-03,4.484788179397583008e-01
4.549813306508525557e-01,4.378752947984801969e-01,-7.424460192549775517e-03,6.484379851922882250e-03,5.800258562141461828e-03,-9.605008587813869143e-04,4.543474912643432617e-01
4.437819758260848624e-01,4.959947895945389096e-01,-1.131924464998079749e-02,-6.012692468010624042e-02,7.745746816420633063e-02,4.785234427499807791e-02,5.189601778984069824e-01
4.793190228638382067e-01,4.785694131645820137e-01,-1.104629749883434542e-02,8.785837564000269564e-03,6.067684835098837576e-03,6.369719516674766588e-03,4.904639422893524170e-01
3.032553994790428975e-01,3.562105904254054822e-01,-1.877045196636326074e-02,-2.487803813035573963e-01,6.077201125553596123e-03,5.173562753670021830e-03,5.562589168548583984e-01
4.186075663138016933e-01,4.541810158599584035e-01,-2.397880036863059283e-02,-2.539599663078423789e-02,1.425657207990039047e-02,1.654367251222710680e-02,4.650356769561767578e-01
3.815983452547976329e-01,5.061832826166392518e-01,-6.500096393916299231e-03,6.861065207948159952e-03,1.517512598824717618e-03,8.840791465729160720e-03,4.635468125343322754e-01
4.791484630352226270e-01,4.472101484245566971e-01,-2.876366825990545051e-02,-7.944697728357878047e-03,1.416581246960226491e-02,1.109748057954455282e-02,4.938965141773223877e-01
4.539917150517550626e-01,4.785566638625068925e-01,-2.592313190328515704e-02,-5.124673412255902145e-06,1.496786598685662106e-02,1.478985994131340118e-02,4.940031468868255615e-01
4.806861869567408685e-01,4.752685038549008256e-01,1.128577635963823322e-02,-2.477589673675244589e-04,2.882886775157915155e-03,-2.867583696368251629e-03,4.667684733867645264e-01
4.782055803403822969e-01,4.826121967364428444e-01,-2.129005854569088196e-02,7.468310690161936855e-03,-3.071704472157184632e-03,5.907261432405059995e-05,5.019084215164184570e-01
4.627261686342716285e-01,4.844248135702163838e-01,-3.048969947203966635e-02,-2.590023267361668720e-03,9.658202678883912040e-03,4.045914963750746156e-03,5.047612190246582031e-01
3.887726429910255410e-01,4.811067748501038355e-01,2.775488111038171279e-03,1.118243417902589805e-02,-7.692440286111447943e-04,8.302475941275293952e-03,4.401634037494659424e-01
1.699966169064819899e-01,7.514877892434509432e-01,-1.040277178351161069e-01,1.202289816863927885e-01,5.858337132880093306e-02,2.807388884756534253e-02,7.928363680839538574e-01
4.666517583689718807e-01,4.810160449315140085e-01,-3.421555575654461334e-02,1.644626508494088793e-03,2.263968908250203228e-03,3.856955185699478816e-03,5.082687735557556152e-01
4.697832500810756318e-01,4.728509844834689613e-01,-3.400148958024379331e-02,-6.587062322302311475e-06,3.417442748906083551e-03,3.481177229723714239e-03,5.053962469100952148e-01
4.753935721004351467e-01,4.849629837462267057e-01,-3.160280370200102551e-02,8.500284781647908169e-03,6.130838151292363619e-03,6.688255156097237288e-03,5.123009681701660156e-01
4.612493788381707427e-01,4.839342188754675034e-01,-3.273279494156394742e-02,-2.649303501250479913e-03,6.775455803766550385e-03,5.484488283747960928e-03,5.059524774551391602e-01
4.731830257765045067e-01,4.652154818670229397e-01,-2.847543110633105057e-02,-1.154246553554143543e-03,-2.192893760984896637e-03,4.811632814484529232e-04,4.977417290210723877e-01
4.808993390160783976e-01,4.720363922432704307e-01,2.433821355703835732e-02,4.384782306926318825e-03,8.410527637241106344e-03,1.146379158094293837e-03,4.524974822998046875e-01
4.714472098966389080e-01,4.674740639811025278e-01,-3.403244864569016093e-02,-2.751659053205264462e-03,-7.606665568815878381e-03,-9.574538796197240575e-03,5.039726495742797852e-01
4.844346551459803862e-01,4.597118046578886341e-01,-2.773634555259180123e-02,-1.624548062138276585e-04,-3.783708807363112773e-03,-1.214596005401242899e-03,5.003153681755065918e-01
4.694170401982038499e-01,4.749188529044966467e-01,-2.099089153411098918e-02,1.370998628699180398e-03,-6.074333468936233063e-03,-5.372535479092417111e-03,4.933875501155853271e-01
4.715666248825864382e-01,4.763431662376424458e-01,3.919549220304646697e-02,1.705268505107821473e-03,-3.042538208548211699e-03,-7.413275608820583777e-03,4.350105822086334229e-01
4.709290806564598864e-01,4.604612093595870093e-01,-3.786689938114240483e-02,-7.442995283069539806e-04,-2.947676892473133792e-03,-1.186944486785172607e-03,5.036753416061401367e-01
4.648588268368697429e-01,4.664398595730722130e-01,-3.872697849696848937e-02,4.912381829370115289e-04,-2.119367594561078795e-03,-2.559768989458506474e-03,5.044117569923400879e-01
4.734288457446910181e-01,4.661117354686341585e-01,-3.542009098723475358e-02,3.478353045463703332e-04,-1.247560503068023642e-03,-2.858323764571386091e-03,5.052593350410461426e-01
4.591666347608923671e-01,4.703812020178338993e-01,-3.726939799781903151e-02,-1.207425239033507215e-03,-1.615965629378270010e-03,-3.713687922860214700e-03,5.021905899047851562e-01
4.663995378799634106e-01,4.606444037265673419e-01,-3.677365550351102685e-02,-2.164120791568533656e-03,-5.527161589619221556e-03,-3.426620548394391542e-03,5.004612803459167480e-01
3.457212871169975665e-01,4.773925162950105605e-01,8.802531198807250767e-03,-2.356807700093046035e-02,-6.164185401697623058e-03,-5.166921692573683833e-03,4.208022356033325195e-01
4.665253857219691103e-01,4.762450958434985004e-01,-3.160262064675195548e-02,1.384708263627779665e-03,-3.400910545781111755e-03,-2.921328748047838895e-03,5.031239390373229980e-01
4.360349982487462528e-01,4.120292252812776113e-01,9.255475283673098019e-03,-3.569791092657660647e-02,-5.241762542303648673e-03,-4.218678811651143008e-03,4.200365543365478516e-01
4.484399744979423175e-01,4.356432586606264756e-01,-2.151851174247843002e-02,-2.223291862226403192e-03,-6.480247932707189004e-03,-1.946254671284371749e-03,4.638566374778747559e-01
3.997151685871919158e-01,4.428252250663956557e-01,1.018650166959755854e-02,-3.479282330716503002e-02,-2.107597096136003354e-03,-2.097396065570727303e-03,4.171831905841827393e-01
4.398391905334341212e-01,4.196073825950400460e-01,8.672441625291460454e-04,-2.124280982021683247e-03,-3.167246543456962889e-03,-1.435148542515037257e-03,4.292718470096588135e-01
4.576074662422885408e-01,4.887283768712759047e-01,-2.826967571303262705e-02,2.961596670268085325e-03,-6.234612902339013024e-03,3.119297742356489148e-04,5.023039579391479492e-01
3.867144726888068207e-01,4.399381390111717360e-01,6.715701057549816611e-03,-1.556299138767791405e-02,-1.914476758570018674e-03,6.470506776221233774e-04,4.101166129112243652e-01
3.876103934409524943e-01,4.396167018971806062e-01,5.030512465055758664e-03,-1.879998393462906786e-02,-1.301754535800247504e-03,-4.790230166061875544e-03,4.124352335929870605e-01
4.216811754459625083e-01,3.585301459768771570e-01,6.519659044376791002e-03,-7.309628930020489745e-02,3.686217365070961621e-03,1.817362915078886030e-03,4.076875448226928711e-01
4.425158701197015043e-01,4.022870063260589601e-01,8.652620929520571380e-03,-3.775017345658823048e-02,-6.095591441322108228e-03,-8.516278767292556270e-03,4.207209646701812744e-01
4.484557235953727794e-01,3.932148684257904536e-01,7.034568870206869828e-03,-2.316928193841593514e-02,1.780429247329886125e-02,-2.684442081397092183e-03,4.196459949016571045e-01
6.823892856177039556e-01,6.834577083796223862e-01,7.283309762772921525e-02,4.129722487404672432e-02,4.506184252415943586e-02,1.291406553426764636e-02,6.196124553680419922e-01
4.104880311408728999e-01,4.129503736523434387e-01,5.533936745842737981e-03,-2.805778839105004668e-02,-3.033918369949017632e-03,-1.609079303762545737e-03,4.091309309005737305e-01
4.176861133590513142e-01,4.362328530238189783e-01,-2.290768026674439017e-03,-7.473090302221740630e-03,-5.468106553108093536e-03,-9.075181063557714520e-03,4.301372766494750977e-01
4.603752273914862858e-01,4.770629708013062742e-01,-3.670831504148813762e-02,1.026182155939490753e-03,-6.228778005860105505e-04,-1.275858746731143656e-03,5.056430697441101074e-01
4.715778004902841936e-01,4.712163306706393384e-01,-2.216973856155046718e-02,3.838808995429621629e-04,-1.433628893935628154e-03,-3.768816063581969470e-03,4.936167597770690918e-01
4.669278642487149078e-01,4.701116087792601705e-01,-3.549524220391719886e-02,1.050524640995776152e-03,-4.876425323760387627e-03,-4.728423389053909576e-03,5.041630864143371582e-01
4.806146393688943697e-01,4.812719803951135411e-01,-6.360952995227708850e-03,9.606531661107241618e-03,5.511980143654363236e-03,7.101651916195054343e-03,4.878371357917785645e-01
4.385439312037566761e-01,4.054026323622187400e-01,8.013263703060269361e-03,-1.224603604311059329e-02,4.415574468230720057e-03,1.587607492141923345e-03,4.155750274658203125e-01
3.924694049985663069e-01,4.378397129477398231e-01,4.779703225818054957e-03,-1.839941126586986178e-02,2.823848225388315980e-03,3.111089063681887062e-03,4.135455787181854248e-01
4.795143918100367997e-01,4.730234175344829595e-01,-1.993768953776814401e-02,2.442047691983111144e-03,-4.250272807769456067e-04,-4.544226261569429479e-03,4.963194131851196289e-01
3.885029249182930244e-01,4.416762349653637343e-01,4.765407236307306338e-03,-1.649698059115789137e-02,-1.306316792291526731e-03,-6.868317762614788678e-03,4.140647053718566895e-01
5.997774743641177686e-01,2.476898974877699555e-01,-5.080959735857704107e-03,-1.954684883163966547e-02,2.824468638625354539e-03,-1.461305911621936992e-03,5.272881984710693359e-01
4.594525593524260709e-01,4.714963725636289738e-01,-3.705556219722594413e-02,-1.331910034906860774e-03,-2.514629467736569091e-03,-4.054322595801647562e-03,5.027114748954772949e-01
4.592422325959470419e-01,4.753667037319512234e-01,-3.654210231776322537e-02,-3.445356435853102420e-04,-3.483738688671942502e-03,-6.264393935265718215e-03,5.041932463645935059e-01
4.625932507039799413e-01,4.672258626984872043e-01,-3.945565870116551910e-02,8.171370577114163815e-05,-1.032795982694345149e-03,-1.099480617763178621e-03,5.043879747390747070e-01
4.798433947751317152e-01,4.766069788172777599e-01,-2.723484461759745345e-02,-4.405305831971675456e-04,1.429965633277495603e-03,-1.660317082698409665e-03,5.054826140403747559e-01
4.544240231920883000e-01,4.707406661675783699e-01,-3.717335854328895905e-02,-1.719959552697784746e-03,-2.401705929678364746e-03,-4.087163024478425791e-03,5.000317096710205078e-01
4.590129712867982992e-01,4.724371531326355123e-01,-3.732230371252337475e-02,-5.512514033825131540e-04,-2.174843425174155520e-03,-4.507889702840679053e-03,5.032572746276855469e-01
4.689631555218921610e-01,5.119388996110759704e-01,4.956783353084553978e-02,-2.265656171042227524e-02,-1.573004219687834312e-02,-1.856139459446801490e-02,4.461827278137207031e-01
4.579217453013910699e-01,4.917276183301890757e-01,-3.057658388974177077e-02,3.851205849101610543e-03,-9.877652721092557413e-04,3.522406376996936768e-03,5.063320994377136230e-01
4.815516862002806597e-01,4.699651031407122703e-01,2.020169075761107935e-02,-1.445989553067628108e-03,6.155628087939860483e-04,5.869957471296612279e-03,4.557887315750122070e-01
4.625058529923151696e-01,4.805470861461074161e-01,-3.321189107330269064e-02,5.130149980961903368e-04,4.042305983733900055e-04,-1.174381984948556258e-03,5.049855113029479980e-01
4.597074149132078236e-01,4.815828865499242051e-01,-3.528449993547705388e-02,2.390126448158919493e-03,2.977572493017900971e-04,-1.905765669133861620e-03,5.063121914863586426e-01
4.803936343851837876e-01,4.789382474984886784e-01,3.714827993505398496e-02,5.900522466622398765e-03,1.264838445970329142e-02,1.417747325047185279e-02,4.438590705394744873e-01
4.817657254887563467e-01,4.778440478018827764e-01,-2.036644349087179950e-02,5.236634763099226597e-03,-4.569238009891293285e-03,-2.239396213690671329e-03,5.003427267074584961e-01
4.577354828849592439e-01,4.819746473853237512e-01,-2.472840466487835620e-02,5.379953049637236848e-03,-6.044178024667737348e-03,6.853353918015676026e-03,4.953693449497222900e-01
4.189012905707482082e-01,5.124025919437896759e-01,5.254155215471634222e-02,5.594007412838430948e-02,-5.625292071763348528e-02,4.133437065095281471e-02,4.485796391963958740e-01
4.742080029786862605e-01,4.746572110649861509e-01,1.300586056693014969e-02,-1.445070681061656846e-03,1.840760667270413499e-03,-1.018322403399955257e-02,4.617816805839538574e-01
4.734675043703992503e-01,4.738866936923504802e-01,7.016576801770185723e-02,3.001165744797670235e-03,3.549161813674779360e-03,-4.116939935450570319e-03,4.036547839641571045e-01
3.784038657536002992e-01,5.196531998576799927e-01,-9.299839779801255535e-03,3.366918544117680767e-02,-1.268383819853224036e-02,1.143270380929591566e-02,4.788570106029510498e-01
3.851733999239632111e-01,6.409976555741121462e-01,3.740933395652629168e-02,1.992473502858947004e-02,-7.233463392983555118e-02,4.936960091426647462e-02,5.473137497901916504e-01
4.658923893485884538e-01,4.927608820200356510e-01,-4.071341012428841832e-03,2.018903985994235321e-03,2.147982963665828174e-04,2.445355631702847768e-02,4.858202636241912842e-01
4.750436787677182471e-01,6.926728271835631556e-01,4.974742422968564393e-02,1.264296882464631122e-01,-8.111841251189598478e-02,2.840997012434664029e-02,6.252292394638061523e-01
4.594183896234293463e-01,4.629149868301610793e-01,-1.765441293971009573e-02,1.952683518005509516e-02,-8.509732231605716263e-03,4.484300395208543934e-03,4.803127050399780273e-01
4.375093702894423120e-01,4.676564096037745255e-01,-8.787204676297399875e-03,3.418923292325730823e-03,-1.117063557892050219e-03,9.408282140368404850e-03,4.624374210834503174e-01
4.714572348278754932e-01,4.810564735896336597e-01,6.051977342899472756e-03,3.161767192753290549e-03,-1.399144188357536421e-02,-8.528566647348764448e-04,4.709365069866180420e-01
4.729179385554782011e-01,4.765947131276513371e-01,-2.064567306867248764e-02,4.267527773484541299e-03,-5.249006112602924885e-03,-4.938521091285356414e-03,4.956246018409729004e-01
4.727645435282977204e-01,4.778856739659337327e-01,-9.225038560678244792e-03,3.556684356603072653e-03,-7.361335141707238926e-03,-3.976274986998620115e-03,4.848262071609497070e-01
4.954589729628621209e-01,4.274763588387252011e-01,-2.879555884684753542e-02,-1.880142494243431566e-03,-4.529860389800145857e-04,-8.673939076257764294e-03,4.940254986286163330e-01
3.417758269376247049e-01,4.902645906453086955e-01,-7.614627931787854020e-03,-6.644417569695541814e-02,-4.304511071468750116e-02,-2.063821713290790380e-02,4.648484587669372559e-01
2.847764879986228181e-01,5.530157654234825193e-01,-4.727662982450531182e-04,-3.803187932266322013e-02,-1.008120094902880889e-02,-1.828112318603696983e-04,4.842300713062286377e-01
4.830573928806306538e-01,4.438181908737256487e-01,-2.453199848162873620e-02,2.880947399771423452e-03,6.353977424855100989e-03,-3.721557962830709162e-03,4.893433153629302979e-01
4.783630918519771180e-01,4.703021322217276201e-01,-1.691998113716658425e-02,-1.038078036789008476e-03,2.209863586447590421e-03,6.401397720402547155e-04,4.913216531276702881e-01
4.349573209707319754e-01,4.947119398505657739e-01,-2.708512364894521962e-02,-1.577787457374811456e-04,3.125417371494035854e-04,1.973284025717803383e-03,4.946464002132415771e-01
4.738139673020513865e-01,4.770886197604786716e-01,-2.893209856689954451e-02,-2.081383458098824571e-04,-1.431435503260602244e-03,-6.758867766631907912e-04,5.043989419937133789e-01
4.257107784603745837e-01,4.712113958098330668e-01,-1.657740336083524113e-02,1.761678502338581351e-02,-7.333129382265198525e-03,1.126947509818665427e-02,4.682807922363281250e-01
3.066384623399145970e-01,5.308992255143507588e-01,4.853330205718542345e-04,-9.282743371936411775e-03,2.846752966789316708e-03,3.386473451862718337e-03,4.615170359611511230e-01
2.893590706759197051e-01,5.431020831457502585e-01,-4.499058911785591697e-03,-4.592960030181623965e-02,-2.434312301693404915e-02,-9.781692785284649624e-03,4.834210872650146484e-01
4.626094265029623842e-01,4.765305040499172029e-01,-3.562093075396755015e-02,3.499224376923881536e-04,-1.425109890520985002e-03,-2.530306106997598243e-03,5.053601264953613281e-01
3.063107019852036594e-01,5.206550242063879841e-01,-3.634548053015607127e-03,-2.262239620198732565e-02,-2.130981764217404137e-02,-7.945036468717798020e-03,4.599256217479705811e-01
4.927343594511288671e-01,4.898744767505717190e-01,-1.479943225588858935e-02,5.302918792164946354e-02,-2.130143843502630904e-02,1.890729887655962990e-02,5.167371034622192383e-01
4.637991777963426099e-01,4.752494938636656618e-01,-2.925502888941161617e-02,8.109005803712670277e-04,-2.564820153694307055e-03,2.854726141252852002e-03,4.989241957664489746e-01
4.672455925024215917e-01,4.794017195959205946e-01,-2.963500442444094718e-02,6.393619166557721950e-04,-3.703690645580764128e-03,-1.835419860299312988e-04,5.031110644340515137e-01
4.675088994757651273e-01,4.751438285684648766e-01,-3.160953659835208374e-02,1.318808365289575587e-03,-3.409723308165200743e-03,-2.911518843755903346e-03,5.030444860458374023e-01
4.671816017715115787e-01,4.799167872056316342e-01,-2.563141691966575042e-02,9.195441328205296435e-04,-3.989486744503015214e-03,-2.212407184510222641e-03,4.993674755096435547e-01
4.440407594616453402e-01,4.823429648355469501e-01,-2.456584972341235851e-02,2.342555597859212295e-03,-6.699962790445610286e-03,8.947581776508964357e-03,4.892843663692474365e-01
4.822958810218264669e-01,4.574169360208023005e-01,-2.842233036809860280e-02,5.143986299887877981e-05,3.689598767563451263e-03,6.767864425698238550e-04,4.987866580486297607e-01
4.434597346415218300e-01,4.912348932930721279e-01,-2.558977804416462387e-02,8.687953503180570122e-03,-9.442274035892806588e-03,4.732972154334901850e-03,4.952372610569000244e-01
4.679563266676052269e-01,4.813037097049637780e-01,-2.469419263990141333e-02,4.699274686878173075e-03,-7.907270828259356163e-03,6.808469738372514325e-03,4.998511373996734619e-01
4.728124155493108050e-01,4.795929364552051766e-01,-3.538953748280104783e-02,6.358619191430469816e-04,4.491780795303086096e-04,2.580774747285950223e-03,5.116472244262695312e-01
3.706785126460209745e-01,4.628663535279345376e-01,1.319632880833571109e-02,-1.549616845311960894e-02,-9.803638092248730292e-04,3.723854660851278614e-03,4.123257100582122803e-01
4.664213368561520023e-01,4.804252325339566365e-01,-3.048830973073884953e-02,-9.296321019177498533e-04,4.005698573425477919e-04,1.521764445270669180e-03,5.040674805641174316e-01
4.684589132355043151e-01,4.785758845633138470e-01,-2.935471916428389338e-02,-7.093160297930484366e-04,-6.316157492738063870e-04,1.591459954233915121e-03,5.029586553573608398e-01
4.701842371154286715e-01,4.779940256887866834e-01,-2.927701515702946233e-02,-6.642844582949949288e-05,-9.136387966908154608e-04,1.671189961662826419e-03,5.034223794937133789e-01
4.737015879493061687e-01,5.143279446062303251e-01,4.053285190206490363e-02,2.731118545506663539e-02,-1.127392206434090632e-02,-9.009230283794517416e-03,4.579806029796600342e-01
4.743893791598825516e-01,4.800125712941551437e-01,4.014500878062693401e-02,8.054115897160790682e-03,-6.351757516748313820e-03,-1.172571177009124575e-02,4.379152357578277588e-01
4.876187783850787771e-01,4.798234113375275944e-01,7.016021929707683125e-02,3.263005560731910282e-02,-3.325597274838364148e-02,2.724361510189547350e-02,4.240481853485107422e-01
5.410835617943507980e-01,4.169730957391379333e-01,1.660548142032758356e-02,9.814503205643755612e-02,9.233915514025537938e-03,4.553384772708412437e-02,5.106472373008728027e-01
5.225681005086277864e-01,4.703187393638695868e-01,1.579525303502438138e-02,3.558388469826780087e-02,1.904799711131715395e-02,4.603258971822653256e-02,4.942815601825714111e-01
4.710037613909731635e-01,4.680538673205123512e-01,-4.064725987940492891e-02,-5.997424749459073150e-05,2.359906607056238333e-03,7.551397999937905538e-04,5.102005600929260254e-01
4.763323991904799826e-01,4.663972503834090677e-01,6.987444474062165511e-02,5.082999338110207304e-04,3.920182885231278391e-03,-5.170571838305603428e-03,4.017407596111297607e-01
4.824730353344488520e-01,4.764633887462200179e-01,1.045928120711542286e-02,-2.227927117140664128e-03,-1.763567711083823371e-05,-8.457572860087553268e-03,4.692823886871337891e-01
4.877023299050354810e-01,4.650234079546964883e-01,-1.233520598080561914e-02,1.512895331013710751e-02,2.859045845504826905e-03,-1.157612219066931659e-02,4.902292788028717041e-01
5.109342819515814149e-01,4.892541651103078371e-01,1.805907200082212949e-02,5.977848675839460973e-02,-1.341946729285421920e-02,-2.445399576074972457e-03,4.939524233341217041e-01
4.663573099477480444e-01,4.981580125965818784e-01,-2.632943017880406966e-02,1.403425267694294667e-02,4.498313993092319628e-03,-8.950206950131578063e-03,5.102069973945617676e-01
4.979999571780611145e-01,4.573105989109621516e-01,-3.255971875830077078e-02,-2.750477498710865443e-03,6.868388245170177139e-03,-1.547328222647478086e-03,5.115979313850402832e-01
4.806891354592899290e-01,4.765950623693048782e-01,2.129627713055126659e-02,1.451659170761578381e-03,6.382854988616466774e-03,-1.431312985977740548e-03,4.575067758560180664e-01
4.351410983421079015e-01,4.700920099082182002e-01,-1.730566088141022307e-02,1.929898901573753184e-02,-2.495482208205032897e-03,1.031168735709253950e-02,4.724384546279907227e-01
4.499462820085770032e-01,4.532614963428153176e-01,-1.289621468259605219e-02,7.118510613749946033e-04,-3.565259343462994900e-03,3.078606531388377102e-03,4.645822644233703613e-01
4.338451030113554818e-01,4.460279444946083638e-01,-6.746714766460548685e-03,1.969239114486081785e-02,-5.458485982763093027e-03,8.182398821807646688e-03,4.484315216541290283e-01
4.453343340138574691e-01,4.451837637097756373e-01,-8.255547362079784790e-03,5.985257571196841465e-03,-4.034738061658381045e-03,7.639909260713944640e-04,4.536888301372528076e-01
4.614801255519636602e-01,4.265573148973285100e-01,-8.614952100240602650e-03,1.204245733956377934e-02,-5.561884938240012170e-03,-2.581685209641996484e-04,4.542246162891387939e-01
4.699494830238226672e-01,4.667501173803877412e-01,1.065751878812364051e-01,7.373616207225632642e-04,9.344298951361920246e-04,-3.477402903635507230e-03,3.618412315845489502e-01
4.789751903901132701e-01,4.783586302222996300e-01,3.506307374092704210e-02,1.442176630309037998e-02,-2.814208140146785830e-02,9.486567089576866327e-03,4.472745656967163086e-01
7.214499565999777930e-01,4.654032456186577571e-01,5.697449649924474224e-02,8.940669139223170192e-02,5.353527891936937788e-02,1.442652775879410543e-01,6.572419404983520508e-01
4.754444595734451662e-01,4.761900578550249397e-01,3.943560318692618250e-02,3.738075062738467191e-03,-2.257481623237688872e-03,-7.402425310310055233e-03,4.366359710693359375e-01
4.495069348263165399e-01,4.586759203285728503e-01,-2.390638767382963215e-02,-1.611635859935952892e-03,3.489146156621603101e-03,7.063839431259343916e-03,4.782666265964508057e-01
4.516634436661521868e-01,4.515538255896291986e-01,-2.397419441700343601e-02,-3.388370528837830547e-04,5.172231147075097984e-03,3.485426419714202431e-03,4.757058620452880859e-01
4.441290361466621595e-01,4.307072353949646937e-01,-1.081995036692445789e-02,-5.471899747772926599e-03,1.044055774105098061e-02,5.939191441455902998e-03,4.489712119102478027e-01
4.385385479794485786e-01,4.356173712751567062e-01,-8.617272767555916868e-03,-1.087550028902397031e-03,6.049263318632232614e-03,4.042520192339076057e-03,4.458844959735870361e-01
4.522204984819838125e-01,4.404715721931429795e-01,-1.769395685299596233e-02,-5.561127143510239193e-03,3.043451860462561198e-04,1.389222708487292774e-03,4.642579853534698486e-01
4.949373753572040568e-01,3.870494603671393863e-01,-1.970252209119849329e-02,-1.983517947230513737e-02,-7.919027345046840416e-03,-1.222065439418055198e-02,4.720032513141632080e-01
4.700632856078394983e-01,4.815316226538798317e-01,3.036880222416538100e-02,3.605333320838232888e-04,1.182387944060112007e-03,5.195668665881055664e-03,4.456353783607482910e-01
4.696258715867677180e-01,4.725008953749932350e-01,9.030574421718240430e-02,1.917876558334830192e-03,9.356884255338467158e-04,2.122776228832208220e-03,3.808014690876007080e-01
4.745360554230212968e-01,4.747461312853183402e-01,-9.315142579828739056e-03,2.794571665721418564e-03,-7.049426603812377831e-03,-4.575813233199303373e-03,4.841993451118469238e-01
4.844004373924418738e-01,4.622853724463283909e-01,-2.756476884913588998e-02,2.595973488661550577e-03,-3.105258449659070458e-03,-8.777025804415514382e-04,5.013250112533569336e-01
4.606524363478391448e-01,4.803351474039314062e-01,-2.846316493080525145e-02,-2.720435133999949046e-04,-4.387150471146358859e-05,-1.678035774707788402e-03,4.992567300796508789e-01
5.260435798782936434e-01,3.244147398847427866e-01,-8.817138333214513679e-03,-8.515999204684125343e-03,-8.121137135256986661e-03,-2.074731398947612243e-02,4.696739315986633301e-01
4.924464263662177710e-01,3.835835764358967448e-01,-2.071284864363537315e-02,-4.953238644966342918e-03,-6.401819017091040821e-03,-1.664272906147075057e-02,4.694114029407501221e-01
4.822016705016258786e-01,4.447949209487547240e-01,-2.594383787923659757e-02,7.430064974838474813e-03,-8.258854912219185107e-03,4.809906603133455583e-03,4.909609854221343994e-01
4.938978113758641930e-01,3.413195964588819353e-01,-7.732448141260894747e-03,-4.433364423253786935e-02,-1.366620798784382203e-02,-1.530590348567957386e-02,4.533593654632568359e-01
4.658561258874465150e-01,4.068970919794374641e-01,-7.425576056510396761e-03,-6.586657755967346116e-03,-1.076631265043047174e-02,-2.026274493431073128e-03,4.472781121730804443e-01
4.159065995975098073e-01,4.631192038758362162e-01,-3.704372613702155981e-03,3.501928184051732174e-02,-1.430840414257816828e-02,1.002820063498083281e-02,4.502313435077667236e-01
4.444984588665117364e-01,4.814839311912384456e-01,-2.018924043843006721e-02,1.443346359233406949e-02,1.925373664416780289e-02,-1.158989624662153106e-02,4.864456355571746826e-01
4.767177425852520689e-01,4.685405978941044047e-01,-2.581118527928566442e-02,8.154471456475714808e-03,2.487026256079619135e-03,-8.260280396336980432e-04,4.987113773822784424e-01
4.636627991245493297e-01,4.802088639574702000e-01,-3.260940443928939114e-02,4.780489176896705254e-05,-1.162647934964578141e-03,-1.417513624798979934e-03,5.047586560249328613e-01
4.499173689459264880e-01,4.801591108028879784e-01,-2.404345756708542448e-02,6.337668623240778724e-03,8.490987320242060488e-03,-5.096305766953727716e-03,4.902056157588958740e-01
5.160603817777387192e-01,4.717212868299945905e-01,7.543867370527579386e-02,3.436651087940118931e-03,-1.279753742998160360e-02,-4.034383055337272678e-02,4.265985488891601562e-01
4.413105139818607192e-01,4.806483577565749399e-01,-1.968748967599476263e-02,5.873599730952380402e-03,-1.014122108113643585e-03,-4.638262704901134625e-03,4.820502102375030518e-01
4.035367381645400542e-01,4.829780190870676670e-01,-1.893659026534388889e-02,1.098524548705274648e-02,1.885764884198991645e-02,-1.026910617785926731e-02,4.691499471664428711e-01
4.682674675683702326e-01,4.823128040411616135e-01,-3.092528046986597889e-02,1.671483792513813555e-03,-2.076081779319649198e-03,2.263640377486714065e-04,5.063827037811279297e-01
4.583573664665995251e-01,4.592332476441096101e-01,-1.613129779571575995e-02,1.562731825224544444e-02,7.322680605287869987e-03,-6.057623207254505052e-03,4.759826064109802246e-01
4.660401328518428143e-01,4.589234219694882655e-01,-2.558657473780512337e-02,7.638495189304502116e-03,-8.042515051065417600e-03,7.364562479572404202e-03,4.886517226696014404e-01
4.402564237062870367e-01,4.615823760051561697e-01,-1.128074817984936473e-02,1.777683870592040860e-02,1.240713516123603637e-02,-1.711235794266236518e-03,4.640999138355255127e-01
4.703022573404864737e-01,4.781770459328152922e-01,-2.553678946069226630e-02,1.694545414803650838e-03,-4.137622104055872947e-03,-2.134379853100146131e-03,4.998966157436370850e-01
4.602525559228224372e-01,4.807574051636905876e-01,-3.234598799388155310e-02,-2.002720473597637983e-04,-3.565315289521641252e-04,-2.077951657476784795e-04,5.031650662422180176e-01
4.579987207688511752e-01,4.668346991287347647e-01,-3.663289316973894483e-02,-1.992871360456115702e-03,-3.891825582350512229e-03,-5.764246369674787956e-03,4.992655515670776367e-01
4.954222966723090260e-01,4.770360513865952168e-01,-2.685006295388187025e-02,6.501430105403735969e-03,1.961780245261099051e-02,2.428365485094600984e-02,5.162889957427978516e-01
4.675346612016644809e-01,4.394408376401247041e-01,-1.062483342765874195e-02,4.961469476083305019e-02,5.379678459393720524e-02,-4.479202001128737565e-02,4.879329204559326172e-01
4.710902722999553149e-01,4.664996509999863039e-01,-3.993484330836999385e-02,9.544068240719330706e-04,3.296854333281915191e-03,3.909613967698082515e-04,5.087805390357971191e-01
4.636896667314068798e-01,4.529517542195370394e-01,-1.616884885833907992e-02,4.561474529430034792e-03,6.135124523581917885e-03,-6.378206303488957035e-03,4.748938977718353271e-01
4.556502693381254132e-01,4.508124938289558292e-01,-1.333498923802844960e-02,1.723966783649920950e-03,2.952054133604876691e-03,-4.098552510514002697e-03,4.666767418384552002e-01
4.323640979480504187e-01,4.727017772795735762e-01,-1.864691525865219690e-02,-2.500779018183135836e-03,2.284934935909603906e-03,1.219661018375601050e-02,4.729814827442169189e-01
4.662716155239979843e-01,4.526235214978359123e-01,-1.910927807888074259e-02,2.140873297374390797e-04,5.033166672885518514e-03,-8.698444510052160718e-04,4.787846803665161133e-01
4.685787356589762309e-01,4.793403119952412972e-01,-2.587600384536870024e-02,6.590280200934146501e-04,1.493033266549915550e-03,2.369422929609981809e-03,4.999472498893737793e-01
4.491631423847564086e-01,4.151421210537267203e-01,-1.124328009306563292e-03,-3.924585979825982035e-03,1.098590447870557811e-02,1.171131935149057101e-03,4.347521066665649414e-01
4.030622855556491024e-01,4.033270511587865870e-01,-1.271184415657322653e-01,-2.694623949470549285e-01,6.082887020273135964e-03,1.663797156226672763e-02,7.071092128753662109e-01
4.578455628908885688e-01,4.824678775210569093e-01,-2.841889217397414180e-02,1.497511186856592897e-03,-6.730460375742097550e-04,2.556874553828723546e-03,4.990591406822204590e-01
4.608268627645736304e-01,4.332789191833619213e-01,-1.947132567360060351e-02,-2.156276519530185901e-04,1.395540015014679926e-02,1.226047198724448213e-03,4.677637517452239990e-01
4.142669011051600680e-01,4.260484727630641233e-01,2.652236571016874933e-03,-9.718406911750005969e-03,-1.332107951959364761e-03,-3.506080050162719425e-03,4.180196821689605713e-01
4.411056958955261731e-01,4.155990371445824616e-01,-2.973733976332326723e-03,-6.069708891132730155e-03,6.269246249122902015e-03,8.154340988265790539e-04,4.321580529212951660e-01
4.541782545292344375e-01,4.978877744738187117e-01,-2.920718791369469880e-02,5.180078399246347207e-03,-5.056390737131198979e-03,2.314026211272661102e-03,5.068272352218627930e-01
4.747552213845630531e-01,4.722079982309005386e-01,6.203706593431335126e-02,7.230664514945922203e-03,-6.285016684775364924e-03,-6.386491189603842392e-03,4.119334816932678223e-01
4.365556784131111590e-01,4.913990951323725098e-01,-2.775404965208694286e-02,1.159715709516440140e-03,-6.405973653460756562e-03,4.003333340516075818e-03,4.941972196102142334e-01
4.830159974135959100e-01,4.787815584552178594e-01,-3.080707117769976300e-03,4.648137338599914702e-03,1.035376030798060981e-02,3.535041902607645795e-03,4.844311177730560303e-01
4.449038299135489871e-01,4.837921926448335297e-01,-2.658321114609402125e-02,8.828335216455703710e-03,-1.115008514756583510e-02,4.636727588948135262e-03,4.927666485309600830e-01
4.702496159478546378e-01,4.704489063077646471e-01,1.016766452393402242e-01,5.557819308554683840e-03,-4.708036318319332343e-03,1.806691800186346029e-03,3.689017295837402344e-01
6.764659513500326238e-01,5.194863467878177987e-01,6.255146222363155983e-02,5.700440802092299891e-02,-8.455743662292888874e-03,4.682299855971682606e-02,5.671875476837158203e-01
4.579274319972792551e-01,4.584717611434606654e-01,-3.069311427921112001e-02,-3.080110783654381457e-03,8.942643817432658140e-03,7.882038153466936273e-03,4.893577992916107178e-01
4.844577581515334685e-01,4.810390895220651997e-01,1.582817144761827777e-04,1.087758757571366530e-02,-1.427972925136231953e-03,6.478134774928515430e-03,4.831035137176513672e-01
4.830731662596112752e-01,4.747422773957946651e-01,2.465693009552621939e-02,7.061832193161934022e-03,8.786839736683087210e-03,1.615771180057816534e-03,4.547360837459564209e-01
4.482802701321700889e-01,4.588208152594773770e-01,-2.397422918312080986e-02,-4.530240283068226459e-03,7.541426610316657834e-03,7.007388938871922726e-03,4.780091345310211182e-01
4.614301281834911617e-01,4.578971583434912063e-01,-3.685723849606498126e-02,-3.632425206803684310e-03,2.636655444798807497e-03,4.557444405277824226e-03,4.966539144515991211e-01
4.664778578658423935e-01,4.575341426152533253e-01,-3.656347647369029286e-02,-1.490936119253198459e-03,4.479515590957993364e-03,4.526790199281796080e-03,4.987583160400390625e-01
4.736426747806615212e-01,4.697567234477625919e-01,8.191566271921235654e-02,5.737691541329121778e-03,4.251457051283068223e-03,1.206947436883185325e-03,3.900003433227539062e-01
4.552908055637834295e-01,4.584438216805336586e-01,-3.302900585972046166e-02,-1.966073020183295612e-03,1.217467199972807699e-03,6.584307504498428457e-03,4.900530278682708740e-01
4.468170685271725118e-01,4.612452130333931644e-01,-2.920362847760266112e-02,-6.207939622546758060e-04,5.494762097522839020e-03,1.005076592806376616e-02,4.838044643402099609e-01
4.659523089897501524e-01,4.792571720519887557e-01,-2.522228193999348500e-02,3.340870845711010027e-03,2.470329376313562617e-03,-6.996269231668938646e-03,4.981597661972045898e-01
4.886976983700821453e-01,4.753572130613774593e-01,-2.084341952808432819e-03,1.147880000516408525e-02,-6.275732992571364088e-04,-8.942819968452142554e-03,4.849062860012054443e-01
4.351631266769523942e-01,5.436178438241812128e-01,-4.522283777019342477e-02,2.988247175600212968e-02,3.767437020996007579e-02,-2.980480187877971188e-03,5.491783022880554199e-01
4.733912102661778643e-01,4.804967223271306431e-01,-2.280086545222775873e-02,-1.759832986087883893e-03,-2.364892929301256122e-03,1.520380146681793226e-03,4.998157322406768799e-01
3.951693935820353998e-01,5.305591837873966377e-01,2.606108660477340910e-02,8.589322233315187238e-02,6.832895807924968534e-02,1.837983977081639880e-02,4.916276633739471436e-01
4.741651074121269183e-01,4.804668802228765911e-01,3.796356942293965808e-03,2.829009390146412957e-03,-9.425395594438959468e-03,-2.055538694395702380e-03,4.738711118698120117e-01
5.748772982385352837e-01,3.720193604740535953e-01,4.610982720271272761e-03,8.171232683825843668e-02,-2.211203965537987537e-02,6.810409209121003060e-02,5.348682403564453125e-01
3.809012325939970522e-01,5.115315756245293333e-01,-2.381607961814063978e-02,-3.329533565762941676e-03,-1.446592182074015950e-02,-4.159128009911502500e-04,4.841387271881103516e-01
4.827543801228943998e-01,4.130421171218436327e-01,1.995230532055064510e-02,1.212321683574683617e-01,2.912496751618533913e-02,-3.669437092337141798e-02,4.872971475124359131e-01
5.814129595635728620e-01,5.252188446972665403e-01,6.745257368088936056e-02,4.146233532480839146e-02,8.410504468483229190e-02,-7.957481617318304390e-02,5.327347517013549805e-01
4.943880022110906935e-01,4.820586039508021337e-01,7.380981155709487318e-02,5.972938697235474076e-02,-1.334158888348813132e-02,-3.142492796314754616e-02,4.313373565673828125e-01
5.212749090689043907e-01,4.505320175091289681e-01,-2.713719843307482726e-03,1.744935453327808028e-01,7.492088533261670458e-02,-5.417328576837677351e-03,5.922597646713256836e-01
4.634913082834465348e-01,4.829804714294468893e-01,-3.120568698234482685e-02,-6.401805257550488310e-04,-6.955678147186150715e-04,1.152833246363723366e-04,5.047265291213989258e-01
3.745360185164329225e-01,5.222440105226509033e-01,-1.162330650120030340e-02,2.800821482583809498e-03,1.461240888700914443e-03,7.691017503344924630e-04,4.775010049343109131e-01
3.711340485023010283e-01,5.930641527708927496e-01,4.574238846492051369e-03,1.089359451626570607e-01,9.132687572683662047e-02,-3.121140791127462524e-02,5.731623768806457520e-01
4.794860730285800399e-01,4.680443696456966229e-01,-2.576365418607912128e-02,-7.327251108497672067e-05,9.319206531460063909e-04,3.526256335212598313e-04,4.996301531791687012e-01
4.799162984593177139e-01,4.663515453283020862e-01,-7.866276316895570719e-03,-1.976195938548430740e-04,1.516620094145636590e-03,2.601516487458002246e-03,4.811720252037048340e-01
4.796565429064376107e-01,4.608283702077704547e-01,-3.518870266429618976e-02,5.551548862840612010e-04,-4.345303379768334848e-03,-3.985129013523668745e-03,5.057981014251708984e-01
4.761591100584353087e-01,4.604969754797870740e-01,-3.488676482206509721e-02,-1.081850409486290882e-03,-4.783763607822913433e-03,-3.892039947906730454e-03,5.035143494606018066e-01
4.774672546408512686e-01,4.611699433331259979e-01,-3.559613459020100068e-02,4.065566436704327923e-04,-2.656583733787337871e-03,-1.128659472074604840e-03,5.051372051239013672e-01
4.714238182266690114e-01,4.808669133141200147e-01,-2.527988448691254053e-02,1.955274477671597056e-03,-3.181576303341018298e-03,-2.202883700568665244e-03,5.015481710433959961e-01
4.806940808411614974e-01,4.598345587898040598e-01,-3.537571154732677137e-02,2.107976854531154291e-03,-1.525026066729268668e-03,4.720457771928664170e-04,5.059833526611328125e-01
4.841158071877988966e-01,4.763417583661924137e-01,4.033415295924275279e-02,9.350033643423532118e-03,-8.815422724950790212e-03,-1.477863072204611133e-02,4.412519037723541260e-01
4.300766118666762838e-01,4.931864096989075907e-01,-2.445509995025579864e-02,2.810053703449337469e-05,-1.305476049027678304e-02,5.378523952446244774e-03,4.897605478763580322e-01
4.689607745726798171e-01,4.756473911787808539e-01,-3.161470121780085574e-02,-1.619278676441714040e-04,-6.236029482983354837e-04,2.777448710589268811e-04,5.039535164833068848e-01
5.430160544514480714e-01,2.821606929111158402e-01,8.711195967917140237e-03,-1.181620848106038416e-02,5.729432029168798901e-03,-2.922419297241602310e-03,4.633507132530212402e-01
4.717493111668304984e-01,4.626149996951874899e-01,-3.745842360756151956e-02,-9.180588512421191359e-04,5.839111548155722330e-03,2.360543515388187526e-03,5.048229694366455078e-01
5.377139672066431064e-01,2.374240508301196928e-01,5.725586665450532742e-03,-9.477796266665242109e-02,3.996741644060177422e-03,-2.436797555809732535e-03,4.903562366962432861e-01
5.101229891169248853e-01,3.038790245020545067e-01,4.170322793809910777e-03,-5.809208150685418043e-02,-2.847738702596685004e-02,-3.033919130268789011e-02,4.577044248580932617e-01
5.799620243504036710e-01,2.442587723806276256e-01,-1.209567176382425613e-02,-2.801823730444143873e-02,1.330904745285479626e-02,1.044807780524670618e-02,5.173850059509277344e-01
5.317173396963545962e-01,3.050099244630165018e-01,1.427468318643765333e-03,-8.321645674218889829e-03,1.183920407863914628e-02,1.552771804963960431e-02,4.623143374919891357e-01
5.145290834390081613e-01,3.042834522082883408e-01,8.782630307157368588e-03,-1.764197782570586445e-02,3.594593450460479775e-03,-3.363869022429730616e-03,4.412007927894592285e-01
4.305644139250055513e-01,4.747578485445448360e-01,-3.179644350039972922e-02,-8.427525920423837788e-03,-7.204122055042801349e-03,-1.130543237827963052e-02,4.867403209209442139e-01
5.416599696096386918e-01,2.986542206273077316e-01,4.597449900591132899e-03,-7.805161699197757375e-02,1.438669790930453135e-02,-4.959553003359892451e-03,4.857463836669921875e-01
5.211538407069677969e-01,3.169407843173606132e-01,1.698150204110793204e-03,-1.956234831089351950e-02,1.182274958629919021e-02,1.519940018679038357e-02,4.557608962059020996e-01
2.396800563209917911e-01,4.693678471378940897e-01,-1.383279379387415409e-01,-1.841697299673690225e-01,-1.404459576183690779e-02,9.099643078934190055e-02,6.400458216667175293e-01
3.595216463205884172e-01,4.901244734162716332e-01,-2.485254111532503307e-02,-1.436287280168927205e-01,-2.797484828449773100e-02,-1.723803356322081703e-02,5.292710661888122559e-01
2.748906833290762908e-01,5.659201189897236084e-01,-2.611634901323206526e-02,-9.963854757532993045e-02,-7.766192011425920860e-03,3.645522647039612860e-03,5.412112474441528320e-01
2.790529525052172777e-01,5.304203553724771147e-01,-5.007170623064050030e-03,-1.044151135353231924e-01,-1.688133142808277871e-04,1.598968225429980709e-04,4.979828298091888428e-01
4.830688679505962813e-01,4.778189533237782727e-01,-5.276695708219314440e-03,1.105403609929265889e-02,5.525602732354042111e-03,5.180036233831240670e-03,4.862960577011108398e-01
4.739504003026563383e-01,4.799147624758552944e-01,-2.909984884358979285e-02,2.859608604344521937e-03,1.116055373578841471e-02,8.506026305592278777e-03,5.066663026809692383e-01
4.338023455142273610e-01,4.529658238458971198e-01,-9.693489029463986384e-03,-4.887914768424683754e-02,3.134829996339431185e-02,3.452604928672022705e-02,4.682376682758331299e-01
4.804422978060992055e-01,4.789315616605982484e-01,-2.564122895881293385e-02,7.456715329320100748e-03,2.728073787347012804e-03,3.447514326804756914e-03,5.055522322654724121e-01
3.233386097110523272e-01,4.641201124782360354e-01,-1.915209043447640980e-02,-1.086656112790299056e-01,2.418324337402072075e-02,2.001180218886677853e-02,4.729864895343780518e-01
4.785371639557113310e-01,4.788848783100280726e-01,-5.508879047249060079e-03,9.134644645139394087e-03,6.345129745857710363e-03,5.034800243498618703e-03,4.846814870834350586e-01
3.989142472136150697e-01,4.986382002911563527e-01,-1.787289486096133029e-02,-2.059284702240431371e-03,3.504427121646038618e-02,5.943897658736091785e-03,4.785635471343994141e-01
3.881655507572928654e-01,5.077220958187672606e-01,-1.167438004361676107e-02,-3.139287789874676236e-03,1.069029794237334567e-02,6.067071333439781264e-03,4.716482460498809814e-01
4.754781429123420278e-01,4.805634985884101873e-01,-2.285941250070888664e-02,2.324121503483432636e-03,-1.888026847046161191e-03,-7.142786619327302477e-04,5.009279847145080566e-01
4.663364010194534504e-01,4.775399099920753510e-01,1.060459446535277905e-02,-3.737568329404898464e-04,3.218258217828088782e-03,-5.752881113382063774e-03,4.615772664546966553e-01
5.128350552116560657e-01,4.002194352873011396e-01,-2.291056587839340741e-02,-4.210381675372788096e-03,1.129745138401389189e-02,-4.831219639563764240e-03,4.897738397121429443e-01
4.748530234283665497e-01,4.781097076192213358e-01,-2.710260398837155416e-02,2.654746688513378618e-03,-2.058733579315432521e-03,-2.019979932175285618e-03,5.036376118659973145e-01
4.604310635588280132e-01,4.903120332051933428e-01,-3.209244648903486485e-02,4.735154269493402519e-03,4.391619078255979206e-03,8.126335496454681340e-03,5.084413290023803711e-01
5.095553864814744705e-01,4.154607982756846063e-01,-4.786586457693864372e-03,2.895177511520035177e-02,-6.648450132224615998e-03,4.628085575160589826e-02,4.838156998157501221e-01
4.692978820457549549e-01,4.872020681091695504e-01,-2.897860468290225366e-02,-5.170116272594453945e-04,4.744748620629761146e-03,6.155539783985528696e-05,5.075328350067138672e-01
4.902620356164157367e-01,4.646590326955174488e-01,-3.496901632949095395e-02,7.572366065140181089e-03,2.598665334805095109e-03,5.404598026843029576e-03,5.131818056106567383e-01
4.965448230945205821e-01,3.907399328436275687e-01,-1.642663231606400487e-02,-2.748310365135780454e-03,1.711885461495894767e-02,1.210170661188866327e-02,4.705323278903961182e-01
4.816788469339921552e-01,4.776535968049202552e-01,-2.134096228660664618e-02,2.174290617789134249e-03,-1.729003164950700892e-03,-3.528001953257113663e-03,5.010796785354614258e-01
4.922852268463946412e-01,4.265187366885524467e-01,-2.871897870669126718e-02,1.565094436363612292e-03,1.308696770052433529e-03,1.358054623269911755e-02,4.920079112052917480e-01
3.135786968538530339e-01,5.264731881234575583e-01,-1.828425780315834359e-02,4.293521067938140673e-02,-3.114387981895719304e-02,8.841912771060061668e-03,4.845446646213531494e-01
4.819051705964977339e-01,4.747311616601063156e-01,-3.172101050316544768e-02,2.146386562972090080e-03,2.049264745450407642e-04,-1.501951931608036875e-03,5.100973248481750488e-01
4.807049665965019702e-01,4.794246103873227582e-01,-6.479501657037589624e-03,8.631748013348084642e-03,5.514832548120842011e-03,7.177314989822362705e-03,4.870275855064392090e-01
4.981307878648290055e-01,4.237447497441765853e-01,-2.672829233438483998e-02,-8.807994932001465566e-05,4.489345483609247754e-03,1.247397281581125519e-02,4.924382567405700684e-01
4.821889093501302015e-01,4.775599271598549578e-01,-3.306536597911702291e-02,4.684231927083685500e-03,-2.392709186251582975e-03,-2.600499791668688110e-03,5.130560994148254395e-01
4.777433848441534070e-01,4.811320792622807430e-01,3.648981568482706495e-02,-5.345064908584628796e-05,4.768992528976759640e-03,1.949871259275172408e-02,4.443200528621673584e-01
5.172472121919600152e-01,4.722785113266656509e-01,6.503154860882459642e-02,-6.118711067369195060e-03,-7.303873008417426267e-03,-3.308355351399671490e-02,4.355933368206024170e-01
4.671625156416733260e-01,4.775122201667493238e-01,-2.880991152598866289e-02,-6.727635491930228145e-04,-2.420505531240574413e-03,3.751734783864108663e-03,5.012884140014648438e-01
4.753034373474353536e-01,4.814290009170159035e-01,1.770698156239869370e-04,-1.338512696879265050e-03,-2.507690271525895871e-03,2.961779267796409501e-03,4.782714247703552246e-01
4.813738807905738049e-01,4.793954507923323671e-01,-2.859184901316125238e-02,9.985565263044436559e-04,-3.578896072623279491e-04,2.351863829275353292e-03,5.089989900588989258e-01
5.224581987533305494e-01,4.421012665763126015e-01,2.358329231346095733e-02,-1.965859063507468044e-02,1.139476817997747519e-02,-2.596102617627090922e-02,4.677779078483581543e-01
4.600097162560757291e-01,4.737787224333865344e-01,-2.520023298411261381e-02,3.362776025063279189e-03,-9.082073527882865427e-03,7.332357791166218761e-03,4.926883578300476074e-01
4.632417532472395960e-01,3.877156534807062460e-01,-4.343450742572974033e-03,-9.430358427329732160e-03,-1.533474418593160603e-02,-1.279006600731608101e-02,4.364495873451232910e-01
4.660441613608922173e-01,4.613946572237221933e-01,-3.981521394215936649e-02,-3.085016445028151912e-04,-1.843775576528291875e-03,-7.113184276470162779e-04,5.035626292228698730e-01
5.147760712167863684e-01,5.125457449844640356e-01,4.000409970058121933e-02,-4.328062277459513406e-03,-1.183206720033146836e-02,-2.735438599382078798e-02,4.765243828296661377e-01
4.982939928108802707e-01,4.348019091651688650e-01,-2.103582558270272740e-02,1.438206318820716930e-04,-4.119808921619874144e-03,-1.260489531338173166e-03,4.907312095165252686e-01
4.683471419537948988e-01,4.805958607406150551e-01,-2.974852042818226794e-02,-7.124435099701963842e-04,-1.222232306395964769e-03,9.063296025714457456e-04,5.043399930000305176e-01
5.194487688602223985e-01,4.654442714600122710e-01,6.368728874539847373e-02,-1.396119776108587299e-02,7.087590083751462745e-04,-1.877515051735602694e-02,4.332039058208465576e-01
4.968316585848264744e-01,4.834676785712015423e-01,-1.367938422185382974e-02,3.003402501443810154e-03,-4.067129443174207458e-03,1.259146753940654923e-02,5.045096278190612793e-01
4.636648184150676810e-01,5.223488293541341809e-01,-8.363547703159057711e-04,1.354043926888432586e-02,1.653786100313345275e-03,1.645594283573114172e-02,4.978298544883728027e-01
4.717914293590684816e-01,4.789849342216802031e-01,-2.382089928866970574e-02,-1.803910933463111861e-03,-2.505115973375880798e-03,1.116198708674014757e-03,4.992803335189819336e-01
4.710512501289716436e-01,4.786107900719130948e-01,-2.389606550080569658e-02,-1.071407422174334685e-03,-2.776267181322195771e-03,1.379947968503046716e-03,4.988024234771728516e-01
4.471952237543577735e-01,4.171651752993491558e-01,-1.742984061583430222e-02,-1.175547650489110890e-02,-1.155684973458942846e-02,-5.503558808311074732e-03,4.513664543628692627e-01
4.777436299648789575e-01,4.808474602774056028e-01,8.089243469994733537e-04,2.431851562018179022e-03,-5.206686776719989841e-03,-1.373887956462829362e-03,4.786036014556884766e-01
4.691698287349784779e-01,4.715570169668708012e-01,-4.085630590609007351e-02,1.021495520451563442e-03,1.251270636911797681e-03,2.307274381312729439e-03,5.112471580505371094e-01
4.317585373151712202e-01,6.033513550810044590e-01,4.539067894600901099e-02,-7.723750675549888312e-02,6.408158304126733429e-02,1.884877364057207724e-02,5.256465077400207520e-01
4.248389624491683003e-01,3.665883787819061990e-01,-1.149972576609838981e-01,-2.793975177032934076e-01,5.800072705307015436e-02,6.031272910273548921e-02,7.201142311096191406e-01
4.733197821872721089e-01,4.822850009696818541e-01,-2.186512471659074475e-02,3.498290962338864232e-03,1.510744172851002020e-03,-1.696809882111311374e-03,4.997800588607788086e-01
4.542364118955580232e-01,5.156717833894682856e-01,1.916399112358618817e-02,1.992461146636068797e-03,-3.064560941964341798e-02,1.423580625131831419e-04,4.718268513679504395e-01
4.688740029761528927e-01,4.764161683558366667e-01,-4.057873799854161412e-02,2.614415347965715086e-04,4.975740324203166247e-04,2.956408672033760017e-03,5.132918357849121094e-01
3.207721520165926488e-01,5.286397465653931427e-01,2.258268599546980893e-02,3.694236611997195330e-02,3.656267700235475010e-02,1.527651493648564396e-02,4.504604637622833252e-01
4.287817869463194098e-01,4.219503155939765549e-01,-6.279267991580406161e-03,-1.949200978616977623e-02,1.064709915670452450e-02,1.381843279367410415e-02,4.340569376945495605e-01
4.441150582767413590e-01,4.861319275371038806e-01,-2.525628207453139984e-02,-2.900758341665265333e-03,3.831324308287991504e-02,3.292316325293225682e-02,4.994768798351287842e-01
4.071690558710352459e-01,3.557467400588970596e-01,-1.582357402519157796e-02,-2.723570724921919317e-01,-2.000167454021998734e-02,1.313570032517135701e-02,6.197327971458435059e-01
3.787317402331127347e-01,3.358330216734858875e-01,-7.199535918522459443e-03,-2.340663513025894316e-01,-2.343106843976120943e-02,-4.946536492723218464e-02,5.545953512191772461e-01
3.962141592853206662e-01,4.260138686602116809e-01,-5.173535810895468767e-03,-8.761853390797381957e-02,-2.512815932141808026e-02,-1.797648535529257005e-02,4.470526874065399170e-01
5.247701457089576360e-01,5.490030593999273290e-01,1.124491328033050408e-03,-9.683248769336511019e-02,9.332918870595394156e-02,6.675751840375865331e-02,5.959125757217407227e-01
4.729539267744348185e-01,4.768497833496176952e-01,-3.845687289276755738e-02,3.757768558831820101e-03,4.173142971942698544e-03,3.894779111271187699e-03,5.135062336921691895e-01
4.730444529647372942e-01,4.803421621107321071e-01,-1.696946050535030892e-02,4.572804565683642915e-03,1.055474198199502422e-03,-2.914366596126078887e-03,4.937959313392639160e-01
4.424077470449354621e-01,4.459651482864234739e-01,-2.146477179764577636e-02,-5.713362683297252588e-03,-1.594721863616801452e-03,-6.260919005109626470e-03,4.659009575843811035e-01
4.758025451384564897e-01,4.782584092226145334e-01,-3.816758055010127659e-02,6.155450384146825271e-03,3.468379447449462631e-03,3.512636118751849470e-03,5.153836607933044434e-01
3.810118171285565847e-01,4.417168143869520947e-01,-1.065772532534775552e-02,-1.503425428725784774e-01,5.149550832305697587e-03,4.902924344316228651e-03,4.988253414630889893e-01
3.450438057866244690e-01,4.428579328625836808e-01,-5.468113199019186688e-04,-1.217646910159593532e-01,-3.812699214529484404e-02,-2.061421673310418964e-02,4.614324271678924561e-01
3.435137311731050191e-01,4.816436631577490912e-01,1.486293955687445489e-03,-6.084656343890936653e-02,-1.501992289161968759e-02,-5.067573651592767285e-03,4.417777955532073975e-01
4.308953162284193672e-01,4.010233993273887854e-01,5.299758068241677833e-03,-6.084842321051177338e-02,-2.071922278840930901e-02,-2.132220357554220555e-02,4.278666973114013672e-01
3.102804715535820712e-01,5.261107943598217762e-01,-8.055718381859033883e-03,-6.004490276175168673e-02,-1.764867352309030385e-02,-7.831789787205181708e-03,4.780814349651336670e-01
4.651634502068083821e-01,3.724293973087183796e-01,-3.739666440204292286e-03,-4.443934507623488461e-02,-9.501984022623958040e-03,-1.317698986967032887e-02,4.378387629985809326e-01
4.895586533116439432e-01,4.612701708386638400e-01,-2.364815417030835532e-02,1.368240322478390426e-02,-4.140754579090099620e-03,9.618624617896290654e-03,5.005539059638977051e-01
4.770181440576395371e-01,4.813878507214172098e-01,4.929864378554027482e-03,7.861086608776801307e-03,3.032552599729143941e-03,5.316494799267297046e-03,4.746020436286926270e-01
3.745503695435127844e-01,4.191996331036540457e-01,6.050273409485829035e-03,-7.332619391690535504e-02,-8.475606002939128220e-03,-7.244627004518769918e-03,4.132097363471984863e-01
5.455136696584543810e-01,3.564659405404331793e-01,-5.832523660881938632e-04,1.120774864268152260e-01,1.399575284586560345e-02,1.887328372423721992e-02,5.196757316589355469e-01
4.775762129546944901e-01,4.823676771855822665e-01,-1.420963914671058426e-02,2.169170967700361895e-03,-1.063427661155784534e-04,2.697839171275990405e-03,4.942353963851928711e-01
4.704092059814307669e-01,4.636813225335338906e-01,-2.549781095495567973e-02,1.671431251394714639e-03,2.505813787163294580e-03,-2.225040046911254572e-03,4.926202297210693359e-01
4.686694450585020544e-01,4.705092010596679808e-01,-2.735250875810912863e-02,-6.779255893557170187e-04,-5.286359907644315632e-03,-6.170571762954188400e-05,4.970301389694213867e-01
4.721748011465482509e-01,4.640873021522954889e-01,-2.539256229392139463e-02,5.068368746445414555e-04,4.248346932658022060e-03,-3.818244782433918155e-03,4.936732351779937744e-01
4.756260382374138951e-01,4.652495666760184112e-01,-2.920766261226992455e-02,1.279386316417872893e-04,2.494895824426516650e-03,-2.355413736151162375e-03,4.997616410255432129e-01
4.731079870893755146e-01,4.653637328031962062e-01,-2.979206881844598254e-02,9.578526277768860614e-04,1.030404084150515938e-03,-1.600802474177284804e-03,4.990866482257843018e-01
4.727031838241750328e-01,4.561033658259396883e-01,-2.584900557459829384e-02,1.940469200238771749e-03,4.297451940535807098e-03,-3.187735410168861250e-03,4.905620813369750977e-01
4.728528278664954065e-01,4.693250831375759824e-01,-2.957472893760126897e-02,3.711993196257508420e-04,1.002716628894813897e-03,-1.919686384844379763e-03,5.006874799728393555e-01
4.747791694441304555e-01,4.758210623696741415e-01,5.434539374554792079e-02,3.233308553589090209e-03,-7.439649671508166348e-03,-9.739786481491435324e-04,4.211934804916381836e-01
4.760600815841716793e-01,4.771903979196111534e-01,-2.877276169116932403e-02,-1.057673865429134899e-03,-1.522521233077436462e-03,-6.288398119851930194e-04,5.054103136062622070e-01
4.765429420547843131e-01,4.785557663807433748e-01,-2.528727657325446909e-02,-1.142631806838728713e-03,1.980325106602114679e-04,-2.919434090535971346e-03,5.028690695762634277e-01
4.736143928218496946e-01,4.797906338051367570e-01,-1.146504853874380503e-02,-1.916957843337824003e-03,-4.261567958612408162e-03,3.247638636903175339e-03,4.882963597774505615e-01
4.728629942453293489e-01,4.649057042976979526e-01,-2.901216435481879241e-02,1.581173303157396058e-03,2.001748477909259718e-03,-4.437324186927932637e-03,4.980231225490570068e-01
4.647606563848706296e-01,4.776234626481145051e-01,-2.794752654054466490e-02,6.089401564143172426e-04,-9.396249003646032008e-04,1.949242339349739400e-03,4.992790520191192627e-01
4.727357499120392603e-01,4.630095907050754134e-01,-2.719146845074993379e-02,-3.556835352717608104e-04,2.500124227108653768e-03,-2.662481576622334912e-04,4.951553344726562500e-01
5.251499110026531802e-01,3.743336239802029231e-01,-1.790844599420871042e-02,5.725631863320097825e-02,1.007990412831942691e-02,1.400846775767066420e-02,4.964718222618103027e-01
3.905833256823258992e-01,4.520481542318233736e-01,-3.909714565373589856e-03,7.040309850137982384e-02,3.231121372989305992e-04,7.421681120343422144e-03,4.457415044307708740e-01
4.015738334583367486e-01,4.748026122612402089e-01,-2.191544065630762761e-02,-1.171631260428892228e-02,-1.473509353785209565e-02,-1.380475029540761608e-02,4.662103950977325439e-01
4.757084966986987462e-01,4.800721674950723106e-01,1.423969337112274136e-02,6.964162784613972187e-04,2.443048898297419270e-03,-7.970658533996753323e-03,4.638924002647399902e-01
4.424948336443911834e-01,4.734429954095413784e-01,-1.969645318735707695e-02,1.558837364346750930e-02,-1.910701363857131296e-02,1.541377672869529217e-02,4.810608327388763428e-01
4.421887552170783442e-01,4.403891259686656401e-01,-4.941063901291953275e-03,3.764902199917177089e-02,-5.547308187310923643e-03,9.437122141809594494e-03,4.513706862926483154e-01
4.624746255728561239e-01,4.654580599367855176e-01,-1.274828570347735779e-02,5.963973217323306070e-02,-9.587544877741750737e-03,1.521388921026739852e-02,4.887784421443939209e-01
4.236224614559285229e-01,5.007652807934298567e-01,-2.574611666789056175e-02,4.228136440639132521e-02,-6.361028211982686954e-03,4.977438760821279069e-03,4.981039464473724365e-01
4.711782520819509656e-01,4.771899518045414346e-01,-2.914515054764343915e-02,-2.137590611920221501e-03,-2.200575810113740600e-03,1.930486396154657393e-03,5.033953189849853516e-01
4.619307161249442961e-01,4.764725813561512258e-01,-2.929448923641309044e-02,1.415923218824317095e-03,-2.493078848698780658e-03,2.733887242019384951e-03,4.987024068832397461e-01
4.681653420901135121e-01,4.664557268782534294e-01,-4.074606093312949096e-02,1.188284537869238253e-03,2.003693415853970150e-03,-3.526614497116887630e-05,5.080747604370117188e-01
5.148824935393505609e-01,4.256105245367240442e-01,-1.996236835130826837e-02,1.213763506346351301e-01,-2.788291279575375470e-03,3.109833569683551416e-02,5.416670441627502441e-01
5.711419655279954544e-01,3.686587716856838948e-01,-1.657198143376265032e-02,1.237124107969880954e-01,-5.336759544125997679e-02,7.584279297733098613e-02,5.823400020599365234e-01
4.048812520259186254e-01,4.101826619266974450e-01,-3.203095408085809837e-02,1.667427424799445002e-01,-1.371107440956660477e-02,6.215302349174670060e-02,5.374002456665039062e-01
4.761230815282334050e-01,4.690085806523967005e-01,-3.981646668145727430e-02,4.149464040115580623e-04,3.596447247882582094e-03,8.165806444000936340e-04,5.124596357345581055e-01
4.310505116182071217e-01,4.363187641470572808e-01,-1.028223948494011442e-02,-7.108987453895595360e-03,3.698438858350802834e-03,7.047949075527792755e-03,4.443749189376831055e-01
4.663886959720483505e-01,4.639392390329090121e-01,-4.091722244035245204e-02,3.019659683093731811e-04,4.616695489891283551e-05,2.099969051500608606e-03,5.060989856719970703e-01
4.679361271795334787e-01,4.683445426047160298e-01,-4.076492291241456956e-02,1.374772114590105108e-04,8.906912073408978017e-04,9.358422901904275577e-04,5.089103579521179199e-01
4.765070463875315521e-01,4.778597395560216787e-01,-5.709266881862906651e-03,1.877999086847562983e-03,-1.946523681915437228e-03,3.128647238171218450e-03,4.829472005367279053e-01
4.684065572873009620e-01,4.794832855340139810e-01,-1.551824900378373506e-02,-5.591218713606801050e-04,1.398103395104691084e-03,2.429228845310608693e-03,4.895821809768676758e-01
4.609149006607691224e-01,4.773523558900771846e-01,-2.342820981382814916e-02,2.602255440385176175e-03,-4.938619116447405533e-03,3.996392368921482426e-03,4.929109513759613037e-01
4.597471911842540560e-01,4.864550477298436038e-01,-9.868064470176629577e-03,6.613577655875476149e-03,-3.072014062402801757e-03,2.784858967488503239e-03,4.837116897106170654e-01
4.588547550396072094e-01,4.846331115684667790e-01,-2.621577212218972885e-02,1.368773630811903575e-03,-2.155218820190003565e-03,7.244136950174642937e-03,4.986373782157897949e-01
4.718206450499382587e-01,4.692752924424428707e-01,-4.051222629654932517e-02,1.092027284151538859e-03,2.406022519488044877e-03,8.222033150471030720e-04,5.110874176025390625e-01
4.748921511400715501e-01,4.671670621693019276e-01,-3.963877289047285091e-02,8.112599203441857830e-04,2.420039123216915101e-03,1.162883393417684253e-03,5.107353329658508301e-01
4.678128701908090825e-01,4.833505319910808007e-01,-2.526702264913432971e-02,-2.854877783287456620e-03,-6.339875207117332857e-03,4.481705098897051896e-03,5.012342929840087891e-01
4.715707970454313669e-01,4.873936589986974655e-01,-7.627874881255547468e-03,1.508562962185175469e-03,9.379932523769515069e-04,9.939852750936910633e-04,4.873155653476715088e-01
4.762149895586344495e-01,4.670668398464674631e-01,-3.773941168529071355e-02,8.563962245728687014e-04,3.953317676673505018e-03,1.217943063120152745e-03,5.094944834709167480e-01
4.681234401456282890e-01,4.811300849661643841e-01,-2.684117765929405763e-02,-6.621576857606058762e-04,2.650064616248499864e-03,-1.020150244594417903e-03,5.016198754310607910e-01
4.479864643199969465e-01,4.558598163085140209e-01,-2.708686641768143222e-02,-2.875906250685062674e-03,-3.208633137237471185e-03,-8.680074762477511113e-03,4.793524742126464844e-01
4.442066325223946732e-01,5.198485733273605636e-01,-4.702111720476587209e-02,-4.435863077274249805e-02,4.202140331543580826e-02,3.529682093252677066e-02,5.469203591346740723e-01
4.625473085441610399e-01,4.818430517942372537e-01,-1.581064045480967684e-02,-1.720692347657779963e-03,4.149480096850816091e-03,8.221598752740304217e-03,4.885613918304443359e-01
4.809185487479898380e-01,4.794258122806850930e-01,-3.308456543616156154e-02,7.323174364278744325e-03,2.089967079339082913e-03,7.786711356889850985e-04,5.134296417236328125e-01
4.816363125580332971e-01,4.589546819074790118e-01,-3.352393313681195641e-02,1.668931039644260602e-04,7.465669178329602251e-03,1.195714676479319051e-04,5.043681263923645020e-01
4.063070297091023186e-01,3.706114332448002813e-01,1.304601769176239046e-02,-1.484890032024181739e-01,6.205492799835893997e-02,7.860343666831318132e-02,4.879811406135559082e-01
4.875170325197345500e-01,4.584538195939188432e-01,-3.148777435197236407e-02,1.655669514923770744e-03,1.342551663210245824e-03,-2.065561534647403219e-03,5.051268339157104492e-01
3.664275671057740658e-01,4.410476858457158533e-01,-1.007945160898460202e-02,-1.027391755310588656e-01,7.277447365580010097e-02,2.642456781003809513e-02,4.744152724742889404e-01
4.767644449783997596e-01,4.692336665037644128e-01,3.573791258074410226e-02,-5.441889154736591350e-02,1.243332257175923036e-02,1.544351641761077323e-02,4.486684203147888184e-01
4.815426763456044368e-01,4.794245027791954050e-01,-2.202696097225131933e-02,2.644908779656879923e-03,-4.462549234846566247e-04,-4.269511309075765121e-03,5.025897622108459473e-01
3.002360140373642183e-01,4.907631947359664126e-01,2.286410776041966630e-02,-1.077035379617689165e-01,9.120050185249842234e-02,6.628354991822731079e-02,4.888925850391387939e-01
4.771112584159639125e-01,4.824399871016205044e-01,-1.979046561734310039e-02,5.271483656947362380e-03,2.917506377241719899e-03,3.122985626545608795e-03,4.997256696224212646e-01
4.815679149749878540e-01,4.802283719794006034e-01,-2.967013105472682266e-02,2.842002962033228844e-03,2.170191613025907514e-03,9.035737661646608661e-04,5.106095671653747559e-01
4.778044072519218588e-01,4.800633292478559966e-01,-2.712078016253577362e-02,4.142366476309346755e-04,-1.533081084012025955e-04,1.692872656189437853e-03,5.060675144195556641e-01
4.645860252994303830e-01,4.703675578731931206e-01,3.066889328569694095e-02,-9.419805034269670280e-03,-3.276610656803788119e-03,-4.869757647566837558e-03,4.372593760490417480e-01
4.541036975050847246e-01,4.685183760049908552e-01,-3.434563506295640334e-02,-4.489965102853660760e-03,-8.718271166311684570e-03,-9.367582901549993679e-03,4.963699579238891602e-01
4.613472576006205084e-01,4.661966014085561216e-01,-3.818345123336769342e-02,9.910860398965760508e-05,-1.985181860121153913e-03,-2.500598566834950215e-03,5.020034313201904297e-01
4.737149801127583659e-01,4.823754939488328342e-01,-1.447343543807794175e-02,1.896293301898530968e-05,7.783665999477971248e-04,2.748016714705979989e-03,4.926006197929382324e-01
4.754709468083051505e-01,4.803311271687448203e-01,-1.728665397174666829e-02,-2.329104815175088699e-03,-1.173829360010112798e-03,2.612879931501694165e-03,4.952468574047088623e-01
4.480868938010304503e-01,4.576067475841137377e-01,-2.786255534968223868e-02,-4.320627741494409879e-04,-6.661210953909982128e-03,-7.780105945838998102e-03,4.811078310012817383e-01
5.018341579681685483e-01,4.925854434480708699e-01,4.668368277867163130e-02,1.644083421800817887e-02,-7.373008494127000073e-03,-1.572802805786600172e-02,4.524975419044494629e-01
4.737711027629687432e-01,4.784967086291771476e-01,-2.291056795733864559e-02,-2.669019799914660891e-03,-2.431634875394095979e-03,2.008743586064475929e-03,4.991125762462615967e-01
4.332859552776882062e-01,4.718419191457592365e-01,-3.161022558739323696e-02,-4.256981180622484810e-03,-8.407197023413640752e-03,-1.177229533824700886e-02,4.860264360904693604e-01
4.761431521756804841e-01,4.822628678579602979e-01,-1.710876466787669692e-02,-8.727417891774984270e-04,-1.364388022751433565e-03,2.126339752070601635e-03,4.963616728782653809e-01
4.759842704746032327e-01,4.533807563469951507e-01,-2.538636616700223891e-02,3.759292597302996575e-03,-8.236699867844438777e-03,6.751273742614885727e-03,4.908496439456939697e-01
4.698927300668980234e-01,4.739373854297878608e-01,-2.988111002056770271e-02,-1.564830088063845622e-03,-3.033692509989712512e-03,1.638783202499593259e-03,5.018512606620788574e-01
4.507604555723139228e-01,4.725272226626191507e-01,-3.416247665428562286e-02,2.858464662987965864e-04,-4.207674639351421529e-04,-8.007939039940657061e-03,4.963591396808624268e-01
3.782451429610077520e-01,4.408978308096158649e-01,6.345957056181350531e-04,7.503371924140248006e-02,7.479704624153595341e-03,-2.848898022867741436e-03,4.327305853366851807e-01
4.736495489415948335e-01,4.767659511547547857e-01,-2.816875526940720853e-02,-1.545356849640859521e-03,-1.905144810793088809e-03,9.217869668996329100e-04,5.034042000770568848e-01
4.637690307020664870e-01,4.442890690300963508e-01,-4.531735797524139020e-03,9.709215507959208236e-02,5.677411369796533935e-03,1.953562679782853279e-02,4.899845719337463379e-01
4.727892642636939979e-01,4.785935024726217790e-01,-2.705306447717220619e-02,-1.824920164295175395e-03,2.182166267092720219e-05,1.223330405469907987e-03,5.027839541435241699e-01
4.255892992338808911e-01,4.743381451568874363e-01,-2.534598102225427141e-02,-6.282765403462405029e-03,-8.730876403138285819e-04,-1.213459408635281928e-02,4.777699410915374756e-01
4.710678573927233326e-01,4.769506882765447431e-01,-3.138626174815567493e-02,-3.678346673725787380e-04,-1.086131482555847006e-03,1.021862916319855614e-03,5.054281949996948242e-01
3.403478419701430613e-01,5.120661461435981332e-01,1.243978603676920702e-03,9.557204741839901707e-03,-1.817479815722314665e-03,-2.004445808633595349e-04,4.505474269390106201e-01
5.650798641180965198e-01,3.439724932500063947e-01,-3.070772399592425206e-02,5.164496128576681611e-02,2.496762975072340865e-02,-2.443897264053997501e-02,5.327118039131164551e-01
4.684099684592530899e-01,4.752795786169871084e-01,-3.158485656618842397e-02,-5.438934979284181610e-04,5.240685176297961201e-05,7.886420689798101340e-04,5.034675002098083496e-01
4.656748405642329169e-01,3.970540819154964596e-01,8.400848262446469761e-04,1.660164396840593456e-02,-2.868062609925070843e-04,6.149270410152099216e-04,4.355583488941192627e-01
4.678335778856701488e-01,4.709161236037377463e-01,-2.501874957636851526e-02,3.686814063282965303e-03,-5.397091269904027641e-03,4.817037754604773341e-03,4.946007728576660156e-01
4.699532669514800975e-01,4.760649488914556748e-01,-3.195050632223012110e-02,3.520019106007740174e-05,-5.063418467775943283e-04,5.221534853254319961e-04,5.049889087677001953e-01
4.519402206202743910e-01,4.189339191551566532e-01,-5.302395146316585262e-03,7.046325168638234437e-02,-3.180456206602348419e-03,1.669297024432185236e-02,4.591621160507202148e-01
4.659460198695254407e-01,4.039240278217072211e-01,-9.015436718208258426e-04,1.295470866036324900e-02,4.980760072028840232e-03,3.268504045596396434e-04,4.397917389869689941e-01
5.352010109844176355e-01,3.061079805272500232e-01,-7.111385953405657823e-03,8.826699695974117577e-02,-1.773363906101130998e-03,1.588313189178045329e-02,4.964733719825744629e-01
5.447120217495649008e-01,4.408362568282369054e-01,-4.517023799549158003e-03,3.161749844870386482e-03,-1.240731008938697477e-02,2.350733595448976573e-02,5.074847340583801270e-01
4.797839010675057358e-01,4.794114163244049820e-01,-2.987112829319604757e-02,2.646849133147536129e-03,1.535146752857915369e-03,1.688479559247387006e-03,5.095048546791076660e-01
4.827938514913874268e-01,4.757538623264785382e-01,-3.177079796561171898e-02,3.029474109315360899e-03,1.045010613505959873e-03,2.509835428777507614e-03,5.111296772956848145e-01
4.805929379027936710e-01,4.758640494210379934e-01,-3.005958954058807198e-02,1.108374714029348529e-03,1.604707237068356837e-03,1.290820611410967243e-03,5.083207488059997559e-01
4.799669138933791990e-01,4.755011591966957774e-01,-2.547299869908087322e-02,2.809485881888216120e-03,1.465805006594251766e-03,-2.339256368362367580e-03,5.032681226730346680e-01
4.850702361592311718e-01,4.658390193282082592e-01,-3.093777260033514498e-02,1.006557598878660359e-03,2.429637199875800055e-03,5.757466806178905029e-03,5.067847967147827148e-01
4.806635833691421666e-01,4.703827303875720567e-01,-2.414381212176314184e-02,9.384641072304676992e-03,-7.624091211470732793e-03,4.676539787227976773e-03,5.002505183219909668e-01
3.903648345778689688e-01,4.810004994144754797e-01,3.221369450882194396e-03,1.109939781936708503e-02,2.646054657053494518e-04,8.211529095318869514e-03,4.401772022247314453e-01
4.421265967896799154e-01,4.554351112410930380e-01,-1.356985579810782161e-02,8.216859322471285754e-03,-2.684728691569294827e-03,5.267201757705656032e-03,4.628265500068664551e-01
4.740025019904807180e-01,4.766751941979039953e-01,-2.953672334720836012e-02,-5.052620121799289692e-04,-1.284795479137683556e-03,-1.182062060842304908e-04,5.048865675926208496e-01
4.602518475673086917e-01,4.736504578763903739e-01,-2.469034980755496766e-02,6.224410735587403154e-03,-3.406703615930583521e-03,4.982681207911347082e-03,4.920076727867126465e-01
4.696641346107409687e-01,4.752753884407705520e-01,-3.098887063430183497e-02,-1.432867382627497389e-03,-2.883409092496672186e-03,1.869646159725394784e-03,5.035234093666076660e-01
4.707186295940021248e-01,4.562382698304426887e-01,-2.452393711676470467e-02,2.784252482907855278e-03,-7.828173441117490527e-03,5.572212530614320709e-03,4.884709119796752930e-01
4.609497397495331827e-01,4.609463629486615366e-01,-1.855452129334667077e-02,-7.817542741934658211e-05,-4.812869051717039506e-03,9.360987248087065515e-04,4.795777797698974609e-01
4.698983589324697285e-01,4.708437384233122303e-01,-2.749178676419361533e-02,-5.672015795014357764e-05,-5.146352505638658419e-03,2.494938460635220761e-04,4.979434907436370850e-01
4.656834050996123686e-01,4.726542111721480088e-01,-2.979999672980299108e-02,9.765550293718012597e-04,-1.028449211495000622e-03,1.025426255876985037e-03,4.990145266056060791e-01
4.731064226575039111e-01,4.786081081571039730e-01,-2.633366291755995237e-02,-1.538691582098326589e-03,7.594469876541108319e-04,1.277525088384026284e-03,5.022271871566772461e-01
4.078158354930105922e-01,5.065095693982948344e-01,-1.411739836479936061e-02,5.237180439118018643e-02,-5.131085868915977004e-03,1.285254418229625495e-02,4.880709350109100342e-01
4.641167592167998457e-01,4.778881154160171674e-01,-2.798941644051483602e-02,-7.314237871292946392e-06,-3.290318447800546619e-03,3.345092074636327531e-03,4.992005228996276855e-01
4.636337365277198863e-01,4.766277598887228018e-01,-2.974722749821140377e-02,1.295841540851832988e-03,-1.605142865767757339e-03,1.851094003621656971e-03,5.000276565551757812e-01
4.654872760398954812e-01,4.760323460768977055e-01,-2.963804801094349628e-02,-3.295833390770946817e-04,-2.237900631001742309e-03,2.664539431132994813e-03,5.005177855491638184e-01
4.715681899551074086e-01,4.759580768745768076e-01,-3.087094314983562793e-02,-8.710688365054996499e-04,-1.415443952782876420e-03,5.401487914216508224e-04,5.046574473381042480e-01
5.053695836360027061e-01,5.383565490593942293e-01,6.985385394131032877e-02,1.783035184282404442e-02,7.804728554970380427e-02,5.933361550101193260e-02,4.846831560134887695e-01
4.695073102664132358e-01,4.763505020962603975e-01,-2.935215407096486429e-02,2.494602318951911059e-04,-1.947816196633248747e-03,1.898868575524728956e-03,5.023382902145385742e-01
4.715770369963099840e-01,4.755754200257150677e-01,-2.950853788579327341e-02,-7.027722175601356508e-04,-1.571549972065162297e-03,5.652164307939928488e-05,5.031055212020874023e-01
4.681435713743000715e-01,4.677590320694690051e-01,-8.031242371337454777e-03,1.189727809384782953e-02,1.273559990624889039e-03,-9.025471560634174689e-03,4.766900241374969482e-01
4.728381919486341900e-01,4.696185936530966054e-01,-2.498021985223169983e-02,1.165076364634041843e-03,-5.726925646450410461e-03,3.371609455515116316e-03,4.963540434837341309e-01
4.715732903471901993e-01,4.779735163711952839e-01,-2.667521429838093372e-02,-1.341515182559314609e-03,-2.153572852146515108e-03,3.749226018641907822e-04,5.014989376068115234e-01
4.693526017698254060e-01,4.720332472123821566e-01,-2.745010981767148639e-02,-4.190898076297115736e-04,-5.533311931648722537e-03,6.371978520146887731e-04,4.982423782348632812e-01
4.710800079361751047e-01,4.765844810090565931e-01,-2.974108627401678140e-02,-1.141607972632855544e-03,-2.289906359446989507e-03,5.372903226977726382e-04,5.036162734031677246e-01
4.760083378632783413e-01,4.631832010396512711e-01,-2.511689149354784378e-02,1.938267860945551641e-03,4.525705675098180142e-03,-1.773779360019704437e-03,4.949203431606292725e-01
4.619583097961669771e-01,4.665316254738196555e-01,-2.171153323244379152e-02,1.257235013934502633e-02,2.592301795483093439e-03,-7.535943480753015331e-03,4.866560697555541992e-01
4.813603248753476338e-01,4.694559569811667110e-01,-2.286598007106094288e-02,2.205723658145127518e-03,3.565960129321880858e-03,-3.503817155462808641e-03,4.984706342220306396e-01
4.759925970500396009e-01,4.712967943190723985e-01,-2.538135208740582849e-02,-1.251245540173038032e-03,4.005734889584418659e-03,-4.833267574012167257e-03,4.991657435894012451e-01
4.678664614011438516e-01,4.206270063068995313e-01,-9.840493243326864370e-03,9.947842884845976147e-03,7.719918342702836687e-03,-1.259347673693068416e-04,4.564478099346160889e-01
4.540969232601652639e-01,4.530155374544257985e-01,-1.332505478610113148e-02,8.786147614603535827e-03,4.445643511350945085e-03,-4.768185565787125789e-03,4.672666192054748535e-01
4.836888001367888323e-01,4.095502055401508135e-01,-1.928845625683112130e-02,9.730823355768863578e-03,-1.053090559142831097e-02,1.924175944343341216e-02,4.721441864967346191e-01
4.761157421636370568e-01,4.266313086183931569e-01,-1.843192057536729989e-02,4.704196451474475758e-03,1.155692576422777396e-02,-9.466274221668187494e-03,4.725352823734283447e-01
4.660674675647986653e-01,4.602789458730939254e-01,-2.414203632151107337e-02,1.140747005888615448e-03,2.016749490733388359e-03,-3.324337988866971939e-03,4.873915612697601318e-01
4.778344160354227599e-01,4.772066225493108993e-01,-9.921689617894413615e-03,-5.426413661014386179e-04,6.477166815700472575e-04,-1.908181831927337679e-03,4.874559044837951660e-01
4.735580799240564076e-01,4.797024435777773599e-01,-2.794925236705964045e-02,-5.085486305435579562e-04,-2.219671041979346532e-03,1.598528369461044976e-03,5.046305656433105469e-01
4.732603400864888732e-01,4.436293834745497211e-01,-2.045609445548757233e-02,3.894849921593619702e-03,7.081693150872995536e-03,1.587555828801201811e-04,4.797922968864440918e-01
4.453984954406259300e-01,4.603801402029131795e-01,-1.153746032733038440e-02,2.227059108723765737e-02,4.830583155708325846e-03,-7.825667963174236241e-03,4.664785563945770264e-01
4.452096406562031095e-01,4.302767879399075346e-01,-8.813687728476127248e-04,8.321561000216647769e-03,3.030049896444187481e-03,-2.099002997479291208e-04,4.390833377838134766e-01
4.311341033433489511e-01,4.579096536526120476e-01,-1.058408814730754655e-02,1.067651889235183248e-02,-1.380017437573856040e-04,-7.525236799245903219e-03,4.562576413154602051e-01
4.495194929704500186e-01,4.638202461840644775e-01,-1.959128093975714968e-02,3.994800010901463500e-03,-5.078204882215380401e-04,-7.433717156847691361e-03,4.766471385955810547e-01
4.617681874005072906e-01,4.604616658164163989e-01,-1.825921303120597861e-02,-2.874462188859000316e-05,9.208933875463040696e-04,-4.943983696403508529e-03,4.794546067714691162e-01
4.790685961683581184e-01,4.728746785435246069e-01,-2.735786870359080414e-02,6.949866396877479352e-06,-2.071123776715014155e-03,-5.821738976970571629e-04,5.033718943595886230e-01
4.768566724151672709e-01,4.800686353488624603e-01,-2.614008984148807890e-02,-1.918328529317791218e-04,-1.945442619911811688e-03,2.309663762223698649e-03,5.046375989913940430e-01
4.728394865554044202e-01,4.712942654019625088e-01,-2.527317249032468016e-02,1.054425628736681319e-03,5.515847793330020538e-03,-6.760112672664349114e-03,4.975747466087341309e-01
4.764986717109208625e-01,4.512928870104360168e-01,-1.622881903132605830e-02,1.192356683288427373e-02,1.256250862411125747e-02,-5.552328163702048049e-03,4.816519320011138916e-01
4.623479337223955210e-01,4.504969913758304356e-01,-1.891722833761366740e-02,-1.658536947426870415e-03,9.350253700719569384e-04,-5.449246658164918071e-06,4.754619002342224121e-01
4.818733030257618122e-01,4.776530544886090635e-01,-2.557182760572584979e-02,1.992370391901446443e-03,-2.326127716300586869e-03,-1.702680151732640160e-03,5.053846836090087891e-01
4.655404202481350229e-01,4.409974614101067614e-01,-1.471155024779868814e-02,4.579794649969250175e-03,7.455546196633475522e-03,-5.142939350846936590e-03,4.687926471233367920e-01
3.220145543678178957e-01,5.419869489022197673e-01,-1.521923078468545576e-03,-5.849191155386862517e-02,1.716092462808302063e-02,9.713987975699967317e-03,4.854516386985778809e-01
2.711348175874742639e-01,5.943925810726534698e-01,-1.219391739405673025e-02,-5.107621680759714955e-02,2.526859968138693915e-02,1.880324787601170625e-02,5.358745455741882324e-01
1.970446972675141684e-01,5.488784663832380062e-01,-2.313895450400971221e-02,-1.148890629395412366e-01,5.329847229086952243e-02,2.836333508496976380e-02,5.479689836502075195e-01
5.185580413470859407e-01,4.026901742700731979e-01,-2.340407400164440377e-02,2.515345989431299039e-03,-4.135632201493630138e-03,-3.079277448537982853e-03,4.944199025630950928e-01
4.488367840100489503e-01,4.491037915773876121e-01,-2.436619361788350258e-02,-3.968543005918840662e-03,7.782433127933640303e-03,4.781052336664157534e-03,4.736507236957550049e-01
4.417709383820982993e-01,4.397730406754817301e-01,-1.831529831139661058e-02,6.938764746506070761e-04,1.460897119745571595e-03,2.394985783438683096e-04,4.590992927551269531e-01
3.112450248887789761e-01,5.406572444122482723e-01,-2.782823014507296300e-02,-6.987079876845658788e-02,7.497226463723724588e-02,5.090143401731597045e-02,5.335441231727600098e-01
3.196312544508650988e-01,5.387840609698404393e-01,-2.467497569507642874e-02,-6.344542144797683282e-03,6.505135225995420378e-02,2.939176728585049525e-02,5.073833465576171875e-01
2.736949640146515983e-01,5.439665865506958520e-01,-1.128813667302686063e-02,-1.231372429520329916e-02,1.218421355669476770e-02,8.402114019762341526e-03,4.820757210254669189e-01
3.542208437254767972e-01,5.208870640930191032e-01,-8.472300526583875779e-03,2.858043808426672869e-02,-3.362401081384366365e-03,-1.008296518048273655e-03,4.714447259902954102e-01
1.614050064991596201e-01,6.228738819031206519e-01,-1.968212534105251432e-02,-3.669188618899370431e-03,3.527821577641489237e-02,3.378568442574775982e-02,5.800953507423400879e-01
4.763995357114846341e-01,4.800161190668448263e-01,-2.117588464321101815e-02,-2.333684995445260008e-03,-4.220132083482445486e-03,3.200575714985500701e-03,4.994941353797912598e-01
4.761168345237299926e-01,4.798190552580324786e-01,5.252945604422082360e-02,1.149600463373479792e-02,4.655449979090270536e-03,5.725316510140059795e-03,4.261080026626586914e-01
4.275474107414278802e-01,4.278767681818099744e-01,-3.036937007708850889e-03,-3.864158128085306925e-04,1.620588554230189800e-03,2.519238609312785047e-04,4.307590126991271973e-01
4.821163556144604234e-01,4.803590149316993019e-01,9.120412933506016895e-03,8.248260948622588781e-03,7.908293010960985858e-03,-4.068832934382893632e-03,4.725869596004486084e-01
4.347725198491602105e-01,4.950916545703895055e-01,-2.109879269746406383e-02,1.364280797523701426e-02,-1.408839078312270135e-02,1.076322411089597302e-02,4.903633296489715576e-01
4.665706558241636825e-01,4.680783884471790834e-01,-4.112145185057730634e-02,1.334260993718253607e-03,5.157416202373004376e-04,2.169029445154855087e-03,5.084675550460815430e-01
4.801128741889796325e-01,4.705904084779294339e-01,-2.631555119347706029e-02,6.796455449345619598e-03,-7.179555599509240653e-03,5.121190107027980519e-03,5.021054148674011230e-01
4.728969663416376923e-01,4.775065919969325723e-01,-2.961514568489137522e-02,-1.366047062675101878e-03,1.697893672408238208e-04,-1.553960038943844740e-03,5.048454999923706055e-01
1.401981737202350198e-01,6.361249537075266414e-01,-2.315982234723029665e-02,2.461557132159386541e-02,-3.455572923000829483e-03,1.740613286023457232e-02,5.969969034194946289e-01
4.736479232698100894e-01,4.751933465715748595e-01,-2.906372016512864809e-02,-1.105408855959782218e-03,-1.128698715429812208e-03,1.545839864519495512e-04,5.034936666488647461e-01
4.840258920103742701e-01,4.603676943361736384e-01,-3.577368473779907188e-02,4.293697975790622314e-04,5.102034095449899803e-03,6.991545619188288367e-03,5.086050033569335938e-01
4.809989073247976643e-01,4.757768825852068950e-01,-3.036950970653756743e-02,8.245749159923143438e-04,1.886829186254669914e-03,1.043386126179663602e-03,5.087932348251342773e-01
4.759822949826190142e-01,4.773433175480653601e-01,-2.495808316925546277e-02,-2.061172925579473692e-04,-1.000499458341525070e-03,-1.312279676082987517e-03,5.016305446624755859e-01
3.571047770014410538e-01,2.950638162062137471e-01,2.729534870332145369e-03,-2.377477059266289439e-01,-1.982701285295936089e-02,-7.296592047459232039e-03,5.275946259498596191e-01
4.828876978587064439e-01,4.712597134541744448e-01,-3.737196548848459310e-02,1.464603278993389457e-03,1.834597516114929968e-03,-5.945317465458262738e-04,5.145612955093383789e-01
4.769841274200226078e-01,4.692293881647839893e-01,-2.529770033708433896e-02,1.779897457261969294e-03,-6.749007135359095036e-03,5.478180040864062163e-03,4.986865520477294922e-01
4.698528735325122607e-01,4.790395746826976997e-01,-2.944283374859563152e-02,-7.226858416185305469e-04,-7.183748347078021488e-04,1.559587265612795296e-03,5.039622187614440918e-01
4.754019671282160298e-01,4.798708981770347659e-01,-3.184868057454215418e-03,-9.719921840137741350e-04,-2.431202911033591811e-03,-3.967442520159342526e-03,4.809073507785797119e-01
4.086628397692811943e-01,4.765047260105729210e-01,-2.287564612007036979e-02,-4.261200762387959765e-03,7.443477553055735316e-04,1.602869778330362135e-02,4.700332581996917725e-01
4.763863741570248944e-01,4.785642703840673473e-01,-2.210950923928994838e-02,-1.088553383708621000e-03,-1.465346227285292116e-03,-3.359553465323131954e-03,4.996322691440582275e-01
4.042393874652781549e-01,4.368241739339659979e-01,6.083803257654896157e-03,-5.099160046126704170e-03,-8.634270269431074118e-04,-1.795201692219868623e-03,4.155157804489135742e-01
4.882373665182796474e-01,4.772855143704821113e-01,-1.423364439554153371e-03,-5.985851852899323061e-02,-3.902908064074451372e-02,-1.320787939209911235e-02,5.003670454025268555e-01
5.035173735792656258e-01,5.066941973035252733e-01,1.067602041424065007e-02,-3.175674221975167966e-02,-5.554838151751778641e-02,-2.978465762802589775e-02,5.093251466751098633e-01
4.206820927133288479e-01,4.243260412526866920e-01,6.205619753217039847e-03,-1.619897018423143223e-02,-1.487579187300451349e-03,-4.605244028547422113e-04,4.172635376453399658e-01
5.155289595731440411e-01,5.181163647613996615e-01,5.803402974843474560e-02,7.158091250539365402e-03,-2.395642064588634698e-03,2.851637282020166517e-03,4.590069353580474854e-01
3.255989942600612808e-01,5.004495855085271394e-01,1.031965326371048208e-02,-1.643987826883060860e-02,-1.351759111085810802e-05,4.529828093720949904e-03,4.312458038330078125e-01
4.690530356378115329e-01,4.672563591711559328e-01,4.701917242552272613e-02,-1.358113127750495801e-02,-1.700115056686439183e-02,-1.275046631187686311e-02,4.233978390693664551e-01
5.044915112113177447e-01,5.150214446224490317e-01,2.327456602423277898e-02,-7.540619886703917030e-03,-2.148610887848190557e-02,-2.219861251595397350e-02,4.896750748157501221e-01
3.955472177328332450e-01,5.087519928914802092e-01,-6.398636783045030807e-03,6.198006980546891774e-03,-2.223035333802809554e-03,-2.415703190953423160e-03,4.690688252449035645e-01
4.226489196787657776e-01,4.202940760270634790e-01,4.219448595561281490e-03,-1.426414756164316256e-03,-1.777630209134237150e-04,-1.131375407676188816e-03,4.172690510749816895e-01
4.540131580616439955e-01,4.687726466406328951e-01,-3.322873687056565606e-02,2.204817997557382593e-03,7.765812405002628632e-04,8.994163989122545486e-03,4.950485229492187500e-01
5.139173579716942442e-01,3.656462129287804119e-01,-1.017894081681819385e-02,-1.641883336450860806e-02,1.237713655164470773e-02,1.383054305023063632e-02,4.698883593082427979e-01
4.761837674660049924e-01,4.519656596776452373e-01,-3.377601204289859549e-02,-2.076799287817062550e-03,9.447554936632344968e-03,2.872138778377494070e-04,4.985741674900054932e-01
5.220926396299405692e-01,3.383534749104610273e-01,-1.938743055766051215e-02,-2.021468567615074263e-02,1.662469377314030466e-02,2.591651097685229374e-02,4.811857044696807861e-01
4.748633714872099176e-01,4.703125294429038594e-01,-2.860894515772194335e-02,-1.082374540861239139e-02,1.570815382314139780e-02,1.929917021544293523e-02,5.034112930297851562e-01
4.492163667066168542e-01,4.354359950451615058e-01,-1.540882989755165688e-02,-1.008839893679065181e-01,-4.244065635853611074e-02,-5.131092490773740689e-02,5.034863948822021484e-01
4.807684563133995947e-01,4.585900995461305030e-01,-3.395680263597150583e-02,2.079887005296458466e-03,9.581831407990702709e-03,1.740714142060063884e-04,5.042883157730102539e-01
5.454219125317729677e-01,4.266874408974481447e-01,-3.055851816269350429e-02,-3.890213503654251642e-02,3.455991749628565396e-02,4.620041493730523557e-02,5.403603911399841309e-01
4.728883227368281261e-01,4.645959866170531471e-01,-3.357640698255393019e-02,-3.295738535322780341e-03,1.834529415814459274e-02,2.330631642067804848e-02,5.050220489501953125e-01
4.752754974570975177e-01,4.700313923620261791e-01,-3.993676558317860170e-02,7.205736379660938667e-04,3.616239190520736599e-03,1.351789041795598825e-03,5.126554369926452637e-01
4.709750084714090512e-01,4.615914589411650448e-01,-4.018829599160517185e-02,-1.014912453348030749e-03,2.550527537883095185e-03,7.109427383202177866e-04,5.065605044364929199e-01
4.625482997134043872e-01,4.662097875353800602e-01,-4.043261531236991280e-02,1.563104870487910813e-04,2.347036237092107059e-03,4.542338639096546557e-04,5.048386454582214355e-01
4.720287410217048896e-01,4.285396570915874226e-01,-2.018041475240001104e-02,-5.024580621576488909e-03,1.173552525895428869e-02,1.085405932555577472e-03,4.724911451339721680e-01
5.142771963880231612e-01,4.124717240221060788e-01,-1.696017153466172767e-02,7.713641131741514646e-03,1.610856276529818235e-02,3.245680688430952615e-02,4.925565123558044434e-01
5.074456354357708143e-01,3.267380836250325937e-01,-9.847429586201716933e-03,-4.549088023718144552e-02,1.770322017013140764e-02,1.352559128559564089e-02,4.631046056747436523e-01
4.458775247637706829e-01,5.212510095188896964e-01,-4.353634368611802863e-04,7.651887550125028442e-03,-2.405346511139648449e-03,-1.619261369083347876e-02,4.893834292888641357e-01
4.774936307480757147e-01,4.851259232401011756e-01,-2.963466858912422452e-02,2.185107187142120311e-03,-2.483029698779094254e-04,-2.985184541401308001e-03,5.110275745391845703e-01
4.514208083266572080e-01,4.580738064055501213e-01,-3.425666146001837831e-02,-8.831512337090348603e-04,6.025477958265551548e-03,1.051676464669549236e-03,4.891550540924072266e-01
4.537965620904713671e-01,4.594120753993287121e-01,-3.306031824818278508e-02,-5.637932273742275605e-04,1.721284903020731767e-03,5.516504846461039481e-03,4.897920489311218262e-01
4.472001959807193616e-01,4.182777932873950055e-01,5.195344653808886548e-03,-2.775358569115328813e-02,1.258323524028356205e-02,1.113821331864249704e-02,4.319478273391723633e-01
4.744231786388756200e-01,4.851592412098820750e-01,-4.892214283270412967e-03,9.997806404854057971e-03,-3.487211105369444550e-03,-2.867525519639082306e-03,4.851448237895965576e-01
3.387055603666728754e-01,5.206117667016162409e-01,-9.346048541638063423e-03,1.858485666446100561e-03,-4.246770035252723889e-03,-3.937636958135936477e-03,4.665335118770599365e-01
4.802648267079699940e-01,4.816496315117183569e-01,-2.274746252616727249e-02,5.579449647246599413e-03,3.633449670033736794e-03,2.669475776799699039e-04,5.038383603096008301e-01
4.300707605081957041e-01,4.198747234508006798e-01,5.381836770603720677e-03,-2.329907686245086783e-03,-4.266895739095095605e-03,-1.036200837972389103e-03,4.197721183300018311e-01
4.722096381435181289e-01,4.811082262521491626e-01,-2.532750218233814632e-02,-1.632910198286202782e-04,-6.047573003351473277e-03,3.319455106997742065e-03,5.021878480911254883e-01
4.789891574274098285e-01,4.905459795062339090e-01,-3.074961438442408435e-02,5.535972695788603931e-03,4.634839089566788854e-03,3.956742537391305138e-03,5.158115029335021973e-01
4.879295154842407944e-01,4.860371989001285309e-01,4.576196381634312083e-04,-2.062439498019481669e-03,1.661980065487567507e-02,-5.454529753183878608e-03,4.874840080738067627e-01
4.654526184135728273e-01,4.665569958151419838e-01,-2.768185782325405242e-02,9.274110595748219108e-04,-4.309760061729352252e-04,3.332501537762473307e-03,4.937245249748229980e-01
4.551179047577480485e-01,4.644014029346041905e-01,-2.222467046317788686e-02,7.131541042697160833e-03,3.926854111021235196e-03,-7.179666123258855726e-03,4.824178814888000488e-01
4.636656882283578529e-01,4.641411339850031181e-01,-2.171117256524729422e-02,2.145879485874822856e-03,3.689046771644136254e-03,-7.245253900815151749e-03,4.858331084251403809e-01
4.752316036555748191e-01,4.693334704690527714e-01,-3.080582603983333945e-02,-3.617347235757427826e-04,1.916971977831206150e-04,-6.121511878787733174e-04,5.031158924102783203e-01
4.568230504852462959e-01,4.664202228038339948e-01,-2.003343238679045069e-02,1.295494362743926896e-02,1.079636845156046673e-02,-1.231242976199848835e-02,4.830824434757232666e-01
4.733328165881673932e-01,4.661862902021612909e-01,-2.969270145954455709e-02,2.613057995963376953e-05,1.463306748427550341e-03,-1.849688167199780220e-03,4.995073080062866211e-01
4.715441499126588054e-01,4.599977883940149503e-01,-2.736841269469214577e-02,-1.917568829094571780e-03,4.131517105753746387e-04,-4.361315774779014241e-05,4.932524561882019043e-01
4.640336079379328016e-01,4.723398742435275244e-01,-2.704719992862258948e-02,-4.195558940673707604e-04,-3.280668729020668525e-03,6.379065050802675821e-04,4.953205287456512451e-01
4.206906841224616889e-01,4.185004531285919649e-01,-6.108194656178084214e-02,1.998354610226520667e-01,2.887998809439896661e-02,-1.735885003277412575e-02,5.952001810073852539e-01
4.743815060219384594e-01,4.700130032488280540e-01,-2.820698490423795279e-02,5.844100173758038632e-04,-4.921771307914357338e-03,5.414328784479404089e-05,5.004921555519104004e-01
4.671139612256631768e-01,4.580495894414400304e-01,-2.418664685317734042e-02,4.858940420642365410e-04,2.989679567712282861e-03,-2.371606188770645444e-03,4.868773221969604492e-01
4.816069441290686259e-01,4.690980366600049356e-01,-2.873630987866160336e-02,4.470509859579604550e-04,2.237427453351486725e-03,-1.625961599109842235e-03,5.042285323143005371e-01
4.739421026120691494e-01,4.760324133848827244e-01,5.215427355895790873e-02,7.821309545509125966e-03,3.770681438132483104e-03,5.015334716157183667e-03,4.231933951377868652e-01
4.763989929289095260e-01,4.793555296455273562e-01,-2.674809908743236431e-02,6.144334939129820344e-03,-5.581387444970860659e-03,5.275088528148268868e-03,5.049192905426025391e-01
4.775588466616901284e-01,4.806247810381272245e-01,-7.308508612196396026e-03,-1.863568726430722558e-03,-2.554741912401986993e-03,1.762868951853631622e-03,4.864479899406433105e-01
4.589121035919040414e-01,4.370319888708158462e-01,-8.773891641794651086e-03,2.984696965619394130e-03,-6.820721722837136576e-03,4.049367906984468763e-04,4.573211967945098877e-01
5.020227870953679616e-01,4.362374928002296093e-01,-2.240060940698979097e-02,4.918272522009366730e-03,-1.000488706567659834e-02,-3.088235308212468506e-03,4.952269494533538818e-01
4.800543736464332190e-01,4.674544668934996761e-01,-2.725804511886686932e-02,-2.423581816844812950e-05,1.561213516601837794e-03,-2.229119662405958102e-03,5.011534690856933594e-01
4.771700053307041389e-01,4.634376607234206302e-01,-2.893803799034755375e-02,3.537327328036230607e-04,2.877980047354242957e-03,-2.330579157765085875e-03,4.994250535964965820e-01
4.878720129596040289e-01,4.370039036961145817e-01,-2.291515831610257958e-02,4.240746286493107982e-03,-3.172816500837380860e-03,-3.111455602094653598e-03,4.874643683433532715e-01
4.745937891921625518e-01,4.694940176418109790e-01,-2.921336155198411833e-02,6.823711108552097532e-04,1.752031843991218741e-03,-1.911685725681468032e-03,5.012982487678527832e-01
4.834831043214806723e-01,4.661172632244652836e-01,-3.032437582161578993e-02,2.755125411158016683e-03,2.695998837986638211e-03,-3.332194189509788632e-03,5.054254531860351562e-01
4.792343376223537899e-01,4.630153421688351645e-01,-2.888451585168738678e-02,8.341375694078500668e-04,2.617643197145470314e-03,-2.203764114671605528e-03,5.002437829971313477e-01
4.821417301560589896e-01,4.600569890945322427e-01,-2.889258758997420573e-02,8.665857621430315310e-04,2.165203047441290572e-03,-1.753547139176101898e-03,5.003831386566162109e-01
4.865170538602679451e-01,4.552489033532923224e-01,-2.592729352969352918e-02,6.676991652666259755e-03,5.037491944652422102e-03,-5.298812121943587139e-03,4.978431761264801025e-01
4.826294301284371757e-01,4.513109185720610705e-01,-2.566992605089440938e-02,2.819853548176001783e-05,6.797851505889464588e-03,1.435194378480956904e-04,4.935266971588134766e-01
4.757231810839948061e-01,4.785606848692904869e-01,-3.188538689063880049e-02,5.801799974242898006e-03,3.776634213659005052e-03,2.826241519310991948e-04,5.091747045516967773e-01
4.907436230611359473e-01,4.205174071973942773e-01,-3.184266202286473169e-02,-4.509016201563216877e-03,8.040537215441390800e-03,5.592246687515752598e-04,4.915127456188201904e-01
4.710337126831216081e-01,4.720916789581146578e-01,-4.175861467977104446e-02,2.065330969881284864e-03,3.158951976267145804e-03,2.893456208350858681e-03,5.133882164955139160e-01
4.547068452924279969e-01,5.157367448007673660e-01,1.482400947579842754e-03,7.338660624761096478e-03,-1.107472648461825846e-04,1.796125923480816969e-02,4.877773225307464600e-01
4.191027758092129019e-01,4.281924811906869799e-01,6.601840700640793091e-03,-1.372434357214464672e-03,5.471131420940004162e-04,2.379037493382112154e-03,4.171482622623443604e-01
4.742312188565402375e-01,4.851112014291505403e-01,-2.291031151910671859e-02,5.545285633142538889e-03,5.841229903462231976e-03,-2.221548573200419260e-03,5.028780698776245117e-01
4.892093503607614080e-01,3.778342094873228252e-01,-8.034639512777552728e-03,-8.852624881185157391e-02,2.386229567722656514e-02,2.761946575195689188e-02,4.814382791519165039e-01
4.615326983752077172e-01,4.816488270424491569e-01,-3.113101245050864385e-02,-5.002706775285959773e-04,8.926283186463995420e-03,5.133746777095625491e-03,5.033403635025024414e-01
4.749951162647265135e-01,4.786923865187304727e-01,-2.948343749386933554e-02,5.679087306151312832e-03,7.494396294611233370e-03,7.600915161088767948e-03,5.067701935768127441e-01
4.745476823436612923e-01,4.791479780176854386e-01,-1.205425842828494742e-02,6.760766026380361955e-03,-1.396066838296809200e-03,4.060889433160068396e-03,4.891150891780853271e-01
4.659388445383727539e-01,4.895527799809372693e-01,-2.398749385696535841e-02,-3.570045416957470710e-03,1.611128681139498836e-02,8.426210077342091015e-03,5.031744241714477539e-01
4.765401791419648925e-01,4.812307568261760538e-01,-2.764194443755507713e-02,1.203339528915720567e-03,-3.095300157612371227e-04,2.873771511943793138e-03,5.065727233886718750e-01
4.736300240778474335e-01,4.852025181625884143e-01,-2.916455117728383728e-02,4.640073042842930359e-03,1.049949070184269702e-02,7.994762994905587478e-03,5.092563033103942871e-01
4.646968796496204757e-01,4.822932467210593876e-01,-3.408566645808447371e-02,1.073769883767261655e-03,9.616969616611889538e-03,1.285905499916695574e-02,5.085738897323608398e-01
4.065435613103939305e-01,4.416082751556105190e-01,4.556653818528710875e-03,-7.722545135102262641e-03,-2.333590799818693938e-04,-3.597938856624098222e-03,4.208758473396301270e-01
4.732215450223405950e-01,4.781910413766902179e-01,-3.499869699069779738e-02,9.024358109954907494e-04,8.917706884021643285e-04,2.352691928983198164e-03,5.107440948486328125e-01
4.684260362571400771e-01,4.616562249933023887e-01,-3.296907832636275515e-02,2.271227485732109982e-04,5.781164687901759087e-03,1.095551544806214845e-03,4.981491267681121826e-01
4.531424177774622253e-01,5.634865071403202252e-01,-2.889519779919513809e-02,4.108684437970001185e-02,-1.526046056454535317e-02,-3.144949449347670799e-03,5.509253740310668945e-01
4.394789321100729396e-01,3.871924061791930383e-01,4.582105460045393652e-03,-1.799585278553260045e-02,-7.410491776828252719e-03,-5.440764306377938704e-04,4.126343131065368652e-01
4.028853559362863823e-01,4.388466992728287663e-01,9.721051606186303928e-03,-6.241963066149608039e-03,1.027926043619072733e-03,4.024622185014813634e-03,4.125272631645202637e-01
4.577680818973637877e-01,5.121561658948754481e-01,-2.104844044639608835e-02,4.107338178262194377e-03,-1.419268230828794539e-02,-9.921076068071186735e-03,5.091320276260375977e-01
1.560708338906936499e-01,5.987952085345538134e-01,-1.587057893169541156e-02,1.034970774487513623e-01,-3.797396427495152577e-02,2.041468042229083527e-02,5.825827717781066895e-01
4.622605671446645692e-01,3.713795585838746693e-01,-1.111135585811995341e-03,-1.506059341163952514e-02,1.454694473095967042e-02,1.238739546669071975e-03,4.268265664577484131e-01
3.507552630995162124e-01,5.970734783053308625e-01,-1.827409922872191839e-02,6.990387526347476010e-02,-3.256515946712898457e-02,1.033997314863898016e-02,5.530965924263000488e-01
6.250878503238490591e-01,2.923381087467846196e-01,-4.806587146761076568e-03,5.980301423060869342e-02,3.493303285750538889e-02,-5.194275888647686967e-02,5.660181045532226562e-01
4.031594644827576346e-01,4.990723848304056132e-01,-2.506432785188655865e-02,-1.139607310062458294e-03,2.441191382561405405e-03,2.716395108407734099e-03,4.834159910678863525e-01
4.561758629951797595e-01,4.301951829762877821e-01,-1.701481292234130471e-03,5.008440463514131011e-03,-8.180858591629671522e-03,6.791503067962544396e-03,4.459204971790313721e-01
2.806925925288534795e-01,6.212518891387857067e-01,-1.955696415432961466e-02,1.913266982128144500e-01,-4.190745737786866904e-02,-7.782309561514734290e-03,6.508850455284118652e-01
3.031840575154081119e-01,6.956584209908174277e-01,3.004829725270413698e-02,1.193950339675823313e-01,-1.015241985815123621e-01,-3.375009659251448219e-02,6.426058411598205566e-01
4.997522981329645120e-01,3.687180624322795586e-01,-1.072188319029215853e-02,3.014302734035407758e-02,-6.267877620681364635e-03,1.749819169028500251e-02,4.632779955863952637e-01
4.761836901880377448e-01,4.858675040811940571e-01,-5.771594083460895863e-03,3.701778482019502624e-04,-1.982184341234407166e-03,9.684542144293166368e-04,4.868848323822021484e-01
4.514817114357528860e-01,4.493658472691660632e-01,-8.348889298651795965e-03,6.772879477982081311e-04,-4.824850525331689059e-03,5.833784623859745175e-04,4.588550329208374023e-01
4.509183320659738703e-01,4.615228599958706157e-01,-1.869384105297700049e-02,-1.233805216577503689e-03,-9.427410840226867358e-05,8.918770498762165592e-04,4.750105738639831543e-01
3.000667204686506828e-01,5.480168172471231447e-01,-2.945348568676120493e-03,1.713112033285821983e-02,-1.973219997090095920e-02,-5.352433135844357655e-03,4.801686108112335205e-01
2.154068482017883202e-01,5.883716357746546777e-01,1.056794648211756282e-02,3.714291028731251960e-03,-7.112880650660163839e-02,1.886124176841403374e-03,5.221967101097106934e-01
4.132658149085519650e-01,4.698359527819613857e-01,-2.061828840256441087e-02,-2.596750382126352188e-02,-1.575496221146470421e-02,-1.440752417726046640e-02,4.683917164802551270e-01
3.265530026607540437e-01,5.181695995780203345e-01,1.198180305479523700e-03,7.926629147621754370e-03,3.091583434230132092e-05,1.058209287967111674e-02,4.532554447650909424e-01
4.180878267448470131e-01,3.878133232172376599e-01,-1.773575462977222683e-02,-1.056907308393293804e-01,-2.650632224570763015e-02,-2.397593950044681413e-02,4.636898636817932129e-01
4.496431310553366534e-01,4.733008080127568684e-01,-1.840093909169338016e-02,8.137620944019072905e-04,-7.081385943247078037e-04,5.161385746488490918e-03,4.803968966007232666e-01
4.569048133328826866e-01,4.162420320742719615e-01,2.580757758438023686e-03,1.190917079249410523e-02,-6.994649728015266263e-04,9.635991728796739972e-04,4.359122216701507568e-01
4.210605068061230583e-01,4.546111066174675086e-01,3.391055878605719887e-03,8.674195916117451860e-03,1.358506063782239466e-03,-7.635261156358722368e-04,4.356827735900878906e-01
4.605367724895831905e-01,4.766693928263571189e-01,-3.559417862456382142e-02,1.143916681065273869e-03,-2.217160520354098056e-03,-5.083699799970877418e-03,5.044861435890197754e-01
4.533746680708010679e-01,4.757895839124948179e-01,-3.686089252129626237e-02,8.735309225952872698e-05,-3.831666334322168539e-03,-6.177922799195315583e-03,5.019766092300415039e-01
4.534163349578350100e-01,4.718682679109560407e-01,-3.718427427845671929e-02,-1.603010055335763080e-03,-2.241421572450648901e-03,-3.995580212720463084e-03,5.001525878906250000e-01
4.731491084556359583e-01,4.479332684795324648e-01,-3.171965003001858685e-02,-3.809138693415504810e-03,-9.182186109502438534e-03,-7.503828133768387573e-03,4.932169914245605469e-01
4.742082535647992314e-01,4.489818559220848937e-01,-2.012739954400821762e-02,3.031270590276741086e-03,-9.313187384437544847e-03,-1.339096695965577392e-03,4.825214445590972900e-01
4.573379873987960531e-01,4.602860254692933695e-01,-3.631296370028286313e-02,-9.837220156513446986e-03,-1.323572784636796148e-03,-1.925389874350260169e-03,4.954411685466766357e-01
4.828340374493257925e-01,4.764567228095759610e-01,-2.666697378010118857e-02,6.217930401667679571e-04,-3.142826640526902391e-03,-1.647027452719851751e-03,5.063809156417846680e-01
4.612238567829590741e-01,4.704255453982642554e-01,-3.283000793006990436e-02,-2.497310303800342503e-03,-4.650931029876028376e-03,-6.982943137813499464e-03,4.989488124847412109e-01
4.927056397037024582e-01,4.203623958837523489e-01,-2.447944253549166893e-02,-2.460243277974852316e-03,1.318993294729924916e-02,2.507618047014012561e-03,4.856522083282470703e-01
4.556551161030366615e-01,4.647437352822964551e-01,-3.359047542545140486e-02,-6.048996314575724904e-03,-7.403598453255516403e-03,-5.680498162964026793e-03,4.942281246185302734e-01
5.252454322519889418e-01,3.836552247568234542e-01,-1.646793117127109962e-02,2.890154151800770552e-02,1.287705901698545574e-03,1.071925236003339575e-02,4.895461499691009521e-01
4.537300161754770911e-01,4.455213496627857817e-01,-2.562893280796424422e-02,-2.534865694516129711e-02,-1.641573668606222808e-02,-1.486017991856537768e-02,4.788695573806762695e-01
4.308259937048726229e-01,4.280878799333646123e-01,-8.190236417479568320e-03,-2.351477829736438666e-03,-1.542366065451270148e-03,-6.575457220034658726e-03,4.378288686275482178e-01
4.621440546367442392e-01,4.606951366932051650e-01,-3.867380761653554933e-02,4.599236535560768865e-05,-1.472589255942372824e-03,-2.811248488571465752e-04,5.001017451286315918e-01
4.905645705487532426e-01,4.204654751394472090e-01,-2.203009194370986190e-02,-3.096094788178372151e-03,1.299566810498438418e-02,1.804893182320324542e-03,4.819543063640594482e-01
4.755051968638316362e-01,4.713733773824501649e-01,7.618263740875930168e-02,2.844017351450711748e-03,1.305596129985328591e-02,-3.356025004833050954e-03,3.979887962341308594e-01
4.552579813125070540e-01,4.672488987671513105e-01,-3.753602403184136405e-02,-9.881595112198936302e-04,-2.394824350327238397e-03,-4.968671596531863861e-03,4.989919364452362061e-01
4.123774525565184201e-01,4.385599416995009658e-01,-3.312643238522594569e-03,-6.095300277214886139e-03,1.295243681049721243e-04,7.111791549188944440e-03,4.296868741512298584e-01
4.456541616775743231e-01,4.434203708871407579e-01,-4.439947857480586180e-03,1.048884558510717116e-02,-3.335161810536508686e-03,4.705259593385090026e-03,4.494597911834716797e-01
4.667062271693666053e-01,4.288484202641746901e-01,-2.287386079953185325e-02,-5.763672306360077997e-03,1.558448842904132034e-02,1.383044628226556653e-03,4.726748168468475342e-01
4.714435667020849818e-01,4.795327036437346813e-01,-3.790570410156796077e-02,1.994621854236327749e-03,4.288439578136419715e-04,1.807566071519419110e-03,5.134633183479309082e-01
4.416924109314385172e-01,4.388831605514997847e-01,-3.689097293173182468e-03,8.339371819309708556e-03,-3.829221301907112865e-03,4.349087513211003821e-03,4.443318247795104980e-01
4.209115314708819500e-01,4.576540018096031393e-01,3.143171291744961682e-03,4.088215732555333659e-02,1.007941852654923058e-03,5.121329026952429857e-03,4.430869519710540771e-01
4.714136847515217332e-01,4.795187237630036958e-01,-3.521675352382724888e-02,-1.237961260129225006e-04,-5.067663065249218383e-05,7.097132965208447809e-03,5.108791589736938477e-01
4.354499676584887569e-01,4.421714494327005918e-01,2.452023677266934598e-03,1.768865614782979059e-02,1.760782457359626695e-04,1.591032382905044514e-03,4.374804496765136719e-01
3.992802215163041013e-01,4.613856081603271986e-01,-6.360128637964368448e-03,2.370847450461973163e-02,-2.307558131485310839e-03,6.861818236898100526e-03,4.420827031135559082e-01
4.383761446603735568e-01,4.412852313004946847e-01,-1.921129887960326688e-02,-1.906325779683457067e-03,7.557174285735706633e-03,1.204156870754124900e-03,4.592520892620086670e-01
4.002365926816363051e-01,4.598719392139825057e-01,-2.546724667191746505e-04,2.108895488030954751e-02,5.740654872159576963e-04,4.174702122568003243e-03,4.349949061870574951e-01
4.323382127446455114e-01,4.447115977898469796e-01,9.811584075059553989e-04,7.195382399798392475e-03,1.369185344302676841e-03,1.792110558241400775e-03,4.378697574138641357e-01
5.718215433626214761e-01,3.289030729354547322e-01,-2.392553132623365109e-02,-2.372135846192817074e-02,5.056834044822038771e-02,8.211695249337179481e-02,5.466215610504150391e-01
4.714733670262317711e-01,4.782802705180837499e-01,-3.357113176247555897e-02,1.910186718929392929e-03,7.039746821008601753e-04,3.334772212368278081e-03,5.085271596908569336e-01
4.393801834939284889e-01,4.624033781311167046e-01,-1.521464827586083146e-03,5.891641345156579251e-02,-2.956884570963086434e-02,7.436940347886778803e-03,4.672018885612487793e-01
4.548722792323791619e-01,4.751837814033484930e-01,-2.430074492281281140e-02,3.688231850173902954e-02,4.670505373139953106e-03,-3.807192366605844681e-03,4.939047694206237793e-01
4.468941759007049597e-01,4.421420683498579196e-01,-2.328788821586652569e-02,-1.254796274492747318e-02,1.100329344011400333e-02,1.097420867860483297e-02,4.691015481948852539e-01
4.235702584009070626e-01,4.279949406938903245e-01,3.600127235521499713e-03,-1.683754881792155116e-03,2.076678594345339642e-03,2.007192676677642829e-03,4.222395718097686768e-01
4.851431057998429885e-01,4.615222038940413052e-01,-3.193974321599313271e-02,-7.498115298362097040e-04,-1.410536875257334703e-03,-3.492040907470780019e-03,5.057300329208374023e-01
4.789109809182625632e-01,4.649325581818590791e-01,-1.662241875786307777e-02,-5.557595911134669475e-04,-1.280994753166235251e-03,2.013737653259324491e-03,4.887125790119171143e-01
4.982773899324292044e-01,3.975123202563434210e-01,-1.275578800860377449e-03,-2.841363886657233967e-02,-1.853133602544406941e-02,-2.712043241881569380e-02,4.637112021446228027e-01
2.515783872042339775e-01,6.757465585491382321e-01,1.524798780336122928e-02,-5.952561574137035100e-02,-6.849218481234543854e-02,3.270943495225777279e-06,6.005979776382446289e-01
4.553738277383037603e-01,5.069056946162319166e-01,8.503546511631543403e-03,4.983907014996768678e-03,-8.397209123922336899e-03,-7.928343250529976127e-03,4.752381145954132080e-01
3.587355263166947528e-01,5.798337996019169438e-01,-1.828226839938279502e-02,1.382864387915330555e-02,-3.286542756090170964e-02,3.018903285801690338e-03,5.274716019630432129e-01
4.423355628990724986e-01,4.393567324719825917e-01,1.324485877536585310e-03,3.409069849370869026e-03,-1.516318892735218872e-03,5.910005327299061410e-04,4.395779371261596680e-01
4.781587504227888807e-01,4.785415526565290900e-01,-2.144324803625896614e-02,4.119902770014051077e-05,-4.479065980326030379e-03,-8.021837678504537255e-04,4.998556673526763916e-01
4.420855536372401695e-01,5.098486033817016816e-01,-2.680907915436542277e-02,1.859316219920557900e-02,4.595124000118063629e-02,2.656643821772475787e-03,5.134399533271789551e-01
4.479223275823620565e-01,4.540911013085224823e-01,-1.254448345119063557e-02,5.097736101848560249e-03,-5.663738779887052266e-03,5.181114728265054717e-03,4.638566374778747559e-01
3.946365079437059165e-01,5.618286974170236814e-01,-2.481288932239450462e-02,-3.306344547969700121e-03,4.321680286824121364e-02,1.742361811652569370e-02,5.296850800514221191e-01
4.787735080079958960e-01,4.708954582861403226e-01,-2.835880854488853631e-02,-1.425234087669593639e-03,1.966999303067977923e-03,-1.617828699974633785e-03,5.032649040222167969e-01
4.340943478289862600e-01,4.416288614130987611e-01,2.694526134617847291e-04,3.312237685623983362e-03,-6.470267161600171211e-04,2.761533756876809100e-03,4.377059638500213623e-01
4.836171499893201497e-01,4.799250853794965188e-01,-1.639231024344406373e-02,5.779657720401011741e-04,3.803616512359656553e-03,-9.361218330588813629e-04,4.982208907604217529e-01
4.785176725799692443e-01,4.746884431306737095e-01,-2.466906612005764776e-02,-2.842628508361571410e-03,1.676070951217818478e-03,-2.183300838472607315e-03,5.013299584388732910e-01
4.807277521078320293e-01,4.735996702729129981e-01,2.109938913820347262e-02,-1.753135787981045985e-04,6.362874245610433167e-03,-2.136783639184143286e-03,4.562543332576751709e-01
4.643966272807453777e-01,4.803086503909653748e-01,1.836472223474772125e-02,8.208618860496674774e-03,1.645840168643891363e-02,-8.306308774832116965e-03,4.555400013923645020e-01
4.500142979202988447e-01,4.668478766795000068e-01,-2.043914651038875041e-02,2.532075652927770829e-03,-1.108917031323031471e-03,9.174167086609051960e-03,4.793794453144073486e-01
4.258759766721077478e-01,4.976255274261653927e-01,-2.506960809693870029e-02,-6.069173841276405065e-04,-8.257759323377040356e-03,-1.974970533019380307e-03,4.909912943840026855e-01
5.537456807016980509e-01,1.980752399793213880e-01,-9.409076874437105609e-02,-2.346293684888429432e-01,4.446177292601728032e-02,4.934271059886980587e-02,7.029685378074645996e-01
5.247565475796575063e-01,3.080707506382394101e-01,-1.429931958204949671e-02,-1.031805739775544795e-01,1.190381804536893434e-02,5.008028812853075953e-03,5.031572580337524414e-01
4.756891083295927691e-01,4.842684876507861169e-01,-2.884329124756723761e-03,1.878686431973967952e-03,-2.167269351678542504e-03,-9.890658921153634795e-04,4.829488694667816162e-01
3.251592139955569172e-01,5.837795362955480183e-01,-3.430331489334759176e-02,-8.698779236715182411e-03,-2.972239575585772231e-02,1.617676944895861824e-03,5.403214097023010254e-01
4.678894081116639070e-01,4.824630174052250142e-01,-2.664784884628373929e-02,2.528025312540245137e-03,-9.224412004103874768e-03,1.216067412025270602e-03,5.022604465484619141e-01
4.163686188894935025e-01,5.029168350852749603e-01,-2.601054974212624327e-02,3.373902166041279488e-03,2.640940767770246292e-03,2.398671383923669826e-04,4.914593398571014404e-01
3.811963990178114381e-01,5.148579930344561184e-01,-7.892941465973191129e-03,4.030403293640153102e-03,9.804106483838350393e-04,5.390367786433287491e-03,4.705327153205871582e-01
4.518089078389072033e-01,4.801383976811683940e-01,-2.898007222868836941e-02,-2.732441392210102019e-03,-6.836992503420830265e-03,-8.816907258880939818e-03,4.959606528282165527e-01
4.215113670641874588e-01,5.166773829737729695e-01,-2.249967966943894337e-02,3.604453011460354017e-03,-2.072820232350982422e-02,-7.936144896633152285e-03,4.999740421772003174e-01
3.248041698976836811e-01,5.693626497565722477e-01,3.310113258275665382e-02,5.271938154774439417e-02,-5.007517738495090298e-02,-7.124298188646769475e-03,4.819240570068359375e-01
4.869724239400796684e-01,4.670715078528384634e-01,-2.959107204870892183e-02,4.158412849636675362e-04,-9.603697343176898589e-04,6.688369425366326795e-03,5.070416927337646484e-01
4.723253052414985165e-01,5.112192032112353735e-01,5.568636193567749748e-02,1.321800174464100690e-02,-7.680734564532749366e-03,-1.148355729368975148e-02,4.386367499828338623e-01
2.897789595302678323e-01,4.510904139472029506e-01,6.910615049632945484e-03,-1.178592794146645639e-01,-1.141800595563919295e-02,-1.391890443495672055e-03,4.401535391807556152e-01
3.157616033393621513e-01,5.253856204315823231e-01,-2.463042294991507619e-02,-1.157320091238849963e-01,8.834700302583842549e-03,9.578886661973561034e-03,5.213965773582458496e-01
3.459193011821489749e-01,4.724414769127957547e-01,9.235095868607601233e-03,-6.838276022545680677e-02,-1.326371538522151368e-03,4.260071163285698262e-04,4.312731921672821045e-01
3.425423747679536834e-01,4.639941003586330881e-01,8.227142771703055413e-03,-3.117036825438088479e-02,-3.329303829283395463e-03,-2.279746881446176061e-03,4.124123752117156982e-01
4.954268419015512848e-01,3.677084329595402545e-01,1.510535241499022518e-04,-1.078560784239868987e-02,1.368317689304909997e-02,1.216357662695229363e-03,4.463959932327270508e-01
5.366200247356096575e-01,3.483795645823368203e-01,-6.410570839252338615e-03,4.371331524596991716e-03,-1.012757002543646914e-03,-2.528194308054964451e-03,4.776776731014251709e-01
4.829782939968479960e-01,3.758418513165567854e-01,-1.178796551039851259e-02,-4.791073368315842962e-02,1.771235118988148671e-02,1.321010131715202526e-02,4.600167274475097656e-01
3.137467859662735892e-01,4.980988003834166955e-01,1.182373217883581074e-02,-1.914732116507470924e-02,7.524388502655649652e-03,5.744968303380683025e-03,4.268161654472351074e-01
2.977257570092029515e-01,5.171217082409602650e-01,1.098368741222288669e-02,-3.435409356153642374e-02,5.104929472094082163e-04,8.440596536837156189e-03,4.438702166080474854e-01
2.462391681235258090e-01,5.375811230699560905e-01,4.770470220292255537e-03,-7.077283169187961742e-02,-9.547976377771209833e-03,-1.457455788721290181e-03,4.783758819103240967e-01
4.717309174507325897e-01,4.020554829542541397e-01,-1.485552619573859978e-02,-9.373495495192766050e-03,2.098308276418189497e-02,1.461674415385921626e-02,4.581957161426544189e-01
5.366680398177217093e-01,3.284584897701439132e-01,-1.057740676290053194e-02,-8.447658201736661654e-02,2.998487894822517846e-02,3.265905148734473545e-02,5.061551928520202637e-01
2.969432257392470298e-01,5.337614562786615613e-01,6.667347639762788436e-03,-3.079127293545735541e-02,-1.514348531175284569e-02,-3.990550531721864282e-03,4.611568450927734375e-01
4.592884179727232397e-01,4.927388923300616286e-01,-9.129237932168077219e-03,-9.254993398653968764e-04,5.704539257314292233e-02,3.469872097141267486e-02,4.995797574520111084e-01
4.436966569812211270e-01,4.142487204576759119e-01,-8.389972977006499022e-04,-9.303218758087239068e-03,1.158624170911029712e-02,2.195514720595013753e-03,4.313528835773468018e-01
4.691647082179015715e-01,4.740982444000520490e-01,-3.318101801913603266e-02,-6.888388102761904301e-04,3.904457705660093793e-03,2.531776733201576181e-03,5.048963427543640137e-01
4.705206301461976048e-01,4.747368223456263636e-01,-2.796258225522990637e-02,1.300770745519630976e-03,2.589859189211675752e-03,-3.252631392831467627e-03,5.006614923477172852e-01
4.691000825369953664e-01,4.845828955560652629e-01,-2.849185552860361570e-02,1.113711684675137851e-03,4.497483303072682438e-03,-3.444735936804004580e-03,5.056101083755493164e-01
4.383005051886003089e-01,4.981353473628065132e-01,-2.321335203644614431e-02,9.195413434407453956e-03,1.161644992492424401e-02,-2.228413614203686444e-03,4.948365986347198486e-01
4.693734573775534824e-01,4.799746099792002729e-01,-2.940882832770852495e-02,3.622994071801017782e-05,5.506262403626269175e-03,-8.785847113997541716e-04,5.042589306831359863e-01
4.996159222902590291e-01,4.084725252808035778e-01,-2.308944773374804749e-02,-9.722288237602863537e-03,5.091710775318647984e-03,-1.981727683650916661e-03,4.840041399002075195e-01
4.163255033494391855e-01,4.308939144841409385e-01,5.104346347704125098e-03,-8.193056254493413099e-03,3.258707602268196696e-03,5.148892705198088691e-03,4.190688431262969971e-01
4.521993913787848429e-01,4.138107155720537333e-01,-1.178326947807561975e-03,-9.023022428376933218e-03,7.703670974530688921e-03,2.212540813470601463e-03,4.359557926654815674e-01
6.291553809471343017e-01,2.172877782362183097e-01,-2.387127596062188495e-02,-1.535242149260319759e-02,9.448244316489074271e-03,6.258113657740330994e-03,5.728966593742370605e-01
5.735033864797869363e-01,1.920406432145699560e-01,-2.070772068819304312e-02,-8.641735629464131208e-02,2.222170749905748657e-02,3.741621492972206642e-02,5.477375984191894531e-01
4.760319882068986819e-01,4.739272713684767324e-01,-3.191468031819905127e-02,4.138999142249425757e-03,6.636397695805579429e-03,5.810440417579703504e-03,5.071784257888793945e-01
4.224647752881862672e-01,4.233766591114902500e-01,5.429527855474458597e-03,-3.358992189187247780e-03,1.758440766556688571e-03,1.557819085613084006e-04,4.175436794757843018e-01
4.137658295864949931e-01,4.741671225406481893e-01,-2.210007596949009612e-02,-2.615749407206793484e-02,1.563503004205791386e-02,2.255349527809435636e-02,4.735675752162933350e-01
4.625510897675849664e-01,3.588906676314480571e-01,1.081443292875777784e-02,-1.755712060661712703e-02,5.395227220441151279e-03,-5.042128401041218785e-04,4.110926091670989990e-01
5.311354500393052902e-01,3.655362760781076248e-01,-1.310648429075123023e-02,-1.584195283956866315e-03,1.268924508163426189e-02,1.453366999348136394e-02,4.843765199184417725e-01
5.542919519373300519e-01,3.390966276016561531e-01,2.694325626942428720e-02,4.641638349544749409e-02,-2.075862924851254801e-02,6.966266798449026465e-02,4.829467535018920898e-01
4.400610475863360183e-01,4.394925784792363954e-01,2.880043358829964539e-04,3.039032179168254123e-03,5.871368664636329498e-05,7.291351817159107693e-04,4.395224452018737793e-01
6.498163188276069313e-01,1.566848084772158867e-01,-9.471104238141531129e-02,-2.399327369551161604e-02,6.589721762848334274e-02,5.665480683424474646e-03,6.672334074974060059e-01
6.114990641807620531e-01,2.771078132633690294e-01,-2.376182690229300398e-02,-6.400447537830989027e-03,2.710975485605126439e-02,2.490021536357236998e-02,5.541985034942626953e-01
4.401345662425678595e-01,4.377627827978655128e-01,1.789226344487360176e-03,2.033675858162170644e-03,1.279038535793959467e-03,1.230542038346950015e-03,4.371892809867858887e-01
4.772846782091341167e-01,4.692081930820822810e-01,-3.014331055756308553e-02,-4.011986142135895114e-04,1.243935969054733859e-03,-6.356792500594102410e-04,5.034446120262145996e-01
5.722654046369815006e-01,1.747715139069930534e-01,-6.460551343009551806e-02,-1.256929787057109449e-01,6.391137784880730754e-02,3.133661562603119038e-02,6.107780337333679199e-01
5.580347252791629797e-01,2.647433922064379441e-01,-7.129324838535344711e-03,4.793790488142719852e-02,-1.756594869936070960e-02,1.271678317024613376e-02,4.979733526706695557e-01
4.475871472586117061e-01,4.630249645546145043e-01,-2.875033673763233155e-02,-1.970089135340085448e-03,5.999523787856361409e-03,9.298982126792563335e-03,4.846321940422058105e-01
4.097499850842327151e-01,4.627257379709511786e-01,-1.071789523975552605e-02,-5.220389705151411847e-03,1.173285108990288449e-02,1.853149346116432158e-02,4.509980678558349609e-01
4.205254715751020056e-01,4.492664844910194133e-01,-1.249298776392643306e-02,-2.612646946810808987e-02,8.625974115062169656e-03,1.038414784305116169e-02,4.509666562080383301e-01
5.238619484314388508e-01,3.370924807079964114e-01,3.003945641507965725e-03,1.254679476576954326e-02,6.013586650252047971e-04,-5.954297622484938917e-04,4.575695991516113281e-01
4.435442352630580842e-01,4.495794626241984004e-01,-1.112727958900339154e-02,-5.528952133174979897e-03,8.479503570016363317e-03,1.072829357052104693e-02,4.584314227104187012e-01
4.789091773094724669e-01,4.682908126826019202e-01,-2.852166565586966573e-02,-8.294081200995454461e-04,1.527226207018518881e-03,-7.053011902602847154e-04,5.022163391113281250e-01
4.268565171409393622e-01,4.507958143971956821e-01,-1.199691826024945618e-02,-2.394230947831493209e-03,5.469272926041951303e-03,1.147279473445534867e-02,4.518551528453826904e-01
4.421330096396964837e-01,4.603073802068468057e-01,-2.972985070083616899e-02,-4.234129354936252802e-03,6.739212777952333262e-03,1.052903099439749662e-02,4.817502498626708984e-01
4.704494065085794707e-01,4.706288742335379971e-01,-3.447546595756106891e-02,-6.885262121812085441e-04,1.184423478834128844e-02,1.208874663755156974e-02,5.058660507202148438e-01
4.705905347404573114e-01,4.708154487554069290e-01,-3.655830029319229180e-02,-5.562864784932205434e-04,2.679281644606224238e-03,3.153132823520017700e-03,5.073128938674926758e-01
4.735969034631326013e-01,4.833367608669705273e-01,2.969871281152691722e-02,1.513564350688032445e-03,-4.214184491533154615e-03,1.029155716816155045e-02,4.492681622505187988e-01
4.613235552990088140e-01,4.756753856595437036e-01,-3.486822667789668539e-02,-2.139779698697732990e-03,5.929227239763365000e-03,8.474826099470412349e-03,5.038533210754394531e-01
4.751574264553884985e-01,4.838260819277220293e-01,-3.563670839958804626e-02,4.762161415599867886e-03,1.012877305244518772e-02,7.907651045909373441e-03,5.157296657562255859e-01
4.706357094929957130e-01,4.789005104694098458e-01,-2.709116580176396116e-02,4.973428561582194166e-03,1.287180933937753791e-02,7.508836127253238832e-03,5.026473402976989746e-01
4.732685322820460172e-01,4.783212057147883112e-01,-2.976923282833271456e-02,4.670934044070598583e-03,4.245186723110882881e-04,4.843473412985683894e-03,5.057178735733032227e-01
4.685906529617895888e-01,4.789894215836789648e-01,-3.481168722822980399e-02,4.167406605102882099e-03,-3.590368546715269333e-04,-4.703692925282638147e-04,5.087336897850036621e-01
4.426380311843101101e-01,4.461996726898647125e-01,-4.844864842656171344e-03,4.456194213131350196e-02,9.770867372209845331e-03,-9.930378466150212302e-03,4.564941823482513428e-01
4.316525982076998558e-01,4.444011259775500489e-01,-1.610286128953603013e-02,9.462712290111151281e-02,1.448861947855141323e-02,-1.246390767003501855e-02,4.840603172779083252e-01
5.325203450817800332e-01,2.882663469038694859e-01,1.015000955812139782e-02,-1.157782915935965523e-02,4.851957715376038413e-03,-1.174946364546677847e-03,4.532291293144226074e-01
4.521385876254241376e-01,3.695067919550039104e-01,-3.962049745833085002e-03,6.631362798778088485e-02,1.520123045306078120e-02,-7.031934436184041244e-03,4.372659027576446533e-01
4.581351206909801688e-01,3.609570510534990673e-01,-2.803899707819856868e-03,7.173756093086795793e-02,5.002786757667809087e-03,-1.507780914577722597e-03,4.389030933380126953e-01
4.340504709522251536e-01,4.648153917219323139e-01,-1.583329263049548796e-02,1.373523867023451403e-02,5.330115296966725369e-03,-1.060624404447695762e-02,4.670879840850830078e-01
4.053792237234071782e-01,4.422519271126352791e-01,6.117203714832819550e-03,-3.628361390583797336e-02,3.653183873662537665e-03,6.270115431734653820e-03,4.237913489341735840e-01
4.626841943353398046e-01,4.214476544587872908e-01,-1.813020432983264429e-02,1.528413650309247765e-02,7.607539449094187153e-03,-5.235025570672503965e-03,4.626148045063018799e-01
4.529770249676454696e-01,4.268445751196295879e-01,-7.746378848812351947e-03,3.822326644333148143e-02,1.210060395328746430e-02,-1.226980650037341400e-02,4.540739059448242188e-01
5.240671466307809112e-01,1.995636436706014483e-01,-1.704676528331883212e-02,-1.823977677026065169e-01,-4.394222389309799387e-03,1.374961148423647786e-03,5.677886009216308594e-01
4.667314034399231426e-01,4.393692669801342876e-01,-1.682117415391159998e-02,2.901327340962473952e-03,7.999840418612926690e-03,-5.635818430746652660e-03,4.708006680011749268e-01
4.639232620972808530e-01,4.439552621404315169e-01,-1.670904128798839094e-02,6.919798448114154732e-03,6.204323803794052454e-03,-6.526928470969846872e-03,4.713765084743499756e-01
4.261997721569884545e-01,4.184836667582803593e-01,-8.412371177093480590e-03,-1.265723757157646012e-01,-1.145888340401335446e-03,-3.097036876712003922e-02,4.863505661487579346e-01
4.207297811785347119e-01,4.127607780114271319e-01,5.580683472451886118e-03,-9.732922687336170373e-03,-1.142787426906831209e-03,-1.667326577260003261e-03,4.115827977657318115e-01
4.609853826810987876e-01,4.717944215910641059e-01,-3.871471192047321042e-02,1.254548205694211904e-04,-1.017940117049176288e-03,-2.528680038348304730e-03,5.052134394645690918e-01
4.622261732514927335e-01,4.682959069342218505e-01,-3.707902483182445863e-02,-1.012199140795248592e-03,4.219794071922782636e-03,6.979591993361023046e-03,5.025691986083984375e-01
4.509587728584501520e-01,4.441402398683809705e-01,-2.190280442997349919e-02,-3.123470309001991681e-03,5.281099807738559235e-03,9.487828286489332491e-03,4.698971509933471680e-01
6.970814599154711022e-01,1.485597545171189471e-01,-7.807175532597382395e-02,-2.289225557639423120e-02,3.051264373928207208e-02,5.196982701964946404e-03,6.935390830039978027e-01
4.117344894421862689e-01,4.255632664368765861e-01,5.912289084623156832e-03,-9.401408151767929808e-03,-1.187307245661573842e-03,-1.043133451611957373e-03,4.132403433322906494e-01
4.585946721845307605e-01,4.484431786450515101e-01,-3.137175720680723812e-02,-3.681434014415245828e-03,9.009694133599137345e-03,5.983305350099592940e-03,4.853739142417907715e-01
4.277541070970345416e-01,4.177811259200360228e-01,5.411483150579321499e-03,-4.379524341044907683e-03,2.480687970806437926e-03,7.729434847702601778e-04,4.175386726856231689e-01
4.615823657142536507e-01,4.461567638989347717e-01,-3.145987834959274032e-02,-2.511733375900508138e-03,1.003811125667694940e-02,5.262916442052499068e-03,4.859294593334197998e-01
4.367968496794220057e-01,4.010845099856860108e-01,1.074543495567892304e-02,-8.308690872753713569e-03,3.919410263070906113e-03,-3.644461675315197849e-04,4.096748530864715576e-01
4.653129035859566720e-01,4.642778791106819680e-01,-4.037897348752261806e-02,-1.162934585774963274e-03,2.698407509424776557e-03,6.202943625776552580e-04,5.052019357681274414e-01
4.616886897637609843e-01,4.445717661793360809e-01,-2.845361675742802410e-02,-2.369249640125854588e-03,1.599988329854934097e-02,8.669641033180696538e-03,4.828592538833618164e-01
4.088238942931800013e-01,4.740046632369053770e-01,-1.839946588520391391e-02,-4.809931918204887052e-02,-3.144103881957764635e-02,-2.836966914784037549e-02,4.763778448104858398e-01
4.401305164662141500e-01,4.009723109265115326e-01,5.304956498494217687e-03,-6.885989979218791468e-03,-7.223935946644111095e-03,-4.389264919490594701e-04,4.169880449771881104e-01
5.103555898914070577e-01,2.869148538199326470e-01,-7.211987618403969957e-02,-2.454083037616743290e-01,-4.876739026731015565e-03,3.202062643824416834e-03,6.631987094879150391e-01
4.329834842044745224e-01,4.750701205640707747e-01,-2.746346973608559949e-02,-5.959898176584094501e-03,8.641084526252725689e-03,1.443045203085883618e-02,4.838559925556182861e-01
4.332047834658362406e-01,4.263027327658288623e-01,-8.329845015879189241e-03,-9.075886076726519258e-03,-6.626453215479528348e-03,-1.806282587405380830e-03,4.385676681995391846e-01
4.560036274411342072e-01,4.624091319303810232e-01,-3.055994711620091397e-02,-2.623510431530367334e-03,8.302997254770462868e-03,7.057974721341601747e-03,4.901823401451110840e-01
4.660544225108078642e-01,4.710466116084798815e-01,-3.686123640999067197e-02,-2.017009681507396415e-04,8.907215149617871489e-03,9.297175487617170137e-03,5.059221386909484863e-01
4.380793732265665374e-01,4.414163869374276850e-01,-2.782460635246675196e-04,2.729321615128594593e-03,6.953517269759646466e-04,-3.493712378973568564e-05,4.400626718997955322e-01
4.733910708222005548e-01,4.745083540695345103e-01,-3.701522787767613787e-02,5.846667043802687008e-03,6.675283655086070196e-03,8.375998287535301942e-03,5.114027857780456543e-01
4.735049455141341346e-01,4.692803705494162925e-01,-3.869725174618476871e-02,1.893533312291403002e-03,2.134241180786653706e-03,4.790716143737263938e-04,5.101276636123657227e-01
4.685505995407688307e-01,4.705434837633832856e-01,-3.739820179466502026e-02,8.037486569764591996e-04,7.521431609053707071e-03,4.610357224717211676e-03,5.071803331375122070e-01
4.729474323733964258e-01,4.577458455952575500e-01,-3.662322158415237672e-02,-2.019315740956016854e-03,1.356378262953032189e-02,1.140976215198061250e-02,5.030922293663024902e-01
3.822552544245612638e-01,4.830529202942557276e-01,1.115501355749670687e-03,-4.341425598568849492e-02,8.829232657999381770e-03,1.470148904165358497e-02,4.476408660411834717e-01
3.103916227625213575e-01,4.579019275968243541e-01,-1.833144694873928282e-02,-1.526752374718237104e-01,2.611771753798540832e-02,9.639008570480597782e-03,5.005621910095214844e-01
3.075025837956484320e-01,5.042133472351618684e-01,-5.835765577453627673e-02,-1.596827618307029850e-01,1.625541572109632030e-02,2.223207768063983902e-02,5.685848593711853027e-01
2.024210016846452187e-01,5.057459742691465809e-01,-2.203653812202915896e-02,-1.799781678219272429e-01,9.226016796315275950e-03,8.315689731194592094e-03,5.550765991210937500e-01
5.176674178136402293e-01,3.475101170474237389e-01,-1.311467838937113717e-02,-5.605037586093438752e-03,5.872875237792831923e-03,1.429671835021656618e-03,4.696493744850158691e-01
3.696088104517074591e-01,4.764930479890430171e-01,5.248164150087053503e-03,-6.071084269351340740e-02,2.267568408954757919e-02,1.584813745677935912e-02,4.432615339756011963e-01
4.380315686801367070e-01,4.291072430783741121e-01,1.205597471724717540e-03,1.279775500744297079e-02,9.728019577208507846e-04,1.323721985739826279e-03,4.330099821090698242e-01
4.730932962487723881e-01,4.499196436195218585e-01,-2.569735730066707857e-02,4.852207273850593985e-03,6.151028069878937930e-03,-5.644481811769389359e-03,4.879037439823150635e-01
4.791448904006168075e-01,4.733924749823649192e-01,-2.941569630489115905e-02,-3.480464377205569251e-04,1.032843857087096910e-03,-2.002361755786030793e-03,5.057243108749389648e-01
3.005295986146482301e-01,4.050904960992638415e-01,-1.316954726580335522e-01,-2.432910302957347337e-01,3.122697062444522789e-02,9.020343808079752529e-03,6.509119868278503418e-01
4.838861567106695349e-01,3.744826570422742917e-01,9.721879592050619578e-05,1.413974628962160959e-02,7.372934547930049681e-03,6.391136796273203143e-04,4.402916729450225830e-01
7.821484251887735883e-01,2.749341907238738170e-01,-8.156269692060236220e-03,9.984368299146138825e-02,2.319148817991762562e-02,-6.659816719901126558e-02,7.251343131065368652e-01
2.999203154979936392e-01,5.494272678298505186e-01,2.399716420884639989e-02,4.359016838555732770e-02,4.587628937142505109e-02,-8.025583868308983071e-03,4.684436917304992676e-01
3.292317161237979795e-01,5.076458825930343366e-01,2.092257523184981594e-03,-1.106412640906348360e-01,1.179450507064542554e-02,1.552288221394179830e-02,4.848534166812896729e-01
4.746457176644394149e-01,4.767668629920960299e-01,-3.879831442009679110e-02,4.879172622861442307e-03,2.377710612554467112e-03,2.990208759736010056e-03,5.146198272705078125e-01
4.741978179223191314e-01,4.787917075019438862e-01,-2.743693504085448209e-02,1.353760858639691542e-03,3.495245067322950722e-03,-2.706316134078540648e-03,5.040110349655151367e-01
4.538192345725773347e-01,4.743842275226013427e-01,-2.603807243509687064e-02,3.393069680304560375e-03,6.631576754841159334e-03,-9.408125013116788726e-03,4.909034669399261475e-01
4.589705919675538537e-01,4.179052437170187040e-01,2.528856409569235630e-03,7.803995775104822542e-03,4.603431245550506853e-03,-9.824293543825995956e-04,4.376421570777893066e-01
4.558519295194548016e-01,4.688672282507229117e-01,-2.502132394721434672e-02,3.580761666548608422e-03,8.059529338335914145e-03,-9.384683780371039924e-03,4.880212545394897461e-01
4.763796312572614600e-01,4.717197320786019055e-01,-3.028262793448605050e-02,-1.612502719556157095e-03,-5.851753029131986412e-05,-1.681551875331203016e-03,5.043646097183227539e-01
5.439639293121780739e-01,3.051767716638608685e-01,2.968704073377625985e-03,-4.045792631337643934e-03,9.341030527565185931e-04,2.743127894170391962e-04,4.696428179740905762e-01
4.817670573991428840e-01,4.745560398995050111e-01,2.664685615147233122e-02,-4.973294745963871685e-05,3.722628889022650488e-05,8.506500679092431766e-03,4.517982006072998047e-01
5.046435852383137632e-01,3.849575181192799178e-01,-9.588939708638333226e-03,3.375119478339314982e-03,1.028702186266230133e-02,1.340496043280253562e-03,4.664444327354431152e-01
4.681913361415440678e-01,4.715229620952382517e-01,-2.264140640508610636e-02,6.270488378077415138e-03,8.005760006679692176e-03,-1.193448107414954960e-02,4.932551980018615723e-01
5.089999717742410557e-01,3.532407161449416244e-01,-1.194986148814819460e-02,-1.090647830210228486e-02,-1.464573571495093917e-03,-3.662217371749049025e-04,4.635413885116577148e-01
5.280645311889817783e-01,4.929704408906556146e-01,2.866107692800268225e-03,4.943073705051727329e-02,-7.448880637598787524e-04,-1.484811525257473223e-02,5.163592696189880371e-01
4.710183505750807909e-01,4.619555582043649578e-01,-3.829276602071179925e-02,-2.591189570802027099e-04,-2.813452505437564338e-03,-1.429053546747595990e-03,5.048705339431762695e-01
4.840754020158130055e-01,4.754455120363263454e-01,-1.460421210961460048e-03,1.062603192437096278e-02,-3.589703352463989930e-03,-9.480160814822278723e-03,4.819506406784057617e-01
4.708767758464429409e-01,4.802403732968610894e-01,-2.711972773028648032e-02,7.230799619759128993e-03,2.873725724624313395e-03,-4.892460452964727743e-03,5.029956698417663574e-01
4.986774147328438822e-01,3.290223068326387779e-01,5.903309742593454423e-03,-1.678500027815247458e-02,-6.224339225591831413e-03,-1.719062115766886462e-03,4.347158074378967285e-01
4.067858072526178148e-01,4.367061998297637748e-01,5.452730775907854710e-03,-9.020779058522492011e-03,3.745301687195809703e-05,-5.492516227599899235e-03,4.174998700618743896e-01
4.624898385142460766e-01,4.038043002548727389e-01,-7.820437086846931951e-03,1.844373503323439370e-02,-1.185080344460657555e-02,1.124712294681203678e-02,4.459334909915924072e-01
4.818174167005663810e-01,3.614720390127181826e-01,-4.151069807231178022e-03,2.871233973222279967e-02,1.210354255528046236e-02,-8.857086642000702725e-03,4.419415593147277832e-01
4.627904747171227573e-01,4.148967633605382677e-01,-8.089147076102476408e-03,1.443996896151768065e-02,8.176815890914779922e-03,-2.783635328129023100e-04,4.497728347778320312e-01
4.323811285149121164e-01,4.224258152008469880e-01,-2.492299379525109160e-04,-1.312229494438132971e-02,-5.714342256555661123e-03,-5.170938637573630967e-03,4.285509586334228516e-01
4.621676296375730741e-01,4.103279435254756358e-01,-4.961962683720344547e-03,1.228709436705917313e-02,6.873367357795579641e-03,-2.011172304071899911e-03,4.441715180873870850e-01
4.761240600536013057e-01,4.719387158782528680e-01,-8.783063152519421379e-03,1.820072956827518311e-03,4.583484156175447440e-04,-6.952279560041675806e-03,4.829891324043273926e-01
4.118314268891334340e-01,4.474331172398307022e-01,-1.197171245888845048e-02,-3.122825017105235884e-02,-2.183629014358582504e-02,-2.337891907001467609e-02,4.494001567363739014e-01
4.442434761069708471e-01,4.290134748760286998e-01,8.598114451931482272e-04,9.548807805666026383e-03,3.455775269467125169e-03,-4.138159599946480060e-04,4.363234639167785645e-01
4.694027723751871273e-01,4.760658465910804216e-01,-4.031953433292900790e-02,1.497072471111007960e-03,1.282663750803644158e-03,2.989241280204214986e-03,5.131237506866455078e-01
4.529227919623928234e-01,3.388826506424705842e-01,-6.460326720954590041e-03,-1.025542041005872984e-01,-2.564046367934345871e-02,-2.259740025244329903e-02,4.546495378017425537e-01
4.723802342913601127e-01,4.442015353951935253e-01,-2.137301627661980508e-02,4.970629667369743515e-03,6.458587243344662138e-03,7.209432971829899534e-04,4.804933071136474609e-01
4.800847592424879462e-01,4.673756659719030537e-01,-2.002387677300182522e-02,3.138679554719120413e-02,1.543589870854501604e-02,-1.671847028363644683e-02,4.984204769134521484e-01
4.392941381472439399e-01,4.199518656860917742e-01,-8.345621631630273374e-03,-4.227154261199136433e-03,-7.448933108784210402e-03,-1.397113233321898218e-03,4.385465085506439209e-01
4.493961560865056271e-01,4.499393851017295942e-01,-1.264040669406579775e-02,1.359498921357806325e-02,5.167818855895063394e-03,-5.568466863082235235e-03,4.630946815013885498e-01
2.862528809896067727e-01,5.407755264608951062e-01,5.313236471076288048e-03,3.315118145038980103e-03,7.119526436137737840e-04,4.333594019876197551e-03,4.640099108219146729e-01
4.632787561289920530e-01,4.752988825541936135e-01,-3.244076259057904199e-02,-3.365250699937592013e-03,4.926251912795189675e-03,6.886196043454497623e-03,5.020856261253356934e-01
4.719393339418241906e-01,4.752146414328607404e-01,-3.768342076300429389e-02,3.577460064171509007e-03,1.822261263284820094e-03,4.405697459380727120e-03,5.113725066184997559e-01
4.754126745866006365e-01,4.675353325944212601e-01,-1.104888867138242858e-02,9.420497994929518878e-03,3.994783033923127234e-04,-9.511249049278427525e-04,4.828501939773559570e-01
4.308154027526323038e-01,4.562911082980770638e-01,-1.970124972683046094e-02,-1.496364553508217760e-02,-8.559512142082970412e-03,-1.259292951726541203e-02,4.652512967586517334e-01
3.381762503962600364e-01,5.194472039348611014e-01,-3.643293871906816417e-03,-7.562950492042189686e-03,-6.423969636544825390e-04,1.414472819269479986e-02,4.609064757823944092e-01
4.751773241668985071e-01,4.691606775853124356e-01,-3.741676659208370559e-02,2.089995250397471294e-03,3.501972886890085575e-03,6.322160936233973440e-04,5.096625089645385742e-01
4.814936282907230636e-01,4.569491099899906095e-01,-3.468470657533162527e-02,-5.137575837378519951e-04,9.620753309571595038e-03,1.025674118263563209e-02,5.049427747726440430e-01
4.742957700709481972e-01,4.491689364501856296e-01,-3.442281907014616005e-02,-5.506269151153020056e-03,-8.129461325424046370e-03,-8.025745221425488116e-03,4.971176385879516602e-01
4.744735923966874047e-01,4.754724834668516698e-01,-1.984557910775869294e-02,5.802923555646207626e-03,4.828011236750794424e-03,-5.601377515846245325e-03,4.950871467590332031e-01
4.778037860794491776e-01,4.697945094841980973e-01,-3.664853370695869694e-02,2.186581978049900125e-03,9.128146440576996937e-03,5.030169790433393351e-03,5.108278989791870117e-01
4.610654867167132687e-01,4.496164341355398664e-01,-2.827004431197499557e-02,-8.791721136060862835e-03,1.620816441721319862e-02,9.720541008252051030e-03,4.850581288337707520e-01
2.688875771875989251e-01,5.511424901623078743e-01,6.354460689088903269e-03,-7.512668744567939545e-03,9.771517965318190363e-03,7.574148735677800962e-03,4.725680947303771973e-01
4.157057991401226782e-01,4.847923884454122812e-01,-1.906888563617986643e-02,1.524709254010534962e-02,1.050620989902695084e-02,-1.130468221801595070e-02,4.746061861515045166e-01
4.833939016098708352e-01,4.676770213483855132e-01,5.024769492550928973e-04,3.477804488001679569e-03,6.676323479869803248e-03,1.665164564020375770e-03,4.754155278205871582e-01
4.823784812266534439e-01,4.684060138418136843e-01,-1.766875568770276406e-02,3.098563516924687875e-03,-4.106985620914297037e-03,-6.968295292802826474e-03,4.934375882148742676e-01
5.064274240630228796e-01,3.972660746254401687e-01,-2.033687510332943260e-02,3.487567053714606125e-03,-4.369004844129661686e-04,-1.483572536522073833e-02,4.822778105735778809e-01
4.769372892871470704e-01,4.678488750960967391e-01,-3.084323945861383587e-02,-3.443422662163843091e-04,1.038913097647185509e-03,2.960878930404699694e-04,5.033016800880432129e-01
4.748144917060277415e-01,4.481646113949308008e-01,-1.989583912192555148e-02,6.657253170077466996e-03,9.971445725995758957e-03,-1.050623417203898000e-02,4.827286601066589355e-01
4.843603535492391199e-01,4.150068950459974149e-01,-9.278014827360903105e-03,7.598706624589892170e-03,7.633338493973866080e-03,-1.550382906961482530e-04,4.632508158683776855e-01
4.753990877093628997e-01,4.681000126145814511e-01,-3.092815194764708675e-02,-7.753600190368456707e-04,6.422591925512726200e-04,2.402126330573685267e-05,5.027204751968383789e-01
4.922197211552553631e-01,4.260304336850324614e-01,-2.158290984771726873e-02,1.133956156708769994e-04,8.284829730427571357e-03,2.097063507666733877e-03,4.843398332595825195e-01
4.243572020431877201e-01,3.520409052851319887e-01,-3.093857587119264174e-02,1.988358506251894919e-01,3.047073020062016427e-02,-2.048380836657544973e-02,5.497725009918212891e-01
5.083967462772992496e-01,3.318359668654710104e-01,-8.613348569704581958e-03,5.125283846732297567e-03,-5.834479439667047832e-04,5.696525635890759345e-04,4.552694261074066162e-01
4.781164236997973438e-01,4.710137540278491741e-01,-2.880513435114817611e-02,-6.864865322114012923e-04,5.471832932808961191e-04,-3.805939574689799158e-03,5.034532546997070312e-01
4.820985634210654402e-01,4.812706757045225325e-01,3.454443646657895384e-02,8.791753364637925131e-03,-5.378460154084729189e-03,-1.142363699128883837e-02,4.479341804981231689e-01
4.763686043956925076e-01,4.710488132980380493e-01,-2.994790751759751624e-02,-1.251580424484910730e-03,8.862937258953746452e-05,-1.457316853239537351e-03,5.036886930465698242e-01
4.780356428782710498e-01,4.636397693871231462e-01,-2.851262312701102752e-02,1.841998269940679149e-04,3.763596478211120137e-03,-3.089473078486328246e-03,4.995772242546081543e-01
4.773564204425725377e-01,4.631328118656602433e-01,-3.620909881053580026e-02,7.287481911477804207e-04,-2.516448512506446258e-03,-1.444305309764438603e-03,5.066300034523010254e-01
4.784620935181564949e-01,4.678710814604126189e-01,-2.745632570167988451e-02,-4.182716792523314179e-04,2.871447768373458238e-03,-2.190249728775098444e-03,5.007465481758117676e-01
4.746669869635657957e-01,4.790338788243264645e-01,4.897069877861814913e-03,1.413576064105902816e-03,-1.267260208067143637e-02,-2.034934173871516191e-02,4.737977981567382812e-01
3.802623393413835928e-01,4.905791874809976028e-01,-8.814873403060252688e-03,-7.938389967027109986e-03,-8.572082700679571838e-04,-1.391389825397739560e-02,4.552413821220397949e-01
5.624268328023563912e-01,1.965238777404848536e-01,-1.009843589214485249e-01,-1.180530895071139202e-01,1.376073134597056470e-02,-1.096305647099007907e-02,6.115500926971435547e-01
4.548407570587028048e-01,4.608917187429493190e-01,-2.212003779703081152e-02,2.003493701316921838e-02,1.324392335865922331e-02,-1.288973323134236411e-02,4.823309183120727539e-01
4.768848768644665670e-01,4.503188328520565387e-01,-3.460154123277614513e-02,6.289274385063325272e-04,-8.097156627798198295e-03,5.574133703531668871e-05,4.989326894283294678e-01
3.963940548713849599e-01,4.658862992030389227e-01,-1.344892560314508989e-02,8.208529440415433809e-02,3.122615398945105536e-02,-2.310123932945688796e-02,4.754172563552856445e-01
4.523746486452192572e-01,4.574484562338531068e-01,-3.412253554516186949e-02,-7.015525477820585718e-04,-1.010336899217099786e-03,-8.531629756658653044e-03,4.892816543579101562e-01
4.735522597990926563e-01,4.439359486858846515e-01,-2.579913377104636751e-02,1.806766983053496520e-02,5.108192630587854617e-03,-1.997016977586707140e-02,4.875387251377105713e-01
4.373684169020981560e-01,4.399137058226270103e-01,-1.401548275088931872e-02,-7.970493795786017096e-04,-3.579813600416043538e-03,-4.843481357674919371e-03,4.527842104434967041e-01
4.580652332864751930e-01,4.629834518074766869e-01,-3.751534930249766919e-02,-4.389302699247067864e-05,-2.009669646897706795e-03,-2.481118975641526808e-03,4.980885982513427734e-01
5.324408843790162660e-01,4.798843491952953233e-01,-5.726619948065558852e-03,2.529401484350075058e-01,3.344533440409972608e-02,-4.861352283035992594e-02,6.829963326454162598e-01
4.622443672070633003e-01,4.654998874826091759e-01,-3.941637535245301471e-02,-3.059782313566964318e-04,-1.003203376371193580e-03,-1.865436528542867506e-03,5.033100247383117676e-01
4.491997561473282663e-01,4.194149006309267902e-01,-9.425369175460385218e-03,-1.612068418936244340e-03,-1.158243833949988352e-02,-1.020580863796389549e-03,4.449465572834014893e-01
4.506480003156880798e-01,4.503869806251633023e-01,-2.683688036131892662e-02,-6.864399152505918462e-04,-4.599468318532804086e-03,-1.892952269814213769e-03,4.774336218833923340e-01
4.379821174456868249e-01,4.748051038037097160e-01,-1.978458314743269941e-02,5.440976530975293046e-02,2.917007538545812045e-02,-1.674638261172075107e-02,4.899366199970245361e-01
4.281175966061520066e-01,4.378673377410479128e-01,-7.827247076989229946e-03,-2.447313774550628068e-03,-1.700546828886151168e-03,-6.915593601719588479e-03,4.410934448242187500e-01
4.387327157479462558e-01,4.433437777271306279e-01,-2.983029699255013156e-05,3.590250800862227355e-03,6.019757973376307436e-04,3.893724488886676359e-04,4.411317408084869385e-01
4.287948089591631096e-01,4.795012440271914644e-01,-1.870490542582947668e-02,9.781448111829267600e-02,1.588053086420948209e-02,-1.887352468399369765e-02,5.060103535652160645e-01
3.811070023915908433e-01,4.816593490033940217e-01,-1.210997524688894877e-02,1.613603484195681170e-01,6.974102602987525268e-02,-1.006777003190525467e-02,5.452304482460021973e-01
5.061752420131954144e-01,3.125378569637106141e-01,8.729251389665237948e-03,1.855152414032825159e-01,6.380044017979796117e-03,-6.335623921420494020e-02,5.513942837715148926e-01
4.793215819303044412e-01,4.786285919653820997e-01,-2.841250245740523095e-02,3.476099000417442846e-04,-9.671567657675430663e-04,3.603049158947323281e-03,5.074294209480285645e-01
4.830992527660626923e-01,4.395614331517756490e-01,-2.124982945752351693e-02,1.706757039862544191e-03,8.328369291503759028e-03,6.406282793850729849e-04,4.842760860919952393e-01
4.473629025419729177e-01,4.746764869198653036e-01,-1.977234631957819344e-02,3.866535761862846619e-03,-9.678134823388252241e-04,-8.240638329898230044e-03,4.816346168518066406e-01
4.777165290136221598e-01,4.792273063432550551e-01,-2.270910866275283047e-02,1.308291663706310885e-03,3.030823503797007673e-04,-4.209578128912114768e-03,5.012411475181579590e-01
4.752516486931818718e-01,4.689352004302359544e-01,-3.068946697133584367e-02,-3.206285034509841832e-04,2.029109830107009630e-04,-5.667652311083702871e-04,5.028140544891357422e-01
4.818766643707098063e-01,4.396206109581126675e-01,-2.019441046127640194e-02,1.844349798380172205e-03,8.384273151849230485e-03,7.567600549702945770e-04,4.825642108917236328e-01
4.794348517097457574e-01,4.768017934403265268e-01,-2.912772300458449370e-02,3.192959663636702220e-04,-1.204495391519027573e-03,-1.109714397574323866e-03,5.072594285011291504e-01
4.919756682433575889e-01,4.703398302943500586e-01,9.259612024746233239e-04,1.551788934948202664e-02,-1.032958611357576162e-02,-4.119388579541989354e-05,4.816805720329284668e-01
4.767820280178146075e-01,4.801139914588437030e-01,-2.632260725348217756e-02,1.148066486030920638e-04,-1.526223488285552996e-03,1.316757685384164784e-03,5.047909617424011230e-01
4.754566345332625898e-01,4.692140541905688300e-01,-2.892197327753298630e-02,-6.151597742847394025e-04,2.537910672703307113e-03,-2.820364509880059732e-03,5.013306736946105957e-01
4.809520217511317197e-01,4.750073017817355026e-01,-2.228277171633041842e-02,1.549515748017766387e-04,3.604372022863663004e-03,-5.982359157956650825e-03,5.004352331161499023e-01
4.725649667665279274e-01,4.821768421447100161e-01,-1.526251384832810754e-03,6.749559387286075199e-04,-1.336421206180547598e-02,2.973924733933044733e-03,4.795576035976409912e-01
4.764110804412549638e-01,4.788092545233345598e-01,-2.643715708469429604e-02,-8.255945434486756246e-04,-1.577692041959404814e-03,1.166136730406777070e-03,5.040650963783264160e-01
4.745880154379228388e-01,4.555454445407278730e-01,-3.700528591027263392e-02,4.766795486011235483e-04,-4.752319142449068674e-03,-2.190061156716287608e-03,5.024251937866210938e-01
5.024093201707177103e-01,4.255045633118047510e-01,-2.371484176792304499e-02,-2.292476078380401017e-03,4.547011630683952220e-03,1.514269431328375522e-03,4.922846555709838867e-01
7.620604091691750570e-01,9.832957130573038995e-02,-3.668528088433092860e-02,7.133182573548942085e-02,2.423849985448454925e-02,-1.985257491135413929e-02,7.527222037315368652e-01
4.788099600938338085e-01,4.717240369697048852e-01,-2.483137838656518381e-02,-1.394871139156232762e-03,1.589409894253315239e-03,-2.043847516894561987e-03,5.001619458198547363e-01
5.472295535353235429e-01,2.730147887444606680e-01,7.194938676637896435e-03,-1.703230371245613092e-02,4.524791251116599966e-03,-1.526867364105226766e-03,4.687049984931945801e-01
4.821913146445159781e-01,4.709831039435647959e-01,1.139555318000027295e-01,6.774108224987050297e-04,-6.880198758739810259e-03,-5.188086759729443158e-03,3.630703687667846680e-01
4.781807679197209726e-01,4.786093035275708063e-01,7.413341290056540966e-02,2.777668069664653017e-03,-6.102530747500399359e-03,8.436868647600208196e-04,4.044311940670013428e-01
4.749214567797227504e-01,4.717114220718944262e-01,8.885677724674451161e-02,6.631402636975218881e-03,1.075961434421025646e-02,-5.601870797162482839e-03,3.852146565914154053e-01
4.835033834041726486e-01,4.709918786691570936e-01,8.771710678542798956e-02,6.652696636448033642e-03,3.234801781552624524e-03,1.133480708722655076e-03,3.898967206478118896e-01
4.811489689960608551e-01,4.740141449214323455e-01,7.441244572543720404e-02,3.794660260676665196e-03,-1.239302529195480083e-02,6.765405057205289494e-03,4.040108621120452881e-01
4.825542868866197210e-01,4.689117911664550387e-01,-2.491849289594932904e-02,-8.073744370077128116e-04,4.420759145717574091e-04,7.153810144889618562e-04,5.007950067520141602e-01
4.860602803401065097e-01,4.447716859809165424e-01,-2.423886352446302794e-02,-3.301967207786215153e-03,-3.865048554869483528e-03,-7.496477592490932707e-03,4.912092685699462891e-01
4.764945935146938649e-01,4.708667518900222504e-01,6.831413929275981234e-02,1.007773212932831525e-03,-2.850022043635394575e-02,-7.968695870001625894e-03,4.086271226406097412e-01
4.765481932239428176e-01,4.756527975580319145e-01,3.381738702262249152e-02,-2.401959908129404093e-03,7.194143090908469186e-03,1.219552463755837514e-02,4.429827630519866943e-01
4.917279480482134590e-01,4.779038284218993238e-01,6.196802114329552635e-02,1.439591359128141075e-02,-1.498287905858534073e-02,-2.086670865178035308e-02,4.260810911655426025e-01
4.822598222043892324e-01,4.650912811352039267e-01,-7.192651917691250674e-03,-1.064348665345451865e-04,2.449562380708983182e-03,7.901355397191819679e-04,4.811187088489532471e-01
4.868928143796402153e-01,4.483816581660189371e-01,-2.976141382141977987e-02,-2.068809994135246792e-03,1.648053380747346863e-03,7.485322620656366562e-04,4.985382854938507080e-01
4.788088619812528313e-01,4.654069249553397514e-01,-1.537561511174523332e-02,5.600964836867475000e-04,-3.200703458365602907e-03,1.261404966415165816e-03,4.876590371131896973e-01
4.979190709066179110e-01,4.125934130662550214e-01,-2.482652149445135903e-02,-3.779978575553769819e-03,3.807904481180590141e-03,2.776728267014162525e-03,4.858490526676177979e-01
4.807309762812199683e-01,4.629167887208603949e-01,-3.413843768962920855e-02,4.951115412628559432e-04,-6.018737994959698367e-05,-1.588115030991649537e-03,5.062056779861450195e-01
4.828269082027322745e-01,4.600836891501014492e-01,-2.398978132754420178e-02,8.920113860047742139e-04,-2.024438362152081693e-03,-4.768464991410281326e-05,4.958512485027313232e-01
4.657748027231239929e-01,4.304766124986640907e-01,-2.261743468602817053e-02,-2.712839292597264002e-03,-1.050778385935741133e-02,-9.805346933041891519e-04,4.721120297908782959e-01
4.779522899279419201e-01,4.788988742508796248e-01,-2.014518432857731467e-02,3.297973900098898244e-03,-1.116380420962336840e-02,-1.109650530748204980e-02,4.993489682674407959e-01
4.818319415567118291e-01,4.489766104096207799e-01,-3.437862337745001273e-02,-1.567094799991579270e-03,-7.709859501174006272e-03,-3.416766440204793741e-04,5.007779598236083984e-01
4.842812941073690314e-01,4.069610185194900698e-01,-2.443937614903851641e-02,-5.410709290974058741e-03,-9.561649690288829759e-03,-1.584127652228990712e-03,4.751950800418853760e-01
4.326675753335671448e-01,4.214068820630336165e-01,-2.735122786875487932e-04,-7.130516135882712138e-03,-5.681835163850244667e-03,-3.398231958785817922e-03,4.277541339397430420e-01
4.582226528342634442e-01,4.578298703127469671e-01,-3.659654229529141212e-02,-1.350015626615171192e-03,-1.666226821707503074e-03,-2.183113427219045711e-03,4.946513175964355469e-01
4.583304394883981336e-01,4.617223023749882360e-01,-3.708845342393507494e-02,-1.626047830585784868e-03,-4.269890911329881494e-03,-2.912572714385685147e-03,4.972120821475982666e-01
4.778629753514073153e-01,4.590163224441229373e-01,-3.749508337009149761e-02,1.148587780372850608e-04,-2.225317440110771271e-03,-1.987022458611662878e-04,5.062127709388732910e-01
4.819345010857368772e-01,4.670890698942093966e-01,-8.230716592922127095e-03,-1.237001546383856721e-03,-3.597903209998310793e-03,5.802325458676873063e-03,4.830631911754608154e-01
4.807792430058639988e-01,4.611678865054283927e-01,-3.221137293262199552e-02,-5.665351067737461584e-04,-4.891415137268502423e-04,6.643366228580831342e-05,5.034731626510620117e-01
4.583979291319352778e-01,4.631086865981192124e-01,-3.825978338769436826e-02,-1.197796286838330101e-03,-2.118314903071615365e-03,-3.684152319538475107e-03,4.990883767604827881e-01
4.582963357406247829e-01,4.350888327691455615e-01,-2.276493668284129690e-02,-3.727430861515040406e-04,-1.047603581131527350e-02,-1.641365235207215782e-03,4.702467918395996094e-01
4.585612433733525783e-01,4.563758305355644640e-01,-3.366625524410599146e-02,-3.335985540906300948e-04,-4.412609028820045805e-03,-9.572395016452975953e-04,4.912010431289672852e-01
4.834730158677642553e-01,4.502202717362233653e-01,-1.410933986486284653e-03,1.391956337828621163e-03,-3.079296215896097470e-03,-6.511360858357019901e-03,4.693143069744110107e-01
4.805987926413000100e-01,4.608274899402062807e-01,-3.197248087462545296e-02,-1.489555514723366135e-04,-1.287775882816320381e-03,-7.958496661774534819e-05,5.029821991920471191e-01
4.282298421244900566e-01,4.720679951999573465e-01,-2.825434017639155693e-02,-9.723891608607398984e-03,-1.617267480843023394e-02,-1.751077408027193472e-02,4.819743037223815918e-01
4.819668370563322535e-01,4.658678889970389037e-01,-3.001504008130634338e-02,7.050274350529844121e-04,2.437375316696220389e-04,-2.265202687888816669e-03,5.041421651840209961e-01
4.108092178997295729e-01,4.080493261959615148e-01,5.198058980811604002e-03,-3.326391483435404972e-02,5.248801191363838825e-03,5.060370088652703900e-03,4.085187017917633057e-01
4.604514624526735433e-01,4.673523531717497237e-01,-3.814861522660617510e-02,-1.402754081142960549e-04,4.067329973545188727e-05,-4.852027498675005011e-03,5.021564960479736328e-01
5.266036016031018230e-01,3.503899878642666166e-01,-7.813508997151386026e-03,-6.916077462193370717e-02,2.349317827572516143e-02,6.539745065315859078e-03,4.884823858737945557e-01
4.645314813465761805e-01,3.333973708324896590e-01,-7.022101241329403720e-03,-8.269036404574658938e-02,2.855181995824215141e-02,3.440271884603140345e-02,4.519198238849639893e-01
4.038414908884981891e-01,4.007236120926654932e-01,-1.604382261861780901e-02,1.889368200897333372e-01,3.857572346155090787e-02,-9.486934470773799102e-03,5.355650186538696289e-01
4.734601526148587425e-01,4.634689543595270633e-01,-2.701863706266049991e-02,1.118408125839083283e-03,-1.516819000686786057e-04,-6.026494522659935592e-04,4.955636858940124512e-01
4.760060886655193002e-01,4.623433840605641332e-01,-2.702430833441393787e-02,-7.878445948997473845e-05,2.906516255782518911e-03,-7.301447723279297266e-05,4.963656663894653320e-01
4.979615527061309610e-01,3.628403352623592593e-01,-1.228724380317197662e-02,1.758471569160807019e-02,1.191368426945684129e-02,-1.643925168001612175e-02,4.602503180503845215e-01
4.212035166704399813e-01,4.959014124623982167e-01,-2.326011692568408229e-02,-1.017919388542586241e-02,6.959542817464885915e-04,3.306313879118625513e-03,4.864907860755920410e-01
4.273571416526417144e-01,5.217177496831798544e-01,-2.687797989666779186e-02,9.076759723098683577e-03,-4.471504858565835544e-02,-3.316461637332553201e-03,5.141729712486267090e-01
4.732213138583510892e-01,4.683538088066969696e-01,-3.105503349105959154e-02,-2.840308491472350060e-04,8.883327306405061369e-04,-1.075951573610405010e-04,5.018629431724548340e-01
4.546091354604321344e-01,4.862274829438771317e-01,-2.869300766988119866e-02,-9.792597643184688776e-04,-6.784493109158324688e-03,-7.143766799022059253e-05,5.000028610229492188e-01
4.512341966793499970e-01,4.837216771181662711e-01,-2.866972802617634430e-02,-1.103855861423691173e-02,-2.043654988220387422e-02,-1.570191741166181848e-02,4.993117749691009521e-01
4.757149191672833122e-01,4.679128193105813738e-01,-3.016406238811614182e-02,-4.786046396481062788e-04,1.274288793771808422e-03,2.205619030568232541e-04,5.020290613174438477e-01
4.896528832825524646e-01,4.307456976899364243e-01,-2.143028789326356653e-02,6.888429444107975821e-03,6.788663423386795577e-03,1.597710909353049474e-03,4.846213459968566895e-01
3.534023989162028423e-01,5.674018585149134264e-01,-1.160144980731059317e-02,-1.270306517999755845e-03,-5.553061232698987965e-02,-3.207127250466702134e-02,5.191105008125305176e-01
4.727983873776099299e-01,4.625296907562509441e-01,-2.748237247344909040e-02,7.656449377830986834e-04,4.618067017918792323e-03,-1.353310500475884515e-04,4.952926933765411377e-01
4.799237553649824406e-01,4.594113844290640403e-01,-2.722851337112069947e-02,-3.027125222929472046e-05,4.663888360204391202e-03,4.444209636832882290e-04,4.972797334194183350e-01
4.879906429152386371e-01,4.297641930342039895e-01,-3.273449387619703499e-02,-3.459518271745048740e-03,1.191654637516556363e-02,1.315601921837122879e-02,4.951829612255096436e-01
4.911544319067986386e-01,4.193189447842854412e-01,-2.676829892752813356e-02,-1.063569431098507906e-04,7.880895954433359343e-03,1.437613898039722012e-02,4.868320524692535400e-01
4.795049927800721923e-01,4.669342429415791473e-01,-2.959076898818235879e-02,-8.248612795934606636e-04,1.200656908822598807e-03,5.475857396432326843e-04,5.029354691505432129e-01
4.829625653490955406e-01,4.602441644625906991e-01,-3.010234094307712160e-02,-1.268292728356715238e-04,8.122294862410385681e-04,1.939891815529790845e-03,5.021045804023742676e-01
4.807520091550838703e-01,4.681738408830469211e-01,-2.699540037966297046e-02,1.329626962417815186e-04,1.387272923546532160e-03,-2.052892908055205419e-03,5.015950202941894531e-01
3.810329000844143166e-01,5.191373747981542497e-01,-2.547843107788866357e-02,-1.707360437452394401e-03,-1.836715585742934240e-02,-7.157488256535788317e-03,4.915687441825866699e-01
4.844072059117618956e-01,4.485298021393298029e-01,-3.088117503868664793e-02,1.924962018623101602e-05,-1.994235373208802422e-03,1.061050338129283050e-03,4.983346164226531982e-01
4.836241024444131731e-01,4.661883402341348015e-01,-2.583606278022076985e-02,1.493469645037303446e-04,-3.147558458177229942e-04,-2.267181999831185783e-03,5.009856820106506348e-01
2.922527550247441264e-01,4.755694860234451760e-01,-1.013442413986515023e-02,-1.477288286637665760e-01,6.108782015486740463e-02,5.518558167431909800e-02,5.160219073295593262e-01
5.068190474392613165e-01,5.351405133223138266e-01,7.299030359889396857e-02,3.762446745421340472e-02,-2.529239359702223702e-02,-9.138628506527871065e-03,4.557549953460693359e-01
5.984392925726357282e-01,5.020682521945014631e-01,5.125365861491165687e-02,2.451553280613103306e-02,6.472059531408459743e-02,8.564600034155564132e-03,5.201500058174133301e-01
5.037926757246692366e-01,4.337980176978393776e-01,-2.384887989590250834e-02,2.519017759706802806e-03,5.036325803049556890e-03,-1.628623719480401522e-02,4.972561001777648926e-01
4.781827296014942164e-01,4.870068338858413171e-01,8.773419478639654656e-02,7.969767137844427710e-03,6.056470298408861419e-03,-1.390039118961034804e-02,3.960473835468292236e-01
4.834162806453237149e-01,4.804741479664140225e-01,6.712581101227582669e-02,5.615367577364613165e-03,1.241675039048300254e-02,4.464057498593940014e-03,4.155701398849487305e-01
4.823750476905609430e-01,4.613454623620516504e-01,-3.182097529985855600e-02,1.008983465684045767e-03,-2.127778600289656453e-04,7.166083387478099477e-04,5.040150880813598633e-01
4.837295575868391651e-01,4.606747491301577124e-01,-3.511964781582177508e-02,1.867320350320991296e-04,-1.202090712687219629e-03,2.488368998158532850e-04,5.077190995216369629e-01
4.958187753373574091e-01,4.478883158793813823e-01,-3.020020795074140896e-02,7.367653808535789368e-04,-2.280275483482622004e-03,1.023382417130820100e-03,5.037869811058044434e-01
4.843834080101831474e-01,4.228181261926443613e-01,-2.191277278649372828e-02,-4.288481655661636333e-03,1.470166683101704203e-02,8.389181072889979104e-04,4.792301654815673828e-01
4.840680350385306308e-01,4.542273094982316461e-01,-3.151025622187458852e-02,-1.093619450877955109e-04,-1.727396656761915001e-03,-4.579288815962930838e-03,5.013961791992187500e-01
4.940655986088661189e-01,5.157353850448732624e-01,4.469234679258016207e-02,1.727741708895548858e-02,8.082684049952061633e-02,1.273539772298953356e-02,4.828299582004547119e-01
5.175991111425776170e-01,5.111472165624959541e-01,7.728088298388213762e-02,3.863249077111717642e-03,-1.989285135141620128e-02,-1.738412485945586491e-02,4.395673573017120361e-01
4.784160167053062018e-01,4.491668568144249196e-01,-3.350008199991211244e-02,-5.841148486279022691e-04,-6.559059227799571637e-03,-5.928677328158371877e-05,4.980668425559997559e-01
4.472683193541295843e-01,4.710588889263883083e-01,-3.094066072927614819e-02,-6.293254403900181392e-03,-7.884408135409861143e-03,-1.162843765112326656e-02,4.912612736225128174e-01
5.354525117478274865e-01,2.754642858073398370e-01,4.603186500809208770e-03,-6.407261389910466794e-03,-1.453145440122109418e-03,-1.189043571018013994e-03,4.599065482616424561e-01
5.727182831787813733e-01,2.394640327776029476e-01,-5.993674318443165117e-03,-2.176810706579811183e-02,1.153263915173924695e-02,-2.709027613225558490e-02,5.070797801017761230e-01
4.701282139637273372e-01,4.591598028665643261e-01,-3.829357418164608395e-02,-9.712708185460442757e-05,-2.461379912588344387e-03,-2.128984775527515685e-04,5.030454993247985840e-01
4.685002617512154521e-01,4.664227215007584748e-01,-3.706620889997697121e-02,-4.745161676810701686e-04,-4.286654384841720108e-03,-3.609484795459990021e-03,5.046249628067016602e-01
5.507805291529346281e-01,3.166627212565747418e-01,4.180006541565806089e-03,1.122335114474855115e-02,9.246603016948844178e-03,9.170627227351769994e-03,4.759212732315063477e-01
5.279960762411093356e-01,2.794308858819088415e-01,-1.549745776534916519e-02,-4.629438821353265565e-02,2.358370240466380399e-02,4.358002969637150142e-02,4.856666028499603271e-01
4.740915135927070145e-01,4.613736591455154801e-01,-3.688385495457030538e-02,2.269178225791399037e-04,-3.423170760133890196e-04,-9.496748077813558717e-04,5.047398209571838379e-01
4.697259706367854504e-01,4.789512961379822631e-01,-3.630302792027084724e-03,-2.495150576262047102e-04,-2.812599354431869966e-03,-2.442165701373852707e-03,4.780794382095336914e-01
4.674152701741788873e-01,4.513115833931408138e-01,-3.406097084035847322e-02,4.247017039494549733e-04,-7.969103556089330784e-03,-1.142855199046883326e-04,4.938149750232696533e-01
4.705848930440679201e-01,4.511337166717758751e-01,-3.494320761830044253e-02,-3.182143662499529319e-04,-9.005842020014838759e-03,-3.416638117610607396e-04,4.963344335556030273e-01
4.597174375824097936e-01,4.569834949027176130e-01,-3.355754335656851994e-02,8.249968650685924297e-04,-4.693143393538254382e-03,-1.069385813533558615e-03,4.919864237308502197e-01
4.633177537018106085e-01,4.545210811045360955e-01,-3.411123804335902676e-02,-2.165975373317170305e-04,-7.620973006193475924e-03,-6.027561931559275322e-04,4.932674169540405273e-01
4.693797357864932795e-01,4.372507694475356033e-01,-3.059887367454289242e-02,-4.062962718463233175e-03,-1.118962660330765323e-02,-6.911702981887414728e-03,4.852994382381439209e-01
4.597277179419788085e-01,4.622581356754799087e-01,-3.701893323496507904e-02,-4.532771306274228636e-04,-3.341199039190342803e-03,-3.821367248743694905e-03,4.980948865413665771e-01
4.653308290010066406e-01,4.622172333164052405e-01,-3.903939363407038510e-02,-1.472680465890001953e-04,-2.156960890768044696e-03,-1.090792607201715708e-03,5.028381347656250000e-01
4.463380495265670267e-01,4.597216086291400772e-01,-2.835845724460556161e-02,4.036043381567765132e-04,-5.765429709026478021e-03,-8.205144629398362574e-03,4.818414747714996338e-01
4.470942045273547105e-01,4.359893245548421836e-01,-4.601193759831145869e-04,1.253715018074259618e-03,2.724746729036619380e-03,-6.863396617106954636e-05,4.421370327472686768e-01
4.737427640942937224e-01,4.588690431204162090e-01,-3.518109388138024318e-02,-1.600060342393978558e-03,-4.627242698918950653e-03,-4.100207260877018582e-03,5.017743110656738281e-01
4.740162573809564295e-01,4.492999096860785802e-01,-3.400000076515291569e-02,1.165577405738892677e-03,-7.890787662119961091e-03,2.577005282229151992e-04,4.963125884532928467e-01
4.551500731905626096e-01,4.830980146171392486e-01,-2.132884744586288628e-02,1.225362878420818745e-03,1.202053055958919592e-02,7.156071370428352882e-03,4.916517734527587891e-01
3.651589908563201980e-01,5.140960670071335059e-01,-1.564329938361985750e-02,-1.443622119344102443e-02,1.595481698431659712e-02,1.916876419409888760e-02,4.758144915103912354e-01
4.865395176620499473e-01,4.104635116364793168e-01,-8.593865005039669214e-03,6.665957678434091156e-03,1.144736903987186166e-02,3.133627927781999388e-04,4.623889923095703125e-01
4.781148599126519017e-01,4.689385200921470931e-01,-2.924641648070280819e-02,-7.790981118894146039e-04,1.557777098482167940e-03,-3.023347459731549067e-04,5.028452277183532715e-01
4.786212290648711454e-01,4.793226177554418266e-01,-2.901208786237446935e-02,-9.607296994076074961e-05,-1.099569820885221020e-03,-6.338827804526832744e-04,5.079891681671142578e-01
3.322359042873437862e-01,5.643130097642724552e-01,-3.061841485801353180e-03,-6.226000572183602172e-02,4.449308515234871864e-02,3.262007397690630528e-02,5.146448612213134766e-01
2.603176550825566649e-01,5.047600417670343731e-01,-6.145466218008821535e-04,-7.398240029331150380e-02,1.089492954709370826e-02,1.489102706337799148e-02,4.572331011295318604e-01
4.766274375735551905e-01,4.728851480496195636e-01,-3.066363051630210945e-02,-7.910319920602597700e-04,6.999397407942378095e-04,-1.086384767168832068e-03,5.054371356964111328e-01
7.623875224283664931e-01,5.053324449916933858e-01,4.606842898963076083e-02,7.412683404071740423e-02,-4.779430700907558865e-03,-1.295693995955644884e-01,6.796870231628417969e-01
4.565600503695228518e-01,4.236053184313806064e-01,-6.448912481837321131e-04,4.652470626145238652e-03,2.990412296677695016e-03,-2.275705833198016865e-04,4.417546987533569336e-01
3.722179116289955347e-01,4.769007922511290798e-01,-1.922365101588086045e-02,-1.377367322936461080e-01,2.070204281988254416e-02,2.215166005203490079e-02,5.146204829216003418e-01
5.491321378060936009e-01,2.998109575676285998e-01,-5.750894929857197635e-03,-3.006628147000801627e-03,1.382245170264687073e-02,1.969214538443895060e-02,4.831933081150054932e-01
5.336457803983857273e-01,4.756366626343356274e-01,1.084138123228193251e-01,1.936271719973139266e-02,-2.287440341592275259e-02,-1.272480895086059924e-02,4.033611118793487549e-01
4.780674842521545065e-01,4.751843739296687241e-01,-1.397720145311165396e-02,-2.586735599599109675e-03,2.757643107787179082e-03,-3.585942714238908851e-03,4.906924962997436523e-01
4.198665609216472028e-01,4.753342528503513575e-01,-1.609053136163346442e-02,-2.375938127893805277e-02,1.989775115788297924e-02,1.899926800414088526e-02,4.704051315784454346e-01
5.154518335016314845e-01,3.624742169943359071e-01,-1.956238116967506935e-02,6.360950525773820079e-03,5.816022955991190409e-03,2.980080820138720360e-02,4.802960455417633057e-01
4.723326822694236538e-01,4.710871170653828655e-01,4.305954722718496885e-02,1.127360741650896073e-03,-2.316163030328534148e-05,-4.802419125996541804e-03,4.287368655204772949e-01
4.762565760432054818e-01,4.634764093461283263e-01,-2.958226734206725883e-02,1.351176819797609945e-03,2.139110018980820010e-03,-1.389590705689792418e-03,4.995963871479034424e-01
4.773456295500232427e-01,4.722750366828505908e-01,-2.851850294059488089e-02,-5.481077522744269310e-04,2.206141012751762324e-03,-4.579219756928495401e-03,5.034258961677551270e-01
4.750064698263521956e-01,4.837118137865228373e-01,-3.016996856161990870e-02,4.795399229091442533e-04,-1.059180963466795989e-03,7.144458934895756962e-04,5.095903873443603516e-01
5.153830557753005248e-01,3.818405252455748800e-01,-2.084107910755234050e-02,1.142011308254469587e-02,1.403688401679448758e-03,6.224951892172291175e-03,4.840192496776580811e-01
4.616629052454990223e-01,4.965171076237329117e-01,-3.080212177560159859e-02,-3.391869171681935208e-03,1.242034368355969412e-04,5.935243336746286224e-04,5.108196735382080078e-01
5.326226593726306469e-01,3.466992875535040985e-01,-5.312711967554784032e-03,1.754273448778739418e-03,3.316991202319432945e-03,-2.267762870763561506e-03,4.732704162597656250e-01
4.758255025994989618e-01,4.789047562101777511e-01,-2.604915603842533622e-02,1.856366673161416935e-03,-8.808832048946073053e-04,1.649516026152848293e-03,5.034420490264892578e-01
5.351558060498780023e-01,3.130649478334280866e-01,1.912801374424899503e-03,-1.646496304001741646e-03,8.497412133893392228e-03,1.261316620066887072e-02,4.646999835968017578e-01
5.546669482445969468e-01,4.243550607372609251e-01,-4.189219470305660664e-02,7.943537490968754014e-03,1.436977063059504886e-02,3.631848905988000614e-02,5.476231575012207031e-01
5.150351042689533809e-01,2.815153843937040490e-01,1.611864913382332620e-03,-5.661896777970439054e-02,9.246819697141197072e-03,8.423877412806439827e-03,4.564284682273864746e-01
7.243615604451654200e-01,5.078603115148683234e-01,6.904860452636074619e-02,1.320508562995584279e-01,-6.559683805645349225e-03,-8.219230465050618439e-02,6.380751132965087891e-01
5.644232255774231932e-01,2.703898077512630338e-01,1.850248556001243827e-05,-6.218395878208299310e-02,8.823746777006778730e-03,1.276167497395011736e-02,5.013753175735473633e-01
5.577262395683706409e-01,3.110798732052453830e-01,-4.585376151279463297e-03,-5.757420715087429447e-02,2.442372867830479646e-02,4.606455996657263241e-02,5.063955187797546387e-01
4.854241233012104306e-01,4.620682015925432484e-01,-2.970611671108097651e-02,-2.683821083449080842e-04,9.274026356212724349e-04,7.604100250840571109e-04,5.038629174232482910e-01
6.185252495620219282e-01,1.771372704009159249e-01,-2.605311326539583305e-02,-1.923109059795078402e-01,2.015879055589407318e-02,-5.544728594735984055e-03,6.618589758872985840e-01
4.457146983842009136e-01,4.464225416557840997e-01,-1.580835029610028197e-02,-1.493021076414933167e-02,-1.127603400936648924e-02,-7.128693009459534033e-03,4.631774425506591797e-01
5.219447485267434406e-01,5.783517854553158477e-01,5.950304956592955552e-02,-1.141174456489325584e-01,-8.669886948007297922e-02,-6.860156783157000948e-02,5.646733641624450684e-01
4.480151989174890881e-01,4.185243509638927328e-01,-3.498030336108404192e-03,-2.689172309331388025e-02,-1.223618575977277953e-02,-1.559520652912074062e-02,4.413237869739532471e-01
4.732516821388690342e-01,4.836337524323085502e-01,-3.308428999275081495e-02,9.931013587402613783e-04,-6.689386511647998131e-04,1.993072593232886238e-03,5.116218924522399902e-01
4.770293648853339286e-01,4.795310825166669288e-01,-2.910754293721312669e-02,1.092813922526308153e-03,-9.384945261214967414e-04,-8.707220137319901434e-04,5.074007511138916016e-01
4.834459939615720625e-01,4.736780797056327486e-01,-1.589097679416823228e-02,2.389738447304273891e-04,4.108892541860088322e-03,1.408270280736753817e-03,4.945827722549438477e-01
4.754722647411733227e-01,4.804722806294290383e-01,-2.800611149713183590e-02,2.224475514649756902e-03,6.826014034942729522e-04,1.954243333010518505e-03,5.060243010520935059e-01
4.299188729489767380e-01,4.077239653796622676e-01,-4.118460879605212455e-04,-1.457147310479839017e-02,-7.689149720158320288e-03,-5.435761206360423432e-03,4.207481145858764648e-01
4.809402902584801742e-01,4.794008657995205147e-01,-2.037031397015398593e-02,6.836605583932646099e-03,4.357195969862113702e-03,2.850838241308997160e-03,5.007639527320861816e-01
4.291419732593596548e-01,4.861463166249984091e-01,-2.956544709644909341e-02,-3.565449907968719356e-03,1.157211626157404055e-02,1.536120326897292936e-02,4.908748269081115723e-01
7.363646153505440939e-01,1.981517195393963648e-01,-4.799277671625246100e-03,7.463318564427445789e-02,-1.618980990203971321e-02,3.641177350347644254e-02,6.793873906135559082e-01
4.734701524594875921e-01,4.794624751469186430e-01,-3.056601995929109084e-02,6.501252400989438601e-04,-4.603564414438085181e-04,1.295439079859114122e-03,5.070657134056091309e-01
4.694824767806241583e-01,4.770060827156726857e-01,-3.853453457144739858e-02,1.675426159334889725e-03,2.393402897828818439e-03,3.801294786147154953e-03,5.118876695632934570e-01
4.395022679471329852e-01,3.941560865956311166e-01,-1.171101249462846994e-03,-2.200513337237139030e-02,-9.525049245418285362e-03,2.010544387534690726e-05,4.218901395797729492e-01
4.321359785496803330e-01,4.253814273226759202e-01,-5.184112122336714812e-04,-8.915943184384444303e-03,-6.958603652130536041e-03,-3.592223090122479215e-03,4.298087060451507568e-01
4.397769444206464651e-01,4.571551323499055686e-01,-2.749919034954945163e-02,-7.119530253865959286e-03,-4.243096923359681270e-03,-9.818361641883145002e-03,4.767228364944458008e-01
3.510723347256635707e-01,4.941904642481701471e-01,-1.430563184393152110e-02,-5.378055103641186940e-02,-4.141351868697933092e-02,-2.836143000088943780e-02,4.717112183570861816e-01
4.667960315544334993e-01,4.773684578262624711e-01,-4.041027523231405238e-02,1.602552074394167402e-03,-4.547595645870505603e-04,4.229900081156370666e-03,5.126347541809082031e-01
4.758063614743724412e-01,4.781821403253515568e-01,-3.482366727341296153e-02,3.154856526224998192e-03,1.857509787620317734e-03,2.254616309494608412e-03,5.118762254714965820e-01
4.753222659842247233e-01,4.671878871853135662e-01,-3.955897867413871172e-02,8.847506855852795308e-04,3.733662395311625019e-03,2.163789914172908814e-04,5.109059810638427734e-01
4.606621817963149068e-01,4.621239987740221045e-01,-3.410337966995768966e-02,-2.459136927411727062e-03,9.951080400511807048e-03,1.305171279805059049e-03,4.958212077617645264e-01
5.341370362371248293e-01,4.793649130742804187e-01,-2.752870904739218583e-02,6.302179619427496216e-02,-2.281183061445653248e-02,2.476712284503481895e-02,5.504737496376037598e-01
4.543761054441969316e-01,4.738264718458867764e-01,-3.288848349226797252e-02,-5.399884943837891501e-04,7.276386314124907214e-04,9.036220690763593216e-03,4.975238740444183350e-01
4.089940707207489479e-01,4.693781778447880249e-01,-1.629729948766645009e-02,-6.405013400670397233e-03,2.685161652216616363e-03,1.594471281880101982e-02,4.594640731811523438e-01
4.708942173990388058e-01,4.769930910439585947e-01,-3.886930497136081852e-02,2.401099103324687203e-03,2.306102321525113803e-03,3.429047003305489300e-03,5.129069685935974121e-01
4.667350460869156281e-01,4.690052214057517377e-01,-3.700817759420371722e-02,8.624976236953869413e-04,4.674499147986398671e-03,7.203757898907617481e-03,5.051034092903137207e-01
4.682648686982014974e-01,4.683594667511598031e-01,-4.113135199623230154e-02,3.018053737901050843e-04,1.310454225057768821e-03,1.321794700512779778e-03,5.094540119171142578e-01
4.685188410814069560e-01,4.617427311384536548e-01,-4.052932894933691799e-02,-3.221302558318116753e-05,3.857791887446753842e-03,6.420772010413954576e-04,5.057395100593566895e-01
4.339755391851435329e-01,4.556936825712485373e-01,-2.341693896367941230e-02,-3.734841478201327957e-03,-8.872853507711765631e-04,-1.166318622087275311e-02,4.691114723682403564e-01
4.711290955419109583e-01,4.702889179278602061e-01,-4.057517529457660421e-02,1.844752959555759570e-03,3.427736776653661326e-03,2.279098461184024364e-03,5.113443732261657715e-01
4.682528232147668001e-01,4.686073878192961173e-01,-4.137490527467402313e-02,4.575260323451314933e-04,1.246640123268282331e-03,1.549931184691196199e-03,5.098173618316650391e-01
4.211215660462934718e-01,4.797773062853286641e-01,-2.194084402286305968e-02,5.430109129592491056e-03,-1.148099817815834313e-04,1.495517360742651056e-02,4.759121835231781006e-01
4.099013456511810261e-01,4.507739932946013273e-01,-8.545724986104785703e-03,-1.596990100639273866e-02,-1.591163489082014076e-03,-1.236987421548445959e-02,4.417050182819366455e-01
4.609364993359199025e-01,4.729966519105121558e-01,-3.560023702187858907e-02,-6.512074649880353816e-04,-1.751384107462207462e-03,-4.248028115192755555e-04,5.026862621307373047e-01
4.486162762103920176e-01,4.736279470870352615e-01,-3.104251518894646233e-02,-8.560847516016214034e-03,-7.984531384743512664e-03,-1.128426586598973991e-02,4.934453666210174561e-01
4.609113893316653665e-01,4.647477613281957298e-01,-3.699605322318771927e-02,-4.590880459034912819e-03,-3.989073401518763648e-03,-5.415647427769842981e-03,5.000356435775756836e-01
4.353292913296313849e-01,4.701841221407666582e-01,-3.027510385585785446e-02,-1.507617699962663510e-02,-2.558393948205957974e-02,-2.079469766133979283e-02,4.880303442478179932e-01
4.686487320582508054e-01,4.538070370082775140e-01,-3.538019820936205706e-02,-2.532850030917483970e-03,-8.027458451254505453e-03,-6.038132739768645521e-03,4.970983266830444336e-01
5.764335020756787831e-01,6.397092819805538788e-01,6.056821758897990016e-02,1.172959414109751020e-01,7.575234139138825595e-02,-1.478933922323183436e-02,6.015887856483459473e-01
4.762625486916695072e-01,4.605334318501692059e-01,-2.738980863007572930e-02,-1.736347613872231784e-05,4.241978163629116748e-03,2.325714664726589683e-04,4.960294663906097412e-01
4.783851247344788060e-01,4.711020756029205003e-01,-2.379387660613896394e-02,-1.040509301252205698e-03,2.211410633812702867e-03,-2.306909051178493517e-03,4.986113607883453369e-01
2.458263427598571804e-01,5.343335564009861205e-01,-1.272975504186973916e-02,-1.014599361496580643e-01,7.565053048973185978e-02,2.854746561967186347e-02,5.245752334594726562e-01
4.792913953130005789e-01,4.707655188338303320e-01,-2.431580902457697313e-02,-1.291293499416620036e-03,-1.879451958049282512e-04,-3.542817204537072363e-03,4.994416534900665283e-01
4.732102895427408029e-01,4.551684012239283206e-01,-2.585382036065569933e-02,1.079222865565526712e-03,4.932778057488012256e-03,-2.895689262294023208e-03,4.903958439826965332e-01
4.657534823137710056e-01,4.858631910416080224e-01,-2.739975501720798290e-02,-6.606773581698053687e-04,-7.577832270294277469e-04,-3.233527812483603762e-03,5.035435557365417480e-01
4.816096348623631340e-01,4.454069713824499455e-01,-2.553333763912801757e-02,2.363367695912805145e-03,7.168161334902532940e-03,-4.976499142046258116e-03,4.902957379817962646e-01
4.757895197794623776e-01,4.612466948088851382e-01,-3.716298444653276523e-02,4.191985589335752251e-04,4.153715979744384434e-05,2.807908764103705457e-04,5.058386921882629395e-01
4.796358296392621012e-01,4.798923013066763166e-01,1.126744230110271472e-02,2.666222469956205671e-03,-9.062115942421400394e-03,-2.640745252543623498e-03,4.688045978546142578e-01
4.750109258670420220e-01,4.634338134680844323e-01,-2.719922432487892339e-02,-8.310672643333994651e-04,4.704471786953807674e-03,-8.066556372765449918e-04,4.965937435626983643e-01
4.789514725698971742e-01,4.760408661101973582e-01,-2.195574282129852950e-02,-1.358163830537353735e-06,-2.915652780504369816e-03,-1.904559943834284062e-03,4.994947016239166260e-01
4.836295850367089422e-01,4.677032433364544106e-01,-2.167909822302033218e-02,-3.123660131803262206e-03,5.438959546488510849e-03,-7.129457157230735878e-03,4.978084862232208252e-01
4.053707156173304571e-01,5.165757150691527855e-01,-2.179923447719422924e-02,-5.528374072716557780e-04,-6.981317406579562457e-04,4.445307792676512874e-03,4.923472404479980469e-01
4.827628088286727848e-01,4.620422336662737828e-01,-2.581738902837071858e-02,2.413891596309916416e-03,5.973231437190335870e-03,-4.522031708111643247e-03,4.987293481826782227e-01
4.831154739327918612e-01,4.797874786774026790e-01,-1.689669532572080080e-02,1.328572667759893473e-03,3.093415740492352732e-03,-8.923067005966751203e-04,4.983930289745330811e-01
4.463599029955809261e-01,4.401313047761510333e-01,-2.211804260137911760e-02,2.463771746436319021e-03,-1.559593512880151937e-03,2.340486859237080432e-04,4.654224812984466553e-01
4.801448586082847081e-01,4.713305411375568466e-01,-2.179824888757952994e-02,-8.559345762016432914e-04,1.301990456133339481e-03,-2.708868911305399325e-03,4.976239502429962158e-01
4.784902843357491387e-01,4.676748686783785969e-01,-2.921851660129448636e-02,-3.068298584620938910e-04,-1.737584304398240417e-04,9.663355732168661411e-04,5.023915767669677734e-01
4.701130602772940481e-01,4.641832393341580598e-01,-2.732640531711233445e-02,1.629921716360972815e-03,3.947230693727940033e-04,-3.473737116457687422e-03,4.945463538169860840e-01
4.822410849543894984e-01,4.766896181164601565e-01,2.190150022716624845e-02,7.269724724655445870e-03,7.298842382068641312e-03,3.779485918669781702e-03,4.579836428165435791e-01
4.782293543940474567e-01,4.717778444852386288e-01,-2.717804089897057906e-02,-1.077986198414075713e-03,1.850697006744471461e-04,-1.750082508010654837e-03,5.022254586219787598e-01
4.824435040867942615e-01,4.778480603468340249e-01,-1.567284943050800683e-02,2.007838018467090774e-03,4.277083477002449792e-03,4.910251208923254156e-04,4.959028661251068115e-01
4.788438668118635277e-01,4.695252676427529304e-01,-1.563902813987089191e-02,-9.576779078145261203e-04,1.992163356060471392e-03,1.374768379625100189e-03,4.899108111858367920e-01
4.813384722819900596e-01,4.662474546581626411e-01,-9.085125457074683109e-03,-9.611517725298233136e-07,1.187842670207409253e-03,2.445234930766964493e-03,4.830778539180755615e-01
4.790301670220002972e-01,4.787510475657266173e-01,-2.931571293360335506e-02,2.158638551025918954e-03,1.852944863420393374e-03,1.515328122645490366e-03,5.082370638847351074e-01
4.831293588696808361e-01,4.789565618786920109e-01,2.308373197348373429e-02,6.052025805128577463e-03,7.200855303429545308e-03,1.053696948185926493e-03,4.582668244838714600e-01
5.136378624532623727e-01,4.159710120598922312e-01,-2.286291210817287256e-02,2.003552163838718224e-03,3.280657653705434159e-03,-2.086306294103847190e-03,4.950059950351715088e-01
4.964521087279214484e-01,4.520442275231240092e-01,-3.044015218408790968e-02,2.367149026743827454e-03,1.985233496434500589e-03,1.050652667847424751e-04,5.061798095703125000e-01
4.812790523475288795e-01,4.692020355884316540e-01,-2.626722233347550395e-02,-7.837510476216810783e-04,3.167917373458385439e-04,4.368077209634792322e-04,5.016195178031921387e-01
4.716730189028919273e-01,4.758868008112102643e-01,-2.860387681594717124e-02,-1.597046742065682471e-04,-9.017832363824759530e-04,5.890085759852754484e-04,5.024005770683288574e-01
4.747756005182757200e-01,4.750833293856545625e-01,-4.130704055191614099e-02,5.866461655321821879e-03,2.816134811429664431e-03,2.611543539781459138e-03,5.163794159889221191e-01
2.835723856119213848e-01,5.525453644457012370e-01,1.818670400665078901e-03,1.338838412631381501e-03,-9.281810995187387073e-03,5.133407203933151169e-03,4.773454070091247559e-01
2.982778866654753336e-01,5.389479005462599615e-01,2.598803924992731940e-03,4.866125486281506498e-04,-1.204506414313869650e-02,3.742950399278150569e-03,4.658189117908477783e-01
5.080673892905862576e-01,3.737321345009796958e-01,-1.683912927633579582e-02,-1.506903311255557674e-02,1.302461580944413826e-02,2.314941900762337162e-02,4.752443432807922363e-01
3.346101149376359274e-01,5.206938361139454852e-01,-1.305079337540160367e-02,8.422516702459959675e-03,-2.241221640637146295e-02,9.886764283179859045e-03,4.713833630084991455e-01
4.747432958647820334e-01,4.753943076636670817e-01,-4.006998806131517599e-02,5.695572478739652396e-03,2.933341143264539888e-03,1.719746815056403307e-03,5.152671933174133301e-01
4.795062355545370858e-01,4.746315957608292502e-01,-1.889260705829082232e-02,4.148844569013365562e-03,1.713727872477437478e-03,-3.456383096625892989e-03,4.960765540599822998e-01
4.467235438344653309e-01,4.429224845519210696e-01,-1.032848333725744361e-03,-4.202212749562160262e-06,3.884297162148470095e-03,-2.996993057448570086e-03,4.459489881992340088e-01
3.104258656538602668e-01,5.523607887998538413e-01,-1.242539365870271029e-02,1.967643671478482015e-03,-2.756696270722896330e-02,-5.627153750122053204e-03,4.932148158550262451e-01
4.750101829706440126e-01,4.724113334279692600e-01,-3.979422865306497803e-02,1.914977970312409846e-03,3.602883976123319627e-03,1.576172003900858619e-03,5.135657787322998047e-01
4.414153177437263875e-01,4.362928608200408731e-01,-2.662982595810770015e-04,1.233402048372936495e-03,1.539422016433348531e-04,-6.701148503983280109e-05,4.391480982303619385e-01
4.708064276335229836e-01,4.522696139787965031e-01,-3.335384238497574039e-02,-1.130325436109504578e-03,1.175916847396018747e-02,4.062066557178950141e-04,4.955752491950988770e-01
4.789378080995116971e-01,4.785855173194465961e-01,-1.059678369373062701e-02,1.012862686548679676e-02,5.913625409439863569e-03,5.410091731195127568e-03,4.898696541786193848e-01
3.031461292122147877e-01,5.264614803783775887e-01,4.453277752607953666e-04,1.202197017230301201e-02,-7.796099609403449489e-03,-1.207437910289456450e-03,4.579471051692962646e-01
3.722608248850064472e-01,5.304695524201261669e-01,-1.507070988998071570e-02,7.052906497777881867e-02,3.113211128415407578e-02,2.267615490213630274e-03,5.041636824607849121e-01
3.800168314949521897e-01,5.136376321624169794e-01,-1.466281830796933860e-02,2.935984790470377165e-02,1.697906634332887327e-02,-2.566225374668025874e-03,4.794106483459472656e-01
7.020078322842905338e-01,6.732376416025942500e-01,9.156137445829909405e-02,6.115479155447903908e-02,-2.977881430869074378e-02,-7.737052554003343019e-02,6.226946115493774414e-01
4.767083427647634819e-01,4.715017929633650295e-01,-3.066864507849720312e-02,-5.221382272032242731e-05,1.049519923015852394e-03,-1.354295476820347030e-03,5.048025846481323242e-01
3.362111796092738802e-01,5.525054107150136895e-01,-7.362683290514981937e-03,2.534540157190858997e-02,7.092408244704670461e-02,1.358118821272825787e-02,5.066660046577453613e-01
5.227424245021048410e-01,3.381878037376764845e-01,-1.508759254413349904e-03,-1.769744792593624938e-02,-1.287709156022501071e-02,-5.354332182213904223e-02,4.713644683361053467e-01
5.860105675438084250e-01,4.510883293010066741e-01,6.649662682040552442e-02,-3.683960076122236998e-02,-1.001049473746380286e-01,-7.033936406395976948e-02,5.167031288146972656e-01
3.686610929104039425e-01,5.115647461710876032e-01,-1.416135281828795334e-02,-2.162371767113520013e-03,1.186653534189769515e-02,1.136540547271190508e-03,4.712977409362792969e-01
3.692335917228990461e-01,5.342332714548672090e-01,-4.412714372393433671e-03,2.399438783132054696e-03,2.517498898362201254e-02,8.567760184079615052e-03,4.802362024784088135e-01
4.833814197621205677e-01,4.735105897023227373e-01,2.380135509961789353e-02,3.999616334331116720e-03,6.256552158210942037e-03,7.563567452427193355e-04,4.549087584018707275e-01
2.975921484615867141e-01,5.408721864900128962e-01,-1.651070267649784595e-02,-3.141889205233692594e-03,3.104366591766624314e-02,1.212268184072206982e-02,4.874652326107025146e-01
6.610199148488608012e-01,3.345131565521120565e-01,3.454677242328729747e-02,-9.626515930714622804e-02,-5.494253210688634231e-02,-8.160523298578610529e-02,5.927585959434509277e-01
3.729798218187518888e-01,4.727277061394113966e-01,-5.459551508964377575e-03,-3.959114478063895104e-02,-7.898952371808860493e-03,-1.226770385142735009e-02,4.430074095726013184e-01
7.560750878301580880e-01,3.505030758866494178e-01,2.643096654092735864e-02,1.172611938717709468e-01,1.829634596348053352e-02,-8.245877982763893943e-02,6.808811426162719727e-01
4.996941763404731396e-01,4.031767124460309271e-01,-2.411515572859818102e-02,-1.670350985169352306e-02,-1.301629567288183249e-02,-2.357348341639594475e-02,4.859501123428344727e-01
4.789200625867539030e-01,4.678228139579621025e-01,-1.736381832478944842e-02,2.147527869562617427e-03,-2.656359092444478352e-03,-5.244357724548646613e-03,4.909490346908569336e-01
2.617708385257598858e-01,4.326133853085212810e-01,-2.846833550872418517e-02,-2.173385976748712090e-01,-8.318814067642019486e-03,-5.000867159730990573e-03,5.522698760032653809e-01
3.326583209579272449e-01,3.765509128469939903e-01,-5.794970693015333296e-02,-2.485542804550305296e-01,2.573169819176136103e-02,-4.203361957825628437e-02,6.035482883453369141e-01
4.222301921147527670e-01,5.488948663262951388e-01,-3.805559274092412680e-02,2.666627320225241002e-02,3.819211690764357653e-02,-4.720347219366235851e-03,5.410960316658020020e-01
4.777843723466633774e-01,4.755564773368564646e-01,3.120947281841235377e-02,1.663986823114624964e-03,2.853272171567471614e-03,-6.473350209271267960e-03,4.456429481506347656e-01
3.431923825518179982e-01,5.305131897240245031e-01,-1.765812588798204574e-02,-7.730513979042663575e-02,-3.375107198262403824e-02,-6.766305529720437889e-03,5.043609738349914551e-01
4.680731543716307175e-01,4.777203125339250511e-01,7.145107561748226255e-02,3.217114306707014905e-03,-1.698003626582158783e-03,3.005623821137259986e-03,4.016157686710357666e-01
3.128625103115059702e-01,5.433817666923821399e-01,-2.700185627834139623e-03,-9.245678319556366320e-02,-2.972884379943161424e-03,6.994059696076146762e-03,5.012786388397216797e-01
2.346952932016574678e-01,5.373162014286796406e-01,-2.168316637805089986e-02,-1.301497909452698498e-01,-6.503981524481809717e-02,-3.708089625782952370e-02,5.500247478485107422e-01
1.706249952968668104e-01,7.418841693444744312e-01,-9.863423359429485116e-02,-5.202044169645112653e-02,2.865048437488669497e-02,2.151396388645882701e-02,7.514145970344543457e-01
4.794495209005055214e-01,4.788725929705766049e-01,9.502780540049049485e-03,3.205247340960681608e-03,-1.745273302621020675e-04,-7.075599962748477419e-03,4.698513150215148926e-01
2.529458854696916559e-01,5.902967370012117687e-01,-9.125067448784940360e-03,-3.464026586704394006e-02,-2.809751104847770312e-02,-9.287140201261733993e-03,5.264253616333007812e-01
3.471894006698077462e-01,5.084759759824226677e-01,1.230695170331808086e-03,-5.021512654196209902e-02,-1.200948667664164700e-02,-1.138210868393897506e-02,4.581324160099029541e-01
5.045450163571832958e-01,5.070540782576523631e-01,3.000140548236590599e-02,2.268771336967363716e-02,-2.716787526904863165e-02,-1.526478414537563340e-02,4.804644882678985596e-01
4.753669660723116586e-01,5.063713707624718507e-01,8.580468575604427439e-02,4.822087798146684062e-02,-3.693875408298943896e-02,2.639568619958272341e-02,4.218501746654510498e-01
1.977084496936362124e-01,5.576704085734556227e-01,-6.792643666536646307e-05,-3.340009575618171911e-02,4.920269474853486945e-03,9.479487733450246700e-03,4.935270845890045166e-01
3.380951561606496680e-01,5.104717685356068291e-01,-8.041606450194693778e-03,-1.808961304603711254e-02,-1.964994050196830835e-02,-4.340644801247433258e-03,4.597682356834411621e-01
2.829536463494584098e-01,5.409422139489479253e-01,-6.233159536389920596e-03,-3.226591018911594000e-02,-1.680500830171429913e-02,2.455004835360163201e-03,4.783122241497039795e-01
2.490443055485794810e-01,5.063158559099649736e-01,8.074802978486200766e-03,-7.465852160764795131e-02,-5.225109685349184872e-03,7.588255253915832284e-03,4.508058130741119385e-01
2.989577983138587136e-01,5.427275540461017345e-01,-4.613328047819997835e-03,3.277353345962655956e-02,-1.407930808088859662e-03,4.895945863140247281e-03,4.784148335456848145e-01
4.703125928370355813e-01,4.802941644687683809e-01,4.998866793209999493e-02,-2.895967075874279783e-05,-1.861922630830719488e-02,-5.212744545053063505e-03,4.267187416553497314e-01
4.957683438593963876e-01,3.303840344254091455e-01,1.020379706395985187e-02,-1.370864809812638412e-02,-7.854917068919643752e-03,-7.571414264108704793e-03,4.286502003669738770e-01
3.024553013193370665e-01,5.514074729365627814e-01,6.641619476451032789e-03,2.977289848513562515e-03,-2.093325701019931821e-03,2.593117415368704527e-03,4.724259674549102783e-01
4.686571319033370209e-01,4.823812046570302714e-01,1.845923258984272231e-02,2.387732702145795548e-03,-1.319829243893447072e-02,-2.039434642674023065e-03,4.578178822994232178e-01
3.024490666055111854e-01,5.197382424573672166e-01,1.089035791272807696e-02,-2.936175471294377379e-02,-1.793714731187808940e-03,4.456013309084813287e-03,4.452293515205383301e-01
4.859220700680950689e-01,4.526255014865737669e-01,-3.001767202084332231e-02,-5.239925944624570500e-04,6.685558394803790654e-03,-1.590604015595379933e-04,5.002583861351013184e-01
4.846666723812605992e-01,4.734251059373935089e-01,-3.064733934183017094e-02,5.955956506294511187e-04,-2.322386539241881685e-03,-1.814845396477309577e-03,5.098127722740173340e-01
3.412733624247880626e-01,4.672237390081477870e-01,9.331404852496505420e-03,-3.401503946574510606e-02,-1.580419755148957045e-03,-4.132753996697188618e-03,4.139890968799591064e-01
4.667142509406809747e-01,4.723565848878670259e-01,-4.188962123198330945e-02,1.573539850716117443e-03,2.039591143480781830e-03,2.630857194702628920e-03,5.114881396293640137e-01
4.565732849148336214e-01,4.642362590615007889e-01,-3.723767636553682037e-02,-3.923203065730706575e-03,8.924984906540527063e-03,8.072082224176034895e-03,4.981693029403686523e-01
4.818656647857672559e-01,4.658644627650807557e-01,-2.897327200500632305e-02,1.687076276684553639e-06,-7.285598322416306878e-04,-1.935356233773121793e-03,5.030419826507568359e-01
3.096032100547334021e-01,5.162433759151517920e-01,3.658402286536466264e-03,-2.982378927720888417e-02,1.948701856182650377e-02,1.884910231376811171e-02,4.521021246910095215e-01
2.971282431555194448e-01,5.337722545131486918e-01,9.891697670782517715e-03,-3.058216932310040687e-02,9.753297504882826700e-04,4.157884034802963175e-03,4.575352966785430908e-01
4.598072466485363385e-01,4.533558260855080069e-01,-2.415068009684129269e-02,2.692946077971715337e-03,1.304730019886156216e-02,1.594539969646591518e-02,4.821098446846008301e-01
4.794511249262455310e-01,3.920357011731825936e-01,-5.156843106936315202e-03,1.025159688823239039e-02,-9.621165775528782785e-03,1.676932257254236738e-02,4.489551782608032227e-01
4.849214195141979822e-01,4.027434804204050867e-01,-8.456830191379938189e-03,1.695076630814464774e-02,-2.676745214370911553e-03,-3.043698885208092654e-03,4.588483273983001709e-01
4.745173404688988184e-01,4.769808569706306400e-01,-3.357908023697181443e-02,5.247489433635978834e-03,5.156551080077332455e-03,5.209904575880242375e-03,5.095719099044799805e-01
4.770192462792277599e-01,3.805082880270452828e-01,-5.447741754442958495e-03,-7.132613830195456972e-02,4.034159094438314469e-02,5.921934256974704935e-02,4.755951762199401855e-01
4.702768366878726791e-01,3.837703821603313248e-01,-1.240420685724402672e-02,8.115134995610015500e-02,-1.199316395337866013e-02,2.730107475302500503e-02,4.702483415603637695e-01
5.222587202857648103e-01,3.674873103024711707e-01,4.677071459819048815e-03,1.140075609984772392e-01,-3.398225801374003818e-02,8.351637972147138433e-02,5.245194435119628906e-01
4.883073181995155609e-01,4.614496587452624476e-01,-2.801758258868697338e-02,7.768485846656455552e-04,1.226244038877205740e-03,9.354019391500969756e-04,5.034425258636474609e-01
4.701438979769606563e-01,4.810958898805587358e-01,-1.638149434786645431e-02,1.326185067747455079e-02,5.460512635069700652e-03,-4.910916919445338204e-04,4.927201271057128906e-01
4.582554728013866208e-01,4.060119193755146183e-01,-6.364126706287109858e-03,1.408335720665412211e-02,-4.182283875501713842e-03,1.321099375758828798e-02,4.421520829200744629e-01
4.609579005876633384e-01,4.279171719488169545e-01,-6.427600607231243046e-03,3.860189297129147656e-02,-5.482041093136978162e-03,8.143202830172452042e-03,4.570093452930450439e-01
4.480716564614261044e-01,4.548562504799347761e-01,-1.244060129499180434e-02,1.313031956315966961e-02,-4.083329873615607064e-03,6.294277324751251963e-03,4.646805822849273682e-01
5.440363456891164073e-01,4.644252778580778562e-01,2.044275031253317554e-03,-9.424940161324727589e-03,-1.149096168065539235e-02,-3.158735284521525799e-02,5.104905962944030762e-01
4.774607911376697045e-01,4.611660836542658126e-01,-3.603707709824560679e-02,-1.881265129880875498e-04,-2.238947956932604150e-03,-5.854602592474721177e-04,5.055634975433349609e-01
4.658570781562690333e-01,4.575536696749372689e-01,-1.758625922913936712e-02,1.570863859820927425e-02,-1.153327008335500344e-02,1.282129459985205909e-02,4.810453951358795166e-01
4.760167813297987438e-01,4.692870333503271763e-01,7.173522570963758449e-02,2.088385208144504998e-03,3.233351516579706288e-03,-2.331835390381195670e-03,4.010348021984100342e-01
4.766885194140217941e-01,4.719346285742107572e-01,1.055411202718224417e-01,5.011192468170640527e-03,-1.424776904207440036e-03,-3.335440524586941874e-03,3.689490556716918945e-01
4.775166332232034239e-01,4.751378814376985282e-01,-2.088396831416539090e-03,-2.272085855587730515e-03,2.366363394156389185e-03,-6.249983256649803594e-03,4.785762727260589600e-01
4.712562436717623870e-01,4.652670764692221628e-01,-3.695717730303899051e-02,2.281057232084573528e-04,-3.203395243945212929e-03,-3.051462860097332343e-03,5.053037405014038086e-01
4.794691776672511674e-01,4.713631552872774577e-01,-2.090381345136832492e-02,1.515812215254214038e-03,-1.411378717185660710e-03,-2.650774113940250736e-03,4.964038133621215820e-01
4.865189905794823355e-01,4.547857423910769414e-01,-3.090795600440288116e-02,-7.460511513154741104e-04,-9.368183168179613661e-04,-5.482927173599968021e-03,5.024067163467407227e-01
4.842757995619667577e-01,4.573076952068728662e-01,-7.753213176052708988e-03,7.596888941244800408e-03,5.000087211522390163e-03,-4.499785685291714070e-03,4.794367849826812744e-01
4.713176430884098989e-01,4.615492950792779991e-01,-3.792313319454732046e-02,-2.742825699919537155e-05,-2.427336634808379898e-03,-1.253250573940317605e-03,5.044497251510620117e-01
4.762775125843651258e-01,4.805152688388089066e-01,-1.121827633410765745e-02,8.557995350201142923e-03,6.930261675032054619e-03,5.962585759024566570e-03,4.901086091995239258e-01
4.715187867265984711e-01,4.767447442251530054e-01,1.394815672243565619e-02,1.437636219148976258e-03,1.807108882586930948e-02,1.645684482012606947e-02,4.621556103229522705e-01
4.626547989021901341e-01,4.777182889346673900e-01,4.935453660252009378e-02,-5.659638426968194129e-03,-2.156786034304980504e-02,-8.231743841559124170e-03,4.230421483516693115e-01
4.861219648531612259e-01,4.615673304946235067e-01,-3.155952509995108013e-02,-4.822748925891164268e-04,-4.439049793600068940e-04,8.367873786377095884e-04,5.058546662330627441e-01
4.797804751517807942e-01,4.714198942473361020e-01,-2.305756151031357337e-02,-1.004030019986183004e-03,7.681025329265851308e-04,-2.373089801216880269e-03,4.987320601940155029e-01
4.763450010128360557e-01,4.817089823702761509e-01,3.602056563798633482e-02,3.570618593492609454e-03,-7.077175373167464596e-03,-2.512730823561167091e-03,4.432648420333862305e-01
5.619754583514040558e-01,4.833909371441179048e-01,7.682265222719497633e-02,-4.158459984937955267e-02,-2.496819602262368917e-02,-1.173861508096602918e-01,5.018165707588195801e-01
6.654137924366962942e-01,5.517893176536821098e-01,5.922946872341328106e-02,1.324156934654298623e-01,-5.315181170834214902e-02,7.294311671769540539e-02,6.233231425285339355e-01
4.985684835973746010e-01,4.167438451633682095e-01,-2.437020202006789926e-02,1.499121530355883953e-03,1.114900870494882519e-02,-2.073840997107141617e-03,4.876098930835723877e-01
4.847292288448419306e-01,4.744695491086001748e-01,2.197507201208620531e-02,2.987196883173818922e-03,3.289575283398922263e-03,8.446506246818521677e-03,4.580089747905731201e-01
4.825199482569644260e-01,4.724707229341696402e-01,6.610813269381882185e-02,-3.235168371400094236e-04,-3.461602523672326136e-04,-1.204109217487349393e-02,4.120082557201385498e-01
4.715401489534620239e-01,4.750490841329804148e-01,6.038368591545589803e-02,5.503257038847306562e-03,-6.292296719973352812e-03,-8.517872064972554363e-03,4.134391844272613525e-01
4.845182426719565338e-01,4.758006376139631843e-01,3.327588314896640087e-02,5.292259797066473266e-03,2.961025082516135793e-03,-8.030657586155228594e-03,4.472870528697967529e-01
4.758622576774478308e-01,4.741390591788676168e-01,8.294540493460061947e-02,8.263801853350004681e-03,4.448585507610686683e-03,2.684681590086543390e-03,3.924224972724914551e-01
4.446582881212373106e-01,4.280017129002910981e-01,2.342530196134118281e-03,1.103474512268852285e-02,4.069574362096952530e-03,-3.125601489264703066e-04,4.347050487995147705e-01
4.679331925642362666e-01,4.612705996876006465e-01,-3.900350129777691022e-02,-7.122867569205868811e-04,-6.180390396149873121e-04,-1.055355812739830956e-03,5.036444067955017090e-01
4.795128719412709017e-01,5.033889854629384208e-01,4.692364788947045451e-02,-2.015130476478090710e-02,-1.391285688483071686e-02,-1.599817427025027050e-02,4.478825926780700684e-01
4.800127056202689313e-01,4.719911145808096675e-01,5.495338968500701471e-02,3.490118907512231548e-03,5.406185866771735099e-03,-5.372352673064600959e-03,4.213560521602630615e-01
4.858726155813185565e-01,4.443195346257352574e-01,-2.619338607361193505e-02,2.703268979991040565e-03,-5.887092424150990391e-03,5.774261255023577927e-03,4.928349256515502930e-01
4.903685198122592626e-01,4.591135861162285448e-01,-3.034626019893627014e-02,2.833364708441411112e-03,6.278522990159362844e-04,-1.272495725098265942e-03,5.058418512344360352e-01
4.706049697128964482e-01,4.446574209065091710e-01,-3.099829603063253280e-02,6.391522704690607041e-04,9.633939524104236790e-03,5.021064441420494337e-03,4.895089864730834961e-01
4.820092331854562429e-01,4.723637920128382905e-01,-3.735396150278330607e-02,1.819588091526020074e-03,6.698673320028271285e-04,-1.524466843530492563e-03,5.146260261535644531e-01
5.523554538907420319e-01,4.837618989522354251e-01,-1.146659503948443959e-02,2.932300708764776220e-02,-5.948987864421454753e-03,2.139583938020043000e-02,5.366421937942504883e-01
5.075180434156103537e-01,3.926857715607436905e-01,-1.188097615328104206e-02,1.667926816746871307e-02,-3.463852328606414985e-03,2.243034060921491116e-02,4.750767946243286133e-01
5.017670320614859847e-01,4.035448190369154142e-01,-2.436790354438245210e-02,6.348635998040264190e-03,4.279467000116546002e-03,-3.108482330548792416e-03,4.847600162029266357e-01
4.737159846633657301e-01,4.817626904005110622e-01,2.464006399813112314e-02,6.045456942157107806e-03,9.067085429368065093e-04,6.616911097315041068e-03,4.534214138984680176e-01
4.780478726230259490e-01,4.799983466543197297e-01,-2.592592328006548819e-02,4.129995698614714547e-05,-4.591551192005355548e-04,1.534217298617902153e-03,5.049594640731811523e-01
4.803012810124528409e-01,4.758807383646857514e-01,-3.709648324288200572e-02,2.850937613548553979e-03,2.845687634895511988e-03,7.585200543679587520e-04,5.152506232261657715e-01
4.801214571163971989e-01,4.811129022453100035e-01,-3.136520752419935665e-02,7.434192555782282233e-03,3.532122547025151257e-03,3.991851588235785855e-03,5.122281908988952637e-01
4.853190337649250230e-01,4.631675889834548365e-01,-3.384235939969393314e-02,-2.325877449616039344e-03,3.261012488476873299e-03,9.110249452548976543e-03,5.087398290634155273e-01
4.898337739096222387e-01,4.226016150207104194e-01,-3.046524646639325873e-02,-5.702333446175451154e-03,-8.835001058798561818e-03,-9.592403489276658465e-03,4.907730221748352051e-01
5.031432345205254508e-01,4.113727898197776511e-01,-2.588646451431214635e-02,4.883671442830233222e-04,-1.508765952751065344e-03,2.269037296269075035e-03,4.896610379219055176e-01
4.819807233008635006e-01,4.712446797186077285e-01,-3.200707092172316859e-02,1.956142981483563817e-03,6.698545355270765691e-04,1.493129720696421102e-03,5.087239146232604980e-01
5.476031952819483406e-01,3.543197220343640708e-01,1.602085408989273319e-02,-1.872220388821168591e-01,-7.872525678691176532e-02,-6.776790424743331376e-02,5.955828428268432617e-01
5.277168524407491734e-01,3.414828035943924256e-01,-1.351521073348471713e-02,-1.733259048366746213e-02,-9.079714030848401105e-03,-4.001536879468955976e-02,4.824641942977905273e-01
5.012357341318282034e-01,3.377274342193661849e-01,-3.012876897684535482e-03,-2.273645644819294320e-02,-9.605650767989394601e-03,-2.294122675248728982e-02,4.493988752365112305e-01
4.996598355097512378e-01,3.457129260760539169e-01,-4.882889276180135685e-03,-1.134929419817180818e-02,1.400422270418001658e-02,-1.283839133468722888e-04,4.489599466323852539e-01
4.850443668673023456e-01,4.589324892401173139e-01,3.628314153035694378e-02,1.108347907551684823e-03,3.340262503453442222e-03,-1.436696111528890183e-03,4.363414049148559570e-01
4.812305563101886841e-01,4.677193755737655279e-01,-2.103333258719680687e-02,4.623271012945922957e-04,-1.029109115348117616e-03,-3.524428042347376930e-03,4.956878721714019775e-01
4.829484756990907734e-01,4.634621999768542278e-01,-2.977460979450619050e-02,4.055009741486840179e-04,7.015397341555272169e-04,6.471528707780820327e-04,5.032661557197570801e-01
4.892553233511514055e-01,4.516438013090375292e-01,-1.694773810553640292e-02,-5.961258994718791893e-02,-3.895300776452927799e-02,-4.680581033374699162e-02,5.102964043617248535e-01
4.862538582239844809e-01,4.442358330211849671e-01,-2.883216503012170362e-02,3.751815049856941850e-03,-8.310841757770736152e-03,-1.043294480684166074e-02,4.959961771965026855e-01
5.244478078845442592e-01,3.491709691449689235e-01,-1.149663347590668128e-02,-5.596281796456612292e-03,-1.855103337728686687e-04,7.507055890154862906e-04,4.734084010124206543e-01
4.673151651528231199e-01,4.686043342660444755e-01,1.097278044268186203e-01,-6.703623545157772249e-05,-1.620640569708985731e-03,-2.656248104327624173e-03,3.582742512226104736e-01
5.379830125920315176e-01,2.844161994938600446e-01,-2.431210267665573355e-02,-1.103378543091904362e-01,-5.162977194155970832e-03,-4.272157045956645471e-02,5.291230678558349609e-01
4.966665011626144599e-01,4.510550780688515893e-01,-2.328945552844707834e-02,-2.040079215924044901e-03,3.459130050546252444e-03,-1.774828834439335160e-02,4.997119605541229248e-01
4.790359767222094889e-01,4.760784509289441302e-01,-2.814889884671933906e-04,4.213976739196333837e-03,-2.686165357892169800e-03,-1.034191583098663207e-02,4.782595336437225342e-01
4.774484710731882187e-01,4.648467547003900524e-01,-3.151757119036169286e-02,9.825602300259507049e-04,-2.983549018358567541e-03,-2.592712786277146745e-03,5.028331279754638672e-01
5.222778843950455219e-01,3.820349550853581744e-01,-2.175422809764160359e-02,-8.143759104362642207e-03,-1.885113898618168051e-03,-2.181323590388916517e-02,4.908965528011322021e-01
5.056017699882127125e-01,3.869347543500614717e-01,-1.932016650664730717e-02,-1.616713490946892606e-03,-7.749027920717377685e-03,-1.416446734372996986e-02,4.776231348514556885e-01
5.635204057307370284e-01,2.975297632447427287e-01,-2.389406825378320720e-02,-6.420881189231580910e-02,-2.007112751650476021e-02,-6.751777740445392972e-02,5.355491042137145996e-01
7.391378037350928576e-01,1.559107556738394129e-01,-1.222612324209509382e-01,-1.065243685081622566e-01,1.145171911271550616e-02,3.802909501465292184e-03,7.837410569190979004e-01
4.816805453542259974e-01,3.188293937930029576e-01,1.959454558328965756e-03,-9.068167482923096545e-02,1.068305196843853840e-02,1.224899406308393481e-02,4.516543745994567871e-01
4.751154117560405510e-01,3.545320121803730018e-01,8.261175261477460285e-03,-6.295463105244029911e-02,4.965033586272556317e-03,1.263586265036373410e-03,4.337821602821350098e-01
4.716949487468749536e-01,4.711046689971382095e-01,6.015282679422229162e-02,1.352860464748066637e-03,-4.537555131056052703e-03,-7.654823925077180492e-03,4.115426838397979736e-01
4.848829144966972926e-01,3.452231859442022044e-01,5.077184863674311099e-03,-2.223027709243129146e-02,1.562923805265876293e-02,1.657821786547356360e-02,4.309857487678527832e-01
4.821016600870828839e-01,3.427231701193033109e-01,1.067381542980999631e-02,-3.448029852507961124e-02,4.764113552033850431e-03,-7.358818693321282807e-04,4.237924814224243164e-01
5.617207516782434240e-01,2.671999446221622887e-01,-1.223240038756617798e-02,-6.616697269248050794e-02,1.646474868061533620e-02,1.870649786900600506e-02,5.119773745536804199e-01
5.109387599998569396e-01,2.922186602331283689e-01,1.532956696873033486e-03,-6.201413468950444513e-02,6.498183085280446157e-03,-1.188260616400386906e-03,4.556134641170501709e-01
4.714154263107295240e-01,4.719317182125378762e-01,1.101682385289742827e-01,3.872479362425115812e-03,-3.063641687435358831e-03,-3.838926513972866321e-03,3.616679012775421143e-01
4.483853875670408273e-01,4.519782619373475807e-01,-2.598689201101361812e-02,-3.184968618461288953e-03,4.616518875489162080e-03,6.437672593734951147e-03,4.764084815979003906e-01
6.661199314561039309e-01,4.832070301463741724e-01,7.119226367474018602e-02,-1.833032079955258450e-02,-4.700710719117738579e-02,-1.135593671435609631e-01,5.700002908706665039e-01
5.254462600466468514e-01,5.240944532188698268e-01,5.061316071699256680e-02,3.439051449413553507e-02,-1.613127246211667337e-02,8.735423610513599890e-02,5.020433068275451660e-01
4.642515197827147833e-01,4.633539810608466869e-01,-3.726493578906292514e-02,-8.402497038305232124e-04,3.903721739995682106e-03,2.389705259495767103e-03,5.011330842971801758e-01
4.584393229123729929e-01,4.623756135721443505e-01,-2.817170500038412850e-02,-2.788770450635118942e-03,6.624730639719003146e-03,9.296230159995751835e-03,4.890148043632507324e-01
4.588108222628529687e-01,4.554265249069718857e-01,-3.286521477644016587e-02,-3.428088274253012369e-03,5.820869575580434226e-03,1.278385772386618578e-03,4.901373386383056641e-01
4.920722241917997453e-01,4.363608333902649905e-01,-2.659148109639924984e-02,4.269270790998902151e-03,-1.996769673178258597e-03,-1.321856088531797938e-02,4.937723577022552490e-01
4.970782880364817968e-01,4.561528932262597369e-01,-5.153965877446875510e-05,3.754391271550408180e-03,-2.149880164087689897e-03,-1.221012794490815290e-02,4.785092771053314209e-01
4.771475892276347830e-01,5.114772677600420980e-01,6.044733932298046453e-02,1.153245034269815769e-02,-3.850756014217659486e-03,-1.266364594120197515e-02,4.359442591667175293e-01
5.075418731746592638e-01,3.849239755723985468e-01,-2.245250925396408137e-02,9.853922514217329075e-04,-2.649682226733892504e-04,-2.298953662981420218e-02,4.822147488594055176e-01
4.757197025584770644e-01,4.647266336962733169e-01,-3.461518154158038652e-02,7.021875951275809548e-04,-8.331825450387166099e-03,-8.478351880998604220e-03,5.053491592407226562e-01
7.129763148776049331e-01,2.793874360329481332e-01,4.066766239807695360e-02,9.469017066530928395e-02,-5.247895754156121917e-02,-8.573054625753177838e-02,6.369479298591613770e-01
4.792974365724237407e-01,4.795295438516369302e-01,-3.022801482140069496e-02,1.977181369431282604e-03,1.547496568869054711e-03,1.877026026997860066e-03,5.096704959869384766e-01
5.124136220171945366e-01,4.918302948822023124e-01,4.024503643568966282e-02,2.949599570301659687e-02,-1.060645695565004369e-02,1.237125334090613191e-03,4.654032289981842041e-01
4.738554751328723502e-01,4.828666450251398734e-01,1.167908081727797587e-02,-1.722099238133308150e-03,4.901439184987379204e-03,-2.097414794878651317e-03,4.668480753898620605e-01
5.325187262326088744e-01,3.307356199871394620e-01,-2.112322079748463199e-02,2.185687772188388625e-02,5.155970658103214456e-03,-4.133489335163546136e-02,4.920964241027832031e-01
4.693598897290677252e-01,4.816639123141682743e-01,2.638044600568695275e-02,-1.335880920046023969e-03,-3.069176282630998748e-03,5.783604463862714214e-03,4.494069218635559082e-01
4.817717801468455185e-01,4.738908402810539933e-01,4.009070425839256213e-03,1.428263460373394717e-03,8.997007131768981205e-05,-7.933920817938805783e-03,4.740770757198333740e-01
4.062101323272091502e-01,5.001296339103877830e-01,-2.266328597821382074e-02,-1.319164848330736228e-03,-7.778403323898957925e-04,3.577555447835664010e-03,4.827818274497985840e-01
4.869296716609552433e-01,3.691228938553531291e-01,-1.496892254459480931e-04,-9.952187236904630821e-03,1.408332910671531921e-02,1.051326164960197842e-03,4.411790668964385986e-01
5.915532993584378119e-01,3.565769390817923323e-01,-3.960685815966569212e-02,2.606523836894526075e-02,-9.343858551742943025e-03,-1.893935491062054277e-02,5.555587410926818848e-01
4.754626317024905902e-01,4.833353781234557278e-01,-1.694604622354306533e-02,4.203800746310337906e-03,1.723915799974639826e-03,3.111739210651489826e-03,4.964835047721862793e-01
4.822530617754451354e-01,4.696876200733556272e-01,-2.544841717372564593e-02,9.896987419000418448e-04,-2.183148110608666963e-03,1.932146323966923854e-03,5.015651583671569824e-01
5.222975860727157027e-01,5.359843922623060974e-01,6.140520139025629209e-02,1.522182089953403109e-02,-1.724563457644749664e-02,-1.726376824312375255e-02,4.705302715301513672e-01
4.980117702368183075e-01,4.652928647747232582e-01,-2.926904912652239510e-02,2.745367429383130473e-03,-4.521716598756943609e-03,-3.320381297451595326e-03,5.118208527565002441e-01
4.822788461836231555e-01,4.685642528613879199e-01,-3.010339595856226236e-02,1.142086548711982808e-03,-1.292144034423958754e-03,-1.716065269103157634e-03,5.056819915771484375e-01
4.851161510298450108e-01,4.821973820894622786e-01,8.312922233770525526e-02,1.390676042429406234e-02,-5.832461438380526263e-04,1.310070231761134140e-03,4.012668132781982422e-01
4.460733979121941917e-01,3.727214023940940146e-01,-2.577462587632156632e-02,-9.322443864554684489e-02,-2.484749475057138404e-02,-3.578551877633007194e-02,4.745276272296905518e-01
4.697774688887827454e-01,4.701223639216476347e-01,9.017032572915423261e-02,2.175412653257830474e-03,8.769263936135065747e-04,2.385424114456767986e-03,3.798239231109619141e-01
4.782690105645246437e-01,4.795846345784129383e-01,7.792228701252579270e-02,8.184601508709227202e-03,-5.536983320722122133e-03,-5.703462929230684007e-03,4.014928042888641357e-01
4.857376499478005538e-01,4.565013538990573272e-01,-2.847022541463201106e-02,-4.662110146581186442e-04,5.313236683136134293e-04,-4.769916959513938702e-03,5.003006458282470703e-01
7.513625526330502957e-01,1.941668898671313759e-01,-8.678639192258175150e-02,6.972400685169159729e-02,4.203731192412112766e-02,3.790762917623842487e-02,7.550790309906005859e-01
5.179633683909867781e-01,5.030514436962347791e-01,4.455043811669451292e-02,3.104478169615398908e-02,1.487304421053227497e-04,-1.175022375290123156e-02,4.696682691574096680e-01
4.639719284408373445e-01,4.510531374096161672e-01,-3.303087732629661488e-02,-2.031168027848124277e-03,-4.870926102336120729e-03,-7.728539375122303861e-04,4.907579421997070312e-01
4.894849506533217043e-01,5.393966698188420450e-01,9.569852647815302316e-02,1.186362643564520605e-02,7.146885055015542859e-03,-4.412684440637545599e-03,4.217195510864257812e-01
4.836012617021216986e-01,4.640711185743028322e-01,-2.980099791287077471e-02,5.525666045852567444e-04,1.964853986792448014e-03,1.718901626999503858e-03,5.039423108100891113e-01
4.796321305596361606e-01,4.581722441523292111e-01,-3.461939682788356398e-02,-3.848939314020810337e-04,-1.386043545292220012e-03,5.170499277066211612e-04,5.038713812828063965e-01
4.805092922585829651e-01,4.856404636076313563e-01,6.346788391779312200e-02,-1.748238324817296373e-03,7.500089057596709234e-03,-6.675851912589203865e-03,4.200016558170318604e-01
4.817961129689516953e-01,4.746171513538066655e-01,4.301754663563683856e-02,3.867705748557042234e-03,1.010729510256243649e-02,-7.787134893529912630e-03,4.358456730842590332e-01
4.790905365432853724e-01,4.761694698508122103e-01,-1.679057051437388148e-02,5.694095807224625397e-03,-2.426980460289030438e-03,-4.174876215757446739e-03,4.945961236953735352e-01
4.116734582350768390e-01,4.668177493366046926e-01,-1.918062066577941316e-02,-6.517641229111218078e-03,-1.451299604213112694e-02,-1.642037025680363055e-02,4.626050889492034912e-01
5.029849084736071063e-01,4.774189668829896260e-01,6.356115855965133177e-02,7.166521873938095852e-03,-2.974447651327451897e-03,-4.672018698245665284e-03,4.275028407573699951e-01
5.240644540368394333e-01,4.837346704908173090e-01,8.414070625924702229e-02,1.210859387695620640e-02,-2.538068290505444274e-02,-2.254989446875653447e-04,4.240164160728454590e-01
4.838442922020719239e-01,5.556381933763008263e-01,2.553234526652553571e-02,3.600798010649848557e-02,-1.582128194372550006e-02,-1.610897992520734373e-02,5.035150051116943359e-01
4.710169856017814016e-01,3.799371209283256001e-01,4.364932691461281822e-02,-1.005952686735070017e-01,-5.078275744149422094e-02,-7.800003086959178544e-02,4.564657509326934814e-01
4.813859130032032141e-01,4.652694413166801324e-01,-2.898690556517091732e-02,-6.023271609663230020e-04,8.743204366280130872e-04,-3.372579375524585609e-04,5.025121569633483887e-01
4.637779191381740107e-01,4.551108241782026997e-01,-3.660405564913865595e-02,-1.995359020141891128e-03,-4.916947322552963143e-03,-2.813718809550603411e-03,4.962142705917358398e-01
5.013714030464265781e-01,4.721335932364644217e-01,-2.701691221744151328e-02,4.686602115795145823e-02,2.878273466344484499e-03,-2.390697568578412004e-03,5.207988023757934570e-01
4.765681978186576684e-01,4.746028418583191355e-01,-2.370299013439325364e-03,4.395299421868117777e-03,-5.459483827217317432e-03,-5.301783331946350632e-03,4.782011806964874268e-01
4.647690642081198087e-01,4.305733557756564744e-01,-2.426695179044335848e-02,-4.466283142301774242e-03,-1.403288983342725407e-02,-1.117806882153475970e-03,4.735578000545501709e-01
4.694538013567313706e-01,5.008642466522740255e-01,1.478784691955009611e-02,1.420895593496952422e-02,-2.887085113203651486e-03,-5.919522765596266049e-03,4.719372987747192383e-01
4.896165044441891379e-01,4.929311493985538695e-01,7.438856828581474900e-03,1.453947535280628034e-02,-6.774993339566754043e-03,1.250072664928925451e-02,4.851239025592803955e-01
3.467688915616773393e-01,5.301257816568337722e-01,-1.215416861729801123e-02,-3.363645738000553206e-03,1.146303858267179758e-03,-5.968419548692846348e-04,4.778027534484863281e-01
4.472431057825033696e-01,4.780729486737624878e-01,1.924945734345595572e-03,3.770897093088377422e-02,-1.902825675045274542e-02,1.658510569696930795e-02,4.681507647037506104e-01
4.839472622308043093e-01,4.805045969145275708e-01,-2.615014645252272674e-02,-2.909613282703286258e-04,-5.611314469284897459e-03,5.439850709176636233e-03,5.085652470588684082e-01
6.091986546497324406e-01,1.764989981302728661e-01,-2.511363797764670780e-02,-6.681322393668420734e-02,5.502249869595542402e-05,-5.224301329986470038e-02,5.802537202835083008e-01
4.950082863198551619e-01,4.797532136148234816e-01,1.859279237447225563e-02,8.063602117796477009e-03,-1.507969415728361087e-02,2.178172355356628245e-02,4.714204967021942139e-01
3.823915909144244285e-01,4.877595570879671993e-01,-1.094359003880845949e-02,-8.873107886979477582e-03,-7.118722749633351991e-04,-9.082651755941412511e-03,4.557906389236450195e-01
4.773426970721426077e-01,4.681751945089334122e-01,-1.825587039546222590e-02,1.329647426536649003e-02,-1.053882493866195071e-02,5.978014118562404930e-03,4.920664429664611816e-01
4.763422528581550131e-01,4.769874415682180957e-01,2.023315656718094324e-02,4.741177423358259105e-03,-1.016192394812297749e-02,-7.519146719936607715e-03,4.570306837558746338e-01
4.427921771115559957e-01,5.045392858990440654e-01,-1.607721431347192143e-02,1.203189866281740954e-02,-4.920418128998273188e-03,2.981212901559489401e-03,4.931949675083160400e-01
4.785475047222810252e-01,4.763619225015760517e-01,-1.766641604425034373e-02,-1.855587663500538271e-03,-6.717774234771778548e-03,4.683571957455042421e-03,4.953383207321166992e-01
4.796593100246487884e-01,4.784415332826802425e-01,9.053759995847676656e-03,5.447672037848273752e-03,2.089540126325959649e-03,-8.247575130030463872e-03,4.703234732151031494e-01
4.594855347609185792e-01,4.799207960179830978e-01,-2.754370566768937767e-02,-4.456745636228657886e-04,8.011778914976073205e-04,4.952234114323823648e-03,4.976381659507751465e-01
4.635717025953363657e-01,4.818850235898322620e-01,-5.542764426199386918e-03,3.206855595254264057e-03,4.395982715800422942e-03,-4.556955374241972168e-03,4.786919057369232178e-01
4.752561423098161653e-01,4.820859987719457451e-01,7.660365983174660665e-02,5.203752806953731123e-03,1.485823579743658467e-02,1.218752840820467968e-03,4.030399322509765625e-01
5.466996652126381306e-01,6.769398110699663684e-01,7.205234468388549418e-02,9.861313789595210766e-02,6.403639134275015965e-02,3.228966784953237606e-02,5.904864072799682617e-01
4.758886936764980535e-01,4.798712227327198709e-01,8.094561230502972382e-02,6.143678235472065097e-03,-8.117407638848448195e-03,-1.141049790616042656e-02,3.978319764137268066e-01
4.754669590606458440e-01,4.821167963198592643e-01,-1.518250014146427240e-02,-4.985153372884926475e-04,-5.284538079096713636e-04,3.852822562856818549e-03,4.940546154975891113e-01
5.000804800774214520e-01,4.534752598892892728e-01,-1.930825632769944677e-02,7.139552881418646801e-02,-2.574451226883257490e-02,2.070330870329133849e-02,5.160394310951232910e-01
4.773835940263136957e-01,4.741028274980544355e-01,8.648134675483809541e-02,5.890908573787440559e-03,8.003385175041346651e-06,3.565593316310258516e-03,3.894549012184143066e-01
5.687822076992906650e-01,5.335197887163510844e-01,7.429148423111381350e-02,-7.805959326476262505e-02,-7.961464507457509387e-02,-4.055341811413101100e-02,5.201506614685058594e-01
4.761664368890505816e-01,4.811869816787992526e-01,-2.255446863329252372e-02,-5.005152619779164530e-04,-2.112934316834464820e-03,-3.741091948366425529e-03,5.013059973716735840e-01
4.812606055631553637e-01,4.823860442992436992e-01,9.451656324514651208e-02,9.143819169014839529e-03,-8.897857435258999317e-03,-9.012288624999756402e-04,3.879410624504089355e-01
6.005668539449496857e-01,5.281684126982203464e-01,9.335703349777185744e-02,3.928908990469278696e-03,-3.470489128751731711e-02,4.304180178626659803e-02,4.847674965858459473e-01
4.483245518400834628e-01,4.429155650262072141e-01,-2.351920270971891158e-02,-4.704716337111563770e-03,-1.215287366163856492e-02,-2.250652765503277208e-03,4.697214663028717041e-01
4.578927811538843207e-01,4.634131906102308962e-01,-3.824233049259051498e-02,-7.584490750719375058e-04,-2.184469551436895359e-03,-3.475068548649177299e-03,4.989705979824066162e-01
4.626214028746910012e-01,4.617162489824372940e-01,-3.950503392639492795e-02,-5.190430100518427783e-04,-4.706118592581940135e-04,-4.504642280036681668e-04,5.016765594482421875e-01
4.624161810477348533e-01,4.618725567916623365e-01,-3.960562914851950556e-02,-4.945856975635921438e-04,-2.666533916104414452e-04,-8.175454202076531040e-04,5.017531514167785645e-01
4.597277561814175906e-01,4.467753341411715984e-01,-3.030926832279334793e-02,-1.840654172742345112e-03,-7.884269125899534894e-03,-3.703692956233431161e-03,4.839366674423217773e-01
4.764126616019060956e-01,4.749034837932403219e-01,2.010085353625146176e-02,3.634754345978629449e-03,-1.017339542091332157e-02,-7.960107524652851665e-03,4.561516344547271729e-01
4.913117424220327933e-01,3.429121785832104363e-01,-1.944706388246059126e-02,5.948976143386184440e-02,1.591339025426049755e-02,-2.816817991010256081e-02,4.699550569057464600e-01
4.768188774081507653e-01,4.712733924485483228e-01,-2.463918315192531461e-02,1.933087328091101379e-03,-4.145659029938457418e-03,-4.654935245370517109e-03,4.988365471363067627e-01
4.628179037685024033e-01,4.608604676362630936e-01,-3.831476139930239944e-02,1.133406478240128919e-03,-1.627590801237423787e-03,-6.549053540379440406e-04,5.001699328422546387e-01
4.657267209834468069e-01,4.616722069613262702e-01,-3.964853379784533116e-02,-1.798870342188817911e-04,-1.628744517501624347e-03,-5.384485197915789929e-04,5.033690929412841797e-01
4.660299026888117258e-01,4.615854247892487994e-01,-3.963474412749040665e-02,-5.754624378346314388e-05,-1.642301251793732439e-03,-5.352943186707668187e-04,5.034660100936889648e-01
4.087148759457223113e-01,4.974862855804402795e-01,-2.302405213882613433e-02,-2.548817879872125602e-02,-1.668468861630877792e-02,-5.536045145363466778e-03,4.852637946605682373e-01
4.798620751199308976e-01,4.800735770108555123e-01,-2.149029488359932571e-03,2.899599513586029057e-04,-1.024312390443789592e-02,-6.477056092221480585e-03,4.825738966464996338e-01
4.767984138252771009e-01,4.713073520229865698e-01,3.981823319999350241e-02,1.320065116729475085e-03,-8.931875982931431271e-03,-4.488178736772433647e-03,4.346117079257965088e-01
4.708170828717334611e-01,4.718712368038890936e-01,-3.295906937243309187e-02,1.262690267892985479e-03,-4.703870737378186909e-03,-4.684608195377889042e-03,5.044398903846740723e-01
3.888723058361283624e-01,4.777390429721919407e-01,-9.345609346742667078e-03,-1.222210061948020982e-02,-1.139742953003923618e-03,-1.140097134306122112e-02,4.502278566360473633e-01
4.612674689454394628e-01,3.748187322056704684e-01,8.965642507730242627e-03,-1.231579484781267914e-02,-6.375443676413265412e-03,-4.481265840102372985e-03,4.166372716426849365e-01
4.594060096151934558e-01,4.173074351051567765e-01,-1.999636871284626860e-02,-4.502004678143671848e-03,-1.526484890512788684e-02,-1.111614706341955416e-02,4.610285460948944092e-01
4.393679416063070442e-01,4.650378118727453436e-01,-3.173667050766476594e-02,-4.331040204415241221e-03,-6.982381364095444076e-03,-1.178414425282235493e-02,4.850884675979614258e-01
4.568217541862931164e-01,4.532813502429477448e-01,-3.639975058664446372e-02,-6.691904355716994310e-03,-4.881398790460027629e-03,-5.153774205385704826e-03,4.917512536048889160e-01
4.622755790890231697e-01,4.670581547438590331e-01,-3.768832354691242781e-02,-6.328934145430236465e-04,-2.647982057768703129e-03,-3.098460652122033386e-03,5.024230480194091797e-01
4.776302781674046649e-01,4.756795547357675069e-01,3.340892461159977733e-02,-3.165606555879194191e-04,-5.155085803820265780e-03,9.292918011508664086e-04,4.433423876762390137e-01
3.260605496846907259e-01,4.899766636160374778e-01,9.941259371588129223e-03,-1.040383565650019326e-01,-8.860272473922121972e-02,-4.353127587032504242e-02,4.902296662330627441e-01
4.073153440768246258e-01,5.142845028884488467e-01,-2.516977786003127271e-03,-6.735376148603587632e-02,-2.364720077760948044e-02,-4.024376477826472481e-02,4.933459162712097168e-01
3.412365796824344821e-01,5.464233740805981565e-01,-2.080067998654017147e-02,-9.689799279078262217e-02,-3.960034672113816462e-02,-2.447948266455848843e-02,5.311570763587951660e-01
3.836264009713181711e-01,4.679541043754108509e-01,-1.753791475659427501e-02,-5.371215485777710436e-02,-3.526762749631087018e-02,-2.362545702522027280e-02,4.646871387958526611e-01
4.544987981593353599e-01,4.839267940896473941e-01,-3.219270026184756217e-02,-1.945326041677512829e-03,-5.779016078239250682e-03,-4.478753303631728515e-03,5.022237300872802734e-01
3.966720861278434929e-01,4.818734515177029998e-01,-2.016108284085887936e-02,-9.622611772757648507e-02,-1.900923015693651089e-02,-1.730397756205697551e-02,4.962707459926605225e-01
2.362987814994225999e-01,6.688104612145157057e-01,-2.291484524760223351e-02,-9.214048298514242175e-02,-4.259716867488354264e-02,-5.849226180699921077e-03,6.303862333297729492e-01
5.135086764300427209e-01,3.696084933235029291e-01,-1.970873576629234014e-02,-7.373112038957642909e-03,1.074175976607697446e-02,2.720480201821877039e-02,4.806532263755798340e-01
4.758715229934548097e-01,4.489166496172132259e-01,-2.317317387364453696e-02,2.978599779745848362e-03,-8.595216830810282690e-03,-1.434461762153212442e-03,4.863896667957305908e-01
5.507128691222273886e-01,2.536691714555561750e-01,-5.752647968281787705e-03,2.812834684052455906e-03,1.016110791449301859e-02,2.150804642766216551e-02,4.840614795684814453e-01
4.819296774597864319e-01,4.616655889199728913e-01,-2.265732984161794583e-02,9.911145030062544579e-04,3.788623910729357024e-03,-5.046932045585355436e-03,4.948900043964385986e-01
5.410295949754908573e-01,4.112182292869471234e-01,-6.634428419964311097e-03,-7.037310023309412306e-03,6.664709212682338318e-03,2.465222448651590084e-02,4.977940022945404053e-01
4.762631052297000567e-01,4.785876858210683094e-01,6.591141932983213270e-03,3.598661075896062399e-03,3.332168177600638125e-03,-9.706436331273850943e-03,4.712151885032653809e-01
5.000501142983699854e-01,4.312864975881298690e-01,-2.781012257764936546e-02,5.260463613373527912e-04,-2.477461763261558803e-03,1.163259184913264556e-02,4.974861741065979004e-01
4.758616173932718185e-01,4.796197035792696406e-01,-7.491309313988836482e-03,-1.819446748725511449e-03,-2.099048988302710996e-03,1.636152930006101302e-03,4.852750003337860107e-01
5.108653585630700267e-01,4.184430611803987010e-01,-2.749378857416684419e-02,-1.025244678939738873e-03,4.307847749032631124e-03,1.471998702268307452e-02,4.993244707584381104e-01
5.115773243386863012e-01,4.117860026785469252e-01,-2.394249196333653185e-02,-5.718860526521227531e-04,9.242111461945734172e-03,-6.734428020967036252e-04,4.935160875320434570e-01
4.760755355995319738e-01,4.635285285519092913e-01,-2.922297381760879942e-02,1.030259052910746697e-03,2.221918294424969024e-03,-2.227734627103475362e-03,4.991762340068817139e-01
4.127778997491594604e-01,4.470442447418946363e-01,-2.737442184741589735e-02,1.191769484589925848e-01,-8.467481875654374324e-03,1.722013060287536437e-02,5.036911368370056152e-01
4.762913426791194893e-01,4.795285816787377975e-01,-2.621582411857026340e-02,-8.122087372482095571e-04,-2.029236790691747120e-03,2.230353227990290298e-03,5.041626095771789551e-01
4.582681770358961182e-01,4.492123340647785623e-01,-1.223489609828620761e-02,3.167167873145687942e-03,-6.617142704941429351e-03,4.653083586710096871e-03,4.662839770317077637e-01
4.691103973423903506e-01,4.767144786682699920e-01,-3.100799491937600294e-02,-1.142461318444912798e-03,-7.708740886858285978e-04,5.376918616209449197e-04,5.039699673652648926e-01
4.841909185804836868e-01,4.579573435057098241e-01,-2.531660471943503188e-02,1.857234809176689554e-03,2.666975477114108236e-04,-5.423551658840335132e-03,4.970097839832305908e-01
4.710819004886169226e-01,4.391363054295611135e-01,-2.015779460087568919e-02,6.531385668151247492e-02,-1.609743656461266534e-02,2.741318305101861016e-02,4.924160242080688477e-01
4.729333964484992991e-01,4.764900238593066106e-01,-1.728763528218751899e-02,-4.572533881146103094e-05,-1.861782266534628329e-03,-2.350669782627856728e-03,4.920364022254943848e-01
4.623497019795557161e-01,4.779193586465610988e-01,-2.888679354129292109e-02,-7.146672242643636376e-05,-3.717128437003430503e-03,3.582869314936118228e-03,4.992835521697998047e-01
4.594133328617040490e-01,4.813469319436001759e-01,-2.853921420309823986e-02,-8.361032379969002238e-04,5.306423930055293847e-04,4.774484569462137014e-03,4.993522465229034424e-01
4.761751729004216060e-01,4.816772859337424828e-01,-1.815268906619316169e-02,-7.219179208828209330e-04,-5.184662018336463028e-03,5.546209753513169256e-03,4.972772300243377686e-01
4.550202931013379581e-01,4.917909718032071886e-01,-2.991668842522776650e-02,3.040900980483597117e-03,-9.954996546097083163e-03,2.482870883764794288e-03,5.046691894531250000e-01
5.272734705470717431e-01,5.117198426122639976e-01,8.958023558814570686e-02,6.200633372145422650e-02,2.673953765173547534e-02,-2.911591732354614631e-02,4.485890567302703857e-01
4.710942050538243775e-01,4.650378425676311434e-01,-3.698281511401435573e-02,7.221401109287980731e-06,-3.200506473208805571e-03,-3.047415561935347145e-03,5.051340460777282715e-01
4.805935368205096481e-01,4.798944133141784807e-01,1.215968710446241330e-02,7.683250015887363449e-03,6.656576747599425060e-03,-5.902254636653125192e-03,4.685272574424743652e-01
4.486187256729546879e-01,4.712884472658029900e-01,-3.311773038838156102e-02,-1.131008397819711388e-03,-5.817409365603975644e-04,-8.647928847256920043e-03,4.936942160129547119e-01
4.843276669713455496e-01,4.654082501639758007e-01,-3.689218787031545155e-03,2.320509538733321522e-03,-3.458274888829762292e-03,7.822398260883858508e-04,4.788938164710998535e-01
4.623200073114464015e-01,5.033028102750501942e-01,6.573450630411076245e-02,3.282500954561937828e-02,1.201843812979863993e-02,-3.661737816979183067e-03,4.229879677295684814e-01
4.982757344626934648e-01,5.098497876901243453e-01,6.637759383359770338e-02,2.457573889316650231e-02,2.624038297613428671e-03,-6.187547561524829078e-03,4.400183856487274170e-01
4.467665205133808382e-01,4.843768967631319478e-01,-3.075473671226963690e-02,-2.714259641683644704e-03,3.536934069455476568e-04,-3.244350713668272927e-03,4.974483847618103027e-01
4.881539334627482685e-01,5.007557173913556037e-01,7.200221193246669760e-02,1.634144704935191691e-02,-1.586536096764877557e-02,-1.182089587750817343e-02,4.249244332313537598e-01
4.812669852828860839e-01,4.763760029247863792e-01,6.905619731839568454e-02,1.357305614429395874e-03,-2.267338712863493748e-03,1.117818327829744017e-02,4.102698564529418945e-01
4.795450873353543919e-01,4.723172679239789340e-01,-2.429835802797603028e-02,9.814618210691064635e-04,-3.756083049827241196e-04,-1.681887401740255177e-03,5.002804994583129883e-01
4.412209511973896880e-01,4.823152049305564626e-01,-2.005847037444780101e-02,8.224905166868691194e-04,2.279108375989437134e-04,8.883948996343288274e-03,4.833863079547882080e-01
4.818593278696445825e-01,4.777747996245607642e-01,6.675421910704903983e-02,2.579516564297140279e-03,-4.045124443914734601e-03,1.020018777939812882e-02,4.135391116142272949e-01
4.703054725892823473e-01,4.774712745691839233e-01,-1.926909940311344327e-02,3.132662640591582850e-03,-6.817307698542829364e-03,-5.997319518699823632e-03,4.934770166873931885e-01
4.601493476208540212e-01,4.715162234822670162e-01,-3.823838365692971974e-02,3.256934860103075742e-04,-3.184049273477174927e-04,-3.202280054221597321e-03,5.041984319686889648e-01
5.328701049330014650e-01,5.270101130280813173e-01,8.539225502349190311e-02,2.905398855289891002e-02,5.241638284579973328e-02,-2.534030452063222409e-03,4.565551877021789551e-01
5.009439036228139353e-01,5.100526613696098055e-01,7.457341397554162477e-02,5.492804575920748160e-03,7.001157309576126059e-03,4.051790831242664537e-03,4.313296675682067871e-01
1.733057990533996007e-01,6.023932383917238731e-01,-9.132502113005536160e-03,1.226309772419017646e-01,-4.856717471493534471e-02,4.047192976538504378e-03,5.898493528366088867e-01
3.893621055413690191e-01,5.217010581795277213e-01,-2.275230182670912038e-02,9.178053357767510315e-03,-1.341008050853026781e-02,3.158173657632438753e-03,4.926589131355285645e-01
4.701202716049140418e-01,4.720997152036814914e-01,9.897944728258362135e-02,4.557252800734767038e-03,-7.617785671885260283e-03,-3.726334305497120206e-03,3.725078999996185303e-01
5.748973384817976928e-01,1.860165760012449376e-01,-3.179425292424820082e-03,-1.112674174439912816e-01,3.071076135752653230e-02,7.339321669246192531e-03,5.483889579772949219e-01
4.698769637686172063e-01,4.776384045625326480e-01,-3.284753013177138525e-02,3.956270247032816524e-03,-2.884861475476484857e-03,-2.908384188569073953e-03,5.067458152770996094e-01
5.484411401210058656e-01,3.135797226328873588e-01,-1.551631451427892827e-03,3.749909823157453886e-02,6.704170519082502423e-03,1.227883920481506264e-03,4.825326502323150635e-01
2.917239281123872319e-01,5.269051327166697218e-01,-2.237523901778715185e-02,1.547538760186934204e-01,-7.507944808823709126e-02,9.384383455682387271e-04,5.626707673072814941e-01
4.700888614387344067e-01,4.761317752113394808e-01,2.446609832152840669e-02,9.619132212354617037e-04,9.123091628372758180e-03,-2.507443150306574737e-03,4.489769935607910156e-01
4.757592975933967461e-01,4.815373567498116292e-01,-7.369139495593646227e-03,-2.356707067871650126e-03,-2.037557759555054439e-03,1.521692012715393895e-03,4.860803186893463135e-01
4.188194718919667769e-01,4.960223607563233883e-01,-2.707140148433340165e-02,-2.127229575257013131e-02,-2.558063292006588704e-02,-1.458596376263752818e-02,4.931145012378692627e-01
5.314260410831117554e-01,3.001118716445781986e-01,-6.406510005043331013e-03,-1.054505120134099569e-02,1.478031607808263752e-02,1.990693797088198200e-02,4.696164727210998535e-01
4.803533930644761085e-01,4.685596002418805917e-01,-2.449959694532427568e-02,-6.728932219460593330e-04,-2.136149351527753576e-04,-2.701461449972151173e-03,4.990840554237365723e-01
4.776880902286276820e-01,4.228059165521694807e-01,-8.577304920906470009e-03,7.885703903400093431e-03,-6.733013801780385506e-03,-2.134270200948708914e-04,4.616291522979736328e-01
4.804823251966850450e-01,4.663553086035328032e-01,-2.463992467934567054e-02,-4.528881672835050596e-04,-2.290569796407150897e-04,-2.621879061972618146e-03,4.982304573059082031e-01
4.712665544232479964e-01,4.767475197189864344e-01,-2.971717821749997324e-02,-1.337804212122120162e-03,-1.516764739057845611e-03,-2.360325871756996428e-04,5.037589073181152344e-01
4.746786311060886554e-01,4.699858046840919013e-01,-2.723341638295811995e-02,5.842351310554948045e-04,-5.530595330623927670e-03,5.412651728149879353e-05,4.996750354766845703e-01
5.149731454710636536e-01,3.136157131905921713e-01,-5.489064088814943343e-03,-2.308096146497976009e-02,1.281008432494136137e-02,2.309141752754968746e-02,4.586032330989837646e-01
5.262157167089365206e-01,3.044515960192406556e-01,4.759627024957580055e-03,-1.034899275914803324e-01,5.459167319895806905e-03,9.082110733900177618e-03,4.877733886241912842e-01
5.615600352381543425e-01,2.565023992452968860e-01,-3.317002063750185137e-03,-1.048679137890232149e-01,4.675612359224826098e-03,1.591152772185745008e-03,5.223898887634277344e-01
4.633467208328440057e-01,4.761189794586589974e-01,-2.720092353396486029e-02,-5.464761364341521607e-05,-3.950028613594622554e-04,3.060145975259006158e-03,4.970856010913848877e-01
5.150496997620453987e-01,2.625739731004206323e-01,6.839933027657119080e-03,-6.690909614695669805e-02,-4.260390827558111198e-04,-5.791883474948795844e-03,4.552386105060577393e-01
5.689696651896025692e-01,2.726357082321181347e-01,-1.685854426261573780e-02,-9.061224392825782681e-02,-9.445570674688567522e-03,-3.552862393177940586e-02,5.348775386810302734e-01
5.170948766585312661e-01,4.961713194128319349e-01,6.430011096639087764e-02,3.171404844165819775e-02,-1.396154861210851215e-02,-5.489948754940317428e-03,4.468549489974975586e-01
4.694056915516416351e-01,4.773412149424832718e-01,-3.017504351229555182e-02,-9.986765242267828507e-04,-8.036292501231915675e-05,1.127583764989289724e-03,5.036021471023559570e-01
4.742904219615692862e-01,4.784980819093122562e-01,-2.193347897051617368e-02,-2.033098142034215662e-03,-1.911048259100024465e-03,1.737997497958296148e-03,4.983735680580139160e-01
4.860794171165822020e-01,4.848225556169637462e-01,9.981017656912383185e-02,9.056742624893874063e-03,-1.821050280543472623e-04,-8.271902528256358609e-04,3.859640359878540039e-01
4.698283994617351023e-01,4.724210085788428382e-01,-3.009875658011912369e-02,1.409780809160103088e-03,-2.418546273910455666e-03,1.121336477551451195e-03,5.012556910514831543e-01
4.940766260788551079e-01,4.564238679232789364e-01,-1.828417351894290332e-02,-1.054650802472760626e-04,3.478710302815107066e-03,6.226752653588628859e-03,4.947647750377655029e-01
4.701414661599593314e-01,4.793333357176502441e-01,5.233798579522119798e-02,4.159705352367600029e-03,-9.318210338656697034e-04,-1.217841599583415792e-02,4.230651259422302246e-01
4.818930952227718501e-01,4.823088389830414990e-01,-7.976221649786008339e-03,4.852704482683409086e-03,3.800138284889840231e-03,1.573088206622036411e-02,4.909502267837524414e-01
4.697991383878156180e-01,4.756261802451000609e-01,-3.023409715296787592e-02,-1.943762415218121362e-04,-4.436672219611907664e-04,-3.439988156328371307e-04,5.029731392860412598e-01
5.205531678653614325e-01,4.830680871152737144e-01,1.772270850764712247e-02,2.302388782904268849e-02,-2.154911865515900943e-02,3.987062292865595908e-03,4.882888793945312500e-01
4.500677029309697041e-01,4.854901172728373071e-01,-3.191712633866405913e-02,-5.882347935775912931e-03,-1.077835479070588659e-02,-7.530412153730795671e-03,5.012580752372741699e-01
4.828432535142687110e-01,4.547691472140114044e-01,-3.085192545475279324e-02,2.468103257066999227e-04,-1.915303356825529338e-03,-5.155517766140440238e-03,5.003401637077331543e-01
5.513138573477399662e-01,4.707472823555943764e-01,1.114442411079180628e-02,-7.057417179483506386e-02,1.229379543578581948e-03,3.466801197989512889e-02,5.227873921394348145e-01
5.497150747008490157e-01,3.819585302527470638e-01,4.399851338341465024e-02,-8.140567675733812250e-03,2.553975143389117936e-02,6.096176034467440386e-02,4.608241319656372070e-01
3.819360690897749544e-01,4.874552294511609318e-01,-6.043876324549890544e-03,7.499593596110956314e-03,-1.763165906379584105e-02,1.132716226242367480e-02,4.517613649368286133e-01
4.673231282725315294e-01,4.604922580458931103e-01,-3.903544724718205350e-02,-1.493509750591913779e-03,-3.796118009000854767e-04,-7.705411067813174248e-04,5.029867887496948242e-01
4.523771811410119414e-01,4.640879023210613963e-01,-3.360754991582842743e-02,-5.055671309764304998e-04,-6.479685453276621101e-04,-7.398688326248729040e-03,4.921135902404785156e-01
4.263505814812312833e-01,4.544416578947048646e-01,-1.932841370508386891e-02,-2.486399393549573386e-02,-1.227142296819875612e-02,-1.296017100872201046e-02,4.634099602699279785e-01
4.602070332952225562e-01,4.706495690428348366e-01,-3.872646868438467394e-02,2.923450610716413493e-04,-3.033603788986783518e-04,-2.563143709695639861e-03,5.042559504508972168e-01
5.236017577050590122e-01,3.773108431541413177e-01,5.957258973353057874e-02,-6.262005108691361122e-02,-7.652402618228903997e-02,-9.533758647258772090e-02,4.748054444789886475e-01
4.406519651918430203e-01,4.555564212816027858e-01,-1.830333173757853205e-02,-1.473716474824423098e-02,-1.476460187428046793e-02,-1.579781552000551412e-02,4.687822759151458740e-01
4.489251656591860540e-01,4.306576530781585643e-01,-1.664164512917154504e-02,-2.802445008656896577e-03,-1.042421117164799363e-02,-4.612217511700192688e-03,4.571594595909118652e-01
4.633958622855013920e-01,3.718758082127681108e-01,-1.177858224064637360e-02,-8.206500672067361390e-02,-3.357781177153500163e-02,-4.195016076776250658e-02,4.685558080673217773e-01
4.698037567397841396e-01,3.713782543112389423e-01,-5.623193701953743684e-03,-2.019769043963236255e-02,-1.483099480237528092e-02,-8.850741631963279094e-03,4.370846152305603027e-01
4.690854990873883357e-01,4.003701669054384737e-01,-1.988396760636701455e-02,-1.496749489080361796e-02,-1.338817662810094788e-02,-1.323926558150009813e-02,4.603790640830993652e-01
4.466677773632491411e-01,4.109159259015262022e-01,-8.166357282638869730e-03,-8.801436276634979836e-03,-1.067258465067314789e-02,-2.074836670978059180e-03,4.387233257293701172e-01
4.595996446136874636e-01,4.758228883006159204e-01,-3.661531026198622252e-02,-5.847093482244312664e-04,-3.576960398728695582e-03,-6.272136648466175059e-03,5.046782493591308594e-01
4.458099509002608762e-01,3.936314872732566972e-01,-4.886703247436230413e-03,-1.472182514585989102e-02,-1.430996714086028333e-02,-1.289057147187306837e-02,4.290646016597747803e-01
4.567028439374954951e-01,4.543715100049908751e-01,-2.060194006011956125e-02,9.634874020291540886e-03,1.112132494775629719e-02,-1.141612977649156084e-02,4.772348105907440186e-01
4.596894914459214165e-01,4.611674257372885277e-01,-3.849275478895303193e-02,-4.530286074144881329e-04,-1.353389090793722998e-03,-3.816440245275291442e-04,4.989294111728668213e-01
1.063077833481571866e-01,6.314028646322358274e-01,-4.136318932398752590e-02,-8.436549437230076581e-03,5.094771887290234363e-02,2.985207497951346267e-02,6.210852265357971191e-01
4.698527176287112805e-01,4.782601680041967951e-01,-5.677709968713806621e-03,-1.367490549064725829e-03,-3.868066942589030131e-03,1.172404978986738835e-03,4.798463284969329834e-01
2.498163739705067943e-01,5.246153554231065552e-01,-1.788617632458577855e-02,1.327338490954402261e-01,-9.970091924561198804e-03,6.672852363167957462e-03,5.234788656234741211e-01
3.927453103356676190e-01,5.021187785394496395e-01,-3.207452890405859680e-03,4.675281558249464592e-02,-3.743880782634914552e-03,1.212643709368394114e-02,4.680689573287963867e-01
4.387583169502149438e-01,4.544588369742101341e-01,-1.358800959138095621e-04,4.446788251048976182e-02,9.726959533816591924e-03,4.682914045451611051e-03,4.539243280887603760e-01
4.624089592996756259e-01,4.619491651829846779e-01,-3.941210429446384556e-02,-7.634951757508160212e-04,-4.892829254056960380e-04,-6.807557815501244329e-04,5.015951991081237793e-01
3.040776573397319660e-01,5.304910520864637435e-01,3.970783663509946937e-03,1.507926998900439852e-02,-7.284528720779920308e-03,-5.565352199811989030e-05,4.583849310874938965e-01
4.623515935709451852e-01,4.834875357157190634e-01,-3.497977322248546628e-02,-2.153995130302410266e-04,-3.615951458891956857e-05,-1.672525586037305933e-03,5.082374811172485352e-01
4.130530416372283353e-01,4.915049169958614073e-01,-1.126450525835304139e-02,1.793801425280804052e-02,1.561849069479110709e-02,-3.554723553848733886e-03,4.703441560268402100e-01
5.462638519305247353e-01,4.169764069380058613e-01,-2.409329385625463837e-02,9.686491162244013908e-02,7.871992274326477732e-03,-2.297305045505334750e-02,5.460770130157470703e-01
4.395977255561758223e-01,4.468777683230159559e-01,-2.157202074739511533e-02,-2.691622484456663005e-03,-9.908388130908610952e-04,-7.588536132947298028e-03,4.650648534297943115e-01
4.025014136544802223e-01,5.118008437231007512e-01,-2.643231579794808050e-02,-2.490439996799539285e-03,2.239639282861150167e-03,-2.611765185377536071e-03,4.928152263164520264e-01
4.767887753752165780e-01,4.977739758586066654e-01,-2.515891139864095960e-02,6.690886249921476625e-02,-1.769374341399011438e-02,3.708284456073079882e-02,5.304906368255615234e-01
4.280365646048476247e-01,5.012310426934988294e-01,-3.265405083007311138e-02,3.964105289862586944e-03,-1.415082273361072118e-02,-6.475659611361934097e-03,5.020826458930969238e-01
3.833836998109830807e-01,5.226831172442482076e-01,-1.963198982998487496e-02,1.143074195758640547e-02,-2.014436658916154282e-02,1.548332862950884715e-03,4.894715547561645508e-01
3.303665705573573530e-01,5.410168607095704463e-01,-4.499206375370157218e-04,-2.147974740230743432e-03,-1.654485197054315004e-04,8.803117302055140508e-03,4.730180799961090088e-01
4.014911224595140715e-01,4.864654236412935817e-01,1.092194019411907302e-03,3.040109319265919818e-02,1.345308181530230438e-03,7.784592522847810087e-03,4.522427022457122803e-01
4.297890318139026555e-01,4.473592257043292886e-01,-1.532764402943270765e-02,-4.856676066575252998e-03,-1.004600509632304524e-02,-1.211912829666979101e-02,4.550521969795227051e-01
4.714728947054097619e-01,4.793991016984489040e-01,-2.448206679601677704e-02,-9.195113345127843606e-04,-1.781426547322453435e-03,2.111491033141029913e-03,4.999906122684478760e-01
4.619683917719350497e-01,4.210386969481241803e-01,-3.912621335148025459e-03,2.587566989297735917e-02,8.840503034132279891e-03,-1.999593272987044892e-03,4.493407309055328369e-01
4.263896946231935381e-01,3.412838842682732188e-01,1.430786835008468483e-03,-9.515262878165134386e-02,-1.374433254549524593e-02,-1.264469957378849471e-02,4.241167902946472168e-01
4.728178598617320816e-01,4.780652883625101657e-01,-2.879108386909307038e-02,-2.177551019159818489e-03,-2.962508297688063418e-03,1.073105237350738869e-03,5.042967796325683594e-01
4.881962824386157918e-01,4.813455498356148388e-01,-6.357243792511513281e-03,4.383471568438639804e-03,-1.130067485512087182e-02,-7.072275560270541162e-03,4.917650520801544189e-01
4.654090016614041980e-01,4.726476196688457199e-01,-2.970868102306817304e-02,5.815178233538338248e-04,-1.406131450631775952e-03,1.062234096659493135e-03,4.987867474555969238e-01
4.699375104864224051e-01,4.752036205895292520e-01,-3.200894256784792002e-02,-4.584946687954162829e-04,-5.056117884053341763e-04,5.332466537137169711e-04,5.046023726463317871e-01
4.796204275789222038e-01,4.773220588236843920e-01,4.774417566768440757e-03,-2.354344108398484601e-03,-3.201263059288075950e-03,-3.307816218184272614e-03,4.737856388092041016e-01
4.740249468889052853e-01,4.706185661487080618e-01,8.944767777108675322e-03,-1.253076863581314851e-03,5.598887738911484608e-04,4.140606775748876395e-03,4.634479582309722900e-01
4.844981951455497038e-01,4.712085119157797264e-01,-2.427237325992048778e-02,3.522230925284550260e-03,-3.296225554942871453e-03,-2.005856433829681859e-02,5.035271048545837402e-01
4.716357313904834259e-01,4.771953390741466294e-01,-2.870581578122594069e-02,-1.800558190433458562e-03,-1.774631209719711470e-03,1.789179639380725781e-03,5.031729936599731445e-01
4.686888618798190631e-01,4.749543938293631085e-01,-3.112687447564210785e-02,-7.341168604298015619e-04,-1.848991560108919827e-04,7.502172297712581895e-04,5.029811859130859375e-01
4.736731171342565272e-01,4.719352826955686142e-01,7.708567202838023658e-03,-4.046258746028925761e-03,3.790735216405558342e-03,-1.643738985131477318e-03,4.652059078216552734e-01
3.071281688262141318e-01,4.112290680012010702e-01,-1.873998071091032003e-02,-2.198881276398110540e-01,-3.382929347214871235e-02,-2.022804869892002796e-02,5.483278036117553711e-01
4.333920332608593995e-01,4.329048663369756689e-01,-1.464589670233201746e-02,-1.167036440497360404e-02,-1.055537088314228295e-02,-9.742480283036793198e-03,4.489404559135437012e-01
4.220744057409433481e-01,5.036667050790901712e-01,-2.264464587201109325e-02,-6.769532519795511127e-02,-4.515827093676565152e-02,-3.452513839650583893e-02,5.139647126197814941e-01
3.880389995227748745e-01,4.656846219303411583e-01,-1.403331400747415136e-02,-1.336386617150239209e-01,-5.500115387397436217e-02,-5.036350717600551058e-02,5.188186764717102051e-01
4.807143009900932684e-01,4.602001480918388454e-01,-9.231012532956717198e-03,2.747662974323504797e-03,-1.831927681341802543e-03,2.523884312593564858e-03,4.800710976123809814e-01
4.586544199877179429e-01,3.841477448909306203e-01,-1.509080152775754691e-02,5.353326380325729161e-02,-1.448875306678141205e-02,3.624159152328330219e-02,4.559124410152435303e-01
4.620230585852109773e-01,4.717345635333182741e-01,-3.896346005612044694e-02,1.497887986075581044e-04,-9.637217753003847216e-04,-2.514420291310817332e-03,5.059337615966796875e-01
4.609044852379518553e-01,4.655210011896389055e-01,-3.900927149322419574e-02,4.481591380211908879e-04,-5.253328528674625975e-05,-2.776140818401406831e-03,5.022615790367126465e-01
3.453672235821546588e-01,4.666555504829919543e-01,-5.661991146405531694e-03,-1.480254124360481094e-01,-7.386323768418206863e-03,-3.077786558795334113e-03,4.964219629764556885e-01
4.619076200769973717e-01,4.655158434869820505e-01,-3.907682782862564874e-02,-4.332561016565527777e-04,-7.428772504929152245e-04,-1.925213669512135239e-03,5.028115510940551758e-01
7.043002270454774560e-01,2.384576624778630416e-01,-4.649065273878355553e-02,1.626360691543918824e-01,2.238939767968049430e-02,3.492185625548273331e-02,7.179552912712097168e-01
4.697153786858894176e-01,4.797127717852068263e-01,-2.800149943180768597e-02,2.326161605608072138e-03,-5.046980105542843084e-03,-2.473292979913365927e-03,5.029004812240600586e-01
5.396498162842828794e-01,3.368630365147374794e-01,-2.130323276680862188e-02,-2.160522512341126952e-02,1.153047525644457227e-02,2.743906591516860616e-02,4.960794746875762939e-01
4.754822020836259044e-01,4.790740680686136344e-01,9.118572814627967649e-03,1.409699072653549127e-03,-2.051584005871587030e-03,-8.647883492722279949e-03,4.684292972087860107e-01
5.391989475567255941e-01,4.559345730636661376e-01,-1.975984507122025002e-02,5.303052067585088680e-02,2.265540720153741243e-03,9.259978101277930793e-03,5.305995345115661621e-01
5.047370903320198554e-01,3.962796659052558734e-01,-1.825276140659642943e-02,2.256330975103215675e-02,-8.627250286618854888e-03,6.280908823566961133e-03,4.800293743610382080e-01
5.004678423517443520e-01,4.378926373899378888e-01,-2.710402631081099134e-02,8.821384772255273440e-03,-6.909887480548360843e-04,1.286283819650306352e-02,4.999660551548004150e-01
4.634102680990173084e-01,4.804807488998638076e-01,-3.229116859579056475e-02,-4.586575746819845897e-06,-4.579538476252643410e-04,-6.817072070106417392e-04,5.044553279876708984e-01
4.684052397622597841e-01,4.786603106379231365e-01,-3.042593395053472261e-02,-1.014285989733703383e-03,4.309926826060159243e-04,1.621609880344831523e-03,5.040484070777893066e-01
4.773604476597270163e-01,4.825709072899969643e-01,1.407490010325185281e-02,-1.132809475932481822e-03,-5.857040601323492725e-03,-6.271307427645123576e-03,4.661537706851959229e-01
4.793124729910722692e-01,4.755955999330649941e-01,5.469478673250660616e-02,2.992194696421871230e-03,6.744882115831281853e-03,3.752583532529247569e-03,4.230145812034606934e-01
4.789354432992188326e-01,4.772833611701413625e-01,3.063669935390256338e-02,3.297786466281213760e-03,3.405197577420119529e-03,-2.666685185571054202e-04,4.475505352020263672e-01
4.786647328324887818e-01,4.825168207839836687e-01,6.750548191638700013e-02,6.908175808575116490e-03,-1.579461750534991160e-02,-4.796895845869632823e-03,4.142598211765289307e-01
4.686048951539409924e-01,4.776589671577702312e-01,-2.754197187484236364e-02,2.609629199465165767e-03,-8.363347995241200792e-04,-5.644892304490333433e-03,5.008532404899597168e-01
3.886789284255333099e-01,5.281871591757036910e-01,-2.814029920237332005e-02,1.046800763039020393e-01,-8.135990738631663707e-03,-1.087248667494149657e-03,5.333164334297180176e-01
4.697747966611806048e-01,4.789341091610989087e-01,-2.967222773018335369e-02,1.807374363010697937e-03,-4.804089811662538498e-03,-7.391332810876651872e-04,5.041691064834594727e-01
5.123272843200877835e-01,4.844730115093354161e-01,6.488130872596126197e-02,1.901259330898068950e-02,-2.843481379458785707e-02,-1.788210142508992601e-03,4.382238388061523438e-01
3.481174065090485437e-01,5.325870300177188987e-01,-2.362687951294822897e-02,6.969400422557238406e-02,-1.356232300171055470e-02,8.850351769461174689e-03,5.061194896697998047e-01
4.699311344628964715e-01,4.813747690931947654e-01,2.305528821213531643e-02,2.759852258980812411e-04,8.813615487701244311e-03,-2.779165956279520846e-04,4.529639780521392822e-01
4.792545581090674744e-01,4.778722896507692219e-01,5.038263162401251938e-02,5.001077039428177343e-03,-7.190813730244812428e-03,1.110258325502148599e-05,4.284511506557464600e-01
4.469330717294786592e-01,4.277258980677082212e-01,-4.513863969816733768e-03,2.804461995945558422e-02,6.353218763616043548e-03,-9.271698764313839741e-03,4.452423155307769775e-01
4.681036020233433348e-01,4.821106707020820781e-01,-3.098137655512467337e-02,-2.008416988148254041e-03,-2.843780796001326130e-07,1.220263417749680845e-03,5.062502622604370117e-01
4.813394632243250815e-01,3.767867935455070927e-01,-4.187671377886004187e-04,1.090246849661268350e-02,2.529156059552502105e-03,2.857215248138483040e-03,4.393784403800964355e-01
4.346088029718236934e-01,4.202168998807407352e-01,1.228074308297077977e-03,3.269067832944293206e-02,3.378515751803954064e-03,5.306631041155720645e-05,4.301500916481018066e-01
4.637108051407569098e-01,3.764261604152593366e-01,-2.969550409062160501e-03,1.958023748388658114e-01,1.533996193911803599e-02,3.776042355771159348e-02,5.519731044769287109e-01
4.942843265940535247e-01,3.522999252593079778e-01,-1.233029236255939187e-02,8.375975579926958625e-02,1.890757826208453590e-02,8.369358799059690296e-03,4.766720831394195557e-01
4.799586316249652151e-01,4.677029907096939554e-01,-2.637145847157740253e-02,8.037845410860960547e-04,7.516318029149695375e-04,-8.147694385461938440e-05,5.003185272216796875e-01
4.902474657970108396e-01,4.009352943582725759e-01,1.250102644542117059e-03,3.065985709314360264e-02,2.342886158839201961e-03,1.657711958054117240e-03,4.541656672954559326e-01
5.636731130278013202e-01,4.395156206381944930e-01,2.919945986230210178e-02,4.037801257435701813e-02,3.621388056772557266e-03,7.953349968343126353e-03,4.897330999374389648e-01
4.498117117020426492e-01,4.827424403328612890e-01,-2.682801939506451738e-02,1.742323840828374076e-02,1.249889324378122141e-02,-1.516624087018652971e-02,4.960195422172546387e-01
4.673233133661723882e-01,4.751543693552553460e-01,-3.136926399818462663e-02,-8.773161148704690946e-04,6.617009719442207825e-05,4.603025372397386971e-04,5.026568174362182617e-01
4.641308917132117573e-01,4.873233862448275167e-01,1.154570643131452856e-02,2.127121274491368397e-02,1.027163987771211213e-02,1.524523575409319652e-03,4.664211571216583252e-01
3.568332470930055678e-01,5.205734435726421250e-01,-9.141470095781645266e-03,7.391819251633738146e-03,-3.299151479159260179e-03,2.228408000526490229e-04,4.699679017066955566e-01
4.760320306153903447e-01,4.665078473221915267e-01,-3.466548102085192928e-02,2.899672581095374350e-03,3.130297639511878983e-03,9.445282970694382019e-04,5.060592889785766602e-01
2.861923180083633667e-01,5.612535546988215440e-01,-2.116422804522466450e-02,3.917736608398229153e-02,6.907153014722035300e-03,6.750637982946477121e-03,5.094634890556335449e-01
4.499879965925978609e-01,4.470769893451386201e-01,-2.744342493974993857e-02,-2.948252340428738315e-03,-5.633117871536802782e-03,-7.099279452654490286e-03,4.762687385082244873e-01
3.987249043714052865e-01,5.035147181017299856e-01,-1.142728733413306275e-02,4.553307549709693057e-03,1.424897093334005944e-02,-6.978405699356085221e-03,4.722318053245544434e-01
4.801766238181338076e-01,4.608708942994337310e-01,1.363482812163974156e-03,4.343648110597001476e-03,4.267861611915440591e-03,2.034819223130264476e-03,4.695897698402404785e-01
4.829390159183494236e-01,4.602261629930316511e-01,-2.792952961587624738e-02,-5.106723103403177809e-04,4.553515188113734825e-03,1.839402980820971931e-03,4.999724030494689941e-01
5.492210598228840501e-01,3.094669156217358386e-01,-1.800968550073422936e-02,1.813496796038049572e-02,5.666441367137501316e-03,1.621852188943760176e-03,4.942951500415802002e-01
4.908300499901699365e-01,4.507924703011462197e-01,-2.934641514424013442e-02,-1.005052027727662165e-03,1.561975903937290423e-03,2.947242944077348940e-03,5.013943910598754883e-01
4.409530134137902846e-01,3.866169621493320552e-01,8.670070617483205400e-03,-2.725703555987029486e-02,-5.456072411488783330e-03,-5.153776587815870301e-03,4.107678532600402832e-01
4.381468746219640553e-01,4.262221405418056275e-01,-5.390731650438462808e-03,3.023628116931449672e-02,6.525823874604730693e-03,-3.238577962342625589e-03,4.409996271133422852e-01
4.535597443843508714e-01,4.762202854628270199e-01,-3.687703990076096616e-02,-4.896946408765921830e-04,-4.063208727938223165e-03,-6.334938440359022711e-03,5.023205876350402832e-01
5.259854205310873221e-01,4.254438051764573014e-01,-1.533627842650475692e-02,1.041652271726047352e-01,1.522968875667784182e-02,-1.449799374695219349e-02,5.315919518470764160e-01
4.976603915956741564e-01,3.172365675860547296e-01,-1.877881240752815595e-02,1.877581283493799658e-01,1.815906275931173167e-02,-5.499020092701860374e-03,5.593957304954528809e-01
7.668352875054950113e-01,4.256203409757443046e-01,4.214400176331883907e-02,8.489115855754977846e-02,-8.564835181882949483e-03,-1.225179686013544156e-01,6.791179180145263672e-01
4.607458323443486270e-01,4.811743712911478177e-01,-3.309832899545511742e-02,5.801782059395131884e-06,-4.235149735920689523e-03,-6.069803356900342964e-03,5.045316815376281738e-01
4.712440002325099520e-01,4.649928167490396946e-01,-3.455605483184820415e-02,-6.123397309939318826e-04,-3.928259952058994059e-03,-1.914099184705742723e-03,5.027617216110229492e-01
4.456395283682484942e-01,4.521745455120081969e-01,-2.091979628853335438e-02,-4.791865840524565066e-04,-1.431952673446532705e-03,-5.978531867417245273e-03,4.699822962284088135e-01
4.802492706089840913e-01,4.644924907426268845e-01,-1.749835374638292196e-02,1.028503514211488550e-03,-2.977571190913836426e-03,-4.334658149309698200e-03,4.901471436023712158e-01
4.893782688623554700e-01,4.071622829858049797e-01,-1.641826437407983841e-02,1.538232885211288439e-02,1.393803909892824162e-02,-1.755047758330219310e-02,4.724634885787963867e-01
4.622101613809508347e-01,4.856482881076937819e-01,-3.289556523820530431e-02,8.007757751706863101e-04,4.929611304247775170e-04,-3.342392671821158511e-04,5.072340369224548340e-01
5.118162865449374932e-01,4.049445079788668855e-01,-1.690378615888832314e-02,1.160745569083861464e-02,1.625996273155812591e-02,-1.615310227693714934e-02,4.862523674964904785e-01
4.412923321168046309e-01,4.384009471887025944e-01,5.154924838740582160e-04,3.641143933378777377e-03,-7.796951189438144957e-04,4.672200229605741589e-04,4.393863677978515625e-01
4.704193074665691254e-01,4.790244434911373750e-01,-2.168855619309972838e-02,5.113654008836800461e-04,-4.346479263505730571e-03,-3.927967154668059700e-04,4.965246915817260742e-01
4.833211687092280329e-01,4.014107893928228199e-01,-1.141777727540371767e-03,6.717157859567662349e-03,9.880814709221226802e-03,-3.916902599934709434e-03,4.496725499629974365e-01
3.942267145823142305e-01,4.367015932908582254e-01,-1.322049992477969393e-02,-5.037797632509806445e-02,1.397184588459004367e-02,1.580439396247768080e-02,4.405364990234375000e-01
6.021693172946993577e-01,3.467307359533769451e-01,1.980663328967824377e-02,3.336016792349344451e-02,-1.735757969664645031e-02,7.410336963317878944e-02,5.256935954093933105e-01
4.256591180185497758e-01,4.494020733045456240e-01,-3.908803236274682735e-03,-2.003606201978310949e-02,-1.574282962936681893e-02,-1.522638392139489052e-02,4.448987543582916260e-01
4.724644715557990704e-01,3.451974870067674450e-01,7.503742330302543007e-03,-3.194366641600794587e-02,-1.238092213173724344e-02,-3.239007948308357098e-03,4.204328060150146484e-01
4.683596909245144047e-01,4.794257041143378806e-01,-3.024032410579652330e-02,-8.454529403605847652e-04,4.035656232379293529e-04,1.177996266691240653e-03,5.042308568954467773e-01
4.624206646288220313e-01,3.624601998535150749e-01,7.148367919824649697e-03,-1.486623128833707529e-02,-9.402361123535497509e-03,-1.033317327287280180e-02,4.159378409385681152e-01
4.084240355460195815e-01,4.701008979336855909e-01,-1.042004113643252294e-02,-5.850704615581765224e-03,1.177246713335631557e-02,1.854331633360406517e-02,4.545518755912780762e-01
4.576967378902916384e-01,4.188118964133228372e-01,-2.123983571505705381e-02,-6.654385415548762575e-03,-1.463606403592209067e-02,-1.052151624751841881e-02,4.619269371032714844e-01
4.603695437749656949e-01,3.638845315707189276e-01,-6.939752946553801038e-03,-2.767200177370052541e-02,-1.505189744801888226e-02,-1.178771412963934735e-02,4.312687516212463379e-01
4.658971168690619336e-01,4.799869914603495102e-01,-3.215620341493119483e-02,1.118350159401025742e-03,-1.564390121676364868e-03,-5.263514081833051790e-04,5.052574276924133301e-01
4.550142019615220912e-01,4.356213264980893785e-01,-2.424060407117190064e-02,-2.939825132935687535e-02,-2.762058751865603679e-02,-2.873844958346533779e-02,4.776256680488586426e-01
4.581540868756901475e-01,4.582935545603705751e-01,-2.880989709311959635e-02,-1.142898629856658847e-03,-7.652336742555327156e-03,-6.701710748492141143e-03,4.873563349246978760e-01
4.382092907892334299e-01,3.807337129121919905e-01,7.325658657406697305e-03,-2.374007343496454744e-02,-7.406097014948377112e-03,-6.582290403298605638e-03,4.076569080352783203e-01
4.714933049051019953e-01,3.628621330666289557e-01,-7.440248093073920099e-03,-2.075521516225414809e-02,-1.868147948237810010e-02,-1.682051419668140896e-02,4.385648071765899658e-01
4.699949879859264268e-01,4.690260303768744032e-01,-2.661446115611137975e-02,3.100385955512710828e-03,-5.821592558197381112e-03,4.079317674288315994e-03,4.963074922561645508e-01
4.496730392716450919e-01,4.581953625793294682e-01,-2.863754039452598432e-02,1.464246857292754792e-03,-6.112425387752586439e-03,-7.488747526931162357e-03,4.829251766204833984e-01
4.666150936120020409e-01,4.570813507985742596e-01,-3.695169597068675982e-02,-1.388093473743712628e-03,-5.567732532762588969e-03,-3.683093515644741446e-03,4.990080296993255615e-01
4.431883763771076179e-01,4.383056288607755091e-01,-4.609727921361939096e-05,3.805650189832388355e-03,-1.645521546325349322e-04,4.140793216964028917e-04,4.408633410930633545e-01
4.413572241762412363e-01,4.370460152790914821e-01,1.035928270405273022e-03,1.802111905964635247e-03,1.265624175773310753e-03,1.017521956098910944e-03,4.382017552852630615e-01
3.698030511711165591e-01,3.765169468988031065e-01,-4.329396542151364713e-03,-1.432846280087551050e-01,-6.691300750545197892e-03,-2.509643117093842638e-03,4.519698321819305420e-01
4.702642148118979515e-01,4.797537545415450078e-01,-5.551760533232974471e-03,-3.059015260050697120e-04,-4.127894655711239653e-03,3.598588314903829579e-04,4.806848764419555664e-01
4.556871998186677319e-01,4.902578488539642287e-01,-2.917679221225921715e-02,-1.281166035855125541e-03,2.140395268572731560e-03,1.615786030015516463e-03,5.030673742294311523e-01
4.028362757766322799e-01,5.052735781760355760e-01,-2.474522263860090554e-02,-1.757843576070772338e-04,2.418570795901350563e-03,2.648263830913687774e-03,4.869890213012695312e-01
4.622562335909883302e-01,4.826152851003516764e-01,-2.414941639395651318e-02,1.486271918218141008e-04,6.018282959590669310e-04,1.363110082518970666e-03,4.969048500061035156e-01
4.672686777158417959e-01,4.568688236931056634e-01,-3.686586405956165935e-02,-5.861207938288280628e-04,-5.156475123925965617e-03,-2.730857479803548617e-03,4.991192519664764404e-01
4.631802790748376086e-01,4.573550056310702328e-01,-3.700674822692895383e-02,-1.604732583005053078e-03,-4.831154941712211513e-03,-2.878965143997352493e-03,4.974031448364257812e-01
4.690542611939013118e-01,4.730523689057946068e-01,-3.122830278322363817e-02,-7.340633132934940887e-05,-3.939073415336538783e-04,1.004004889654342564e-03,5.022970438003540039e-01
4.551876587170075039e-01,4.683857933832853981e-01,-3.710094560906584960e-02,-9.161798820356720783e-04,-2.457066717283857248e-03,-5.834075274925197389e-03,4.991415441036224365e-01
4.695710207906169109e-01,4.763620191861705488e-01,-3.023638117162508188e-02,-9.441687568700802852e-04,-3.284272755835265008e-03,1.021929385880811442e-03,5.032752156257629395e-01
4.604045970641170715e-01,4.721086761817165911e-01,-2.740726290474881921e-02,-2.761714664851892473e-03,1.181487911246401307e-04,5.171358457427432552e-04,4.937919676303863525e-01
4.674802901728097870e-01,4.716885629847903938e-01,-2.686354758765274742e-02,-8.006697983387413070e-04,-3.409684636582832953e-03,4.889283234025582243e-04,4.964991211891174316e-01
4.647664747478660319e-01,4.582425955770559334e-01,-3.672559701463057324e-02,2.735341550773396691e-04,-3.940545272534487324e-03,-4.640758879511106341e-03,4.983739554882049561e-01
4.559824872283923525e-01,4.631965954312106115e-01,-3.343760838413545322e-02,1.182599524423838012e-03,-1.148458908616470679e-03,-7.929430041441941357e-03,4.932662248611450195e-01
5.465366969270575304e-01,3.155066688210098613e-01,-4.117979537965887893e-03,9.522411168085284996e-03,9.732421014018142330e-03,2.428758748859883090e-02,4.813559353351593018e-01
5.848246090661706198e-01,2.860450770363731077e-01,-2.397524115113663923e-02,-2.019717320912947298e-02,2.378404252833117918e-03,-2.267222811371635491e-02,5.298984646797180176e-01
5.314135762090990145e-01,3.206114332291774560e-01,-7.200628089624128148e-03,-7.786632598229934268e-03,6.535920384799214378e-04,-2.767957795968162965e-02,4.727403521537780762e-01
6.070110343824806076e-01,2.747918159093004631e-01,-3.834299278577479875e-03,9.318367361068757848e-02,4.543889126191442778e-04,-1.387531196120802245e-02,5.542516112327575684e-01
5.041751534305178861e-01,3.369262460933317715e-01,-9.105586619450101171e-03,-4.673406812626535595e-02,-7.459892859748683790e-03,-2.143117682771708207e-02,4.622561335563659668e-01
4.481320791130832260e-01,4.553347277711180530e-01,-1.230096683956383163e-02,1.265204595464448391e-02,-5.296287248657600803e-03,7.004846683785795683e-03,4.648423194885253906e-01
4.721790649948572893e-01,4.787082147038106417e-01,4.598841283631749377e-03,9.418685445509853609e-04,-6.859699963491091082e-03,-2.179723004154391405e-03,4.710465669631958008e-01
4.544294750392755544e-01,4.663802573726892886e-01,-2.329976547633405559e-02,5.756551490110661633e-03,-5.520562211581404866e-03,4.769382480196321036e-03,4.840830266475677490e-01
4.585019983023404522e-01,4.669177078804525594e-01,-2.414175945560909087e-02,5.301315017775430020e-04,-2.046929129185928731e-03,2.962450065326775826e-03,4.869469702243804932e-01
4.471027562430059943e-01,4.788644255669985972e-01,-3.380702037378069402e-02,1.815339860420671955e-04,1.071571558871404995e-03,-7.132428088136768402e-03,4.977084100246429443e-01
4.488918040427249956e-01,4.740703646574734309e-01,-2.540423149211784581e-02,3.542842939500170842e-03,-3.740640626807008144e-03,4.939324871086208518e-03,4.875301122665405273e-01
4.735610805573005622e-01,4.490084463095755374e-01,-2.169992466406611697e-02,-1.626963349295923456e-02,-3.437634417288069726e-03,-6.437118369247922522e-03,4.844380319118499756e-01
4.467378372069894521e-01,4.551641016254321936e-01,-3.654924590891284186e-03,1.203309074378624936e-02,-4.865929574572121392e-03,6.249780948647725397e-03,4.553486108779907227e-01
4.515256530150588143e-01,4.660070272344831732e-01,-1.872767487529913844e-02,4.704746020703459665e-04,-7.297975051358311866e-04,5.127955210586460609e-03,4.777436256408691406e-01
4.743791216822321744e-01,4.780156931324600622e-01,-5.392172849339627039e-03,-1.490681784179566111e-03,-4.556291088172989383e-03,1.206920272517109788e-03,4.816759824752807617e-01
4.367962587961725651e-01,4.076012672860592212e-01,3.711714233395890794e-03,-8.842108676461667496e-03,-5.308093307925833976e-03,-1.502645464323390653e-03,4.196385741233825684e-01
4.811722220055379973e-01,4.770592063682401740e-01,-2.120738971339081180e-02,1.572931358355297978e-03,1.406894214527484865e-03,-3.529827687335902308e-03,5.003864765167236328e-01
4.555034582831528067e-01,4.641288216587824977e-01,-3.554432130580054139e-02,-5.592070442082265093e-03,-6.596822588423931558e-03,-8.445638828840489401e-03,4.958589971065521240e-01
4.824617561972627811e-01,4.810260260859644532e-01,8.247705281990314052e-03,-1.818547963180422358e-03,7.310199402176636475e-03,7.073003036074824133e-03,4.738359451293945312e-01
3.965035227418545194e-01,4.675371236256053997e-01,-9.407247169513965890e-03,-8.425225550073120462e-03,-1.990425266837740365e-03,-1.293568587476171677e-02,4.465080797672271729e-01
4.859776647832820817e-01,4.831175247522821459e-01,1.159192184169839379e-01,1.060440911379410302e-02,-1.321838399516179520e-02,-2.447074977498580814e-03,3.698276877403259277e-01
4.718133330771734357e-01,4.815581927116954208e-01,9.233894382152663116e-03,3.762992660891030430e-03,2.570692371525722369e-03,6.335963502067571557e-03,4.677234292030334473e-01
4.759106660663554589e-01,4.457790969699785832e-01,-3.055335646447909781e-02,-8.073193748596396019e-03,-4.209378481795832995e-03,-8.594770361458198282e-03,4.925682246685028076e-01
4.463160227566614902e-01,4.926381415336024139e-01,-3.299198913914824782e-02,-8.628249979207721580e-04,9.072820922763072870e-04,-5.976417221777840377e-03,5.041788816452026367e-01
4.805803686483206549e-01,4.823482562185870126e-01,7.671989272193552312e-02,7.055724795010672075e-03,-8.895461353588835635e-03,-1.456461941837691428e-03,4.052326381206512451e-01
4.712113737179006723e-01,4.833270406493934690e-01,6.073815756770167829e-02,3.746798287814686983e-03,3.250018103285785224e-03,-4.455824650063563465e-03,4.168231785297393799e-01
4.267122205967432969e-01,4.309913761165632407e-01,5.561916338360006762e-03,-1.184617996490997666e-02,6.431704220733355966e-03,4.774590767161471065e-03,4.240301251411437988e-01
2.868711322411641729e-01,5.568595816956012357e-01,-6.173448205983378401e-02,-2.063111077505272173e-01,-2.296588006154728911e-02,-2.729454791266317307e-02,6.481120586395263672e-01
4.347933164641579751e-01,4.336033347222543188e-01,-4.246085320018799791e-03,-7.469493090149085905e-03,7.951806175590053413e-03,8.980682501519744385e-03,4.391282200813293457e-01
5.581071321939430341e-01,3.289715490057157909e-01,4.971413134198432449e-02,3.577394199774067856e-04,2.427758754012184980e-02,5.636166097458102792e-02,4.536233246326446533e-01
5.385348042642468247e-01,2.766098187297418298e-01,-9.111601366621313591e-03,-1.965709649848689788e-01,5.763001317954911940e-02,6.519452144281873140e-03,5.925289988517761230e-01
5.019534274894316139e-01,2.600487987223149000e-01,-6.900396645149853292e-03,-1.376844630359351507e-01,1.035249463159560910e-04,1.632743054490532614e-02,5.020226836204528809e-01
4.861870196084639439e-01,3.626734997765296287e-01,4.965156516028468303e-03,-4.850359022131211367e-02,1.109346295076945287e-02,1.571437088308794833e-02,4.422222077846527100e-01
4.620965810735788715e-01,4.821393622740667295e-01,-2.791493403175732135e-02,3.245449805127224082e-04,-2.987844677517572777e-03,2.548485686360848004e-03,5.003806352615356445e-01
4.558836447530752456e-01,4.371976570786189065e-01,-8.806293471208259671e-03,3.748098530933872009e-03,-5.389324038854268785e-03,4.343124918878650325e-04,4.557768702507019043e-01
3.421297018750149022e-01,5.104485082493375181e-01,-7.908650450317022962e-03,-5.034122430799101849e-02,-1.884968512914135530e-02,-1.258088333713929148e-02,4.678884446620941162e-01
4.322881531101590014e-01,2.821729147666586224e-01,-2.468716473430476732e-02,-2.042004536692469951e-01,3.353090844402612045e-03,3.885110924114783173e-03,5.365953445434570312e-01
4.087578844560914026e-01,3.393011939192073778e-01,-1.441869844113274901e-02,-2.798883182986810492e-01,1.424294662235557965e-02,1.142620998325204022e-02,6.249182820320129395e-01
4.634259094475609020e-01,4.763060362176425588e-01,-2.614657404246489847e-02,3.226107096144277195e-03,-5.267432028818419716e-03,5.666834273066332500e-03,4.963503479957580566e-01
4.609438235725937250e-01,4.767811229615276369e-01,-2.764866084707429117e-02,7.108632474191474535e-05,3.576274901177203445e-04,4.076297266769000546e-03,4.967510998249053955e-01
4.699516196403317747e-01,4.789820278178698043e-01,-2.461336889132759165e-02,-2.007538572783866895e-03,-2.164098513949309476e-03,1.987495588882344510e-03,4.991795122623443604e-01
3.612121692593346367e-01,7.071750962397052032e-01,2.690496173450668271e-02,1.101810615953055517e-02,-8.206898643550694650e-02,-1.169908019555747532e-02,6.067044734954833984e-01
4.318712694960313847e-01,3.579565970865691837e-01,-1.032023088375216835e-02,-1.213421283565996045e-01,4.496743043223239839e-02,4.192077414051221390e-02,4.730985760688781738e-01
3.619401539870008566e-01,5.667817429600310319e-01,-1.783943501462370573e-02,-5.140691038239894942e-03,1.553437692982927165e-02,6.185942676091152510e-03,5.146895051002502441e-01
4.579938797858418287e-01,4.555438847246769396e-01,-1.907066617864638935e-02,2.602344732928063651e-03,-5.528837187691598362e-03,2.094562898902168474e-04,4.759621024131774902e-01
4.948938745318661736e-01,4.832408276558454174e-01,-6.202607690002637231e-03,5.656992453239990948e-02,-2.200967180467862730e-02,3.233016005150089744e-02,5.094935297966003418e-01
3.125359956117908511e-01,4.517982439414725548e-01,-2.508736351613521931e-02,1.976135069456188553e-01,-4.438530722280905651e-03,1.834813874427312919e-02,5.464650392532348633e-01
4.343571675115220354e-01,3.997419970861749716e-01,-6.283741473308734893e-03,-4.379132315371934286e-02,-1.592429014887994029e-02,-1.483359680084376034e-02,4.327628314495086670e-01
4.783823074636553430e-01,4.605154835166450633e-01,-3.698477657293042231e-02,-7.913640808347148113e-04,8.713229662520447644e-03,5.096089804822857491e-03,5.069733858108520508e-01
4.667441131075767968e-01,4.686975543330447191e-01,-4.165509045304066627e-02,6.864583410066765973e-04,1.795942687609634403e-03,1.448188044280752235e-03,5.093957781791687012e-01
4.487261892138469377e-01,4.772892565382336194e-01,-2.685165054022392583e-02,2.256700035314684275e-03,-4.925721006839491739e-03,5.723038709209593566e-03,4.906734228134155273e-01
4.681222807668592445e-01,4.019326613607580034e-01,-1.111170606314348941e-02,-8.799946315380174564e-03,1.943264162617836313e-02,1.322794207294511297e-02,4.519027471542358398e-01
4.648005788581717201e-01,4.831830071446659436e-01,-2.632569387735855804e-02,-1.391486362548766120e-03,-3.100788725498043741e-03,2.154478978215173396e-03,5.006192326545715332e-01
4.797871840556418577e-01,4.238711926187087586e-01,-2.243520969884615912e-02,-2.485598780895257633e-03,1.484698182858134978e-02,7.705878236089328849e-04,4.774445295333862305e-01
4.696315161607876876e-01,4.724913959832789945e-01,-3.451949908921575494e-02,1.386905997922040700e-03,4.554893131199412408e-03,3.055594280111324345e-03,5.056819915771484375e-01
3.157401945119223674e-01,4.620859515629109904e-01,4.350153257277389329e-03,-1.448763579312579430e-01,7.006116478331086972e-02,4.363644046746326804e-02,4.973500072956085205e-01
4.397414237696952721e-01,4.640062627262727668e-01,-1.683541178504371905e-02,6.536168030240346871e-03,-6.646173146815535435e-03,8.763424859191978541e-03,4.697031378746032715e-01
5.072077827972424346e-01,3.867610262082299966e-01,-1.318360572598920033e-02,1.546707049178599191e-01,-1.489507771513798838e-02,5.564518882114569132e-02,5.516874194145202637e-01
4.635511649040900961e-01,4.726102659521458360e-01,-2.774770733972442560e-02,7.350113921777120043e-04,-4.627116549285780400e-04,4.953809342650774931e-03,4.959670007228851318e-01
4.715404765808358101e-01,4.754939597197980761e-01,-3.145184689264995948e-02,-9.212329996878644090e-04,-9.311936783176595015e-04,4.489261852568952101e-04,5.049863457679748535e-01
4.459071427702196999e-01,4.758332485348160112e-01,-2.438953959061196386e-02,2.765536293367006331e-03,-7.733865836267743779e-03,7.350392762976826547e-03,4.863261878490447998e-01
4.529488651684238087e-01,4.838399143148324755e-01,-2.831772845399099792e-02,5.023538315668261333e-05,9.707965330719744816e-04,3.984980367198010659e-03,4.974827468395233154e-01
4.713328874900307719e-01,4.786982773465099372e-01,-2.903313421296566110e-02,-1.202127640724387275e-03,-2.269189897462442051e-03,1.492296656700491022e-03,5.041153430938720703e-01
4.077209846550799432e-01,4.392039860314084221e-01,6.023237207884613031e-03,-6.519472601758582314e-03,-1.994462828462956454e-03,-5.542121324344395639e-03,4.186054170131683350e-01
4.014722349155714909e-01,4.379986721203449340e-01,9.040825266394492132e-03,-8.752642824563417259e-03,-1.186015961993761676e-03,2.587218920105002675e-03,4.122194051742553711e-01
5.467865619462204396e-01,3.429792912604269217e-01,-1.904653142757262163e-02,-1.982691497079576426e-01,-4.985752387860980378e-02,-4.208790908591517055e-02,6.140741705894470215e-01
4.097720553362483864e-01,4.948153948172047678e-01,-2.690747443414603923e-02,-4.859426798064410587e-03,2.518760973767639861e-04,-2.476918911089262890e-03,4.849201142787933350e-01
4.675648221727070619e-01,4.771084406370063036e-01,-3.057562874204444725e-02,-9.804557949939529150e-04,2.069331851683635717e-04,1.121231932688554521e-03,5.029869079589843750e-01
4.703055133645601682e-01,4.761557618608128206e-01,-3.089854627239690954e-02,-9.651488308043141076e-04,-9.675910168330645236e-04,1.669830804071590529e-03,5.041685104370117188e-01
4.691610970045161366e-01,4.773273738254786291e-01,-3.089749327339241791e-02,-9.500989700666159256e-04,-9.338838748805473921e-04,1.635203887093619919e-03,5.042045712471008301e-01
4.091373413182043395e-01,5.066575468892826617e-01,-2.499936354302090269e-02,-3.991132998973556320e-03,1.671554572526815407e-04,-8.982767402020251299e-03,4.905220866203308105e-01
4.287043778545654438e-01,4.238395203806017419e-01,3.822851274024208212e-03,-2.629128195898076947e-03,3.734521150972702416e-03,2.849925775469336429e-03,4.225730001926422119e-01
4.815893414121010241e-01,4.560804961197381657e-01,-3.463351659692742723e-02,2.117997960644066508e-04,-2.647417528636019073e-03,1.493701491972388232e-03,5.039805173873901367e-01
4.724529514399852248e-01,4.781063884909806383e-01,1.711902569018297626e-02,3.153845880624041743e-03,-6.378807740349455579e-03,2.237951917492723031e-03,4.583689272403717041e-01
4.772476503946285753e-01,4.816137704340378023e-01,3.744145275495325276e-02,2.684073438234261741e-03,-1.262375838835931401e-02,-8.029776938521731439e-03,4.427888095378875732e-01
4.786646954508273488e-01,4.646299542120922998e-01,-2.404953971395995538e-02,-5.891968503734407734e-04,2.866583345385604036e-03,-3.471874205360237289e-03,4.959082305431365967e-01
4.223797591665930939e-01,4.855751861477080045e-01,-2.490620166952939307e-02,-4.025646530545268220e-03,-8.091158663027589199e-04,-1.229629199147358812e-02,4.825235605239868164e-01
4.813972406407041604e-01,4.594391993444107425e-01,-9.848878376545577851e-03,-1.755570921157917439e-03,3.612252744508520196e-03,1.357399022462484148e-03,4.806995093822479248e-01
4.789717515609583365e-01,4.619886722863273398e-01,-3.205483306610734662e-02,-1.279315884445619009e-03,-1.239541343682548386e-03,-1.304888483818378731e-03,5.027647614479064941e-01
2.742191505883191383e-01,5.276139569932093432e-01,-1.153175548146176399e-01,-2.477585337795924492e-01,-1.946704675163774684e-02,-2.086049220279007424e-02,7.079898118972778320e-01
4.841736936842757633e-01,4.649253307806504032e-01,-3.042499538806681114e-02,1.203214521904323120e-03,-4.944200655025313227e-04,-2.764316781580438559e-03,5.052772760391235352e-01
4.963658822136341464e-01,4.324653274121158519e-01,-2.994542960729190684e-02,-6.585826031929618157e-03,-2.174420799471047348e-03,-8.982400886990111327e-03,4.978369772434234619e-01
4.826958922167689514e-01,4.374703192952917874e-01,-2.786681003273883128e-02,-1.514113577012886347e-03,-3.742062329536963682e-03,-1.095878158228956413e-03,4.895729124546051025e-01
4.771292111093797805e-01,4.799630382878135038e-01,-2.981106387170495697e-02,3.480908903641540507e-04,1.282306544290256730e-03,1.598013201878091842e-03,5.083758831024169922e-01
4.180812285125710681e-01,5.011253353181679415e-01,-2.347982501049006299e-02,-1.005301056091687179e-03,6.282380929314464310e-05,7.911040712914164594e-03,4.886024296283721924e-01
4.825829906396824631e-01,4.513082744051465367e-01,-3.459949391465277913e-02,2.465773511296711230e-03,-5.047782880024762921e-03,3.438831353626565362e-04,5.023705363273620605e-01
4.800582948624997903e-01,4.790823218371230707e-01,-2.967014222976793736e-02,1.498718016875575602e-03,1.979754211082895322e-03,1.425037850172029439e-03,5.092653036117553711e-01
4.039243667220505651e-01,4.408137450119774536e-01,2.537516712021681276e-03,-3.281061684761246711e-02,5.843747961955694618e-03,9.590145988607837527e-03,4.253082573413848877e-01
4.852497896084075890e-01,4.549352735864140018e-01,-2.862583660279732767e-02,7.053980964829763235e-04,1.087846899086734051e-03,-5.318599262979736321e-03,4.994989037513732910e-01
1.473567905001615386e-01,7.641363145149011604e-01,-2.874642694232831808e-02,8.090624115879683706e-03,-4.357264304606074667e-02,-1.757275156732074697e-02,7.258544564247131348e-01
3.235240730960468603e-01,5.678912935206503754e-01,2.847755064984081042e-02,-2.011715244671053726e-01,-5.175180785105593789e-02,-4.584367733943297413e-02,5.954973697662353516e-01
3.313242426215319281e-01,4.758887296638236730e-01,1.299627405107195433e-03,-2.780842879634385853e-02,-1.612478041578109533e-02,-8.111151580081278623e-03,4.252320528030395508e-01
4.624623730180341119e-01,4.650266450029915122e-01,-3.718090727929623807e-02,-2.542602775965343231e-04,3.340060394330069630e-03,4.128858673481798983e-03,5.010150074958801270e-01
4.588310532426895794e-01,4.635856243372999397e-01,-3.730831275705914774e-02,-3.499699017206915792e-03,8.215290417773401035e-03,7.851861075408462370e-03,4.989588856697082520e-01
4.582849114690331072e-01,4.687322004830156708e-01,-3.703354072271736186e-02,-2.090625188564746752e-03,7.144243636068439013e-03,6.074026185390591498e-03,5.009003281593322754e-01
4.668164764535837064e-01,4.686436560322656542e-01,-4.152341919755758726e-02,8.699313502416433077e-04,8.705233903251455773e-04,1.477144652598803886e-03,5.092668533325195312e-01
4.679401670203391372e-01,4.682386692599472822e-01,-4.057307361522860534e-02,7.822821002219280354e-05,9.189567505913135651e-04,7.767016249028567583e-04,5.086668729782104492e-01
4.680703697518832085e-01,4.679704879210625501e-01,-4.058212011268569341e-02,2.147639607974596463e-07,9.458782631617013463e-04,7.152171400905565392e-04,5.086067318916320801e-01
4.626608469786402389e-01,4.641179226333839170e-01,-3.728741207972396943e-02,-3.418126731537882309e-04,2.973197799429374601e-03,3.363945402402929250e-03,5.007390975952148438e-01
4.661322038999449746e-01,4.680877958449043419e-01,-4.055114060188913516e-02,-7.769126356455003648e-04,7.261703838610007061e-05,-1.542213754827989188e-08,5.076657533645629883e-01
4.411284078312549539e-01,4.843736432564815786e-01,-2.313474382381586203e-02,3.353245778538073560e-04,-4.720792213763191090e-04,9.427580370945985375e-03,4.876015186309814453e-01
3.040428093325468484e-01,5.791101614642324424e-01,-1.540837659366101065e-02,6.483738328102396642e-02,9.296388348251312383e-03,2.206286880384257867e-02,5.290679931640625000e-01
4.809792382367599206e-01,3.818714707198896385e-01,1.843780969991160035e-03,1.319714620473304290e-02,3.424944919794248549e-04,-6.068728126357292698e-04,4.386696219444274902e-01
4.741293814992194044e-01,4.795381713098011978e-01,5.184417815094732873e-02,5.075324583280182815e-03,-2.579739608332865582e-03,-1.159206423742779705e-02,4.256036579608917236e-01
4.483625965974569194e-01,4.567663354267368359e-01,-1.314822283475469700e-02,6.493371010655797811e-04,-2.488402519820667215e-03,4.563838407362199277e-03,4.658579230308532715e-01
4.755566909708843770e-01,4.820572282255189411e-01,7.625737206739685581e-02,7.357127662871302751e-03,5.047768687429545799e-03,4.845819808506623971e-03,4.029728770256042480e-01
4.796852379285850843e-01,4.819223319890771906e-01,9.941645386156477970e-02,1.062613706159142718e-02,-6.035648481834110166e-03,-6.135335164612302529e-03,3.821269571781158447e-01
4.180766204295104371e-01,4.821644142187992421e-01,-7.671895203690048959e-03,1.196232531174179665e-02,-1.681326344606949824e-04,8.830602237933584189e-03,4.618632197380065918e-01
4.647080811623552909e-01,4.345688645985544274e-01,-1.903378580303932699e-02,7.345291681606910122e-03,-1.175507117637386925e-02,1.223050307095131274e-02,4.704892337322235107e-01
4.056418452614370951e-01,4.827233183021367724e-01,-5.708716262321444912e-03,1.611578887421152503e-02,-5.971518602462620902e-03,1.314000341879857821e-02,4.563578069210052490e-01
2.840907994930235159e-01,5.892011412111837210e-01,-2.844142183512998745e-02,1.046079025619491931e-04,-3.530413594632776653e-02,1.933086953805575325e-02,5.394309759140014648e-01
3.900358204723192168e-01,4.881215110110644906e-01,8.884047690415064480e-04,9.372181695916149621e-03,-3.241856976738231194e-04,5.967854286819515054e-03,4.467627704143524170e-01
4.291164751748876016e-01,4.612176640933893790e-01,-8.154658688841798231e-03,5.917579000585481384e-03,-2.878364928194357864e-04,9.100348522138271279e-03,4.545626640319824219e-01
4.645955528657973455e-01,4.469474871166216889e-01,-5.842072051513602648e-03,5.296287267031386109e-02,-2.827307418069134690e-03,9.218463349579835223e-03,4.711844921112060547e-01
5.456010101999910766e-01,3.210037023608327544e-01,-1.129896257179907604e-03,1.014122880216090372e-01,1.206888238830867988e-02,2.700780401637683029e-02,5.099440813064575195e-01
3.300634153897843426e-01,4.491542094083268433e-01,5.692748380753953619e-04,-1.002390702586513915e-01,1.354437089985254146e-02,5.845900926197468775e-03,4.390731155872344971e-01
3.813194798395257434e-01,4.404993282313011127e-01,8.157621059482256243e-03,-1.865887855231535344e-02,7.164168265765219566e-05,3.867881836504728429e-03,4.073389768600463867e-01
5.507780650981596304e-01,3.233458561960200206e-01,-1.810251216984254397e-02,9.471463229366884617e-02,-4.303571845766456828e-03,2.783404547037537924e-02,5.246533155441284180e-01
4.695079230785061952e-01,3.875992556979572234e-01,-8.827730458005778047e-03,-1.632084311627756898e-02,-1.183830826162023293e-02,-1.216646230917297266e-03,4.444751739501953125e-01
4.521779806938396318e-01,4.794832601760661284e-01,-3.382742409738059841e-02,-3.233796598006106592e-03,-1.085880534155752794e-02,-1.168057194344826293e-02,5.010107159614562988e-01
5.450366698991747638e-01,2.055209571752567022e-01,-2.367523593856057929e-02,1.444099379524405591e-01,6.177469547915167766e-03,5.630236050314800554e-04,5.552437901496887207e-01
3.741386547645749738e-01,4.651797871466457623e-01,5.228174226400539304e-03,-1.334380310438900916e-02,-1.187973826163864904e-03,-6.058592642542353322e-03,4.226322174072265625e-01
4.415690289438338745e-01,4.029504956165032015e-01,1.054629807629786642e-02,-7.117074814534005492e-03,4.725923441047555178e-03,4.268547041871998738e-04,4.133352339267730713e-01
4.838546058869080402e-01,4.801928070514056568e-01,-1.904003230004608360e-02,8.893243493323847379e-03,1.730317913714670558e-02,1.096861841973066111e-02,5.025647282600402832e-01
3.581822524036387123e-01,5.202475973176936552e-01,-1.086297856719786736e-02,-9.448657965124441366e-03,4.311997838048113141e-04,-8.330557195788207414e-03,4.719592928886413574e-01
3.966769314642578648e-01,4.641474894702522502e-01,-8.587931768902767882e-03,-8.284135203636345396e-03,-1.953164866108673785e-03,-1.174055014449480565e-02,4.435833394527435303e-01
4.797402646081543320e-01,4.785090970582473457e-01,-2.782993168657477145e-02,-6.168947139812501999e-04,1.852977422625107012e-03,-5.185699358552375718e-04,5.069678425788879395e-01
3.742530937775866429e-01,4.628382429089141215e-01,5.377889304397587278e-03,-1.323247936077417627e-02,-1.177369292986947796e-03,-5.010942303297616189e-03,4.209488034248352051e-01
4.216792599787849705e-01,4.245453486495966433e-01,6.450069093478505433e-03,-1.446341490728324936e-02,-1.310052144870747261e-03,-1.611329287293099136e-03,4.174375236034393311e-01
4.792563934472464093e-01,4.788229532660739363e-01,-2.224575291007685474e-02,3.470158550772728195e-04,-8.987493298369907384e-04,-2.781238128188995122e-03,5.013114809989929199e-01
4.284973218024777930e-01,4.295098540581949176e-01,-3.329168145401961709e-03,1.333506974771758945e-05,1.027315708232025786e-04,1.293261223380846566e-03,4.323394894599914551e-01
5.314774653210744271e-01,3.682993101389300805e-01,-1.874843679026361176e-02,2.651493552031956163e-03,1.223608364422960892e-02,2.496429851137079922e-02,4.918645322322845459e-01
5.223982719112223450e-01,4.821970760736337680e-01,-7.115457685713200142e-03,2.210861882068635917e-02,-1.229432269282882371e-02,-1.164993363902861075e-02,5.128750801086425781e-01
4.601421056739986026e-01,4.640617113459583054e-01,-1.719521602939333427e-02,1.488864969135338286e-02,7.006251394806126825e-03,-1.205310403197422907e-02,4.806093573570251465e-01
5.622398644887243169e-01,4.574173921427944767e-01,-1.754221856432847115e-02,1.681763109943864958e-03,-1.157416791025711773e-02,4.760712169863386134e-02,5.418214797973632812e-01
4.837677485279020528e-01,4.815685941211532706e-01,4.088618083048878304e-02,1.818664460442682030e-03,5.245336836666240595e-04,-1.303115235250099958e-02,4.423744380474090576e-01
4.977561875413183401e-01,3.998520752276861212e-01,-1.796665793648477560e-02,9.713462299704708064e-03,-9.899966705126926961e-03,1.259318706070566840e-02,4.755173325538635254e-01
5.150167578236782839e-01,3.916440353365799876e-01,-2.369952486307258521e-02,2.311302800118672268e-04,5.586923930949958331e-03,4.214284729291382925e-02,4.943632483482360840e-01
4.676012690569559815e-01,4.818702140501489595e-01,-7.292820181823478354e-03,1.002649840012879637e-04,3.197232894799836595e-03,-4.027403915257900431e-04,4.822192788124084473e-01
5.390034328399573305e-01,3.725049196176951072e-01,-1.885583413685437693e-02,2.617914404519371824e-02,1.574386522953271153e-02,-2.238721126700386407e-02,5.003490447998046875e-01
2.931149714335710144e-01,5.312979028309129381e-01,1.082858554213833591e-02,-1.260518697740660443e-02,-1.741029216003735355e-03,4.236082941177118401e-03,4.518762230873107910e-01
5.334596653268158795e-01,3.379080421406667756e-01,-2.405928482564512194e-02,-3.555614069947189010e-02,-1.291440659508401138e-02,-4.590877250018892547e-02,5.006595849990844727e-01
3.236772464379460978e-01,5.304500296323246822e-01,-9.697073625705543432e-03,-6.503209885467765329e-03,-2.181476362126403071e-02,8.054738606872076118e-05,4.736883938312530518e-01
4.568683039965979464e-01,4.539916665727566913e-01,-1.959631445634246738e-02,1.491594897787387351e-03,5.326700045874507503e-03,-1.000500182747797668e-03,4.751326143741607666e-01
5.841668628973113453e-01,3.001202066602743357e-01,-1.559322801228074651e-02,5.538560670507186763e-03,-2.741339430454434113e-04,-1.766756311333662205e-02,5.206375718116760254e-01
1.906371145864540484e-01,6.657760983936791277e-01,-1.315330202657494230e-01,-1.656119616292771879e-01,8.307529635049267641e-03,2.285251654394260604e-02,7.527828216552734375e-01
6.889403438274828151e-01,2.333363323800305145e-01,-2.256786369447655316e-02,1.456889846380847800e-02,-2.774509812023972025e-02,-5.363205401340554596e-02,6.334258317947387695e-01
4.189903310781672996e-01,4.571942961014854312e-01,9.841855835020507648e-04,6.284835262854730938e-03,2.904733889081416616e-04,5.425810282315204729e-03,4.385946094989776611e-01
4.395726519092338358e-01,5.127296954259363826e-01,-5.414091361482059606e-02,-3.757286565530444655e-02,4.869056053876272272e-02,2.840986982939137581e-02,5.468020439147949219e-01
3.640147906329623817e-01,5.182234994460448441e-01,-2.037014908322581919e-02,-6.238021260467165041e-03,2.399509920583905304e-02,1.662550282840349197e-02,4.831985831260681152e-01
4.654044908846743933e-01,4.202425955125644319e-01,1.801385509208053293e-04,8.727012750275802561e-03,4.480017946686655483e-03,-5.996518261935015071e-04,4.446938931941986084e-01
3.745557139740285368e-01,5.469103668688721775e-01,-1.302732812049034461e-02,1.810205953685136565e-02,1.378012920526430415e-02,1.928680928575825931e-03,4.982894361019134521e-01
3.844302106230304550e-01,4.965979662916062409e-01,-2.062269592052079492e-02,4.784144520222784885e-02,7.595158712861340561e-03,-1.667357221941031739e-02,4.795381426811218262e-01
4.838107701450593545e-01,4.830024773303681629e-01,2.022826804002286760e-03,7.459590292300009168e-03,-6.254656980526658062e-03,-4.489021228700614159e-03,4.817422628402709961e-01
6.151844748169892352e-01,2.339231677330929904e-01,-2.596031694924938460e-02,1.335959766141588401e-01,1.434191211511987724e-02,-3.222003249847494449e-02,6.076662540435791016e-01
4.358665720920222864e-01,4.417680505775427591e-01,-2.546919381448686792e-04,1.602441763692473431e-03,-1.325264851476489945e-04,4.474074747001313430e-04,4.391112625598907471e-01
4.225632861334748247e-01,4.615223744146332852e-01,-4.543432961024329586e-03,3.521696356763810709e-03,-2.323580542443583544e-03,6.536503108904633506e-03,4.480616450309753418e-01
4.468528541335780035e-01,4.469782395659870344e-01,-3.573129862290524983e-03,1.378632979149581154e-02,-4.385596480076866567e-03,3.634450371413573948e-03,4.512289762496948242e-01
4.447614824126993049e-01,4.292364329427582614e-01,-4.123756285637769636e-04,1.059986508429766432e-02,4.054236882282146771e-03,-8.386851137144350418e-04,4.380615651607513428e-01
3.824946578139692965e-01,4.877019869865390489e-01,-9.496531786135520292e-03,3.741567622145757985e-03,2.277650621386519483e-03,1.039205061181159434e-02,4.542549550533294678e-01
4.407708375305942616e-01,4.430254087463220136e-01,-4.106942881010600122e-03,5.423153736114210387e-03,3.157101616919334892e-03,-2.608440243978745257e-03,4.461646378040313721e-01
4.380987402961369348e-01,5.052503113557051950e-01,-2.998300432232242629e-02,5.408973510872560481e-02,3.099672163399866398e-02,-1.098665197390815557e-02,5.167822241783142090e-01
4.355741510806901418e-01,4.471484022944519632e-01,-3.730775617205583927e-05,2.507909139733264462e-03,-1.409424906699709016e-04,3.080118187870489310e-03,4.415660500526428223e-01
4.697651401098147939e-01,5.147707385927439150e-01,-2.071527128962880049e-02,2.998346168130245834e-02,1.267258597369597291e-02,-1.020715767812291688e-02,5.178438425064086914e-01
5.082128962311005527e-01,6.374375392505992055e-01,7.846972007557490025e-02,9.342742093799286107e-02,6.655048716732756692e-03,-2.455723665667363526e-02,5.338910818099975586e-01
3.251624322888390095e-01,6.604632081359822493e-01,-2.753521344021259143e-02,1.007557740263686878e-02,5.629140436344280685e-02,4.465594013208312729e-02,6.089952588081359863e-01
4.287643232319951481e-01,4.678818948482024176e-01,-7.723923903940999036e-03,5.477088374337893764e-03,-2.828178173912905980e-04,5.743389950384173923e-03,4.575103521347045898e-01
4.680396928101149268e-01,4.753092099140259763e-01,-3.885737528087723769e-02,7.526351264200963759e-04,4.451921807365417428e-04,3.074722563362963703e-03,5.106006860733032227e-01
8.442890201639069447e-02,6.098810581982989643e-01,-2.562884462871556357e-02,8.462871004925030805e-02,-9.970001212739852681e-03,1.752428145543071317e-02,6.072465181350708008e-01
2.869907396215318207e-01,5.549749321951497061e-01,-2.829866715472006966e-02,6.285974996352160227e-03,-3.094894522544281920e-02,9.504337683922349164e-03,5.088993906974792480e-01
3.994852506175413653e-01,4.526909149143354405e-01,1.851266334206069786e-03,2.103420091590953167e-02,-2.084235452961315412e-03,1.040649268316090961e-02,4.286784827709197998e-01
4.223717985555450194e-01,4.118848940205567244e-01,5.867273337737177741e-03,-1.254275181194231849e-02,-1.339296755125852058e-03,-7.871236353288210523e-04,4.119433760643005371e-01
4.772491387557034059e-01,4.787857941482061008e-01,-3.514069872375946701e-02,2.680516480362691873e-03,1.435501844601277640e-03,2.456729011443395221e-03,5.132045745849609375e-01
5.044661828419537697e-01,4.234699187061654047e-01,-1.797804473594960539e-02,2.188053151802226912e-02,5.188902655164420556e-03,-1.630691419438437192e-02,4.893946647644042969e-01
4.377018092254733039e-01,4.585945626874271541e-01,-4.718121277743514419e-03,2.800613126528367011e-02,1.525464311814641108e-02,-9.119456648689079625e-03,4.568543732166290283e-01
4.560905234718625190e-01,4.565254038690652605e-01,-3.283405233331304629e-02,1.015264518619040605e-03,-1.203031134253846127e-03,-4.543125518140220254e-03,4.892130494117736816e-01
2.531004349796593944e-01,5.388395818487271560e-01,-2.724344088402191888e-02,-7.272496711167610040e-02,-4.621039559254557991e-03,3.927862475621093788e-04,5.062371492385864258e-01
4.405175015886688694e-01,5.013812813565339255e-01,7.766896941713546942e-02,-4.499194772362362371e-02,-5.188665589479675433e-02,-6.729439357370632646e-02,4.303288161754608154e-01
4.762634257370677582e-01,5.333080897009986332e-01,4.750541222128562557e-02,1.250913029888318061e-02,-4.604914430761729662e-04,-1.858271828240692924e-02,4.615754485130310059e-01
3.821253723593939777e-01,4.928985138691143186e-01,-9.001013953153669256e-03,-9.173072475523819103e-03,-6.158886708572794324e-04,-1.249401914460161571e-02,4.574917554855346680e-01
4.394743146752709828e-01,4.469962487929410866e-01,-4.612620786095922298e-03,2.034406296516457109e-03,-1.425492029606314787e-03,3.740335484024550489e-03,4.479627907276153564e-01
2.997452968846338051e-01,4.005820933022868346e-01,-4.152795253182672841e-02,-2.299888088183948964e-01,-5.219258325289523326e-02,-4.318870051259993126e-02,5.774953961372375488e-01
4.808067695073068859e-01,6.808026247261486086e-01,9.074573366764149274e-02,-4.839010723039088857e-02,-7.553321834636528287e-02,-4.238437866272209281e-02,5.474362373352050781e-01
5.303079995695225701e-01,6.347798380304985333e-01,9.790589348897005273e-02,6.694641946566232127e-02,3.300116555857149359e-02,-3.172098502337104831e-02,5.126315951347351074e-01
2.985974292874360447e-01,5.342884027444552153e-01,4.256091690159835572e-03,-1.142528413680663976e-02,-2.837078872954999775e-03,-2.402943507033167021e-03,4.604277610778808594e-01
4.809182396237258184e-01,5.138467674547817499e-01,1.070228524293929118e-01,1.345816992348288985e-02,-1.554955894334368940e-02,9.201061534899740782e-03,3.933402895927429199e-01
4.758319100346434238e-01,4.811105147465403187e-01,6.397103782446811326e-02,6.049854908043435057e-03,9.427805440952856733e-03,2.060056610496903678e-03,4.149945378303527832e-01
4.282150743462378450e-01,4.569155966693526083e-01,-6.217139184735098745e-03,7.392020316867722873e-02,1.053990297913800708e-02,-9.700853856549635640e-03,4.680081903934478760e-01
4.683195825864124306e-01,4.318172170033864887e-01,-7.804059582996847322e-03,4.303647017767307445e-03,5.444706042020740731e-03,8.759976028131214907e-05,4.591198265552520752e-01
4.741820866684272051e-01,4.862195193152011319e-01,6.542478567154386138e-02,4.420078419988291568e-03,1.507078757894986937e-02,-4.372405873607741918e-03,4.158667623996734619e-01
3.952068876783974005e-01,4.706930735992241877e-01,-1.821146774585391537e-03,-8.854995655771774610e-03,-2.744283686883277067e-04,1.254320257578268871e-02,4.404622614383697510e-01
4.739013826734099211e-01,4.785198734535494047e-01,-1.640265052374417776e-02,5.226721205040528104e-03,-3.096890224430512081e-03,7.956780346854681147e-04,4.927438199520111084e-01
4.753550545152753770e-01,4.214038255654991572e-01,-1.286505449213787289e-02,-3.341614111214754462e-02,1.637242460392664134e-02,1.759760771880961375e-02,4.690550565719604492e-01
2.080571085988837665e-01,7.793458877381820304e-01,-1.046063908092167427e-01,9.798876560324253082e-02,9.738595127870158102e-03,3.060867959731623442e-02,7.966499328613281250e-01
4.359052221219696932e-01,3.479489537367132512e-01,-4.602595646107709992e-03,-1.484281895226623738e-01,8.284101939094982991e-02,8.935321066750119556e-02,5.231354236602783203e-01
4.814766884805883329e-01,3.745971147243468691e-01,3.889416460186589930e-04,1.354113438307264460e-02,8.385620906048789694e-03,5.488438612310888622e-04,4.384200572967529297e-01
3.936683925193625866e-01,4.135076313006139648e-01,-3.100749914550227082e-03,8.995632223602254007e-02,1.636947338832009033e-02,-5.115211628923629038e-03,4.368635118007659912e-01
4.224883284838806263e-01,3.755220751209129570e-01,7.098833759885292416e-03,-6.511443722107261578e-02,1.005292193525385291e-02,8.146403191940871161e-03,4.104472100734710693e-01
2.980773682419352033e-01,5.404119522270361964e-01,5.389383762573696224e-03,-6.191491605770685705e-03,4.196102745961681263e-04,1.010021908031773089e-03,4.641544222831726074e-01
1.493039595384041407e-01,6.329029991223283913e-01,-7.331506550679528500e-02,9.543926414082901100e-02,-2.015665554902605974e-02,2.443676280614259441e-02,6.491701602935791016e-01
4.809975762261320398e-01,4.767726498008470482e-01,1.126409219983631749e-02,3.380098762818497388e-03,-2.033533187141326869e-03,4.873174562671517968e-03,4.677613973617553711e-01
4.402597448812335390e-01,4.360431060185386287e-01,-2.740171480051234454e-04,3.941405942191423227e-03,3.557109595776038451e-03,-6.156548108190664946e-04,4.385383725166320801e-01
3.995464204674856745e-01,4.629784740876861648e-01,1.900666150104202146e-04,1.396552685106676808e-02,-2.999268721881692907e-04,6.042933596715550568e-03,4.353573620319366455e-01
5.306821785252597845e-01,6.590228008547858174e-01,7.518854919246986679e-02,5.539434281274409344e-02,3.696781543570598627e-02,-4.901060725381745087e-02,5.503777265548706055e-01
4.073445489210528181e-01,6.803675839838663197e-01,2.923989540741855908e-02,1.241470402826013453e-01,2.664068000424687013e-02,-9.373001891597283145e-04,6.075403094291687012e-01
4.473259820923457530e-01,4.356618319406816431e-01,-9.223861390150744910e-05,4.796534918255780308e-03,1.439178594715342235e-04,-5.946303106929271866e-04,4.417810738086700439e-01
4.147844599197256232e-01,5.133044634331975775e-01,-2.132645940535859985e-02,4.239665795716890048e-03,-3.017081329713483528e-03,-5.082231370572519273e-03,4.929739236831665039e-01
4.471130495860863863e-01,4.416044497054422147e-01,-8.423480052804743767e-03,2.507561897323697282e-03,5.261628768977533524e-03,-7.839399104122970812e-04,4.529219269752502441e-01
5.235328126161774565e-01,5.502656159811437631e-01,2.520417439173838758e-02,-4.169263613156460463e-02,7.363552272536204313e-02,-1.571350401427261401e-02,5.334697365760803223e-01
4.673097226931866022e-01,4.533929911177144723e-01,-1.843660478899916688e-02,2.765085657334458158e-03,-1.065692889595003321e-04,-1.059955961717169888e-03,4.789671301841735840e-01
3.943443785954114933e-01,5.170529996367640990e-01,-2.427269580665902815e-02,1.014142409268228026e-03,3.330249348034330925e-02,1.045827155852795988e-02,4.953019022941589355e-01
4.185774533770492689e-01,4.237173629550340381e-01,7.084058630965117676e-03,-3.858342072708041692e-03,-1.969401967470650323e-04,1.099146883930537336e-03,4.141457080841064453e-01
4.819177629296901300e-01,4.662958879680903501e-01,9.773577294470370269e-02,-1.553750089181282811e-03,-1.893089033019665704e-02,-3.931415425109480340e-03,3.781096935272216797e-01
4.013318777689746097e-01,4.411841252450683371e-01,7.052436343110035644e-03,-7.919438795517427104e-03,-6.697675522496898117e-04,2.052549884125541308e-03,4.158840477466583252e-01
2.649957424137765472e-01,6.072487423839858511e-01,-1.303548442527663331e-02,-8.358459512315104343e-04,2.793198403120774470e-02,1.264528851374105423e-02,5.407567620277404785e-01
4.750463707183265050e-01,4.969253785701140957e-01,-7.917492724539620941e-03,2.225814249358579189e-02,2.855081417879102093e-02,-2.306164594102698331e-03,4.982441365718841553e-01
4.746192609061596346e-01,4.801759128590998293e-01,-3.611993266763596777e-02,1.095124170674361200e-03,-2.888039237912435209e-03,2.305695250999210966e-03,5.135834813117980957e-01
3.703304685698231014e-01,4.952143244040978498e-01,-2.834240050628711316e-03,-1.250687679041544674e-02,5.995892082265640109e-04,1.431813660232526299e-02,4.500394463539123535e-01
3.705005272145768802e-01,4.671329308800561408e-01,8.749456167759017688e-03,-1.447898164165062340e-02,5.499701631226673186e-05,3.895009407391058012e-03,4.193244278430938721e-01
4.803731689354078238e-01,4.789663440877126588e-01,-1.787473074145351504e-02,4.105352736696750958e-03,2.303794583017836333e-03,1.473139331352289619e-03,4.976193308830261230e-01
4.605393525780697717e-01,4.936481653776743639e-01,-1.852169324812302786e-02,-5.452188009775624927e-02,5.277002368370968532e-02,2.786734166071338711e-02,5.158085823059082031e-01
2.509456484627402562e-01,7.025070094254037834e-01,-4.821416698078223595e-02,9.521678557319916691e-02,6.097994133845934667e-02,4.264818120555938924e-02,6.872439384460449219e-01
4.941901501369527216e-01,4.812987830254908950e-01,1.714474980494018475e-02,1.398419113547376240e-02,2.369283976423805158e-02,1.908125416031263358e-02,4.742907881736755371e-01
4.579104075187635514e-01,4.669434508558103492e-01,-3.775349567521074645e-02,-4.025488976845384773e-03,-1.984521158984368580e-03,-4.252874475837028004e-03,5.003561973571777344e-01
4.673640346860590267e-01,4.516526392206215990e-01,-2.031129296728700906e-02,2.687991086620076815e-03,8.458060448002501300e-03,-1.217352057960943007e-03,4.802632033824920654e-01
4.621316673221101956e-01,4.615502957072646351e-01,-3.917088378891997458e-02,-7.242176988218749145e-04,-1.073016586251144839e-03,-1.011284014590012239e-03,5.010201930999755859e-01
4.164547915569272174e-01,4.987468115169571004e-01,-2.374007072857647893e-02,1.575561823867141237e-03,-1.854606108154385367e-03,1.203015058079700758e-02,4.870523214340209961e-01
4.308174438158621222e-01,4.916838987188025811e-01,-2.336508492194211417e-02,-1.529494192820039615e-04,2.710340072807788762e-03,8.339157272626339726e-03,4.877106845378875732e-01
4.608015941659607262e-01,4.666948706472323627e-01,-3.934959310241176178e-02,-1.184819656845384847e-04,-7.912481356519173630e-04,-2.294599651445751107e-03,5.031413435935974121e-01
3.266491713675033770e-01,4.975203039550291084e-01,1.226924068381812782e-02,-1.862718946779927387e-02,-1.548656692242724765e-03,4.559205431632604860e-03,4.276220500469207764e-01
4.611995315498123027e-01,4.639853269479656817e-01,-3.836050262644680187e-02,-1.685132724987991725e-03,-2.142252003573915774e-03,-2.740806906262033011e-03,5.010035037994384766e-01
4.609885835750697769e-01,4.653876993636041348e-01,-3.298325107128913247e-02,-8.495294866779960763e-03,-6.067100074845143722e-03,-6.195632407133938070e-03,4.966313242912292480e-01
5.133115409010918784e-01,3.845482882047313589e-01,-1.101886834854409747e-02,8.457792109451395647e-04,6.863359542909529265e-03,8.482686811490647814e-04,4.734273850917816162e-01
3.813470407785083949e-01,4.920171579314570609e-01,-2.720393232340911904e-02,-6.627056920622335402e-03,-1.915586676023495541e-02,-1.031352937106965600e-02,4.753187000751495361e-01
4.847528993156703381e-01,4.789290787155960905e-01,3.955807772974062608e-02,7.574423298322387026e-03,-1.188097628702226502e-02,-1.189529735756190455e-02,4.434632956981658936e-01
4.853217359196455583e-01,4.790239469981373843e-01,3.643787609623738710e-02,7.905658112535860274e-03,1.330758297475545700e-02,9.657886136317034992e-03,4.468870162963867188e-01
2.869879818248771142e-01,5.222413881706999828e-01,6.618711011804945255e-03,1.383004446350491034e-04,1.061770571054568508e-03,2.812256148123244964e-03,4.471421241760253906e-01
2.202331101804061719e-01,6.899664561191096723e-01,-5.605677827454752515e-02,2.137770717738993187e-01,2.780211723577832514e-02,2.178713502478062808e-02,7.534009218215942383e-01
4.209600576071502731e-01,4.570932169780216325e-01,3.848294371477933851e-04,8.055026580942748621e-03,6.284776929852992512e-04,-4.546153281111773442e-04,4.399798810482025146e-01
4.594454197727143030e-01,4.556641039264919257e-01,-1.956882182028385486e-02,1.715994952257757439e-03,5.198622193449279130e-03,-7.850812024142793215e-04,4.772309660911560059e-01
3.878488100294461560e-01,4.801247456158946880e-01,2.228836415794355208e-03,1.606355842153954147e-02,2.507953077387327985e-05,8.003558935487826986e-04,4.399739801883697510e-01
4.793156774330598058e-01,4.736839501700269017e-01,1.108880377779059012e-02,-1.880711469393939270e-03,2.598957221192495139e-03,-3.195487836586436304e-03,4.655026495456695557e-01
4.788328144961438437e-01,4.793320926826326600e-01,2.331746044719346100e-02,2.976178330671335696e-03,-3.240513084343808834e-03,6.869189300105572708e-03,4.559841454029083252e-01
4.824062909461391824e-01,4.857603835300191575e-01,4.736846374307929208e-02,1.589127530028236132e-02,-3.604112911542667330e-03,5.505083215139648309e-03,4.377394318580627441e-01
5.202264908788585274e-01,3.299684474535939382e-01,-6.193737024487389053e-03,-8.477314546430973763e-02,3.304714025160697399e-02,3.479882188344588650e-02,4.915581047534942627e-01
4.847678051744922501e-01,4.828732348250582840e-01,8.215512528864260533e-02,8.376327839186495719e-03,-1.108390367078692339e-02,-1.247491332016741408e-02,4.029686152935028076e-01
2.760628883621356611e-01,5.562486762922977945e-01,-7.500160527903920737e-03,1.472227838508866418e-02,6.924846488389149561e-03,2.441110276379891545e-04,4.890365004539489746e-01
5.232934953633071595e-01,5.139321008487536258e-01,3.479028790105526125e-02,1.992702666425408276e-02,-1.052771756616275450e-02,-8.241258949671422668e-03,4.856721758842468262e-01
4.545484939240700406e-01,4.370481543291820925e-01,-8.269111897907022168e-03,5.486957808957055628e-03,4.454706737640359501e-03,-4.123151585741641743e-04,4.544857442378997803e-01
4.774756851013313708e-01,4.729712562580574708e-01,1.018536918525183577e-01,1.590491347567012364e-03,5.496961964244459313e-03,4.616733197012038228e-03,3.736072778701782227e-01
5.053941472133978152e-01,2.296300101918168357e-01,-2.167576168296381223e-03,-1.410955044482916365e-01,1.390856690038998200e-02,1.272343470726369774e-02,5.044673085212707520e-01
3.968014912919262671e-01,4.826982451759934123e-01,-3.324077328529756459e-02,1.868402795296928431e-01,4.512187093723715736e-02,-1.716590715457574218e-02,5.839294791221618652e-01
4.358220493444916466e-01,4.391314563573889274e-01,-9.858013929240294626e-03,-6.496942541033191463e-04,3.146673643074513350e-03,5.902249286241405615e-03,4.474953413009643555e-01
4.578338267894731528e-01,4.063683952261706867e-01,-1.492522438522092543e-02,-1.213140874496534266e-02,2.146591333211759003e-02,1.599779148226903799e-02,4.521180391311645508e-01
4.736246005537006476e-01,4.817125217841780049e-01,7.992808310603632949e-02,1.033140285071421256e-02,6.864228080315010715e-03,4.261767307634611000e-03,3.984502553939819336e-01
4.935143572382744703e-01,4.813311274811274965e-01,3.854484628987520090e-02,6.146452562381693463e-03,-1.186587496953195667e-02,-7.825682571816467911e-03,4.498023390769958496e-01
4.784554168888082160e-01,4.797979489836070588e-01,1.022326522558895667e-01,8.516723767910490753e-03,-7.414318664848573368e-03,-9.757821556502104671e-03,3.777811825275421143e-01
4.202563513764274172e-01,4.403042737514528682e-01,-1.966591696437314241e-03,-7.468427655907257032e-03,8.545225176936040515e-04,1.239318157603842320e-02,4.333233535289764404e-01
4.819577068992363378e-01,5.064650195731745796e-01,2.909551021125800219e-02,3.322681478704155728e-02,-6.526533047112073951e-03,-1.811813590254654147e-02,4.703274071216583252e-01
4.410030601624517210e-01,4.501073277228594405e-01,-1.942816778053202409e-02,-4.988005900915843879e-03,2.461980423339287568e-03,1.384116747326379071e-02,4.657673835754394531e-01
4.139085033977155104e-01,4.647326713834221690e-01,2.974439184671123781e-02,1.130250027362509069e-01,-3.197797631270499902e-02,1.063447721908167970e-02,4.598053693771362305e-01
4.218350556927315531e-01,4.904782450846645325e-01,-2.131395426110621605e-02,-3.173323308883806582e-03,3.231952868041660862e-03,1.275884184115711785e-02,4.817281365394592285e-01
4.910691587681376147e-01,5.260030452193003025e-01,4.869013998988502845e-02,1.305849330189018474e-03,1.059695192038376775e-02,1.272507735797249280e-03,4.612162709236145020e-01
3.377922370681734066e-01,5.287723644599281458e-01,-2.741483528338140019e-03,-5.348021707388448710e-03,-7.499944350053137010e-04,9.135992763052592364e-03,4.667008519172668457e-01
4.156283473765031156e-01,5.149055434648803775e-01,-2.354113117813838585e-02,5.177251843244922574e-03,-1.707590895393716352e-03,4.296643230969051340e-03,4.964573085308074951e-01
4.781316250170393745e-01,4.814868536842631386e-01,5.826732224990610609e-02,6.735114520551354136e-03,-2.303523613558004085e-02,1.279861036743967220e-03,4.236022830009460449e-01
4.543809721168835525e-01,4.918365873090521645e-01,-2.227622388178912560e-02,1.884955221647846135e-03,1.131509730084584268e-02,7.173977905504797664e-03,4.969986379146575928e-01
4.737071461158082197e-01,4.786637499401341089e-01,2.694685471341207172e-02,8.906866144164419380e-03,1.048238384891755220e-02,6.858041686471564105e-03,4.500471949577331543e-01
2.777846927872562044e-01,5.190451263243185398e-01,-1.245009563995593260e-01,-2.547897940748822809e-01,2.011706189638598485e-02,3.931263196845506680e-02,7.195137143135070801e-01
6.097732271155649197e-01,2.616627498711480149e-01,-1.870077626304922358e-02,6.612426481950148260e-02,1.431279802551191447e-03,2.986618202620124063e-02,5.596261620521545410e-01
3.702675518541181932e-01,4.966214885018315206e-01,-2.244236082635464591e-03,-1.217070210298489344e-02,4.890277274350272050e-04,1.334083713674445379e-02,4.503084719181060791e-01
5.518212484832800691e-01,1.983631953107778401e-01,-1.446211236423750046e-02,-2.294453785251842626e-01,1.138893198774116981e-02,5.455915786769071490e-02,6.424226164817810059e-01
7.566249020624601362e-01,2.095611356321878671e-01,-1.690520988285526549e-02,7.538221215774736084e-03,-3.937244588696265681e-03,2.750573539123924577e-02,6.906113028526306152e-01
5.291632205317374771e-01,4.804786844413084235e-01,-1.312280154555539591e-02,2.490508597889853296e-03,-2.717544095233537325e-03,2.750602295774834047e-02,5.218753218650817871e-01
3.645188958388096978e-01,5.056758197811821454e-01,-9.367434081029191173e-03,1.025821851944713238e-02,-2.039863895678087954e-03,-1.208039681007516816e-03,4.613301157951354980e-01
4.677801273035325225e-01,4.791682619642571028e-01,-2.981914955953612889e-02,1.132823785961343350e-03,-2.185376900435118987e-03,-2.007278071414619804e-03,5.034200549125671387e-01
4.941141844031133323e-01,5.058039575947554933e-01,2.445280912552799668e-02,3.414945725689353534e-02,6.817410226565867939e-03,-9.462631796323615549e-03,4.797033369541168213e-01
4.485340330475680037e-01,4.276377534062145713e-01,-6.168476064248695767e-03,-4.505352560627370710e-03,1.040233710485207776e-02,4.553418924244292260e-03,4.451259970664978027e-01
5.660873684568010766e-01,3.398238225108103361e-01,-3.041533515958194656e-02,4.858098311528735898e-03,1.306404486493229801e-02,6.018228428587640844e-02,5.324400067329406738e-01
6.448571325095107110e-01,3.888533796325189806e-01,-2.057523823847001720e-02,-6.320700932771490532e-02,5.709418343176450583e-02,6.954203587395024755e-02,6.117662191390991211e-01
4.352558577663282469e-01,4.603119570416588924e-01,-1.918249988343007084e-02,-2.486652471818901877e-03,1.864362006175942403e-03,1.323528230305163166e-02,4.680629968643188477e-01
5.446262446228491427e-01,3.592273278263352632e-01,2.011668293783697159e-02,6.398769697266457057e-02,-2.117609796244816073e-02,8.514119490742673435e-02,4.976094365119934082e-01
4.357791450587277238e-01,4.519585072199263642e-01,-1.553848163052284903e-02,2.387500821307323579e-02,-1.593994174979505851e-02,9.430108297846082413e-03,4.625910520553588867e-01
4.180501919261852550e-01,3.251707949568624634e-01,9.650515247994928547e-03,-1.737910738632796603e-01,5.485003850476120879e-02,6.990759027471064868e-02,5.017786026000976562e-01
4.750740490654383752e-01,4.670972116725515821e-01,-3.133229904249434927e-02,-6.809259005922153624e-04,7.801380722921668449e-05,2.221209620871862796e-05,5.024667978286743164e-01
4.733406744153862977e-01,4.513111788108270517e-01,-1.875815288572602046e-02,1.097584378456214907e-03,4.907972052394155016e-03,-9.268353976134559259e-04,4.815436899662017822e-01
4.253831582144067536e-01,4.763234322918616925e-01,9.429322041287047096e-03,-1.993501115274798063e-01,7.824717336620164165e-02,3.805660828990721500e-02,5.820098519325256348e-01
5.880693723256853467e-01,3.825530413389807149e-01,1.308790868318043810e-02,-3.099235269181573743e-02,9.469568474110033607e-02,7.192420786996342463e-02,5.476999282836914062e-01
4.571591574862480245e-01,4.474634153515250068e-01,-1.350928396045947277e-02,6.923350101241780574e-04,4.389177263539259174e-03,-2.617949032173893381e-03,4.659818708896636963e-01
4.820655169121031425e-01,4.039698425089755518e-01,8.422907380298272351e-04,1.306748678536007353e-02,8.335747672234534653e-03,-1.449986023066931508e-02,4.488259553909301758e-01
4.404708043847100907e-01,4.588912419629438411e-01,-9.975517237445774565e-03,4.497093630691264589e-03,-3.967371803289485304e-04,-7.221213101994788247e-03,4.601697623729705811e-01
4.459277462659981817e-01,4.394951133037608426e-01,-1.269132936375644283e-02,1.824055321835243992e-02,5.061183470228515328e-03,-7.002990011502313594e-03,4.567765593528747559e-01
4.937851848359856577e-01,4.826459810428870290e-01,-1.217474836197951493e-02,-8.735116153895378446e-03,-6.150561442733383944e-04,-4.523491685190696859e-03,5.007743835449218750e-01
4.656943078509653833e-01,4.642153671093424139e-01,-2.389684520139978563e-02,3.083451785438158705e-04,2.225516301317451325e-03,-3.807117458990628544e-03,4.889133274555206299e-01
4.540655212223199122e-01,4.582297498688200910e-01,-1.887156466497291740e-02,2.862702536209657360e-03,4.470901776220477433e-04,-5.398488702273575995e-03,4.751514196395874023e-01
5.555889971826538654e-01,3.685801746993609407e-01,7.219440037367297336e-03,-5.728686840242327993e-02,2.429789409009553564e-03,2.445180103875635794e-02,4.947608113288879395e-01
4.751833068870302546e-01,4.796956271445135256e-01,1.002326741176175484e-01,3.796503273788434316e-03,2.699501304254551225e-03,9.323914279273948572e-03,3.776587545871734619e-01
4.665568886669513304e-01,4.739828182351916164e-01,-3.832802840168386682e-02,3.304588959962134211e-04,3.095964927442580294e-03,5.787184777839820236e-03,5.087658762931823730e-01
4.820374197450939535e-01,4.726381215228042665e-01,5.902345653972262962e-02,4.569168032136518461e-03,-3.381839535093154880e-03,-2.100012645018690949e-02,4.200870096683502197e-01
4.635031561255933408e-01,4.831315243993333230e-01,-3.573539958050830911e-02,-1.877023350634739792e-03,7.250299436242836106e-03,7.341477895812204696e-03,5.096603035926818848e-01
4.295915736234398041e-01,4.504104498553156422e-01,-1.186642318554714803e-02,-5.209158380039537357e-03,5.841202854150706961e-03,1.071169295093798469e-02,4.528103768825531006e-01
4.462907656861916927e-01,4.510108269819099736e-01,-2.439856568112647173e-02,-3.471589079566028430e-03,1.030826885988279235e-02,5.684757853092330636e-03,4.735443890094757080e-01
4.216658474468361062e-01,4.938845031964799182e-01,-2.368000041643525400e-02,-2.284866892556219452e-03,3.839186295867817733e-03,1.231298882602392501e-02,4.860302805900573730e-01
4.524680785733807831e-01,4.717159427897259505e-01,-3.284697141508946538e-02,-4.991728046109683310e-04,3.025106891782670016e-04,1.145439462559356275e-02,4.956178963184356689e-01
5.268839116458524652e-01,4.867234184736798364e-01,7.413692269017757575e-02,-1.991917717070416233e-02,-8.601493667633076934e-02,-1.201793324907872579e-01,5.050994157791137695e-01
4.584020917619509583e-01,4.606126706200075471e-01,-3.326044077378514929e-02,-8.438408164295048376e-04,1.335507193714054446e-03,1.023462605143904761e-02,4.930978715419769287e-01
4.726953892284036507e-01,4.682776321307243750e-01,-3.726277587603848973e-02,1.716017695589811248e-03,6.212504477266738920e-03,3.023560931090189547e-03,5.079134106636047363e-01
7.275449193597237629e-01,4.738313233837485594e-01,7.289799393933393823e-02,9.051747759265810211e-02,-3.221959234933887556e-02,-6.458026912214627491e-02,6.058438420295715332e-01
4.507949957541397268e-01,4.321114815508851903e-01,-1.008517053309371247e-02,-1.032577048635481276e-01,2.462038203912195883e-02,2.852512215376455662e-02,4.903006553649902344e-01
5.406813808791708365e-01,4.569058519724370493e-01,7.129530496334485212e-02,-1.048766188967163032e-02,-5.666101421871744259e-02,-5.758048973957147904e-02,4.559895694255828857e-01
4.505266190629244050e-01,4.967270893439604262e-01,-3.075975385640539184e-02,2.106687518830819769e-03,-1.656630784836203053e-03,2.806165479982007487e-03,5.060157179832458496e-01
4.166708192980842496e-01,4.909861233861327334e-01,-2.249149978054243437e-02,8.547483269393819569e-03,-1.968896524434654051e-03,-2.786314815540346431e-03,4.809125661849975586e-01
4.832576929197277549e-01,4.700328676575249442e-01,1.076425895034982538e-03,2.241834348186083278e-02,-6.702174015281697761e-03,1.185423428133542192e-02,4.778712987899780273e-01
4.780507479853177699e-01,4.802909484464490397e-01,-2.376636981762481060e-02,1.992224381324146643e-04,-4.192622182881172894e-03,-1.126283478671394030e-03,5.029972791671752930e-01
5.358734388029974260e-01,4.725968702162364754e-01,2.418913115923454482e-02,7.815738581888878600e-02,5.842398457224457463e-03,-1.378166214297433211e-02,5.024391412734985352e-01
4.245630410856291448e-01,3.138644356923832035e-01,3.702464623940193711e-03,-1.257010552872564191e-01,5.466244508107378532e-03,3.358508575838576975e-03,4.362509250640869141e-01
5.117131667922243388e-01,3.119988971580742732e-01,8.368304937655612896e-03,-2.962479572199208655e-02,1.301152890826819293e-02,1.098260523667360031e-02,4.429665207862854004e-01
5.124358723357936851e-01,3.253421892575850127e-01,-5.599450800500671566e-03,-4.543692729745211351e-02,1.174000749685037009e-02,1.533083965666496261e-02,4.623371362686157227e-01
4.511617456930696046e-01,4.851283611949913643e-01,-2.967652147448085476e-02,-7.938386205371334488e-04,-2.065136833994524884e-03,7.685438125066227505e-03,4.988822638988494873e-01
4.771164949923092369e-01,4.807289453051964978e-01,-3.313678464673758262e-02,1.291182085967927532e-03,2.117957150257766472e-03,2.535608752410130795e-04,5.120872855186462402e-01
4.734408775203362563e-01,4.834357191449913937e-01,4.122428621090012957e-02,9.594261611434682160e-03,-1.200100771682649330e-02,-2.013488583570317413e-03,4.381225705146789551e-01
4.610194921729405260e-01,4.959631658644532148e-01,-2.916779528956353618e-02,4.572107016043816183e-03,-8.039905532876714077e-04,-3.590729814181369862e-03,5.086618661880493164e-01
4.824091122489419514e-01,4.766779481067333624e-01,-1.419991988502117275e-02,-1.205187263883251546e-03,3.557497406086059487e-03,-6.920146884117635939e-04,4.938127100467681885e-01
5.053060673059388552e-01,3.271850936817313760e-01,-1.993376078728875678e-02,-4.671556539231726951e-02,9.334708918032055477e-03,6.651555102778803664e-03,4.700945615768432617e-01
4.672616938511034990e-01,4.880077454121494185e-01,-2.837343066224057297e-02,3.467660469338790068e-03,-2.394138145495667246e-03,-6.777908638056872985e-03,5.065156817436218262e-01
4.155451487142977629e-01,4.986876339584278561e-01,-2.448546380357485841e-02,4.937449045938413668e-03,-3.128263935055732112e-03,3.355626767805966384e-03,4.870945811271667480e-01
4.990756789735826260e-01,4.213061648984912644e-01,-3.238026717122821641e-02,-8.618717404809439139e-03,5.939442147626827935e-03,1.029019211648967563e-02,4.978039562702178955e-01
4.790324245351711419e-01,4.750990916033217548e-01,-2.804941158623813768e-02,-3.839832113860025737e-04,9.995687891137562675e-04,-5.644203220822483977e-04,5.051310062408447266e-01
4.775169388387128788e-01,4.746730242763730345e-01,-1.575634255076918677e-02,-1.165042908713284555e-03,-2.165964115304717420e-03,-3.739159917382675613e-03,4.919185638427734375e-01
4.597743806510463660e-01,4.518662468529317522e-01,-1.782320488332206354e-02,2.382444664799478814e-04,1.795409288347203734e-03,-5.202449639746279872e-03,4.737891256809234619e-01
4.871441559927562892e-01,4.350500329558849577e-01,-8.177624064462374331e-03,6.083094300500777735e-03,-9.969452732931342528e-03,-1.622197608821743155e-03,4.718804657459259033e-01
4.318346993459535321e-01,5.409016822714501904e-01,-6.077550761847350103e-03,6.432645559390114121e-02,-9.326926322417666924e-04,-2.417534980793430849e-02,5.153582692146301270e-01
4.668172626377410372e-01,4.638556480448947084e-01,-2.751742037029841770e-02,6.592899636272567341e-04,3.169782268918705341e-03,-5.976325108865560010e-04,4.928935468196868896e-01
4.817798523648065823e-01,4.829982466401936403e-01,6.483807838129262979e-02,5.871958924494649276e-03,1.255704071743781597e-02,7.478618071874425927e-03,4.184425771236419678e-01
4.655994709205816262e-01,5.154564559776860788e-01,1.802577085027950998e-02,-1.568277961370810603e-02,-1.025794404783608553e-02,-2.000331015389619771e-02,4.768401682376861572e-01
4.035503282184412788e-01,6.162473071628078447e-01,6.804180720616426203e-02,-9.551578122841819507e-02,-6.967065163607190359e-02,-1.009065429725009982e-01,5.492228865623474121e-01
4.716088607479818062e-01,4.733009244284971384e-01,-2.906064533252422644e-02,3.041999532897116066e-04,-5.135627922446887568e-04,-5.700405668684757274e-03,5.016159415245056152e-01
4.537027291421976694e-01,4.646864850816737058e-01,-1.928000467732093881e-02,1.157009784446974250e-03,2.602289087804524645e-04,-8.192924181708657536e-03,4.787839055061340332e-01
4.772904520829150399e-01,4.689610949038298116e-01,-2.936943464878272181e-02,-7.557454762468321678e-04,1.077383618310979573e-03,5.385211948654992551e-05,5.025521516799926758e-01
4.834867399541337152e-01,5.168269538496412796e-01,7.459578434404817715e-02,-3.067572654544856517e-02,-2.383195338648836856e-02,-5.775259252530380583e-02,4.432480931282043457e-01
5.280284406699370381e-01,5.241775034494329244e-01,8.110481967012528326e-02,2.789736656369386572e-02,-3.110491843743687715e-03,3.724189613805128224e-02,4.522821903228759766e-01
4.813111953618257610e-01,4.709598889699115887e-01,-1.704907126852817090e-02,-1.291094155611949550e-03,5.661981003506694025e-03,-6.913500596141187136e-03,4.935139119625091553e-01
4.850368159472633334e-01,4.806312701327368764e-01,5.503046709504300082e-02,-3.791455572368458010e-02,-2.036396859206897336e-02,-3.381097422065863778e-02,4.381970167160034180e-01
4.687089751785589176e-01,4.639071863646399008e-01,-2.743459037714074400e-02,2.435723750630458659e-04,2.638140827510940820e-04,-3.696296123314378197e-03,4.938020706176757812e-01
4.578747103537361696e-01,4.695107094237134793e-01,-3.251125477903671346e-02,-9.816732286433654895e-04,1.335636104795272575e-03,5.715903731152049971e-03,4.964133203029632568e-01
4.733993211168810999e-01,4.809050292163948304e-01,-2.879984069052715645e-02,1.196734802687111736e-03,-1.590093602761790239e-03,3.766976549398909509e-04,5.060059428215026855e-01
4.661908566527912523e-01,4.691158337735239492e-01,-4.086025062046816370e-02,4.642060783787115550e-04,2.259738635795549252e-04,3.353505285544752020e-03,5.085538625717163086e-01
4.620793713555667592e-01,4.693433430927176908e-01,-3.890432999157178440e-02,-9.039093124663670660e-04,3.599051970234999360e-03,5.842972604326084063e-03,5.047972798347473145e-01
4.502769008931319927e-01,4.533741371245024188e-01,-2.581038755763648274e-02,-5.361204586990710869e-04,4.090751043157113409e-03,5.263393486788640538e-03,4.777838587760925293e-01
4.443218612222436525e-01,4.403659687170907722e-01,-1.864579299846097493e-02,-9.054179875283320522e-03,7.733959368442566706e-03,1.919868554769003661e-03,4.614755511283874512e-01
4.677525178704239339e-01,4.714137331252795660e-01,-4.095972530206620776e-02,1.391331340623184272e-04,8.912822409313105694e-04,2.249876920253287681e-03,5.105699300765991211e-01
5.403204990299593780e-01,3.149845447690427513e-01,-9.232073269911966751e-02,-1.963837970167664204e-01,4.143409133282135309e-02,2.778953042046425695e-02,6.569789052009582520e-01
4.836384205960475025e-01,5.108581611276831191e-01,1.005492608424922163e-01,-7.731976027126427620e-03,-1.761608860497237278e-03,5.609898609870602251e-03,3.977547883987426758e-01
4.790844478439583165e-01,4.681437965904510778e-01,9.363903018391539490e-02,1.808744392363533741e-03,-9.594235564631818300e-03,-1.458650429704967276e-03,3.804775774478912354e-01
5.097537777554241867e-01,5.154814839454362474e-01,5.753433781528316526e-02,-1.002282062514245472e-03,-1.439171571211867243e-03,5.639104731297081737e-03,4.552252590656280518e-01
4.735006021138401522e-01,4.793032941295117810e-01,-3.401202797999058891e-02,2.004651635800108831e-03,-2.791427460587266214e-03,9.492536130505079819e-04,5.104760527610778809e-01
2.749651046783698205e-01,4.009859007710809831e-01,-1.842470975359356000e-02,-2.411977364412180302e-01,1.535346690605585672e-03,9.390879175647424970e-03,5.601184964179992676e-01
4.691237113032001860e-01,4.799032426432069398e-01,-3.847710853698149691e-02,3.458015059007763133e-03,6.380288331069425202e-05,2.254351257590853086e-03,5.131253600120544434e-01
3.673521899400444823e-01,3.711472270797458450e-01,1.289165506638489944e-03,-1.342699534683379214e-01,1.745220642091145635e-02,9.894282636738076231e-03,4.366903305053710938e-01
2.989895241809706894e-01,5.327459796074232035e-01,-6.095893079238745571e-03,-1.985628109891599338e-02,5.502719865075388073e-02,2.763310240236437412e-02,4.812405109405517578e-01
4.717189652882822215e-01,4.826329251087820849e-01,-3.615330321455439977e-02,1.185366771565555567e-03,-9.377705087635529761e-04,1.368035117441803112e-03,5.134283900260925293e-01
4.691449060632084667e-01,4.645582315489401593e-01,-3.676219559716220608e-02,2.185402998195865726e-03,3.948734312985685731e-03,4.152693661040454849e-03,5.037414431571960449e-01
4.218874355182983815e-01,4.906572075733415250e-01,-3.126581468525574392e-02,-5.218718919166425926e-03,1.459960126882994293e-03,7.643037295254423436e-03,4.914303123950958252e-01
2.634610708684574920e-01,5.230195011415958994e-01,-2.312915732140863323e-02,-2.379088907867222824e-01,-4.343103787447504839e-03,9.003578354116525961e-03,6.276887655258178711e-01
4.481207417488216604e-01,4.103415379673409080e-01,4.287796918894193343e-03,-3.167152858059855969e-02,1.002910947661359020e-02,7.419912112596328824e-03,4.302597641944885254e-01
3.139205908608303508e-01,4.661642816311177828e-01,-1.822342996201209431e-03,-1.389127750697809194e-01,-5.513296966713960613e-03,-4.668496200414665176e-03,4.785273969173431396e-01
4.679858867634149044e-01,4.764664409198082762e-01,-4.025570529126215602e-02,5.068135581264978729e-04,1.588554448095444319e-04,3.218171256450553207e-03,5.125656127929687500e-01
3.726371886356790175e-01,4.628044888965474613e-01,9.911660793929411017e-03,-1.034631606362186595e-02,-4.603770364427476236e-04,-1.511193051023307192e-03,4.156134724617004395e-01
4.743721353251946771e-01,4.837481569651079227e-01,-3.170919123782778293e-02,2.056373928399547084e-04,-1.955951275972264182e-03,-1.473383428758159386e-03,5.108516216278076172e-01
3.473102883872685176e-01,5.026939070618910987e-01,-1.430737687836802774e-03,-4.172518486309679392e-02,1.494890710826833786e-02,1.117116285636292165e-02,4.541153907775878906e-01
4.616909368183717000e-01,4.842353564291821399e-01,-3.080904174657617123e-02,1.547938906537971214e-03,-5.936708022747283400e-04,2.630567653515780441e-03,5.041791200637817383e-01
4.773565942763060010e-01,4.779809374803393740e-01,7.776039990524563628e-03,1.077162683723919276e-03,-6.340572051029567772e-03,8.283558161930733798e-05,4.700250923633575439e-01
4.726574713826568463e-01,5.024756831735430751e-01,-3.213633621941980323e-02,6.631215171568075051e-02,1.468212687196488071e-02,-3.439249179112087440e-02,5.367915034294128418e-01
4.758901414431010446e-01,4.833727354965787759e-01,-2.886733440051958421e-02,-1.196106225554476927e-04,-1.190026609416548970e-03,-2.693754048725413488e-03,5.085656642913818359e-01
3.967729818817549714e-01,5.060071513190169679e-01,-3.093510148926437164e-02,-1.310646623335034490e-02,4.556491167422727778e-02,3.079539355348240651e-02,5.011741518974304199e-01
4.768500471290758047e-01,4.786293505128461079e-01,-2.876296002575612354e-02,-6.105035302042577557e-04,-7.835474439962115392e-04,-2.450568146608811653e-03,5.065256953239440918e-01
4.769609241702282842e-01,4.767908191935752438e-01,-2.924412830290046283e-02,-1.309174415883196830e-04,-8.697371647340304372e-04,-1.373379159662630215e-03,5.061278939247131348e-01
1.064135661358349416e-01,6.329710797259895383e-01,-2.765418140017034121e-02,-2.033901916996582251e-02,5.657303544180858346e-02,1.602745344723989149e-02,6.143651604652404785e-01
4.834238819209751292e-01,4.721417169093738986e-01,-2.124483415626371441e-02,5.066543158809212917e-03,4.595452373510839966e-04,5.308169152247354215e-03,4.992856979370117188e-01
4.716510824166565974e-01,4.549790437020592160e-01,-3.409858139017968304e-02,4.119658107812469890e-03,9.641458393800107426e-03,4.103137995917325470e-04,4.979549050331115723e-01
4.715886254080340345e-01,4.733554616446165042e-01,-2.747027773237215031e-02,3.228998609194740294e-04,-8.940679188160703368e-04,-6.496158478249538203e-03,5.000739693641662598e-01
4.776409472055652694e-01,4.751333703015027110e-01,-2.434182703947973536e-02,-5.239464976735483826e-04,-8.109544498056523755e-04,-1.166694342091871778e-05,5.007364749908447266e-01
4.779382318284820519e-01,4.832427247595147968e-01,8.704369820172086492e-03,-4.901112990195872349e-03,-6.118498031871704053e-03,3.022733944043209161e-03,4.721328020095825195e-01
4.749790884757901233e-01,4.367672756810582202e-01,-3.244915895377481485e-02,-4.321083815076776774e-03,1.456733424950404018e-02,1.002555664056149418e-02,4.904569089412689209e-01
4.770556292679533072e-01,4.729890834984664116e-01,-3.015108966513824207e-02,-5.440791710100221622e-04,3.771707831857040429e-05,-1.530597802391433322e-03,5.051935315132141113e-01
4.716911245108201811e-01,4.676349159232566777e-01,-3.739852953164324312e-02,3.638433928549875606e-04,6.033128648256292845e-03,2.734889868467884743e-03,5.072038769721984863e-01
4.711138667786221035e-01,4.672850236149275194e-01,-2.705871212817984039e-02,-4.723612394464358501e-04,4.370077496858054580e-04,-3.556499793364439974e-03,4.963087141513824463e-01
4.764734796513244164e-01,4.689972618416454742e-01,-3.079358813688581886e-02,-9.473325317576706140e-04,-5.772850667609058989e-05,-2.519757706225420014e-04,5.035734772682189941e-01
4.686847916955943494e-01,4.547057078295484445e-01,-3.176077122713832912e-02,-5.293560305699536103e-03,1.466850565910380114e-02,1.054326934405180709e-02,4.946801364421844482e-01
4.595704525989323663e-01,4.494748373377427941e-01,-1.798101566440579724e-02,1.508307026639699308e-03,1.993491605628654444e-03,-5.444679335678866659e-03,4.726984500885009766e-01
4.805929173685063449e-01,4.611825610732902536e-01,-3.176846369761482380e-02,2.830259831469338267e-04,1.225181939740381705e-02,1.132914914339223228e-02,5.037672519683837891e-01
4.735623674496083901e-01,4.692132645891430864e-01,-2.951847990673467370e-02,-4.730711518021558991e-04,1.173625851427265252e-03,-1.955153932474861921e-03,5.009366869926452637e-01
4.752708779316709986e-01,4.689508912501232918e-01,-3.114924241389194215e-02,-8.200872060659305379e-04,-8.084269549634602391e-06,-9.494109115716831875e-04,5.032945871353149414e-01
4.760647398464283864e-01,4.737603692031920333e-01,3.635917359307161423e-02,-1.665634133192501120e-03,9.558544161765637108e-04,-3.931369065108884092e-03,4.386233985424041748e-01
4.771135213129398256e-01,4.760947256121559890e-01,3.657878897644428751e-02,1.838581947076756422e-04,7.644566202413491125e-04,-4.320920483945245652e-03,4.400919675827026367e-01
2.852578656762844167e-01,5.647221586623790701e-01,-5.435170019158330756e-03,4.569379472570215400e-02,8.279857608589931764e-03,2.555765545346559697e-02,5.022649168968200684e-01
5.244610062265132600e-01,4.573940906279556073e-01,5.374643844740317755e-02,3.956269072955254790e-02,-1.662585552260367749e-02,-2.622860138277182188e-02,4.495436549186706543e-01
4.718217124575309618e-01,4.714678714360632794e-01,9.345589525834496758e-02,4.319247549896166813e-03,-2.964733672996090925e-03,-5.800995367469706336e-03,3.784312605857849121e-01
4.674481011157533561e-01,3.398796595228025241e-01,-2.631394110239992923e-03,-7.852726664282649871e-02,-3.307533905386651069e-02,-2.793800990529898831e-02,4.487808644771575928e-01
6.073983522231971577e-01,4.948321162865447764e-01,7.341914286767237119e-02,-7.743439661802054008e-02,-5.909705822112449464e-02,-1.126793163093310068e-01,5.515908598899841309e-01
4.697123636498423682e-01,4.699193319666456481e-01,9.015408755068027302e-02,2.032069357435173102e-03,9.067959310322333587e-04,2.470689863931830460e-03,3.797054886817932129e-01
4.847995024313056511e-01,4.646155146009780523e-01,-1.668351957148689335e-02,3.478389933366649294e-03,1.582530942389849538e-02,1.437175291634393455e-02,4.931307733058929443e-01
4.570330785877303459e-01,4.558186820991966259e-01,-1.897746346928957939e-02,-6.705629996106494441e-04,1.761860405364825332e-04,-7.181641885365356442e-04,4.754076600074768066e-01
3.877971088438680880e-01,4.811714753350921359e-01,2.835810558744156218e-03,1.594262762951715803e-02,8.015556954009017308e-05,-2.079192580535868737e-06,4.400250017642974854e-01
4.797183593604010809e-01,4.788455151855514624e-01,-2.756102052118414303e-02,-1.900060946894592594e-04,1.652775941418083020e-03,-8.364722463200709992e-04,5.068537592887878418e-01
3.737711158026835734e-01,5.309690835934397501e-01,6.645108765014196006e-02,1.308686739988446437e-02,-8.944295516173797478e-02,8.898173795666892288e-03,4.384271204471588135e-01
5.957249647194822195e-01,5.068017073532165018e-01,-3.471307834919723501e-03,2.447634728817322525e-01,1.826281086704739307e-02,-6.755831685430016553e-02,7.127983570098876953e-01
3.278868266179669755e-01,5.178152016894477239e-01,3.461157265773451286e-03,4.331091593000793022e-03,2.716308563898311903e-03,6.551591371430535472e-03,4.507212340831756592e-01
7.304984193919565882e-01,3.809763886368965347e-01,-2.066645190125210307e-02,3.698975107320610911e-02,2.709717585013809993e-02,6.629561843203300719e-02,6.658517122268676758e-01
4.271681756258965956e-01,4.780127376827945085e-01,-9.693242603936724766e-03,8.170767243812696382e-03,6.156810472437784180e-05,-6.787750004880036860e-03,4.647403657436370850e-01
4.829403199859855222e-01,4.762085189403981733e-01,-1.336366753792839202e-03,6.375845929388139141e-03,-5.022416423667881193e-03,-3.754181287855071474e-03,4.811954796314239502e-01
2.910714039546912768e-01,5.408357427832192199e-01,7.133689201319126649e-03,1.026202411150017066e-04,-2.993616970899354995e-03,8.508768925070799363e-03,4.627790749073028564e-01
4.648870128455209194e-01,4.320082630355339126e-01,-9.327944111106101222e-03,5.222883990318380465e-03,7.810499521226955087e-03,-2.345372116054168581e-04,4.589490890502929688e-01
4.836840097763898116e-01,4.760889533182375288e-01,3.759498069077954474e-02,-6.041490313378712791e-03,2.738522546369470678e-03,7.593232300962441490e-04,4.424915313720703125e-01
4.473447975162148094e-01,4.748859899512440919e-01,-1.905925690865617472e-02,3.866564898360025111e-03,-9.701377375701256741e-04,-8.686233810637848315e-03,4.810515642166137695e-01
1.859545452903411666e-01,7.057363542462946615e-01,-1.068349410774738217e-01,-6.049056359705582558e-02,1.769082556071241430e-02,2.265893653388633550e-02,7.221786379814147949e-01
2.929315494675818754e-01,5.346313098285765397e-01,5.477014709073912968e-03,-1.133629573999762712e-02,2.851995516163689337e-04,5.352617725069975033e-03,4.593455195426940918e-01
4.756249489072901238e-01,4.746171755440216078e-01,2.456847630367148261e-02,3.843350591086337580e-03,-6.747794845020183702e-03,-8.789257961287273713e-03,4.510111510753631592e-01
4.245818676397551394e-01,5.777778527766439520e-01,4.560589362523770340e-02,-1.531092603522499207e-01,-8.160924560431695451e-02,-5.578040858532184315e-02,5.699046254158020020e-01
5.098193313898554679e-01,4.630037503152965028e-01,-3.502927572840219828e-02,8.017659636604666448e-03,2.906236994160821784e-03,1.073812913983165050e-02,5.235536098480224609e-01
4.799251657866746568e-01,4.605469161037016868e-01,-6.179579967204251734e-03,1.139522188446492803e-03,-1.771998994476614445e-03,-5.580612794136277557e-04,4.767260551452636719e-01
2.881795760857063793e-01,6.959810913543231781e-01,-1.206969051430460405e-01,2.230599167784696191e-01,1.138852269753938377e-02,8.888221746806259163e-03,8.062976002693176270e-01
5.160426642519153617e-01,4.083916841215707305e-01,-3.632324330589759009e-02,-9.152967836800333587e-03,2.683788229151796642e-02,5.496602822317981502e-02,5.183724761009216309e-01
4.770115538101435959e-01,4.715313070543678542e-01,-2.863777302902542621e-02,-2.258968958384074445e-03,7.454986750638417778e-04,-4.791349682929378390e-04,5.029491782188415527e-01
2.990220757609365343e-01,5.236884154881306097e-01,4.860474440815165664e-03,-1.275564973748077174e-02,-2.949014874164830168e-03,2.495208044457964281e-03,4.512506127357482910e-01
4.539999801507003108e-01,3.634528888220732168e-01,-1.307538623349191464e-02,-7.897108524418774977e-02,2.487874141433225536e-02,2.874010516213704874e-02,4.550933837890625000e-01
4.591729441044694604e-01,4.507285430773494417e-01,-1.218627577192687994e-02,1.201648232844559048e-04,4.430797111653570278e-03,-3.978148248445030101e-03,4.673081338405609131e-01
4.740417746060581750e-01,4.783324520476106567e-01,-1.153412937815379014e-02,-2.492877910069890221e-03,-4.267534850212608560e-03,3.268462844038636482e-03,4.878433644771575928e-01
4.437318078496437224e-01,4.056614759196806030e-01,-7.614140864401652831e-03,-1.957215494406237127e-02,1.136552922471443551e-02,5.471372385609979232e-03,4.354378879070281982e-01
4.636462549714569503e-01,3.947451084536555133e-01,-1.522255003675865304e-03,-1.072937035849833368e-02,1.052564388615508800e-02,3.737906593083166387e-04,4.356106221675872803e-01
4.429555013699187915e-01,4.536877399508639774e-01,-1.787606656832657626e-02,-4.075454268600441424e-03,1.656100023553340678e-03,4.512760823235324520e-04,4.663532376289367676e-01
5.148480203274068412e-01,3.438707400375603518e-01,-4.333993475675146367e-03,-7.064851975745065939e-03,1.114781257794202410e-02,-1.907551678926326568e-03,4.588554799556732178e-01
5.653475380134311834e-01,2.506974613374690630e-01,-7.024879419455731799e-03,1.138555696217384006e-01,-1.122353984096152897e-02,3.324680662815852200e-02,5.376811623573303223e-01
3.855063315050771822e-01,4.407614485018430672e-01,9.649235040425918619e-03,-1.684756542340813679e-02,-1.231735609060294247e-03,-1.278568953842811051e-03,4.073704481124877930e-01
4.826546489985324984e-01,4.673378018475782270e-01,-2.797171493525368868e-02,6.549966108527658596e-04,3.350669709525038570e-04,-3.071651324278488939e-03,5.031725764274597168e-01
4.727495615570326271e-01,4.819685119677418195e-01,4.682573369113707251e-03,5.823090179272297912e-03,4.187695179446998886e-03,5.223833932793719645e-03,4.729936420917510986e-01
6.294743784505854034e-01,9.484066368498336730e-02,-2.780704759659258229e-02,-1.047394698614129566e-01,1.625112219582519613e-02,2.387588972891387107e-02,6.339249014854431152e-01
5.567260495260485387e-01,2.984977206034712394e-01,4.842967462248937149e-03,1.076418817294210947e-02,4.404529401734309790e-03,-4.384875787996972353e-04,4.786975383758544922e-01
5.450548093677616279e-01,5.181788333430183968e-01,5.595415745185650103e-02,-4.728078380358975014e-02,1.893883324805757662e-02,7.583002873407972133e-02,5.018264055252075195e-01
4.792712414376942842e-01,4.667240432797801208e-01,-7.293389573179154262e-03,-3.728125018831264558e-04,1.964625408317181073e-03,2.138482018965019802e-03,4.804407060146331787e-01
4.749024950917112298e-01,4.759773143753294189e-01,3.897570961378549192e-03,3.372561649992134275e-04,-1.292440493728031804e-02,-2.217408151281135067e-02,4.736344218254089355e-01
4.862812394696259810e-01,4.571542546261909701e-01,-2.774900690543063986e-02,4.663562501930878373e-04,2.654492740026188815e-03,-3.916851487516304943e-03,5.001711249351501465e-01
7.206418718765235099e-01,1.836434061308741261e-01,-8.035959671546688554e-02,-7.335441426395336584e-02,3.350098061975145813e-02,2.281407635878275261e-02,7.217375636100769043e-01
4.252977106051467060e-01,4.862520005425342573e-01,-2.310811433599019304e-02,-4.186829667655932695e-03,-6.163511727531957628e-04,1.177542404029184933e-02,4.822708666324615479e-01
4.848665372197237255e-01,4.695833326656095874e-01,-2.021524913154471026e-02,2.107313052487270154e-03,2.790465644038338071e-03,-4.757922342897827686e-03,4.977213144302368164e-01
5.363674405075554708e-01,3.105727463518211384e-01,-5.546097638599811752e-03,-2.603743888594085495e-02,7.619101935925346424e-03,-3.420600735992688438e-03,4.738516807556152344e-01
5.282919982359153277e-01,5.194030344551796574e-01,9.476266742900235629e-02,1.392191109966510118e-02,3.468968077055069581e-03,-2.998657321280906451e-02,4.329991042613983154e-01
4.735951522851440387e-01,4.760399895374763379e-01,3.465440717482837218e-03,6.014586656080863210e-05,-9.544026999947224574e-03,-2.655297966597330861e-03,4.716691076755523682e-01
4.812903522361746123e-01,3.656950703264770786e-01,-2.097958202152971907e-03,-2.838195652091653198e-02,1.452816071801488543e-02,1.600248165211620287e-04,4.406801760196685791e-01
6.332866463596643625e-01,1.548928665249160175e-01,-2.094341133720739601e-02,-1.558082262864720485e-02,1.434908101954439005e-02,2.707053879353011477e-02,5.894424319267272949e-01
4.578027571132593510e-01,4.708703016844300038e-01,-2.717816069036399496e-02,-1.056870134659859553e-04,-6.397012999881911957e-04,2.215136066361209424e-03,4.916612207889556885e-01
4.515215136511462335e-01,4.980825869349453372e-01,2.593697762383118111e-02,1.224362941391502271e-02,9.696005380665898704e-03,-2.406514170800351515e-03,4.515029788017272949e-01
4.981593670200180068e-01,3.259150423011273889e-01,1.044105556393010170e-02,-1.742881760022904278e-02,7.144015575899885159e-03,-3.281411586853173290e-04,4.296455085277557373e-01
4.675707667989574823e-01,4.552231606599874136e-01,-1.909739832415380256e-02,-2.153934176670461824e-03,5.010421588441391245e-03,-6.233959849434486363e-04,4.807073771953582764e-01
4.807216623775888431e-01,4.544352578238757268e-01,-1.989146500605820655e-02,1.420278518587603060e-03,2.920239902012686153e-03,-4.704765713866819465e-03,4.881016314029693604e-01
7.435527458826913794e-01,3.337585461856855673e-01,-1.954691099484440198e-02,2.101234481157182934e-02,1.969292919982602863e-02,7.068784728674670781e-02,6.745494008064270020e-01
3.235601753329692132e-01,6.939341311984477123e-01,-4.134588763201163530e-02,-1.642352044248840404e-03,5.008280024046640050e-02,3.992685583926572357e-02,6.463748216629028320e-01
3.635184801323628756e-01,5.196500842769402606e-01,1.727527206871637411e-03,-8.668699072147246706e-03,2.386561225168633629e-02,1.875752193224278219e-02,4.634074270725250244e-01
4.823609227377684272e-01,4.022181436294226531e-01,-6.450228856224204943e-03,1.257544185663281820e-02,1.331465181066864185e-02,-5.700804719019637520e-03,4.552892446517944336e-01
5.660167615364614102e-01,2.658783909058815009e-01,-1.541776724458915337e-02,-6.981833003790052783e-02,2.053787147511863809e-02,4.227953944888952070e-02,5.242997407913208008e-01
3.115159494529474715e-01,5.103184799454948406e-01,-1.911228599214220836e-03,-4.316795522857958672e-02,-1.158588420103639702e-03,1.245968630600638276e-02,4.540146887302398682e-01
3.750393904511248322e-01,5.470277085826631414e-01,-1.005100223498689438e-02,-9.065219445960783287e-03,-2.937736653954670443e-02,-2.358285709983546849e-02,4.986077845096588135e-01
3.023630459294245343e-01,5.220791107426807631e-01,4.798388873068992755e-03,-1.658520014527852318e-02,5.117139112853393013e-03,-1.855858896160289366e-03,4.506813883781433105e-01
2.044532791735381716e-01,7.708787600041643318e-01,-7.321901981519357561e-02,8.579338095071188663e-02,9.064057499714021915e-02,5.306555738334575723e-02,7.812790274620056152e-01
4.641290154846778870e-01,4.663561466844047265e-01,-3.648474839054682839e-02,-1.755028067512754775e-03,-4.011222202650618560e-03,-3.024520380388929716e-03,5.018156766891479492e-01
5.308811088596652183e-01,3.089247069528742173e-01,-2.137575997030494168e-02,-1.809273307634490791e-01,3.655584236738954051e-02,6.740727428841142288e-02,5.895079970359802246e-01
4.573028001412662302e-01,4.497004948522683732e-01,-1.264497939303210750e-02,1.698432327184962436e-03,3.694329109284991749e-03,-3.421794453958753104e-03,4.662839770317077637e-01
2.795863800340372407e-01,5.446774866714410024e-01,7.229264201657481514e-03,-8.783779610767970814e-02,2.605422516099138372e-02,4.165303437192347837e-03,4.918191730976104736e-01
1.294685053411590847e-01,6.048026877019545555e-01,-2.228872566205625239e-02,-7.651568113345753874e-02,4.148065209459991104e-02,2.251972328137120255e-02,5.876696109771728516e-01
4.286940652432399967e-01,4.253508393971611179e-01,-1.574369258877472699e-02,-2.412705686461578611e-02,-1.594937135615086612e-02,-1.875160765243797864e-02,4.467824995517730713e-01
4.044858315058865728e-01,4.230410206857315170e-01,9.679299020881382276e-03,-8.799495394735896980e-02,-1.195451204785054171e-02,-8.155229115952121119e-03,4.328969717025756836e-01
3.571861099444684218e-01,4.982930766322135607e-01,6.211877791758302347e-03,-3.465004063161516296e-02,4.748551473831933052e-03,1.089660403176341552e-02,4.434464275836944580e-01
6.491366703590004672e-01,7.028312059847876547e-01,8.804800349290220485e-02,3.080638381648921273e-02,-6.828431780848596977e-02,-2.599217548642399761e-02,6.055518984794616699e-01
5.295474704905422936e-01,3.369226158505799207e-01,2.099859665641079509e-03,1.470201275615866561e-02,-1.694569526445812010e-03,-2.539020308144490298e-03,4.630142450332641602e-01
3.139296437506361448e-01,5.027875378504927939e-01,5.710782188368124235e-03,-1.153900713836811948e-02,-7.920577454183327926e-03,9.245125670842102225e-03,4.355683624744415283e-01
4.817916189562140294e-01,4.833387654740481376e-01,-2.282888633048912874e-02,7.380061201422094541e-03,5.418671756803214619e-03,6.136318906059601459e-03,5.057562589645385742e-01
3.154924698220123447e-01,5.464456691912757957e-01,-1.812722281626810705e-02,1.952420901065732642e-02,-3.598152610869016083e-02,-1.011730353814795352e-03,4.967118799686431885e-01
4.653979006145237962e-01,4.794216420129702172e-01,-2.894104690563592541e-02,8.676702621561614356e-04,-9.107437733985857681e-03,-2.914438712986985522e-03,5.017735958099365234e-01
3.275389115981183208e-01,5.528128165753355416e-01,-5.998627683985180425e-03,1.928335171103494686e-02,1.408101179456160146e-02,7.658011971924727273e-04,4.887177646160125732e-01
3.334197815363531547e-01,4.877504355208664988e-01,-1.136944244375248658e-02,9.849804154936077361e-02,5.464357710895167801e-03,3.651649030102465960e-03,4.744937121868133545e-01
4.713147183465912216e-01,4.838682592812220129e-01,-3.257194351119313547e-02,3.543975828610849629e-03,-4.239795414813955841e-04,-1.419245172530730990e-03,5.103226304054260254e-01
5.084195001355942267e-01,3.885645231763623642e-01,-2.166037935828435401e-02,1.412601509573520493e-02,-1.039889740750022003e-02,2.112689773597050541e-02,4.838173985481262207e-01
3.590177230536842901e-01,5.283100117618921843e-01,-1.024958199868364339e-02,1.979418374664678251e-02,-1.426656586477315081e-02,7.931197735501499188e-03,4.790689647197723389e-01
4.287850182636858687e-01,3.917748007830987866e-01,-4.578228183220139913e-02,1.357185603658747075e-01,-3.277300919370947085e-02,1.102289384966005509e-01,5.513185262680053711e-01
5.352349517041217197e-01,2.918839371322810017e-01,-1.965146189883937300e-02,1.321690962009688664e-01,-9.061518276663240237e-03,3.285115404075348439e-02,5.366343259811401367e-01
4.780605537658410009e-01,4.789242790158994567e-01,-2.551377582719621673e-02,5.054113435894596077e-04,-2.230449481725859523e-03,-4.048323100615399198e-03,5.040710568428039551e-01
4.985946628170067063e-01,3.532688003108186980e-01,-1.008807370308117957e-03,3.267733095063326404e-02,1.524847738138039154e-03,2.183707565099583022e-03,4.487121999263763428e-01
4.786381183474233136e-01,4.796744278324067134e-01,-2.511908287039898990e-02,8.814223898830951878e-03,5.340581011448941248e-03,5.638946878331490588e-03,5.046865344047546387e-01
3.433131484897906649e-01,4.972453701954295813e-01,1.218174563527185672e-03,3.245159122090904291e-02,-4.142131957095928187e-04,9.058137470232241126e-03,4.436096549034118652e-01
4.272726273700261368e-01,4.758967827847271903e-01,-8.667047628614421573e-03,8.191861668769444271e-03,7.104537299852358291e-05,-6.303109759447570251e-03,4.625207483768463135e-01
3.639577602083521324e-01,5.176436536073067973e-01,-1.040199542240244357e-02,7.318666888675546926e-03,-2.379350334196297066e-03,-6.419125844424926168e-03,4.707437455654144287e-01
4.683979605481922714e-01,4.693206373215122462e-01,-2.794623637909865455e-02,-8.831108503966179175e-04,1.044317379251794476e-04,-5.943097726897244269e-03,4.969151914119720459e-01
3.274451012431077168e-01,5.954716642063648813e-01,-2.044583705093350190e-02,2.530784928072688303e-02,6.055167163966523880e-02,2.062783290999877298e-02,5.480034947395324707e-01
4.763148040330593691e-01,4.758008135813813766e-01,4.007734686481800868e-02,3.508024546451003582e-03,-8.983106995210385706e-03,-3.537551237714706316e-03,4.363435804843902588e-01
5.099826611500161144e-01,3.700699540169969937e-01,-1.686398264633348631e-02,6.122451126999098325e-02,-1.073098198745272604e-02,1.582820375648454764e-02,4.855644106864929199e-01
4.226148071669850736e-01,4.814344856217431246e-01,-2.556565553117789991e-02,-3.881069138853188508e-03,-8.244934197518615599e-04,-1.003765952749149232e-02,4.806628823280334473e-01
1.360160865586140522e-01,7.538115195696295512e-01,-1.020864376660878814e-01,-2.297767322232850337e-02,-1.442235097016495793e-03,2.082215025985740056e-02,7.670420408248901367e-01
1.765531994657340564e-01,7.690826786476359089e-01,-5.771856465297608985e-02,1.807291263381560070e-02,-1.461001727455852293e-02,1.150972269358983835e-02,7.394626736640930176e-01
1.319529460243048513e-01,6.101337988925462641e-01,-1.784775759775264481e-02,-7.148202219352449427e-02,-5.670035387640489505e-04,1.002513081242546560e-03,5.814310312271118164e-01
4.722961988344374085e-01,4.773246457554262134e-01,-3.575413642608271658e-03,2.173499335452399976e-03,-6.606877049009351847e-03,-4.311197350241230235e-03,4.786155521869659424e-01
3.598302599093184950e-01,5.198667814271503707e-01,-3.182186236804329660e-02,-2.199667639939635322e-01,-1.995800220191196184e-02,-3.140793786260497045e-02,6.252936720848083496e-01
4.534809594725449089e-01,4.816161243083733612e-01,-3.283317384198242150e-02,-1.688369074538402959e-04,-4.825112189661668639e-03,-6.006959283807468929e-03,5.011523962020874023e-01
4.526314926212238188e-01,3.902526260249205015e-01,-7.731386222613328973e-02,2.163582369727776455e-01,-2.678899323699570137e-02,4.347559570777875804e-02,6.324016451835632324e-01
4.697660825042839772e-01,4.756880344443853437e-01,-2.312942374511578469e-02,8.662669460931025998e-04,1.377808887316344646e-03,-5.705870361404687466e-03,4.959894716739654541e-01
2.993658180421698844e-01,5.464826027745115500e-01,-5.105882116642201929e-04,-2.955434879988060558e-03,1.917091447235712634e-02,1.583304378923384992e-02,4.764219522476196289e-01
1.548529416613555476e-01,6.314947280466323143e-01,-1.114497510055774687e-01,-4.743853991030289215e-03,1.101858297359533355e-02,3.589828353580554188e-02,6.552352905273437500e-01
2.295547436681796283e-01,5.735163453211795659e-01,-1.253455575510354914e-01,-2.502257431741589655e-01,3.728978123398565825e-02,3.757098669579972405e-02,7.500540018081665039e-01
5.196061008704795370e-01,3.246220160153048262e-01,-1.040927102583749653e-02,4.277195715838892631e-02,-9.630735514677591855e-03,3.967785859211827269e-03,4.705362021923065186e-01
5.344022438638186268e-01,3.869563347131428910e-01,-1.618882467778898215e-02,2.017552810426324894e-02,-2.381161632242035763e-03,2.417699694810084010e-02,4.966892004013061523e-01
3.508270748759593216e-01,4.958887228145765214e-01,5.277705678963184877e-03,-1.293775924309496610e-02,-6.355972178453568860e-04,-4.948631881170864784e-03,4.372071027755737305e-01
3.508928272185302677e-01,4.944426743710440553e-01,5.667865290928386646e-03,-1.287874767510004473e-02,-6.181535456472488218e-04,-4.449242791980010173e-03,4.357773959636688232e-01
4.753045494990820186e-01,4.816772101576549114e-01,2.677536046339201725e-02,1.937036180485830761e-03,-1.733500632688369158e-03,5.840692200930453458e-03,4.518849253654479980e-01
4.274000678058391123e-01,4.493410594842806582e-01,-3.431417446404738669e-03,4.456591476734129281e-02,4.491134246797288260e-03,1.443951470140338728e-02,4.496603310108184814e-01
4.672096728137860033e-01,4.722448627000872534e-01,1.099355332487793324e-01,4.002090168721354410e-03,-1.685145829941140207e-03,-2.684290274480116353e-03,3.599267899990081787e-01
5.508175623860025460e-01,2.974403354650163589e-01,3.031351008999372265e-03,2.006542821569493387e-02,4.654430340224043582e-03,7.651795980899875511e-03,4.763630032539367676e-01
4.727589148951801823e-01,4.784207826455055268e-01,-1.253098462348706255e-02,2.313283121565668302e-03,-6.912757458813778046e-03,7.034428739033872957e-05,4.883087277412414551e-01
4.690961927086751970e-01,4.744075524284464551e-01,9.290817225491637688e-02,6.258421596909378819e-03,9.102206646817238280e-04,3.852850564087404069e-03,3.790886700153350830e-01
4.677309252567001807e-01,4.797140684462998239e-01,-2.660498379055226126e-02,6.909119016326523274e-04,-1.603581111662745647e-03,1.467987439661978940e-03,5.004506707191467285e-01
6.520479818647639814e-01,6.859026708277965456e-01,8.461126888285297465e-02,4.310694897506111428e-02,-8.786222144972610781e-02,-5.078081964347970489e-02,6.154761910438537598e-01
4.761706755361572729e-01,4.749411687563931395e-01,-2.374172608291758024e-03,4.362533322897883814e-03,-5.544127765684695591e-03,-5.231181032739831357e-03,4.781733155250549316e-01
4.673030741567134605e-01,4.900111701977885037e-01,-2.033936010895548430e-02,9.722045176111474701e-03,-3.516376864827042321e-03,-7.119588695371831992e-04,4.997063279151916504e-01
4.439690589991260317e-01,4.893745889626942014e-01,-1.555700163046008777e-02,4.791641439920109151e-03,1.047804557193025496e-03,8.632269733094076469e-03,4.841349124908447266e-01
4.699306125742551687e-01,4.785598919806181017e-01,-2.946967633219599314e-02,-9.486592647382585761e-04,-7.187647333147669741e-04,1.562755028787203831e-03,5.037818551063537598e-01
4.754170803755046748e-01,4.803607565925037681e-01,2.466080422077621126e-02,6.210647747674046502e-03,1.080795674758256060e-03,6.475652102405984011e-03,4.535185396671295166e-01
4.606789037488843164e-01,4.840399550647452864e-01,-3.028253470993935714e-02,1.080569968143650075e-03,-4.746096952833000863e-03,-3.336152217477514510e-04,5.031199455261230469e-01
2.471891245549350247e-01,6.935457241733515854e-01,-2.113512074418127940e-02,-6.512974103140467541e-02,-4.599773486786522952e-02,-2.218013488567390640e-02,6.415210962295532227e-01
4.723671198772233515e-01,4.730688504929433380e-01,8.266474837182902213e-02,5.820718770257340448e-03,4.473862036369109438e-03,2.694583479810815172e-03,3.902888298034667969e-01
4.437892995805030605e-01,4.872200116871684417e-01,-2.684148082871817831e-02,6.417491204067034966e-03,-1.234897481673793464e-02,4.946265469195830662e-03,4.944429397583007812e-01
4.468981476025957744e-01,4.820740318125097401e-01,-2.676795469514692272e-02,1.693177081271609588e-03,-4.187772039179958085e-03,7.095117787173628107e-03,4.924132227897644043e-01
4.275484323340080217e-01,4.818094379884712564e-01,-1.743692476225444654e-02,1.108850653011238252e-02,-1.055570364418747728e-02,8.879157563952752921e-03,4.754379391670227051e-01
5.448395559611832750e-01,5.043794625253027464e-01,1.669314418417711110e-02,2.432562538170369160e-01,4.710211516152693241e-03,4.028660012121656336e-02,6.645774841308593750e-01
3.824380544116566805e-01,4.887886061781431257e-01,-7.297026950327634154e-03,4.197124410098828154e-03,1.493041065646058541e-03,8.766832685486178681e-03,4.527057707309722900e-01
5.847497820353451115e-01,7.052086852678784989e-01,6.290368855080108457e-02,6.272062289934347834e-02,7.450078934840116685e-02,2.223342428776162519e-02,6.161415576934814453e-01
4.696806556273079858e-01,4.739478231728681545e-01,-2.309100549282655512e-02,9.848207723262339657e-04,-8.182112860271352484e-03,8.301595665392463505e-03,4.953335821628570557e-01
4.702749061013709042e-01,4.807025688400423657e-01,-1.531208236852948934e-02,1.906207218926011583e-04,-4.486258690627585415e-03,6.115539227790631541e-03,4.910597503185272217e-01
3.703803130630553553e-01,5.185028651495068308e-01,-1.066362206522297740e-02,3.658857141286640975e-03,1.939998822629823358e-02,-1.192133444757593769e-03,4.740774929523468018e-01
4.888610140756544098e-01,4.557728509987633014e-01,-2.292608781410915286e-02,-1.804161214380821561e-03,5.167739149374946626e-03,1.058534260877826150e-02,4.965005517005920410e-01
3.308177006650044327e-01,5.308591809890511604e-01,1.329946648959134947e-04,-1.190301572810275633e-02,-1.804524828465123819e-03,1.316928532482222747e-02,4.652684628963470459e-01
5.547880794946353777e-01,2.655274741616096557e-01,-3.249205444068714588e-02,2.406539081623841614e-02,3.940480462566253207e-03,3.547750411568605794e-02,5.140550732612609863e-01
4.801041162523409511e-01,4.785284946910104420e-01,-1.109370819399096986e-02,9.581142143259988031e-03,5.830321561694437778e-03,6.483856987326743447e-03,4.909249842166900635e-01
4.888639524090423460e-01,4.583029321592186345e-01,-3.309205066499809611e-02,1.824950435239721530e-03,5.954909835152708691e-03,-6.255070235105503586e-04,5.074821114540100098e-01
4.789315999745099028e-01,4.659437235861425552e-01,3.513573655196872147e-02,8.226604315301788359e-03,-2.644737212502629511e-03,-4.704588248181418124e-03,4.377783834934234619e-01
4.823353926530842273e-01,4.672511827924969996e-01,-3.091935734937201197e-02,1.142152102154973077e-03,2.239741553851574366e-03,6.145058428150596691e-03,5.060120224952697754e-01
5.150238909775721741e-01,3.654395083208660244e-01,-2.008524274890000072e-02,-5.971026745862261648e-03,1.478584564646917912e-02,2.615021122526398067e-02,4.811316132545471191e-01
4.754007679179347856e-01,4.790630437206740977e-01,-1.156074098988335574e-02,-1.975397423251426358e-03,-4.446345735650909098e-03,2.910448728556966867e-03,4.889015555381774902e-01
4.745107955277915179e-01,4.608847070485349584e-01,-3.651608134669509509e-02,-8.096981979156392525e-04,-6.407966199236369773e-03,-3.443503937073489653e-03,5.045112371444702148e-01
5.215855874484203181e-01,3.490395763614765889e-01,-5.668863564072257333e-03,-3.824296879283741986e-04,5.872473766930135300e-03,-2.932567171079370361e-03,4.657503962516784668e-01
4.645439760899103820e-01,4.615973344404254441e-01,-3.690233738569015376e-02,-2.414266214155964048e-04,-4.532026750216681943e-03,-2.901249150922526054e-03,5.000665187835693359e-01
4.778988355647908470e-01,4.757337721716123902e-01,-1.239043109958004596e-02,3.103934056883571324e-02,7.886523136568516362e-03,1.469670519650878755e-02,4.930026829242706299e-01
3.937236225335578044e-01,5.933185360913602047e-01,-8.517962678355683881e-02,2.921636483122727057e-01,-3.697886731124614898e-03,-3.787160048860275553e-03,7.879948616027832031e-01
4.708467113960876915e-01,4.619096166458098174e-01,-3.830683893022401865e-02,-3.820405256558450182e-04,-2.793636218378973708e-03,-1.422698017757443754e-03,5.047739744186401367e-01
4.670574635120268714e-01,4.621985853987392590e-01,-3.873205773370719252e-02,-4.952279893899977662e-04,-1.335297404173384694e-03,-1.280751483184566254e-03,5.033885836601257324e-01
4.822528283706998264e-01,4.797298689901617896e-01,-1.029381746325291891e-02,1.151460857096426628e-02,4.874215853763721497e-03,5.373977780017102392e-03,4.918552339076995850e-01
4.491754418281261874e-01,4.802169030859615440e-01,-3.613597217424774355e-02,-3.479140605301343087e-02,3.096182660079881133e-02,2.648541470105651024e-02,5.100658535957336426e-01
4.711881628911311903e-01,4.590919776172590616e-01,-3.792014027315643299e-02,7.735702172723414572e-05,-3.134460223507412168e-03,-2.588937347283435980e-04,5.031988024711608887e-01
4.555548946553340528e-01,4.854600660721538619e-01,-2.909348439489217730e-02,-1.218177026058845161e-03,-5.819512104741044606e-03,-1.370413316746144951e-03,5.003833770751953125e-01
4.171334567082786160e-01,4.549305090557004827e-01,-1.803582724195113007e-02,-2.670042928557624790e-02,1.763846884242527627e-02,2.529319331236926788e-02,4.606955051422119141e-01
4.788901689858328647e-01,4.794446280062190091e-01,-1.054028598308942577e-02,9.489247620518444920e-03,5.778372955013481860e-03,5.503954910245557018e-03,4.901785850524902344e-01
5.172965218585532376e-01,3.274769984095667330e-01,-1.081494746807948326e-02,8.127533153070192959e-03,-2.425457910429555750e-03,2.922376652475692713e-02,4.663316607475280762e-01
3.803370678078109579e-01,5.389060611352272101e-01,-4.341724399412122404e-02,-2.585660982261523549e-02,6.666827991563836764e-02,5.425821776686601955e-02,5.441302061080932617e-01
4.878828681762783503e-01,4.536071844351979854e-01,-3.196436109081363108e-02,-1.555583244196609037e-03,-1.284742632865919351e-03,7.441808248519808742e-04,5.035987496376037598e-01
5.200740078731935778e-01,4.478577294649482843e-01,-1.899371539865385428e-02,-1.740201822222941369e-02,2.980138464081154921e-04,-2.246689050330571286e-02,5.092177987098693848e-01
4.680523472831209508e-01,4.653569261900950549e-01,-3.503760234511071880e-02,-1.331674204290586756e-03,-8.158365737278015437e-03,-7.184121125205009464e-03,5.021061301231384277e-01
4.789567649288261064e-01,4.744084924432443451e-01,1.750584577597341651e-02,7.079652770074856827e-03,-7.014043845668259565e-03,-1.210849432864621357e-02,4.599963426589965820e-01
4.544946156277319682e-01,4.513570357104811359e-01,-1.303343220496755439e-02,-1.867327560601996905e-03,2.784801238363829486e-03,-4.728191796543674413e-03,4.660753309726715088e-01
5.176085642969070477e-01,3.680580917505178462e-01,-1.232532708420169820e-02,4.567553576627420529e-03,1.134288841817373758e-02,-7.819752551805148142e-04,4.737022519111633301e-01
5.227825578037313958e-01,4.829601464664817767e-01,1.175342648794733824e-01,-2.831667538722339259e-03,1.202684715968157375e-02,-3.006100202813506705e-03,3.875037133693695068e-01
2.866926985244103721e-01,5.837215539935458608e-01,-2.548913037789507507e-02,2.476607970220436050e-02,7.540262413241968775e-02,2.451871514951597594e-02,5.469102859497070312e-01
3.892139179892843970e-01,4.860068061543426632e-01,2.869595090010335081e-03,1.604263161735285798e-02,1.628076516271517293e-03,-3.133018570845432990e-03,4.436616599559783936e-01
4.793871908033610074e-01,4.603764116877687718e-01,-2.841336460298554689e-02,1.810177120414521384e-05,4.142274750787167288e-03,2.264233791137070992e-04,4.986188411712646484e-01
4.531812672127340513e-01,4.405873431694608544e-01,-6.285828558102612984e-03,-4.883948902264607927e-02,-2.614683635429780606e-02,-2.957378434466012562e-02,4.661682248115539551e-01
4.854041201540768569e-01,3.599912995927512238e-01,-1.170121808487906145e-02,3.687620026647857319e-02,1.110231183289814814e-02,7.938062522549495497e-04,4.527139663696289062e-01
6.510784519968272344e-01,3.688957634427794119e-01,4.220022592204841771e-02,-8.017648935334166505e-02,-6.179651260058095091e-02,-8.313398229490778779e-02,5.744735598564147949e-01
4.853141713428003601e-01,4.068947125135106146e-01,-2.294488369640951264e-02,-5.152064012508635223e-03,-1.078989050645793105e-02,-1.896966758755047654e-03,4.744040071964263916e-01
5.349352605034086716e-01,4.358931667793243259e-01,5.394844930203901434e-02,-3.529911596249686589e-02,-2.485444228515217013e-02,-2.581614542249344516e-02,4.484533965587615967e-01
4.577103336527783561e-01,4.877292784986957397e-01,-1.436544606280559799e-02,6.696506515729228276e-04,3.214272428083962165e-03,6.214434543379341973e-05,4.878116846084594727e-01
4.482864049729318179e-01,4.758722295037860484e-01,-1.953374650610922858e-02,4.391551980298746306e-03,1.230020403632611347e-03,-6.982039447538389808e-03,4.824215173721313477e-01
5.469876254347496580e-01,2.750611158011888602e-01,7.323198652388007712e-03,-7.239511167676920649e-03,6.796523501638685079e-03,-1.288789751619845393e-03,4.676894843578338623e-01
5.373808591985176353e-01,2.482073359973405169e-01,-2.686322967778198567e-02,-2.315762744711308552e-01,2.244284661183226434e-02,-3.331438403740482473e-02,6.360436677932739258e-01
6.227615137928274036e-01,5.381886143929310862e-01,9.607511893495396249e-02,-3.748651411094307273e-02,-7.481160508078703308e-02,-1.470276891284236775e-01,5.708460211753845215e-01
4.920808071335371348e-01,4.336438379272273824e-01,-2.554159240880027326e-02,1.404459416726491251e-03,6.256423647097756995e-03,-7.258220546435090008e-03,4.913053512573242188e-01
7.431999453265734079e-01,4.592182620747858879e-01,3.788050223479949574e-02,1.316098706599224955e-01,1.737912837139187275e-02,-8.700526778150761975e-02,6.733517646789550781e-01
5.078774056873475162e-01,3.299863518274674390e-01,8.534864777915873724e-03,1.568728049718136341e-01,1.958433767211420484e-02,-1.937327628359757081e-02,5.179415941238403320e-01
4.758403878176924451e-01,4.594892267770267491e-01,-2.458025728615714778e-02,2.911241091879688929e-03,3.207633967504762602e-03,-2.566883105954662417e-03,4.925259351730346680e-01
4.823238062003936122e-01,4.801872666052314775e-01,-1.671808917621003809e-02,2.983667677348257087e-03,4.725285797226901757e-03,-9.265242718714180052e-05,4.980711638927459717e-01
4.667597489401490440e-01,4.782730744986595228e-01,-1.506211411117786003e-02,1.020423287142725732e-03,-7.537086523188870181e-04,-2.766221465469433528e-03,4.877089560031890869e-01
4.775647638873713463e-01,4.681744694292284681e-01,-2.580606464499446417e-02,-3.788535527024903963e-04,1.506866837568691421e-03,3.136963250388603830e-04,4.987495541572570801e-01
4.553684530874178016e-01,4.446893286109082633e-01,-1.283287909186076048e-02,8.834897740217253354e-03,5.065534783420135197e-03,-4.579846996484363171e-03,4.633579850196838379e-01
6.769064433047096152e-01,3.430315436130145779e-01,-6.525256992049821569e-02,2.272063762359945727e-01,8.450555552835215326e-03,-1.151187069048691287e-02,7.549597620964050293e-01
4.629178796709153554e-01,4.876478071463030695e-01,-3.130836844164569532e-02,8.786175300165515291e-04,-2.039108830380508691e-03,2.768136294527585081e-03,5.070809721946716309e-01
4.826497502115374427e-01,4.671971833197049451e-01,-2.533136446669304043e-02,8.206298893646195129e-04,5.898079325156530472e-04,9.409242278410695709e-04,5.004395246505737305e-01
3.641967030141184392e-01,5.081099238965400833e-01,-7.930733975984205486e-03,-8.362211642982517526e-03,-1.420824410668572717e-03,-7.800229976883102725e-03,4.616733491420745850e-01
4.590158140365862005e-01,3.965421987778476876e-01,-1.481384305902588849e-02,6.560126779575356504e-02,2.137162567506300029e-02,-2.181287123560793351e-02,4.631672203540802002e-01
4.400796844088414872e-01,4.647764539707440745e-01,-1.884321641009967241e-02,5.046078092390641860e-03,-9.536793437960922092e-04,-8.042367241169010028e-03,4.720457792282104492e-01
7.359627528542656005e-01,2.397972353101022747e-01,-2.322213915272614004e-02,-4.512675887511850836e-02,-7.269192860649821217e-03,-6.641470913745557703e-02,6.821737885475158691e-01
4.698045082810430872e-01,3.710124475711719105e-01,-1.911879781481884422e-03,-1.670634284093924088e-02,1.129456045159606646e-02,1.012745436909514652e-03,4.323163926601409912e-01
4.450030839936251481e-01,4.542901581362822627e-01,-5.605857793865021144e-03,8.716638703869608942e-03,-4.579533981321321293e-03,7.265711419431718741e-03,4.558165669441223145e-01
5.315727945156951684e-01,3.177426672590974444e-01,-4.883028853516491186e-03,-4.375828782488403942e-03,1.672849247107593843e-03,-2.428198491348527305e-02,4.697152674198150635e-01
4.814836767543184126e-01,4.641608471348059872e-01,-2.517452753603888205e-02,-3.487309637092588280e-04,-6.544856445760996412e-04,1.109340165257940037e-03,4.982280731201171875e-01
7.506631093348913319e-01,2.231984116661414053e-01,-2.946469750273905674e-02,-5.753307538312247421e-02,-2.055970214661043127e-02,-3.410229709892045186e-02,7.000111937522888184e-01
4.598634219437037762e-01,4.804447461337096326e-01,-3.531638167767442438e-02,1.489115578191869656e-03,2.798123328422874741e-04,-1.664070002518099360e-03,5.057996511459350586e-01
4.270884646014786457e-01,3.600872612170568643e-01,-3.710156773130024455e-03,-1.267219453577775601e-01,-3.245846921382790351e-02,-1.289782347032267414e-02,4.615708589553833008e-01
5.432491580663055819e-01,3.041519149474035122e-01,-5.498553065082067981e-03,-7.109974583879785648e-02,7.980922442465407732e-03,1.752449575114779778e-02,4.933207929134368896e-01
7.826410332602308229e-01,1.435508706469683093e-01,-1.082919900090162924e-01,3.862889131597649350e-02,2.103018031958729314e-02,-7.154213949565142207e-03,7.992298007011413574e-01
4.759749751646856764e-01,5.025801521107875480e-01,-2.730090660032713501e-02,-3.972547202286318829e-02,2.863455634490909632e-02,3.301983259248966740e-02,5.271140933036804199e-01
4.758094306388380712e-01,4.780511528890987183e-01,2.373699560897563066e-02,9.283975599481894547e-03,-6.307453273425910577e-03,6.660283221351234566e-03,4.537608921527862549e-01
4.685314398882983178e-01,4.838552121785602012e-01,-2.809781843969810788e-02,8.138097065560873740e-04,3.263236081156917646e-03,2.373771793607113399e-03,5.045161247253417969e-01
4.755256129638064100e-01,4.812495376089186427e-01,-3.976786164029577630e-03,5.011889116907394630e-03,-4.963079749203975349e-03,-5.095084403811026008e-03,4.826251864433288574e-01
3.870993698982721498e-01,4.397449256838419362e-01,1.747451662296450881e-03,-1.629750307862923991e-02,4.870468922687423187e-03,9.701031097369668468e-03,4.155779480934143066e-01
5.543052038227185285e-01,2.759794198408886401e-01,-9.526257104527813269e-03,-2.610568522890007251e-02,-2.514359806645104743e-03,-1.504276013033991992e-02,4.911055564880371094e-01
5.236735338254445704e-01,2.220262359982071443e-01,-8.409391376051905675e-02,-1.483297677340008891e-01,2.840902000477895512e-02,3.383665459404629899e-02,5.906793475151062012e-01
2.874304758056028808e-01,7.020452395328775630e-01,-4.322186989056170381e-02,-1.035823531667311309e-01,6.644428857255992027e-02,5.832630041743734617e-02,6.884533762931823730e-01
5.509209335586436884e-01,1.944337507075881710e-01,-1.230856958438380500e-01,-1.558240558650694219e-01,1.247065384754234181e-02,-2.276623610005382853e-02,6.449481844902038574e-01
4.764247944743837948e-01,4.762912512337347248e-01,-6.453176738318189276e-03,5.555026379996897030e-03,-7.605586867008769583e-03,-7.785957577597841552e-03,4.832749068737030029e-01
4.230897738619620041e-01,4.280911580296735686e-01,-1.954431857227878488e-04,-1.454189620864814250e-02,-9.802248398967382953e-03,-8.179451987045295233e-03,4.271250069141387939e-01
4.824919297514902450e-01,4.812173756957685011e-01,-1.828606871421478708e-02,7.847194175577857853e-03,3.063500427893211132e-03,9.343503057828732652e-03,5.006163716316223145e-01
5.399147075522707784e-01,3.031855904342583563e-01,3.268414901723082355e-03,-2.323355691705252142e-03,9.669032357421678339e-03,9.519891630197556409e-03,4.664318561553955078e-01
4.780921583145222864e-01,4.802763352066369840e-01,7.903494239607622429e-03,2.753802341208895846e-03,-6.928986522596432968e-03,-1.961944778923231658e-03,4.714736938476562500e-01
5.533281570477905920e-01,2.408580465392473891e-01,-1.018670257586336003e-01,-2.109403239672193453e-01,1.013405180213360242e-02,1.056331437056656428e-02,6.755144000053405762e-01
6.437778591774372394e-01,7.118574198618876636e-02,-3.686600321424921001e-02,3.649554560391655121e-03,1.540008963963990750e-02,-2.202148661734356153e-02,6.353052854537963867e-01
3.507183051103037741e-01,5.128951607522479472e-01,-3.209776188225987870e-03,-1.985692561241063359e-02,-2.055999295302135099e-04,1.318593766984646996e-02,4.589880108833312988e-01
4.126776591973652097e-01,4.797843721269050565e-01,-5.645331114521823235e-02,-1.998106510557993709e-01,4.716758223768852121e-02,5.104431862632288069e-02,6.247662305831909180e-01
4.746314979266061385e-01,4.793745798396214508e-01,-2.468364371891201836e-02,9.851819336889189717e-05,-1.606772126311442010e-03,-8.698126673645463014e-04,5.017135143280029297e-01
4.184275628127346880e-01,4.267596541507019392e-01,6.153304418068494819e-03,-4.225735263776100349e-03,-3.168840585184659218e-04,1.149744516138760436e-04,4.165675342082977295e-01
4.462402267783645016e-01,4.678166114936087583e-01,-1.828529285324609344e-02,-1.734080481225884918e-04,-7.762344187070388437e-05,-8.926476981052153606e-03,4.759321808815002441e-01
4.808008357126160037e-01,4.830676634094763777e-01,9.347533419853060188e-02,1.153098201326741186e-02,-1.822045705760670826e-03,-3.694602580082511495e-03,3.890424072742462158e-01
4.403553659948729049e-01,4.614437877705517277e-01,-1.753768946614214785e-02,-1.965653372491605200e-03,2.150335522508379192e-03,7.571654198264926756e-03,4.690037071704864502e-01
2.982738046987645220e-01,5.331472759400813777e-01,-2.676554424366428542e-03,-6.254710907663595457e-03,4.585517149823914560e-04,8.760133355164186064e-03,4.655857980251312256e-01
4.774903445759857146e-01,4.732831669581047951e-01,-2.903410498655167871e-02,-7.460538842157925926e-04,-4.058897622318844572e-03,3.067367549032513994e-03,5.045126080513000488e-01
4.656764916595401704e-01,4.546848757037510458e-01,-1.924727896630756829e-02,1.238982290155504241e-03,4.684176101378850592e-03,-5.819323648611781198e-04,4.795969426631927490e-01
4.669253732085323350e-01,4.666378375599462558e-01,-4.081505407607094460e-02,9.732003041391226522e-04,2.121820253626815686e-03,2.364139533892954767e-05,5.076128244400024414e-01
4.742163085863674299e-01,4.778952896283644725e-01,-2.508406676090363385e-02,-1.590921517277755267e-03,-1.966233953231324993e-03,-2.050249924513687042e-03,5.011817216873168945e-01
4.688219236118809086e-01,4.799765072615177486e-01,8.686669532265139937e-02,2.126404221139357401e-03,-7.100592845601601949e-03,8.128808409162817730e-03,3.881208896636962891e-01
4.694387412203787635e-01,4.819397608178582759e-01,-2.466174472281140728e-02,1.432176985692397778e-03,-4.706737316001054217e-03,7.760142921723519596e-04,5.005424618721008301e-01
4.690475778786422634e-01,4.718910407554595676e-01,6.003036243589315868e-02,2.448805120168041395e-03,-6.879918908139611745e-03,-9.250915989246620563e-03,4.109536707401275635e-01
4.650973846492895136e-01,4.678988082119924230e-01,-2.252763768628246455e-02,7.653492158960569121e-03,-6.062024770535458414e-03,3.693686960491301789e-03,4.893658757209777832e-01
4.355429958656930056e-01,6.216433315392982939e-01,7.644674142580049070e-02,-1.153196777239745702e-01,-1.085627035835865506e-01,-8.893636161301339549e-02,5.739284753799438477e-01
4.658058088234340866e-01,4.652874945639225435e-01,-3.971535315927610110e-02,-1.843910479292797707e-04,-1.921326894412058199e-03,-1.944658757036659422e-03,5.052844882011413574e-01
2.361226991693040622e-01,6.073357484043615528e-01,-1.887145255152078427e-02,-3.056817495544060168e-02,-4.006799963369049589e-02,-8.089473343035755637e-04,5.523584485054016113e-01
4.761746898731495925e-01,5.368384394826308803e-01,-2.533606663887577604e-04,6.041657430940276796e-02,2.233686061781182605e-02,-2.141612843853487463e-02,5.228660702705383301e-01
4.763737336008817547e-01,4.709056324494670376e-01,-1.906635819781848928e-02,3.549925175214915275e-03,-5.198923555475935473e-03,8.572950745535665509e-04,4.928516745567321777e-01
4.823065501772737518e-01,4.822863745138874503e-01,5.222863828067164649e-02,9.431372857182247424e-03,-1.772433973805250668e-02,-1.908003546951972124e-03,4.314841330051422119e-01
4.218514922272542655e-01,3.914061616401298682e-01,-3.915842199475849661e-02,2.280327745475206336e-01,6.763206139353581531e-03,2.469942299945919809e-02,5.978174805641174316e-01
2.923019689391317955e-01,6.497489296902638767e-01,-6.643062027788515511e-02,2.113803286026823269e-01,3.235080223478902645e-02,3.900838185192577467e-02,7.255583405494689941e-01
4.731708913399002570e-01,4.778071558654991557e-01,-2.848343966247518511e-02,-2.068165174493975973e-03,5.141471966900215381e-04,-9.414770084576294792e-04,5.040045976638793945e-01
4.542744426617545961e-01,4.452997614868412501e-01,-1.196028262493009642e-02,1.034296422117098567e-02,4.469463726191445427e-03,-6.395174270560092557e-03,4.623576700687408447e-01
3.146921431231884947e-01,5.505543307836816558e-01,5.051165806991997353e-02,-5.732040461149533889e-02,-9.536972369204491096e-02,-5.370610065805159206e-02,4.832479357719421387e-01
3.381619692425190671e-01,5.177550056865165562e-01,-1.088900202676529316e-02,2.961655960410687714e-03,-2.250046617689814565e-02,4.328761575171809033e-03,4.673100709915161133e-01
3.996841411438842306e-01,5.631418683429998406e-01,-1.756202342781482129e-02,7.353077584370351638e-02,-3.560508804362256391e-02,2.797555551032240503e-02,5.398020744323730469e-01
4.785005425486701380e-01,4.633347936234624709e-01,7.426088385668050407e-03,-1.603777735856281314e-03,-3.657884234679864544e-04,2.325882385674086887e-03,4.637038707733154297e-01
2.285638458610363133e-01,7.607426990203345341e-01,-2.223025944352785555e-02,1.262250666434235336e-01,-2.404470951398572989e-02,5.666389535239261740e-03,7.274671196937561035e-01
4.509302558307045627e-01,4.900873347151079029e-01,-2.951327554878174775e-02,3.544164688246313061e-03,1.946524493049823666e-03,1.984291513620919239e-03,5.012313723564147949e-01
5.905301276667422883e-01,3.560018871036272348e-01,-7.677235536238447011e-02,2.575215591031468354e-01,5.285467591700248983e-03,1.260470537697687583e-02,7.370938658714294434e-01
6.043537240852512316e-01,4.682947388006609701e-01,-2.365196363271987456e-02,2.339108591787974478e-01,4.277196690953138231e-02,-3.360109104529265117e-02,7.074430584907531738e-01
4.809160953886693068e-01,4.609159508878629685e-01,-2.567284495640659303e-02,-2.074741211867000678e-03,-6.230328408467899516e-03,-1.262159111326812723e-02,4.975015521049499512e-01
4.729763232522906646e-01,4.752891441272183437e-01,5.136339376666965162e-03,3.145531536226872822e-03,2.939031120711753896e-03,3.330855929425016737e-03,4.690954089164733887e-01
4.866169985107812179e-01,4.521924036841054595e-01,-3.007416597764839272e-02,1.116030654445247404e-03,1.438775107213593465e-03,1.450495173846376960e-03,5.003840327262878418e-01
4.776338915376097116e-01,4.698322154138169782e-01,4.287169046686689633e-03,-8.074968756450641026e-05,5.058388121840998695e-03,5.119691461329962077e-03,4.696599841117858887e-01
2.578684145672660577e-01,6.966816176790333603e-01,-9.502397562872111347e-02,2.387370741365173743e-01,4.145415411713435083e-02,1.458111630566762996e-02,8.054335713386535645e-01
4.755610632635665080e-01,4.231393005470626134e-01,-1.896681702291996841e-02,6.776347485462345076e-03,1.192922129470113876e-02,-1.062534747132754323e-02,4.714713394641876221e-01
4.558732076104474729e-01,4.671770363702914541e-01,-2.420598957720521138e-02,3.103830642824297829e-03,-2.249875677255186966e-03,3.634655925942348060e-03,4.859158992767333984e-01
5.313312913974219676e-01,3.111539085812395355e-01,-1.252715505497908888e-02,5.578196155675652079e-02,5.485666448576695907e-03,-1.073085412419988796e-02,4.840303361415863037e-01
4.560237714098259731e-01,4.609724729612910687e-01,-1.039801498143927416e-02,1.112278593612479605e-01,-7.851293405268312472e-03,2.450332421617591738e-02,5.089037418365478516e-01
6.139036794011261122e-01,1.254761122612725044e-01,-1.645993407784035467e-02,4.817523129645984864e-02,1.615732305423242532e-02,-5.363090955194252732e-03,5.795384645462036133e-01
4.685541333798244334e-01,4.777027452055475076e-01,-1.836726683309464203e-02,-1.830346717410166486e-04,2.438763452661200232e-03,-4.979263041372779600e-04,4.915785789489746094e-01
4.081384803863153943e-01,5.182468951828030912e-01,-1.937235923634489376e-02,3.065515972897681421e-02,-2.035478070677660886e-02,1.342182517079777183e-02,4.965526461601257324e-01
4.697321767615129651e-01,4.726652365181415183e-01,7.272088143988364450e-02,9.712478401658476528e-04,-5.843379071410456432e-04,4.446353522770622908e-03,3.985651731491088867e-01
4.787984128688534957e-01,4.691729389863783517e-01,-8.923685183801544074e-03,1.861864048885211601e-03,-3.525156675230622927e-03,-2.027164480359635560e-04,4.830307960510253906e-01
4.777854646062400512e-01,4.831908424461350826e-01,-1.495004914770553528e-02,1.395797733847374414e-03,-4.384816443524472179e-04,3.894824366698158673e-03,4.955127239227294922e-01
4.823747810515550682e-01,4.541295036116396178e-01,-2.012262946982201761e-02,1.525994752979044052e-03,3.258371804074803191e-03,-4.396474016530983221e-03,4.890859723091125488e-01
5.025453392930271379e-01,4.324903007448804848e-01,-3.396718006621141095e-02,-2.853290705186674759e-03,-3.460945105176924455e-03,-1.241555776752294171e-02,5.056587457656860352e-01
6.669229228674946608e-01,5.259755157216240429e-01,4.002132384176576574e-02,1.762434184375808732e-01,-2.720061964432012383e-02,5.518284223914625419e-02,6.550205349922180176e-01
4.740424410396196220e-01,4.490321537717010258e-01,-3.029714090861135301e-02,-4.579551985332002036e-03,-1.089873547479104816e-02,-8.443110824004763926e-03,4.929537177085876465e-01
3.857094552197729564e-01,5.259021025952678174e-01,-2.182143048527146467e-02,-2.836012165136713933e-02,-4.933332836367789603e-02,4.733788298847482409e-03,5.026426911354064941e-01
4.733962064183172558e-01,4.915334517910858736e-01,-1.363410226554173654e-03,6.364451926789358067e-03,-1.919106341930178466e-03,1.161152350055830694e-02,4.846375286579132080e-01
5.179828259549359437e-01,3.408557221616499988e-01,-2.317329935846379474e-03,-6.714695208384235774e-03,1.073168453577877206e-02,7.540001612282908941e-07,4.587022662162780762e-01
4.881863999443502022e-01,3.910252451583413613e-01,-9.411028279629640725e-03,-9.861948849200222189e-02,-4.815167591158957955e-02,-4.029870183312385390e-02,4.997013807296752930e-01
4.858309825411343819e-01,4.724861168514348231e-01,-2.727141339057542746e-02,1.808511044584823089e-03,-6.929695453294879535e-03,-1.227979118869577512e-03,5.067181587219238281e-01
4.992448962456049188e-01,5.388531318996760966e-01,-1.433933828363320728e-03,-1.187608334985440356e-01,5.200905112109880518e-02,7.773780585139752897e-02,5.836401581764221191e-01
4.927539872444447466e-01,4.336243100004033568e-01,-3.206755885192008604e-02,-4.311162733986313896e-03,-8.722319939905118225e-03,-1.115322653243243714e-02,4.985565543174743652e-01
4.755721550208545367e-01,4.638832566684933933e-01,-2.955749688113284979e-02,2.363983663098773917e-04,-1.179096805804176994e-03,-3.216274728471573189e-04,4.993924796581268311e-01
3.976127267610933824e-01,5.087601219717351464e-01,-1.160928491190027501e-02,6.267941724979591298e-05,4.114435492019669072e-02,8.386598540607638833e-03,4.801978170871734619e-01
6.716736209940431523e-01,6.103993561968236170e-01,5.129464457106391873e-02,8.808594473984213136e-02,-1.109908556550974999e-02,5.052008805572568567e-02,6.179928183555603027e-01
5.016066252585769103e-01,4.404339278953630088e-01,-1.649100799807706741e-02,-7.207164163126216806e-03,1.665175120812512196e-03,-2.307837154971667960e-03,4.905649423599243164e-01
4.775520176527641159e-01,4.708986905428793612e-01,3.089004938418721258e-02,-1.014080339394475300e-03,2.816926518803611161e-03,-6.897853278540573216e-03,4.435639977455139160e-01
4.634881991484874897e-01,3.780523718117873022e-01,7.067706263704010006e-03,-1.184709885942287350e-02,-7.574525905334388541e-03,-1.245190759287471841e-03,4.209775626659393311e-01
4.790433200646910805e-01,4.773705642059198340e-01,6.276358194443670824e-02,9.804551746527710634e-04,6.723412004964071480e-03,4.655769434337385208e-03,4.156907498836517334e-01
4.605390190370219905e-01,4.582103404050508200e-01,-3.711790126178748928e-02,-8.731817863188936785e-04,-3.672036499154804779e-03,-2.969827568273675049e-03,4.965663552284240723e-01
4.714392655853322234e-01,4.542456919711633789e-01,-3.726219367071653688e-02,-2.212598921704442018e-03,-5.076344297584169107e-03,-2.274052139675692818e-03,5.004337430000305176e-01
4.639358868342236542e-01,5.130027634602186692e-01,1.124189672697145648e-02,3.584706931459048351e-03,-4.637353301391196163e-03,-1.001548693528679125e-02,4.795369505882263184e-01
4.858498787366757887e-01,4.856065535971259561e-01,2.877980804129381953e-02,1.431389374260152482e-02,2.505109100952936270e-03,1.720088863762566072e-03,4.576508104801177979e-01
4.998212375285503439e-01,4.354823742407390452e-01,1.870553624263820991e-02,-2.252973199608303972e-02,-2.082552322776802523e-02,-1.370849995017810879e-02,4.561195075511932373e-01
4.800671676035970226e-01,4.776561847194559784e-01,7.486755125924643428e-02,6.496818134222265805e-03,-1.234265075032212923e-02,8.378680384694994071e-03,4.049813151359558105e-01
4.739913702404653373e-01,4.544694358007836943e-01,-3.545774074495633421e-02,-1.022090969754201658e-03,-4.644299173494826315e-03,-3.739722225875589078e-03,5.000838637351989746e-01
3.910534259983141636e-01,5.013459651472298440e-01,-4.204751822102503755e-03,-1.949103501996048426e-01,6.695195965616390632e-02,8.811033551415092813e-02,6.022421717643737793e-01
5.327835068098814020e-01,4.660068997118794187e-01,6.500831064723222585e-02,2.325009935220382837e-02,3.368855439298135829e-02,-6.251312441219121496e-02,4.569315612316131592e-01
4.809918605827863125e-01,6.880349603664417391e-01,5.529004556215799671e-02,9.088255412047276105e-02,5.885127970153783417e-02,-1.448049028913577473e-02,5.899372100830078125e-01
4.970088721932748310e-01,4.592266786215750130e-01,-3.123852768375950939e-02,-1.457820955038117462e-02,7.271673753235900935e-03,7.008743681323017539e-03,5.113296508789062500e-01
5.221906393301432026e-01,5.636362626978779211e-01,-1.676395501686889222e-02,1.912447560722984330e-01,5.888107931967319353e-02,-2.358924262733982230e-02,6.605460643768310547e-01
4.770766806091425449e-01,4.802893048601259984e-01,-2.811322157340412353e-02,2.564996863118280349e-03,1.568434738022385019e-03,-1.624618912341167277e-04,5.068306922912597656e-01
4.834367228003589867e-01,4.725913027659326415e-01,2.170835912862389971e-02,5.676306392892200431e-03,7.376972963645714310e-03,3.487761615614985451e-03,4.567269086837768555e-01
3.856819713921684767e-01,5.175993779576680831e-01,-1.472117085512752999e-02,1.330743064610710215e-02,2.444442658396143303e-02,-4.069260506606719140e-03,4.826163649559020996e-01
4.418205400143186967e-01,4.431657795053747795e-01,-3.524893178077748157e-03,1.384493717735329511e-02,-3.804169381527745634e-03,6.682814971089193028e-03,4.468622803688049316e-01
1.040499463596755714e-01,6.067412501455977658e-01,-3.507003905364736163e-02,5.535576773685973312e-02,4.503144892465735238e-02,2.162411028715761213e-02,5.988876223564147949e-01
5.374966413170314539e-01,6.098689468590356988e-01,-1.338109666652093077e-02,1.776788132252679064e-01,6.285712137705468106e-02,-1.629394785977905658e-02,6.752267479896545410e-01
4.755771342153812253e-01,4.633561684491260824e-01,-3.521806428090784591e-02,1.755325365311636047e-03,-3.788820473246526637e-03,-3.175994250392686746e-03,5.048774480819702148e-01
3.027444223888342556e-01,5.422793490315247489e-01,-1.774026266971251431e-02,1.291637952203055807e-02,1.650628153608761986e-02,4.463490381965481459e-03,4.880904853343963623e-01
4.966760977184927484e-01,4.541515792035948906e-01,2.444274847604238632e-02,1.326491982061954733e-01,7.185917921971007568e-04,8.924008632304152380e-03,5.076997876167297363e-01
4.798975264433668064e-01,4.784534617235522980e-01,7.996918933134478102e-03,3.671249632527549562e-03,-7.370460973322806586e-03,-2.411929618494733883e-03,4.714145362377166748e-01
4.664711274256448381e-01,6.747643937490264143e-01,1.780434228121308138e-02,1.213115031629984492e-01,1.252220802278836420e-01,9.989199474842809859e-03,6.554637551307678223e-01
4.786076427022503132e-01,4.531896986226043866e-01,-3.541858275948112089e-02,-2.248239249201682260e-03,-4.607297192899440993e-03,-4.200809338720279049e-03,5.019316077232360840e-01
4.675170936793568988e-01,4.344454990058450039e-01,-1.553397673312062466e-02,8.251982536435343782e-03,-8.937731714832100605e-03,1.076731652447206200e-02,4.682398438453674316e-01
4.740096310855841932e-01,4.781582147548491535e-01,-4.057593152597849251e-03,-2.575879240430310746e-03,-7.539752762137458438e-03,7.890489756536972488e-04,4.803551733493804932e-01
4.528818462449523130e-01,4.671674820185214849e-01,-1.823051578538281703e-02,2.997876326336436619e-03,-9.291507779028877279e-04,3.789233609115924588e-05,4.784460663795471191e-01
6.799653555136255800e-01,2.897975336812568803e-01,-1.034202050143257501e-01,2.298481801066636354e-01,2.554830684057381521e-02,4.342352748659607242e-02,7.914401888847351074e-01
6.772491664970250458e-01,3.028504528947763008e-01,-3.355271624294248189e-02,2.170878684888896404e-01,4.893292811765483433e-03,-8.022563307495556711e-03,7.217594981193542480e-01
3.132521064128558352e-01,4.944883506103659454e-01,2.593560362396263308e-02,1.865755707897355786e-01,-3.366992340086376323e-02,3.613281753911840727e-02,5.284113883972167969e-01
3.744138467287448924e-01,5.154637029993277553e-01,-1.598467228560840336e-02,1.102033254294674212e-02,2.581070541318845630e-03,3.624675321768406136e-03,4.772792458534240723e-01
5.751998747808074741e-01,3.200544751789384246e-01,2.495413758281517236e-02,1.384828507593832414e-01,5.073201482141949381e-02,-2.254048367105628004e-02,5.424525737762451172e-01
4.486447472800113023e-01,4.297068853017321777e-01,-1.236914145239204066e-02,-3.950440512967237638e-03,-9.355094369140138158e-03,-4.395037860170130511e-03,4.522489905357360840e-01
4.072201968906334901e-01,4.612729420434077965e-01,-8.716770262543749315e-03,-7.445530387222062257e-03,-1.785092301149190496e-03,-1.426064902451484179e-02,4.463112950325012207e-01
4.776608936232631941e-01,4.299897857760620612e-01,-1.509639463451811769e-02,5.738588589220402700e-03,-1.073767799076510293e-02,1.022088656535133366e-02,4.715401232242584229e-01
5.112500557074797225e-01,4.891283371817121139e-01,5.471552290309206201e-02,-7.620110154765660782e-02,-9.097814243853025173e-02,-5.922467872405649814e-02,5.015848875045776367e-01
4.555243330895754061e-01,4.848254964626089181e-01,4.488099193310213231e-02,4.136642974034251963e-03,1.598853433429819068e-03,1.051762104181603111e-02,4.265087246894836426e-01
3.008825731111249846e-01,5.777271794541805061e-01,1.652229753284667479e-02,-7.501856815312141907e-03,-5.652256831909498180e-02,1.004409302332856871e-02,4.962692856788635254e-01
4.534872979222311362e-01,4.565546189068065974e-01,-1.917936165571521023e-02,1.302223587264705320e-03,-8.820747437079177848e-04,5.449589536287060242e-03,4.743095040321350098e-01
4.642651682900474919e-01,4.726723231480266518e-01,-2.736413621617750369e-02,-2.413840646149637210e-04,-3.382060582126988424e-04,3.173372213286940451e-03,4.959173202514648438e-01
3.926422248438941054e-01,5.788850342013892591e-01,3.752926451926191787e-02,3.836418515731332413e-02,-8.508329852079900280e-02,-3.601386553001814650e-02,5.069050788879394531e-01
7.788807342158229341e-01,1.475768554114535447e-01,-9.756659090601982331e-02,2.453149573141333827e-03,3.604408846035096065e-02,1.034325514032941040e-02,7.858985066413879395e-01
7.737218107080495733e-01,1.837838454759710416e-01,-1.084970517406265156e-01,1.171335991221087447e-01,3.372701875095596158e-02,5.289028459222296086e-02,8.116945624351501465e-01
4.502250437926524351e-01,5.443065768616094369e-01,7.875759479109722960e-02,1.818582332065459342e-02,-6.126061156905888289e-02,-3.267874707501207399e-02,4.441194534301757812e-01
5.451471929724727161e-01,2.900971722740289249e-01,2.877904779835516180e-04,3.547111762421696342e-04,5.439495393005414590e-03,-5.518587229392541565e-04,4.722774028778076172e-01
5.445824864776787066e-01,2.587149180449884733e-01,-1.901025426401853347e-02,-4.717373196456976780e-02,-2.247096734069158747e-02,-4.368345698893349310e-02,5.021551847457885742e-01
6.872759212030896681e-01,1.848913884220536319e-01,-1.092449793132747593e-01,-1.451614148396841719e-01,-2.249040521594266370e-03,-4.236921252458001816e-03,7.415932416915893555e-01
4.741978281572443721e-01,4.733182484365525688e-01,-2.924004756552983642e-02,1.027090600745949114e-03,-4.086520012796018321e-03,2.989246719922229560e-03,5.030782222747802734e-01
4.529069229186485357e-01,5.205872921741945270e-01,-1.071964650304102484e-02,1.411717005868814295e-02,-2.892146585323238442e-02,2.095200508294400507e-02,5.053046941757202148e-01
4.977179122835907465e-01,4.636479909742603489e-01,-3.514797101331246232e-02,2.860668949826107761e-03,6.355181412986928621e-04,8.442739613686443129e-03,5.169059038162231445e-01
5.451944031319381212e-01,3.203607115826700436e-01,-2.470303612592100739e-02,7.172362781739057003e-02,3.417597970021574432e-03,3.958583396991309511e-02,5.170784592628479004e-01
5.332705886132298456e-01,3.056097790016680804e-01,4.469392141437933397e-03,-4.476661991243440462e-03,5.400436134120770691e-03,2.078014644735202445e-04,4.595873951911926270e-01
3.497768277453401353e-01,5.474444298264509179e-01,-1.955994437542479814e-02,2.080820840153028983e-02,-1.048527807286322826e-02,5.350488657752635810e-03,5.002026557922363281e-01
2.944118652124529389e-01,5.295482692374824385e-01,-1.648879754431153977e-02,-3.783787036220550432e-02,-1.692941703498086065e-02,-1.383235493442906347e-03,4.798052608966827393e-01
4.800012959894378595e-01,4.779732157746818810e-01,9.703859717342777635e-03,2.934918777766882050e-03,5.362708764738063341e-04,-6.548517920007037793e-03,4.694521725177764893e-01
3.743493564601614865e-01,5.176397025585137701e-01,-1.586941982892564607e-02,-2.481498400941947562e-03,2.569690903922477142e-03,6.614432123499412036e-03,4.784213006496429443e-01
7.299676096112411861e-01,2.363700353020880551e-01,-1.010706445858172153e-01,1.533201298515861066e-01,3.761476714754324185e-02,1.380123111421552827e-02,7.742105126380920410e-01
5.201695841232099049e-01,2.148073538522189130e-01,-1.228519436434571399e-01,-1.914675114092053432e-01,-3.958424863837203822e-02,9.097603446838522243e-04,6.519593000411987305e-01
5.352910083404680552e-01,2.710091829814405551e-01,-2.706319058128675570e-02,1.411062138323266324e-01,5.107482087806401033e-03,8.010413876621160292e-03,5.454088449478149414e-01
3.930951078910006058e-01,5.043531028041017272e-01,-2.008692048228361005e-02,-1.211797388884280208e-02,1.211753134601710295e-03,8.446847258188944566e-03,4.792979359626770020e-01
4.760156497732901393e-01,4.820233518285941265e-01,-7.318770110209316115e-03,-3.959488123958953176e-04,-1.987759038100231704e-03,2.574639340480951253e-03,4.863992035388946533e-01
2.976758966773214166e-01,5.434980188307725335e-01,-1.945095733631885260e-03,-1.307776068662338219e-02,1.222975620026682184e-02,8.096592652596459189e-03,4.743555188179016113e-01
3.977487778331335599e-01,5.069694426868798232e-01,-1.225023287856191745e-02,2.002282196829921479e-02,1.882771291065040223e-02,-4.131359090607071571e-03,4.765774905681610107e-01
4.651957699858750850e-01,4.726638917828695496e-01,-2.449362250801373486e-02,6.484760470320819403e-04,-4.656252862052371808e-03,5.019496394745365762e-03,4.936095774173736572e-01
3.497252204277842003e-01,5.740885867593185088e-01,3.438788543463799918e-03,-2.517375489024987339e-02,3.841013169683940576e-02,4.548830509116465366e-03,5.043178200721740723e-01
5.054633812895654721e-01,4.203151764370318677e-01,-1.906143265706672363e-02,2.378492287232856009e-02,5.863635100906947582e-03,-1.157936744872930385e-02,4.898129403591156006e-01
4.681760162946828063e-01,4.805933347621504925e-01,-2.929637422726594220e-02,-6.898758243935008971e-04,-1.326663255701610337e-03,1.232196083576511452e-03,5.038070082664489746e-01
4.504062227786142514e-01,4.666336903068982744e-01,-3.279724051070731505e-02,-2.668091686250601089e-03,2.891747763475183749e-03,1.418004061546308293e-02,4.921785891056060791e-01
4.318183715878525231e-01,4.421920350893493445e-01,2.280732151625830539e-03,9.642706098866877379e-03,5.277606220641148073e-05,1.652211631359169590e-03,4.351473450660705566e-01
4.604503346589063906e-01,4.826584029720996094e-01,-2.659106104218855737e-02,1.760022161455782692e-04,-2.565984276091644225e-03,2.324139339882109676e-03,4.985527098178863525e-01
4.006230136520995688e-01,5.043672674453570925e-01,-2.139425256793736629e-02,3.149782385886342687e-03,-1.285173069331616881e-02,9.047000074130898822e-03,4.831295013427734375e-01
4.765243943663768356e-01,4.480094563233273375e-01,-3.127671155500311162e-02,-5.275498825722354200e-03,-8.266403566100619799e-03,-7.783238557238171887e-03,4.946366250514984131e-01
4.816396008042386212e-01,4.748020408307557783e-01,-1.479863567099171107e-03,-1.971151060057256402e-04,-4.669276945613156336e-03,-7.287537372308776004e-03,4.799715280532836914e-01
4.758917668381862365e-01,4.840875313794953394e-01,-1.607505247540996773e-03,1.067862239126572861e-03,-1.573460083985193849e-03,3.708245063268466191e-03,4.817035496234893799e-01
4.770542135370713921e-01,4.615208874387427551e-01,-3.633626404721790326e-02,-3.517281743541440689e-04,-2.456328969699101642e-03,-1.196499867470009627e-03,5.058252215385437012e-01
3.855665436825611581e-01,5.171458862982297733e-01,-1.673469201070693080e-02,7.526682750171642721e-04,-2.291279134078724397e-02,5.427134984455970861e-03,4.834862947463989258e-01
4.549256247193661507e-01,4.712104769723874931e-01,-2.243147900298531061e-02,5.239076092700275904e-03,-4.470243316792400085e-03,3.589873627433699550e-03,4.858905673027038574e-01
5.075080249316543668e-01,6.203685153238055472e-01,-1.114383852608624714e-02,2.214643799590435835e-01,-2.783064760212690045e-02,5.621223823551143445e-02,7.065514922142028809e-01
4.158032794742625993e-01,4.685426427801540061e-01,-1.004668501551375659e-02,1.600936903635733627e-02,-4.653803639524236387e-04,8.750810034024301964e-03,4.556182324886322021e-01
3.155135390551184194e-01,5.134423357907211827e-01,-6.302861436631834735e-03,6.042384829024352588e-02,1.785857200180503493e-02,-1.146286767289993701e-02,4.676990807056427002e-01
4.375821976692049753e-01,4.524194173990566670e-01,-1.204090862409495921e-02,1.100762489449905179e-02,1.887602408971483792e-03,-8.448593334426518497e-03,4.578652381896972656e-01
4.860972289100882193e-01,3.777034271764023732e-01,-7.419570456278140602e-02,1.911819604285699969e-01,-4.975017522966163411e-03,-3.480520098299287081e-03,6.121334433555603027e-01
5.175259998461169131e-01,3.190817258301594794e-01,1.445161083741264285e-04,5.343386278942377325e-03,-6.663981248250741714e-05,-1.665820824977502909e-03,4.522016346454620361e-01
4.078873195795726381e-01,5.004495255373448970e-01,-2.457325515397845717e-02,-1.198567018665380561e-02,-7.332502279802181715e-03,4.028258787728548245e-04,4.860166311264038086e-01
5.032673856665537127e-01,2.983537898125797061e-01,9.137283654059580318e-03,-3.330287084299343725e-02,-1.021574782574128509e-02,-7.103384646093568316e-03,4.343867599964141846e-01
5.177228028550100447e-01,3.013155887388073162e-01,9.772974577481552405e-03,-2.724986562291023193e-02,5.805653943837412768e-03,-1.296342331375441217e-03,4.441339075565338135e-01
4.075068661440860440e-01,4.290869756939366120e-01,-1.200357277591940219e-02,-7.776006634364091008e-02,2.552223721039389992e-02,2.815963838808955080e-02,4.560490250587463379e-01
2.861048538464947000e-01,5.400075932617802721e-01,3.393375836624801245e-03,-6.494139352390439213e-04,1.986163900835441389e-03,4.610763371038200525e-03,4.650273919105529785e-01
4.597587005796863746e-01,4.814918387750375395e-01,-2.713029025374225078e-02,1.201737015570612322e-03,-1.981592357635013520e-03,1.555237111199022108e-03,4.981347322463989258e-01
4.697937007058373138e-01,3.608039397008942495e-01,1.133048130253527797e-02,-6.830352181238205644e-02,-3.947518389936885419e-03,-1.469095626660285071e-02,4.321918785572052002e-01
4.796341375633559334e-01,4.825284136211824837e-01,-9.802782907576801374e-03,4.549044468059989556e-03,-1.604173564535702227e-03,4.570214229927985899e-03,4.910253584384918213e-01
4.734826715477979397e-01,4.824044812712851016e-01,6.512480372945206319e-02,1.423814274085534633e-02,7.613516430563672249e-03,-2.765311303125026973e-02,4.165995717048645020e-01
4.679200216585553962e-01,4.795238340901047946e-01,-3.618513898355479874e-02,-4.012798696029410252e-04,2.034692140097231483e-02,2.531691065322505194e-02,5.130999088287353516e-01
6.253257499883306814e-01,4.617424764542908955e-01,7.335507818085068577e-02,-1.156679778022657971e-02,-8.330535543030818946e-02,-4.723892633070198716e-02,5.187034010887145996e-01
4.658411713371094498e-01,4.807431601540191335e-01,-3.032330987905096364e-02,-7.003033258095555432e-04,3.643535562940835378e-04,1.244354158794721329e-03,5.037872791290283203e-01
4.544690808206286459e-01,4.663230174648241855e-01,-2.329610453014269167e-02,2.262465863908992483e-03,-5.511224722363755081e-03,2.953732481425342445e-03,4.839381575584411621e-01
4.773339415459070256e-01,4.780433749483561368e-01,-2.531826799294295549e-02,7.172249610563913996e-03,5.595829301373585023e-03,5.949857183561301811e-03,5.033594965934753418e-01
4.839548081559439385e-01,4.322858107433397157e-01,-3.206732996899336330e-02,-4.624731401327834661e-03,1.349940609349235647e-02,9.999436800623661553e-03,4.931500852108001709e-01
4.668636966457098136e-01,5.107767774556495333e-01,4.827651773864433116e-02,-4.055532511637770232e-02,1.009873742860841958e-02,4.401002301967445185e-02,4.545061588287353516e-01
2.870830960975707669e-01,5.600296933509245623e-01,-8.575469007307545688e-02,-2.057944546756413084e-01,3.891680884689890235e-02,4.824893994852177265e-02,6.736869812011718750e-01
3.162792635995386181e-01,6.883249284628742970e-01,1.541327741355213998e-02,1.406975841303745589e-01,-5.014071493804023866e-02,-2.164267829131289941e-02,6.396945714950561523e-01
5.994584965887842509e-01,3.486206357836436620e-01,-4.262433609726157258e-02,3.086912217747112691e-02,1.715409932509244159e-02,5.251914527875535532e-02,5.710933208465576172e-01
6.144999736895476738e-01,2.243881868309782202e-01,-1.240432450582207302e-02,-2.960331559579249330e-02,1.338297236892918227e-02,1.111866608314578293e-02,5.515167117118835449e-01
2.665388719799153261e-01,7.006092163749055857e-01,-3.280369677494898717e-02,-5.134229208043027820e-02,3.487383844359172314e-02,4.764349255447988124e-02,6.529357433319091797e-01
5.170162253989132317e-01,5.141637068766107266e-01,7.762953441629016904e-02,1.669812581799477377e-02,5.565121962202043693e-02,6.213993382214708094e-02,4.620900452136993408e-01
4.783762139385033807e-01,4.718047338625193099e-01,-6.871612148627415095e-03,3.301290713477649050e-03,-4.699057611502828816e-03,-7.185258954534882482e-03,4.822589159011840820e-01
7.626831818100179294e-01,3.241575073686580599e-01,4.698895697865124177e-02,1.541565339975284159e-02,-2.107236198506641164e-02,-7.631587183325926060e-02,6.404608488082885742e-01
4.804877954581034949e-01,4.807770951443254281e-01,2.445276710941352016e-02,3.806963277204220963e-03,8.470959312709478231e-03,1.976473031785390150e-03,4.564760923385620117e-01
5.207752749791605407e-01,6.753037242471247037e-01,7.214223134514868851e-02,-3.717357041689586111e-02,-9.217318099608351467e-02,-5.984559716632610604e-02,5.786665678024291992e-01
3.706106260613554748e-01,3.775337526030339008e-01,8.507033898191851407e-04,-1.405666200248322228e-01,-8.943772606353926277e-03,-9.399729304211987962e-03,4.462198913097381592e-01
5.647939232548935262e-01,1.112145718473689093e-01,-2.333237776591864931e-02,-1.214329887420568521e-01,8.974746716451497547e-03,-1.408177845363349457e-03,5.738905072212219238e-01
4.743157053242385013e-01,4.759160305216662001e-01,-2.854561867131966135e-02,-2.162475905313817476e-04,2.004521768888040036e-03,-4.608142319680028944e-03,5.037387609481811523e-01
4.652033527046833816e-01,3.260255483233923668e-01,4.777008191558906880e-03,-6.000537031671407395e-02,-1.154161574357884593e-02,-1.791181825250641110e-02,4.236104488372802734e-01
6.028662389144970879e-01,3.014814485265909783e-01,-1.128866699817010488e-02,2.099276610699372936e-02,2.357663160328003771e-03,3.351215191721669540e-02,5.363115072250366211e-01
4.649500003370905521e-01,4.564543847309704971e-01,-2.151184667887529045e-02,1.453789304453583474e-02,-1.374088124410233550e-02,1.021353773048281482e-02,4.838366806507110596e-01
3.616987462103360973e-01,6.975307357313051959e-01,1.114682706520209177e-02,-1.799090191712561515e-02,9.118217983283075090e-02,6.985871998160146645e-02,6.276548504829406738e-01
4.840775980193371408e-01,4.643253713578883168e-01,-2.697599588035975993e-02,6.331933167419749814e-04,-3.012051708858378969e-04,1.496818610936744140e-03,5.014774799346923828e-01
6.967752095479643470e-01,1.714840532559878672e-01,-3.778492945171679773e-02,1.259165375275219378e-01,-2.940989243536338421e-02,-1.658803983349314143e-02,6.932796835899353027e-01
3.674471879900493843e-01,5.351211254899779224e-01,-1.910988299536275914e-02,-9.439325325212631710e-04,1.119884833567534599e-02,1.518122174162703751e-02,4.933829903602600098e-01
6.662585778448220086e-01,1.884160891875024391e-01,-1.173634614266568787e-01,-1.413317114493247151e-01,-6.544608849809792350e-03,-2.366095262115392242e-02,7.277919054031372070e-01
6.718349731038726347e-01,2.104039549104324558e-01,-3.806600609557697634e-02,-1.067743953869154244e-01,3.880114111007298885e-03,-2.799383010666174273e-02,6.526148319244384766e-01
5.458702202971330575e-01,3.360217844001729404e-01,2.861033056607292790e-02,-1.696104878112884573e-01,-7.656400191064288707e-02,-4.878029424077141157e-02,5.604246854782104492e-01
4.751998605787428609e-01,3.577661010790925133e-01,3.896687554073297033e-03,-2.897200494572593765e-02,-7.146678218007543500e-03,-1.591811277286189069e-03,4.280764162540435791e-01
3.287259583736104607e-01,6.529178986624006864e-01,-9.451363135327123244e-02,2.356654492958423774e-01,2.480784144784838052e-02,3.202669458255669177e-02,7.700526118278503418e-01
4.115009256954855754e-01,5.050751511113031889e-01,-7.287648643079402966e-03,1.075917497658229333e-01,2.165909564942666496e-02,-1.390322976425274921e-02,5.099441409111022949e-01
4.771798571021194091e-01,4.789261998757361471e-01,-2.846103778027653242e-02,1.809041453894774903e-04,-4.115985742815506977e-03,5.054193568977633031e-04,5.065673589706420898e-01
3.006965376401076195e-01,4.719708455678235381e-01,2.236701189743264817e-02,1.805216178264380245e-01,2.511215670420496524e-02,-2.249532902380746088e-02,5.056155323982238770e-01
2.915264333536792263e-01,3.854018797179171174e-01,-1.990335812570720453e-02,-2.445726131378177792e-01,2.326932631223758638e-02,2.690054839503005710e-02,5.641624927520751953e-01
3.378088988124333114e-01,4.970720136313825366e-01,4.522908103385459011e-03,-1.512062625811101159e-02,2.034582815524010879e-02,1.813872388966246071e-02,4.386789798736572266e-01
4.667246829153511856e-01,4.112668933394261206e-01,-1.084223517591320629e-02,-6.704769780765971153e-03,-1.314203047461953884e-02,-1.212568440383203668e-03,4.531206488609313965e-01
5.520658537150411327e-01,4.721684139483028897e-01,-6.237301319490695661e-02,2.455116146488448281e-01,3.243043348925907232e-02,-1.044043442776098913e-03,7.202867269515991211e-01
2.810942754860523696e-01,5.616131228983565205e-01,-5.996204822497519515e-03,-6.593747938286499688e-02,4.400062692007078446e-02,3.192858900376997766e-02,5.133768320083618164e-01
4.153162169390312575e-01,4.909608890384579150e-01,-1.552115725917507794e-02,-2.287690830843890771e-02,2.340712662686242687e-02,2.562486269763161045e-02,4.786618351936340332e-01
3.857753786337905777e-01,4.817245111467768348e-01,-1.137020504049751635e-02,-4.262131145227891771e-02,1.282914955364824507e-02,2.099877785174220080e-02,4.607634544372558594e-01
4.698462807025532428e-01,4.800075163613612972e-01,-2.922219967230560433e-02,-8.026113537020774233e-05,-1.765154617570285607e-03,1.362720233167052063e-03,5.042406916618347168e-01
5.420622455229393566e-01,7.227209485272920730e-01,8.589747258546287512e-02,7.532525034235630634e-02,-8.883071565900056699e-02,-9.898686487740473300e-03,6.034255027770996094e-01
5.115688926624385457e-01,6.930745130885216376e-01,7.046911209485212657e-02,1.246227576293257450e-01,-9.492669670160958084e-02,-9.475880365591965449e-03,6.176329851150512695e-01
3.866419547073869367e-01,4.779129858052419966e-01,-1.587003693552696548e-02,-1.323157920875946830e-02,1.934345491385705551e-02,2.200138419465504785e-02,4.584581851959228516e-01
4.777692374545187692e-01,4.799295139096390050e-01,-2.752635248564433423e-02,9.297270302129172215e-04,-2.850304037773950712e-05,1.815943914217408141e-03,5.063915252685546875e-01
4.763608064882669524e-01,4.791276579615906250e-01,-5.372869132549584759e-03,-1.831177679603516442e-04,-9.947465262867950884e-04,-5.184425617247673430e-03,4.832096695899963379e-01
4.793163040956834875e-01,4.761747682505579338e-01,-2.917890259875383085e-02,-1.801183092026013204e-04,-9.229927976287950189e-04,-8.922808292748159870e-04,5.069367289543151855e-01
5.035790037741300074e-01,4.882315312488015868e-01,1.930862857757248419e-02,1.456388490580807528e-02,-1.604429554989053293e-03,-2.393039685312483081e-02,4.792526066303253174e-01
4.828570544990345992e-01,4.804059738144002556e-01,3.486723556551468706e-02,1.761364518743934815e-03,-1.710250167705781171e-02,4.075849634857857569e-03,4.478163123130798340e-01
4.834041063664214488e-01,4.793743209485233914e-01,-2.731396773581623583e-02,3.132466176917493225e-03,-3.767854501764731929e-03,9.235609676229284250e-04,5.087884664535522461e-01
5.113146414984861554e-01,4.128343537213112757e-01,-2.321297153891216380e-02,-4.307923137582637951e-03,3.137689377138181725e-03,-2.126199572216748435e-03,4.928250014781951904e-01
4.792046533048173740e-01,4.815031563181778607e-01,2.550953139734984942e-02,3.644736676888735150e-03,-7.281818194819190092e-04,7.323524269623000668e-03,4.550710916519165039e-01
5.980108664852626932e-01,2.610367039416462420e-01,-1.085298740686702068e-02,6.383557138416749710e-02,1.958666984709057923e-02,-3.774618771949267947e-03,5.408456325531005859e-01
5.370834560022093029e-01,3.879934280894670184e-01,-3.917325884278588521e-02,2.675193991551198108e-02,6.527669133167822955e-03,2.781717497917574316e-03,5.202725529670715332e-01
4.815883219729812925e-01,4.799347424188779021e-01,-1.524040196658654756e-02,2.950002727916433472e-03,3.975980105320197494e-03,1.634906515312914942e-03,4.960862100124359131e-01
4.670084076391536332e-01,4.798025109909659358e-01,-3.030666274163712481e-02,1.734629017469189029e-04,3.632997107663743378e-04,1.242188223034556074e-03,5.038390755653381348e-01
4.757500634135362061e-01,4.597168978345276824e-01,-3.672599725104480628e-02,-2.491739109470284159e-03,8.810639725499365763e-03,5.113740870336108170e-03,5.049773454666137695e-01
7.681568421194213681e-01,1.301258051109545066e-01,-3.045435222360720617e-02,-8.917161223554145519e-03,-9.000806668093653401e-03,-2.039259071577171484e-02,7.328395843505859375e-01
5.218366957895081981e-01,4.409525151828346257e-01,4.204708658287126255e-02,-7.730274551997282605e-03,-5.443079002355744045e-03,7.454251926201013734e-02,4.635416269302368164e-01
4.576338915463614709e-01,4.425522814442066633e-01,-6.997475244747253242e-03,2.636664218105181745e-04,5.525083943599503299e-03,-8.373228682836554148e-04,4.573797881603240967e-01
6.789796411614174021e-01,6.649513659368511131e-01,5.706576243716132701e-02,7.382453413725850733e-02,2.365287429963487675e-02,4.626988772353138324e-02,6.345869302749633789e-01
7.087502375566652191e-01,6.133571053906599069e-01,5.412330370555568093e-02,1.008287857234628077e-01,7.129560499882922446e-03,5.406415199022809176e-02,6.439021229743957520e-01
6.262921336225119040e-01,2.194970024728071789e-01,-1.233857010817541733e-01,-1.781221957389388100e-01,1.554435865185350638e-02,9.546088706050023451e-03,7.202184796333312988e-01
5.212916836113751229e-01,1.807861703566711609e-01,-5.842039179563329743e-03,-2.057557764151130009e-01,3.305415254367825763e-03,-2.202084482946031242e-03,5.842736363410949707e-01
6.603055234186048228e-01,3.983190749176435674e-01,5.994109572139527664e-03,-5.254037160641969462e-02,8.149262057550339666e-02,7.376302838283409213e-02,6.081670522689819336e-01
5.928173090585187044e-01,2.698836539260950351e-01,-2.595387098759482924e-02,4.902774059840801779e-02,9.811457858321732256e-03,-3.847581382896405472e-02,5.470676422119140625e-01
5.265144992289370052e-01,3.974987865405504306e-01,-2.062898643283028743e-02,-3.305324675052992781e-03,9.485101261886147439e-04,-1.626109008739114528e-02,4.962355196475982666e-01
5.271878729554917431e-01,4.803128787132829869e-01,-3.566432523760965090e-02,2.692168575990086521e-01,2.129088561627488427e-02,-9.087902841771636903e-03,7.153020501136779785e-01
4.792996903489640248e-01,4.726251884503983591e-01,2.198455729528148161e-03,2.176605073607952058e-03,-1.746985099999907171e-03,-7.952706727817381374e-03,4.740240871906280518e-01
5.137615500405450231e-01,4.117711758215987228e-01,-2.525432344239769700e-02,-2.889167667351584794e-03,-3.428833005131729297e-03,2.831067592632550717e-03,4.960343539714813232e-01
5.997960501932776411e-01,1.837490790711374944e-01,-5.425737127878965671e-02,-4.173336224927740729e-02,2.952861121784916554e-02,-2.024291020496835070e-02,5.812350511550903320e-01
6.341376080171037266e-01,1.863053104198130749e-01,-1.161921668485839110e-01,1.086607689675111316e-01,3.639558239228678910e-02,-1.106166968522350651e-03,6.833196282386779785e-01
4.771877122528945803e-01,4.802363132760536502e-01,-2.297884938241001596e-02,2.587326716142519453e-03,-3.725063209832759487e-03,-4.043180342349157654e-04,5.017597675323486328e-01
5.137190191765277358e-01,6.139339876544107621e-01,1.501135139900755533e-02,1.789798412447168030e-01,7.028080269587616558e-02,-3.410110912570803871e-02,6.504909992218017578e-01
3.005140361976676444e-01,5.445900883661046743e-01,-5.613386222707567041e-02,1.699066187684441231e-01,-9.408664200017522253e-03,-9.566466915344809530e-04,6.005773544311523438e-01
6.068751815194554089e-01,6.327357981360902661e-01,5.722186761360514851e-02,1.275862185421418049e-01,5.240301892862554711e-02,-8.067829825904324070e-02,6.273769736289978027e-01
4.790044915828095551e-01,4.754172928712409041e-01,-2.384086529449669367e-02,-1.070604700133475458e-04,-2.819497194085078973e-03,-7.079566087936444395e-04,5.010867118835449219e-01
4.922433260643044317e-01,4.480992246535608348e-01,-3.269509619412425128e-02,-3.411809870592676531e-03,-4.735426241669330426e-03,1.532487259808643532e-04,5.044188499450683594e-01
3.089419877032066886e-01,4.772263319751446353e-01,6.723180634313374870e-03,-8.666087577888874349e-02,-1.130649276034091828e-02,-2.767082621534805095e-03,4.398310184478759766e-01
4.729123700204199698e-01,4.787015209623146639e-01,9.088502000851844675e-02,6.983263126957297076e-03,1.886273272397311030e-03,3.840236118780804547e-03,3.852158486843109131e-01
4.787813669818059004e-01,4.766242191852251842e-01,-2.952544801905532257e-02,-4.861322918116163885e-04,-1.144565913030396462e-03,-2.123079499329675636e-03,5.072495937347412109e-01
4.771140244934862773e-01,4.747105838399854894e-01,-4.191947017668506970e-03,1.067713888812748526e-03,-5.500946053219240260e-03,-2.175929662798419505e-03,4.802216589450836182e-01
4.776210579379970844e-01,4.767686156181240031e-01,-1.443547031872327580e-03,-1.890300922135671564e-04,-4.153137073134102394e-03,-4.922978537344167155e-03,4.787690639495849609e-01
4.644877569173804233e-01,4.637513471377239238e-01,-2.282531238278223684e-02,2.771571663848129696e-03,-6.265709000162005340e-03,2.565336631936471559e-03,4.871101379394531250e-01
4.788321710681030519e-01,4.789560447780334407e-01,2.863449883444552091e-02,3.091891262469937535e-03,-5.615903193489897062e-03,4.853267508628312729e-03,4.504749476909637451e-01
4.764762435854063560e-01,4.714557246200397067e-01,-2.773027751746298675e-02,-1.599664398507725290e-03,-5.277554754311673943e-04,1.698562389013919362e-04,5.017236471176147461e-01
4.700621244138700749e-01,4.667855061656110971e-01,-2.665320786076391668e-02,1.519632416451437281e-03,5.870629342289453547e-04,-1.625456619161169116e-03,4.951012134552001953e-01
4.836839287784500119e-01,4.548695443670462968e-01,-2.824284815659622305e-02,-4.435884458719860021e-03,6.301146241864690259e-03,3.038267242229181469e-03,4.983515739440917969e-01
4.599230562969086611e-01,4.993406135769298260e-01,1.476547286182572361e-02,9.079553024627482968e-03,-1.371166603142917953e-02,3.848460794168376622e-03,4.670351445674896240e-01
4.809839469575802884e-01,4.789934032388310503e-01,1.181302297386735145e-01,2.961213926552666055e-03,-1.449441474336703476e-03,7.800531608922988943e-04,3.619101345539093018e-01
5.822312991697211615e-01,6.681973000304426424e-01,6.045721743188769981e-02,1.074157619333874179e-03,1.111724550655451699e-01,6.255874027305834140e-02,6.109954118728637695e-01
4.558027132513309265e-01,4.743899964039987593e-01,-2.576552479836580201e-02,3.383757938436199233e-03,6.889904737989311669e-03,-9.281666592596138007e-03,4.915686249732971191e-01
3.147512078012482117e-01,5.028306893270706457e-01,1.537588838251724432e-03,-1.141710099740118889e-02,2.851135980621414059e-02,1.053722747009828986e-02,4.422087371349334717e-01
2.685245459529888024e-01,6.640288784867131033e-01,-6.725292608651028958e-02,1.083472291969481277e-01,3.624902408859353303e-02,6.926811109347016937e-02,6.749260425567626953e-01
1.971589490026633418e-01,6.495521696828718827e-01,-2.585724455999849347e-02,-9.198970209255223629e-02,4.973605413013690996e-02,1.937496925033782916e-02,6.238752603530883789e-01
4.790201376386817866e-01,4.760811859087833442e-01,-2.704153275391235622e-02,-7.204887872529453733e-04,7.315860323812850433e-04,-1.460042189512414379e-03,5.046080946922302246e-01
4.789049958865965184e-01,4.679095033787327162e-01,-3.045060281768902088e-02,8.583615990161859140e-04,-6.608714527996845426e-05,-3.670214099832923380e-03,5.039901137351989746e-01
3.679845607775223404e-01,4.932650018841888140e-01,1.817601345594194173e-02,-1.556859906430563267e-01,-1.137178090169019828e-01,-4.265200554401176597e-02,5.466740727424621582e-01
4.539233096546572144e-01,4.533391079160913328e-01,-1.308788278340355937e-02,2.934008238946936992e-03,-3.747315019671765713e-03,3.250647339510219155e-03,4.668261110782623291e-01
4.343370292703231939e-01,4.677075625625680688e-01,-1.646263454641500035e-02,3.735578570426101135e-03,-6.468867371504469221e-03,1.035350945496275876e-02,4.688990712165832520e-01
4.473764398531011599e-01,4.973431737243804163e-01,5.872011347798722358e-02,-4.290001276857333817e-02,-4.565808798006127517e-02,-5.451531607916474537e-02,4.400696158409118652e-01
4.718606130979952074e-01,4.819103877902106703e-01,3.803397316834489228e-03,2.783061909381596803e-03,4.708159076478600318e-03,3.946583675950937620e-03,4.733063280582427979e-01
4.730084760607495276e-01,4.805052106052717376e-01,1.807447475968793071e-02,5.435021963421452808e-03,-8.430600894288714162e-03,5.563870498552388882e-03,4.591583311557769775e-01
6.368125822313789319e-01,4.379188429847511443e-01,8.099259282954085482e-02,-5.824481829511703873e-02,-5.601423708671049440e-02,-4.772067319660133755e-02,5.141667127609252930e-01
5.057189264625314706e-01,4.082124145930091652e-01,-2.318264511993378685e-02,-4.234284924113299389e-03,-9.563629827522365442e-03,8.844720454431741511e-04,4.878560900688171387e-01
3.816707309198554277e-01,5.032036982263770053e-01,4.389006720232618841e-02,-8.559875827381813185e-02,-7.297541050742459290e-02,-6.011499098280256859e-02,4.676715135574340820e-01
4.913228084350994562e-01,4.831354025792530260e-01,7.804652352034791019e-02,-1.919115844963552352e-03,-5.461885173321717746e-03,-5.057894837390087238e-03,4.094605743885040283e-01
4.763706353810649441e-01,4.811707611717842559e-01,2.005682624750909637e-02,2.954947070924927692e-03,7.997564090702492801e-03,2.358715826605093779e-03,4.589885175228118896e-01
4.770634628598930393e-01,4.754774047992108010e-01,5.456463880483264361e-03,1.749127097991795077e-03,4.618087548689715945e-03,2.920906831902735524e-03,4.709208309650421143e-01
4.779110354970214636e-01,4.767790349651589432e-01,8.648253547924367179e-03,2.582483695658887809e-04,-5.565433813233113501e-03,-2.034854933927468350e-03,4.688103795051574707e-01
4.772982678585419025e-01,4.755946925991234586e-01,-1.315028673302631734e-03,-1.494191234945396220e-03,2.009999352498136310e-03,-6.848485353971675398e-03,4.779306948184967041e-01
7.470208989946607314e-01,3.139585018117558857e-01,3.857017369654996974e-02,5.009303691417115595e-02,-4.144798342593021545e-02,-8.398278906251385734e-02,6.453550457954406738e-01
4.734598619051654245e-01,4.569726794148468718e-01,-2.550108528095634819e-02,7.545033777060089486e-03,5.883771718660364171e-03,-5.829043187476557614e-03,4.913084208965301514e-01
4.426396578106549518e-01,4.806351960438621784e-01,-2.574304095787510738e-02,2.045262540761024882e-03,1.046847995124427881e-02,-7.096018543118092110e-03,4.889937043190002441e-01
4.913020161072039205e-01,4.805514901949065609e-01,8.402979397820808938e-03,5.545713524976264791e-04,-5.290012950993692835e-03,1.299535488987864189e-03,4.777086675167083740e-01
5.178490671818009039e-01,4.169981563238632782e-01,-1.459824968424566771e-02,1.228232867832172205e-02,9.241294702966695862e-03,-3.141945306770244778e-02,4.936026334762573242e-01
7.213372394520860542e-01,1.900616569087100749e-01,-4.280436429119338637e-02,-8.110084773805203984e-02,-5.250769576544894908e-03,-8.374778934988240733e-03,6.929801702499389648e-01
4.793733673397608808e-01,4.818008249512654162e-01,-2.868155231702657071e-02,4.267150365597041292e-03,-2.326599008098426818e-03,-2.310984023941303072e-04,5.093427300453186035e-01
4.432754652994300715e-01,4.858489833790348156e-01,-2.303530442812978807e-02,7.014931353699497933e-03,-1.396077278234511033e-02,5.596797458605162236e-03,4.898336827754974365e-01
4.789840828022584596e-01,4.810514613603554812e-01,7.299256438767859345e-02,6.441150329859798851e-03,-1.238012741610433273e-02,-6.058132207662123535e-04,4.077475965023040771e-01
4.743822696509696901e-01,4.752148854210543893e-01,9.848099803013710130e-03,4.763678931611841846e-03,-7.384228686607437198e-03,5.555006575307023077e-04,4.652010798454284668e-01
5.229563928490835734e-01,5.277901803301918715e-01,7.811772328291932688e-02,2.675321299671040015e-02,1.071761151884223842e-02,7.286217282208034066e-03,4.502289891242980957e-01
5.020844134696234029e-01,4.885969436506946151e-01,3.449978888379434672e-02,1.800445794193990430e-03,3.867600796594480861e-02,-5.626410993854961528e-04,4.658421874046325684e-01
4.528544478074033597e-01,4.797545073024286344e-01,-3.395805570689230946e-02,-1.524434403679843534e-03,-4.284503943347273830e-03,-3.037925899057087372e-03,5.008942484855651855e-01
4.745590379595435726e-01,4.811933030045155713e-01,4.593993146090591395e-02,4.279397197513998968e-03,-8.299086126364105601e-03,1.363737934225761486e-03,4.322835505008697510e-01
6.058747401473822958e-01,5.290415985300500612e-01,1.729856770557941514e-02,1.930895010070233231e-01,-2.289655153094248552e-02,6.586076145210301158e-02,6.584371328353881836e-01
4.817718210166340165e-01,4.803038397989860542e-01,4.991482537098707040e-02,6.048744745743834736e-03,-1.362180950665252063e-02,2.594107265939284927e-03,4.319204390048980713e-01
4.441781286417820773e-01,4.741095774964194098e-01,-2.036429991355670488e-02,1.742432960886544082e-03,-1.059902097407089248e-04,8.166400756238716488e-03,4.804260730743408203e-01
4.861439788748723734e-01,4.991849806864017691e-01,7.201523894800687664e-02,-5.589396153140512025e-02,-7.148186574504743207e-02,-1.080087908291963716e-01,4.865926504135131836e-01
7.342948825401752755e-01,6.109050913460795096e-01,9.223496791587648680e-02,8.366377192539239949e-02,-2.145632380203113879e-02,-6.184460141583958404e-02,6.181396245956420898e-01
4.681547244393166052e-01,4.781214573144283442e-01,9.569042224191437462e-02,5.725506504215036908e-03,-3.896177391308147577e-03,-9.770158624271874787e-03,3.781157135963439941e-01
6.714092261888064961e-01,6.751226509776568907e-01,6.729488861143528844e-02,6.302457011943435328e-02,-1.039807801077330222e-02,2.365260211352789022e-02,6.173574924468994141e-01
5.733084286309280131e-01,2.675830805400780665e-01,-1.802791108502754813e-02,-6.827746298898801358e-02,-1.541915465802748235e-02,-5.014811192664783701e-02,5.334822535514831543e-01
4.965433258543275885e-01,4.847302922702695360e-01,1.085026144820396277e-01,-2.428683949724037318e-03,-2.026627789105069424e-02,6.944727501608548900e-04,3.839043080806732178e-01
4.569351480089957618e-01,4.835350067580891364e-01,-3.926369091168319114e-02,-1.815700274996175849e-04,9.691287722462860188e-03,9.446520309879006053e-03,5.105577707290649414e-01
4.672966582204080010e-01,5.097518403851986069e-01,-3.308372765710904106e-02,5.284598975467738428e-03,5.147327941363957771e-02,4.692416447607685587e-02,5.367165207862854004e-01
5.679957723173596484e-01,3.228601371910248541e-01,-1.880064469883929723e-02,-2.294129868179447043e-02,1.913895984922340740e-02,6.973093780885303294e-02,5.271070599555969238e-01
5.795824505996061138e-01,3.450871346709198373e-01,-1.394438231772643366e-02,4.490221701818709887e-03,4.380083952397405625e-03,2.106491627913948186e-02,5.191648602485656738e-01
5.049532946125770971e-01,6.281893597552226094e-01,6.011594849497181592e-02,-6.754348758556012744e-02,-8.350791664703174910e-02,-4.192790459074729331e-02,5.547687411308288574e-01
4.748914579943138703e-01,4.779835806669806009e-01,1.911242922219252849e-02,-2.048829897336982338e-03,-5.669493330851089856e-03,2.714584931613620369e-03,4.574762582778930664e-01
5.325480125752275473e-01,2.645838279490347333e-01,-8.195081810275062217e-03,-8.104412952664057090e-02,5.850121550226657779e-02,9.017595531575604839e-02,5.231394171714782715e-01
4.852878633469397407e-01,4.331468952381072324e-01,-2.110583159409712417e-02,-5.784787819644637841e-02,2.092063888605676103e-02,4.314764288970228401e-02,4.996865987777709961e-01
5.792711485560692042e-01,2.639087112598732521e-01,2.513198433049479430e-03,2.225868789800051345e-02,-1.540160145369778334e-02,1.617940118236949748e-02,5.031885504722595215e-01
5.667497365506950491e-01,3.701463898325185187e-01,-2.633615511650522212e-02,-1.896532989265616032e-02,5.358484501397400845e-02,7.443875391943506614e-02,5.478298068046569824e-01
4.540621798171870505e-01,4.334754122772211393e-01,-2.627326161209492250e-02,-2.059616123817616801e-02,-1.650032463067301405e-02,-1.544395776731394797e-02,4.733522236347198486e-01
5.512656920933209914e-01,2.913707437617134577e-01,-9.198959179025134603e-03,9.319677731926023431e-03,5.955222034729854876e-03,-1.203901714092102913e-02,4.866270124912261963e-01
6.709761781852963125e-01,6.180884416229531775e-01,6.904126624763090581e-02,8.030767984607029009e-02,7.333268055892466428e-03,7.305883380021464812e-02,6.072971820831298828e-01
7.515826439019270833e-01,4.494473042731173540e-01,4.836738926362310620e-02,1.236899658756509535e-01,1.444010189009335698e-02,4.080233472963097630e-02,6.518043875694274902e-01
2.966162732609418651e-01,5.501369609561913565e-01,-6.317957850350275351e-04,-6.693525086690209347e-03,2.974336647654519158e-03,7.526862896889278606e-03,4.778269529342651367e-01
2.979681920751771074e-01,5.434440357259512355e-01,3.733367140509813442e-03,-1.282043417077870576e-02,6.117368739182415562e-03,4.166122838269553132e-03,4.687403142452239990e-01
4.154316799755217726e-01,4.626069487089872201e-01,-5.621856491480781148e-03,1.342636496418764432e-02,3.214899226929927335e-03,-5.812992955720183014e-03,4.472673535346984863e-01
3.042706486556190359e-01,6.093108274881915420e-01,-8.206479729167048820e-03,3.362049763042910394e-02,4.596485133534306856e-03,1.118472300734813830e-02,5.383672118186950684e-01
2.306690736298870892e-01,7.398239167633424707e-01,-6.544483580184612403e-02,7.098102752631685330e-02,-3.709181157572363774e-02,3.073260590210439777e-02,7.209478020668029785e-01
4.460065127685221009e-01,4.856930122993303733e-01,-2.523660234152014237e-02,-5.432492566370100261e-04,-4.709598121396449052e-03,6.486669668530426792e-03,4.924842417240142822e-01
3.073262743419830634e-01,5.507146510474991707e-01,1.271174294456667297e-03,-1.328621970828398891e-03,2.669634308633411085e-03,1.869067972169885473e-03,4.769015014171600342e-01
4.078400220279224664e-01,3.501005745933082336e-01,-1.189964310441732342e-02,1.859864753936594506e-01,1.883972896688214035e-02,9.607179857219757396e-03,5.102884769439697266e-01
4.994295857026480046e-01,6.845847644082669881e-01,8.047772865461327862e-02,1.951877320223092266e-02,-3.132288083337696899e-02,4.049424476981738213e-02,5.444078445434570312e-01
2.179147825947418404e-01,5.583216703508762091e-01,-6.996759074381964094e-03,-7.811101060097838146e-03,-2.247828384074499961e-02,5.451961479060091903e-03,4.947843253612518311e-01
3.357571665217557455e-01,5.228072709374150806e-01,-1.101425497497948713e-02,-5.098277219415320131e-03,-1.680275258882345940e-02,7.755814983524366747e-03,4.703267216682434082e-01
4.636272514574543702e-01,4.938413489010762270e-01,1.625416271292595694e-02,-2.335935398251888853e-03,-1.448613315653795967e-02,1.490717034345820152e-03,4.639236330986022949e-01
4.580633087789427460e-01,3.925482645360266476e-01,-2.415278128779496658e-02,-1.243391629822085953e-01,-1.847852340189258188e-02,-2.391874755876504180e-02,5.043347477912902832e-01
3.153813449055254403e-01,5.384581968803248131e-01,-9.507015049851907929e-03,-6.999478769024477078e-05,1.365033384679630382e-02,5.225630304371584565e-03,4.779453277587890625e-01
3.254703230420241677e-01,5.372500535206865546e-01,-8.925491105312266527e-03,1.626751685898526409e-02,1.302511416448007969e-02,4.427001153862466891e-03,4.783838689327239990e-01
3.182232054246681985e-01,5.447398898285099600e-01,-9.373255386440848547e-03,4.790553084952385576e-02,1.029368881017390762e-02,4.748121478615176250e-03,4.900057613849639893e-01
3.039365696318007126e-01,5.632713941338575170e-01,-9.146421718810693324e-03,2.153547382867347301e-02,3.081012811799746075e-03,-4.495908861481945525e-03,4.979450702667236328e-01
2.978768575911205363e-01,5.367782311716553512e-01,-2.810321697944484498e-03,1.861686606783777287e-02,5.056593872584576495e-03,6.046421612466636175e-03,4.696247279644012451e-01
5.232719025925556267e-01,6.178899473479567694e-01,-7.441253387489965565e-03,2.411093981808077880e-01,-3.785320646239800912e-02,3.408237656715573660e-02,7.231934070587158203e-01
3.863410544293183757e-01,4.862311231280835866e-01,5.991550344697227359e-06,1.468159939121656439e-02,1.688404139504612322e-02,1.112585640080979155e-02,4.468747675418853760e-01
4.661066931075788511e-01,4.547245469554470065e-01,-2.204893046926748035e-02,5.088868104882056896e-03,5.185219143600387250e-03,-6.651771285586948086e-03,4.828667342662811279e-01
4.066941535686260933e-01,4.860371790969710837e-01,-9.642038422642384976e-03,6.730566885968775233e-03,-8.454255474287996014e-06,1.005651019371479188e-02,4.616316854953765869e-01
4.320279198744664817e-01,4.630615881033458558e-01,-1.681952766680372413e-03,3.244075391978427231e-02,4.223701913040531913e-03,-5.311801025147516557e-03,4.536764621734619141e-01
4.349490738276440838e-01,4.946842875268642192e-01,-2.520005585450402208e-02,-1.222548787207936374e-03,4.820084179312100628e-04,-3.324215183346073289e-03,4.927788078784942627e-01
4.498387517260449275e-01,4.566246612450611253e-01,-2.818831677184452378e-02,-1.874390832009572921e-04,-3.036327682740437659e-03,-4.844378568329293228e-03,4.815578162670135498e-01
4.505166421795945286e-01,4.519929596354839707e-01,-2.849306598719336669e-02,-1.606223637187619230e-03,-2.952685099065449018e-03,-4.256942328330603695e-03,4.798415601253509521e-01
4.397586157801940399e-01,4.448295732952517456e-01,-2.209253137744593420e-02,-2.843697212275204857e-03,-5.553657523600621232e-03,-1.260219428853105944e-03,4.645382463932037354e-01
4.019138156162667119e-01,4.863501665773231064e-01,-3.777287254053685039e-03,3.435066395948769419e-02,-6.793280234519443372e-05,1.287944184543920144e-02,4.582656323909759521e-01
5.290573076210045578e-01,3.022852142300885836e-01,-5.875910019973146214e-02,2.221149882050503510e-01,-1.061540703372562851e-02,2.531864836068307631e-02,6.433659195899963379e-01
4.789817412292999288e-01,4.727008747520478060e-01,-3.367692403665750733e-02,1.444153776016939179e-03,3.733289230835280456e-03,1.681074548320286811e-03,5.096027255058288574e-01
5.224983780072164352e-01,5.104788156091152329e-01,-5.416787787610072291e-02,2.675067480598315450e-01,-4.068550997574336275e-03,2.874492022228189100e-02,7.368617057800292969e-01
4.512022903122149819e-01,4.441591086141584155e-01,-2.161201283692820718e-02,-2.511144567699654523e-03,5.139451348033034750e-05,-1.260297365667284279e-03,4.693575799465179443e-01
3.271844645307396271e-01,5.225733814497270924e-01,-2.521576924533919239e-03,-8.874511247850984386e-03,-2.112182480821635927e-02,-8.776071463071319009e-03,4.616378843784332275e-01
4.475414101180124615e-01,4.865338071474196724e-01,-2.912703259008780909e-02,-2.597823296951747019e-03,-6.827210007314759264e-03,-2.644817662809078717e-03,4.974944293498992920e-01
4.067345072097555136e-01,4.856362957754217780e-01,-1.361716213919988983e-02,6.825180002301031897e-03,6.344940536576921001e-04,7.896986622736520273e-03,4.652048647403717041e-01
4.467636513736680803e-01,4.429599105826061978e-01,-4.506723869524276171e-03,-5.527273673594316992e-08,1.608550500006284464e-03,2.839570113748350394e-04,4.493894875049591064e-01
4.562289069076736481e-01,6.845882574340214077e-01,4.703035433240321250e-02,1.431382255152204019e-01,-6.570721042157558200e-02,8.337423959787612290e-03,6.226252913475036621e-01
4.372844299283020209e-01,4.839110876343789003e-01,-2.082239312423866950e-02,2.616447282937233148e-03,1.075410637084899326e-04,7.764870590635648134e-03,4.833191037178039551e-01
4.065071893169725503e-01,5.179218517725763249e-01,-2.339563329056543184e-02,-1.133710960062771569e-02,-8.828886465985043286e-03,-7.578391504191062458e-03,4.959020912647247314e-01
3.323004153395278104e-01,5.494279412021941811e-01,-1.288345452412409387e-02,-2.608530877890073534e-03,-2.202538026988137831e-02,-4.019596269789082847e-03,4.927163720130920410e-01
3.306878691158464112e-01,7.372046943242080985e-01,-1.513005540378942193e-02,1.692949715414573120e-01,-3.898016504994867432e-02,2.572680979733124249e-02,7.196896076202392578e-01
4.762822169334742783e-01,4.468756188861651713e-01,-1.919609907881730804e-02,3.969725247403813051e-03,-7.775376609868671698e-03,-3.441169329409404266e-04,4.816868007183074951e-01
4.630352880551197314e-01,4.981134769414871655e-01,-2.294357045048051047e-02,-2.209301028224274280e-02,-2.030885782194085179e-02,-1.684370963736041629e-02,5.079428553581237793e-01
4.833763672862917971e-01,4.118010147168476021e-01,-1.813914126793136905e-02,1.362748733272579373e-02,-7.772054071026417849e-03,1.389156836433374197e-02,4.712345004081726074e-01
6.596927473204448056e-01,5.838883648738246723e-01,5.700660044968230977e-02,1.403839453796404402e-01,-4.630654068571157800e-02,4.367511416861630941e-02,6.281473040580749512e-01
3.343424667389771066e-01,5.169448909135716530e-01,-1.402291007968037295e-02,1.018703308365594834e-02,-2.300199364568481300e-02,1.211827778613001547e-02,4.697377979755401611e-01
4.972304415470686356e-01,3.408575105999597787e-01,9.251250273421496306e-03,-1.189565711403885520e-02,1.461303361707874150e-02,9.514952262061454266e-03,4.331353008747100830e-01
3.459062254885599819e-01,4.853696530168946088e-01,-1.849512371213984929e-02,-6.858850863180779300e-02,-3.210351146249734028e-02,-9.825844504059632820e-03,4.696314930915832520e-01
2.925505332582309381e-01,5.439704818040143053e-01,-2.127753786015990078e-02,-4.505411293624961289e-02,-1.029033134801326382e-02,-4.792195861690499298e-03,4.970702826976776123e-01
4.684307435368980643e-01,4.676822213331767175e-01,-2.580630512809251043e-02,3.521975391391433258e-03,-6.570532983976347906e-03,9.366205097784302579e-05,4.940320253372192383e-01
4.698335341960063749e-01,4.702373060046117770e-01,-2.713931915235684444e-02,2.341574873304330348e-04,-3.530017900004876058e-03,5.078183157590716087e-04,4.972133934497833252e-01
3.726469755893782598e-01,5.128393134145842192e-01,-4.192362836855273445e-02,-2.386066440336590266e-01,-3.373883779703946290e-02,-3.533228644494760401e-02,6.539126038551330566e-01
3.768232478636722171e-01,4.792011918285582484e-01,-2.610774479129546188e-02,-1.241046636418267068e-01,4.074040069694548349e-02,4.096493210093199444e-02,5.199091434478759766e-01
4.711810231270426863e-01,4.749794918800098742e-01,-3.124483941876743387e-02,-4.156184184775465920e-04,-1.133769443303524714e-03,1.204985576749382354e-04,5.043402314186096191e-01
7.239525323832494141e-01,3.430835854300043342e-01,-2.080782691041793697e-02,6.088033534088541782e-02,4.794233246776220814e-02,6.893705669159783112e-02,6.695854067802429199e-01
4.988046098540857010e-01,3.278483021705710931e-01,1.060704191872768876e-02,-1.659854740953697894e-02,6.089899233341617910e-03,-1.202186348823599833e-03,4.301681220531463623e-01
5.340675772481575656e-01,3.175130300324191523e-01,-2.785181028996158714e-02,-6.426953858102399386e-02,-3.078792511147949301e-02,-6.719684564645340974e-02,5.193695425987243652e-01
4.764075350400022169e-01,4.803083879781142040e-01,-2.081051574697639905e-02,-1.354655323097134082e-03,9.733042865939291210e-05,1.706029093485854006e-03,4.991942048072814941e-01
4.761738046497260846e-01,4.775096357138978731e-01,-2.741407282672725376e-02,-3.917260297230864695e-04,-3.786378608419485332e-03,2.194303046900754860e-03,5.043145418167114258e-01
4.619121851987351146e-01,4.835926881107333042e-01,-3.742975415225485714e-02,2.805823649415623098e-03,4.141214096626577232e-03,6.291734858990509147e-03,5.107173919677734375e-01
6.005618570461728201e-01,4.082076992749945066e-01,-2.360708337769990006e-02,-8.365929942162347865e-02,4.183416970455347550e-02,6.304189986357769393e-02,5.871075391769409180e-01
4.670975638230120963e-01,4.799350385108461792e-01,-2.866837688411366658e-02,-1.479514659994321697e-03,-2.537193781825832894e-03,3.920604410071826598e-03,5.023793578147888184e-01
4.802004658822076610e-01,4.766290310527766527e-01,-3.166707069502422423e-02,4.961700308228230577e-03,3.536124432080694005e-03,3.996372831377275822e-03,5.102472901344299316e-01
5.326336235712513245e-01,2.972075840389683532e-01,6.018743850594421296e-03,-1.366644752434357027e-02,-3.529065931303123661e-03,-1.976592100622068943e-03,4.575797021389007568e-01
6.330067508639913854e-01,1.420408848640274946e-01,-8.883949200147078784e-02,4.572356971923208224e-02,4.754783913546932472e-02,2.259348134508364081e-02,6.498410105705261230e-01
4.741139563525762490e-01,4.770841365259682609e-01,-3.020953068274118136e-02,-1.408643163464782947e-04,-1.910812012740680270e-03,-9.498880211167889508e-04,5.058286786079406738e-01
4.736805881201796575e-01,4.767855733788045058e-01,-3.025866529412746253e-02,-5.496881838814964005e-04,-9.054929483630566340e-04,-5.038188766626918236e-08,5.055022239685058594e-01
5.508852472204772699e-01,3.726687048288684911e-01,-2.301972488038261933e-02,1.002409101036505906e-01,-3.089035352212751370e-02,5.573162955085209092e-02,5.487933158874511719e-01
7.358774786665674972e-01,2.466906001669798842e-01,-9.842358076457441429e-02,1.888700812012700236e-01,1.213576685049572472e-03,4.006096589755670651e-02,7.994170784950256348e-01
6.078154880307031771e-01,2.488359858057789531e-01,-5.508971320934530347e-03,1.574819366587602593e-03,7.862801644897577172e-03,2.306806498904900860e-02,5.353985428810119629e-01
5.501248432600899241e-01,2.892526600698041572e-01,7.772298692184931301e-03,-2.312792224143326875e-03,3.798765469470568278e-03,-2.449420154390965186e-03,4.698863923549652100e-01
5.253087945683799775e-01,3.652263576303074744e-01,-2.172007061520953020e-02,1.539135289222541732e-02,4.885269844293479123e-03,-1.625921585340834100e-02,4.887459576129913330e-01
7.951715632633339359e-01,2.152381975241126066e-01,-3.131845518120579541e-02,9.631864842840667795e-02,1.362798560645419460e-02,-1.697278568361484941e-02,7.545545697212219238e-01
7.188338415929313996e-01,4.540240241260557474e-01,6.058514683709581572e-02,1.488355753332559483e-01,3.742199038670720318e-02,-8.311238829552505814e-02,6.484482884407043457e-01
5.523030977525482665e-01,2.223707385322018781e-01,-1.952315846295793467e-03,-1.252390666484885506e-01,-4.373424988992428292e-02,-6.241286735243289224e-02,5.455880165100097656e-01
5.124590447568658780e-01,4.625093859895735848e-01,-2.065223030870089183e-02,1.340937499600061353e-02,2.086988171358070219e-03,-7.966452682877224120e-03,5.107022523880004883e-01
4.873200129229281474e-01,2.420157748005786480e-01,5.464980365711719079e-03,-1.821476430965801585e-01,-6.506019900374245685e-03,-2.764879808870172526e-02,5.254626870155334473e-01
6.588733447883394767e-01,3.061769333849140851e-01,-1.082569633986092961e-01,2.087840704611907960e-01,4.036516388262235966e-02,1.373042441211028315e-02,7.606217861175537109e-01
4.672412577896472019e-01,4.494839607410132665e-01,-3.418902436889165175e-02,-6.372238460972976491e-03,-1.004605497861710793e-02,-8.043067487825610734e-03,4.934189617633819580e-01
7.635258157726890760e-01,1.166724632922480354e-01,-1.141079440631724284e-01,-5.334785940335431964e-02,3.217418256522479314e-02,3.271721375946751165e-02,7.973799109458923340e-01
4.816050039722134524e-01,4.151433589094658538e-01,-8.946943769526927159e-03,8.295721079936502554e-03,8.775198833452348482e-03,-4.633827605594660495e-05,4.614032506942749023e-01
5.650039383462087672e-01,3.197189395494879349e-01,-1.478561250074927891e-02,5.590023657730282258e-02,1.511911166382555634e-02,2.139920567604226831e-02,5.153067111968994141e-01
5.151487604186681946e-01,3.511010467231125420e-01,5.438949053419572799e-04,8.382781365014977185e-03,1.096397862142857102e-02,1.541027954890044033e-04,4.559403359889984131e-01
5.138712671943896915e-01,4.179750267476813885e-01,-7.245542148420935913e-03,4.312517523938010251e-03,-1.331643494193728190e-02,-1.673292771514281810e-02,4.818852841854095459e-01
4.887477401825719436e-01,4.315886771874114514e-01,-2.105504310445432958e-02,1.202248971878353175e-02,8.241541352190748584e-03,-1.896654696932396911e-02,4.855334758758544922e-01
5.916763927658805766e-01,1.943518342848125080e-01,2.984314433555962376e-02,-1.580146282000066335e-02,-3.596487331321823744e-02,-7.428340695903293267e-02,5.210343599319458008e-01
5.525469866584562517e-01,2.502556126839069472e-01,-2.185835290353227434e-02,-1.182506062933405266e-01,-3.281656101482614135e-02,-3.823443818937256183e-02,5.452061891555786133e-01
5.597895106958611366e-01,2.684249507744319585e-01,2.540844270781289493e-02,-1.003029922250557315e-01,-5.673652133708911860e-02,-7.241260962020699965e-02,5.199294686317443848e-01
3.340006701821121027e-01,5.240139132264722832e-01,-2.139084691398113192e-02,-4.720685623825144825e-03,-1.212165116160774520e-02,4.992190010015998963e-03,4.801246523857116699e-01
8.093477750556048456e-01,1.628061911259718608e-01,-1.111743096780726803e-01,7.993351921953562034e-02,2.758875274745864123e-02,5.401685777635609371e-03,8.317211866378784180e-01
4.778550348769068368e-01,4.106524825056805938e-01,4.461321447902294457e-02,1.260868834819904027e-01,2.025529027460597556e-02,-3.820974784749210651e-02,4.651926457881927490e-01
7.879665167960329120e-01,2.003129904677819206e-01,-6.641917495000770888e-02,3.286920943092677683e-02,6.543524223969395546e-04,-2.158844265607050977e-02,7.601772546768188477e-01
4.759720405498414353e-01,4.639938292962340616e-01,-2.629818667214561811e-02,2.018279271368700941e-03,4.107459407574932941e-03,-3.707307111315082983e-03,4.964943230152130127e-01
4.725828983636647385e-01,4.746772284708654643e-01,1.712743244327857850e-02,3.216067971396819290e-03,8.361928319400496745e-03,-4.244197661983307480e-03,4.568290412425994873e-01
4.804519597485376603e-01,4.641272390731215891e-01,-2.971713669400072311e-02,1.833718715131160042e-03,2.372202747528068321e-04,1.036985123935417084e-03,5.022192001342773438e-01
6.068940178632706850e-01,5.047426655981317456e-01,3.215740549201634435e-02,2.152360001100743769e-01,-2.662901093394552318e-02,1.952977365395009227e-02,6.513816714286804199e-01
4.752901626499933530e-01,4.807038887056892529e-01,2.956982269237390382e-02,9.757243793934723382e-04,5.697451050481876569e-03,-5.511514165447871025e-03,4.486650228500366211e-01
5.529407776382125883e-01,6.992668910235233515e-01,5.600814597331549294e-02,1.004985422651482746e-01,-8.674281677527731493e-02,1.269736633232636594e-02,6.280319094657897949e-01
5.529486471822210314e-01,6.923299275608385539e-01,6.535901499421936656e-02,1.023596334629916921e-01,-8.744407488699150466e-02,1.608070638474305702e-02,6.166679263114929199e-01
3.972964163996245412e-01,4.593765101389537531e-01,2.813663626989315603e-03,2.384323612087622946e-02,5.334133316664891808e-03,-5.699817969861983510e-03,4.311014115810394287e-01
4.789590315864589165e-01,4.689343213020145673e-01,-3.618997983287375320e-02,1.770814947436311808e-03,1.529299281101671477e-03,7.496248825657075322e-04,5.102282762527465820e-01
3.744094438320721419e-01,5.627893297617465596e-01,-2.450201945856539387e-02,-1.205225096575953531e-02,-2.715462579261160303e-02,-2.427774908214564570e-02,5.236223340034484863e-01
5.136345691804353741e-01,5.226882414266266208e-01,1.123411536122664867e-03,-9.174227531380914347e-02,6.073424917785560234e-02,7.906169723630940283e-02,5.678537487983703613e-01
4.677763895575789976e-01,3.737788431050326765e-01,-9.382839876321547035e-03,-4.931514480170707398e-02,3.327081024629257450e-02,2.798330933206101545e-02,4.523611962795257568e-01
3.630823478257850789e-01,4.877892461485293651e-01,2.609963978601670398e-02,-1.448975539161641013e-01,-1.120745909382414585e-01,-5.722967066729418850e-02,5.306853652000427246e-01
2.945807632809972487e-01,5.437387841428857893e-01,-4.836736104478100984e-03,2.187153205465852505e-03,2.131673973935385713e-02,5.940216316730272984e-03,4.773010015487670898e-01
4.565388501871320281e-01,3.953851723731523493e-01,1.099333056301449174e-02,-3.101445301606202062e-02,1.017530846049909989e-02,7.878834903245927196e-03,4.223580956459045410e-01
4.608214638928961326e-01,4.338205122146800985e-01,-2.049964925475056265e-02,-6.617603013771290212e-03,1.199194987809780108e-02,9.628241732974992173e-04,4.690080285072326660e-01
4.791009605364150437e-01,4.810443153296884433e-01,-1.685290023326557751e-02,4.956755951348730885e-03,1.723321028948324955e-03,3.110662642933323917e-03,4.970407187938690186e-01
5.889347292471738271e-01,2.366123187826919549e-01,-3.185990248083198084e-02,9.259991053796693197e-03,3.610083822680947019e-02,1.056424649829738665e-03,5.431091785430908203e-01
4.456254862228238300e-01,3.665306185054328370e-01,6.975842524031494740e-03,-1.442751279944484710e-01,2.506628190072433815e-03,-1.043261717057779011e-03,4.758598804473876953e-01
4.087637206468587303e-01,4.142197076380602638e-01,4.315154690633093981e-03,-3.230106000883358613e-02,5.481358823570095344e-03,4.766703227070671900e-03,4.112218916416168213e-01
4.249901002291800456e-01,3.594000010911777565e-01,-1.104254805032550135e-01,-2.666601444370353957e-01,-9.441115651254019386e-03,-2.732919700562039689e-03,6.851763725280761719e-01
4.850645620562559213e-01,4.368104178510823221e-01,-3.365460325386832041e-02,-1.464753751309105963e-02,1.314871984252704608e-02,2.120407821515005523e-02,4.988775849342346191e-01
6.363008607365250313e-01,2.115136437559136384e-01,-1.121024546490698715e-01,-1.669526667037682655e-01,1.272929462234909451e-02,8.773174529198396812e-03,7.120225429534912109e-01
5.123998074033291328e-01,3.070779879728616768e-01,5.847682506860629736e-03,-2.166884974758635438e-02,-4.129271583963483802e-03,-1.758606246344769251e-03,4.429615736007690430e-01
5.058954755394483582e-01,3.415792901435976692e-01,-7.191154207028205292e-03,-2.011767428548495718e-02,-1.519749457408714130e-02,-1.464090407461502222e-02,4.566173255443572998e-01
3.264694034643277898e-01,5.322851476872887400e-01,-2.549880147818145426e-02,-2.108008196853132232e-01,-3.634303185619509879e-02,-6.055923544347999177e-02,6.220594644546508789e-01
4.709315087336279904e-01,4.815257231067284760e-01,2.099940182078668949e-02,2.639456859823746584e-03,-2.023317601319184547e-02,-3.947182650777895582e-03,4.567423760890960693e-01
5.248327256482719916e-01,4.207724102705642233e-01,-5.563774230990853331e-02,-4.208255349146661217e-02,5.359297151791670571e-02,4.112461370319880904e-02,5.535103678703308105e-01
4.299261996456997803e-01,6.540313124439851578e-01,2.755694332108926670e-03,-6.748891954339880650e-02,6.958026759284190177e-02,7.620750876232341986e-02,6.115881800651550293e-01
4.850843140302839029e-01,4.809273405435745552e-01,2.767458370066050444e-02,6.677818641735871336e-03,1.011212504243205572e-02,3.586120750013099736e-03,4.558712840080261230e-01
4.329462695125255722e-01,4.328369966979750405e-01,-4.614201653365401778e-03,-5.059853640311076303e-03,6.620332735594838119e-03,9.881868147493382340e-03,4.380783140659332275e-01
4.656106344070984893e-01,4.846204654695198677e-01,1.915081440672894431e-02,4.016146640859182514e-03,-6.499948631933563821e-03,-1.371255861725229064e-02,4.570712447166442871e-01
4.503965245792147520e-01,4.483366328355253838e-01,-1.754365293101006751e-02,-7.048593334344981087e-03,1.659849967717661259e-02,1.777187639937595140e-02,4.689684808254241943e-01
4.932052545374126518e-01,4.246796348321212888e-01,-1.243886417889122908e-02,-1.175824775071247427e-03,1.553907931274713106e-02,2.088552818643316447e-02,4.772413671016693115e-01
4.811968232105831023e-01,4.736850308374059848e-01,-3.731806118518743443e-02,1.496697219687801329e-03,2.503658300601291006e-03,-3.299305306823645690e-03,5.148565769195556641e-01
5.102692621442488363e-01,4.302511574440064379e-01,-4.781259665565912309e-02,9.293846757280398250e-04,2.680027671184064333e-02,3.787906444978204890e-02,5.288321375846862793e-01
4.813185867178154664e-01,5.579013913242577560e-01,-1.276274357592271924e-02,-5.912495925105757007e-03,2.774002719708697218e-02,-1.284511770314531766e-02,5.391918420791625977e-01
5.548607545910289041e-01,2.672691288979348045e-01,-1.199021104863983167e-01,-1.929789089577325922e-01,4.055723464932383532e-02,3.774914389919425267e-02,6.818283796310424805e-01
3.884142146524562356e-01,4.469344542188435909e-01,-2.955484413534714694e-03,-1.944169498314161221e-02,9.483824555573850887e-03,1.554413875533168857e-02,4.261766374111175537e-01
3.111951955377417756e-01,5.122542281300697109e-01,-1.799644561548568999e-02,-4.345953561703094770e-02,2.601268063717096166e-02,1.906295148171647386e-02,4.730382561683654785e-01
7.415735815350184001e-01,1.723467131439244682e-01,-4.663221873025452657e-02,-2.015892538808680690e-02,6.290455488751138524e-02,1.024139556107242915e-01,7.356464266777038574e-01
7.266454210011857873e-01,1.973372428347699437e-01,-1.070129684513075885e-01,-6.746833628356901924e-02,2.768390419005725689e-02,-6.212625030287551812e-04,7.415170669555664062e-01
3.325166942212626764e-01,5.715129090940247458e-01,-2.959844582734283414e-02,2.910026441218067222e-02,4.768757341262972599e-02,3.702451339644766137e-02,5.369040369987487793e-01
6.072612122773708432e-01,2.128691919239977248e-01,-4.776824526284467742e-02,4.346556447549734109e-02,5.640680660598587637e-02,1.045762294410503418e-01,6.117938756942749023e-01
7.236433499741485864e-01,2.789507351200811169e-01,-6.891503364567308498e-02,1.482690091550890599e-01,3.376820974923109425e-02,6.535755834620352034e-02,7.454141378402709961e-01
5.988347923448325005e-01,3.719727441397890355e-01,-1.031590128846016086e-01,2.478384986960344150e-01,1.814092144184183825e-02,2.656718849175592617e-02,7.565596103668212891e-01
7.729197057102781265e-01,1.461371401383097512e-01,-1.261179530975521379e-01,-2.334532535737998942e-03,2.859623628389963354e-02,1.581912401346030964e-02,8.005275130271911621e-01
5.055384775894580240e-01,3.516725904892600285e-01,-1.738941062632592960e-02,-2.001061720524303922e-02,-1.444263520404427681e-02,-9.882139381041564474e-03,4.677473008632659912e-01
8.089687162845847768e-01,1.621169459787127065e-01,-1.133006313643259988e-01,8.726163603379241684e-02,2.866118236760991159e-02,-5.543866871263939192e-03,8.353602886199951172e-01
5.220517134362562262e-01,5.141513983464186532e-01,1.195820485101417585e-02,9.682719705829853640e-02,1.170565156954747887e-01,6.748960071196011571e-04,5.704931616783142090e-01
4.797188335637718737e-01,4.631426301891097275e-01,-2.864012640592678016e-02,5.106231814196290821e-04,3.646230158849029721e-03,-2.806200247163237807e-03,5.003411173820495605e-01
4.744918828433189462e-01,4.738263435159427717e-01,-1.120415890817633153e-02,5.003100253916033073e-03,4.300334618518091186e-03,3.693315094673202837e-03,4.855402410030364990e-01
4.790042220694800124e-01,4.669665798485752028e-01,-3.001009437697410576e-02,-9.373840524951971903e-04,1.635650435638808225e-03,6.257393181044485376e-04,5.031152963638305664e-01
3.682227801894913388e-01,4.670228673936506203e-01,-2.183226972452101400e-03,-3.439317084550462533e-02,-2.684303000046720411e-04,1.695192200862471674e-02,4.335541427135467529e-01
4.340163987607214557e-01,5.343589875888258289e-01,-3.046186082870799838e-02,5.620977243807762785e-02,4.729220110183732229e-02,1.864885673207427458e-02,5.381888747215270996e-01
3.136129502449593320e-01,5.299281248312579518e-01,-9.089939999228358047e-04,-9.116243862251343245e-04,-1.171703731595290709e-03,1.250612310649069046e-02,4.628477096557617188e-01
4.248852588174120148e-01,4.132051511803890298e-01,4.799077577332666600e-03,-1.178048887184426213e-02,-4.374113026138595414e-03,-1.079964833375991577e-03,4.149450659751892090e-01
3.065901671685724583e-01,5.230170517065686475e-01,-1.674380463582553213e-02,2.761149178434704407e-02,2.836559499452239244e-02,-2.288834848822224755e-03,4.754790663719177246e-01
3.324004201136696590e-01,6.848791477873947819e-01,-4.332152846722087114e-02,3.905523148798391731e-03,4.471549813829475695e-02,3.597169153495723137e-02,6.385673880577087402e-01
1.754495837848602524e-01,7.154419775872640219e-01,-5.435418843495709584e-02,2.513850897701359541e-02,7.984432243871273510e-03,8.721674798037809540e-02,7.024252414703369141e-01
4.313397011630634159e-01,4.357113467553108688e-01,-1.836426193004625507e-02,-2.022336599835335841e-02,-7.399270384198105080e-03,-8.696899428611447672e-03,4.536924362182617188e-01
3.049238883652993781e-01,5.238355169772754838e-01,5.139429073330259445e-03,-1.198192842913071293e-02,-9.412801172182025519e-05,-2.620147583393921033e-03,4.515203833580017090e-01
3.129556305816454387e-01,5.321685587155871033e-01,-2.420664706951958234e-03,-1.080508515675693629e-02,8.557579124204198195e-03,1.207449166850611127e-02,4.665387570858001709e-01
1.738614823981622926e-01,5.759983238980886933e-01,-1.045145460040731722e-01,-7.201906960886009235e-02,1.886868266335327282e-02,7.837749134397940798e-02,6.214578747749328613e-01
2.030658097724771238e-01,5.063975256857904395e-01,-1.155517004922573809e-02,-1.947910592056191770e-01,1.496848616442134940e-02,3.053706211198385992e-02,5.661042332649230957e-01
2.759009385177704776e-01,5.224264189795497781e-01,-5.061833492368739140e-02,-2.562138746891828855e-01,-3.009112261617958618e-03,-2.724288455709433787e-02,6.686369180679321289e-01
4.440803238641754525e-01,4.464644174447518488e-01,-1.704037229034421896e-02,-6.887785327263759930e-03,-7.224838998069801205e-03,-8.540438724525476963e-03,4.628769457340240479e-01
4.189153608235047788e-01,4.234169107818795963e-01,-8.500870566234275394e-04,-1.007310392499741539e-02,-2.920362587917386347e-03,-5.085614270539361333e-03,4.225168228149414062e-01
4.446033607043238245e-01,4.346314694593877981e-01,-1.401904246594737335e-02,-4.428398078784343689e-03,-6.234816325532115816e-03,-3.714466296671146452e-03,4.539575576782226562e-01
4.407593929129228205e-01,4.313189487384980758e-01,-7.665906348811424298e-03,-8.215955572293035490e-04,-6.042131210806401045e-03,-1.547313100697843107e-03,4.439141452312469482e-01
3.693948546985120207e-01,5.182240536344768778e-01,-9.977499851148541321e-03,2.565284498962051157e-02,-1.355279175402377724e-02,1.062007378557070988e-02,4.747618436813354492e-01
4.255431808867191634e-01,4.282558776666675615e-01,-2.785521547487013194e-04,-8.885737072901475977e-04,-2.672712541111052931e-03,-4.551943669107508250e-03,4.272851347923278809e-01
2.327118868902778859e-01,5.541316861174162556e-01,-2.765095934585959370e-03,-1.651534010697578575e-02,1.570831033642719129e-02,1.089165391329913884e-02,4.861702024936676025e-01
2.304205970904737166e-01,7.200654958112646664e-01,-1.009817347916967534e-01,1.749523330415125311e-01,2.497282329641245524e-02,2.226931212726815032e-02,7.791230678558349609e-01
3.542484519390793896e-01,5.098621092561675949e-01,3.815659218222022808e-04,3.042836215697823296e-02,3.161536053625289919e-03,3.163596552361989771e-03,4.553477466106414795e-01
4.779229601916766823e-01,4.691304488701821818e-01,-2.940443446080676093e-02,-3.601111261660589727e-04,4.621047782709375700e-04,-8.465628378739719490e-04,5.029919147491455078e-01
7.614463922150308539e-01,3.307231054794005920e-01,5.340178832403286169e-02,2.580084184635238545e-02,-2.228715079180327435e-02,-9.591153014209316541e-02,6.426216959953308105e-01
4.296062153510374904e-01,4.319534948429210597e-01,-8.097759607474164234e-03,5.410765270261746899e-04,-5.807229994215985271e-04,-1.538701189970036187e-03,4.388925731182098389e-01
4.804639157927165782e-01,4.722462390646836039e-01,-2.190810706919232853e-02,-2.626789749637089091e-04,5.921904881965618780e-04,-2.750155780130848597e-03,4.983380436897277832e-01
4.488598582260182601e-01,4.618035328790661698e-01,-3.527338845395200373e-02,-1.117641880831143734e-02,-6.458458359868162434e-03,-7.316940806975183800e-03,4.914056360721588135e-01
5.444856912260567228e-01,4.744153914929070126e-01,3.399365929178660428e-02,1.978462479104509397e-01,-8.616698972066754239e-03,-7.695523264043691025e-02,6.042848229408264160e-01
4.601883645274743029e-01,4.727213604802117941e-01,-3.880216863964391916e-02,-7.669978139535628913e-05,6.727875235818337428e-03,7.836873664731437705e-03,5.056901574134826660e-01
4.734071228880676885e-01,4.701487245399210146e-01,-4.028840040278852674e-02,1.895699967528234652e-03,2.720501823367501085e-03,2.253260762966346337e-03,5.121212005615234375e-01
4.609062152647075972e-01,4.676828894228182709e-01,-3.889782711718942076e-02,-1.179589150903244529e-03,-7.657249556287664023e-04,-1.224494088306190501e-03,5.032369494438171387e-01
4.924590212415355661e-01,4.369247500246991045e-01,-2.780251150401924498e-02,-3.425678986159755128e-03,-3.430128769863274862e-03,-7.481692055565305902e-04,4.949100613594055176e-01
4.538835554643894099e-01,4.673585260455705992e-01,-3.549230441190670549e-02,-5.031084294288429466e-03,-5.234253743667243580e-03,-6.907023295674436306e-03,4.965540170669555664e-01
4.750127795487930071e-01,4.702559500662443215e-01,-2.727828961433048649e-02,6.891419438466542561e-04,-5.333005363002242885e-03,-1.331231753628587752e-04,5.000164508819580078e-01
4.588183262866908363e-01,4.637710589321449861e-01,-3.673648509820087726e-02,-1.759723333957772607e-03,-5.903937340602608344e-03,-5.216269339551161434e-03,4.982458651065826416e-01
4.605621929674689752e-01,4.676199236996261832e-01,-3.889764789624361452e-02,1.279592861641379092e-03,-1.106665428471912034e-04,-2.841830303816187536e-03,5.030548572540283203e-01
4.704964107639844073e-01,4.636982553385160521e-01,-2.760306040404741923e-02,-1.923285726616390484e-04,2.423554922517117023e-03,-7.907081330209508006e-04,4.947552382946014404e-01
4.615509082135637042e-01,4.714405889867651078e-01,-3.901336659908172244e-02,-2.832576900973132533e-04,-8.894961968931603411e-04,-2.465740717702965754e-03,5.056023001670837402e-01
4.618558495961387900e-01,4.742412911414117804e-01,-3.727445684854024943e-02,-1.461180416969990836e-04,-1.234830934195335801e-03,-5.334093507793346038e-04,5.054422616958618164e-01
3.644217512333437492e-01,5.386829724548241050e-01,-6.633501034003752572e-02,1.916462420815332746e-01,-7.199818737209135074e-03,2.557570207687693761e-02,6.350474357604980469e-01
3.771557319316278245e-01,5.004602695456928929e-01,-8.865608489220966337e-03,-3.395880212265994097e-02,-1.482665855136851112e-02,-1.538640415862203847e-02,4.654502868652343750e-01
4.740797430471702101e-01,4.798374017351644261e-01,-2.185703949020900705e-02,-1.400108129111087658e-03,-1.877199531320227150e-03,1.410442759989233470e-03,4.988630115985870361e-01
4.094236908810214293e-01,4.572224992892790496e-01,-6.471146821947937333e-03,1.794168182163410202e-02,1.335682899910994523e-02,-9.821166965714308097e-03,4.437598586082458496e-01
4.342280280668270875e-01,4.628051134385029464e-01,-8.377266137612249253e-03,3.325762152784066551e-03,3.105093039668254968e-04,-5.907479040001148429e-03,4.577145874500274658e-01
4.678447437588014735e-01,4.363330308308942529e-01,-6.285506431688847595e-03,1.716448469841369909e-02,8.911536164153098516e-03,-4.073886938952704304e-03,4.604603350162506104e-01
4.504336640330957042e-01,4.438302721877523949e-01,-1.985053130831360146e-03,3.293137922100946441e-02,5.530885284000877644e-03,-3.830625674478568745e-03,4.529106020927429199e-01
4.955190607092679889e-01,4.118199421734954346e-01,-1.637402228643947133e-02,2.510068049640130569e-02,1.338505643890118384e-02,-6.400735560499008596e-03,4.782735407352447510e-01
5.367325843921038064e-01,2.911210238308085119e-01,-7.975135292822843613e-03,1.369916005379992821e-02,7.621240166131772013e-03,-1.328329623188167531e-02,4.738265573978424072e-01
5.032341851272362776e-01,3.493259860904198710e-01,8.842984441723156230e-04,1.642259803800950047e-01,1.409992850212875466e-02,-5.555265632783621538e-02,5.380451679229736328e-01
3.094165039256953631e-01,6.717316405583595440e-01,4.804247210758338937e-03,-2.397473000410699911e-02,-6.583028830763994199e-02,-3.487281313796454507e-02,5.939697623252868652e-01
4.773496088097199941e-01,4.715624416579042300e-01,-2.383191818175267596e-02,-1.363129641039026148e-03,1.962918613618504660e-03,-2.208395493809040249e-03,4.983450174331665039e-01
4.429205643354115485e-01,4.388541601403600501e-01,-7.635420550013649610e-03,1.636003518125314291e-02,7.179918236464553211e-03,-4.333542658448269122e-03,4.496654570102691650e-01
4.083514356224641761e-01,4.274170386131923571e-01,-1.191839319349735637e-02,-7.659201741233256922e-02,-4.079382953378254267e-02,-3.192598921798721345e-02,4.589685797691345215e-01
2.917242687355965924e-01,5.734146374250046474e-01,-4.280047779756268600e-03,5.551453675445126856e-02,-2.577033170558867131e-02,-3.758352052793107519e-03,5.114976763725280762e-01
4.781960292111683275e-01,4.188264531652913791e-01,-8.153278511109141036e-03,7.853056185638699477e-03,-6.307314422312194392e-03,-5.973515019196433060e-04,4.598820209503173828e-01
4.824672062973472952e-01,4.395337591406627831e-01,-2.039352677329459018e-02,7.905012848357895541e-03,-6.801527002341177519e-03,-1.024802714474211569e-03,4.831687510013580322e-01
3.773040293017556057e-01,5.107508899263013546e-01,-2.318251813912858283e-02,-6.577555821428285104e-04,-2.153963553160153158e-02,-2.421570605233753365e-03,4.827545583248138428e-01
2.171076232400753758e-01,5.820092363849422856e-01,-1.170383435249883197e-02,-5.348259047553574966e-03,-3.332284108045606430e-02,-1.434017511864429419e-02,5.225279927253723145e-01
2.710323114920917820e-01,6.155284903607871616e-01,-2.754123670649927247e-02,4.026839455274131702e-02,2.222388911539116552e-02,1.644405792385831774e-02,5.637719035148620605e-01
1.307733176054635127e-01,6.310336564429457340e-01,-2.158415110145422977e-02,1.147560180031676575e-03,3.158322241021803076e-03,9.419585631151113428e-03,5.916009545326232910e-01
4.770220528100180823e-01,4.743657964793712711e-01,-2.765365909625971952e-02,3.658674782673764121e-04,2.625353400669435972e-03,-3.357612918275773833e-03,5.034073591232299805e-01
1.517548031645287177e-01,6.646330913450586575e-01,-1.112278282540406504e-01,-3.502912236087572795e-02,-1.159666169376314358e-02,-1.179397010604967162e-02,6.867197155952453613e-01
4.752363009924374659e-01,4.775050583558709816e-01,1.910370654123422218e-02,-2.122764914715441053e-03,-5.667406039604187817e-03,2.711401536888847618e-03,4.574154317378997803e-01
3.748342258896356083e-01,5.156916057332801007e-01,-1.573640571345541472e-02,2.489250901210516079e-03,2.294067255833896063e-02,-2.706865434098656899e-03,4.785607159137725830e-01
4.697262212878624554e-01,4.773904705146195804e-01,-2.815565461922375778e-02,1.028859001704497027e-03,-5.077259098061649711e-03,-2.989825870676762233e-03,5.018648505210876465e-01
1.422878746781990056e-01,6.188570972149609606e-01,-4.776212853769612465e-03,-4.454690861698229476e-02,-2.892240543712337741e-02,-1.079618570009254278e-02,5.724025964736938477e-01
2.791464659851549679e-01,5.835141831646255550e-01,-8.204580049230913996e-03,-1.629317515955841511e-02,-1.937515805740239877e-02,1.383341419992859672e-02,5.149440765380859375e-01
4.759884688971033340e-01,4.691984778405333678e-01,-2.980211787126502143e-02,-1.109076815265358333e-03,1.709746083604315363e-03,-6.562839751975990156e-04,5.024436712265014648e-01
4.747030494613267426e-01,4.692811404938951325e-01,-3.061833334085467540e-02,-1.088750724327882920e-03,7.209015489430514170e-04,-6.458451474454619074e-04,5.026386976242065430e-01
4.765856677622619664e-01,4.709889505161432011e-01,-2.922384263404026461e-02,-1.743647773988105890e-03,-7.448259725507789630e-05,-4.139840117251522610e-04,5.030440688133239746e-01
4.758593781861970018e-01,4.698163853090854269e-01,-3.100482084758232615e-02,-5.534367912640470464e-04,-1.069054059174179751e-05,-3.013626934091870628e-04,5.038710832595825195e-01
4.903449725549023919e-01,4.583862703132109973e-01,-1.933635650037512921e-02,2.813184713442401508e-02,-5.437009362340310126e-03,-1.463041850498820020e-03,4.969677627086639404e-01
4.773907709411754907e-01,4.708500573519915910e-01,-1.855983081310663696e-02,2.389389041807999292e-04,-2.905926050721357318e-03,-1.763011308225053862e-03,4.927481412887573242e-01
4.788504115759212310e-01,4.708508364105209454e-01,-2.837031487596614054e-02,-1.388550950821996121e-03,1.165534325280205303e-03,-2.495998535376714022e-04,5.032786130905151367e-01
4.724369340543129736e-01,4.625924038090246104e-01,-2.875889012830279423e-02,9.692392697421112376e-04,2.592275647163598106e-03,-2.248525982470079600e-03,4.963852167129516602e-01
4.779184807371438248e-01,4.690735375676488017e-01,-2.876663055666545121e-02,-3.816850988863543888e-04,4.635959688022082926e-04,-2.325920103420159790e-04,5.023222565650939941e-01
4.595300222744754248e-01,4.611852853868920188e-01,-3.867748416837557546e-02,4.733593994535805838e-04,-6.258646293403085823e-05,-2.544883391707699542e-04,4.990380704402923584e-01
4.772719161319556314e-01,4.697691032008729506e-01,-3.036823164003649156e-02,-1.362248247501811295e-03,1.195574088997627222e-03,-3.533518212616031692e-04,5.039407610893249512e-01
4.687375658108718923e-01,4.615206978372771163e-01,-3.689945395707650011e-02,-2.290896997827480963e-03,6.935056166543453714e-03,4.600014936703635156e-03,5.022900104522705078e-01
4.964170446130668490e-01,2.675508001764952404e-01,-7.766339596995408545e-03,-1.640858270851385803e-01,-2.547593170430305712e-02,-5.521740454449116514e-02,5.320305824279785156e-01
4.490401987775896053e-01,4.574594149524109366e-01,-1.037612429460205155e-02,2.141631014699019956e-03,4.674875268228076246e-03,-1.040080003955743716e-02,4.641185402870178223e-01
4.726552937285816158e-01,4.683604711948456401e-01,-2.715720427886603172e-02,4.619722556635046367e-04,2.643418149041694160e-03,2.397538254655623793e-04,4.977008700370788574e-01
4.723400679854363737e-01,3.505204984321646511e-01,1.404926604665246437e-02,-1.534503259522527197e-01,-3.100550683502582491e-02,-8.140034503821907963e-02,5.122936367988586426e-01
4.664937897093113239e-01,3.426625631312885112e-01,-2.118567159132106470e-02,-1.131712572153226459e-01,-2.383689873399422871e-02,-3.041357112567685470e-02,4.854670166969299316e-01
5.411849931912463552e-01,3.481745193120293624e-01,-4.273470339934631879e-02,2.337198776393171196e-01,4.967436839675248850e-02,3.236847264136330504e-02,6.632747054100036621e-01
4.670851868842501031e-01,3.668411860235627486e-01,7.257826650905629950e-03,-3.861522871289638226e-02,-9.538771649855537146e-03,-4.017677998459041888e-03,4.244878292083740234e-01
4.760826326308351675e-01,4.746520899352270062e-01,-3.082018048054574466e-02,-4.053224733141302461e-04,-6.014204244254282860e-05,-1.934390804523780953e-03,5.062006711959838867e-01
4.779574408405499186e-01,4.713185450451748970e-01,-3.783528750291975662e-03,-2.487994383655921043e-04,2.899661048446841582e-04,3.803526963027557654e-03,4.785018861293792725e-01
4.774217788705766297e-01,4.743697865874945130e-01,-1.766498961151674596e-02,-1.359926156924772455e-03,-2.284776167559226558e-03,-3.238788743062710144e-03,4.936212003231048584e-01
3.591462964430155447e-01,4.770460348098602976e-01,4.357496790658721419e-03,-2.073005408694910540e-02,-1.703369342445571616e-03,-5.335565642048635190e-03,4.277712702751159668e-01
4.702294748528869084e-01,4.742641369500077975e-01,-2.339265128781947700e-02,2.952439542460633982e-03,2.234537777265308087e-03,-4.611191832095823395e-03,4.957576096057891846e-01
4.715464295068027556e-01,4.725178963250777908e-01,-2.878764133424732696e-02,2.809558299686858423e-04,2.546825661800318930e-03,-4.595190746467687007e-03,5.009034276008605957e-01
4.765253551475496785e-01,4.746408883796183198e-01,-3.066726180899448373e-02,-1.440694869168934918e-03,1.125232017900651979e-03,-1.616138561902375577e-03,5.062706470489501953e-01
1.799990620401364372e-01,5.910711566899351510e-01,2.370239809601779046e-02,1.333417403523074266e-02,-4.252593185782514024e-02,4.796434304427593838e-03,5.135035514831542969e-01
5.657377271176464717e-01,3.433152157981445018e-01,-2.012915483812938167e-02,5.072826988723881658e-02,1.462790450851584809e-02,-2.791098189690547834e-02,5.225905179977416992e-01
4.290028459735359956e-01,5.055485536124386670e-01,6.957927722145929028e-03,4.783994475239256982e-04,-4.593209727497871847e-02,1.936761230711248234e-03,4.718348085880279541e-01
5.535289274784014335e-01,3.155996385614209809e-01,-5.720975503657188543e-03,-8.929386890707107990e-03,-5.979891319334125965e-04,-6.264261093355133654e-03,4.864841997623443604e-01
4.522651890816531961e-01,4.908965285755330088e-01,-2.112709591935352238e-02,1.546232847191491688e-03,-2.423291247204539985e-03,1.901011392423188973e-03,4.938785731792449951e-01
4.625022573808063031e-01,4.615855891979295800e-01,-3.944513797117488174e-02,-6.595654749093752579e-04,-7.452078111332655986e-04,-7.120915990125866943e-04,5.014941692352294922e-01
4.498226106758836940e-01,4.434543765529344039e-01,-2.159953450484908277e-02,-1.907472734985218529e-04,-6.277008914844900075e-03,-1.715600110158918079e-03,4.684062302112579346e-01
3.786002828281266330e-01,4.444410721004595222e-01,-1.977784661873682737e-02,-1.405926277771873678e-01,-3.061241814640705897e-02,-1.782982951299482560e-02,5.023281574249267578e-01
4.661021712607320566e-01,4.627623654022735566e-01,-3.623580187641567418e-02,5.816728500625380303e-04,4.475127631357626520e-03,3.448329968628849416e-03,5.007730722427368164e-01
5.343548118393752766e-01,3.161655749838821472e-01,-5.306928838530233783e-03,-5.001971218597633939e-03,3.015079300188469071e-03,-2.487911492502028685e-02,4.722840189933776855e-01
5.106590618256870995e-01,3.738619516948367139e-01,-2.221816294760542432e-02,-7.015179928810743454e-03,-1.241375910666897564e-02,-1.970767276718747574e-02,4.811970889568328857e-01
5.193661687279235162e-01,4.105779595736586129e-01,-2.766655280421131957e-02,-5.564085870347156189e-03,3.790319435331226147e-04,-2.098675273051038917e-02,5.029747486114501953e-01
5.195178482178910429e-01,3.497604281463170262e-01,-1.802791672743292439e-02,1.911251542837224052e-02,1.343736885734268804e-02,-1.739521088582973024e-02,4.786083698272705078e-01
4.588521927452954285e-01,4.205632830594172589e-01,1.461604006822769808e-03,1.029894377559415451e-02,6.949969516328495869e-03,-2.481083721487833374e-04,4.400255680084228516e-01
4.591089591088545196e-01,4.161431907200840441e-01,9.202657839299521747e-04,1.170803664382335206e-02,-9.214489057197938196e-04,8.148783363199537657e-04,4.387622177600860596e-01
8.605154371772422150e-02,6.920952168563201390e-01,-3.780684232727832272e-02,3.914829074001580783e-02,2.641726351327154665e-02,-1.671207717421442640e-02,6.820723414421081543e-01
5.401786389751606077e-01,2.745518223483888187e-01,-4.387022403288642902e-03,-3.241978939637835816e-02,-4.320958596001873249e-04,-1.471289936996241464e-02,4.756692349910736084e-01
3.815002893723349331e-01,5.178907838404925856e-01,-1.877410193046624709e-02,1.922262203105496586e-02,-1.407008207987549796e-02,2.735277318959911368e-03,4.849128425121307373e-01
4.433605769606483449e-01,4.332507146975161372e-01,-9.663895449014581196e-03,-5.914655646876007186e-03,6.874920034450725768e-03,4.453362962041833122e-03,4.483967125415802002e-01
4.196965141833682855e-01,4.510287106180997929e-01,-2.052317085740162916e-03,-4.616875461122613503e-03,1.000856360544714364e-03,7.334013692883722957e-03,4.385161399841308594e-01
2.362012970792301547e-01,6.843811767328262796e-01,-3.199305760910159391e-02,9.496524310354639842e-02,-5.022008336086518365e-02,6.863449200012221828e-03,6.540301442146301270e-01
4.382213331069559903e-01,4.447841362827184564e-01,1.309514553335278109e-03,1.448378315066255889e-02,8.951945314699611203e-04,1.639348585203225829e-03,4.409559965133666992e-01
1.714372518161897119e-01,6.143350844545090172e-01,-1.264896521259484263e-02,-7.630346859886383108e-03,-1.193782065277821346e-02,-4.122606680604572714e-03,5.587761402130126953e-01
4.558826733970416933e-01,4.517370385815612233e-01,-3.321312574152979202e-02,1.478948519119981705e-03,-7.629469212731021001e-04,-3.238193093394170350e-05,4.870447516441345215e-01
1.507231166819705537e-01,5.993678976844756257e-01,-2.356510602795425235e-02,2.642383015054505097e-02,-3.830062714195001800e-02,1.935357535333231613e-02,5.634458065032958984e-01
2.476346845024617882e-01,5.903397835937609361e-01,3.920715453206324863e-03,3.970437031670168843e-02,-3.331841851640027913e-02,-1.440813157029214491e-03,5.181034803390502930e-01
5.199373301864844699e-01,4.790425299831699846e-01,-2.796509434858401866e-02,7.876312245512204213e-02,2.387000004049245200e-02,-1.713988215268104007e-02,5.483289361000061035e-01
4.845668007939938904e-01,4.860685838470407694e-01,3.316547703046734963e-03,3.035046953516367871e-03,3.234825370812422635e-04,-8.815166209441593556e-03,4.822736382484436035e-01
5.175103218884060663e-01,5.125702390409443421e-01,-5.206876169613461336e-03,5.376046953352144747e-02,1.200459142095401145e-02,-1.608946252562823767e-02,5.296743512153625488e-01
4.836945708724336157e-01,4.544954647122775304e-01,3.965834347939800608e-02,1.979844555165289309e-03,-5.123853725801274378e-03,-3.287541503486149201e-03,4.303234219551086426e-01
4.807783582393614918e-01,4.795681854100838359e-01,1.055976428825589064e-02,-9.175543309736575561e-04,-6.750215377220089748e-03,7.900137969864506199e-03,4.699621200561523438e-01
4.815118939286081035e-01,4.764966647404663136e-01,1.011992651748599981e-02,1.810221840778584871e-03,1.186438960283888377e-03,-8.895581106542269426e-03,4.691725075244903564e-01
4.748156707671072896e-01,5.017251692810837937e-01,2.039778921452134464e-02,3.812422966034160424e-03,-3.956570440425826417e-03,6.151972209248869443e-03,4.686704576015472412e-01
2.846400415181701837e-01,7.118874103217451843e-01,-7.848432760913964801e-02,1.691617729073876530e-01,1.102673585467952265e-02,2.482740100468752015e-02,7.467293143272399902e-01
2.861667314818884256e-01,5.396053738763476604e-01,7.464615660491946691e-03,-6.427066409942400497e-04,1.877989365388245315e-03,6.525460041799911910e-03,4.611718356609344482e-01
3.995889761232098158e-01,4.830283440123669392e-01,-8.349915331940738206e-03,1.081329837268578398e-02,1.174958048701671854e-03,-6.813194259259144382e-03,4.559699594974517822e-01
4.553950050060238119e-01,4.597333093106820145e-01,-3.268013315961881826e-02,2.076960270017838041e-03,-7.666882156775357967e-04,-4.011682193055469102e-03,4.903229176998138428e-01
4.311759235129211665e-01,4.559658493161768966e-01,-2.365369815179985125e-03,4.952595216068877808e-03,5.967654011449694679e-03,-3.747993509111594707e-03,4.467019438743591309e-01
4.716046732159674404e-01,4.630037119286042890e-01,7.635449801718247054e-02,4.714895107455662621e-03,3.290980355225364088e-03,9.364506691159202659e-03,3.914836049079895020e-01
2.620352322578199389e-01,7.738207624478070645e-01,-1.463120234133441500e-02,6.585510537334049452e-02,6.290597358767878455e-02,-5.996652928962347903e-03,7.106705904006958008e-01
4.106624925999659004e-01,4.425355037305334083e-01,-1.192911542662999924e-02,5.694714997705908194e-02,2.524864997707007650e-03,-4.174792671736092184e-03,4.504100084304809570e-01
4.708908028523634548e-01,4.757571097881014843e-01,-2.795303312690761155e-02,3.506015791923424157e-05,3.825251218626031340e-03,-3.812853812226511471e-03,5.013819932937622070e-01
4.673826667996984208e-01,4.797542179870736279e-01,-2.684663596128472607e-02,5.523835773886571088e-04,6.333412007153798565e-05,1.377866081406935606e-03,5.005363821983337402e-01
2.526294919699011432e-01,5.821403847218638017e-01,-4.686102947974946087e-03,-4.267309262556736454e-02,-2.093914771710848888e-02,3.399847222176374199e-03,5.161298513412475586e-01
4.672919079055391500e-01,3.979282023800171375e-01,6.008623293692338940e-04,2.010573980355800233e-02,6.668135286423431361e-03,2.399072775387670864e-05,4.377060234546661377e-01
4.581602038954105671e-01,4.414621656846994258e-01,-1.986578015608336800e-02,-1.166173952965335464e-01,-5.530657428123264552e-02,-2.819379603444005164e-02,5.226523876190185547e-01
4.420458602351605704e-01,4.487590852887930470e-01,-2.231656426333794574e-02,-3.541674876219711669e-03,-1.712530500825397949e-03,-1.112804696829736671e-02,4.682016968727111816e-01
4.822692354150523997e-01,4.567310043758322502e-01,-2.679642919217528618e-02,-1.079309963572716753e-02,-1.891501314491687846e-02,-2.507837314571889631e-02,5.001089572906494141e-01
3.817366486425452510e-01,6.445936661689570801e-01,3.252438213276359624e-02,-7.829961166359457325e-02,-9.716392572074550316e-02,-2.899248877145065711e-02,5.762574076652526855e-01
4.696459579151696095e-01,4.713551085943408214e-01,-2.420942265020104012e-02,1.379385767180031641e-03,-4.526566844002512940e-03,-4.842275304322816130e-03,4.948511421680450439e-01
4.978492553094604478e-01,3.822438320353839791e-01,-1.592364516374028538e-02,3.809449113627413810e-03,-1.383801567462862245e-02,-1.359367323908230313e-02,4.680861532688140869e-01
4.264114864599836130e-01,4.973438276298982608e-01,-2.826315372202742315e-02,-4.349090783954974297e-05,-1.266511456043490323e-02,-8.079613555307629119e-03,4.946601092815399170e-01
5.054264298164825586e-01,5.699887128641423217e-01,5.327723546979384883e-02,-1.067499445622955428e-02,1.532497939262665240e-02,-2.480487146217501271e-02,4.906029403209686279e-01
4.738551967618445659e-01,4.815159927725988775e-01,-8.101025702311526189e-03,-2.565667630555172195e-04,-5.643693699140772159e-03,-1.086036298796053459e-04,4.859305024147033691e-01
4.732237379277043354e-01,4.729315240963386513e-01,-4.171610751432491826e-02,3.149747451782484303e-03,1.552992261775432278e-03,1.387788087537976693e-03,5.148353576660156250e-01
4.684523597296600950e-01,4.683218946836025798e-01,-4.144667133272961212e-02,2.053027326881833796e-04,1.482272405299276969e-03,9.068257210666049633e-04,5.098428130149841309e-01
4.354426460051639136e-01,3.794640852324852043e-01,9.613756863155464849e-03,-2.587884903224150004e-02,4.556124936780688549e-03,6.161166876834491880e-05,4.033583700656890869e-01
5.998423687411746918e-01,4.632932290961088717e-01,2.714347370468617182e-02,8.058219435054214674e-02,9.188722744612329296e-02,3.999572161150140304e-02,5.639480352401733398e-01
4.843459386356713248e-01,4.697741489663497250e-01,3.796506470105953657e-02,8.052606719709261285e-03,-1.326541695787172154e-02,1.037869375348730513e-02,4.404648244380950928e-01
4.826998946082398101e-01,4.719341840737566462e-01,4.831106633726761634e-02,5.757174055862633415e-03,-1.212760436238400838e-02,3.774190806559927754e-04,4.297372996807098389e-01
4.598046772946437488e-01,4.587367767918253403e-01,-3.614661576074140736e-02,-8.220757599101979375e-04,-1.734407703818474297e-03,-6.056690584164239107e-04,4.954304695129394531e-01
4.742991687854610228e-01,4.758515414816871791e-01,-1.603299920977518944e-02,4.702093420033584374e-03,3.459731234443605332e-03,-1.316634174042357686e-03,4.912195801734924316e-01
1.379610989073119798e-01,5.478060070529037207e-01,-1.242669855554484615e-02,-1.481603636999934692e-01,2.479131577770865916e-02,3.067508420917133133e-02,5.681075453758239746e-01
2.935312327594175041e-01,5.256062827602832055e-01,2.185766136772337997e-02,5.782132574095681654e-02,4.299299772980080120e-02,-1.795822702865569652e-03,4.542012810707092285e-01
4.377858140593623437e-01,4.190377933611223460e-01,-3.626307201513173650e-02,-6.890968759517666908e-02,4.404455539465134545e-02,4.564407438453590288e-02,4.924448132514953613e-01
3.532685544602594541e-01,7.098488780545690879e-01,2.703720678317611537e-02,-1.298014507367109376e-02,8.849965584744104441e-02,5.567941574067990923e-02,6.190369129180908203e-01
4.500230247171295161e-01,4.473850040585315435e-01,-2.920770338189010440e-02,-1.576075847553190740e-03,-4.690077203026171357e-03,-3.416904285912004697e-03,4.780306518077850342e-01
4.618845017749513282e-01,4.893080863684675097e-01,-1.034247692587364487e-02,1.377495630915819219e-03,6.837351547632599183e-03,5.941275905329707237e-03,4.867775440216064453e-01
4.218979272642023326e-01,4.932618344779630681e-01,-2.318255554976667021e-02,-2.707854208574433583e-02,5.969000653488459873e-02,2.850075577798534543e-02,5.002773404121398926e-01
5.006418418169948925e-01,5.293436216690790008e-01,-2.453933733674501516e-02,1.858450569184278258e-03,2.595150037149892425e-02,1.492652043810108881e-02,5.425973534584045410e-01
4.506720143656175459e-01,4.560614351317895387e-01,-3.353237085589466648e-02,-1.041261499980008706e-03,-4.538980589533072284e-03,-1.330694206772740527e-03,4.869937300682067871e-01
4.510552520950187327e-01,4.485777190157714811e-01,-2.923520951113284250e-02,-1.885474845382765900e-04,-3.741547005349137381e-03,-2.826269658918596078e-03,4.791254401206970215e-01
5.385873621233788766e-01,4.417343321268950573e-01,-1.376278214177739656e-03,2.922078937938896170e-02,-1.041509239448128524e-02,-4.281977906037144621e-02,5.069829821586608887e-01
4.837683267193230718e-01,4.646853945033317945e-01,-2.320859988874057755e-02,-1.777019597629939855e-04,-1.511292149924378973e-04,-4.643164354456282006e-03,4.977750480175018311e-01
4.788567426695735652e-01,4.710371280158486273e-01,-2.995072146012056624e-02,-1.081183394023141906e-03,1.451814064969764216e-03,-9.273700323105633567e-04,5.049553513526916504e-01
4.672989471411831408e-01,4.615565148034286858e-01,-2.733288803431921377e-02,0.000000000000000000e+00,-1.731125163819687929e-04,-2.722189505125071404e-03,4.918084442615509033e-01
3.983788154453979935e-01,5.285274712718548429e-01,-1.662701772719860083e-02,1.727918264214758082e-01,5.615742436798978887e-02,8.890966442196742911e-03,5.851923823356628418e-01
4.966214652517234596e-01,4.681011613458727072e-01,5.359247338582234788e-02,1.000697013559305112e-02,1.730591096993329067e-02,8.865455717519465451e-04,4.308758974075317383e-01
4.599530570477388114e-01,4.554951475194394250e-01,-3.273555736540689765e-02,-3.297311165561629762e-03,1.785354760363904933e-04,-1.385803576572224765e-03,4.905140697956085205e-01
4.635378338475673043e-01,4.455965227346859736e-01,-5.259240403017451104e-03,2.085718429522425213e-02,1.654624956063364266e-02,-1.660411106417702606e-02,4.632874429225921631e-01
4.495665041316572186e-01,4.890421496911757648e-01,-2.772637038742575832e-02,-1.172644326011727193e-03,-8.546191046496957183e-03,-3.915434971343483917e-04,4.984294772148132324e-01
4.417307990775473647e-01,4.967455571701810402e-01,-3.031637544236492898e-02,-1.377941310919595340e-03,1.619306904426665765e-03,-3.045672196622736892e-03,5.018626451492309570e-01
4.422804363568557662e-01,4.868229570964221486e-01,-3.029843735051285236e-02,-3.171719469850142661e-03,1.525174815716412620e-03,1.562021484014090985e-03,4.963961839675903320e-01
2.520411637518627512e-01,7.569597253053457209e-01,-1.157184415236806041e-02,1.303133227104843750e-01,-4.091031651366163618e-02,5.193858524816319724e-03,7.166479229927062988e-01
4.972291291761337106e-01,4.493379263652361177e-01,-1.871200977007020372e-02,7.077228422943751540e-02,1.062507992485393557e-02,-2.018975740741738023e-02,5.102621912956237793e-01
3.010592259171680496e-01,5.448259767840977208e-01,-6.306687012051781505e-03,-5.920105182179021680e-02,1.073617860191964160e-02,2.682920614881757065e-02,4.917734563350677490e-01
4.623851692081782927e-01,4.823643030354523020e-01,-3.135304973468244771e-02,-1.072235224420258577e-03,-4.131031893852391587e-04,4.334660222426519206e-04,5.040293335914611816e-01
5.447030919746145283e-01,3.340386823217155188e-01,-7.491797469687255795e-03,1.376718572449338839e-02,7.029160038500449799e-03,-1.302997133718769400e-02,4.839391112327575684e-01
4.542710664324057790e-01,4.860793112846494290e-01,-2.960137384430822083e-02,-6.852828415158041724e-05,-5.179104765527189728e-03,-1.743678758256979799e-03,5.006246566772460938e-01
4.260608797937726067e-01,4.976489829267585208e-01,-2.684761157911552676e-02,-2.525303370527619447e-03,-8.309182273131564267e-03,4.101540601706524757e-03,4.929001331329345703e-01
4.671539366995621778e-01,4.657002836256563527e-01,-2.802089109596611616e-02,3.033970278276249249e-04,-2.292794158991440202e-04,-5.708430616348817918e-03,4.945488870143890381e-01
4.847748757181186141e-01,4.475901006337918986e-01,-2.372878272232770147e-02,1.409842087281889091e-03,-2.569252001331686340e-04,-7.793499666885504891e-03,4.911603331565856934e-01
5.414777883750865328e-01,3.023717439832121490e-01,2.817420548125670887e-03,1.367526293788968138e-02,6.815337698320533648e-03,-7.395793631796460533e-04,4.682219326496124268e-01
4.670766712641712393e-01,4.814639003864608635e-01,-5.895239100620064399e-03,6.487908852690084903e-04,1.189126073801480754e-03,2.375928093040290123e-03,4.803505241870880127e-01
4.667319752276120060e-01,4.586361830845099297e-01,-2.371090959072064130e-02,1.909622289787570601e-03,4.071027625416482991e-03,-3.944250200536256711e-03,4.865558147430419922e-01
5.178387410454670103e-01,3.618616895840515157e-01,-1.001373766965579781e-02,7.693725359343244613e-03,1.261948882704605653e-02,6.762787865831596011e-04,4.704050421714782715e-01
5.088196515661116415e-01,4.041412315522616150e-01,-1.837759518517773083e-02,1.349963457378277297e-02,1.037997231450950124e-02,-1.227626349699047388e-02,4.847993552684783936e-01
4.774190075178871284e-01,4.755186595328585453e-01,-2.969383849005363674e-02,-1.881587554137268727e-03,-3.573827526427389325e-04,-1.299114042521333110e-03,5.061812400817871094e-01
4.728856763933997343e-01,4.413780746484728401e-01,-1.796004803057293930e-02,1.573009364433773302e-02,3.291601497458729493e-03,-1.039429556191016207e-02,4.770281016826629639e-01
4.715018708192729724e-01,4.704534438896847970e-01,-2.890282520896830798e-02,9.076085486294492317e-04,2.462859380629649295e-03,-4.248235319974562850e-03,4.999561309814453125e-01
4.654951192059567644e-01,4.588093721134281489e-01,-2.395598941023530104e-02,1.190401789409224406e-03,4.609917711068942277e-03,-3.473945560953091254e-03,4.862498939037322998e-01
4.541193667768865794e-01,4.891899714045697678e-01,-3.032473301281490841e-02,-3.740008913084961768e-04,-5.296093277518843824e-03,-1.416560415504369060e-03,5.029874444007873535e-01
4.399401122245049089e-01,4.671675413721586012e-01,-1.811950642481513496e-02,7.136174983633366067e-03,-4.822955877778054750e-04,-6.564697808872638554e-03,4.725616276264190674e-01
4.632100954239128932e-01,4.568371329192471020e-01,-2.089092394635044814e-02,4.859486470838370563e-03,3.115349062060342872e-03,-3.977416744451257695e-03,4.810994565486907959e-01
4.727106212807357655e-01,4.795107974123045125e-01,1.138598642055776988e-02,5.167901442923898215e-04,4.932426320376998539e-03,-2.125906951721850523e-03,4.648559987545013428e-01
4.762946563708879699e-01,4.711896724254167057e-01,-3.042245758241862719e-02,-1.482208902531698515e-03,5.243753117001179664e-04,-1.113760969808485135e-03,5.041950345039367676e-01
4.668318399785653106e-01,4.548926626940765217e-01,-2.197804266595959621e-02,1.930389235837370486e-03,4.359710512372939363e-03,-6.600221934435694486e-03,4.831568598747253418e-01
4.714104334771835325e-01,4.698121514440699587e-01,-2.913369110735863909e-02,4.624434224676291210e-04,2.806878860442745330e-03,-3.860053281602724221e-03,4.998159110546112061e-01
4.769469675821929044e-01,4.727738944013779032e-01,-2.910269552167116247e-02,-5.116292109863082756e-04,-7.492526507785564251e-04,-1.053770478641788194e-03,5.039818286895751953e-01
4.782149844753009749e-01,4.750357015596093357e-01,-3.357056540932162880e-02,3.338428854562760020e-03,3.396513403786369668e-03,2.777619501720253719e-03,5.102927088737487793e-01
4.629124691512185863e-01,4.967955116641140645e-01,1.883490627304651444e-02,7.573004714268402604e-03,-1.491431433892083380e-02,-1.234742445433399671e-02,4.633533954620361328e-01
5.668196869234094493e-01,3.941269910912418295e-01,-2.333417104193713509e-02,-5.984234671297902070e-02,-1.543451478173906918e-02,-4.245390798986922037e-02,5.413447022438049316e-01
4.558068851345119521e-01,4.741477511886943996e-01,4.202769146734425254e-02,-1.052734660607029631e-02,-2.985935044350613351e-03,-7.128467438900850002e-03,4.238517880439758301e-01
4.810133860837345621e-01,4.753589970606886816e-01,-1.819517937559755882e-02,7.147118127146610128e-03,4.925890682862207361e-03,-6.805084329254134680e-03,4.967730045318603516e-01
5.636877172924561474e-01,3.661820176942384153e-01,3.575685910613773943e-02,-1.610327343522667196e-02,-5.016252380884222289e-02,-9.329033932402275298e-02,4.978817105293273926e-01
4.781556073149784147e-01,4.760382022520583956e-01,-3.350571569712007536e-02,2.858658977375974890e-03,3.555620236063664931e-03,2.599786221387247274e-03,5.106869339942932129e-01
4.794054951659524888e-01,4.794501127832481169e-01,-2.622484513214018431e-02,3.261715043333611105e-03,-3.792298543275717318e-03,2.773367755484440304e-03,5.057497024536132812e-01
4.783276088695332939e-01,4.684502726250646676e-01,-3.750473733396281206e-02,2.845791729566514265e-03,2.498010727746107461e-03,-3.006978140303156999e-04,5.110076665878295898e-01
4.557102724206176791e-01,4.907965643416901114e-01,-3.242216382655149776e-03,2.821555210250248965e-03,-2.552865294870432624e-04,9.862956744208967869e-03,4.777942001819610596e-01
4.232399525964328779e-01,5.092493567684052147e-01,-2.519347075273187242e-02,-1.150192417679933750e-02,3.776297779018319544e-03,-3.993359621909518820e-03,4.975410997867584229e-01
4.682173221486559123e-01,4.811128265342165533e-01,-1.234040103090666696e-02,-4.134813270028928566e-04,1.615040894299048105e-03,-5.225463578472921977e-04,4.871429204940795898e-01
4.754852766563674171e-01,4.766992360434917364e-01,-5.405730677885856039e-03,-1.608174110411009520e-03,-4.366111477289092574e-03,9.756772471665540319e-04,4.815695285797119141e-01
4.788926081333247931e-01,5.495580390719972952e-01,1.677223967926605441e-02,1.267165055520061250e-02,-3.031900422407718745e-02,-2.631973940501265100e-03,5.044452548027038574e-01
3.636740217019397425e-01,6.677848553239489338e-01,5.816082916366954736e-02,3.206576345503293207e-02,-9.088662883966161510e-02,-4.358738340017435237e-02,5.588353276252746582e-01
4.618563355944375060e-01,4.115152232754051842e-01,-9.215410374106058899e-03,-6.046462602451192943e-03,-1.166010169789526499e-02,-9.803773060549734065e-04,4.486078321933746338e-01
4.956350504621851449e-01,3.060057961144729832e-01,6.727406231598787034e-03,-9.496039713172646501e-02,-2.614273329524382031e-03,-2.430797818300426891e-02,4.594826698303222656e-01
4.804014573528601062e-01,4.767293822438200546e-01,-1.800032953578356576e-02,-2.520548705386439423e-03,2.534625213389090671e-03,-2.753777445156294860e-03,4.966374337673187256e-01
4.512508517077577497e-01,4.994276295288221368e-01,-3.042710469971759979e-02,1.552893211068221389e-02,1.932463927707131967e-03,-3.251429581160997923e-03,5.082388520240783691e-01
1.815202013333063469e-01,6.649838052056679105e-01,-1.148307313878121905e-01,-1.082814976766931225e-01,1.340489449017270851e-02,3.975789791282528102e-02,7.108386754989624023e-01
2.942504421044099816e-01,7.411831626116023308e-01,-2.246370406883990700e-02,7.041412122830620346e-02,4.212530488977681009e-02,1.915519733471700986e-02,6.803715825080871582e-01
3.328574985703398603e-01,5.397790050548768592e-01,-4.242161364319541050e-03,4.280407277403812231e-04,-1.043851409859924582e-03,2.307126845891462833e-03,4.756318330764770508e-01
3.985666580887683441e-01,5.204347004500513574e-01,-5.706820347993302178e-03,1.031299634699916895e-01,3.135887777799783419e-04,7.908374635713753473e-03,5.095607638359069824e-01
3.400403178228570966e-01,5.198260860380441439e-01,5.760080348529483807e-03,7.445977392208552419e-03,-2.816664969326410778e-03,5.846453709563453720e-03,4.521699845790863037e-01
3.959447466732404219e-01,5.002685252782890224e-01,-7.677156956606701055e-03,9.289941877077495178e-03,-1.951212426783333629e-03,-7.084105332756059949e-03,4.651046395301818848e-01
5.033711585947445721e-01,3.853624896019883783e-01,-6.796379007335595634e-03,-3.314215719470189198e-02,-2.481447624971040017e-02,-3.622167513341668227e-02,4.723042249679565430e-01
4.609065560925006411e-01,4.632475084292014267e-01,-3.918470586929168054e-02,-3.221197810949289137e-04,-7.616294537064521777e-04,-2.758244818650962531e-03,5.012906789779663086e-01
4.618480853733198943e-01,4.659006815614034069e-01,-3.998654034468185348e-02,-3.822573991001573102e-05,-4.571772617798399016e-04,-1.614763790840536900e-03,5.038815140724182129e-01
4.604903997360840773e-01,4.632827009991838940e-01,-3.885995189553281826e-02,1.041757664843231176e-03,-3.607371664555058719e-04,-1.718874395221302526e-03,5.007648468017578125e-01
4.651128319737012906e-01,4.623194252734106335e-01,-3.904675804496771097e-02,-2.127253277944884187e-04,-2.124640535262150264e-03,-1.104409548838448637e-03,5.027859210968017578e-01
4.908662947068485050e-01,4.372676565796561610e-01,-2.673048141381101361e-02,-2.779347783671497641e-03,-5.068261400583991445e-03,-1.292053644193336950e-03,4.930942952632904053e-01
4.630322494453696369e-01,4.601063725822629458e-01,-3.865499725591742264e-02,5.194316502102779476e-05,-1.430143487386844030e-03,-3.143018185398761366e-04,5.002371668815612793e-01
4.668700576385104162e-01,4.533312769426341982e-01,-3.396617960618208976e-02,-4.989227163699646011e-04,-7.499510502810517211e-03,-5.487126446802538700e-04,4.943782985210418701e-01
4.442849468605660768e-01,4.473598176648925784e-01,-2.753044975802504402e-02,-6.386486489378945600e-03,-6.462494957955740825e-03,-2.797305113842943683e-03,4.736466109752655029e-01
4.578212430003239519e-01,4.447879946153080466e-01,-2.981744872933750345e-02,-2.210856844007001634e-03,-8.490956880322322875e-03,-3.827819931550110154e-03,4.815399944782257080e-01
4.813888025210770749e-01,4.241115731351576823e-01,-1.867668986611015214e-02,-6.052225044270476140e-02,-2.403323058320764802e-02,-3.900583279458439551e-02,4.919245839118957520e-01
4.654619268155422707e-01,4.599578751824789369e-01,-3.853914567037475258e-02,3.500284540808029101e-04,-2.613304138086390734e-03,-3.110140748598811257e-04,5.012928247451782227e-01
4.857692991753484457e-01,4.792158483198505348e-01,2.253500616743181473e-02,1.195816465918058194e-02,4.041203955217878910e-03,5.029551057394069692e-03,4.605942368507385254e-01
4.830714374606773776e-01,4.608165126537345224e-01,-2.768038635438485606e-02,8.372000797355561778e-05,2.553534366038264034e-03,-3.596463393976987149e-03,5.000543594360351562e-01
5.813928621435525690e-01,3.296005493796498320e-01,3.027488793058513705e-02,6.804541745402919832e-03,-8.096334177353232964e-03,-7.660822599913459652e-02,4.962913990020751953e-01
4.743531504442981550e-01,4.656342617266164274e-01,-3.447460444192718132e-02,5.670144281648111309e-04,-7.353689229919137607e-03,-9.248915701782203444e-03,5.049406886100769043e-01
4.804735670111429657e-01,4.628973520084207482e-01,-2.872468032307468055e-02,5.602065869769533128e-04,-2.443797961277245894e-03,1.006408892400246667e-03,5.006634593009948730e-01
4.786235426243723445e-01,4.730514401017904547e-01,-1.703271488062524375e-02,3.693769883404418586e-03,-2.641661379756665793e-03,-5.217554903219643291e-03,4.930393993854522705e-01
4.715991995651662716e-01,4.506023719675734673e-01,-3.282937720078155097e-02,-9.715780822650035798e-04,-6.942869605852870427e-03,-8.194648833640150740e-04,4.944159388542175293e-01
7.913130821742637711e-01,1.435251442438025826e-01,-9.614456402265691981e-02,4.495002805248719119e-02,7.172772420471555145e-03,-1.963582183383464144e-02,7.998115420341491699e-01
4.542160735596871279e-01,4.586256821197862710e-01,-1.911349025650144196e-02,4.685054976817673751e-03,-4.438579611398628562e-03,7.557031526539864956e-04,4.756828546524047852e-01
4.656261809070684210e-01,4.840012678303595717e-01,2.492915780323479158e-02,4.890067658401373463e-04,3.181886143843657127e-03,4.801358956525587397e-03,4.502772688865661621e-01
4.796660297796203620e-01,4.813853110059746476e-01,5.395715459654459867e-02,1.428891418073661903e-03,3.170410203352490904e-03,-1.573644332976657442e-02,4.274834394454956055e-01
5.016072189700555573e-01,4.854856597322371181e-01,3.353963153234990058e-02,9.804439427689786660e-04,5.297215500336722657e-03,-2.295511795027049134e-02,4.620271325111389160e-01
4.740864857320900017e-01,4.808437502566166311e-01,-1.152995028136860611e-02,-1.714367339421990575e-03,-4.452161864931516652e-03,2.919020291121968147e-03,4.891260266304016113e-01
4.713870187365977737e-01,4.787311338356645685e-01,-2.861931694840363916e-02,-1.076672994000181082e-03,-1.743237459914252644e-03,1.495219805825086885e-03,5.037376880645751953e-01
4.698797353027635015e-01,4.759860065484370351e-01,7.293529567039103156e-02,2.838918145442714900e-03,-6.306657536967316333e-04,3.864754768161090485e-03,4.001202285289764404e-01
4.859123722729656869e-01,4.958046689850431621e-01,9.934623304927309162e-02,-1.234159373103874656e-02,-3.394856827729960010e-03,-1.647412517935815252e-02,3.932695984840393066e-01
4.884981566130268682e-01,4.797200055260069096e-01,-1.300542430103640568e-02,8.396318114563343024e-03,3.527690541277287740e-03,2.545419794017221050e-03,4.974423348903656006e-01
4.790955356334121173e-01,4.728970604563592639e-01,-3.002323340021778586e-02,-2.113604097115764831e-05,-2.504150656050492269e-03,-6.595681879561177087e-04,5.060678720474243164e-01
4.744554916354547514e-01,4.812806496429894443e-01,-2.482326847538618431e-02,-7.708721438834478280e-04,8.139583661730678214e-04,-3.500490098107122885e-03,5.027663707733154297e-01
2.003243255607573270e-01,6.984496125669639177e-01,-1.637503811347651439e-02,-6.465214821103416887e-02,4.711197979612377629e-02,9.163121147142939960e-03,6.499854326248168945e-01
4.249649567955784413e-01,3.580933319338023280e-01,-1.052886070192751156e-01,-2.700284759026236880e-01,1.130474959621674547e-02,1.005440473043134851e-02,6.852842569351196289e-01
3.784169226206099967e-01,4.668823393879135697e-01,3.058900969146738369e-04,-9.599910077350290796e-03,7.344381923879132572e-03,1.470334276412603274e-02,4.305005073547363281e-01
4.078359065035850883e-01,4.377512843148282373e-01,2.891470090455816599e-03,-6.828236202163807077e-03,-1.433256002944918554e-03,-3.300139343721199617e-03,4.209129512310028076e-01
4.187839695764740133e-01,4.388284294724795753e-01,-7.907132194174826267e-03,-4.841005490925273311e-03,-1.470969086588908925e-03,-7.905885577996410798e-03,4.373604655265808105e-01
4.472473415282166020e-01,4.307010412250987796e-01,-2.064126400838989239e-02,-3.663595869363123897e-02,-2.820923308572791111e-02,-2.847153778208326783e-02,4.693585634231567383e-01
5.245602625999455926e-01,4.478924057199965003e-01,4.792885866322460497e-02,-5.593109157700047046e-02,-4.301830434228941236e-02,-3.215455965619128109e-02,4.631970226764678955e-01
1.673448315467555569e-01,5.223399294615673760e-01,-2.140760775943173488e-02,-1.776227281141228298e-01,3.340430061431026720e-02,2.504266321858687402e-02,5.731785297393798828e-01
4.068273447395205911e-01,4.444637514524550914e-01,-2.527885240279081902e-03,-2.885641209465078516e-02,-7.824751646329947477e-03,-1.109077700427750328e-02,4.329499304294586182e-01
4.130230070199364945e-01,4.090332622340949742e-01,1.752560027102834095e-03,-2.971689620476855587e-02,-6.135612856049477322e-03,-5.693802344426260494e-03,4.127686023712158203e-01
3.730187392057293660e-01,4.714210421038205201e-01,-5.378244966602274690e-03,-1.427091896005877082e-02,-7.963342553690173561e-03,-1.428875165512489068e-02,4.376255869865417480e-01
4.402166249216241112e-01,4.749651155441544370e-01,-2.764145187410527171e-02,-2.490340655105166209e-02,-1.770978324583887681e-02,-1.650809757273961551e-02,4.898724257946014404e-01
2.881528561542608946e-01,4.872442763690443268e-01,-2.769851085504249077e-02,-2.485890606332133990e-01,-2.897205350767029230e-02,-3.020183598031245947e-02,6.268388628959655762e-01
4.435476016585078174e-01,4.141978832573328106e-01,5.994575764025900089e-03,-4.730538001196005378e-03,2.995680467969435469e-03,5.412203164231403196e-04,4.237533807754516602e-01
4.621996771739370624e-01,3.671723611968180645e-01,9.570362973382429139e-03,-1.332307733997416775e-02,1.071541374985881569e-02,3.970426110962173467e-03,4.145064651966094971e-01
4.725777313111551026e-01,3.811302731429612178e-01,-2.039302878871179781e-02,-4.759498110862415976e-02,-2.104567570493403803e-02,-2.598329912841015193e-02,4.652439057826995850e-01
4.984578044780604289e-01,3.365084855329840696e-01,4.773171529248387834e-03,-1.353471359371186122e-02,1.736978363760062830e-02,1.481260969054415746e-02,4.383071362972259521e-01
5.679387397581727726e-01,3.666545290561600279e-01,4.168461000827849983e-02,-3.154285186051646039e-02,-1.048617672663872818e-02,-9.447645318702406481e-02,4.915528893470764160e-01
5.725603813731559022e-01,2.146369241714418674e-01,1.756107800184036893e-03,8.001106479360389767e-02,3.411438991208184685e-03,-7.892501575443221229e-02,5.362370610237121582e-01
7.750281444990445578e-01,1.523486266667513911e-01,-2.850083330943181670e-02,4.031562239574338485e-02,1.641003437914853244e-02,3.628532354160817711e-03,7.340102195739746094e-01
6.061118172683648275e-01,2.936327691341632518e-01,-1.557488997591083280e-02,9.285830313708100248e-02,1.702933418982276875e-02,5.037644180725575106e-03,5.627499818801879883e-01
5.052665248350611815e-01,3.357186942438605826e-01,-9.342853016989671744e-03,5.896805894869498743e-02,7.853550779928586065e-03,2.780884868042424185e-02,4.682468473911285400e-01
3.460747708579228199e-01,5.292494340259512597e-01,-4.431806492125600627e-03,6.893779110317277414e-02,-8.745331542733514665e-03,-8.484942177856894668e-03,4.850921928882598877e-01
6.125070561323764373e-01,3.303505411354354382e-01,-2.275819677044366163e-02,2.080885809278754800e-02,-9.243877543183541285e-04,-2.347198328032989306e-02,5.539714694023132324e-01
5.728438223301821619e-01,2.591459944898040213e-01,-1.616877390847837326e-02,-7.616419071717116240e-02,-1.135005575051073641e-02,-4.552114671304317156e-02,5.334568023681640625e-01
4.956626858373806566e-01,3.858103178927234644e-01,-5.187588403265941395e-04,1.175899214798564463e-01,-1.358895295577313735e-02,9.552795444797086699e-02,5.226564407348632812e-01
5.528265473677056452e-01,2.710212808914767013e-01,-8.164902480336577728e-03,-2.480420806367286679e-02,1.336251003768539926e-02,9.951200201988282326e-03,4.885834157466888428e-01
4.652960819389877489e-01,4.076062884425480926e-01,-3.303023283199257865e-03,2.258315698802521032e-02,5.552611122136913262e-03,3.942783156401874142e-03,4.444648325443267822e-01
2.032033582722088116e-01,6.278214983800891602e-01,-7.428161571794206219e-02,-1.692919694644237638e-01,-4.871696957243092097e-02,-3.294896204257433125e-02,6.866438984870910645e-01
3.290318611818535133e-01,5.621057290420015118e-01,-2.312693418588968042e-02,-2.365746988748923182e-02,6.882396686252321982e-02,2.043893702220278552e-02,5.268403291702270508e-01
3.632544518020667801e-01,4.779112813310466001e-01,-7.269690444390519701e-03,-1.854675044854731114e-02,-1.672973451294375302e-02,-1.472995401186652335e-02,4.420859217643737793e-01
4.622533803049169165e-01,4.683600314830049793e-01,-3.895582497686578272e-02,-4.825244158011267282e-04,3.572634295771719062e-03,5.869248970944421738e-03,5.044313669204711914e-01
3.586776997007421475e-01,5.096075045163301898e-01,-1.236625789121620356e-02,-1.037939058835854467e-02,5.127592114765179392e-04,-2.476512870133702662e-03,4.656150639057159424e-01
3.162096597477586091e-01,5.106237922822476349e-01,4.343396767105101031e-03,-2.716459591728021331e-02,-1.543873981408167267e-03,-5.575216269743683145e-03,4.449750185012817383e-01
3.579604900679451140e-01,4.750716977642449601e-01,4.775624088990515492e-03,-2.229310363988305094e-02,-5.823026993380531072e-04,-5.173761473048267903e-03,4.258975982666015625e-01
2.804223832263162963e-01,4.258830234409712867e-01,-9.553132434036126774e-02,-2.585588930166776711e-01,-2.126275611023250786e-02,4.409202868959557174e-03,6.474250555038452148e-01
5.054904536415016914e-01,4.658385240992162224e-01,-2.143097626921364185e-02,-4.044046959478100889e-02,-1.745431969561591148e-02,-2.650369689900729242e-02,5.159966945648193359e-01
3.266567300570079047e-01,4.972682612617908005e-01,1.144576099144500869e-02,-1.869731406846245059e-02,-1.377360391996743224e-03,5.102754426244476491e-03,4.282259345054626465e-01
5.258504942661065273e-01,3.058580815052582835e-01,5.259675428153587351e-03,5.626333694334936623e-03,9.293388712085334791e-03,1.780263494059498158e-02,4.540818333625793457e-01
4.369226169009621241e-01,4.392243454969281813e-01,1.678503896970717779e-03,1.896542770391187668e-02,9.379487396704180944e-04,6.186128980528274616e-04,4.376384317874908447e-01
4.421342890595023611e-01,4.442845753338969805e-01,-3.970296915392579340e-03,1.837812854463937188e-03,-3.697359906819309202e-03,2.340240657789841201e-03,4.472591578960418701e-01
5.232930664069093130e-01,2.871011696910152344e-01,-2.581089057887997473e-02,1.645387069973777427e-01,6.636089869099423902e-03,-5.271033608476777266e-03,5.559157133102416992e-01
5.421761023038207394e-01,3.557667976538094190e-01,-1.407696666720120726e-02,1.020122146530157564e-01,4.622798460932261988e-03,5.747063119212516766e-03,5.213998556137084961e-01
4.380668828530287495e-01,4.552171508247375153e-01,-7.887242857636755922e-03,6.766942972014150341e-03,-7.430280702629119861e-04,5.131275653199067997e-03,4.550115168094635010e-01
4.337913053402168706e-01,4.472774685672289419e-01,3.653486957431173465e-04,3.996700257581458499e-03,-6.248915388237460695e-04,5.599567061984266579e-05,4.403797090053558350e-01
4.467605168707888819e-01,4.394234717807368185e-01,-3.988456772285653429e-03,6.035764459332178949e-03,-4.428403351844125042e-03,2.677905376319182802e-03,4.473376274108886719e-01
5.395429601005878872e-01,2.469109157130031651e-01,-1.088660625796225023e-01,1.483101695089028282e-01,4.214604617929217784e-02,5.133673457306068416e-02,6.289240717887878418e-01
4.707612236608951228e-01,4.717071313708617319e-01,-3.297369461945698355e-02,1.138864593352304855e-03,-4.718442717646677102e-03,-4.721397614052128162e-03,5.043449401855468750e-01
4.300255337736318961e-01,6.786915489298585014e-01,6.221831186630477628e-02,-3.017030911148963976e-02,-8.985114808036619161e-02,-5.267981713351799905e-02,5.690817236900329590e-01
4.693434794943762700e-01,4.754539326251674414e-01,-1.946607686532580983e-02,1.465385349271133104e-03,-6.847270137841397070e-03,-6.049695506667701617e-03,4.921543002128601074e-01
4.636496321750620542e-01,4.768902637178245585e-01,-3.549962949481200170e-02,1.042520696944630818e-03,-1.674852652244924415e-03,-2.538200564563445477e-03,5.059301853179931641e-01
4.587896576196276444e-01,4.455444993742578852e-01,-3.112570072687603773e-02,-5.932205344180134119e-04,-8.712569899137810950e-03,-2.752487380878408316e-03,4.836889505386352539e-01
5.004519746816259440e-01,3.558574032060187742e-01,-1.175402431206767906e-02,-1.845206772710820259e-02,-9.814118056731524140e-03,-2.324126643319348782e-04,4.588146805763244629e-01
3.297226370047940947e-01,5.444873152301084041e-01,1.736831116502163264e-02,-1.336670552556182001e-01,-7.107065781012836259e-02,-2.174794922998619928e-02,5.300419330596923828e-01
4.655056957555266384e-01,4.221732042009419539e-01,-1.867622640609656326e-02,-2.497654828426655593e-02,-1.452442585267617325e-02,-1.118630746750180587e-02,4.671282470226287842e-01
4.703392816784687236e-01,4.819828198768166816e-01,-2.386661769318965121e-02,6.879013390883628428e-04,-5.875129375328109506e-03,-2.959919062748651419e-03,5.002605319023132324e-01
3.895634834284471548e-01,4.715040036069767515e-01,-1.337419127831585008e-03,-4.352793130997033300e-02,-1.107593248908587090e-02,-1.472190787051238896e-02,4.452534914016723633e-01
4.630728749774069564e-01,5.492252720114949582e-01,-4.368510141013859371e-03,-2.091407670940910110e-02,-2.742400054496672498e-02,-2.026258469493055769e-02,5.205718278884887695e-01
4.989537006490851745e-01,4.467133856060239161e-01,-2.500637306736858134e-02,2.155464062988299637e-03,3.507268572083171217e-05,-7.212174637170377239e-03,5.000613331794738770e-01
5.909124577554627500e-01,5.208693238893409294e-01,7.763543797339900188e-02,-6.952366830286661747e-02,-8.946019217937487000e-02,-1.139286237185725137e-01,5.566480159759521484e-01
5.256863249787635528e-01,5.346405588612688220e-01,1.003352719281360717e-01,1.956560041187615367e-02,-2.429110000783525278e-02,-1.300861934504470192e-02,4.338648021221160889e-01
4.674385193363653768e-01,4.527984612079729576e-01,-3.043820769437971530e-02,-5.121557671828479673e-03,-1.050896179017395474e-02,-8.008302211391499920e-03,4.913339316844940186e-01
4.630323780952156354e-01,4.579261634611443421e-01,-3.762260074668405396e-02,1.279408632965036720e-04,-2.733486048747046579e-03,-1.916017966742478498e-03,4.981551170349121094e-01
3.640028477855871136e-01,4.938628358211981650e-01,-1.174802814812297980e-02,-2.014523395768108224e-02,3.030461621931726957e-04,-7.686173846933143546e-03,4.563357830047607422e-01
4.510105851813722699e-01,4.908626786431386502e-01,-2.747465754713740438e-02,1.018327970366459138e-03,-8.778137464986764463e-03,-6.822687851108815609e-04,4.998406171798706055e-01
4.795616304042106259e-01,4.785293201627644488e-01,5.170067109716958154e-03,5.877911670548631798e-03,3.103034727397407239e-03,-4.142576313250333903e-03,4.740703701972961426e-01
5.165595593646805650e-01,3.742198625971310810e-01,1.513401402704878107e-02,-1.419407249564476059e-01,-9.113824121554077104e-03,-5.677285876200374726e-02,5.202649235725402832e-01
4.804987724262936855e-01,4.601448145501741971e-01,-2.787981869569067239e-02,-1.477621951548676368e-03,1.900217856610199926e-03,-3.927919078608482772e-03,4.985772073268890381e-01
5.098425613247565824e-01,4.817115830652243247e-01,6.878155891833576119e-02,2.533227689060379983e-02,-2.626131889308290501e-02,-1.494589608493960588e-02,4.331084787845611572e-01
4.789839490810653411e-01,4.792081808832938106e-01,-2.712434775592498237e-02,7.778259196245411239e-04,1.873029524502371670e-03,1.422335139954629098e-04,5.062326788902282715e-01
4.693560008672823525e-01,4.816718870980739586e-01,-2.800719487453051659e-02,8.969772518270711058e-04,3.661695794443507908e-03,2.761052961250145838e-03,5.036991238594055176e-01
4.783750864436055461e-01,4.691919600873301066e-01,2.318947849816943574e-02,-1.122170257490012410e-03,7.420319165235266315e-03,1.758102846980872042e-03,4.508619308471679688e-01
4.742007277052318059e-01,4.814509291786036593e-01,-3.038063890434045122e-02,2.044493847101640227e-03,-9.301744668051169966e-04,5.222868458463327066e-04,5.082609653472900391e-01
4.203412300041748928e-01,4.889121676301568797e-01,-2.114485721777525917e-02,7.914770817112673496e-02,2.696351862385628836e-02,-6.954133192242135768e-03,5.010033249855041504e-01
3.242608344510585217e-01,5.723798066515294325e-01,2.106730035633519460e-02,2.070714365807322516e-02,3.795340128620462022e-02,6.272285717755128609e-03,4.841933250427246094e-01
4.801515222147721973e-01,4.780666561744523202e-01,-2.712271551368050648e-02,7.923517846248773894e-04,1.998501863395508050e-03,1.989160701248717341e-05,5.062487125396728516e-01
4.753528927391101333e-01,4.096407081652713167e-01,-1.877088309097291186e-02,-3.325508182624176828e-02,-2.457530721609462940e-02,-2.644833121909586499e-02,4.724770188331604004e-01
6.071989715697638790e-01,4.023617686895151202e-01,3.891916996873634460e-02,-1.091020475856797900e-01,-5.975466271463164558e-02,-9.598656611099737335e-02,5.679412484169006348e-01
5.138207928125366752e-01,4.742300638591955275e-01,3.952701674920294783e-02,1.401270362360454262e-02,-3.248940050297246043e-03,1.694913000266189780e-03,4.564796984195709229e-01
4.981078293391918432e-01,4.615658683460047151e-01,1.826143225512166790e-03,1.027457445467781262e-02,-2.222703152047069732e-03,-2.045898393783601634e-03,4.794161021709442139e-01
5.715901231118541981e-01,4.367394979677525213e-01,-1.117570491258990106e-03,-1.341377492936454870e-02,3.128137322653116916e-03,-4.296929474131026133e-02,5.244587659835815430e-01
4.548611880525308404e-01,4.631373393114573966e-01,-3.034508010421232971e-02,-3.743237880262107083e-03,-7.703812750574855726e-03,-8.537838893315696440e-03,4.898448884487152100e-01
5.017311296249185038e-01,4.460140292969825837e-01,-2.904427432907469298e-02,-4.755503384405145202e-03,-2.145300241251510247e-03,-6.993302208238305791e-03,5.054522752761840820e-01
4.407451138183999806e-01,4.536911743407969766e-01,-8.986301101233107325e-03,5.847086070798588817e-03,-9.674249258303168567e-05,-5.277933662859419540e-03,4.565461277961730957e-01
6.846830353078692255e-01,1.466202848255887814e-01,-2.968360700747818548e-02,-1.390760638975147845e-01,-5.505757991495982551e-03,-3.058408438065626095e-02,6.902033686637878418e-01
4.584014029263882017e-01,4.536057339119922149e-01,-1.889106228557851930e-02,6.018189268450446945e-03,8.007808142658599934e-04,-4.692759989360218223e-03,4.750987291336059570e-01
4.999669675520579393e-01,4.166427956921623932e-01,-2.444489597624988075e-02,4.724064846104898859e-03,1.850876379750242533e-03,3.769545644238051808e-03,4.882360100746154785e-01
4.988599480688570287e-01,4.338725920306384931e-01,-2.479324361191287407e-02,4.186738048482084411e-03,1.558210123042642675e-03,-1.595558015073420335e-02,4.952058196067810059e-01
5.049811265969919027e-01,4.432355203398357646e-01,-2.018648214570895050e-02,2.739381780926323715e-02,8.042234720813978485e-03,-1.879383099004043253e-02,5.006911754608154297e-01
4.792678798626084369e-01,4.676094718878632817e-01,-2.685831243843378457e-02,-6.565588665897820414e-04,1.330507990132778155e-03,6.409588847341363875e-04,5.004066824913024902e-01
4.160490802110798914e-01,5.026563696779599022e-01,-2.014623167787432667e-02,5.827248330762212040e-03,-1.603864773859768568e-03,-9.418284862268689467e-03,4.857165515422821045e-01
3.875333152872658671e-01,4.932553254510460006e-01,-1.021224612759413786e-02,2.743544225998294575e-02,-1.466491135406709388e-03,-4.396465668764852966e-03,4.623328745365142822e-01
2.902454937190724893e-01,5.287446075511241794e-01,-6.259290561408170639e-03,5.464566643697709586e-02,4.555987430134219966e-03,1.738666864292950183e-03,4.738594889640808105e-01
4.946390080457776506e-01,4.360656106945322574e-01,-2.622536414391818393e-02,4.047164155950611769e-02,1.520605966247775241e-02,-3.506921010554969048e-02,5.035065412521362305e-01
4.706301460824196536e-01,4.730509784555552155e-01,-3.846126405852179353e-02,1.274490761764275224e-03,1.113080929134635348e-03,3.093268725781501451e-03,5.103426575660705566e-01
4.989504589236234966e-01,4.750403862460432780e-01,4.108733311607881689e-03,5.014301508719508013e-03,-8.239357736646712050e-04,-6.702770569023174321e-03,4.835499823093414307e-01
4.454065964670249622e-01,4.440210944502889778e-01,-9.268246796925727615e-03,7.904326045425813865e-03,5.368347300188845662e-04,-3.982700789622718382e-03,4.542433917522430420e-01
5.697857088397131342e-01,1.776786458675539415e-01,-7.818069895285939541e-03,8.173796613358276508e-02,2.747166426066157893e-02,-1.831500353019442640e-02,5.331090092658996582e-01
4.822971901576811882e-01,4.802978982431832522e-01,-1.953321479210323730e-02,2.826557371680219746e-04,4.441864113126683597e-03,4.425933704271342584e-03,5.009517669677734375e-01
3.672725772731956217e-01,4.816396829818172520e-01,3.212754786407112650e-02,1.734589172690017000e-01,7.273835286086180463e-02,1.055908791153625792e-02,5.198101997375488281e-01
5.685378440829543800e-01,4.190097797932883505e-01,-1.219787154080476110e-02,3.278458980683470608e-02,1.384085749181678503e-02,-3.113373994825428120e-02,5.286619663238525391e-01
3.798113802193006650e-01,4.887779103148905402e-01,-1.339896509500781985e-02,3.625197255061748947e-02,8.991245230487804330e-03,-2.503839094191401098e-03,4.621025919914245605e-01
4.155451929596234995e-01,5.070130845599483127e-01,-2.400328865201190043e-02,1.200517616898732305e-03,-2.849641996433592301e-03,2.993881946718986945e-03,4.917615056037902832e-01
5.159270573989851449e-01,5.096537268282573807e-01,1.078536348917763510e-01,2.120618564528142097e-02,-2.301570226479681541e-02,-8.946263592585488363e-04,4.085877835750579834e-01
4.690274548607541449e-01,4.738981949241648506e-01,-4.071898837798315629e-02,1.035259152090245958e-03,1.243232174338301972e-03,1.678072434544228362e-03,5.122150778770446777e-01
4.779587096736139795e-01,4.712159956884371947e-01,8.334037282554385140e-02,4.980970891635377006e-03,7.660294895648789293e-03,-6.047058671206984211e-03,3.917505145072937012e-01
4.757882067315474250e-01,4.722528967619766260e-01,8.061262389952572605e-02,-8.376704722746965582e-05,7.640081862669191246e-03,3.198616493223335917e-03,3.936813473701477051e-01
5.487837545600423583e-01,5.274710120098416999e-01,6.710093970771524585e-02,2.641010292129509010e-02,-3.805596392683712609e-02,-5.053120055738916441e-03,4.782472550868988037e-01
5.489864917770789221e-01,5.658009203305335300e-01,4.768530263473047537e-02,6.691114252321601896e-02,1.206836166690220397e-01,5.133856738297558342e-02,5.701285600662231445e-01
4.799892737544435573e-01,4.824682243528174430e-01,3.383944174161312990e-02,5.382014846493047167e-04,5.404217184749191862e-03,-4.563627945554391517e-03,4.475631415843963623e-01
3.348306376907221882e-01,5.581474842515468104e-01,4.612354054021045036e-02,8.810731505884783488e-02,-6.475355148583761267e-02,3.615911229402608840e-02,4.873249232769012451e-01
4.325946846318203809e-01,4.981621510279380383e-01,-2.393887618000251072e-02,1.946805665054823298e-03,1.020862295143608670e-02,-4.402555714427589841e-03,4.929887354373931885e-01
4.592582627519883332e-01,4.976876072234243109e-01,-1.310751358954787005e-02,2.506559420845413857e-03,3.947383555446841788e-03,-9.569123147851514577e-03,4.930509626865386963e-01
4.689225142621853415e-01,4.840575586454410884e-01,-2.945484488487443153e-02,1.236902658037721762e-03,5.139652121593817242e-03,-8.040069936434467244e-04,5.061993598937988281e-01
4.604447098901962576e-01,4.809994310579580601e-01,-1.479269034198837929e-02,6.962518958514159976e-04,3.368978717623720334e-03,1.142183146788351830e-03,4.858815371990203857e-01
4.782072651442013100e-01,4.727765693456538187e-01,-3.660306665910012525e-02,1.919780841822335852e-03,1.880052371920254905e-03,2.089425307379903438e-03,5.121505260467529297e-01
5.881770333077931401e-01,4.714973916883438143e-01,1.698416884320608222e-02,-5.631254208674347367e-02,8.795400062810455888e-02,7.811058583783378473e-02,5.694327354431152344e-01
4.778258818099513916e-01,4.728274138436763252e-01,-3.944376855015552241e-02,3.531394869850537719e-03,3.552409268989001941e-03,7.367009188970645222e-04,5.148633122444152832e-01
4.727148624720446390e-01,4.692186511901593748e-01,-4.024918404811711481e-02,7.455394871350576932e-04,1.902061603304119148e-03,1.106647530167991422e-03,5.112407207489013672e-01
5.590788720264446843e-01,4.068120798978692720e-01,-4.000933089333152948e-02,-2.910598190144525910e-03,2.961327315834645299e-02,5.570131440087042196e-02,5.503042340278625488e-01
4.754210542863408495e-01,4.751793394215706456e-01,-3.098188042944999276e-02,1.971194706955674454e-03,2.789790313613978862e-03,6.243283812016415558e-03,5.064321756362915039e-01
4.792134770948672795e-01,4.795590099342641466e-01,-1.438166658963901945e-02,7.512302787828869198e-03,-1.379095684237397531e-03,6.567344071695397148e-03,4.940761327743530273e-01
5.151534545540099597e-01,3.155784555519733359e-01,-2.737271576957134300e-02,9.222501557654531890e-02,1.960381507681345856e-05,4.260420980540924329e-02,5.068055391311645508e-01
4.348661471358410413e-01,4.694509290113091371e-01,-1.630378413149158323e-02,2.369309536170694994e-02,-1.077569686725843127e-02,1.246167039177571191e-02,4.720723927021026611e-01
4.594781541003935543e-01,4.774432888842654599e-01,-1.116969491287200800e-02,1.091576826107979251e-02,1.342042190546610713e-03,1.859920071756866712e-05,4.802606105804443359e-01
4.373367915973500608e-01,4.826482142243188056e-01,-1.847194206052160670e-02,2.631509116504446473e-03,7.911810560075781729e-05,8.330665742101492355e-03,4.803093373775482178e-01
4.506131446428139342e-01,4.905415209848464908e-01,-2.804710557660800019e-02,9.409824144109478700e-04,9.437779161525068584e-04,3.943261058796275129e-03,4.998739957809448242e-01
5.252770780066011724e-01,5.049078621462887995e-01,3.764289153987904202e-02,7.632838064405451928e-02,-1.196634088431244164e-02,2.065880710580167076e-02,4.974507987499237061e-01
4.307504072383708804e-01,4.619141702670147565e-01,3.893540768278525022e-02,1.116760108366232768e-01,-4.915612592010953907e-02,7.078187120205552650e-03,4.599070250988006592e-01
5.287957367828011179e-01,3.651775632527315407e-01,-9.678335946839755621e-03,2.164210069017756879e-02,-2.286106321794866784e-03,-1.943030242327924758e-03,4.796386659145355225e-01
4.395881700188415953e-01,4.906575719099107724e-01,-2.815210581963267789e-02,-3.095582002098602476e-03,1.759482401251329564e-04,-1.600565225024304285e-03,4.952906072139739990e-01
4.582651121911531233e-01,4.784843195525633197e-01,-2.397046910541333897e-02,3.882923169265738508e-03,-8.619563107351990369e-03,4.384413256096546946e-03,4.929870069026947021e-01
4.757112792124478240e-01,4.745232701056216751e-01,-3.631987741180570106e-02,4.397183908321019782e-03,1.014590789558972479e-02,1.040793224468358757e-02,5.121140480041503906e-01
4.769994039633066452e-01,4.796851626755489484e-01,1.688774772624879184e-02,-1.601778796144167401e-03,1.926145994922885381e-03,8.066969956946551737e-03,4.616922736167907715e-01
4.814403056890077526e-01,4.730274022215142926e-01,6.142081474582283818e-02,1.229267381792577274e-02,-8.570420640484450667e-03,-1.326180262894741980e-02,4.173186719417572021e-01
4.811228082483779422e-01,4.715254704981257650e-01,-2.372822184319939298e-02,-5.766534120314608129e-04,1.960350822817359250e-04,-2.402699978055702727e-03,5.001398324966430664e-01
4.772486876799102440e-01,4.761098389082594196e-01,3.670516765062881159e-02,5.659840196773815307e-03,6.332834230644809100e-04,-8.770329078388570260e-03,4.403478503227233887e-01
4.817727547336603244e-01,4.738556201468980822e-01,4.223017955291674674e-03,-3.832314651319397906e-04,1.129098473552181013e-03,-8.805575140220697414e-03,4.738907814025878906e-01
4.777681213752978939e-01,4.717027545860986715e-01,-3.007296136347087367e-02,-7.638680615822550412e-04,6.584983690092745083e-04,-9.495155897203510619e-04,5.048414468765258789e-01
4.770139353926262649e-01,4.735124866631276186e-01,-2.910003570762520475e-02,-6.483857996709482948e-04,2.187046988896562563e-04,-2.279520486580250208e-03,5.043892264366149902e-01
4.422476240973732819e-01,4.891325543603508019e-01,-1.841369224159067342e-02,6.334230143169210236e-02,2.773160815227786874e-02,-1.886172365802717826e-02,5.014142990112304688e-01
4.858277107595089239e-01,4.024017162466360098e-01,-9.876604754437356970e-03,1.428736295816465489e-02,-4.615398513780094580e-03,-1.898458878338586545e-03,4.604510366916656494e-01
5.070138701352385757e-01,3.675397043841435174e-01,-3.545419705763386276e-03,2.845964062424884145e-02,4.383509883187210708e-03,3.887183646131129287e-03,4.598334729671478271e-01
5.479115317652039074e-01,3.177109913231173088e-01,-6.292518205514741059e-03,1.197077736518073650e-02,5.217811795051228128e-04,1.486694085346859477e-02,4.833737015724182129e-01
4.655643133976334336e-01,4.615658484222349145e-01,-2.504579235459075681e-02,2.491707144552649487e-03,-7.363524852013017194e-03,4.133500732080588880e-03,4.888610541820526123e-01
5.450730061558232142e-01,3.022583222476747378e-01,4.636819093763400179e-03,1.338235397261530214e-02,3.818663038450350027e-03,-6.467782420176363799e-04,4.694535732269287109e-01
5.405967273320044786e-01,2.997983400123127584e-01,-8.133821975228716639e-03,-1.493247373727893748e-03,4.336511461248294258e-03,2.115482282199073957e-02,4.778716564178466797e-01
7.108035257014848618e-01,3.535788586495132169e-01,-2.984294854477320680e-02,1.405241477517987780e-01,2.585274666070277658e-02,4.328183169438414718e-02,6.917048692703247070e-01
5.070223950559042958e-01,3.635039020177845415e-01,-9.977580481193848438e-03,3.071123120628730871e-02,2.369480137812106379e-04,2.543379367167027463e-02,4.673947095870971680e-01
5.194726698136474807e-01,3.754959410825830513e-01,-2.226457718074631442e-02,5.928747726466819480e-04,-8.667464966485712529e-05,2.828180086789068917e-02,4.884788990020751953e-01
6.451286528578907831e-01,1.520855025780483705e-01,-9.930762164638257117e-02,1.086937603109045802e-01,4.126906515502993394e-02,-1.824232077621699630e-02,6.868686079978942871e-01
5.569296202987650268e-01,2.291741290335025938e-01,-6.608080552360506843e-04,1.867808470427547579e-02,9.518212635678015288e-03,8.728716735599054838e-03,4.869542121887207031e-01
5.080270847701404691e-01,3.811341702586069635e-01,-2.055309565876750622e-02,-5.076601061199791792e-03,-1.257021846134983092e-02,-2.287788352253486077e-02,4.801533818244934082e-01
5.278262473248667153e-01,3.651817552623372598e-01,-1.458614225742133064e-02,-4.143725212424185893e-03,-2.969236889114053746e-03,3.117781171633728088e-03,4.822355806827545166e-01
5.821974558907444530e-01,2.397986998168576966e-01,-1.165575450879953179e-01,-1.988949783462634346e-01,-5.543387250250395373e-03,-4.497516971285858180e-03,6.964719295501708984e-01
5.820656865190726448e-01,2.131234718208841750e-01,-2.234185665074156502e-02,-5.499254916752852745e-02,-2.200454847741997039e-02,-6.062167126901701897e-02,5.477092862129211426e-01
4.584642968393890516e-01,4.734478920228357701e-01,4.115667479019347041e-02,1.072461334547722411e-01,2.697632321303259154e-02,-8.212719042278845971e-02,4.873868227005004883e-01
5.162823308730993821e-01,2.968707409588105528e-01,1.457450166089901966e-02,-1.195818776202918349e-01,-1.122888585540929643e-02,-5.861039913706753840e-02,4.933102130889892578e-01
4.399274511658196607e-01,4.288635533083675622e-01,-2.334682689671963018e-03,-1.381318045595472796e-03,5.976908102700356426e-03,1.239778259445558110e-03,4.369697570800781250e-01
4.299979257874098071e-01,4.225220920714418682e-01,3.809826591191611822e-03,-1.600061670073469819e-02,4.239086875683429831e-03,4.083985375988427070e-03,4.235304892063140869e-01
4.279654571973687816e-01,4.394671674930926697e-01,-2.849351386649101592e-03,-5.164538903341649514e-03,9.496004215473867211e-04,4.280494909564837541e-04,4.367746114730834961e-01
4.358218913398648198e-01,4.644261682378408307e-01,-2.339262895251581487e-02,-3.068898422410655871e-02,-1.942381241357259147e-02,-1.967457441103927576e-02,4.795312583446502686e-01
4.732494526552442071e-01,4.731765947941879991e-01,-2.592070853131528407e-02,6.697343087584135390e-04,-9.370498763263674161e-03,-1.420738821280410555e-02,5.000048279762268066e-01
4.695132453229648450e-01,4.709106780338452314e-01,-2.207376849998499146e-02,-5.680477148958451225e-03,-7.274378080857147114e-03,-4.799747951792156415e-03,4.926168620586395264e-01
4.832519297715483497e-01,4.576669771634242490e-01,-2.853773398566550323e-02,1.987332439912379561e-05,3.726168237592813125e-04,-4.906219003964465766e-03,4.995615780353546143e-01
5.306860977182121797e-01,4.668683581314327369e-01,2.106537744980180316e-02,1.344280728642688327e-02,-2.134192481407668623e-02,-1.677930559144348230e-02,4.837523400783538818e-01
4.746417194087526603e-01,4.630221851990072857e-01,-2.885277371935907054e-02,-5.320683063212659596e-03,-4.866702531793184669e-03,-1.195643154157630637e-02,4.983735680580139160e-01
4.671541752364868350e-01,4.646875136340570256e-01,-3.562978926198678842e-02,-2.232216464437981537e-03,-2.044675773832500820e-03,-1.212232464227521378e-03,5.015869736671447754e-01
4.201278800074351172e-01,5.209828239759997093e-01,4.268491283150033233e-02,-3.364248529890832839e-02,-7.532282944395840563e-02,-2.706024196582685823e-02,4.618600606918334961e-01
5.060455638826468761e-01,4.705122755649140953e-01,5.536034909473463994e-03,6.731731299767220074e-03,6.772366650960778812e-05,-1.548754425597845957e-02,4.846062362194061279e-01
4.770274342105127463e-01,4.902853571931170551e-01,3.359317280443580023e-02,1.982711953235644434e-02,2.076296933426915667e-03,2.583640742107587516e-03,4.515540301799774170e-01
4.685387134366687523e-01,4.883182121828824052e-01,-2.668631247624098091e-02,6.071572226278927793e-03,1.060952481552345644e-02,8.594490780902824811e-03,5.060673952102661133e-01
5.726873390858910895e-01,5.359099213511597792e-01,7.335839559975693147e-02,-5.092767691824141157e-02,4.802562551768693733e-02,7.941268138604593019e-02,5.156911015510559082e-01
6.796029507344418796e-01,6.861771361128125024e-01,5.959958599357689790e-02,5.262466356452121657e-02,2.270880661206578499e-02,4.055073107600296739e-02,6.350682377815246582e-01
4.800952945946926897e-01,4.776409532586136653e-01,-2.542898780401980918e-02,7.275895990253194220e-04,-1.883488685716744456e-03,-9.078734672610462748e-04,5.043161511421203613e-01
4.244617918033350423e-01,3.845903352543178499e-01,-6.451337972120052555e-03,-9.188587747207908885e-02,2.655570554228310273e-02,3.189081162984509082e-02,4.478732645511627197e-01
4.691489688972912964e-01,4.727296250781541920e-01,9.281194817884247383e-02,3.336028323889696310e-03,1.534948865777403066e-03,4.039885498178493253e-03,3.782582879066467285e-01
4.722099830040548674e-01,5.035956160490078215e-01,5.246894327453294204e-02,2.013767258156046961e-03,-2.645183855010352619e-03,1.299045908653429469e-02,4.368991255760192871e-01
4.354090572780077717e-01,5.071406824265497493e-01,-3.160782712732951305e-02,-8.510690543059851870e-03,3.154237424841639659e-02,2.263325928228739764e-02,5.113598704338073730e-01
4.357830288179939116e-01,4.523628301411981578e-01,-2.185342305797693951e-02,-1.375134761161948653e-02,8.686069163190703393e-03,1.453452588125477875e-02,4.676761031150817871e-01
4.755954784019024717e-01,4.777136674124116134e-01,9.978600038004992179e-03,5.343800427652522882e-03,6.283150206880657937e-04,-7.230170042784267621e-03,4.669405817985534668e-01
4.779903397355144690e-01,5.110042103797465263e-01,3.845987897896335772e-02,-1.181468283204439723e-01,-7.079524136600674582e-03,5.671914110503569612e-02,5.103577971458435059e-01
2.423172437162781911e-01,5.718454879694223614e-01,-9.508736803410078320e-03,-7.372158657262398163e-02,-6.843798660236087572e-02,-1.196828067254504871e-02,5.345788598060607910e-01
3.709959988672340003e-01,5.616574406863588109e-01,-1.547460939613909403e-02,1.189023910765334702e-01,-3.305804255842458711e-02,4.837641100955749479e-02,5.586671829223632812e-01
3.586281195214546247e-01,5.278601359513126479e-01,-1.376316707360220049e-02,8.137944891632777067e-02,2.583409180431297039e-02,2.679488979770806509e-02,5.043403506278991699e-01
4.671719188873619255e-01,4.981368302703400586e-01,2.359141129605690779e-02,-3.131791209595882752e-02,2.052407844477444586e-03,-2.628055155585516060e-03,4.630698859691619873e-01
4.718568657670002553e-01,4.778404738988174527e-01,-2.389289896206037156e-02,-1.051348390337987319e-03,-2.464281702745232689e-03,1.083099391075178011e-03,4.987936019897460938e-01
4.185443782933945256e-01,5.071499045925031979e-01,-4.439018165281127803e-02,2.362901157078799441e-01,-8.929071021424837828e-03,3.024298581223913360e-02,6.585286855697631836e-01
4.029676511666703265e-01,4.698776285511041539e-01,-2.121172711534674571e-02,-1.337248143450082624e-02,-1.406323890001625818e-02,-1.467546788765094687e-02,4.632092714309692383e-01
3.894611866029263902e-01,4.704579298816354838e-01,-9.260985287899869967e-03,-1.388961639969624531e-02,-1.059140486205264282e-03,-1.347365062089707702e-02,4.460513293743133545e-01
4.918167766126870788e-01,4.804959452390278329e-01,4.705207014371382002e-02,8.687584228785108845e-03,1.095887989338793951e-02,-1.543312977301003171e-03,4.398892521858215332e-01
4.148056454650980718e-01,5.052813794519018797e-01,-2.590990461256609256e-02,-1.686609764627187893e-03,1.212633620991574639e-03,-1.437122214626479662e-03,4.922491908073425293e-01
4.203116274150059395e-01,5.429306756317029414e-01,-3.136880771396149958e-02,2.786335356405512248e-02,-3.183611197164096934e-02,-7.181421739735708567e-04,5.289674401283264160e-01
4.549122215980951345e-01,4.571858662084594682e-01,-3.293184132469256786e-02,-1.563588114699685167e-03,-1.178305362488718663e-03,-4.957025476860330189e-03,4.890719652175903320e-01
4.262620647533343909e-01,4.272248946659534252e-01,-1.773689829960345410e-03,-3.806559126232978655e-03,6.321993144611508242e-03,1.339068062338281571e-03,4.287148416042327881e-01
4.361874754779114793e-01,4.399518124329603319e-01,-8.398156623776464880e-03,-2.253397490840230739e-03,4.383011541591679515e-03,5.778308062754269891e-03,4.466734230518341064e-01
4.209727759160300509e-01,4.319615583881016851e-01,-3.205055976336412815e-03,-1.073343650067365949e-02,1.156878085707019029e-03,5.518955481696042296e-03,4.302903711795806885e-01
4.389577120470925520e-01,4.265400335908456353e-01,-2.528926311432089236e-03,-5.740274370662381935e-03,6.845169286067375423e-04,1.143160566628670686e-03,4.355302453041076660e-01
4.254176423219757641e-01,4.252080294677298977e-01,8.272833309893479203e-03,-1.347958256583098660e-02,3.209096143330997068e-03,2.756341543742964108e-03,4.177573323249816895e-01
4.272264087033140756e-01,4.306603610007485594e-01,-9.493428545755522308e-03,-1.007803627379651873e-02,6.590980921045887751e-03,4.363222967650323518e-03,4.390077590942382812e-01
4.196195217843258773e-01,4.238903755922128758e-01,6.468523684521942929e-03,-1.275675981948480413e-03,-1.914190315214080878e-04,2.477757078301285405e-04,4.153091311454772949e-01
4.350687694677330963e-01,4.703649329620410713e-01,-3.124546878289413687e-02,-3.296947452284599255e-03,-6.329886311374335016e-03,-1.067281287224492413e-02,4.854363203048706055e-01
4.236822576532625062e-01,4.521791767082403712e-01,-2.707053178187024400e-02,-2.517385203064981605e-02,-7.349039822922400281e-03,-1.142155682722606307e-02,4.682838618755340576e-01
4.701175086220567012e-01,4.714651306927087893e-01,6.170157089634892289e-02,4.325701192407623193e-03,-7.508601294648883581e-03,-6.636353227655130207e-03,4.095279872417449951e-01
4.768358967561459605e-01,4.663675290805683327e-01,-2.785473076772831957e-02,1.420663933837147544e-03,-3.424310862434190757e-03,-1.634276295363545027e-04,4.995800554752349854e-01
4.959608204026454414e-01,4.163974303802776000e-01,-2.152943182607092165e-02,-8.184451362856105805e-02,-3.608272640993029357e-02,-2.715018015589177117e-02,5.090835690498352051e-01
4.662010627948511843e-01,4.660120318567961828e-01,-3.732321958919421201e-02,-7.549634409263859943e-04,-3.812390665875284735e-03,-2.150339676662500581e-03,5.034886002540588379e-01
4.452785587428891301e-01,4.791891248943154213e-01,-7.425300698556291934e-03,-1.017890023890616336e-01,-5.932631281791068273e-02,-4.786756700707282125e-02,5.195747613906860352e-01
4.581029399199710306e-01,4.317133120599973006e-01,-2.054333221033699530e-02,-1.263490701945401903e-02,-1.448092458125441531e-02,-1.006465395957936368e-02,4.675246179103851318e-01
4.454647143881976801e-01,4.152237999770208576e-01,-3.871013401152678668e-02,-1.139792831489390146e-01,-2.738359806743432753e-02,-2.668866331577285367e-02,5.138658881187438965e-01
4.560881068375963188e-01,4.812605370163383633e-01,-2.160116678605589202e-02,-6.634908564147208240e-03,-9.501861854840931015e-03,-1.038782886184284708e-02,4.914996922016143799e-01
4.831152917256910095e-01,4.275307645894654840e-01,-3.100845530002738215e-02,-4.379904937308787445e-03,-1.053965205520796498e-02,-9.226748839700715105e-03,4.893687069416046143e-01
4.907058840823353973e-01,4.084881345662878527e-01,-2.398858322510688534e-02,-1.135799393343843878e-03,-7.427077345196313185e-03,3.412204013508573770e-04,4.790854156017303467e-01
5.086699488158489268e-01,3.865660130182241305e-01,-1.895778767557659839e-02,-1.279184290685561089e-02,-8.831587144973635645e-03,-1.278955914490788846e-02,4.796775877475738525e-01
4.614613925442022091e-01,4.769324514143704619e-01,-3.567113168918478738e-02,-7.158489196874922536e-05,-1.159996317383272819e-03,-2.609265642398361004e-03,5.050700306892395020e-01
5.755330024614910833e-01,3.944661385006964505e-01,-2.149869108946267371e-03,-1.726466440076971157e-02,1.521550655725368737e-03,-3.761672109150680093e-02,5.167685151100158691e-01
4.572241619434715965e-01,4.496242335153671776e-01,-1.700835210489382021e-02,8.947841665999005378e-02,1.685105961064212524e-02,-1.041727373759684244e-02,4.965346753597259521e-01
4.707868677202877716e-01,4.684045321468738310e-01,-3.633700125165922890e-02,7.129804990205663995e-04,5.652290350464340626e-03,5.927146733619424214e-03,5.061372518539428711e-01
3.206585423404446078e-01,5.258759094317880800e-01,-1.976639198011737042e-02,-1.129767222597654608e-01,2.437136754954295770e-02,1.805616850237112131e-02,5.185707211494445801e-01
4.258257056896092019e-01,4.184041496177357544e-01,6.427238466559459518e-03,-8.880149342225437600e-03,4.422413715296586757e-03,3.606452924071125183e-03,4.161391854286193848e-01
3.919360014413989513e-01,2.959133101092593088e-01,-1.920878498164022008e-02,-2.307525888870765041e-01,-1.104944197172262957e-02,-1.006829062388798872e-02,5.469843149185180664e-01
4.409094472153984312e-01,4.724021986809096019e-01,-3.110461878822695647e-02,-2.818836006477688522e-03,8.297124927858143956e-03,1.308747262931340971e-02,4.892834722995758057e-01
3.983764637593808500e-01,4.797089533795070859e-01,-1.705072265828161404e-02,-6.642447947935549435e-02,-2.657793925683711589e-02,-2.186898351951943251e-02,4.793464243412017822e-01
4.488064818321206850e-01,4.270955121388811948e-01,-1.855860654310537150e-02,-2.645906415602445813e-02,-1.396655575427236708e-02,-1.290857306793963266e-02,4.603692889213562012e-01
4.152709385818165178e-01,4.235251801493424839e-01,3.206818790863597002e-03,-1.189699075578220730e-02,2.372992550636704619e-03,4.006692552114920688e-03,4.168404042720794678e-01
3.999410862501907027e-01,4.374730546303593481e-01,1.251969162335830887e-04,-2.047606110184783251e-02,-9.520824152145944061e-03,-8.027252931111825140e-03,4.218890070915222168e-01
3.430740415797219334e-01,5.142345840519049194e-01,-7.201507014466534962e-03,-4.592526511840316211e-02,-1.400470540165064774e-02,-9.950539858122560422e-03,4.681400060653686523e-01
4.956613353295699631e-01,3.535303882387377805e-01,-6.756975102061135718e-03,-8.854088242758087479e-03,-1.169863217690298059e-02,-1.221135484548059418e-02,4.497880339622497559e-01
5.031931778626331786e-01,3.875687482310873344e-01,-2.101811515574381062e-02,6.497396126773575045e-03,7.281267584460816671e-03,-1.649232011850559204e-02,4.781804382801055908e-01
4.155891750220687686e-01,5.894480361919989253e-01,-7.503340103188521626e-02,2.584438635287303887e-01,1.048925067220364202e-02,2.992584881437477737e-02,7.480861544609069824e-01
4.800694264536315981e-01,3.926523176998247266e-01,1.027555693999870901e-03,4.021839105880872789e-02,1.225422976968138129e-02,-2.995797727943327708e-03,4.478575587272644043e-01
4.926176952516074792e-01,3.919391011084317200e-01,1.877877215761492025e-03,3.796638077480635892e-02,5.007342392825476704e-03,-5.103667917016093802e-04,4.538227617740631104e-01
4.493156004074296828e-01,4.428734784906726007e-01,-8.633688335984879281e-03,2.657129361545553740e-03,1.429330443937573691e-03,-3.107652502657409863e-03,4.548243284225463867e-01
4.836741465908397375e-01,3.825916662975892280e-01,-6.512169064882833425e-04,8.333278718030906820e-03,4.346888963860521919e-03,-2.184263976652340688e-03,4.428444802761077881e-01
4.986680890217868312e-01,4.432927482263316898e-01,-2.717341221938951445e-02,6.901153113549591102e-04,1.371677261234981746e-03,-4.246649006763621691e-03,5.005179643630981445e-01
4.571250057487994400e-01,4.627323213190276396e-01,-3.550473932251674292e-02,-4.885588569104081305e-03,6.868372293444526683e-03,6.493916005617075132e-03,4.957998394966125488e-01
4.501900427539890504e-01,4.525162438518500752e-01,-4.991851333101204879e-03,9.360407323796827994e-02,1.113748018564198958e-02,1.685959414413289517e-02,4.855562150478363037e-01
3.516843456419127545e-01,5.408638765877200605e-01,-1.449955932297219974e-02,7.566818614666845355e-02,-4.085875260843559523e-03,2.369385291952597755e-02,5.080013275146484375e-01
5.351233759663593936e-01,3.562728392410322575e-01,-3.148864125721523299e-02,4.670421199792818695e-02,2.769689403282638365e-02,-2.490720334358329652e-02,5.122539997100830078e-01
4.274647456464841233e-01,4.597622192414057007e-01,1.532435533884712875e-03,3.633113200789665764e-02,7.831377136147326529e-03,-9.364737030739565338e-04,4.476208984851837158e-01
4.605806592327769122e-01,4.066454636791854149e-01,-2.873737527802955327e-03,1.757211735428247310e-02,-7.754028578958546518e-03,5.625163868302933759e-03,4.403454661369323730e-01
4.415232318307549253e-01,4.046764331164429684e-01,8.988522494521866690e-04,2.487548161310080760e-02,4.088342493253297599e-03,-5.063789337518566878e-04,4.256515204906463623e-01
4.561676008278464645e-01,4.272064986787552088e-01,-9.499966945354432202e-03,1.040941147797617462e-02,-6.305637657775523507e-03,-8.069842684396256549e-05,4.523750245571136475e-01
4.440492089123517228e-01,4.507199611446848220e-01,-2.773561353245118655e-02,-6.198880406716037947e-03,-6.195625054269029118e-03,-6.467270090404358268e-03,4.755297005176544189e-01
4.494537969158084456e-01,4.078322750207389324e-01,-7.683767234297034232e-03,2.376922897547456559e-02,1.810164683573296102e-02,-9.682351605812166556e-03,4.411796927452087402e-01
4.593423226128383607e-01,4.160132275267809376e-01,-5.788434399420006038e-03,3.379534182598589731e-02,1.270876076977556224e-02,-1.420655194706027871e-02,4.500963687896728516e-01
4.657475408587783416e-01,4.048566237619889985e-01,-2.280775916683802640e-02,1.808138191967819941e-01,-1.087037960200389758e-02,6.461425105669510449e-02,5.688636302947998047e-01
7.173371282154530348e-01,5.473758370796973916e-01,7.941193788851530488e-02,6.805356137491051782e-02,-1.101479977976814375e-03,-1.059221766127025344e-01,6.123470067977905273e-01
4.843017630337423385e-01,4.777821121607268018e-01,-7.609481015487473687e-03,4.417149974176613932e-03,-7.741079729155871851e-04,9.544791099139829111e-04,4.887485504150390625e-01
4.794151206018518185e-01,4.742317912397566171e-01,-1.395090160469808493e-02,-2.365238676628432513e-03,2.749398057313316972e-03,-3.580182003133544101e-03,4.908742606639862061e-01
4.722542588146804166e-01,4.751756641556746930e-01,1.068134182226632145e-02,1.536660424287879362e-05,-6.010446515110425035e-04,-8.846416360008019231e-03,4.632951617240905762e-01
5.290594268303991932e-01,3.944626019994171839e-01,-2.067180354377617935e-02,3.193108216022205823e-03,-3.252241396283433051e-03,-1.253216994959429655e-02,4.968522191047668457e-01
4.792026176070475763e-01,4.755722195956725296e-01,6.022300699026317261e-03,-1.556236288328092642e-03,3.979975601370832651e-03,-5.516965816253554741e-03,4.715305566787719727e-01
5.416284146355763163e-01,4.318769529596845902e-01,2.139896544375258225e-02,5.385976064917028655e-02,6.013830254458744223e-02,-5.781323677998559396e-02,5.051412582397460938e-01
4.802510435639267272e-01,4.776142451839915370e-01,2.774526332485705016e-02,4.836168681352353942e-03,8.096633296474092453e-03,-1.148575243160176833e-02,4.519268274307250977e-01
6.435896982234843300e-01,2.297892510666530441e-01,-9.094426458063353813e-04,3.432612414603158045e-03,2.212206290117510118e-02,-6.375563842878650966e-02,5.775930881500244141e-01
5.297048779661848172e-01,3.707526191915476721e-01,-7.880175776061537629e-03,2.127990416384993935e-02,1.513537201741728573e-02,-3.433211496685909664e-02,4.841435551643371582e-01
5.035216251787257846e-01,4.137639794333268228e-01,-2.378655038765009611e-02,7.272444934476040039e-04,-2.427782646308529989e-03,1.317355766219535174e-03,4.886766672134399414e-01
5.400126072631495910e-01,4.373690359334412303e-01,-1.654123361443549101e-02,1.085490391783064694e-03,2.528867043530560327e-02,-3.491065519138638468e-02,5.184009671211242676e-01
4.156594309411133503e-01,4.620108886754291655e-01,7.365933982159666993e-02,-1.156842350450862783e-01,-7.745087158821459261e-02,-9.034992716096550136e-02,4.664745330810546875e-01
4.631868409831656486e-01,4.954629584699538070e-01,-2.760964244409014334e-02,3.918183513821874367e-03,1.482432287573286905e-02,4.179365886810480074e-03,5.084502696990966797e-01
4.975623695563330395e-01,4.642943885898373479e-01,-2.488454938713474673e-02,2.223786669874256491e-03,7.559685426553772137e-04,-4.278451434466323984e-03,5.067033171653747559e-01
4.953886689108631391e-01,4.228262272248309861e-01,-1.508888796982649216e-02,3.203551607387390698e-02,1.507017460523108268e-02,-1.636001428873125677e-02,4.830882549285888672e-01
4.881949995221902538e-01,4.282605653486405428e-01,-2.356320721783455863e-02,7.849940200665575865e-03,5.522292121701058779e-03,2.338763886808293679e-03,4.848808348178863525e-01
4.723684962626013006e-01,4.482166338290179963e-01,-2.413471271736811197e-02,6.297406838447263192e-03,4.183082936669867830e-03,-2.892135116013722605e-03,4.850812554359436035e-01
5.076120558218955026e-01,4.436744314029469338e-01,-2.176461508232363506e-03,5.189377114083557931e-03,5.339887425809873665e-04,-2.454596998245267992e-03,4.811209738254547119e-01
4.795550544437563456e-01,4.802134782423345127e-01,3.975390593110755821e-02,6.456283753321126126e-03,1.575949969284799745e-02,7.169037038860948813e-03,4.412928521633148193e-01
4.841708876309466225e-01,4.767773303820425079e-01,6.742883849849229394e-02,4.371533382941053363e-03,5.341111215847564597e-03,1.278870528502838028e-02,4.138610363006591797e-01
5.073843755357512197e-01,3.807625602756166128e-01,-1.948534725459938333e-02,-4.418931405934336566e-03,-9.947765513318244587e-03,-1.604640194789337324e-02,4.775348305702209473e-01
5.722553873856397466e-01,3.730674243088987208e-01,-6.625723228244395635e-03,-5.314594893660749310e-03,6.899932612877165798e-03,-4.592674560883967805e-02,5.157793760299682617e-01
4.814777935056948066e-01,4.752917147364447148e-01,2.694064470401008604e-02,3.288104030913174499e-04,2.353298291269789570e-04,8.929170769088735568e-03,4.517412483692169189e-01
4.715479679044435324e-01,4.772047693980756566e-01,7.588684652210048176e-02,2.619506233092757947e-03,-2.277407824043880397e-03,1.324073980421811361e-02,3.992242515087127686e-01
7.043134073485003421e-01,4.789668712972376952e-01,9.251513528426591471e-02,9.897078802111387852e-03,-2.154694496878271220e-02,-4.518963727669066122e-02,5.431616306304931641e-01
5.274349163239742122e-01,7.071146681518707400e-01,8.562642187913099834e-02,5.361596155089192600e-02,-2.821862827210187830e-02,-5.487194694320563643e-02,5.717598199844360352e-01
5.709085238177982191e-01,4.640698066143309486e-01,6.619588872371884314e-02,-1.939958415815430659e-02,-2.797835530009933763e-03,-2.926984376577389940e-02,4.647033512592315674e-01
5.470944366131109682e-01,4.263712811242835743e-01,1.302574833876823934e-02,3.263831579922334830e-02,2.744519499626661696e-02,-1.096012537766729612e-02,4.910650253295898438e-01
4.970300380573005050e-01,4.310529515133352252e-01,2.683600312628725559e-02,-2.213003750391868973e-02,-3.387158388031672688e-03,-8.196480250723116659e-03,4.428527355194091797e-01
4.806834850963399575e-01,4.690237096896417435e-01,-2.515869137690907031e-02,-1.151909407360815008e-03,1.021909929895499459e-03,8.788539603067818716e-04,5.001236796379089355e-01
5.290295588913619396e-01,4.614750019426220318e-01,4.137055809620937552e-02,2.674607054089967254e-02,-1.043408180441652254e-02,-1.853417104417766012e-02,4.614483118057250977e-01
6.747739118855291540e-01,2.932841411965681488e-01,3.618163679507735431e-03,6.369746826782878187e-03,5.307378304991276080e-02,-2.163301766287294495e-02,5.915417075157165527e-01
5.041341841709565674e-01,4.935226502360505751e-01,4.806506375398666986e-02,2.657286966190140418e-02,-1.913054748005649230e-02,-4.989821543769448059e-03,4.544920623302459717e-01
4.734190619669956246e-01,4.063258791777784595e-01,2.788850501448764119e-02,-1.329002494117144939e-01,-3.735474216500291739e-02,-9.455777248686048075e-02,5.070542097091674805e-01
4.791104000012975650e-01,4.769440357351206750e-01,8.421601497782926771e-03,1.633548398755139660e-03,-2.052088941730086796e-03,3.936947854618851918e-03,4.696808457374572754e-01
4.791890224694435596e-01,4.755175837131869754e-01,-4.667269936552587151e-03,8.627312453684017482e-04,-3.002154485499502513e-03,-6.162457821555570626e-03,4.821795821189880371e-01
4.847366427098234731e-01,6.482495838848980618e-01,4.929209892826769135e-02,1.861626359902444072e-01,1.177380526232009970e-02,-9.066735326549509033e-02,6.454427838325500488e-01
4.849059271310585117e-01,4.654033039290542684e-01,-2.102121955152858046e-02,3.848001999396122048e-04,2.582175801256495970e-03,1.813209116671413287e-03,4.964937269687652588e-01
5.238353717366289741e-01,3.619963220186218078e-01,-1.194186845220529536e-02,9.965907385352671191e-03,6.067349778547968808e-03,1.559823692998207542e-03,4.763980805873870850e-01
4.884763831505914977e-01,4.508306864087712196e-01,-2.630136797954912842e-02,1.198370034731947387e-03,3.396983300825820104e-03,-8.753653680222778189e-04,4.970667958259582520e-01
4.829094834155731597e-01,4.660865723509281522e-01,-1.838724387674905980e-02,1.120128922685349098e-03,-8.443837905070905418e-04,-4.703737508950384810e-03,4.931738376617431641e-01
4.684560573936618622e-01,4.689060666982014514e-01,-1.350104002889146448e-02,-2.630598540871625750e-03,1.113997954271675169e-03,-2.016271103493152018e-04,4.822077751159667969e-01
4.692558414167519176e-01,4.767065794914401855e-01,-9.683351356891356509e-03,1.785798871358525814e-03,-8.593014806267556573e-04,-7.012040017368850915e-03,4.828726649284362793e-01
4.495552041426554846e-01,4.819270322811791130e-01,-3.271718385812416585e-02,-4.798405160039317490e-05,-3.621230632575657459e-04,-5.722060577163031944e-03,4.993448257446289062e-01
4.593389014668106118e-01,4.736833185496530096e-01,-3.750099083450092463e-02,1.944513552038386718e-03,2.720327328297350803e-05,-2.222608306494560683e-03,5.041911005973815918e-01
4.593516655004079574e-01,4.640649553905165647e-01,-3.277498948920221089e-02,-5.474409131353968026e-03,-3.943555143666919137e-03,-6.579219382297259687e-03,4.947694540023803711e-01
4.743584540727137644e-01,4.616901959098139718e-01,-3.728966670127986660e-02,-2.124319158403131054e-04,-9.364688611267091983e-04,-1.297609134919380271e-03,5.054408311843872070e-01
5.024226564710764231e-01,4.226689636862921984e-01,-2.810953586961889572e-02,-2.316468550748039697e-04,-1.910192781208094968e-03,-1.012146090386572238e-02,4.958140850067138672e-01
4.793289263968163461e-01,4.609650598913180297e-01,-3.221769921378941914e-02,5.473511839161713122e-04,5.703047586254141629e-05,-6.970945686564454903e-04,5.026187300682067871e-01
5.266554343990408338e-01,2.542119487314376536e-01,-1.658661990843968148e-03,-9.821194829695001349e-02,1.380003650760917334e-02,5.212997589464234832e-03,4.888712763786315918e-01
4.748769695218532649e-01,4.551473382998823536e-01,-3.681221086377090002e-02,-2.546350111703943255e-04,-6.452493370066087267e-03,-3.795301670522180804e-03,5.022827386856079102e-01
4.641104811122818141e-01,4.663318570573274924e-01,-3.660404859882848694e-02,-1.717276963148259717e-03,-3.226622398402361619e-03,-5.491569156257969202e-03,5.019589662551879883e-01
4.606610179461240184e-01,4.888695021367640559e-01,-3.118609903024860408e-02,2.453023614606834098e-03,-4.898517866665008658e-03,3.939466191127832828e-04,5.066301226615905762e-01
4.090646402816326965e-01,5.040327320788560161e-01,-2.552493709504916053e-02,-1.063959110930202262e-02,-2.503142372643010413e-02,-1.236001155980793499e-02,4.917690753936767578e-01
4.695734860537355004e-01,4.767959759247899498e-01,-2.988955177883823033e-02,9.340408246702787832e-05,-2.659853278986122616e-03,1.396622899539626305e-03,5.031400918960571289e-01
4.640205509829044006e-01,4.788935105138549808e-01,-2.180911715780325943e-02,2.442849121084250674e-02,-6.687976619164473155e-03,9.911510885618370417e-03,4.956778585910797119e-01
4.683929336360879159e-01,4.810555047566011377e-01,-2.823830662639459366e-02,-4.701281431694462917e-04,9.396435564474357521e-04,-6.185257367052289165e-04,5.030865073204040527e-01
4.681568934332828169e-01,4.800457712962526990e-01,-2.379248358042240774e-02,-7.199955721188925923e-04,2.703290259506046112e-03,1.039086905893964489e-03,4.980270862579345703e-01
5.593295604595631687e-01,2.357947837959580850e-01,8.905079338869414940e-03,-1.010949195915670923e-01,-4.257287456262672659e-02,-5.811853272563235334e-02,5.251586437225341797e-01
4.159787583402643762e-01,3.450338460344869462e-01,-2.149042585605570599e-02,-2.096457918729098535e-01,-4.655423208895885512e-02,-6.937606561520032189e-02,5.640667676925659180e-01
4.655430000952472946e-01,4.163527437609808035e-01,-1.973684717143175948e-02,-4.844946197191693678e-03,-1.472916446399640672e-02,-1.094384925756496443e-02,4.638164937496185303e-01
4.170534304829136563e-01,4.107617971937935764e-01,8.049935509493011399e-03,-2.857517516851157402e-02,-7.745350263408368706e-03,-3.401514181292124121e-03,4.091631174087524414e-01
5.017242768941819753e-01,3.679066342557789637e-01,-3.625339021903623005e-02,-1.087353712707219977e-01,-2.712289091448055051e-02,-4.301860627941692800e-02,5.277926921844482422e-01
4.605851230381060035e-01,3.859766186039023106e-01,-9.999047286953333114e-03,-7.630170110466356903e-02,-4.299471268143938152e-02,-5.192499965328641748e-02,4.722355604171752930e-01
3.759503750627333218e-01,5.469129244311167204e-01,2.149044816353551379e-02,-1.812605235855999641e-01,-6.563769619139042666e-02,-6.892249782523177104e-02,5.841330289840698242e-01
3.757090323208749361e-01,5.133525973389686525e-01,-2.040300588614846200e-02,-8.248103120044346977e-04,-2.267250185262592241e-02,5.297691740537114691e-04,4.815784394741058350e-01
4.368947527098866468e-01,4.470322684379057776e-01,1.826232262988669586e-03,1.696383288248386884e-02,-9.132767892180264910e-05,3.703454806452904143e-03,4.412509202957153320e-01
5.249698877552911869e-01,5.072467291194749928e-01,-2.366446732678489928e-02,4.965619344589039530e-02,8.753684273646183261e-03,-2.477090820633434838e-03,5.470244288444519043e-01
4.363355675275510381e-01,4.636433324313338211e-01,-1.882556372764676578e-02,7.940497684084097882e-03,9.602660668531153021e-03,-1.138384203095377592e-02,4.703204929828643799e-01
4.494299782778956587e-01,4.584060940148271257e-01,-1.155621290164132731e-02,4.041764093737620737e-03,3.114810494976963037e-03,-7.631701349661643673e-03,4.658106267452239990e-01
6.670620110369938072e-01,3.186406734766206172e-01,-8.401500828019742295e-02,2.405164480058750165e-01,7.899915099891619691e-03,2.947435345251058283e-02,7.747004628181457520e-01
4.522527610596893677e-01,4.392822100030842614e-01,-1.561151186678688685e-02,1.927477722735091575e-02,7.640910989082502422e-03,-7.019721459436389574e-03,4.630705118179321289e-01
4.480804159078285998e-01,4.576178107615979096e-01,-1.664730737522801540e-02,2.552373647655638289e-02,3.818511117313278577e-03,-8.033948157578921223e-03,4.718970954418182373e-01
4.890972281050934845e-01,4.424422276453735536e-01,-2.857888365315408574e-02,7.741243206199144647e-03,5.389000914531079031e-03,-1.111526399473585121e-02,4.966393113136291504e-01
4.782064758637961654e-01,4.749876236328325896e-01,1.546391229218080365e-02,1.224733560320682112e-02,3.101030484172483202e-03,3.124000490842434447e-03,4.616921842098236084e-01
4.633827883864272135e-01,4.477426806062474451e-01,1.759429770419373984e-02,-3.671160167719828699e-02,-8.508820701622893737e-03,-1.763156949477034593e-02,4.440640211105346680e-01
4.744595482619580751e-01,4.595636349324119241e-01,-3.688038985803543390e-02,-1.274108631156276039e-03,-1.429332797143847414e-03,-1.532960344345671430e-03,5.040749907493591309e-01
4.717756105881527606e-01,4.593253238906368496e-01,-3.844882835935947707e-02,1.654640325214877679e-04,-2.667015990106724049e-03,1.480148668162053712e-04,5.041359066963195801e-01
5.770818704964963963e-01,2.938982030046129457e-01,-2.998503991570217186e-02,-6.230617549704759589e-02,-1.382710193623631900e-02,-3.242828698287037598e-02,5.405426025390625000e-01
4.827914941696775375e-01,4.553401144986815030e-01,-8.597579838679869635e-03,-2.297305343754950727e-02,-2.328198966255268926e-02,-2.438780926606345587e-02,4.834472239017486572e-01
4.203019635999553083e-01,4.310026469107647307e-01,-2.044323114426360721e-02,-7.129739662027989588e-02,-4.161599871604859668e-02,-2.859753189927536493e-02,4.711540937423706055e-01
4.875280553474194978e-01,4.434575128144666034e-01,-2.561848114764803119e-02,2.760562567434408747e-03,-7.630477705641325846e-03,6.733173348247015709e-03,4.929305016994476318e-01
3.198624771714274617e-01,4.692319841005869741e-01,-3.444433385130285519e-03,1.848494852868609595e-01,-2.906774161358384803e-02,9.948302803713216652e-03,5.295946598052978516e-01
3.875908542933004242e-01,4.884807582286741501e-01,-7.337753279557934771e-03,6.867679679297682138e-03,4.138069441840822905e-03,1.152322674985950361e-02,4.545139372348785400e-01
4.040410307314466487e-01,5.049922741395772574e-01,-1.915590814096085337e-02,1.140361417386884582e-02,-1.480952389563772002e-02,1.323541814974172302e-02,4.833039343357086182e-01
4.637152786376027014e-01,4.796762042155943151e-01,-2.822335493591304756e-02,4.632093507771532716e-04,-2.940609221993330247e-03,3.315562045201797363e-03,5.001696944236755371e-01
4.633644166552940979e-01,4.157063013328835543e-01,-2.595607992924742202e-03,3.599913744540893246e-02,-8.917410340010324329e-03,6.867765644875097400e-03,4.488330781459808350e-01
5.086012822646226450e-01,3.713975767977719111e-01,-9.589403285345243777e-03,5.977762256566047927e-02,-9.313967073922686801e-03,1.260482363914805851e-02,4.771852493286132812e-01
4.752162230382659391e-01,4.317551132332756447e-01,-1.895837330213701044e-02,5.502742889400731585e-03,-1.304870477569415599e-02,1.129875364831146520e-02,4.749785959720611572e-01
5.584646060073443774e-01,5.228618476998164732e-01,-1.480515460713555109e-02,2.671426400799370438e-01,-3.546480482007095120e-02,2.328356349036796516e-02,7.273176908493041992e-01
6.092314037823920447e-01,3.355380387764071437e-01,-1.783939792526789692e-02,2.458371960923043942e-01,-2.573048392785643249e-02,-3.346759168289463460e-02,6.950934529304504395e-01
5.470975768713842724e-01,4.326867060914068031e-01,-2.962238128328059661e-02,3.323640281818937559e-02,3.242506501643318412e-02,-3.273554825902117577e-02,5.379551053047180176e-01
6.418619540054284478e-01,2.875585195429695706e-01,-1.845393081752799702e-02,1.023574078102879314e-01,1.493882507229081329e-02,1.917868248943331230e-02,6.006662249565124512e-01
6.428103888293011936e-01,1.240228672849773978e-01,-2.632014148149580679e-02,-4.227917539440295691e-03,-5.804096684080589826e-03,-1.128488434165882993e-02,6.085033416748046875e-01
5.235478064592098413e-01,3.408287416045402973e-01,-9.612008400649463269e-03,5.767717984857934771e-02,2.740945843354139835e-02,-2.684420385778297363e-02,4.843788146972656250e-01
5.213900568688705217e-01,3.515276265627627073e-01,4.155534987438536110e-03,3.308007767881619710e-02,1.236006552078017066e-02,3.253722588817167458e-03,4.607591927051544189e-01
5.040469313454269962e-01,4.215574545573468335e-01,-2.320945148434749861e-02,1.327682100118909685e-02,1.313614509793816290e-02,-1.133124197014703967e-02,4.926889538764953613e-01
3.514300638324109327e-01,5.006083507310373770e-01,-1.574001530493085443e-03,-1.426438373872665824e-02,4.030093846909429630e-04,1.474387206797978661e-02,4.480955600738525391e-01
4.015241662588807103e-01,5.075306407375664852e-01,-2.343324005662217324e-02,-4.855610525699152942e-04,-2.639443257630663762e-03,1.034394565793003012e-02,4.870492815971374512e-01
4.177252844273064980e-01,5.161488581569667611e-01,-2.721080530057018443e-02,8.642660808855793034e-03,5.545901662699660555e-03,1.541739804630790685e-03,5.017678737640380859e-01
2.850604688414985488e-01,5.507144174308249429e-01,7.763050840191076940e-03,-5.341119732861647311e-03,2.258493198147691269e-03,6.051774544392964084e-03,4.704697430133819580e-01
2.683036581305354162e-01,4.894410927492447994e-01,-2.285812805437059669e-02,-1.510227210216387173e-01,-6.411887434523455553e-02,-2.941128870680406390e-02,5.304866433143615723e-01
4.765174001436059403e-01,4.781398349499181855e-01,-3.477757438825557212e-02,2.730175036618174688e-03,1.738062967499061622e-03,2.388464851395279663e-03,5.121555328369140625e-01
2.425789047007489985e-01,6.046671882292937727e-01,-8.859775543079828619e-02,-2.330524351064598709e-01,6.218753732664662054e-02,5.786925818564921803e-02,7.384374141693115234e-01
2.853285524729904932e-01,5.331427435717164265e-01,6.523777919472451003e-03,-1.013720659505230708e-02,8.980065549171898026e-04,2.687053220423024028e-03,4.566926062107086182e-01
4.766739645329585717e-01,4.529986587299136280e-01,-2.576777090252713176e-02,3.693655896582997522e-04,4.518809210868645829e-03,-2.512579117998714126e-03,4.911144077777862549e-01
4.740340060310997972e-01,4.158041541783843442e-01,-1.000245857193421406e-02,2.622867675093945930e-02,1.153721406550428305e-02,-9.825332860973236271e-03,4.607053399085998535e-01
4.839400726448209733e-01,4.249588672177190829e-01,-1.819192635328759078e-02,4.975488513901020829e-03,1.296186102601031703e-02,-8.739623189587431007e-03,4.762419760227203369e-01
7.033374562435952271e-01,2.041845434372043799e-01,-2.918453375820412310e-02,4.142391590240205451e-02,1.250377723370067924e-02,-2.778188447885327275e-02,6.542430520057678223e-01
4.653273805090201165e-01,4.238736899338118036e-01,-7.201517065536455764e-03,6.565389345836571654e-03,9.094513151227529013e-03,-2.988886434061221488e-03,4.536718428134918213e-01
4.684281751015642037e-01,4.137873674792368894e-01,-7.630813897014143699e-03,1.101641522669161849e-02,9.185283934842039533e-03,-2.582474135358069772e-03,4.519322216510772705e-01
5.187072494290223545e-01,4.741340460483521868e-01,-2.445139634070064849e-02,8.187297976163207536e-02,2.340902604532727957e-02,-1.443556707909137045e-02,5.433014035224914551e-01
4.314799628239768259e-01,4.239979960699679640e-01,3.811736889191008615e-04,3.210667298342673864e-02,-1.158491145279753822e-04,2.885254506955853889e-03,4.310385286808013916e-01
4.339186037991172862e-01,4.386314804524306665e-01,-1.418189067756975286e-02,-4.990420761028231504e-03,-4.064863219937698419e-03,-6.067634524500604976e-03,4.507358968257904053e-01
4.913424506699488603e-01,4.442137092722296954e-01,2.914513788437933517e-03,1.385893669567853440e-03,-8.720806204709439504e-04,-9.706231291877644293e-04,4.666635096073150635e-01
4.395350243583350247e-01,4.196340909368118099e-01,-1.967014861770449707e-02,-3.900603984610752362e-02,-2.275102112072701147e-02,-2.543666450493471676e-02,4.584595263004302979e-01
4.808482647708097191e-01,4.625829132614133199e-01,-2.894101505541835095e-02,-5.407243763836192809e-04,-4.704065492322417538e-03,-4.741889501922229256e-04,5.009742379188537598e-01
4.808826640523742313e-01,4.792106093274680623e-01,1.425449867525302450e-02,7.756280199625217343e-03,-6.528949019741721316e-03,-4.678147592439111128e-04,4.661259949207305908e-01
5.642225134818191767e-01,3.279114810526764234e-01,6.433373745741277627e-02,-4.253595843829702065e-03,-3.314031791609874794e-02,-1.006683581604505551e-01,4.704826772212982178e-01
4.926859348466236521e-01,3.577029600353853200e-01,-6.702967746480548161e-03,-1.307330610419580111e-02,-1.722443931262412214e-02,-1.646064527804663724e-02,4.499070048332214355e-01
5.243142320566827053e-01,3.525226735448652726e-01,-1.345450242209256242e-02,-8.570436080353948174e-03,-8.050702714085360145e-03,-7.195975302550553746e-05,4.761703908443450928e-01
4.666551349828780282e-01,4.158444784340098455e-01,-2.095884462927788405e-02,-6.200026233069125606e-03,-1.515598348601981428e-02,-1.016160014394115393e-02,4.654968678951263428e-01
5.313555788500921029e-01,3.114175110993286921e-01,-1.378905167707500379e-03,5.596924008570963033e-02,8.214666911563974286e-03,-9.312017303149891165e-03,4.742050766944885254e-01
4.713653495524182668e-01,4.163241606505934111e-01,-2.314240686465213193e-02,-1.193239195521803020e-02,-1.225866355927924221e-02,-1.239003514594104981e-03,4.703527688980102539e-01
4.944118286832698272e-01,3.003421957570922562e-01,1.201506346455605279e-03,-8.819362283790717350e-02,-6.571558419639406470e-03,-5.529963894571654319e-03,4.569003582000732422e-01
4.727568436878736291e-01,4.809783337378930046e-01,4.399473964532202297e-02,9.684148455487930421e-03,-5.919963070975314476e-03,7.396664016881525534e-03,4.335668385028839111e-01
4.444080721430427316e-01,4.394593718857100484e-01,-2.152958756386069705e-02,-4.816815091678141106e-03,-7.105160819860137367e-03,-1.620174247068268888e-03,4.637300372123718262e-01
4.837982457284816240e-01,4.737545988905019767e-01,4.392399889600828722e-03,1.591619540936033876e-03,-3.207756000854030797e-03,-8.812788136043031226e-03,4.747497439384460449e-01
4.816807587608568086e-01,4.721854570812369367e-01,-2.286848010205994042e-02,-5.835254589922644376e-04,1.273125302106727173e-03,-2.598312994214992643e-03,4.998953640460968018e-01
4.753547476673308791e-01,4.721283372186622085e-01,6.497194708247605588e-02,1.001692521856249393e-02,-1.511633502506370789e-03,7.340510533732936931e-03,4.093530476093292236e-01
4.817195900318097523e-01,4.735110990440253298e-01,2.617053135725389001e-02,-8.885984832299935552e-04,-1.186216874309158932e-02,-3.665876524007078384e-03,4.520152211189270020e-01
4.755098426043747883e-01,4.753004744974697049e-01,2.710542292911344298e-02,2.089746336981620524e-03,-1.730807486798619649e-03,9.988844518973723566e-03,4.486581087112426758e-01
4.657862116817454434e-01,3.620129813641121963e-01,9.557919041093321244e-03,-2.922499257692148800e-02,1.796149067785353381e-02,1.631888751199426016e-02,4.194018542766571045e-01
4.557635848437460169e-01,4.357419157953893452e-01,-1.659407394816242443e-02,-1.867443058786167481e-02,1.848990023008947534e-02,1.829500446149448512e-02,4.659841060638427734e-01
4.642760817518177263e-01,3.822215582151795021e-01,3.653193997870396448e-03,-1.142344613419894045e-02,1.140529336328630593e-02,5.772939476312095169e-03,4.266051054000854492e-01
1.498790528433117109e-01,5.284565025582261821e-01,-1.373544177444663283e-02,-1.878564124785543354e-01,3.272289339850575256e-04,5.345798642407217178e-04,5.812939405441284180e-01
2.705584193119627279e-01,5.958251530278625419e-01,-2.732983561164670228e-02,-8.209026497555957369e-02,5.268224060264314196e-02,7.256775135362164564e-02,5.794565677642822266e-01
3.933129174262816052e-01,3.403213237265765301e-01,-8.404497444064129574e-03,-1.912867420572256227e-01,1.224843089473190080e-02,8.565472836481072966e-03,5.033283233642578125e-01
5.047314547515773242e-01,3.619876167790039290e-01,-2.173268767488312214e-02,1.011304748582698846e-03,8.830500821927192781e-03,2.933135009648994360e-02,4.745616614818572998e-01
4.477421701305406287e-01,4.503356448061932582e-01,-2.745231012076992938e-02,-2.346738732044510636e-03,-3.674110465281319078e-03,-6.458862415819522154e-03,4.766876399517059326e-01
4.727563535811335482e-01,4.902850671379451741e-01,1.427731292794692797e-02,1.401766322552297842e-02,8.980131105567657618e-03,-2.321343644587890720e-02,4.701008796691894531e-01
5.149170878922290084e-01,4.094728186950583049e-01,-2.406059409108013414e-02,9.261485512747460666e-03,3.996575934941347039e-03,-5.159511782051224432e-03,4.951448738574981689e-01
4.589451743318097021e-01,4.497850420985288755e-01,-2.557897918073126498e-02,-2.627848228934465905e-03,5.651659718682669649e-03,3.981829909081577475e-03,4.801805615425109863e-01
5.231571922233176908e-01,2.771501972389471269e-01,-1.740758777980966343e-03,-8.218661739037760872e-02,5.759170991267825723e-03,-4.903352330007429080e-03,4.768063426017761230e-01
4.802480703366857062e-01,4.616330442015238456e-01,1.640989111689195035e-03,-5.692749137266769335e-04,2.703701325354916380e-03,5.067781926079152101e-03,4.696827828884124756e-01
5.146149846028938990e-01,4.252168267051489314e-01,-1.667401380887079121e-02,-1.815719254450607820e-02,4.396779130708465544e-02,4.384186140000982668e-02,5.052906870841979980e-01
4.836075642773980388e-01,4.756001009987964601e-01,5.325824018650782143e-03,2.210504375249827159e-03,5.737821784615505100e-03,-4.431787352586809108e-03,4.745103418827056885e-01
5.214130830162584385e-01,3.497265483273632736e-01,3.371489762143570212e-02,1.003903225205837468e-01,1.909966401362392374e-02,-6.792607865089768382e-02,4.782943427562713623e-01
5.150405816860150754e-01,4.542192261877976422e-01,3.800442806527803974e-02,1.048976935953700035e-02,-3.525177314185436780e-03,-1.211347050374792135e-04,4.501290619373321533e-01
4.821306273372394369e-01,4.759067020327086839e-01,4.341127608603112531e-03,3.042526947092310651e-03,1.047896805654587298e-03,-7.111089071721202887e-03,4.749006032943725586e-01
4.836619357420661180e-01,4.744635984077288926e-01,2.679616665354950245e-02,2.458428416162786439e-03,-2.577606916355690194e-03,8.491164404772724716e-03,4.526178240776062012e-01
4.915353041495189035e-01,4.386798275059420327e-01,-2.768935891873913757e-02,9.104640750838975845e-04,6.312874788052359916e-03,-1.220466996071217954e-02,4.954926669597625732e-01
4.810243711828667279e-01,4.592500504614723811e-01,-2.630158426469036970e-02,2.730767059283946505e-03,9.009541760901383818e-04,-2.137199616209226657e-03,4.968355596065521240e-01
5.142872497831462164e-01,4.731861416165732415e-01,3.365822350729236190e-02,1.294081355432519231e-02,-8.151010240243689725e-03,-4.150729420285488580e-02,4.677707254886627197e-01
4.770215822299312958e-01,4.659988494498791267e-01,-1.080825645409394520e-02,6.601047990772014422e-04,-6.571773639028474605e-03,1.099907024095082711e-03,4.825523197650909424e-01
4.770063786475418621e-01,4.605006360215654349e-01,-3.432713091075090261e-02,9.654624952864003734e-04,-5.271860154400394988e-03,-4.611815386902750301e-03,5.034326314926147461e-01
4.689071855486320883e-01,4.447453262219759340e-01,-3.040118761172766471e-02,-1.078140068565774067e-02,-1.020032507611101820e-02,-8.067229980114798762e-03,4.885534942150115967e-01
4.239883792410617525e-01,4.463242968574741010e-01,-2.361222479702862476e-02,-5.782333602884081464e-02,-2.302996880826691309e-02,-1.609477940039000937e-02,4.724845290184020996e-01
4.807925010966995205e-01,4.616526884165725320e-01,-3.035862909807712784e-02,4.497389780890805760e-04,-1.868507137066288378e-03,-8.925291813383886197e-04,5.018684267997741699e-01
4.820453000758078144e-01,4.724940819170537765e-01,2.860512224501787770e-04,1.624289011825299101e-03,1.160535118011130247e-03,-7.791624043933199559e-03,4.772587418556213379e-01
4.805665532238602711e-01,4.546872625261563772e-01,-3.511680636063979621e-02,-1.455203521293281131e-04,-5.131712574704769096e-03,-4.507067909394823352e-03,5.033820867538452148e-01
4.783626215495195844e-01,4.745014405949762315e-01,2.074097284800840990e-02,2.507491773701695740e-03,-3.538899344181959707e-03,-8.164386727766712384e-03,4.559845626354217529e-01
4.697646447900638567e-01,4.853779207273485330e-01,9.743439263647363235e-02,7.771800241664383532e-03,-6.510704686835919706e-03,-1.751673232962210535e-03,3.807945251464843750e-01
5.777369289350861026e-01,3.073699133369774406e-01,4.282032867152363309e-02,-4.863541028847825215e-02,-3.076726759654793350e-02,-8.222942585900566703e-02,4.948044121265411377e-01
4.824184695985680449e-01,4.545610775244497415e-01,-1.698688829196570715e-02,6.855484506333360886e-03,1.450002884326437747e-03,-3.440719320819990434e-03,4.862637519836425781e-01
4.808173825198723828e-01,4.753294115138098630e-01,-3.179696436746315413e-03,-4.466225577689247233e-04,-5.763622400480021037e-03,-3.020596837426698690e-03,4.814091324806213379e-01
4.823554657721457195e-01,4.779101338595803106e-01,-1.605985389314484868e-02,-2.651858947682066603e-04,3.155549258478101450e-03,1.056109423626845362e-03,4.962412714958190918e-01
4.072590744241340044e-01,4.992251749601014921e-01,-2.481932702713562922e-02,2.858746375933096315e-02,3.331360161197932657e-02,-1.945162826605456585e-02,4.917339682579040527e-01
4.836943168720678199e-01,4.781818284233684269e-01,-1.400833632432824105e-02,3.516840745415258950e-04,3.588153202371524228e-03,-6.533782938318475567e-04,4.950101077556610107e-01
4.718294473907930220e-01,4.854570788165538664e-01,-2.996017676281109710e-02,2.085026074448122820e-03,4.840377936190012539e-03,-2.828483595539125952e-03,5.088458061218261719e-01
4.425539183019437939e-01,4.829759342317179183e-01,-2.587791969968433747e-02,1.018552992693658177e-02,6.669740532552188503e-03,-7.415375005215158258e-03,4.905170202255249023e-01
4.778281900880309574e-01,4.768700259630682114e-01,-2.424552825924447541e-02,-7.869562272504398255e-04,-1.752368532205496494e-03,-1.634741200033065951e-03,5.016143321990966797e-01
2.416859873530110558e-01,6.219423553594911613e-01,-1.480730287653220234e-02,1.379795672426952780e-01,-1.478316675187825099e-02,-1.281117436642241134e-02,6.051281094551086426e-01
3.903770163162147977e-01,4.933171259457138635e-01,9.243415091527151795e-04,1.473935018911989581e-01,8.331888576048480932e-02,-2.299488048345976060e-02,5.384675264358520508e-01
2.254213540030135243e-01,7.047161738688727528e-01,-1.041873671352246955e-01,1.868837048715678018e-01,5.396728567244319513e-02,3.671049356900417393e-02,7.835190892219543457e-01
4.584464008355052522e-01,4.593095400599915834e-01,-3.722771060917889896e-02,-5.455633163055931484e-04,-4.334695161546600270e-03,-2.867878049512854240e-03,4.961888194084167480e-01
3.739631051053409205e-01,5.187823589094271437e-01,-1.220381979058626776e-02,3.473476608556180789e-02,7.404566935689469928e-03,-7.285372394626668177e-03,4.795468151569366455e-01
4.682196122177990638e-01,4.911370005524190452e-01,-3.112204376795629779e-02,4.399581990283433879e-03,8.985041387617041797e-03,4.029846583111153235e-03,5.115270018577575684e-01
3.792466793766428035e-01,5.063902996187168437e-01,-1.658348618571875432e-02,6.501552659218416685e-03,2.363922173374044880e-02,1.030910167561514693e-03,4.743213355541229248e-01
2.862618243903223281e-01,5.411632759599802611e-01,7.173310343084216001e-03,3.183765891503527543e-03,1.167893895435994376e-03,3.176445425924276714e-03,4.626769721508026123e-01
5.493673324879888575e-01,3.031252932342733963e-01,3.050388098832845785e-03,-3.535366427110680121e-04,2.959106138429543845e-03,-1.620918049537878195e-04,4.739175736904144287e-01
5.078337590348752650e-01,3.598865191253826645e-01,6.967521722077707480e-04,2.321247591323366902e-02,9.902891433981320102e-03,-1.273300742157754952e-04,4.538254141807556152e-01
5.152928972692971676e-01,3.551940015740911449e-01,-1.250379495746417602e-02,7.914813994952632145e-03,1.415993701073241587e-02,-1.448114735035823178e-02,4.702338576316833496e-01
6.006125759268396980e-01,1.765688377415835786e-01,-1.719215591514550168e-02,1.284019819322173850e-01,2.626234053520614189e-02,-8.328110616330156729e-03,5.926702022552490234e-01
5.334358760116477693e-01,3.358665414975165464e-01,-5.230140544157435567e-03,1.430544651204913864e-02,7.496317188683463556e-03,-2.004829949878877277e-02,4.740877151489257812e-01
5.084750578776515706e-01,3.573698457917805493e-01,-2.254571011917616552e-04,6.652911185405364913e-02,-9.966147017843355552e-04,-1.442974627174318635e-03,4.669360816478729248e-01
4.626521373466576659e-01,4.259601309550651305e-01,-4.561328568100431191e-03,3.845846528412245197e-02,-7.687598512509646181e-03,9.783960188656905602e-03,4.554046094417572021e-01
5.467136562937577882e-01,2.470279854479376369e-01,1.207051456928776023e-02,1.275322310229823619e-01,3.917901780581223292e-02,-5.207367657672978822e-02,5.262730121612548828e-01
5.183709731890445704e-01,3.041944967508425912e-01,9.672036424028251922e-03,-2.671491774628032695e-02,1.350771712024059681e-03,-3.600102474310941858e-04,4.447940587997436523e-01
5.847193935208508941e-01,2.765063060837003595e-01,-6.804493925116616992e-04,5.979219781337183348e-02,-4.595995503410846283e-03,-9.950607863516709294e-04,5.177374482154846191e-01
6.174152001508783627e-01,1.290290194239432919e-01,-4.486870781318041956e-03,2.386483493139175335e-02,-1.015233849111026434e-03,1.410611464996566755e-02,5.690900683403015137e-01
4.457536997688902880e-01,4.653140953850258832e-01,-2.614039023844944021e-02,-1.199129541330585559e-02,1.227256283605739247e-02,1.221778508118533807e-02,4.833509325981140137e-01
4.567396381489119417e-01,4.531023580557514974e-01,-3.360170567017534138e-02,-1.069958894001963147e-03,1.279843276690249181e-03,6.066831922278972770e-03,4.886544048786163330e-01
4.596897238552796194e-01,4.301973541351650776e-01,-1.971580947707579634e-02,-2.589816670518573383e-03,1.393538630891151542e-02,1.191896127009763615e-03,4.660124778747558594e-01
4.695949545144099124e-01,4.382762143050862313e-01,-3.241200003373612137e-02,-3.551285259812490911e-03,1.486760669214972838e-02,1.058255588809925082e-02,4.881665408611297607e-01
4.447489250430122776e-01,4.527002311035291937e-01,-2.894697977174204295e-02,-1.582756662675400758e-02,7.878866803448351247e-03,1.044236666670625945e-02,4.790432453155517578e-01
4.562974296243771377e-01,4.708088531264424947e-01,-3.275224905659668284e-02,1.436283873356201490e-04,7.057146877043941630e-04,8.929236245446956280e-03,4.967068731784820557e-01
4.560468309703414325e-01,4.644457267624872987e-01,-3.211396894481632902e-02,-3.357179418062235503e-03,1.427732968973898647e-03,5.283437084983482531e-05,4.924545288085937500e-01
4.671360309421388468e-01,4.633318803781528716e-01,-3.707861084944985564e-02,7.317559344914768252e-05,3.987564977865720554e-03,2.412856704317093478e-03,5.023882389068603516e-01
4.660420010457003714e-01,4.715110421474516533e-01,-4.044632133944420227e-02,-7.289110479416435761e-05,2.796264036948059866e-04,2.042023094004218921e-03,5.092573761940002441e-01
4.601527393301442781e-01,4.456520879051516504e-01,-2.407607498235581067e-02,-3.390567231703371480e-03,1.094109645448735138e-02,4.727524904337631131e-03,4.776262640953063965e-01
5.153245631484748568e-01,4.581766360618209633e-01,-3.088623690028496904e-02,5.904745075947893246e-02,-1.971883388628150810e-02,9.052485581047734972e-03,5.312903523445129395e-01
4.286096991818606483e-01,4.992745377084223946e-01,-1.913623007088616212e-02,2.024388280618284481e-03,-9.915096290908032017e-03,-3.323165769990090996e-04,4.872549474239349365e-01
3.679249962326957002e-01,5.110979766843928296e-01,2.814967416277858181e-02,1.408381045020819788e-01,-5.838052953868577005e-02,1.774044704220305237e-04,5.043049454689025879e-01
3.412549520620540289e-01,5.238858781619971650e-01,-1.359623945820004343e-02,1.390424409522269256e-01,-2.272989115657985879e-02,1.616973434996541933e-02,5.333037972450256348e-01
3.966099295886841292e-01,5.853328439541967132e-01,-3.254865339491302967e-02,2.905360183699699506e-01,1.556784061411897041e-02,4.066726001322405748e-02,7.481360435485839844e-01
2.966022819024093926e-01,5.812586172361122738e-01,-1.132406793238832643e-02,9.902755097767340642e-02,-1.353643654812007428e-02,4.294333206501543820e-02,5.468112230300903320e-01
3.924824400796224078e-01,5.014841024950831283e-01,-1.711543934349080143e-02,2.882667352856696334e-03,-1.824296383824792339e-02,2.989559065331146015e-03,4.747091531753540039e-01
4.657102050293657758e-01,4.643151864462997103e-01,-4.486560401368611117e-02,9.726589285286141306e-02,-3.015104537733068191e-02,1.907866013055029702e-02,5.405354499816894531e-01
4.797822770290316452e-01,4.827850345609602245e-01,8.668161959857478838e-03,3.753463167102956649e-05,-6.013736239975792271e-03,7.761393646812496036e-03,4.729285240173339844e-01
4.790363602520159025e-01,3.811880796077232736e-01,-5.144723978509402329e-03,1.439817892912799990e-01,-2.918287967154506446e-02,8.008068943918934812e-02,5.297313332557678223e-01
4.582709472354529190e-01,4.492385356914488925e-01,-2.980873582341397876e-02,-7.028998585047234460e-03,-8.934764313737214581e-03,-5.022004599502488502e-03,4.841055572032928467e-01
5.167935346272323205e-01,3.669134352174681091e-01,-2.087005706535138838e-02,-5.772157606629581619e-03,1.248306575957647616e-02,2.546304698622748469e-02,4.831911027431488037e-01
4.754968442665743478e-01,4.554754539898664412e-01,-2.433649909756552265e-02,3.226080831793493985e-03,-8.029032424170712626e-03,5.357190851386983872e-03,4.904462993144989014e-01
4.989950072119399005e-01,3.559244593600270345e-01,2.949309311247427789e-03,3.426555738067459805e-02,-2.989455360270487617e-04,-9.176622955654532669e-04,4.461907148361206055e-01
5.031725077917515998e-01,4.126372991803316514e-01,-2.250023513533594421e-02,1.504219531201036845e-02,-6.735391912968482359e-03,1.955767750085124143e-02,4.887729287147521973e-01
6.107211863905083193e-01,1.978936447279854849e-01,-2.122765216217742390e-02,-4.276053068563025195e-02,3.818106798394304419e-02,4.053327212184008876e-02,5.689355134963989258e-01
4.610574387299672949e-01,4.629527284394250319e-01,-3.880571987108788479e-02,6.648639417081750021e-05,-1.006420268300071183e-04,-1.685014021638917090e-03,5.008220672607421875e-01
4.621925328572812353e-01,4.654425005056003206e-01,-3.906320359850784518e-02,-3.135952026322718104e-04,-7.645781845917202970e-04,-1.920780114546671814e-03,5.029016137123107910e-01
4.617768496475638251e-01,4.676968128452498874e-01,-3.910291902791174223e-02,-4.455689160100781464e-04,-7.544008533064130648e-04,-8.681161629363854607e-04,5.038703680038452148e-01
4.759333687092072163e-01,3.804847784102978747e-01,-2.334815777918847202e-02,-1.247615288594211974e-01,-3.633520336505758480e-02,-3.174036875873147145e-02,5.142140984535217285e-01
4.491316707809007713e-01,4.642375695192070273e-01,-3.116276981267201984e-02,-9.165085054771643716e-03,-7.955124682789123033e-03,-1.101378878819477512e-02,4.888476133346557617e-01
4.676627282701277810e-01,4.547170705761284237e-01,-3.743611714651740030e-02,-1.775590518102392219e-03,-5.631325420245387493e-03,-2.396020370998525311e-03,4.988741576671600342e-01
4.671244759262908053e-01,4.652932426175196978e-01,-3.845548964216732868e-02,-7.044726831449670684e-04,-6.960695328216404392e-04,-2.415361559228874997e-03,5.046870708465576172e-01
3.932070648872830754e-01,4.712739943057625003e-01,-1.617749388011902045e-02,-7.407261061417727555e-02,-3.148684473489907210e-02,-2.672339590793067904e-02,4.766828119754791260e-01
4.562276409301813107e-01,4.411520347658161034e-01,-3.115661654187656948e-02,-5.738143950905002545e-03,-9.702197075437332674e-03,-6.049117839863702578e-03,4.805351495742797852e-01
4.565280019457420568e-01,4.520103929677780075e-01,-3.031333100033117844e-02,-9.341113569659231092e-03,-9.139654949619577945e-03,-7.545220073383355000e-03,4.853026866912841797e-01
4.535427258663177197e-01,4.710378005356906650e-01,-3.694922456127286425e-02,-2.427742894859410624e-03,-4.311408287336720470e-03,-6.242571890134308854e-03,4.996598660945892334e-01
4.642554301195348510e-01,4.900741399429311973e-01,7.156406923877423054e-03,-2.904340316270961897e-02,-2.344782902533376623e-02,-3.837116763595166402e-02,4.795881807804107666e-01
6.852837340359965168e-01,2.402634693752782047e-01,2.670037371840056073e-02,-8.919958720732949764e-02,-6.462717382945060152e-02,-6.477981046992656311e-02,6.226404309272766113e-01
4.845142612167193663e-01,4.679952299537851745e-01,4.692029707679051809e-02,-6.934870677399851413e-02,-3.712836338347559606e-02,-3.565209468657779684e-02,4.548727571964263916e-01
4.788745649598515897e-01,4.789000931777130932e-01,-2.082604965451778645e-02,5.038454875990065578e-03,-1.443789099454091326e-02,-1.476722645644473579e-02,5.010680556297302246e-01
5.034859508377269588e-01,3.743595362462778242e-01,3.050732946960771352e-02,-2.099728675839713787e-01,-7.100116127465695703e-02,-5.984193907329663636e-02,5.808966159820556641e-01
4.945603110580930051e-01,2.994487733731093781e-01,-1.941532540362994608e-02,-1.645572003735580879e-01,-3.038116435553642539e-02,-2.163534932908003916e-02,5.360665917396545410e-01
5.169938636855297975e-01,3.864528253357188969e-01,4.970687810165802523e-02,-7.388843635085201589e-02,-7.012683546085353437e-02,-6.342689732503226097e-02,4.664747416973114014e-01
5.963954590520251786e-01,4.918559225773056487e-01,9.843915654445978269e-02,2.145583077587788143e-02,-7.553251377749292672e-02,-1.764495960945365038e-01,5.645642280578613281e-01
4.432584757204204307e-01,4.554718266987381470e-01,-2.710313669465735931e-02,-6.024564387605165459e-03,-1.044606018628740744e-02,-8.228097132996190638e-03,4.772559702396392822e-01
6.087971636509903473e-01,1.669840596463144367e-01,-1.874937442649843300e-02,-4.646995713248488341e-02,-1.570110694034874618e-02,-5.243521000696100415e-02,5.720327496528625488e-01
5.271025575813325093e-01,3.657509009992970794e-01,-2.801915991987830035e-02,-9.768254452835256618e-02,-2.676380954385508895e-02,-5.549339270691711068e-02,5.335145592689514160e-01
3.711219042262840495e-01,4.640992785271287890e-01,9.698876322294047725e-03,-1.251973904394774496e-02,-1.435871345212482049e-04,3.908327442894910485e-03,4.164032638072967529e-01
4.777902614553728444e-01,4.406892435760098592e-01,-2.607225972418514282e-02,-2.151926199232310002e-02,-1.182037947719979595e-02,-1.724107807290843619e-02,4.891423881053924561e-01
4.855825183961172131e-01,4.545340815038934057e-01,-3.238857106853187950e-02,-1.133776655461767513e-03,-1.385932259391774862e-03,-5.271009368292800014e-03,5.032582283020019531e-01
4.036927904821530078e-01,3.498243915067777987e-01,2.226406036615158346e-02,-1.801898766564039855e-01,-6.266177839328322674e-02,-4.974965900202023977e-02,4.944213628768920898e-01
4.685548006816468991e-01,3.589486586828202208e-01,2.623483329360121186e-02,-1.120136037508008414e-01,-3.320914775384492534e-02,-4.524577390192225518e-02,4.541703462600708008e-01
2.957984923268698885e-01,5.206377873243928089e-01,-1.601819817643745925e-02,-1.896002474939250670e-01,-4.310821159701656857e-02,-3.752343415663964704e-02,5.792536139488220215e-01
4.156647762313830374e-01,4.626377926130731399e-01,4.121042872654306910e-02,-1.154567356172295084e-01,-7.257227631438906146e-02,-9.361096288606580995e-02,4.920282363891601562e-01
4.757137155513674331e-01,2.860092332613885513e-01,6.589279659622915286e-03,-1.627554125426703968e-01,-2.888720675976261601e-02,-5.174642674714452495e-02,5.070255994796752930e-01
5.522551484043132231e-01,1.661825169967415528e-01,-2.518419083685757842e-02,-1.565296777139542073e-01,-1.622736226253581118e-02,-3.549007956477229220e-02,5.810576677322387695e-01
4.559930915278788133e-01,4.635184727235909796e-01,-3.699265106235632983e-02,-2.042716512382729971e-03,-2.882378756685430570e-03,-4.800995569288302872e-03,4.968984425067901611e-01
4.493872853100666642e-01,4.198301317712613834e-01,-7.071543564897309064e-03,-6.357286777007700555e-03,-6.651247658484648641e-03,-2.908923927427780297e-03,4.427369534969329834e-01
4.318076731162373560e-01,4.206872414483660005e-01,-7.497322681711549031e-04,-5.588912798544730040e-03,-6.968478805299976181e-03,-4.046177361886451988e-03,4.274433851242065430e-01
3.767498522420300033e-01,3.694305758290776787e-01,-9.013341077135028634e-03,-1.699389424837397800e-01,-2.707997420697493690e-02,-2.017072550732913055e-02,4.859028458595275879e-01
4.620587052079943025e-01,4.572687710858618915e-01,-3.706132746844531534e-02,-2.356341208596993055e-03,-3.899001694858057841e-03,-4.648264648466301531e-03,4.968702793121337891e-01
4.942961105190006310e-01,2.197985500613416354e-01,1.783753556568151710e-03,-1.704950683765062147e-01,-6.806021532227481477e-03,-1.041011906343186112e-02,5.199939012527465820e-01
5.438267431711831801e-01,2.758763757813304518e-01,-3.527853282388138112e-03,-2.953010929817492802e-02,2.731092622121856269e-03,-1.159563130711665016e-02,4.772551059722900391e-01
3.841309992494624792e-01,5.691748081103251700e-01,-2.273581455104295435e-02,-1.237302436168202791e-02,4.432824259297525604e-02,2.151247191910964432e-02,5.318012833595275879e-01
4.999383296194462867e-01,3.022898620335366937e-01,5.580346413818326745e-03,-3.547305712897985686e-02,-6.175186987160579018e-03,-2.017828652499229283e-03,4.354850947856903076e-01
5.236561023972512441e-01,3.253061420501132672e-01,-3.261346070870807523e-03,-1.077575058924528859e-02,-7.977486182181279389e-03,-1.892061302386010765e-02,4.626919925212860107e-01
5.190436567234182341e-01,2.995110485654697841e-01,1.006084981259852684e-02,-2.720994645679822646e-02,4.627962145542237338e-03,-1.828225907507314196e-04,4.447530210018157959e-01
4.635226858503549430e-01,3.425347274472784753e-01,-4.922259053962707576e-04,-1.170166376140944348e-01,4.443296285989963706e-03,-3.248621410966983508e-02,4.670242667198181152e-01
5.460103545559462646e-01,2.498139458840203386e-01,5.236707980755928027e-03,-9.238967798659186714e-02,3.937990378549370389e-03,-1.615167759799311176e-03,4.956361055374145508e-01
4.677713019216748203e-01,3.378047369102241682e-01,1.086131386952099431e-02,-3.854022230502138907e-02,5.120678820014584916e-03,2.416793712605138560e-04,4.132915437221527100e-01
2.935413208563732446e-01,3.782953748918020387e-01,-2.653297589623287989e-02,-2.422266857611825308e-01,-2.994413550922442671e-02,-2.271301997165806053e-02,5.630428791046142578e-01
3.154390255543672028e-01,4.707038139141028754e-01,-7.142707850070983966e-03,-7.884333661689379991e-02,-1.576007744404822218e-03,-1.074300967653743326e-02,4.441331028938293457e-01
4.708475162123284541e-01,3.604451385365143867e-01,-6.138801519002534679e-03,-6.684543780741333818e-02,-2.271889813858464849e-02,-2.664147926344727704e-02,4.518040418624877930e-01
3.345074767771495372e-01,5.101641282760183138e-01,-2.858301696831322403e-03,-1.806428408043416964e-02,-2.158943855297646222e-02,-5.708862073491682669e-03,4.543198347091674805e-01
3.061959037206266609e-01,5.360166887423709614e-01,-4.384938293573836798e-03,-2.177895840005579509e-02,-1.569611088404668404e-03,8.224705744783292888e-03,4.714756309986114502e-01
3.730433664916057435e-01,4.630694752514111778e-01,8.551444671096364303e-03,-1.045614571678436626e-02,-4.332372690202725835e-03,-3.710059454896726550e-03,4.173708856105804443e-01
1.811469757882080422e-01,5.126559056169426309e-01,-1.889149870363862616e-02,-1.759467255012410469e-01,2.002096069755380028e-02,1.390400130969285906e-02,5.575682520866394043e-01
3.745502742305805155e-01,5.088227141701709977e-01,-2.161538540361895855e-02,-6.651439837666552751e-03,-2.033930670786125716e-02,-1.249127394703199688e-02,4.795960187911987305e-01
3.864104974314822583e-01,4.497486546140363473e-01,-5.888969067985305728e-05,-1.350541874069196777e-02,7.729680289575754058e-03,1.375517834620968750e-02,4.232524335384368896e-01
5.327737830849219591e-01,3.201711702370741985e-01,-9.499074796811945998e-03,-3.405456521284212258e-03,1.949811574944378210e-03,-2.127505643455022966e-02,4.747369587421417236e-01
4.874393020527106879e-01,4.225299644125304344e-01,-3.075150323194397739e-02,-2.081093596079018181e-03,-8.138377314206961255e-03,-1.113272266203255492e-02,4.895743131637573242e-01
4.732566470003658488e-01,4.753573090572169590e-01,1.806776284315519954e-02,-1.618095262989495409e-02,-1.300682759699646820e-02,-1.264121745027059311e-02,4.581811130046844482e-01
5.591999188500789142e-01,3.558352010646059771e-01,-3.605889163252345986e-02,4.743062492542342995e-02,9.833596827744718258e-03,-2.730660798217447380e-02,5.328336358070373535e-01
3.897162885170221691e-01,4.125659653412611094e-01,-3.236254327496862482e-02,-2.435686022560649144e-01,-8.316491344682909459e-03,-2.359084395695258685e-02,6.067710518836975098e-01
1.513417380483274843e-01,6.011074218077866460e-01,-2.548117855053327885e-02,-1.046392918199182537e-01,1.687082264937137671e-03,1.950704333669281768e-02,5.891371965408325195e-01
4.017701913049563922e-01,4.413789137975751009e-01,7.345875927962430829e-03,-3.371833846114402622e-02,-2.553564681955060919e-03,4.245526882519539335e-05,4.197527766227722168e-01
3.509568980404514926e-01,4.613554167636359504e-01,3.759027931876046669e-03,-3.439793879532634241e-02,2.098317798658280026e-02,1.806185895644475681e-02,4.206109344959259033e-01
3.716545453443481639e-01,4.599771201972049917e-01,4.256426355609302381e-02,-1.388010834407774896e-01,-7.557660996787497754e-02,-9.078948512767259782e-02,4.948012530803680420e-01
4.698966516256620762e-01,4.636970535228543411e-01,2.439107797498657471e-02,-1.535376154176368822e-02,-4.823293573052458982e-03,8.679349244742285080e-04,4.433181285858154297e-01
4.899258765401390825e-01,3.997627743397791367e-01,-2.000273021884835245e-02,-4.771552659851737571e-02,-4.114517337822881649e-02,-4.075288173839371197e-02,4.889491796493530273e-01
4.763705428588075330e-01,4.722286761937702915e-01,-9.789494487894068175e-03,2.237040795641725716e-03,-4.673900353075525343e-03,3.251126590376665106e-03,4.842183291912078857e-01
2.185777854618631555e-01,5.541678972500185818e-01,-2.257557098375928550e-02,-1.191103002511073733e-01,-3.164854968944413177e-02,-1.388595961963288604e-03,5.452309846878051758e-01
2.978525733598374470e-01,5.857942797156681092e-01,-4.477690635477316050e-03,-3.080264881206674129e-03,-1.321629884116999783e-02,8.016893339049563361e-03,5.119695067405700684e-01
4.706697194619674507e-01,4.717636240495234889e-01,-2.419885247915198878e-02,1.896910603873495232e-04,-5.519277670522654278e-03,-5.522281054253813144e-05,4.955087602138519287e-01
4.432035363473955658e-01,4.431177342268577402e-01,-2.806203899603121332e-02,-8.963260499918104113e-03,-6.569293228538359598e-03,-8.006467888029731098e-03,4.718194603919982910e-01
4.108922482313938085e-01,4.314151866849517680e-01,-1.322736838528149050e-02,-7.301955369385006167e-02,-3.512627011381624920e-02,-2.586096281879466177e-02,4.590275883674621582e-01
4.690849140488427826e-01,4.788610909500431445e-01,-9.403440155549780410e-03,1.043767821706663565e-03,-7.133526264993683523e-03,1.341834222531817274e-03,4.836173951625823975e-01
4.751851817097827446e-01,4.750511522357987459e-01,-1.029131711334535515e-02,3.695554746522005437e-03,2.688244510942889784e-03,-4.936532531434931204e-03,4.855493307113647461e-01
4.026660892734547637e-01,4.920495018690785871e-01,-2.422297571094328417e-02,-1.642024866051055784e-02,-2.627017237748726676e-03,9.386936884506652187e-03,4.790348410606384277e-01
5.164263606223562508e-01,5.016811286739587539e-01,6.007641700743826529e-02,6.418193225635839862e-03,7.813018002538524298e-02,4.123228024539677544e-02,4.746372997760772705e-01
4.870321976067101821e-01,4.529444106859750740e-01,-2.398436657310487607e-02,-1.720613075719421708e-02,1.651625814199122674e-02,2.001471381045175427e-02,4.977838397026062012e-01
4.527366101070852134e-01,4.892000703676518958e-01,-2.100681520803632241e-02,1.790585370045296625e-03,-1.958770170788503868e-03,1.346544871010017883e-03,4.930145144462585449e-01
4.024279378401266483e-01,4.865793727469912566e-01,-1.558040313595460136e-02,2.805339636940779643e-03,-1.693046569925093364e-02,1.210665502888168092e-02,4.672383666038513184e-01
4.356419056813413127e-01,4.897368452393118243e-01,-1.748010262825916428e-02,1.165946213674846563e-02,-1.094771125209019653e-02,1.191897957874210774e-02,4.836848080158233643e-01
4.664821395761088452e-01,4.641676545279850297e-01,-2.378774475685502265e-02,1.730469160000949443e-03,3.501397362795739474e-03,-3.774995694335085260e-03,4.892072379589080811e-01
4.739536217340158952e-01,4.626470796230992555e-01,-3.278170797626722699e-02,-2.794518049106780883e-03,6.630297995453781311e-03,4.543241449697626305e-03,5.013943910598754883e-01
4.310895060571058313e-01,4.751271050091595560e-01,-1.695686801181583991e-02,3.873083525095530680e-03,-5.022708325880393711e-03,1.084691234481440121e-02,4.721116423606872559e-01
4.571531502010276471e-01,4.707177444250306708e-01,-1.812761485369346337e-02,3.277918035539763991e-02,-1.845633138778947011e-02,2.410182363681952558e-02,4.883756935596466064e-01
4.306903346085684814e-01,5.242347119501381547e-01,6.008210661546931064e-02,9.884329225445376288e-02,-4.062196964417776751e-02,5.283319343466436058e-02,4.726561009883880615e-01
4.703786592176404380e-01,4.819808984038302935e-01,2.536324883513296768e-03,6.040540479335913468e-03,8.148399922119443700e-04,5.809648379020943693e-03,4.739744663238525391e-01
1.707744599779987271e-01,6.995508394437572885e-01,-2.460299104606589182e-02,4.576351549519980244e-02,-1.729835528333434694e-02,3.577078727047044559e-03,6.544514894485473633e-01
3.222047039082868713e-01,5.930954623187828512e-01,3.609010119078787104e-02,2.632595697242401042e-02,-4.802003819621223496e-02,5.482325501189057315e-02,5.007622838020324707e-01
5.797508290375041895e-01,2.971880177530534239e-01,-1.038613976764379832e-02,-2.769633507712753861e-03,-4.679246798249871338e-03,-3.557300439583975515e-02,5.150122642517089844e-01
3.130579624248749360e-01,5.136132455210393744e-01,7.363285593364632398e-03,-1.889039081684588256e-02,-1.094568081679187475e-03,3.210649291840163896e-03,4.428153038024902344e-01
5.461104267922073374e-01,4.295836241397221200e-01,-2.717526422200922109e-02,-3.664531258693425747e-02,3.730953428013694673e-02,5.396733570904986566e-02,5.407161116600036621e-01
3.924954676753780181e-01,4.319766562290635048e-01,-7.724339146584213722e-04,-5.377656406822525770e-02,9.159731993791006902e-03,1.300978867401519565e-02,4.256528019905090332e-01
4.217158243550566121e-01,2.446060787546582571e-01,-1.770965746875793889e-02,-2.399931206792536853e-01,6.450411041580180783e-03,2.667409377178770347e-03,5.653073191642761230e-01
4.174170248320396848e-01,2.440989034426289395e-01,-1.091751438167806731e-02,-2.421674704069911865e-01,-5.953237186922834961e-03,-9.432287612174360819e-03,5.617650747299194336e-01
4.774733025738117087e-01,3.850801500681428347e-01,-1.136052743725840530e-02,-2.140501415652698233e-02,9.146498867447016429e-03,1.179983175597162925e-02,4.520766735076904297e-01
4.724664945950011186e-01,4.867183780232128276e-01,4.756715261878663448e-02,8.924121493122485690e-03,3.844590452538661218e-03,-1.035668251718379305e-02,4.329009354114532471e-01
5.085249602528084667e-01,2.627423638064675382e-01,4.535796444582962383e-03,-7.220576217966927224e-02,7.412518290027245160e-03,4.664613649290334785e-03,4.543275535106658936e-01
4.806189018330740970e-01,4.743738780003505795e-01,-2.721533888834432036e-02,-1.717525006324247677e-03,1.831632454773605197e-03,-1.878307522389223091e-03,5.047699213027954102e-01
4.746915430018631143e-01,4.702895926769094515e-01,-3.120730536845944814e-02,-3.132388942881309327e-04,-1.731461750084458849e-04,-1.894996330195119214e-03,5.037233829498291016e-01
4.690334468981820493e-01,4.611830653201511865e-01,-2.494639181414459728e-02,3.145122822016517983e-03,5.389433456216090844e-03,-7.968923504179784012e-03,4.904152452945709229e-01
4.681946515999702574e-01,4.380639339524836084e-01,-3.143011539868129089e-02,-2.873356043484494304e-03,-1.148026895267837202e-02,-5.978992219170443760e-03,4.858046174049377441e-01
4.644839057730489884e-01,4.614062255589600481e-01,-3.820236806499538451e-02,-5.181899639260236987e-04,-1.640464122869591786e-03,-1.566466301071781086e-03,5.011706948280334473e-01
4.738159577528013866e-01,4.604365760517900030e-01,-3.651829807883510970e-02,-8.029139843046900773e-06,-1.049225831696414197e-03,-7.114700076190308030e-04,5.037826299667358398e-01
4.743815045664082630e-01,4.610520733477819211e-01,-3.649372458866390057e-02,-6.948408907979347193e-04,-1.136733181368206058e-03,-5.661274583780070285e-04,5.043488740921020508e-01
4.678399045182134453e-01,4.392747696761790666e-01,-3.109975891750615951e-02,-3.741934114068677826e-03,-1.108873763545792542e-02,-6.537848436713592989e-03,4.858431816101074219e-01
4.938102741654788463e-01,4.221329063623927014e-01,-2.993098387700521279e-02,-4.112188107994442510e-03,-5.486090316314090262e-03,-1.127765499301749789e-02,4.923664629459381104e-01
4.764939818771244395e-01,4.552558797487846753e-01,-3.518419568504294048e-02,-1.022997861785691735e-03,-4.823841093383798677e-03,-4.626717168857535402e-03,5.015333294868469238e-01
4.703280842005534979e-01,4.297870043947136232e-01,-3.135389517250569691e-02,-9.236056371431851722e-03,-1.024377907272396374e-02,-6.638771712071764308e-03,4.834176301956176758e-01
4.793864170132244862e-01,4.795341702355346847e-01,-2.246161551884534591e-02,2.145474867905118946e-03,-2.037031953053988938e-03,-1.507246263576248564e-03,5.019548535346984863e-01
4.767331265723725453e-01,4.782166297581310621e-01,-2.217847806874029271e-02,9.458456604164689700e-04,-2.679640564857456008e-03,-4.561725980810387777e-05,4.996792674064636230e-01
4.758648330496483836e-01,4.868431885375793522e-01,-2.825891014309550586e-02,9.340581862264884204e-04,7.705108920827823940e-04,-2.793108519324193049e-05,5.097059011459350586e-01
4.338084576106837620e-01,4.893982588854366989e-01,-2.575583009715642913e-02,4.605849301054458673e-03,8.917031932647687120e-03,-9.280819687693235304e-04,4.900422692298889160e-01
4.765849965857539283e-01,4.812919671938725719e-01,-2.287364024632376758e-02,1.305168910239767454e-03,-2.784341354663419366e-03,1.429664592678016452e-04,5.018569827079772949e-01
1.403823585096053428e-01,6.691124430708519366e-01,-3.558659821761539499e-02,-1.624291391028046538e-01,1.271763429465383975e-02,-2.395401445002825515e-03,6.951350569725036621e-01
4.758197522600868812e-01,3.459262063696117440e-01,7.743790598499666888e-03,-2.883699846503268507e-02,-7.145978123522103015e-03,-7.425319929795651600e-03,4.218775928020477295e-01
3.800166179356079255e-01,5.705238851808946965e-01,-3.028837125252414886e-02,-3.854983502211475899e-02,-3.469301870206310118e-02,-1.446946217529771796e-02,5.399134159088134766e-01
4.435526151469768585e-01,4.901990813538504299e-01,-3.060267675147138045e-02,-1.012192572200064757e-03,1.262874193587751499e-03,-2.372183668775476335e-03,4.991407990455627441e-01
4.295522548933055629e-01,4.901515600936094952e-01,-2.559815449936342358e-02,-1.768889361351169091e-03,-8.193843008750372955e-03,-4.486887164695506098e-04,4.884950220584869385e-01
4.655606678673824272e-01,4.503790088809114245e-01,-1.612245624452812720e-02,1.990944531394593306e-02,-5.097394047529606870e-03,6.851924545430998666e-03,4.757565855979919434e-01
4.335940339924153619e-01,4.990973809083362189e-01,-2.540957821620920543e-02,2.583103818738448354e-03,-1.166776926812033988e-02,2.816299735534766313e-03,4.954729974269866943e-01
2.409253397939170871e-01,5.937812204362777901e-01,-2.563812330516951343e-02,-7.117198861032664192e-02,-9.337956202486272228e-03,1.414633831010950193e-02,5.528835058212280273e-01
3.048863295869638224e-01,5.119043293286456020e-01,-6.034214684555450070e-03,-4.534200337300849093e-02,9.153178410179005006e-03,1.103027548033734019e-02,4.589969813823699951e-01
4.434318644458995484e-01,4.970856922868930328e-01,-2.587996915885792948e-02,5.029112265780554328e-03,-1.311485172655734366e-03,-1.291073305297386333e-03,4.983961582183837891e-01
4.397988417368250413e-01,4.145657347326051068e-01,5.442453723521117892e-02,1.303265306801554002e-01,-4.434383512915526793e-02,2.710122174622807412e-02,4.455147981643676758e-01
4.743184092567700461e-01,4.771109545316546408e-01,5.197417450959851415e-02,7.497772920006426714e-03,-9.808605633904026247e-03,2.052026665621502124e-03,4.243015050888061523e-01
4.743968644647383326e-01,4.765992468995675635e-01,2.216831934690322026e-02,-1.190544478533772264e-03,6.582685914142820047e-03,1.404104719669785339e-03,4.534883201122283936e-01
4.752878854601899627e-01,4.807942862426232145e-01,-8.366991343017826654e-03,-1.850657558053289036e-03,-4.517795537611164584e-03,9.374420409875498892e-05,4.865049719810485840e-01
4.161442573277917001e-01,4.777539813802023083e-01,-1.829242799050923018e-02,-3.329968173197688647e-02,2.412615365920615929e-02,1.867250797920234559e-02,4.747792482376098633e-01
4.789048440271947982e-01,4.805655797418134645e-01,-8.895886725210133683e-03,-2.855302671505466350e-03,-1.202088775155285040e-03,2.204420818067196787e-03,4.886775910854339600e-01
5.227184997779656950e-01,3.264467213071037266e-01,-1.469626098578702411e-02,-1.838736349471085385e-01,3.282065129782883728e-02,7.323938659470924373e-02,5.853289961814880371e-01
5.136916391226513667e-01,5.004788264884229010e-01,7.683166601733115719e-02,7.964342705464809088e-03,6.279791733558839906e-02,8.323492356819083005e-02,4.669627845287322998e-01
5.194533910110166186e-01,3.147170028659437291e-01,-1.348931479254150689e-02,-9.928191634049035597e-02,3.925195368122863515e-02,7.123123134477557516e-02,5.159909725189208984e-01
5.390877831465061831e-01,6.711262462073646073e-01,4.352247066790315699e-02,-1.999924951799458492e-02,8.904897718641131832e-02,5.635379118649492397e-02,6.024692058563232422e-01
3.200366570722403825e-01,4.483465691774537465e-01,6.380487396834111369e-03,-9.579561031123941250e-02,1.479852071541669888e-02,1.974559343656367982e-02,4.294716119766235352e-01
4.756524872321452602e-01,4.787883515096310605e-01,-2.597627450262668392e-02,4.694638789298010741e-03,2.833196034690981489e-03,3.460818151560456513e-03,5.033293366432189941e-01
1.694987042297651514e-01,6.587067705231582915e-01,-2.459977249737643756e-02,-1.016486437809959453e-01,2.485623984076511424e-03,3.374819665223584286e-02,6.374841332435607910e-01
3.177982842761368776e-01,5.073287948213711651e-01,5.203276400833012350e-03,-2.803869679392177044e-02,-5.768072291291558972e-04,-1.199664539605258505e-03,4.418682754039764404e-01
3.444205133550737874e-01,4.816915489408030160e-01,-1.446532658441340713e-02,-6.594990537906651740e-02,-2.665733924986998099e-02,-1.877104956348594339e-02,4.616752862930297852e-01
3.054861778499223801e-01,5.492787927536451065e-01,-1.000758602544193909e-02,-3.439904314883432401e-02,7.846097454251627426e-03,-2.838171155612283485e-03,4.895354211330413818e-01
4.652344971166630927e-01,5.165646262958381030e-01,2.680826019275545091e-02,8.696575437059773928e-02,2.533331819391960744e-03,-2.426019966920530541e-02,4.917630255222320557e-01
2.540269394796934588e-01,5.566645579183886472e-01,-1.166811506278975230e-02,-5.107708623432007794e-02,4.326207324300507251e-02,2.358045293204050555e-02,5.076438188552856445e-01
4.776000092170572531e-01,4.795439460793711750e-01,-1.468223820464292784e-02,5.468848858655222557e-03,1.373585454794554314e-03,3.723752729828875164e-03,4.933959245681762695e-01
2.606602267249296112e-01,5.796229046111083250e-01,-1.773897884700004202e-02,-1.999310514305631115e-01,2.107984918525423329e-02,3.934502575270013014e-02,6.276437640190124512e-01
1.904345609097515823e-01,5.621991505459122962e-01,-1.175292237827689767e-01,-1.444891322985135951e-01,1.424888557171797090e-02,2.931628525693207379e-02,6.429303288459777832e-01
2.104360474044626450e-01,6.276208730745602704e-01,-1.205351369505620052e-01,-2.202167613628574494e-01,-6.138058080128958212e-03,3.545940187365947266e-02,7.556670308113098145e-01
3.713788007387666124e-01,4.644647207586897197e-01,-3.001316018136968022e-03,-1.237868269461928940e-02,1.057939751648084674e-02,1.657673149533787915e-02,4.304588437080383301e-01
4.671758287234037965e-01,3.647272426923542921e-01,-3.786899599607040923e-03,-1.473626397369576790e-01,-1.379654237644798581e-02,-2.765544348944337302e-02,5.020606517791748047e-01
2.940412529864240287e-01,5.209833336882063737e-01,-4.569856802106253557e-03,5.685982988574871805e-02,-2.438175441851107156e-02,2.240020084043209056e-02,4.705598354339599609e-01
3.373592491303795127e-01,4.665307280921231481e-01,1.162726806281316749e-02,-3.450261750421224072e-02,-1.265192271356865199e-03,3.419226268107533172e-03,4.104546904563903809e-01
2.685155557453833275e-01,5.361640844836839115e-01,9.824098340263653917e-03,-1.156283862388261460e-02,9.094310451149799357e-03,5.603114995789832721e-03,4.566604793071746826e-01
3.312354332198465534e-01,5.328487151872767225e-01,-1.802538596609731814e-02,-1.120116672558184728e-01,-2.793861735895901768e-02,-1.712103895047851002e-02,5.233618021011352539e-01
1.450954723776313182e-01,6.888701750933480250e-01,-9.125646097601752826e-02,-1.523587774503206149e-01,1.995854345387226836e-02,1.430586640771960155e-02,7.426465749740600586e-01
4.766144854682317078e-01,4.812400323660033230e-01,1.862109621030738627e-02,5.564309109217015561e-03,4.131828680521735901e-03,3.673376983377610577e-03,4.605240523815155029e-01
4.656154134744332485e-01,4.819332734822476816e-01,1.774020749689064758e-02,2.953979393446135178e-04,-1.560574065683328557e-02,-4.609786162904340456e-03,4.571230411529541016e-01
6.053999374836674940e-01,7.134585811195606198e-01,8.003498985393886489e-02,7.343625356343244648e-02,-1.000330419372774532e-01,-5.304572501536727880e-02,6.317398548126220703e-01
4.394190708633241571e-01,5.036635299434548685e-01,3.609155657143725549e-02,7.039208356903634174e-03,-1.931973186407037746e-02,5.635209666140953561e-03,4.405401945114135742e-01
4.697005252473090975e-01,4.827964481479684045e-01,8.593395487214072759e-02,7.954835817241368706e-03,-4.691767273552515174e-03,-6.114341177802021937e-03,3.909502327442169189e-01
4.760069035853093933e-01,4.830096550096607544e-01,3.463281703051773741e-02,4.670056960983748860e-03,-9.331656747625370271e-03,3.589967060253954935e-03,4.453271627426147461e-01
3.665467072597096143e-01,5.527470769415731011e-01,6.543867750553755691e-02,2.606409303577595510e-02,-9.291967197439242321e-02,9.947033612863406815e-03,4.578647017478942871e-01
4.278705673152511380e-01,4.608899242761784754e-01,-6.187348484648802494e-03,5.464753503153254449e-03,-3.293302654104194108e-03,8.013861569962473647e-03,4.518226087093353271e-01
4.659120988051461132e-01,4.627982371176296850e-01,-1.506364566775098002e-02,1.586349362608359750e-02,-1.490692990613381660e-02,1.575035539434457843e-02,4.816798567771911621e-01
3.586141690726997178e-01,5.315321273440073435e-01,-2.421328630124947034e-02,-6.964458483846638903e-02,4.708202554016759772e-02,4.248619457565590285e-02,5.189139842987060547e-01
4.491932215550706320e-01,4.396815789555520437e-01,1.324508517906386462e-03,1.005932303555660268e-01,1.157216137975432269e-02,5.081878019082679623e-03,4.767107069492340088e-01
4.806102961717607647e-01,3.963204236365935884e-01,-7.447428737235028962e-03,1.380181276101647043e-02,-1.277893842716879176e-02,1.033347808133609248e-02,4.533745944499969482e-01
5.034837286173522442e-01,2.951946200788724273e-01,-1.729907404596453535e-02,1.135673919198153248e-01,1.465900026999962524e-02,4.536841725808480816e-03,4.955045580863952637e-01
4.330912860104550455e-01,2.920698361701196122e-01,-4.645557259671273531e-02,-2.565451236654726075e-01,-3.249800785307650069e-02,9.541981993779372756e-03,6.189616918563842773e-01
2.884760486554844849e-01,4.925043790826025836e-01,-5.206382402276787946e-02,-1.930305718242905089e-01,-4.168515986058129487e-03,7.865678177550114447e-03,5.823185443878173828e-01
4.739747548773394215e-01,3.467258513338364878e-01,8.847004139935277234e-03,-3.440218168656381664e-02,1.061868738010374874e-02,2.194883272809831920e-03,4.210135042667388916e-01
4.219023008043764067e-01,3.984468751046814083e-01,7.290307004560125925e-03,-2.508777016907785470e-02,4.346548834071509333e-03,2.056230064231165128e-03,4.058151245117187500e-01
4.427751477583480311e-01,2.737382504150673301e-01,-1.254360214097685056e-01,-2.101716594681561634e-01,1.140175934221908730e-02,3.610544097173755407e-02,6.262634992599487305e-01
5.924456072968957709e-01,8.958503722432450966e-02,-2.300486047885016982e-02,-1.131616369229003494e-01,3.012405755588914470e-03,-4.952137513801233883e-03,6.005661487579345703e-01
5.100911758556729847e-01,3.021212527245527579e-01,1.014256888236919618e-02,-2.134714308669042118e-02,5.203708554528546811e-03,-1.327718617840570022e-03,4.366685748100280762e-01
3.478447148254141252e-01,5.134063293420648710e-01,-6.604489512033628884e-03,7.470162814220877856e-02,-1.514360595185258555e-02,-1.036562327207576732e-02,4.790400862693786621e-01
3.601798159322660564e-01,5.109450682294671697e-01,-5.358689346175560253e-03,7.678771872506201003e-03,1.858260978179100686e-02,-4.221431345437447191e-03,4.612216055393218994e-01
3.968983826682783711e-01,4.902051606622930269e-01,-8.134987919386049704e-03,1.096648479794831363e-02,-1.416389125068608567e-03,-2.072219866062690458e-03,4.592714309692382812e-01
3.081035337133706253e-01,5.143285438272703347e-01,-7.923317484214376094e-03,4.694625569425443096e-02,2.212214428400467725e-02,-9.091118829848950436e-03,4.646529257297515869e-01
3.004289066972698485e-01,5.388547825265357361e-01,4.137560071607981893e-03,2.132585078537823850e-02,1.000158778080726925e-03,1.652052786160992850e-03,4.654616415500640869e-01
4.725366423067956512e-01,4.720930370763758988e-01,-3.527097381620442063e-02,2.140254865877007969e-03,1.259771535579982775e-02,8.753512515967799487e-03,5.082944035530090332e-01
1.923421251963916001e-01,6.098586459021959616e-01,-2.941596166822496583e-02,-4.022629748115440218e-02,-1.828901185786273309e-02,-8.298554243443887965e-03,5.675815939903259277e-01
4.488413840519838161e-01,4.511363672440752426e-01,-8.659089743902170788e-03,1.664884092110710707e-03,6.290716005319920085e-04,-4.178116768044805654e-03,4.587197303771972656e-01
4.443788188029980657e-01,4.317166207736136685e-01,-4.468721396834962611e-03,1.076926932174636885e-02,5.167875572133721201e-03,-1.758570713803909525e-03,4.431459903717041016e-01
4.528779946679821200e-01,4.533819070690880415e-01,-1.334180947692509278e-02,4.171275343777339391e-03,3.200725906383483643e-03,-4.682515728861296779e-03,4.666313230991363525e-01
4.346729128885397642e-01,4.539294891739652504e-01,-2.207869356801339666e-03,5.293240360857918471e-03,5.441145079200832187e-03,-4.087987335832104704e-03,4.470698833465576172e-01
4.493089384680651888e-01,4.426618823932871871e-01,-8.275430853586562829e-03,6.333600583889423567e-04,5.361069198384188191e-04,-4.113691559260406047e-04,4.543001353740692139e-01
4.472134545233305003e-01,4.386550278336144304e-01,-3.932760206828866956e-03,1.783326810979378495e-03,4.264064243833838239e-03,-1.393245267622288900e-03,4.470066726207733154e-01
4.335878263494858942e-01,4.757010025395629338e-01,-1.854700730069658299e-02,6.288908212765014112e-03,8.866956123495335976e-03,-1.219754034746811308e-02,4.754378199577331543e-01
4.400683500011061122e-01,4.489231389356521662e-01,1.516177412633323840e-03,4.162649923703243271e-02,1.125062521451077567e-02,-1.877396276507732869e-03,4.493086934089660645e-01
4.788557096496197651e-01,4.723066506621101945e-01,5.526363192849936823e-03,2.189835954187148784e-03,-1.081928030501939095e-03,9.342693060358405995e-04,4.701108634471893311e-01
4.802378044580802308e-01,4.707380146522298081e-01,-2.346998043994763528e-02,-6.247045966485889482e-04,2.789530043351330906e-03,-5.359253700658953186e-03,4.991365969181060791e-01
4.800247604039296068e-01,4.761364288337430195e-01,7.528255563815089424e-04,-4.097058583627663985e-04,5.466926536170224962e-03,-1.550158670572866076e-02,4.781884551048278809e-01
4.619384394346393585e-01,5.019671414415765032e-01,-3.009436378255830880e-02,7.397389463784202757e-03,3.481933412183801837e-03,-3.014262371580230752e-03,5.134411454200744629e-01
4.775010650862546724e-01,4.725635188976733958e-01,2.295236267339811898e-02,-1.431766332026535938e-03,2.895751400645857430e-03,1.000216184041200634e-02,4.524665474891662598e-01
4.786088217567212588e-01,4.751030176913082492e-01,-5.455980785621150631e-03,1.819415219709844727e-04,-2.799868818107415641e-03,-5.546888439205793081e-03,4.824416041374206543e-01
4.765519631993350158e-01,4.709928409543343575e-01,-2.906014368991116648e-02,-1.729320294262516600e-03,2.993775135362331755e-03,-3.746459835510312572e-03,5.029330849647521973e-01
4.616762064267965204e-01,4.687413773358459768e-01,-1.084371499992081711e-02,1.152476065623320514e-02,5.757899941759046097e-03,-3.841410880315657573e-03,4.766609072685241699e-01
4.375257717391048407e-01,5.244057093617101595e-01,-1.114452319526687551e-02,-1.094778587092322571e-02,4.646322527704761784e-02,1.967364646933906364e-02,5.057972073554992676e-01
3.969108536625227113e-01,5.123096897781200809e-01,-2.179897655698975756e-02,3.056523935711165374e-02,1.212812675142811540e-02,1.297978373507440884e-03,4.901045560836791992e-01
4.265669545504118254e-01,4.427745285184217505e-01,-8.851262135410375986e-03,-1.076680702519007375e-02,6.484476850654410061e-03,6.879837204816358076e-03,4.444375038146972656e-01
4.765427487895638192e-01,4.945019027307603343e-01,-3.536467476339288929e-02,6.577855471360950779e-02,2.059545023041309958e-02,-2.530708224835035228e-02,5.364135503768920898e-01
1.360063170009780109e-01,6.092011927181585351e-01,-3.547206446887612996e-02,6.142996292694333921e-02,-5.845455137710425797e-02,2.056394356393213482e-02,5.977468490600585938e-01
5.329900817087911413e-01,2.780834383161179812e-01,4.460332989332793652e-04,5.114702440913788950e-02,1.078255810567434712e-02,4.184824439912888418e-03,4.701924324035644531e-01
3.262489909458067827e-01,5.250236298117166855e-01,-1.362619024918743094e-03,8.024927071194693645e-03,7.085410863422980893e-05,8.545526517742103867e-03,4.608404338359832764e-01
4.437507956231945272e-01,4.434080956817773034e-01,-3.880289230832889569e-03,1.163020239953816044e-02,5.146554784202353461e-03,-2.437781744023257476e-03,4.480216205120086670e-01
4.425948557745791323e-01,4.416150815467857482e-01,-2.269216908920790310e-03,1.544724623186593745e-02,7.955652079908873478e-03,-2.239970606062685696e-03,4.454098343849182129e-01
4.960909659350479783e-01,3.938096802705142174e-01,-9.492687830492063661e-03,1.351625585424595828e-02,8.147695084592163073e-03,5.453251310816379900e-04,4.638023972511291504e-01
4.349871812349291322e-01,4.572859299088540830e-01,-1.239164825884586651e-02,1.297570312366236843e-02,3.512838084861969780e-03,-8.438027485836416958e-03,4.597572982311248779e-01
4.784441838548421089e-01,4.723141102609901276e-01,-2.727986575916491185e-02,5.139632601575848912e-03,7.046303079845230542e-03,-5.995432592075728914e-03,5.030211806297302246e-01
4.799135858446381131e-01,4.767124438990805180e-01,-2.079336027731287784e-02,-9.343737964585748261e-05,4.649055301538856846e-04,-2.733381374691615413e-03,4.991371929645538330e-01
5.067806024390416608e-01,4.381955876341045997e-01,-1.532994713641344653e-02,5.042505433102496132e-02,-7.469972209498803792e-03,1.319616654682107849e-02,4.998122155666351318e-01
4.783187910998331072e-01,4.819410273236297559e-01,-1.298313782960397456e-02,6.931894948090671802e-04,-4.019415009883574134e-03,3.498697303780234739e-03,4.932108521461486816e-01
4.727304325740200319e-01,4.815129583125565826e-01,2.163677128323771015e-02,2.059240338256451436e-03,1.189459989622964828e-02,5.292867377022360958e-03,4.561201333999633789e-01
4.751409212096317503e-01,4.774538199308884234e-01,1.190908028308035327e-02,1.083868848322890651e-03,2.480639420326098774e-03,-4.777149661480061330e-03,4.644899964332580566e-01
4.939940961670261643e-01,4.661114687212888352e-01,2.198179583959453121e-02,1.469654550310270195e-02,6.544866060953702033e-03,-6.567872011046678969e-03,4.596933722496032715e-01
4.776158655347921278e-01,4.774518093842914368e-01,1.370528387371600099e-02,4.830132864344083830e-04,-5.872424386637367308e-03,-2.654521952687343041e-03,4.639636278152465820e-01
4.936239516885085332e-01,6.570861636594131916e-01,6.251357217678865652e-02,1.963771467406782711e-01,-9.181684986655014313e-02,-4.459408421057846350e-02,6.557401418685913086e-01
5.376694758631348492e-01,3.971637726430548021e-01,9.828569335005532537e-03,1.189739510324368948e-01,1.053891726632678362e-02,8.640775206877429615e-02,5.379495620727539062e-01
5.749080475234541465e-01,4.808846737113422476e-01,7.182720032760914197e-02,7.525440622925657665e-03,-5.412080087878633206e-02,3.294504615277545068e-02,4.762799441814422607e-01
5.989400970969525062e-01,5.490176811171171289e-01,2.733652461542535050e-02,1.535785109290707939e-01,2.656706090107581811e-02,4.912313572652322879e-02,6.170922517776489258e-01
5.374441473190579854e-01,3.263167668823102052e-01,2.892186970837190563e-02,-8.862682979028039393e-03,-8.670351933052667867e-03,4.755375900341167472e-02,4.506128430366516113e-01
4.554778259783860417e-01,4.840714914396618829e-01,-4.931096584949723471e-04,1.055846539579492240e-02,-1.139412678469855361e-02,4.842822602537077623e-03,4.717618525028228760e-01
4.589740103948657390e-01,4.792634879837541773e-01,-9.374913571603527007e-03,-5.370880816303344116e-03,-2.536144973829314656e-03,3.082486777587036594e-03,4.789564311504364014e-01
6.651399720420154704e-01,2.717491538393757011e-01,-1.562952555571617275e-02,-1.395298235232330340e-02,6.855484892819288523e-02,1.140894416661746152e-01,6.357102394104003906e-01
4.793591596643081987e-01,4.813265254438051088e-01,-9.850387577564678754e-03,3.673546795213381011e-03,-1.452333351805534887e-03,4.635053304056489278e-03,4.903096556663513184e-01
4.719322024513936120e-01,4.830499166293100721e-01,8.412759631470811961e-03,1.360661790005084776e-03,-6.884883763083465835e-03,8.069221566319695685e-03,4.695425927639007568e-01
2.580072756885447571e-01,5.844237958237772368e-01,-4.876100114090009541e-03,-4.745208759825473438e-02,-7.931992313369535738e-03,-1.708044711324801070e-03,5.180902481079101562e-01
2.887719590021783356e-01,5.508789534849967140e-01,5.490756950007336101e-04,-3.004450356875285489e-03,-6.473656200411099550e-03,6.645935799986134145e-03,4.770776033401489258e-01
1.687929976764229734e-01,7.512092566378993919e-01,-6.928932687696770509e-02,1.711408510236324051e-02,-1.273047146839471205e-02,1.394793489267933751e-03,7.320694327354431152e-01
4.107724267744390367e-01,4.247090055422719779e-01,6.745205142561938594e-03,-1.276639238358729354e-02,-1.957324478634967792e-04,1.101745009184273896e-03,4.117713868618011475e-01
4.106660705628787933e-01,5.196181315082966101e-01,-6.280155711418711206e-03,1.024393891314996224e-01,-3.356214543350018176e-02,9.060482439458840756e-03,5.159931182861328125e-01
3.851899818838034339e-01,5.145178289981703346e-01,-1.782808795301443761e-02,9.022915584590297453e-03,-2.174409212799023258e-02,2.071958229891189031e-03,4.826450645923614502e-01
4.908681852398509293e-01,3.912656364915542695e-01,-2.172537288999448757e-02,-7.354599553082088667e-03,-1.610445642763281768e-02,-1.391523186686099110e-02,4.723753035068511963e-01
4.816809205069765287e-01,3.996101942021775266e-01,-2.057889268671453387e-02,-9.209457419180170495e-03,-1.863238866743599509e-02,-1.828110749071848798e-02,4.691249728202819824e-01
4.793162455841466496e-01,4.220863783559649640e-01,-2.396133868101330000e-02,-7.265182279461154108e-03,-1.217336363119766486e-02,-6.641223942483598245e-05,4.778744578361511230e-01
4.779654353144785484e-01,4.221309106182526971e-01,-1.926896776516884291e-02,-1.865126540583489714e-02,-1.959468359459774420e-02,-1.621492374670673725e-02,4.749536216259002686e-01
4.727599966354352756e-01,3.811982309766281940e-01,-1.972447833374968429e-02,-4.336961844657143822e-02,-2.145313472089747583e-02,-2.994354977210996957e-02,4.642683565616607666e-01
5.219390696010004493e-01,3.231679949890201575e-01,-2.979211032964562689e-02,-4.124159121560037194e-02,8.132707607477965154e-04,-2.624321853101289903e-02,4.913448393344879150e-01
4.655344431359529356e-01,3.739662237057448380e-01,-6.457860145338556457e-03,-4.838254840197463852e-02,-1.032769310288066469e-02,-1.743245100733889150e-02,4.429404437541961670e-01
4.424858823081581627e-01,4.596420745305875855e-01,-3.035656333281383512e-02,-4.150591574148161655e-02,-1.518324744764207659e-02,-1.240547802259446206e-02,4.881680011749267578e-01
4.601340227260690696e-01,4.835084460866677647e-01,-2.867756317211189732e-02,-1.073394999743755964e-03,3.083726582504351245e-04,-8.566164273874063212e-04,5.009139180183410645e-01
4.595725613784299446e-01,5.181072683787153466e-01,4.141234018029682495e-02,1.953808469625426675e-02,-1.730589170237326665e-03,8.596405818105338353e-03,4.518152773380279541e-01
2.370460026295712341e-01,6.533680592161220657e-01,-4.648931628947194916e-03,-1.191719782610755340e-01,-6.024862997361336847e-02,-2.925542802994770403e-02,6.232388615608215332e-01
3.802901813489338867e-01,4.954664450317099456e-01,-2.127247210435317948e-02,-1.287335022456430333e-02,-1.350032240207210688e-02,-1.493596777498330981e-02,4.716797769069671631e-01
3.796999869864223776e-01,5.076040901532949956e-01,-2.637429112108968798e-02,-7.949709579581161825e-03,-1.915708789334766987e-02,-8.727789276998534906e-03,4.844723343849182129e-01
3.713798262901840674e-01,5.300031955111017545e-01,-1.012033523549654701e-02,-1.087323076531026833e-01,-2.486988296976484075e-02,-1.507737246111986312e-02,5.188682079315185547e-01
4.217553489648324661e-01,5.484604110292772283e-01,7.326284331460358734e-02,-3.702305497689359348e-02,-1.016298597883229238e-01,-9.201791983968822530e-02,4.920943677425384521e-01
4.513161775083562866e-01,4.848527756158471091e-01,-2.223408899874734779e-02,-7.322829352936523206e-03,-7.923439038191528935e-03,-9.846498402274694861e-03,4.918291270732879639e-01
2.917906799815032093e-01,6.526913742958087017e-01,-7.508978622322026730e-04,1.218633113347019660e-02,-8.367487459506477154e-02,-2.694109050655421958e-02,5.873974561691284180e-01
3.198200287019644650e-01,6.637381975842999715e-01,-1.928897820195030199e-02,1.336576496990546370e-01,-5.766453833466282652e-02,-5.170709508886237732e-02,6.492225527763366699e-01
4.277471809489039600e-01,4.860169480303342393e-01,-3.006890873204509651e-02,-1.363420258440456098e-02,-2.077372817836123028e-02,-1.574232192189990373e-02,4.922027587890625000e-01
4.427440945786628723e-01,4.394775187647057546e-01,-1.923636923780197572e-02,-7.707017549154530911e-02,-2.571513913414374269e-02,-2.562532234404864273e-02,4.834260344505310059e-01
4.508842568984683385e-01,4.827206233111270839e-01,-2.725874938919864432e-02,-3.345656012463537818e-03,-3.743781965142606739e-03,-5.508313700281618208e-03,4.949982464313507080e-01
4.173426928616417175e-01,4.894795127474771412e-01,-2.716816503941132943e-02,-4.897035855926451346e-03,1.273118168480870480e-03,-7.287115300440994391e-03,4.848662912845611572e-01
4.642868401138859902e-01,4.752556967532501897e-01,-2.469563623422599274e-02,-5.199654650232502125e-04,-1.387622612468055036e-03,-4.570010842024575283e-03,4.946281313896179199e-01
4.585377897986513407e-01,4.748908654515684447e-01,-3.629850991551564210e-02,-1.311929139996445733e-03,-1.399207039018505192e-03,-1.728180048749215119e-03,5.032320618629455566e-01
3.585451324162264863e-01,5.055962285427715308e-01,-8.384064067417262844e-03,2.790646299664584305e-03,-6.744953646139475404e-04,-1.048293558176465259e-02,4.588821232318878174e-01
3.494101181185947924e-01,5.193526162791735068e-01,1.564456190453922257e-03,7.095704419664100766e-03,-5.312624625998828461e-03,6.177484522239934904e-03,4.575380086898803711e-01
3.271100797600324794e-01,5.369122674343200785e-01,4.181105232535675675e-03,2.350907384968707690e-03,2.878848460165513157e-03,5.599655963003551291e-03,4.649589061737060547e-01
3.513594748340560514e-01,5.030815588193217058e-01,-2.072463666167806418e-02,-4.177341039584040600e-02,7.126551179014264416e-03,1.160902206199087260e-02,4.729812741279602051e-01
4.037936183856702943e-01,4.485633823412584764e-01,-2.425503674039874991e-03,-1.208912330937410816e-02,1.327601660884819936e-04,1.169509789832309452e-02,4.313391447067260742e-01
4.260504699923332028e-01,4.771618880365415816e-01,-2.181761963588491060e-02,-3.538085667812741145e-03,2.241875389246331292e-03,1.484237062061958927e-02,4.762382805347442627e-01
3.632344271082726950e-01,4.707196405744010770e-01,-3.176541532802223955e-04,-1.705831091162865812e-02,7.674573351387280890e-03,1.532842678808514492e-02,4.295977056026458740e-01
2.469744631401317447e-01,5.306560963668789377e-01,-5.028196656658701080e-02,-1.332462311231904784e-01,-1.163882794027938650e-02,1.893057992675794719e-03,5.539346933364868164e-01
4.278114530612761590e-01,4.981050002198658122e-01,-2.888309827417240294e-02,-1.217610692884236144e-03,8.964156370457601261e-03,6.224712155298920725e-03,4.959591925144195557e-01
4.796320788618068098e-01,4.816411372575244432e-01,-3.151451036794017391e-02,1.845187782370807548e-03,1.205850423181260497e-03,-4.249535646616486514e-04,5.121688246726989746e-01
4.799061752667685421e-01,4.816006108906790151e-01,-2.883394380207637830e-02,5.433052202008795606e-04,2.444804882785898276e-03,1.617186785718587093e-04,5.096079707145690918e-01
4.408158079418011965e-01,4.944779842590782404e-01,-2.978190152489074149e-02,8.767738064007551610e-03,-8.529577272484167600e-04,4.941241880601023387e-03,4.999011754989624023e-01
4.396148183485870109e-01,5.027938061468664177e-01,-2.360107766677144170e-02,5.903159437849718125e-03,1.975500451849732803e-02,-2.862865943752071311e-03,4.991252124309539795e-01
4.720806142142172090e-01,4.792731381514163114e-01,-2.620822069511596908e-02,2.048144794612579626e-04,3.136339864832163055e-03,-4.046330857319008212e-03,5.020021796226501465e-01
3.868113882324722419e-01,4.686328916363409203e-01,-1.184086350217750105e-02,-2.004804808692668694e-02,1.328059271811522085e-02,1.969991888970573299e-02,4.484817385673522949e-01
3.892446098358914863e-01,5.092909416871449491e-01,2.451205153511060164e-02,-4.150484327845475191e-02,6.718849763227990879e-02,1.925089527603554909e-02,4.594000279903411865e-01
4.607547689787369061e-01,5.056790956748314914e-01,-3.984171042155515430e-02,9.347584175827591130e-03,-3.717407747216583576e-03,-7.320499075149893529e-03,5.249460339546203613e-01
4.361963548905229970e-01,4.808964120047963253e-01,-3.358248052208984147e-02,-9.534364176380830114e-03,8.199226966654290030e-03,1.333717657447028651e-02,4.946690201759338379e-01
5.026129152388733035e-01,5.401458113481850676e-01,2.514264114345110546e-02,2.862880005308530984e-02,-5.645266774320919362e-03,-1.519810557181543696e-02,5.005545020103454590e-01
5.214755907457061523e-01,5.156486815793848155e-01,4.555454644997786184e-02,2.823368555290888676e-02,8.659569917293837016e-02,-6.932957594314129168e-03,4.987922608852386475e-01
3.560567105157665946e-01,5.410280455343825512e-01,-7.725780417452476900e-03,-7.629209367983204315e-02,-2.160255637029744394e-02,-3.668768278977727754e-02,5.066959857940673828e-01
4.419416773812579469e-01,4.206909053949287047e-01,3.571934885109651070e-02,-1.317912849265092667e-01,-3.690135620047618747e-02,-5.433228733643612890e-02,4.710451960563659668e-01
3.792170519563518583e-01,3.892375954548689676e-01,3.591005581366207844e-02,-1.978795242854963776e-01,-6.681345915309987171e-02,-7.232299431381176980e-02,5.176418423652648926e-01
3.786861281080133868e-01,3.877792228412927367e-01,1.319981552303783889e-03,-2.018424362699097474e-01,-7.331380018981316360e-02,-7.262000478695070094e-02,5.478011965751647949e-01
3.023086137665387807e-01,6.038590408722199765e-01,-1.789770024754849809e-02,5.598840793240364780e-03,-9.439541691158103917e-03,-1.328037537052690308e-03,5.388782024383544922e-01
3.942934073589116073e-01,4.438194042067193923e-01,1.139983829750218502e-02,-3.518204443073940507e-02,-8.686286800615369017e-04,-9.019107379076164287e-04,4.144170880317687988e-01
4.566882432453501783e-01,4.774460908033100748e-01,-3.236221421568891143e-02,-4.105705417114786232e-02,-3.454245032351194178e-02,-2.870878492039423413e-02,5.107465386390686035e-01
3.525221871187954603e-01,4.749414991650974249e-01,8.817110954436768733e-03,-5.355000448689820058e-02,-1.091860312300936033e-02,-5.333169872870436104e-03,4.292337298393249512e-01
4.313775405043234756e-01,4.028876560141533281e-01,-1.318989669323217262e-02,-1.551146373340858697e-01,-3.259126903674721548e-02,-8.549115489309406721e-03,5.112472176551818848e-01
4.776077237132536624e-01,4.631208838130310701e-01,-3.589710797730061298e-02,9.981430768221375739e-04,-2.276138763363752884e-03,-8.667213133882406897e-04,5.064373612403869629e-01
4.740044512259986575e-01,4.600073815401554134e-01,-3.754627599683019179e-02,2.043915601275798563e-03,-2.662115782720970991e-03,1.940882959754656014e-04,5.047313570976257324e-01
4.775283175968522698e-01,4.603546956854109307e-01,-3.729511598595142141e-02,3.579375932945220301e-04,-2.975744747596617643e-03,3.994296294957397418e-04,5.064821243286132812e-01
4.774710162771664823e-01,4.353247507578713038e-01,-2.947805057084168512e-02,-5.914657471666432721e-03,-9.069550131329134207e-03,-9.391001704975421305e-03,4.878769814968109131e-01
4.845795693320718023e-01,4.267181685959624549e-01,-2.927972343581725090e-02,-5.133649163519897821e-03,-1.067555124679796068e-02,-8.792330625710642264e-03,4.881798624992370605e-01
4.822840941703997464e-01,4.648365080717963282e-01,1.409455914920909603e-02,-1.462935878183675362e-03,-2.927444643313585528e-03,-2.626254030078721807e-03,4.597715735435485840e-01
4.764008825453275309e-01,4.458721257260964688e-01,-2.876562577664160125e-02,-6.634483529363593805e-03,-9.050867618171823392e-03,-1.046610915570329349e-02,4.913344383239746094e-01
4.878996623083312612e-01,4.427612836522741846e-01,-1.855980103375026724e-02,-9.975911977089085489e-03,-7.538429518702960928e-03,-7.254139710115820039e-03,4.861119389533996582e-01
4.441642449009091109e-01,4.201456391987489214e-01,3.981661393450852682e-03,-3.354058398895500698e-02,1.252909305328733618e-02,1.242217466825613556e-02,4.336747825145721436e-01
4.975982916573363224e-01,3.794646028320621256e-01,-1.003577139701961052e-02,-1.187869369663667810e-02,1.325677727021781771e-02,1.491806013508836272e-02,4.618413150310516357e-01
5.260997501040343138e-01,2.412497822434943873e-01,-4.576413000108181528e-02,-2.102485086689903082e-01,-2.926026640767297182e-02,-1.937765393442474060e-02,6.177221536636352539e-01
5.085958857569168323e-01,3.394699014817094684e-01,-8.724407529829891761e-03,-1.111661867227091566e-01,-1.303638890185314717e-02,-3.627975554368295663e-02,5.002637505531311035e-01
5.188693983207488536e-01,1.971115859997040753e-01,-2.827368111280292862e-02,-1.571589226759407265e-01,1.266371178688959756e-03,-2.330273579053263391e-02,5.500697493553161621e-01
4.892073100895145132e-01,2.451888427470567955e-01,-1.130288716941705296e-01,-2.107142010134747945e-01,-5.242028592378254054e-02,8.804874327905281781e-03,6.457200050354003906e-01
5.118799651049268373e-01,1.884499471381684277e-01,-2.150797791877631648e-02,-1.585686310043153691e-01,1.970402743129310782e-02,-1.279851947422696538e-03,5.414773225784301758e-01
4.453191037077232073e-01,4.873472695262037191e-01,-2.994681666956966470e-02,-7.506860306236042349e-03,-7.547133077682980848e-03,-9.364220767661338499e-03,4.982184469699859619e-01
4.474520092026358364e-01,4.828920554591855097e-01,-3.279438394576539295e-02,-7.500267232686674964e-04,1.717310655746159679e-04,-5.166453495769674116e-03,4.989933967590332031e-01
4.307273963499086422e-01,4.830774836388295190e-01,-3.095137544640680360e-02,-4.658555967722877514e-03,-8.705798841879290942e-03,-1.029021007399067572e-02,4.905781149864196777e-01
4.879031153132700749e-01,3.629614967571098139e-01,-2.249645344543121928e-02,-6.756034893123406826e-02,-2.151733275255457434e-02,-2.949083683202297773e-02,4.796241223812103271e-01
4.623581109723142180e-01,4.710100375380943394e-01,-3.884797947692797404e-02,3.553856354108029668e-04,-1.248971480177049143e-03,-2.910426728493998444e-03,5.056177377700805664e-01
4.641017787497201952e-01,4.791307017733562601e-01,-1.801215773422798483e-02,2.777875577061324577e-04,-4.159573153377636208e-05,9.126977887448414328e-04,4.898041486740112305e-01
4.486853284177010903e-01,4.730012820586271260e-01,-3.183529843262528081e-02,-4.073940420329190577e-03,-8.470553081610810581e-03,-9.247033663973195858e-03,4.936569929122924805e-01
4.513465042381409331e-01,4.461032258580260867e-01,-1.324388344127375161e-02,5.406959533593590564e-03,4.235730287534380904e-03,-4.923781398819618293e-03,4.622229039669036865e-01
4.095758850360791126e-01,5.041966052376811724e-01,-4.506673669500638191e-03,1.045802217442052678e-01,4.105997675101158428e-02,-1.087829375840645117e-02,5.077618360519409180e-01
4.467992234810393981e-01,4.431593145295900094e-01,-8.104469111732237607e-03,-1.345050258081206991e-03,-7.954307899540367737e-05,-9.115403760303248965e-04,4.531034529209136963e-01
4.918034796951250565e-01,4.041056850596931316e-01,-1.929242272666964464e-02,1.361101088992511948e-02,1.042273349396446655e-02,-8.819412065827101146e-03,4.745555520057678223e-01
4.181579049211460175e-01,4.655914082704278867e-01,-6.588164353899472747e-03,1.668536894454673153e-02,1.943804089015557226e-03,-7.750684002659932910e-03,4.514788091182708740e-01
4.867153691728822174e-01,4.480204574790556671e-01,-2.251710251342808888e-02,3.043132369317011043e-04,1.262778593116581447e-03,-8.567412669545153639e-03,4.912591576576232910e-01
5.126342169630514478e-01,3.858561319061994954e-01,-2.016538047448906967e-02,2.344152399300870968e-03,2.969540860413603326e-03,-1.262504305246925536e-02,4.826198220252990723e-01
5.409458795570100120e-01,3.630062265912027408e-01,1.336159442507567352e-02,1.208341390644088048e-01,2.950241849498100311e-02,-3.919455109908953627e-02,5.168675184249877930e-01
4.731842767132738437e-01,4.543582919215833904e-01,-1.702225858815265003e-02,8.217615701412194981e-03,1.168633345417825938e-02,-1.263330685686798148e-02,4.822025895118713379e-01
4.076692653178033976e-01,4.409102752685105653e-01,2.834637149659979816e-03,-4.085274074584472129e-03,4.451289539504455633e-03,9.254879769730314787e-03,4.228706955909729004e-01
4.196645767882180023e-01,4.491272588376552521e-01,1.619385228392722365e-03,-2.651832440242537017e-02,9.702748718450750903e-03,1.341586795840792913e-02,4.368965625762939453e-01
4.145425866117415370e-01,4.252581176835253940e-01,7.222624029527890954e-03,-1.065117519297103903e-02,-2.442190087360802519e-03,-6.215295745825305399e-04,4.132171571254730225e-01
4.237040242205830642e-01,4.186509268089104729e-01,2.934133217509016234e-03,-2.511197084984660016e-02,1.351906448829702685e-02,1.224834932573527595e-02,4.217070639133453369e-01
4.318682162965822302e-01,4.354945506007166789e-01,-6.641534578647523279e-03,-1.283491205619805703e-02,8.701605426283056874e-03,7.189471933185122288e-03,4.413281679153442383e-01
4.398443924125181592e-01,4.186601341914648611e-01,3.711662579799546169e-03,-1.649064684440803728e-03,-3.807605357268252239e-03,-1.759270106585473581e-03,4.260074198246002197e-01
4.261470232598746355e-01,4.770764351468275710e-01,-1.287941064596936913e-02,7.378912427794475683e-03,1.013061665173325444e-02,-1.022207631343689978e-02,4.674206674098968506e-01
5.267447131092574120e-01,4.295910247311400809e-01,-2.193437690183930311e-02,5.602024699244788526e-03,1.510791753867633347e-04,-1.238991582165019714e-02,5.076771974563598633e-01
4.281829038000108945e-01,4.987838665319642706e-01,-2.146730831464638278e-02,8.505753769825876234e-03,-2.789970868598950701e-03,-1.731407432475262544e-03,4.890449345111846924e-01
4.426846863958500133e-01,4.856136043379620792e-01,-2.363467701378485497e-02,6.286668144231895988e-03,7.312901057415660891e-03,-7.524392349089389746e-03,4.896571040153503418e-01
3.591938081359985491e-01,5.215066831995454066e-01,-2.020245486086585940e-02,3.533452530622798599e-02,4.538966108977503244e-02,-1.873851112441562647e-02,4.927956461906433105e-01
4.844423051502965705e-01,4.869857273242488849e-01,-2.560236334272270042e-02,4.145256665274595076e-02,7.551629955960701898e-03,-9.054499629510338529e-03,5.167410373687744141e-01
2.733813458293649079e-01,5.897570656137338663e-01,-8.100492648235868565e-03,4.559714986252918351e-02,5.373885771211173862e-02,-1.832518851583168906e-02,5.331866145133972168e-01
4.754489686532824555e-01,5.015999244722423311e-01,1.564398150578200086e-02,3.480309397169829150e-02,3.646694281619797251e-02,-2.416525902314774557e-02,4.832225143909454346e-01
3.768725019226879525e-01,4.700910723818813031e-01,-3.101512555384988712e-03,-1.915368834532636330e-02,-1.692312688611729895e-05,1.534542681626749859e-02,4.362311661243438721e-01
3.916945946878194751e-01,3.647832188367476913e-01,-8.837974330884218466e-02,-2.237037215224955133e-01,6.376448442395528382e-02,9.220770180899022853e-03,6.171377301216125488e-01
4.719116845682720385e-01,4.796823859552567515e-01,-3.830188067118955875e-02,1.934519523730849917e-03,-1.383507390267986296e-03,3.771489106635186189e-03,5.142009854316711426e-01
4.025509054623266358e-01,4.298226183095423814e-01,6.571933794537965223e-03,-8.050185216926557252e-02,2.293010163524438622e-02,1.656843934070621055e-02,4.361016750335693359e-01
4.077313448818448149e-01,2.908013756124496751e-01,-1.210115752705100411e-01,-2.264338980761758380e-01,3.459131088399871462e-02,-3.791333302090812984e-02,6.270045042037963867e-01
4.037718751742009893e-01,4.275810596123564844e-01,-1.435292738986460037e-02,-7.506088439927002809e-02,2.888150921670063279e-02,2.577608439964726786e-02,4.546960294246673584e-01
5.092006272563003311e-01,5.109276307418495477e-01,1.844922824859368538e-02,2.529719599626765666e-02,-5.763825115359028951e-03,-3.244594719066165069e-03,4.936988353729248047e-01
5.195561621864399626e-01,4.784305300932392702e-01,4.167959464453430130e-02,8.445900213314060101e-03,-3.677033815420447977e-04,-1.009610199854937699e-03,4.589355289936065674e-01
4.816514091221195115e-01,4.759058878114196256e-01,3.700427248807219849e-02,-1.850937724978181527e-04,-1.094587912446076759e-03,-8.729930684435165122e-03,4.420652687549591064e-01
5.262758055379652689e-01,4.951415613575851360e-01,9.805064577661071201e-02,2.277114221261506907e-02,2.085823986419206230e-02,-4.722883882382696019e-02,4.249307215213775635e-01
4.766696134275115737e-01,4.705892824685181663e-01,1.682424403398896651e-02,-2.808138422816539113e-04,-9.501546625870421064e-03,2.956532466676018572e-03,4.571608304977416992e-01
5.327446606123784623e-01,5.303650293305190999e-01,1.085485862213120822e-01,2.640775705229049183e-02,-2.143948260276863985e-02,-1.045040555096649580e-02,4.274777770042419434e-01
4.946881304707467231e-01,4.655619608366999840e-01,4.898983002077628157e-02,-1.525360533218647618e-01,-4.570717887381998967e-02,-8.347569046918057456e-02,5.324355363845825195e-01
4.719730701918163351e-01,5.041931412000855151e-01,1.532538814668893412e-02,2.851228826192685802e-03,-5.504503363704945501e-02,-4.476240086083905362e-02,4.892890155315399170e-01
4.717258764894702860e-01,4.824303854552237647e-01,-1.047673632353446349e-02,5.790178143070185898e-03,-1.823270773110080220e-02,-6.489796658923870261e-03,4.888966381549835205e-01
6.564259580711039321e-01,3.693743219749971440e-01,4.874567750735597782e-02,-9.504869199958933257e-02,-2.533740442232316689e-02,-8.435742995940728739e-02,5.723771452903747559e-01
4.794760536037201426e-01,4.650134968919206191e-01,1.100287740411881598e-02,2.672531466122554308e-03,-5.951286781033712607e-03,-4.168591316742797709e-05,4.615502655506134033e-01
4.827448952800880155e-01,4.716744025245954153e-01,3.470490873568099488e-03,7.097367600702095530e-04,-4.462587332190557678e-03,-1.739166090624417321e-02,4.748572111129760742e-01
4.787314533016133744e-01,4.708117112577421270e-01,4.914975877446681185e-02,3.530715876241058686e-03,-7.514705719731491415e-03,-5.811444515986158993e-03,4.260388612747192383e-01
4.447978530491076832e-01,4.378098750159592489e-01,-1.364891350959024363e-02,-7.426142475375182087e-03,-5.956327806344293395e-03,-6.129816348352853245e-03,4.554154872894287109e-01
4.402936088557990457e-01,4.429456108714399099e-01,-2.139532717736891687e-02,9.697614520475247120e-04,-5.255132933461104452e-04,-9.839309631260310159e-04,4.630277156829833984e-01
4.510394194247663302e-01,4.423131362897697594e-01,-2.099034359125384608e-02,5.374870637719326256e-04,-5.752962784082863226e-03,-9.873509388549693653e-04,4.678378701210021973e-01
4.189497147657877951e-01,4.488105263195259487e-01,-1.803915371807929269e-02,-8.946970210358718562e-03,-5.626025097270459692e-03,-9.764132804669532414e-03,4.533441364765167236e-01
4.326707382052272788e-01,4.560448835455542804e-01,-2.244738350744779343e-02,-4.995243813370585199e-03,-8.984352986147486507e-04,-1.029480431177982359e-02,4.676666259765625000e-01
4.390489140986269523e-01,4.248858618738940440e-01,-1.350065385455823108e-02,-8.887179187454588569e-02,-4.885936841007550158e-02,-4.215137014239224433e-02,4.845397174358367920e-01
4.585475421301766774e-01,4.404729324423661829e-01,-3.031826235340928655e-02,-5.303202682412334890e-03,-8.961931269708419898e-03,-4.983059575112418378e-03,4.804999828338623047e-01
5.325402102046277175e-01,3.671913925057029848e-01,-8.383931018748846942e-03,1.367103557943372960e-01,1.434427619933735867e-02,-5.027363598077971840e-02,5.429242253303527832e-01
5.216791212583185011e-01,3.862837438012187707e-01,-2.305175189993735607e-02,7.001524474047924468e-03,2.399889917327794123e-03,-2.124616325061199143e-02,4.927759468555450439e-01
6.488085689109812648e-01,3.078221767506854056e-01,-4.201157774656377741e-02,2.035421127621336035e-01,1.954916617138175924e-02,3.282860458652254922e-03,6.952775716781616211e-01
5.646678375495994828e-01,4.233041421022777917e-01,5.008555933713682018e-02,4.947916894643765440e-02,-5.138273387548112150e-03,-9.481702872930335146e-02,4.964171051979064941e-01
5.691111639306848380e-01,3.101827027985749607e-01,-8.615242752562035644e-03,4.306754819197964462e-02,2.130363472134605071e-02,-6.716994708719159317e-03,5.082157850265502930e-01
5.665671112117530717e-01,3.317498594527085176e-01,-1.433407575364614717e-02,3.920364170352019784e-02,2.426864294830543417e-02,-2.660246705806387085e-02,5.144710540771484375e-01
4.951232932501290485e-01,4.042811786913494965e-01,-1.866093107988003874e-02,1.394522928657932620e-02,1.124683954778825379e-02,-1.176211762914555932e-02,4.763729572296142578e-01
5.981378180837730874e-01,1.786073259136120583e-01,4.956749526594417254e-02,-1.816550927285860359e-02,-9.684041570459069742e-03,-4.572996184369913092e-02,5.043196082115173340e-01
5.646433951339073776e-01,4.129635029510422828e-01,2.123993721645184296e-02,3.595217473899606914e-02,1.041136025124833001e-03,-1.746714859365981753e-02,4.905782043933868408e-01
5.840362603544100306e-01,4.056268574130176829e-01,5.484898761187367855e-02,6.561194025670624708e-02,8.119456512965510242e-02,-5.958690173043300342e-02,5.106871128082275391e-01
5.229748337824395854e-01,3.756033450337238344e-01,2.680552494536853070e-02,1.391625093715981587e-01,7.138794115703287618e-04,-6.694843943630172933e-02,5.160693526268005371e-01
4.936856180038532438e-01,4.549080183318285897e-01,-2.555901959255080236e-02,5.227479181196746996e-03,6.414054103485181124e-03,-5.291809179490809117e-03,5.012714266777038574e-01
5.082378135045018119e-01,3.803476166808065217e-01,-3.944012047765371731e-02,1.776052266767253751e-01,5.043235258733375082e-02,-2.180763567574835887e-02,5.915675759315490723e-01
4.882381281206217283e-01,4.437617207003211051e-01,-4.769801881967961066e-03,5.816620167177121575e-02,-4.214121267063440299e-03,-2.062752339257440878e-02,4.843422770500183105e-01
4.387918556622680821e-01,4.637475753621707608e-01,-7.668301411048239480e-03,2.903131081979172523e-02,1.030018222758106138e-02,-1.075609172391340206e-02,4.629092812538146973e-01
4.860876063087283816e-01,4.214105116841267984e-01,-1.926321342426806638e-02,5.813837222533115717e-03,1.320488750290263122e-02,-9.658244587154226138e-03,4.772654473781585693e-01
5.077154690289065186e-01,3.545467234059748729e-01,-7.157503326098979546e-02,1.650183225098755535e-01,4.609250895146641686e-02,1.574347106318088260e-02,5.992655754089355469e-01
4.680115429851315900e-01,4.208632106349433077e-01,-4.104716379625894529e-03,2.745648905331231002e-02,6.505153513556487764e-03,-3.159242730812323024e-03,4.530736207962036133e-01
3.482283379537918777e-01,3.997660960230576266e-01,-2.682318570766251131e-02,1.809648064562190961e-01,4.897948316243946193e-02,-2.750264663961565076e-02,5.199615955352783203e-01
5.430228916802610772e-01,3.742547782724718330e-01,-1.222724977783290479e-02,7.341202712074293424e-02,-5.403110530459815861e-03,-3.071674524994628258e-02,5.120185613632202148e-01
4.874891682219958389e-01,4.393146935945438925e-01,-2.509601501301905735e-02,7.725974546108583738e-03,4.784388584667782600e-03,-8.606177661447226429e-03,4.907553195953369141e-01
4.788074017949807137e-01,4.746220931491588746e-01,9.004544389009544458e-02,6.772577492162625001e-03,8.680887357431242568e-03,-4.509349469410730074e-03,3.872350156307220459e-01
4.751849910028812518e-01,4.680472883061889133e-01,-2.922418611959820556e-02,-1.515452074678752363e-03,3.362919242355372554e-03,-2.696031072294747220e-03,5.009409785270690918e-01
4.626160639149553555e-01,4.741614162773801766e-01,-3.856430322458398452e-02,1.272362992862188487e-03,3.557504925873554002e-03,5.784955556155751272e-03,5.071928501129150391e-01
4.777128916740157605e-01,4.720796867084116055e-01,-2.896936646769232571e-02,4.592907338579360101e-03,4.580984501392128955e-03,1.012002436388962853e-03,5.040175914764404297e-01
4.397375160416705508e-01,4.724765294456529374e-01,-3.144455035980081581e-02,-1.953534850623300356e-03,7.624276451455736653e-03,1.329066007611034127e-02,4.891075491905212402e-01
4.517659053554227699e-01,4.838143064966649032e-01,-3.213071192568633938e-02,9.329943021831278369e-04,2.600761286209309444e-04,1.123284813800024678e-02,5.010713338851928711e-01
4.467077269157879726e-01,4.081058823754165621e-01,-1.245272398082514220e-02,-1.203554414663226546e-01,4.838985831110225594e-02,4.987776011464123416e-02,5.025320053100585938e-01
4.704457149113390191e-01,4.694683269140060289e-01,-3.443502230281075827e-02,-1.914108268690544509e-03,1.058866457820923680e-02,1.149281596959038539e-02,5.051293373107910156e-01
4.730251772220776529e-01,4.768669010643712403e-01,-4.026799205581171881e-02,2.861099933285606110e-03,1.754173924984041765e-03,3.165576777440679349e-03,5.152867436408996582e-01
4.480846925014162485e-01,4.758261380517658790e-01,-3.334975613679858064e-02,-4.137843488325410046e-03,-7.611264465517911075e-03,-8.742688244131612690e-03,4.963455200195312500e-01
3.402045915077021032e-01,5.151041234357829346e-01,-1.602860405441042246e-02,-3.398174133622643839e-02,-5.209571289027074836e-02,-2.251782035100313370e-02,4.826222956180572510e-01
3.661338507678708609e-01,4.911128988209317869e-01,3.515010224705572561e-04,7.045660352099358814e-02,2.416371982830226983e-03,1.759053358193432169e-03,4.583130180835723877e-01
4.135797695986745404e-01,4.624491933074774686e-01,-2.698835104191887879e-03,1.276351831930489476e-02,5.012783574138361675e-03,-5.140537101167927045e-03,4.434667825698852539e-01
4.232908267174776418e-01,4.252377764628054724e-01,-7.638381689590911794e-03,-2.344555661106400082e-02,9.537352804302163742e-03,8.018051416871995254e-03,4.343473315238952637e-01
3.378507344917069943e-01,5.175828461688954940e-01,-1.025227640598136425e-02,3.533670211573740772e-03,-2.635675456908343275e-02,1.091587909067477484e-02,4.674650728702545166e-01
4.611946005366995838e-01,4.263051010366086802e-01,-4.096283385341903394e-03,3.865306274244871814e-03,7.054746206904871468e-03,-2.202915299258143174e-03,4.490966498851776123e-01
3.983599941042088588e-01,4.947122611599570341e-01,-1.365076132830383981e-02,6.684662873217249446e-03,6.454337783297178950e-04,7.882166393985597097e-03,4.680347144603729248e-01
4.796377422884433583e-01,4.389937981086636798e-01,-1.238909803260340725e-02,1.643850350271594540e-02,-1.240771103742664520e-02,1.550996649740049929e-02,4.751195907592773438e-01
4.300836653537813414e-01,4.443878338257941651e-01,-4.931421997486085118e-04,9.143433472635773690e-03,-4.669764410319702987e-04,3.723123225727111105e-03,4.382386207580566406e-01
4.019800541058858867e-01,4.937569852804339909e-01,-4.710732801593509045e-03,2.457027547974843101e-02,-9.028596501029190202e-03,1.362321062054507731e-02,4.623393118381500244e-01
2.991703679335810384e-01,5.139751773431717741e-01,-3.457932507091865393e-03,3.767402803526566368e-02,1.059103193358414650e-02,1.881246349064584142e-03,4.553417861461639404e-01
4.211769472247996471e-01,4.569819213897151622e-01,2.600920639530990286e-03,6.724148155819483288e-03,-7.252513768905385254e-04,3.072231513170785300e-03,4.377676546573638916e-01
4.367538959706617208e-01,4.683730503939906864e-01,-1.658112149138135649e-02,3.764298452989819216e-02,-1.202592191527705225e-02,1.364062830510543410e-02,4.754887223243713379e-01
4.809337605525305648e-01,4.667676752477332158e-01,1.753016379380628598e-02,9.635069299380792304e-03,-1.071378801465129767e-02,-1.203915394517035033e-02,4.576424658298492432e-01
5.137655153801805596e-01,4.352556076535304408e-01,-4.710926695435119216e-02,7.444710951149010464e-03,4.056777644773620906e-03,1.915047662164211587e-02,5.272817015647888184e-01
4.825312662385522477e-01,4.767813926023043436e-01,-3.068331926024381318e-02,3.941197510687598562e-03,1.161678719935578356e-03,2.732478958919660247e-03,5.104355216026306152e-01
5.379450811345674044e-01,5.230410726696940182e-01,7.549160594625398124e-02,-3.614294568934289104e-02,-7.761521173465786572e-02,-1.597007012862503364e-02,4.795303642749786377e-01
5.509159430679941849e-01,2.359704712936022686e-01,-1.260635609050669848e-02,1.321420584368058204e-01,8.153798681825094943e-03,8.513176035304919481e-03,5.404356122016906738e-01
4.796992907231183434e-01,4.793811770176331644e-01,-1.982195008347026333e-02,5.008849688061107336e-03,2.549253028839027543e-03,3.567912454131595950e-03,4.994953572750091553e-01
4.710083080730122496e-01,4.784048239613151177e-01,4.216621710074164309e-02,5.442832589961048642e-03,5.754816067286516040e-03,-4.319035677586460613e-03,4.328699409961700439e-01
4.711843988416656304e-01,4.776178233238346227e-01,4.472294829284084727e-02,2.199662696998404970e-03,5.153824575960540104e-03,6.647332295597060438e-03,4.299780428409576416e-01
4.871582997676853211e-01,4.834864287625689760e-01,-2.119868731236396187e-02,-3.798870926951665797e-03,3.198546733965024896e-02,1.883893603129943584e-02,5.106377601623535156e-01
4.737272652553426999e-01,4.766697426991221009e-01,-2.746182385807571791e-02,-4.481865016792728799e-04,-2.161982308257282340e-03,3.029827932404182095e-04,5.026816129684448242e-01
4.790377539383680050e-01,4.803261108615191621e-01,-2.076143944620545412e-02,8.941535853650158612e-04,1.454924855451826825e-05,-2.974209095300117418e-03,5.004734992980957031e-01
5.037141729969254467e-01,4.258955685228051902e-01,-2.762909192126733471e-02,1.838101391387200832e-03,-4.874810063070372096e-03,1.354250421460917800e-02,4.976591467857360840e-01
4.800116391797255022e-01,4.749550860291300580e-01,-2.696420827398354758e-02,-1.727104370784339569e-03,-1.356828417807153268e-03,-4.302404482078840838e-04,5.044814944267272949e-01
4.772737427263041843e-01,4.729766846302222993e-01,-2.728382591212136221e-02,8.933969111944559029e-04,-1.281112491989584538e-03,-4.983687515900405395e-04,5.024308562278747559e-01
4.819198994161029148e-01,4.457459030985663762e-01,-2.494792407797796763e-02,7.044491979731049708e-03,-7.749282330496484045e-03,3.466457242337619635e-03,4.901562929153442383e-01
4.953766501190007832e-01,5.172268231984280540e-01,2.134422836518101718e-02,2.808762344287133936e-02,-1.529320074880347741e-02,1.793086652655343990e-02,4.894637763500213623e-01
4.781823999896437360e-01,4.766030069102679123e-01,-1.935575976202280613e-02,5.238667366903470733e-04,-7.586732186006000427e-04,-2.242803489519739658e-03,4.967680871486663818e-01
4.742675512591524312e-01,4.774775814776351934e-01,-2.805135590058716044e-02,-1.359174284887809192e-03,-2.069603634221162287e-03,1.031505332090420753e-03,5.039529800415039062e-01
4.254578433686719841e-01,4.225837849877744912e-01,6.611559082232432161e-03,-1.684797982213757234e-02,4.251109793171692700e-03,4.055734496373116296e-03,4.185591936111450195e-01
1.812173624658170445e-01,5.099685857371455411e-01,-1.832934877507583216e-02,-1.931749354197437041e-01,-3.493545932530325859e-02,-2.206127977544359089e-02,5.749510526657104492e-01
2.377938390731885177e-01,5.931189105577112652e-01,1.000640426563176311e-02,-7.238184928861737810e-02,-1.552029958592667305e-02,2.071704334253428662e-02,5.261266231536865234e-01
1.686283485881174826e-01,7.706293834278009625e-01,-7.218652483078091819e-02,2.007123181081001823e-02,-5.389197540078759577e-03,9.070147204635519225e-03,7.529345154762268066e-01
3.350642831628091733e-01,4.771514327946128065e-01,-1.803046720616879872e-02,-1.238445258414357375e-01,-2.590596322717174382e-02,-1.837125491264934504e-02,4.940375983715057373e-01
2.447095034043580974e-01,5.532377927089879854e-01,1.435741682405455855e-03,2.176592295517048442e-02,-1.307304928601517313e-02,1.081509126122697298e-02,4.813663363456726074e-01
1.386748525533287868e-01,6.403506227311408505e-01,-5.674571893168661729e-02,-1.243192938627002003e-01,1.509298420415721396e-02,1.046872823360531050e-02,6.597602367401123047e-01
1.821504865441996857e-01,6.522821210967160166e-01,-1.685015030815467663e-02,-5.851287459030766677e-03,-3.851113694414138450e-02,-2.671686568867039785e-02,6.007286310195922852e-01
2.493089875180647119e-01,5.686010318642361616e-01,1.275032908251538810e-03,8.047864307948541726e-03,-8.583785151503955241e-03,8.331609144222514376e-03,4.932414293289184570e-01
4.675807249755691286e-01,4.685108151964030299e-01,-4.116631799573861050e-02,4.829868701094534789e-07,1.125284291246530415e-03,1.351975193941422869e-03,5.092218518257141113e-01
4.677316534728441777e-01,4.658965685553491110e-01,-4.054585452609599239e-02,-1.150494114634678005e-03,-1.118608028926885075e-07,3.557040265230763595e-04,5.073667168617248535e-01
4.663487906890462220e-01,4.716687175658595965e-01,-4.081657417274642263e-02,1.477968818605034313e-03,5.184068995884920329e-04,3.975273798523181260e-03,5.098998546600341797e-01
4.698065162621674062e-01,4.721645906003233417e-01,-4.158140851142266836e-02,1.255131110376635608e-03,1.190913913281203308e-03,2.770446800615231856e-03,5.126022696495056152e-01
4.629761937622537959e-01,4.573608700188213083e-01,-3.251917977024681994e-02,-3.166914799523096007e-03,-2.073093876916270420e-04,1.239452225103577316e-03,4.927470386028289795e-01
4.508294029253537838e-01,4.543220423030132071e-01,-2.399895227940385123e-02,-1.477357065283419618e-03,2.802782356858820028e-03,5.735652452578130292e-03,4.767193794250488281e-01
3.889110054504651415e-01,5.086481077152822383e-01,-1.687440328102618459e-02,5.103144316583278252e-03,-1.065602212318395546e-02,1.035901427389751377e-02,4.778358042240142822e-01
4.422055882922469872e-01,3.943147736113904456e-01,3.258796096631044747e-03,-2.341854747918277121e-02,-4.598727120556401170e-03,-1.185105832399634346e-03,4.191172122955322266e-01
3.339089317758358044e-01,5.427164608577926819e-01,-9.499084777750577135e-03,1.259026547122307771e-02,-2.064508115142346320e-02,2.362297725353905756e-04,4.847578704357147217e-01
3.236569458791741516e-01,5.212183963159520150e-01,-1.119739506554634501e-02,3.079979746678722027e-02,7.499032452108377522e-04,5.701435653639713025e-03,4.693158268928527832e-01
3.919295640843039052e-01,5.058297377406051343e-01,-1.788135128821310982e-02,4.985775421277593121e-03,-6.617517836458894180e-03,1.256741327927861016e-02,4.777818918228149414e-01
4.352807606251098971e-01,4.950927549715582465e-01,-2.085723047155602083e-02,1.117150714059233184e-02,-1.163827143731697815e-02,1.215856139140746375e-02,4.900470376014709473e-01
4.396261171594836870e-01,4.406501137564154957e-01,-2.243842285434505257e-03,9.381604628134386503e-03,-6.276280463726555819e-03,5.884507784417705896e-03,4.429319202899932861e-01
4.384063476514766244e-01,4.306237560265374076e-01,6.258200384693379803e-04,1.473424062876265914e-02,-1.360744367523346278e-03,5.173861733229449681e-04,4.346986711025238037e-01
2.679242319199194866e-01,6.169666370765323204e-01,-1.268640982627633473e-02,4.276862987965258239e-02,-5.632656422304435986e-03,6.152449859152359438e-03,5.515561103820800781e-01
3.972419343308450368e-01,4.496315429546536291e-01,1.820891850274175550e-03,2.666470119630157121e-02,2.378324024341482029e-04,5.733408993566804735e-04,4.265590310096740723e-01
5.070094891786387503e-01,4.164275839942229718e-01,-2.001344905079222025e-02,1.012250871205633423e-01,2.094140407816619948e-02,-1.188917255578530834e-02,5.202872157096862793e-01
3.553589237107406817e-01,4.512578251426300202e-01,-1.230647713347166050e-02,-8.187033645673547078e-02,4.241950121640073595e-02,2.937261334934285553e-02,4.557717740535736084e-01
4.268075598837300921e-01,4.254376262972294209e-01,2.743639253950325152e-03,-1.416365106879001988e-02,5.082151377320612284e-03,1.068341390928655328e-03,4.241861402988433838e-01
3.703359252416137948e-01,5.131554066790500190e-01,-1.486337163205514456e-02,-8.656314250637833774e-02,4.310815335425480233e-02,3.700024137238636796e-02,5.059164166450500488e-01
4.300265476561065947e-01,4.826854653677082885e-01,-2.768776054475419190e-02,-5.187030486506369505e-03,9.938045829466611233e-03,1.535394206193445993e-02,4.873010814189910889e-01
4.703066611802438901e-01,4.802121613673001610e-01,1.263045468440116004e-02,7.831643290273261268e-03,-5.368654175706589517e-03,7.993655974852988816e-03,4.632076323032379150e-01
4.406712917612595204e-01,4.306393036942952612e-01,-2.194431362442239575e-03,-4.989580135333897964e-02,2.985683127976309845e-02,3.950986807011210716e-02,4.545481503009796143e-01
4.222892705846326700e-01,4.778760078395899447e-01,-1.673057601503996628e-02,4.793869624775734528e-02,-1.131708061955329948e-02,1.416566345679417215e-02,4.776113331317901611e-01
4.687697081961875734e-01,4.796656372812884706e-01,-2.689754060036203542e-02,3.922625192208732334e-03,-3.828661164845987251e-03,2.044548392866104864e-03,5.013064742088317871e-01
4.624714155716977970e-01,4.763589774582680514e-01,-2.613474033876828084e-02,3.319247503607195872e-03,-4.702431985169700998e-03,5.572448782926169020e-03,4.958900511264801025e-01
4.555225500427797503e-01,4.825345769576842025e-01,-2.541147703598650720e-02,5.451570804687781236e-04,1.947217891557433351e-03,4.978211858837029886e-03,4.950805902481079102e-01
4.829686222586514477e-01,4.620755229458784474e-01,-2.048696780862557798e-02,3.504037187053149656e-03,3.440442332228095014e-03,3.554380271590077463e-03,4.934526979923248291e-01
4.651604362044965968e-01,4.720606740759307751e-01,-2.699164273648846368e-02,-3.504067982127204682e-04,-3.489755619344767947e-03,5.327050343119124317e-04,4.956763088703155518e-01
4.401875932469438424e-01,4.786029896501098335e-01,-1.876259438745248032e-02,1.015008743854193540e-01,-2.968014360432946752e-02,3.796927830746823357e-02,5.173169374465942383e-01
4.198714781793453366e-01,4.803069850769292604e-01,-1.800478030443081190e-02,2.942980975221077405e-02,-1.096180680714352491e-02,8.031681055949651746e-03,4.743455350399017334e-01
4.019384871429255157e-01,4.903025460475213260e-01,-2.001108737577572683e-02,3.987048692409946200e-03,-1.548656617685755833e-02,1.110754610016758022e-02,4.735738039016723633e-01
4.335503833416268771e-01,4.872666045253996048e-01,-2.344900586208881199e-02,3.445112807688783217e-03,2.163940773605860842e-03,6.546156614124048513e-03,4.862719178199768066e-01
4.733781904310661592e-01,4.722076473356618953e-01,-2.937574067750242657e-02,-4.293062888770351527e-04,-4.402610151181833055e-03,2.823233651364830642e-03,5.022519230842590332e-01
4.724621304557925505e-01,4.768516009884207207e-01,-2.911721816577061972e-02,-1.322340066331190514e-03,-4.382079197010907250e-03,2.617354138184615348e-03,5.038712024688720703e-01
4.752402313610604168e-01,4.744257603119665934e-01,-2.751052666369613320e-02,1.015322559805302463e-04,-1.538461976409767791e-03,-2.766951128816024278e-04,5.023513436317443848e-01
4.770289872965228772e-01,4.718526299910046351e-01,-2.790727032767376103e-02,-1.936624166582755907e-03,-4.837032962927852696e-03,-2.482764003011718007e-05,5.024491548538208008e-01
4.745835277893137305e-01,4.796319359182422137e-01,-2.675416978152894698e-02,-9.761984830885189019e-05,-1.170610176710017809e-03,1.979294907655560452e-03,5.038966536521911621e-01
4.727959500174546137e-01,4.769802187508415114e-01,-1.739685039820032530e-02,9.720181674088469335e-04,-1.030142893100560253e-03,-2.678469632912930994e-03,4.923262298107147217e-01
4.742981254778491640e-01,4.773521862209002542e-01,-1.456041188474094250e-02,4.188515929085921284e-05,-3.840190808386104420e-03,-1.294640995014736083e-03,4.904429316520690918e-01
4.744779852913976192e-01,4.797478299037762905e-01,-1.454910902865497180e-02,-1.355498034033568401e-03,5.191229958874056007e-03,1.426755963566545601e-03,4.917772114276885986e-01
4.344768255954374325e-01,3.798320743270380273e-01,9.090760609785974999e-03,-2.413494221743718929e-02,4.862504741128863273e-03,5.261100819254977334e-04,4.031296074390411377e-01
4.737901274485037950e-01,4.770346316842118961e-01,-1.492912723506273354e-02,-1.048769969456387089e-03,-3.936124841672627474e-03,-1.172081925620348762e-03,4.904045164585113525e-01
4.770392191805853388e-01,4.686038571580256606e-01,-2.725381674179844227e-02,4.799032174402897890e-04,-4.930510997510657335e-03,-5.341999839570647649e-04,5.002031922340393066e-01
5.325268884323179908e-01,5.095037770752420814e-01,6.321174724530176370e-02,2.838150222455037425e-02,-7.262312383709676467e-02,4.527574294957212309e-02,4.841179847717285156e-01
4.700579638393700410e-01,5.299671704655973814e-01,5.159931188870370278e-03,1.689804757938666024e-01,-8.683133101352411704e-03,7.132136525154421369e-02,5.905256867408752441e-01
3.923591355277319948e-01,5.499979069218732253e-01,5.877572879618175872e-02,3.119981182540199072e-02,-8.567604880579735016e-02,-3.389715057648089169e-02,4.659421145915985107e-01
3.155669596888847628e-01,5.510962540085201367e-01,3.622755311269482137e-02,-1.876486174338685975e-02,-4.735246788107996124e-02,-1.907722834786283392e-02,4.562588334083557129e-01
4.839223893937930621e-01,4.777761015154277091e-01,-8.037047754299753155e-03,8.610376518758681291e-03,-4.517306599628861767e-03,-6.124876866432683864e-03,4.893202483654022217e-01
4.841786302612740567e-01,4.122427968679676091e-01,-1.545279015347572615e-02,1.494767651544424633e-02,-9.321731998538510325e-03,1.219958915117511956e-02,4.692998826503753662e-01
4.740146513679787121e-01,4.736946373169898528e-01,-2.893832644942978538e-02,1.464549838044331516e-03,-4.527164248777474503e-03,2.584461860148622170e-03,5.028805136680603027e-01
4.736832717171582385e-01,4.714815968158878601e-01,-2.760034165329872113e-02,1.457028284174024992e-03,-6.223179482970108475e-04,-4.447995360563635966e-03,5.002532601356506348e-01
5.544238119983879720e-01,2.887615602255393932e-01,-2.588172637922364627e-02,-8.210342469578296720e-02,-2.281751055902528705e-02,-4.832229065639267324e-02,5.309949517250061035e-01
4.777146740209750053e-01,4.449128110555903293e-01,-1.667201233514398195e-02,-9.242675112038205645e-03,-8.885520890575801523e-03,-9.181146260881029725e-03,4.796075224876403809e-01
4.791045569308811647e-01,4.654582644822139459e-01,-2.253339512504526354e-02,9.651956161357477457e-03,1.566163405708192709e-03,-1.176241831672333177e-02,4.956644773483276367e-01
6.383981827493446781e-01,5.540776794112252102e-01,7.381247100814747331e-02,-3.490168297360852351e-02,2.362102790765852056e-02,1.559736914262460118e-02,5.332156419754028320e-01
3.883151101145033146e-01,4.623193965845451836e-01,-4.784354496933873602e-03,-7.625995179863434906e-03,-9.624062158919238080e-03,-1.454469720102263830e-02,4.360984265804290771e-01
4.252332477322680049e-01,3.872322567401386695e-01,-7.235250709237694977e-03,-5.658287944029099376e-02,-2.403182186384876518e-02,-2.777463815401369843e-02,4.309183061122894287e-01
3.687740258788732017e-01,5.043538200727470944e-01,-1.939227378982971706e-02,-9.535918516979095816e-02,-2.812638486169683621e-02,-1.841022085914748724e-02,5.023471713066101074e-01
4.267058628181301660e-01,4.171595535453252457e-01,1.977791508107895613e-03,-7.225779879962682464e-03,4.541000342821181930e-03,3.985629892493191412e-03,4.203529953956604004e-01
4.216580443226752850e-01,3.681444546293379805e-01,7.790811620728865794e-03,-6.942406986589240436e-02,2.587645481908662677e-04,-4.223540712492905407e-03,4.080626070499420166e-01
3.522624565634535077e-01,4.810787040982445473e-01,4.989533979563864907e-03,-2.310559355954812377e-02,6.080091190212499538e-03,8.341210646132512022e-03,4.287746846675872803e-01
3.739680817887310327e-01,4.244673674796342611e-01,5.705659411100405531e-03,-1.068472715882842622e-01,-7.759865394593571698e-03,-5.141725268495571897e-03,4.373480975627899170e-01
2.664841789238124869e-01,4.670599417863663394e-01,-2.187102874268764818e-02,-1.837677722831005112e-01,-2.482502433827441304e-02,-1.495353076663745971e-02,5.338987708091735840e-01
4.738301508777553184e-01,4.024309961172410910e-01,-4.954836815602048361e-03,-3.766773105280048911e-02,-1.701462631318640534e-02,-2.010924851235593516e-02,4.544076025485992432e-01
4.426153926718244813e-01,4.779282769621305826e-01,-1.636319756927268054e-02,2.457883366402113801e-02,1.903419708848824417e-03,-1.072333724748117043e-02,4.798795580863952637e-01
4.670255567102057359e-01,4.525383711205656079e-01,-2.198428500612537029e-02,5.189279855925060803e-02,2.527936544213395947e-02,-2.361603104038229733e-02,4.938876330852508545e-01
3.596835416181484169e-01,4.183671379482408748e-01,-1.985658417873559234e-02,1.851286674641867136e-01,4.985942584077807105e-02,-9.543370751553497192e-03,5.294489860534667969e-01
4.839079107699529869e-01,4.578719904901249471e-01,-2.691804381673729152e-02,1.337399124694829298e-03,1.936119047557180667e-03,-5.014846007554882822e-03,4.984107315540313721e-01
4.866903148135403034e-01,4.541313322895774718e-01,-2.635112460685262725e-02,2.748051845365243571e-03,2.029669694645839552e-03,-1.771671334899553672e-03,4.976061880588531494e-01
4.834662421083673056e-01,4.697212569917047498e-01,-2.469653558994616693e-02,-9.167051116523963934e-04,4.308451975327343635e-05,-3.633862040749928461e-03,5.014736056327819824e-01
4.830311767633659881e-01,4.620645628644916014e-01,-2.784247488014157668e-02,4.654374828488721822e-04,6.830536685022772780e-04,-1.167664373250925074e-03,5.007258057594299316e-01
3.047540946895548331e-01,5.345456201876734870e-01,-2.926274369171305567e-02,8.392303690163550878e-02,5.789861552071903089e-02,-2.272823401713571639e-02,5.233176350593566895e-01
3.088805400812621449e-01,5.916805507518034801e-01,-2.088105680996704683e-02,5.791659098214219786e-02,5.503228144457950749e-02,-1.093367197362228246e-02,5.490741729736328125e-01
4.663766113303758898e-01,4.825833861634442057e-01,1.526819504460463772e-02,-1.396488945629964940e-03,-1.098168884973106489e-02,2.082169682365739901e-03,4.598403275012969971e-01
3.207562357641160489e-01,5.234515319593329163e-01,-6.985889441989134863e-03,2.612412152052558112e-02,1.973502104681880767e-02,-2.565084607388354917e-03,4.670841693878173828e-01
3.756056545621548892e-01,5.247918200171086678e-01,-2.043342922551161234e-02,1.544598256192697937e-02,1.489667223153193741e-02,-3.818312864024613063e-03,4.895020127296447754e-01
3.313129886868086960e-01,5.779312956237963039e-01,-3.490585632274900707e-02,-1.255376117293702590e-02,6.032553384056877493e-02,2.404335872640467678e-02,5.462395548820495605e-01
4.774406232636657088e-01,4.795382980775321213e-01,-4.971892564661573033e-03,-2.146448524575703641e-03,1.641005766232073301e-03,3.100776577266802034e-03,4.835172295570373535e-01
4.751152618434431041e-01,4.801998715583231103e-01,1.698098037563550156e-02,6.419343173088983782e-04,-5.317513784051991141e-03,-5.158667567985707539e-03,4.608776569366455078e-01
4.852785945343744411e-01,5.056917836981019709e-01,-2.457941937397362109e-02,6.998198392019952530e-02,-5.700777370492560864e-03,1.963559488264902952e-02,5.354683399200439453e-01
4.771367317604879310e-01,4.676049833649606469e-01,-2.139004458576199141e-02,6.581621970911560090e-04,-4.137223589676497504e-03,3.006565130633116843e-03,4.939106702804565430e-01
4.772919553717408503e-01,4.780136322647272618e-01,1.542923593556660977e-02,7.260750872952081991e-03,3.752599556661535135e-03,1.966358326698641745e-03,4.624532461166381836e-01
4.762286196475395972e-01,4.701308826982766309e-01,7.168409945681636364e-02,5.001949865168366094e-03,1.013748940976549710e-02,2.287190866985034689e-03,4.020269811153411865e-01
4.818980655226415832e-01,5.059779934896577736e-01,1.068082162475414432e-02,2.701908064265613404e-02,-9.801261505824495485e-03,-7.754261759809069968e-03,4.864474236965179443e-01
4.592545203800796894e-01,4.799836279823576080e-01,-3.198922699055684049e-02,7.182814598975183727e-04,-3.901174355820719985e-03,-5.555152891565092420e-03,5.020686388015747070e-01
4.510005552864433387e-01,4.784693308982044813e-01,3.914671616748960359e-02,-9.890732131263877541e-03,7.522078948772272953e-05,-7.708880574608881729e-03,4.268055856227874756e-01
4.536410766150748008e-01,4.780125651546441867e-01,-3.386564443762840604e-02,-1.169423516029184174e-03,-4.880456952373916739e-03,-4.037700826994642875e-03,5.002624392509460449e-01
3.421728218474817673e-01,5.292893701434828735e-01,4.915392965729781238e-02,-1.045020138937219900e-01,-9.954310705188565422e-02,-3.188680693038390551e-02,4.911620616912841797e-01
5.001477123254038926e-01,5.172587006531501608e-01,5.231348933654456079e-02,-6.883388352231092910e-02,-9.881682000958040557e-02,-2.254644200075887200e-02,5.035322904586791992e-01
4.143543144630971176e-01,4.272316101114699838e-01,4.897860461951211719e-02,-1.286224290576831186e-01,-6.914813507891839905e-02,-6.170397617805587626e-02,4.623505175113677979e-01
4.097047588912445804e-01,2.545971415522005898e-01,-1.453324844476366895e-02,-2.362759502036747838e-01,3.143160135865702420e-02,4.480858949931897095e-02,5.609812140464782715e-01
5.174960011492788503e-01,2.256308975862370558e-01,-7.356283161301158113e-03,-1.451409839088408926e-01,1.050526241317249233e-02,8.588463341826078901e-03,5.207870602607727051e-01
4.732766142157308620e-01,3.703468455615488986e-01,3.129357562454415653e-03,-5.601556507659875839e-02,1.257766091048249067e-02,7.168485199964358054e-03,4.396394193172454834e-01
4.831851458836485813e-01,4.660101883344268670e-01,-3.610761974969528554e-02,1.376621225146669718e-03,5.911689513620822442e-03,4.961712590148093655e-03,5.111022591590881348e-01
4.970806841588002456e-01,4.320299343179101470e-01,-1.663706840922346553e-02,1.716120678290928778e-02,-1.104387392856592820e-02,2.982310028461965593e-03,4.857940971851348877e-01
4.411741148756217479e-01,4.112774896287703652e-01,6.714651245278646652e-03,-5.864700487585703184e-03,5.921427616258825161e-03,2.592283029639069758e-03,4.205811321735382080e-01
4.785675017328944181e-01,3.585932309860929146e-01,2.983685875074471028e-03,-2.295425809462766503e-02,1.255108561270173485e-02,6.593989315430359537e-03,4.309288859367370605e-01
4.244669999926059534e-01,3.639187913828963450e-01,-2.395123952333116923e-02,-2.478256251920940290e-01,1.291849398712292818e-02,3.697408222412804785e-02,6.053500175476074219e-01
4.556956830964076777e-01,3.066875714771897798e-01,1.145222489790279075e-02,-1.581538924776863253e-01,6.626770243752716505e-02,6.643543664117899927e-02,5.047900080680847168e-01
3.024133282308615889e-01,4.955003786547103051e-01,-2.971347577282890118e-02,2.143895037378528157e-01,-9.029628348127588869e-03,6.962829400415541459e-04,5.914852619171142578e-01
3.214588112928020158e-01,6.866825718949705060e-01,-1.826888130250392539e-02,1.262533504954377328e-01,-1.749660948729592214e-02,4.219844674033030457e-02,6.534218788146972656e-01
3.805419827522644738e-01,4.682697778025843305e-01,-8.422718045520749541e-03,1.624697726177867230e-01,-4.389090243347947007e-02,2.729751846305775165e-02,5.294494032859802246e-01
4.007383136635053189e-01,5.176186123712124276e-01,-1.480323837013197696e-02,1.041806324310246834e-01,-1.661656322275015989e-04,1.304655045677916361e-02,5.176638960838317871e-01
2.715592850120022717e-01,5.266630183022356082e-01,-8.964022565494855765e-02,1.463302138299088506e-01,4.611679607315478241e-02,6.409765045911841597e-02,6.087936758995056152e-01
3.297445656387018587e-01,5.344940181939891177e-01,-2.390901502150655222e-03,4.861272958965569269e-02,-4.180799394649750006e-02,-4.138125158551085765e-03,4.823127090930938721e-01
3.762800966533911273e-01,5.744566121926271141e-01,3.342351705202362133e-03,7.067264683758585353e-02,-5.946703147444705462e-02,4.310020934338298221e-02,5.323811769485473633e-01
3.210467992960965855e-01,5.821503016348207327e-01,-1.235332847205622420e-02,2.201190869363857661e-01,-4.266070212712573528e-02,2.407332384973703138e-02,6.472544074058532715e-01
5.133543014357352385e-01,3.207908513420897889e-01,-2.920327467680972067e-02,1.846430684432023295e-01,2.494073150244502379e-02,4.127961520646253844e-03,5.754728913307189941e-01
4.859525863502451859e-01,3.781567656606786842e-01,-5.107826001243542802e-03,-1.174835071350021631e-01,2.698052185151899457e-02,3.604573367422187619e-02,4.973075985908508301e-01
4.744904473764918196e-01,3.856107042802052742e-01,-1.541959065108283733e-02,-2.068978582033998218e-02,1.835550936578590406e-02,1.326645617258795720e-02,4.551827609539031982e-01
4.616928835905474982e-01,4.381696974821078783e-01,-2.468176502130187133e-02,-7.305751990675707352e-03,1.191720770599676189e-02,6.101213233864189595e-03,4.757840037345886230e-01
4.687965187548627233e-01,4.679324362947916982e-01,-3.852262731245631455e-02,3.959218512401336447e-04,4.750087462862168791e-03,5.856225198313571786e-03,5.070563554763793945e-01
4.337044562994065156e-01,3.863997316141921656e-01,5.127821969911905420e-03,-2.404691994473283703e-02,6.462415398105477403e-03,3.048156254989339321e-03,4.093041718006134033e-01
4.244800225075382460e-01,4.359993858533864897e-01,-2.564251552913010546e-03,-4.913004050590853017e-03,1.201511243959393427e-03,6.955854323294019190e-03,4.331751167774200439e-01
4.322080716540497303e-01,4.340697107064305782e-01,-6.683555200712842925e-03,-6.124908853880311164e-03,8.670255117781173679e-03,5.441336163285261790e-03,4.403104186058044434e-01
4.438152180039166561e-01,4.388086218323048460e-01,-1.862450674500248926e-02,-2.263890389665307572e-03,1.667673126797021175e-03,7.805383922261764293e-03,4.601812660694122314e-01
4.082906643316961959e-01,5.206132254659027181e-01,-2.376698782594605097e-02,1.264867871914398534e-01,-8.234047558513835421e-03,9.155817160208171504e-03,5.443083643913269043e-01
4.520325866090296740e-01,4.840296418689936098e-01,-1.868836253332534225e-02,3.663460085403445060e-02,-2.423957613783836451e-02,4.836833581975849908e-03,4.934803545475006104e-01
3.899932717285266026e-01,4.796576755878253495e-01,-1.448406516314199033e-02,5.862998740938176606e-02,-1.555282344524408847e-02,2.492313658701174675e-02,4.699046909809112549e-01
4.367086244520218541e-01,5.015079717366603962e-01,-2.199597438488121171e-02,1.533772084956321405e-02,3.675017413019754375e-02,-1.467544472523197099e-02,4.997361302375793457e-01
3.720833988419423033e-01,4.943348568302470269e-01,-9.760765860454878595e-03,1.433417366145037404e-02,-1.105465251042887787e-02,1.054176595225610018e-02,4.568892717361450195e-01
4.038180651507076169e-01,4.865001612312370161e-01,-2.041253685828364750e-02,2.610305906690998934e-02,1.038008465859926793e-03,7.073739677252066822e-03,4.733726382255554199e-01
4.469529307796015205e-01,4.463939399323576529e-01,-1.119515325891906610e-02,2.719446961687981001e-02,2.073205914378235294e-03,9.980878165008637282e-03,4.606237709522247314e-01
4.334039209866518139e-01,4.450705193723801800e-01,-3.902671608088215116e-03,1.743920920992489063e-02,-4.078313369367741331e-03,6.723261986224981362e-03,4.444917738437652588e-01
4.708705674781460404e-01,3.879619247316857811e-01,-1.267450351424398436e-02,6.137894685427232322e-02,-2.055434842904843920e-02,3.271047232332757737e-02,4.651656746864318848e-01
3.436690998019470422e-01,4.883745207188250892e-01,1.283483744604885235e-02,-1.300367607806087178e-01,-8.135714574475436112e-02,-5.071984138802476672e-02,5.065250396728515625e-01
4.453309562299674340e-01,4.861544948850711201e-01,-5.412932359679878402e-03,-9.512048846396886984e-03,-7.154150089703867343e-03,-3.866773745751583315e-03,4.729771912097930908e-01
2.789970655744863914e-01,5.485400640141548934e-01,-2.143924384201428834e-02,-1.463072805818279309e-01,-5.569780683286892214e-02,9.246795392249828466e-03,5.636280775070190430e-01
2.784655313272954014e-01,4.738747155554373092e-01,4.721372698190701156e-03,-1.477499522127789511e-01,-3.493452448793347292e-02,-2.646093306101229489e-02,4.877137243747711182e-01
4.525735094108843115e-01,4.766882119298572196e-01,-3.452799078974849722e-02,-1.052900341375948674e-04,-7.916513770558672447e-03,-7.942068356929286518e-03,4.999729692935943604e-01
4.189196284997884767e-01,4.863293363606171482e-01,-2.536521538654612495e-02,-1.671732269088493233e-02,-2.798374046361519485e-02,-1.347183252533636598e-02,4.854012131690979004e-01
4.802026475160768859e-01,4.716852807203004705e-01,-2.436006243686245076e-02,-1.144283014652121159e-03,2.743920358963642617e-03,3.051679583379473485e-03,5.004128217697143555e-01
4.131675525248442726e-01,4.878821803536786961e-01,-2.579556565755647402e-02,-7.814801289837748979e-03,1.109878399550549589e-04,-8.807517719223901739e-03,4.811276495456695557e-01
4.814179598672053695e-01,4.756537286929635178e-01,-1.027556959257946989e-02,3.741509970962374372e-03,-1.015072187929167910e-02,-1.498391708304296598e-02,4.898838400840759277e-01
4.529795242575112568e-01,4.878794804707816679e-01,-2.856353099037717280e-02,2.198578582229296591e-04,-8.573189097001292572e-03,-2.563655858531487843e-03,5.001478791236877441e-01
3.970649445782253872e-01,5.056519657211767660e-01,-2.388820911194167174e-02,-1.175080447091014259e-02,-1.411479912145336031e-02,-8.022428560838838763e-03,4.857033491134643555e-01
4.700714318777226564e-01,4.898347893443308898e-01,-2.176900537019743620e-02,2.220263897292046752e-03,-5.341656263320444624e-03,1.436474700995967954e-03,5.021201372146606445e-01
4.809453559267831690e-01,4.534742145313496176e-01,-5.818590648071775284e-03,3.530126062386825490e-03,3.935843575325049387e-03,-4.926012276744874858e-03,4.737916290760040283e-01
4.794792573144424086e-01,4.711271868661518480e-01,-9.331349073649075621e-04,-9.145837342018052095e-04,3.755888762820254207e-03,3.733437266831029968e-03,4.763822257518768311e-01
1.756178865455172156e-01,5.903926482068284631e-01,-2.817061245076663001e-02,-2.137762920849387363e-02,4.560706720098100381e-02,2.582266555324756740e-02,5.547122359275817871e-01
1.910087497421219527e-01,5.515848146903065130e-01,-3.226638653457603034e-02,-1.255276054577693368e-01,-7.846899236134840042e-03,4.637508744046268429e-03,5.548831820487976074e-01
4.578094683586953484e-01,4.817173860834038646e-01,-1.260593935420117884e-02,2.414475947978276735e-03,4.130047879226426445e-03,-6.537353191538747841e-04,4.828859567642211914e-01
3.730053629517350866e-01,5.008769675771265195e-01,-2.234904658843056557e-02,-6.433336777238608806e-02,3.798721612168400041e-02,2.608946860202039641e-02,4.919331967830657959e-01
3.540145060067277916e-01,3.463414140990394019e-01,-1.222245161112497924e-02,-2.191239936550995471e-01,1.853533020200141476e-02,3.864267367152319360e-02,5.300326943397521973e-01
3.782752099430919390e-01,4.751292662842341308e-01,-1.998066990769831186e-02,-1.724788044227619846e-02,2.463015493029181019e-02,1.952628914623736819e-02,4.587127566337585449e-01
3.711671004484113356e-01,4.984851034969581818e-01,-1.925686040291046952e-02,-1.098901615313362980e-02,2.346455506325547877e-02,2.311653042755780832e-02,4.711325764656066895e-01
4.697175560072719414e-01,4.757186266737100100e-01,-3.796492609832563536e-02,1.746498611746859740e-03,2.943494799052210308e-03,5.517991597900952574e-03,5.108332633972167969e-01
3.949163508007161871e-01,3.739295750952228437e-01,-8.617061954793392431e-03,-1.769567685684274583e-01,6.954467307563416689e-02,8.928133275667052282e-02,5.358868837356567383e-01
4.744706134696544675e-01,4.580448252030597800e-01,-3.587902320748698193e-02,-3.198038664650773057e-03,1.208932968519462955e-02,1.300477093880578541e-02,5.033092498779296875e-01
4.825362098547999468e-01,4.751606861298697249e-01,-1.661723978677415170e-02,6.881668722001197834e-04,4.613508540843181543e-03,-3.075421226229356811e-04,4.955730140209197998e-01
4.818763935015227817e-01,4.735046439939719631e-01,4.299294261283614915e-02,3.581289014785104651e-03,-1.585555219008850242e-02,-3.824839116102050733e-03,4.357190728187561035e-01
4.154839074750468764e-01,5.032350398468603547e-01,-2.186434838003376013e-02,2.975106664420040618e-03,-2.247951834348385289e-03,-2.458665225279012961e-03,4.872488081455230713e-01
4.793149937315369091e-01,4.712643229139696910e-01,1.169196637716390930e-02,2.905061341361100426e-03,4.192591022304103729e-03,-1.112947658524200863e-02,4.641347527503967285e-01
4.887768440397752823e-01,4.825965577625169201e-01,3.336172961299066486e-04,9.353719214660244363e-03,-1.847241535200708305e-03,-5.058351459288411116e-03,4.857424497604370117e-01
5.198342237684214773e-01,3.945025184911878924e-01,-2.470828379929207452e-02,2.703021349935205361e-02,5.804525784508018926e-03,-3.054667292029699180e-02,4.990775585174560547e-01
4.752010786812784771e-01,4.152403954950046328e-01,-2.049840082588461065e-02,2.620936776687982778e-02,7.808668527073366235e-03,-1.335370078000924776e-02,4.715606570243835449e-01
4.792307389398272055e-01,4.762446656719152571e-01,2.841128607497911407e-03,-2.212375975765184296e-03,2.715927733357501820e-03,6.402981273371489805e-03,4.750718474388122559e-01
2.321316307234853049e-01,5.269129623904265092e-01,-8.812267112909832889e-03,-1.572728912443756011e-01,-9.918589046092871064e-03,-1.007438502922433816e-02,5.392398834228515625e-01
2.087100815987552593e-01,5.389584945471939115e-01,-7.094152830513472674e-02,-1.594963915647766850e-01,-4.768247493844598311e-02,-1.469812129704553376e-02,6.028348207473754883e-01
4.820845870701858660e-01,4.437527346637980541e-01,2.788578516620771053e-02,-4.264910499097105540e-02,-4.849701672063781027e-02,-2.788509688808158901e-02,4.529912471771240234e-01
4.744539731406224314e-01,4.793697144981834413e-01,5.096101714134737559e-02,5.678716068403916531e-03,-5.803239079189688628e-03,1.003007098557708900e-02,4.265581071376800537e-01
4.304525793533695022e-01,5.092174135784690581e-01,4.437217167456652955e-03,-7.969881526568291241e-02,-2.842361148520559239e-02,-2.524254375713282442e-02,4.946099221706390381e-01
4.649013788773168621e-01,4.534284534887674800e-01,4.431392395068622925e-03,-4.219693023590657954e-02,-1.725137696680008326e-02,-2.781510280415448733e-02,4.641518294811248779e-01
3.817388494659039178e-01,5.284880301610186404e-01,4.156644431443368148e-02,-8.257491579324501008e-02,-6.092432957021969714e-02,-7.930471331448205117e-05,4.677219390869140625e-01
4.946577276745772744e-01,4.698276872973774498e-01,2.443304548497027273e-02,-1.869741551015182135e-01,-6.408149506244198435e-02,-1.776554300681482124e-02,5.728841423988342285e-01
3.647921046664680533e-01,6.418729605415487427e-01,4.784919365697276605e-02,-6.965949899580367588e-02,-7.696554124336521530e-02,-4.179413289731163939e-02,5.501037240028381348e-01
4.667185805379947539e-01,4.792583498364976213e-01,-2.712136732866193833e-02,-3.748225254024210840e-04,-7.390837618977874092e-03,-5.214048975840088196e-03,5.004733800888061523e-01
4.881980316903179462e-01,4.793294809956263891e-01,1.272864319158123481e-02,1.485009426311888377e-02,-1.179719136042442669e-02,8.401538654207211035e-03,4.724657833576202393e-01
4.801122004489052353e-01,4.736997206034787022e-01,1.129866880534607931e-02,1.917116024346328081e-03,-8.177134127903117750e-03,-8.832205330716173016e-05,4.658676087856292725e-01
4.874539001771251989e-01,4.864852546084158513e-01,3.008302004814328301e-02,1.519894426545226850e-02,-1.064089900150668247e-02,-4.883387417345629727e-03,4.580941796302795410e-01
4.720717638402560645e-01,4.800163342488864004e-01,7.113974102517572895e-02,6.297611344367456260e-03,4.626898649579032005e-03,-1.095302237647963715e-02,4.056327641010284424e-01
6.366157220352817170e-01,6.070699067840743535e-01,6.499593835061928671e-02,1.286376869438987935e-01,2.374555401485219791e-02,5.308212274462575930e-02,6.087042093276977539e-01
4.838884722974458596e-01,4.732946036842669013e-01,3.973268683171199411e-02,2.995026226260939263e-03,-1.284229524711375144e-02,6.452670063365683120e-03,4.396906495094299316e-01
5.488679712550370571e-01,2.614644021063453061e-01,-1.869108728880475301e-02,-3.342625932426861873e-02,2.142929970076739438e-02,2.438072385141166684e-02,4.981148838996887207e-01
4.290994202610467489e-01,4.702628066726380340e-01,-1.584076900372460850e-02,4.865384916591864589e-02,-2.405474641530246441e-02,1.224027695663554988e-02,4.767267405986785889e-01
4.838065359209658967e-01,4.750614199095214429e-01,-8.817641587603619602e-03,6.724273703604589751e-03,-2.771886353387850548e-03,-4.457695417064052798e-03,4.885338544845581055e-01
4.410875521769164198e-01,3.631926973350885213e-01,-1.012857313560655559e-03,8.528513562674641668e-02,1.758827796687530490e-02,-6.007042710051990059e-03,4.358210563659667969e-01
4.936126510933007694e-01,4.274794889069745141e-01,-2.180491803970752152e-02,7.000493167188099296e-03,-2.083999836306358374e-03,-3.153552691660821503e-03,4.859347343444824219e-01
4.856639259894532934e-01,5.169976680343801867e-01,-4.820409588095098119e-03,2.628339997757729585e-02,-1.876618770409589979e-02,4.987456495630452832e-03,5.100284218788146973e-01
4.932608860036243881e-01,4.362556110367544204e-01,-2.562477365566878662e-02,5.118344760249950165e-03,-6.219987990935099340e-03,7.339585577293541996e-03,4.932230412960052490e-01
3.883150689960898627e-01,4.463720932457732049e-01,-1.201494540920222676e-02,6.760666706666310088e-02,-4.682142185607543472e-03,1.008679622471425098e-02,4.482852816581726074e-01
4.902372761489656727e-01,4.331313747037730533e-01,-3.150370501231636311e-02,2.686688738283698336e-02,-8.119237578476096520e-03,8.178506327989812710e-03,4.982410669326782227e-01
5.136931114851477354e-01,4.881576725544918838e-01,2.252371274073355911e-02,1.907034083907984193e-02,4.281325782602961490e-03,-2.005220170565962662e-02,4.813621342182159424e-01
5.210967361639534667e-01,4.735959117350980740e-01,1.318904491772621146e-02,1.113815608263501490e-02,-9.714540820972058371e-03,4.583340841888241396e-02,4.930090308189392090e-01
4.795149878936839638e-01,4.727135039266128214e-01,-2.809988559401854769e-02,1.405275654237930208e-03,-4.148054757064660938e-03,3.515298246735218228e-03,5.043423175811767578e-01
4.764740403649621037e-01,4.723914351642460874e-01,-2.786684768236863396e-02,-4.386939812359273049e-05,-3.798463840683094072e-03,3.910252974792653193e-03,5.024007558822631836e-01
4.849678149685088258e-01,5.262620043971651951e-01,-1.772042780368243697e-03,3.588802865780083007e-02,-1.361002898259409434e-02,9.619558545554750956e-03,5.132422447204589844e-01
5.873744605458929291e-01,6.597063885138025885e-01,5.594965698227821749e-02,1.171660577236611211e-01,3.364767945241397152e-03,2.298911595600745122e-02,6.073601245880126953e-01
5.303691964394756653e-01,5.167795519008154814e-01,1.201382116639450603e-01,6.136250361558886340e-03,-3.467294066006432890e-02,-3.460505490834221015e-02,4.125668108463287354e-01
4.780863076544160095e-01,4.681825414755727000e-01,-3.780810859449545980e-02,3.108269211129961913e-03,3.946247147552952445e-03,2.038432091073738572e-03,5.111007690429687500e-01
4.815925879844926705e-01,4.697719615781758007e-01,9.864582185941617176e-02,3.515233345921859286e-03,-8.914870595766639233e-03,1.642684921519861879e-03,3.775511384010314941e-01
4.683375490187544066e-01,4.709913776184179723e-01,-3.997850982442346934e-02,8.448769123644020657e-04,2.111389456232467578e-03,1.134655739893125105e-03,5.096671581268310547e-01
4.806506877161890734e-01,4.778127814282564501e-01,2.734522064325412005e-02,1.223831807188085694e-02,9.013266541382871505e-03,6.957796698694050132e-03,4.528197646141052246e-01
3.918760821830455932e-01,4.428990939731439758e-01,-6.895266124544385811e-03,6.935192034678253070e-02,-2.440118978544578610e-04,1.403525833816188922e-02,4.438340365886688232e-01
4.803484769876015248e-01,5.231418938215617320e-01,1.710360813269040658e-02,1.400343141899165235e-02,-2.906375609323409021e-02,-8.999834676748041246e-03,4.895061850547790527e-01
5.020698937764882519e-01,5.274402020807187341e-01,-3.717617881490220544e-03,3.902009580537341149e-02,-8.252910779090551208e-03,1.664564098055142452e-02,5.243089795112609863e-01
4.716857960770525771e-01,5.262433237464343438e-01,3.333546862453051762e-02,1.954106288013829629e-01,-6.480810785695988174e-02,-7.494500299605005161e-03,5.885300040245056152e-01
4.413921778649952943e-01,4.444810950470924893e-01,6.294012714472158043e-02,1.192418909910701874e-01,-4.870506084854547141e-02,4.124251965268330850e-02,4.464076459407806396e-01
4.716718910180106028e-01,5.906973148778329463e-01,6.939956611999792413e-02,4.150249571945231752e-02,-3.201692357180629250e-02,4.223366636042338168e-02,4.873031675815582275e-01
2.636814888377763677e-01,5.421066459412600125e-01,-2.938297604569151122e-03,1.496356149026892013e-01,-1.779217024468524033e-02,3.179474717249392707e-02,5.422132015228271484e-01
4.285219722232111450e-01,5.846240917029993378e-01,6.574928216350650612e-02,-6.068197383282623869e-02,-9.074496085525173006e-02,-1.085507038251063046e-02,4.987041354179382324e-01
5.117912083838955795e-01,6.094704076806738424e-01,7.877540447028846815e-02,1.403237683857299356e-01,-9.449402376939565473e-02,-8.183010961192248300e-03,5.704393982887268066e-01
1.091145154340540796e-01,6.545153137149184452e-01,-7.051327357442394028e-02,3.153667133403411510e-02,3.482869076597864405e-02,2.023798719926227577e-02,6.599612236022949219e-01
3.656502726430295169e-01,5.014710810248566020e-01,1.898393324204633581e-02,7.704863639898205940e-02,-4.458492693457460909e-02,1.952003391448512218e-02,4.589394032955169678e-01
2.946802390689527984e-01,7.109352426484402132e-01,-7.766309715650854262e-02,1.702844294509162637e-01,3.260115182364545922e-02,2.957311434942442793e-02,7.481310963630676270e-01
4.437459311800203698e-01,4.468446583180499254e-01,-8.029280328958721125e-03,2.620032368155555090e-03,-7.171556217397444602e-04,5.074520620239842891e-03,4.534421265125274658e-01
3.157611106410874724e-01,5.791317675757593486e-01,-1.987468464131880719e-02,-1.409776635025920648e-02,1.374934971660723287e-02,1.123846704845690540e-02,5.214924812316894531e-01
3.025773812546569408e-01,5.448130033654033921e-01,-2.215233344400452387e-02,1.238591946169663276e-02,1.288961896547142182e-02,1.250514422527872899e-02,4.941825270652770996e-01
3.167026796944133471e-01,5.516519922358390504e-01,-1.477748594762856582e-02,8.070529356538291843e-02,3.384298189972533011e-02,3.149010701687597613e-03,5.157200098037719727e-01
3.955806593081708789e-01,5.230231832132345993e-01,-1.800112758809446767e-02,-3.608833287384907631e-03,4.752336731067634962e-02,-2.764202907052666375e-03,4.968267381191253662e-01
5.261937926360248374e-01,4.854323975692491633e-01,2.680037459583628490e-02,-8.641039100179273569e-02,9.481542401104747775e-02,6.816971575896019209e-02,5.422276258468627930e-01
4.951781248222087428e-01,4.751642131364121058e-01,8.716126199339868652e-03,-3.861802090804905552e-02,6.959396625989747176e-02,8.638533179334204060e-02,5.183638930320739746e-01
5.095275718584276747e-01,2.951045274806969321e-01,-1.077996582124846059e-02,-1.131290713970284356e-01,4.652458634428125600e-02,8.936507150340804173e-02,5.234288573265075684e-01
5.396093179758115754e-01,4.235616682448069548e-01,-2.980384026826876642e-02,-3.153174495874028205e-02,3.772779618906487581e-02,4.637133785234626854e-02,5.341565012931823730e-01
7.328760229033473017e-01,3.441494313693768126e-01,-2.334058214077466831e-02,2.294782989522870312e-02,3.011163687316126270e-02,7.714791430499554070e-02,6.716887354850769043e-01
5.251550710036765324e-01,4.764173786516489595e-01,7.118667752546276040e-02,2.252326967417904099e-02,-1.615508117149019179e-02,-1.466968931286103187e-02,4.350721240043640137e-01
4.674246382701054969e-01,4.731052852112741514e-01,-2.962333866376198888e-02,4.520904327037349201e-04,-1.393045390686102050e-03,8.794301079589928209e-04,4.999212622642517090e-01
4.650616796207885373e-01,4.732374366619178652e-01,-2.702922702581933567e-02,6.776684668575216940e-04,-4.220175434118672163e-04,-7.896353003708279667e-05,4.962312579154968262e-01
4.607374718084585874e-01,4.657297076728568741e-01,-2.419419898178171158e-02,1.207303322574842554e-03,-3.312265618372114799e-03,1.556281025167354382e-03,4.874926507472991943e-01
4.623204300386883903e-01,4.800273153201216059e-01,-2.699357710012673106e-02,4.082739759811969144e-04,-2.515603178443082729e-03,1.399239808893010771e-03,4.984288513660430908e-01
4.658287268650812551e-01,4.562251242218716696e-01,-2.322044467623507469e-02,6.250346271621052413e-03,-6.343486688583471235e-03,2.639349037765767111e-03,4.845859110355377197e-01
4.671274681302848841e-01,4.779780398227576610e-01,-2.785627441616955746e-02,-7.555722317264879691e-04,7.706999307358977647e-04,4.778633730331371238e-04,5.005014538764953613e-01
4.654878546129231909e-01,4.658882892242119933e-01,-2.385859192391187600e-02,-5.328565023603651753e-04,-3.662437236169199372e-03,1.701561256695616458e-03,4.895976185798645020e-01
4.710250784062933738e-01,4.776950299904686448e-01,-3.079119859179396679e-02,-1.995457397950570839e-04,-1.415009571813980339e-03,5.399826653532436866e-04,5.051912069320678711e-01
4.825226541398538460e-01,4.533834558832487427e-01,-3.090600343558863594e-02,-5.110487664231928503e-03,1.328000525233822594e-02,1.068436269150742531e-02,5.004468560218811035e-01
3.418878749262345140e-01,5.041136933324309455e-01,1.638548394268946051e-02,-7.955478132843747663e-02,9.841794430864894694e-02,6.963128274264900053e-02,4.976591467857360840e-01
4.577552630312516357e-01,4.839938763975994984e-01,1.234438724105713092e-02,1.545860523477853021e-02,1.030435848043316158e-02,3.491083718135527575e-04,4.602196216583251953e-01
4.761381425749259266e-01,4.795302012149168513e-01,-3.187717896260633399e-02,8.895365375822754774e-04,-1.843492294827777170e-03,5.277156861032357470e-04,5.097329616546630859e-01
4.633958606731108931e-01,4.792809134761724099e-01,-1.447969463669235290e-02,3.956486706006661497e-03,1.864331626599046625e-03,-5.652941930570054910e-03,4.861704707145690918e-01
4.341983109262783636e-01,5.058511958785218976e-01,-2.805543968498658280e-02,-8.161950656307194474e-05,4.347353623772556158e-03,5.007249464774425618e-04,5.019879937171936035e-01
4.031095419748209618e-01,4.606814120672793056e-01,-1.173697811899226950e-02,-1.322579405995992219e-01,4.997049669412195055e-02,4.449367993248656838e-02,5.149779915809631348e-01
5.303160863060597530e-01,6.838259676220304062e-01,4.702757779642624536e-02,8.131216373467572978e-02,9.363996857267965768e-02,1.208580118635615985e-02,6.147366762161254883e-01
5.144721011895097007e-01,4.987090168709364946e-01,8.883797712254865031e-02,1.924639637432785585e-02,4.433268545235945213e-02,-2.738171745690168302e-02,4.289059042930603027e-01
4.767284660679785846e-01,6.821868707073507343e-01,6.643998722544253166e-02,-1.713942805920546514e-02,2.960072220835734819e-02,1.990656224553193077e-02,5.473076701164245605e-01
4.808268537801927978e-01,4.789534324268152066e-01,8.397114085061163635e-03,4.666488025560162380e-03,-5.654280020599964686e-03,-1.050433549568301553e-02,4.720175564289093018e-01
4.358249737268233281e-01,5.052976669190242243e-01,-3.412112593549093686e-02,-3.184043798541269510e-02,4.320876618605357794e-02,3.205034495352838964e-02,5.196617245674133301e-01
2.602173256584698890e-01,5.186617685164829350e-01,-1.011949172433185273e-02,-1.374774728466854889e-01,5.616519015930807046e-02,2.717867958369651199e-02,5.273730754852294922e-01
4.431897174762391423e-01,4.569859326691084189e-01,-7.784222369292770338e-03,3.851476808906634762e-03,-6.818166890057187094e-04,2.015355845272046075e-04,4.580781459808349609e-01
2.806793732067159874e-01,5.593813211019486031e-01,-1.138494412410900880e-02,-8.241145909325189867e-02,3.336391833689325570e-02,2.292036349139259244e-02,5.192934274673461914e-01
4.239453820239674764e-01,5.045407097712768518e-01,-1.594595283972927158e-02,-1.495402993190587775e-02,2.549388616135335461e-02,2.111063272730562962e-02,4.892962574958801270e-01
4.284117524532656818e-01,4.989000426127513377e-01,-3.181366749966413332e-02,-9.468862655727312058e-04,1.321136992606978741e-02,4.052565664548655848e-03,4.997920691967010498e-01
2.718732365687990815e-01,5.625227073186396254e-01,2.671534253732399389e-03,3.470586352433881888e-03,-1.150930271761830583e-02,7.935410219263019579e-03,4.856052398681640625e-01
2.984873103316504350e-01,5.314458814542784015e-01,-1.074595530206723382e-03,-1.107701754261532397e-02,1.865026303698570989e-02,1.533021664504592013e-02,4.646602869033813477e-01
3.091496233702486496e-01,5.145230767872199795e-01,-6.795467027076451672e-04,-2.716842424503233475e-02,2.254159983440628262e-02,1.592768130112308042e-02,4.542057514190673828e-01
3.819927778340720392e-01,4.962383028960544729e-01,-1.509400214726680511e-02,-1.003959128118504969e-02,1.837383424088907466e-02,1.994327690452320917e-02,4.675507545471191406e-01
4.287128112563802773e-01,4.997950727757966005e-01,-2.885454276195748013e-02,-2.783463705836299040e-03,1.091238034750540917e-02,1.948052584281844074e-03,4.973302483558654785e-01
3.698772269002759128e-01,5.084868680076597425e-01,-1.633368512041472043e-02,9.228743993359617842e-03,2.197375554371994166e-02,-1.364749715873991550e-03,4.728780984878540039e-01
4.680478184446442147e-01,4.384640990007465100e-01,-1.471921243689111591e-02,2.668092156767855154e-03,8.479286188458730333e-03,-4.633391820192744176e-03,4.689974486827850342e-01
4.910128603790752111e-01,4.041514355409895343e-01,-2.144920285602808230e-02,1.002055850460875988e-02,7.924906458413011334e-03,-1.541498793086149531e-02,4.762894213199615479e-01
4.679690262420138636e-01,4.364403948346823325e-01,-1.487907881579469960e-02,1.718503963509232513e-02,9.010442773794183693e-03,-6.644504888493462692e-03,4.692278802394866943e-01
4.753922683923151871e-01,4.640090150751142728e-01,-2.602337298773815810e-02,1.903860398418140334e-03,3.563885776591500017e-03,-3.870916916031254609e-03,4.959167540073394775e-01
4.620761595800301214e-01,4.518033011646104824e-01,-2.220930863716341630e-02,8.984408966192148141e-03,3.420745011509714831e-03,-4.924986152024224059e-03,4.795966744422912598e-01
5.898052271338656283e-01,2.987976778672134515e-01,-4.250182377967998137e-02,-1.778949803377189928e-02,-6.095974909087595664e-03,-8.464397228779766205e-03,5.493335127830505371e-01
6.689092278194848085e-01,2.309865837191028282e-01,-1.873978834285383588e-02,-9.991499371471548874e-02,-1.428226208713351437e-02,-6.228276826924612763e-02,6.369448304176330566e-01
4.417759304864941061e-01,4.748512188848027504e-01,-2.084710057731081756e-02,1.672753958125150486e-02,-1.476117095608037687e-02,1.413384252913282152e-02,4.821906685829162598e-01
4.261049242576673279e-01,4.527530360082617777e-01,-5.314075147346331018e-03,2.284536761826751888e-02,-8.875698815014381945e-03,7.421772027389313131e-03,4.475447237491607666e-01
4.317042007539555470e-01,4.429356095171125274e-01,-8.486667947958770331e-03,-6.105486191656725459e-03,4.842646552606014697e-03,6.697206158547603684e-03,4.462676942348480225e-01
4.106475030017461281e-01,4.208762290456502519e-01,1.083497869296556892e-02,-8.946565627021875466e-02,1.680053023478461638e-02,1.155033804074274452e-02,4.350903034210205078e-01
4.813352069639196817e-01,4.531328235427926621e-01,-1.629495255428842215e-02,2.886207222772328371e-02,-1.058076046178826023e-02,5.569757216390778393e-03,4.871599078178405762e-01
4.847039366421616591e-01,4.835296672304773002e-01,1.110821257697652831e-02,3.663816273007258913e-04,3.227229243926238011e-03,1.537220047614980961e-02,4.737918674945831299e-01
4.616851534946221358e-01,4.408109328448666098e-01,-1.792048935321943759e-02,-3.765960363096238894e-03,7.240368835734608752e-03,1.874032867872590068e-03,4.697406291961669922e-01
4.515695375657095556e-01,4.277019510952756454e-01,-1.078975050837854832e-02,-4.536947071248320987e-03,1.219710842757288326e-02,4.854518164315304793e-03,4.515408277511596680e-01
4.664323671310467989e-01,4.739572898305177695e-01,-4.075343117781138336e-02,1.383106615294260903e-03,2.070967288963574803e-03,1.328313440416406923e-03,5.110132098197937012e-01
4.626874177327957582e-01,4.630464454191003387e-01,-3.642414591012987923e-02,-1.919002254369062057e-04,3.042322561965082189e-03,2.766864553609432991e-03,4.993420839309692383e-01
4.710417729968782719e-01,4.528748704115154178e-01,-2.037549162357477073e-02,-1.151123533098650197e-02,1.004981241278551235e-02,1.197258299117231854e-02,4.837602674961090088e-01
3.955861713067473362e-01,5.573753747080049115e-01,3.742349621610063792e-02,-2.436071832980056528e-02,2.845292416846739031e-02,4.338762543344785311e-02,4.714441597461700439e-01
6.137524449838096530e-01,1.383927810277766624e-01,-3.692893333509766896e-02,5.623383760377149987e-02,1.295585896725540490e-02,3.258197399936818561e-02,5.943235158920288086e-01
5.206615917676659100e-01,3.675237788922715021e-01,-1.908294693440909517e-02,-9.310742894303689369e-04,3.298451777291684130e-03,3.458912213246337353e-02,4.855352938175201416e-01
5.438962454815584602e-01,2.979200805382363204e-01,2.876970268224643412e-03,1.923945598313204358e-02,5.292967094670797228e-03,7.549349217639602858e-03,4.706312417984008789e-01
5.190412483528210608e-01,3.314108532139770080e-01,1.723720557348484839e-03,4.037016362846547121e-03,3.620114591831365396e-03,-8.471644620536411931e-04,4.537052512168884277e-01
5.504456584214335590e-01,2.343053877803892016e-01,-9.270615752863253789e-04,1.182905575787189696e-02,4.814949359533123550e-03,2.271047293393986619e-03,4.797397553920745850e-01
4.813353893232439340e-01,4.673757844332359634e-01,-2.863683193184862752e-02,5.910220519206955741e-04,-2.444913912623716237e-04,-1.917628951527567023e-03,5.031498670578002930e-01
4.819509271637809067e-01,4.650362800076375258e-01,-2.875453810552958123e-02,-3.785635893361697637e-04,-3.603931126042216049e-04,-1.359834746525772709e-03,5.024680495262145996e-01
4.846168827507348897e-01,4.583915265946654216e-01,-3.120737572504667101e-02,1.515529025782628037e-03,-3.923969005083481620e-04,2.044816015505348714e-04,5.032317638397216797e-01
4.536957633187510552e-01,4.550639623196484074e-01,-1.292359181102115118e-02,1.015205178752718110e-02,-3.610800660331886774e-03,5.112444653906209405e-03,4.677613079547882080e-01
5.040317451926512593e-01,4.551482455806684646e-01,-1.304907490263207404e-02,1.800209628401879328e-02,8.358064549840885180e-04,-1.488477901707890849e-02,4.961093068122863770e-01
4.784111607142919054e-01,4.633150256449715121e-01,-1.333165823287624230e-02,1.094920582698483136e-02,-2.787567063359184128e-03,-3.986007675892338370e-03,4.848155379295349121e-01
4.737498560478569654e-01,4.786897331716086779e-01,1.204655972922585860e-02,1.143373655992623548e-03,-1.229912613291662623e-04,-1.073635656636249408e-02,4.645695388317108154e-01
4.237782657088072780e-01,5.043318458389728365e-01,-3.004086609614459169e-02,-1.100394936347735136e-02,1.916966583094481882e-02,1.506628100921560132e-02,5.011427998542785645e-01
4.785195706091494028e-01,4.801929467449414513e-01,-1.324726672850129461e-02,8.155374330232067343e-03,5.823032373863364433e-03,-1.325110982949607562e-03,4.929166734218597412e-01
4.907252975828422237e-01,4.666331358701376608e-01,-1.882116681475376474e-02,-1.436860607222409381e-03,1.481432690082896964e-02,1.693390126210170266e-02,4.994665384292602539e-01
4.774650029445364763e-01,4.821818614356408461e-01,-1.608646692629406294e-02,1.667922043798111147e-04,-1.427005000232000091e-04,2.608480578990812152e-03,4.959474503993988037e-01
4.672491568802968898e-01,4.628235796600480567e-01,-3.477015204226169276e-02,-7.867974589486544448e-03,8.237320957787447676e-03,6.004813680726397464e-03,5.003185868263244629e-01
4.696857354009078556e-01,4.739866049567249551e-01,-4.059204704761171234e-02,4.569365158088099614e-04,1.563967992622971323e-03,1.483014262423457260e-03,5.124559402465820312e-01
4.654550316108839736e-01,4.795618114692971057e-01,-3.749585384663450816e-02,5.580349783179832691e-03,4.295273658935334742e-03,6.831988009987017933e-03,5.104335546493530273e-01
4.642320112874044336e-01,4.751768090045110915e-01,-3.912726942487559922e-02,1.115843654846758893e-03,7.373248054928576226e-03,7.833090065455036374e-03,5.092645883560180664e-01
4.656655051213165475e-01,4.688278871285214144e-01,-4.113203683973748470e-02,1.442884281630714589e-03,1.947862560569104718e-04,2.498222218964160201e-03,5.084107518196105957e-01
4.612349945720442546e-01,4.693321597584991234e-01,-3.736606931282804300e-02,-8.213977224545039590e-04,3.702386162410426472e-03,7.193483288525244143e-03,5.028958320617675781e-01
4.769880872438147512e-01,4.701282844531946559e-01,-1.869686137849269070e-02,-3.933785070398982406e-04,3.562876085878776290e-04,1.470442708821322140e-03,4.922983348369598389e-01
4.812810124408129497e-01,4.463182787111985572e-01,-2.416528269200868273e-02,2.131761004721875047e-03,7.315864400941901255e-03,-4.834737822648946769e-03,4.891532361507415771e-01
4.774732779263584082e-01,4.703882526474206793e-01,-2.919133569616577661e-02,-3.246035757648870162e-04,1.557453483654034016e-03,-3.022726582280210478e-04,5.031673312187194824e-01
4.795652340393399826e-01,4.667251427043884182e-01,-2.897198899993114196e-02,-4.290784254419033328e-04,8.164993832091474012e-04,3.526980058221855919e-04,5.022432208061218262e-01
4.781476163853857764e-01,4.683200366487884070e-01,-2.895870111060971919e-02,-5.302380967381797915e-04,1.326897132374693297e-03,-1.566344861770869567e-04,5.022708177566528320e-01
4.803499047513548059e-01,4.687951522377603597e-01,-2.740423017115828364e-02,-4.960746762287195126e-05,1.122306212501419237e-03,-1.163801117482651326e-03,5.020843148231506348e-01
4.750137651606644029e-01,4.606730693633177554e-01,-2.418913692947455285e-02,2.145661015355456586e-03,6.092656691652813261e-03,-4.375428774094780246e-03,4.923747479915618896e-01
4.807085797134117433e-01,4.674004440742397515e-01,-2.747484832565050272e-02,-6.317620258145919057e-04,1.050672517099408756e-03,-8.073578193682804478e-04,5.016682147979736328e-01
4.826741644295431399e-01,4.672957315276045076e-01,-2.815113098628946320e-02,5.739016267866074586e-04,4.710669864192098969e-04,-1.924684328052933633e-03,5.033249855041503906e-01
4.718171793859963215e-01,4.669675742120145134e-01,-2.954736322436313234e-02,7.750452971485978591e-04,1.920240940145625770e-03,-1.582140300596394239e-03,4.989778399467468262e-01
5.222604124705650941e-01,3.170584284765206595e-01,-2.055218934948749299e-02,1.449385125255634723e-03,-7.662837594244057207e-03,5.878753751833096924e-02,4.857134222984313965e-01
4.892143285704753097e-01,4.204313989756071623e-01,-2.890977279726886229e-02,-1.102052794654262945e-02,8.981365797942883478e-03,1.871250475276986514e-02,4.890832304954528809e-01
4.535182904410907656e-01,3.741600001911541962e-01,-6.624630777832485329e-03,-4.699457397628575839e-02,2.966119464241648990e-02,2.853327534089305714e-02,4.395683705806732178e-01
4.835301718943416094e-01,4.606180156692213368e-01,-3.665376837339318072e-02,-2.343419814158283123e-03,6.535271969059624694e-03,5.797478874330085769e-03,5.093556642532348633e-01
4.938033183430193818e-01,3.594117767262489105e-01,-1.708453097057505143e-02,-5.144111267427947665e-02,2.249653285446688231e-02,3.534119411853278020e-02,4.728766381740570068e-01
4.788816815845493569e-01,4.039039843424152010e-01,-9.931610693826364855e-03,-2.807939352613607331e-02,2.169523523888664332e-02,1.063293386476286788e-02,4.604634344577789307e-01
4.572409338675570423e-01,3.293462792824937146e-01,8.642035305197859341e-03,-8.894191902131638738e-02,1.394767116887782148e-02,1.735746025802470047e-02,4.306321740150451660e-01
5.540267826221265679e-01,1.965580428947538150e-01,-2.917363360492281066e-02,-1.183656323999089932e-01,9.380442098301201501e-03,-1.853372515764871789e-02,5.502330660820007324e-01
4.301058760418522975e-01,4.554334390514094277e-01,-4.150014466581197770e-03,8.211871801334117912e-03,-3.883905614345270398e-03,6.243018709098933569e-03,4.478647112846374512e-01
5.251990765902169178e-01,5.096850326404432918e-01,-5.703751367019838092e-03,2.543124588294014554e-01,-4.198682743521172517e-02,3.251218469508560666e-02,6.901784539222717285e-01
3.851471512484886950e-01,4.982708119399136271e-01,-1.899978261704010629e-02,1.926594688818679055e-02,-1.778346519920417923e-02,1.221758580776392822e-02,4.736669659614562988e-01
5.679654180898749960e-01,3.689341871453675203e-01,-9.722448930105709319e-03,7.832058826649355987e-02,-6.852168474067121123e-03,7.750657219278941565e-03,5.263859629631042480e-01
5.049056311887412107e-01,3.792567949648196768e-01,-1.001986819572370235e-02,6.614438201246150562e-02,5.073128905418461225e-03,2.456328324917402689e-02,4.808831810951232910e-01
4.888894115972081122e-01,4.381419004153126462e-01,-1.431665023883393895e-02,1.109176388637946598e-01,-1.123098069334092439e-02,1.660572745265362013e-02,5.180434584617614746e-01
4.853344949952310139e-01,4.278509138937036105e-01,-1.370731082483150898e-02,3.281053060703390672e-02,-1.302227523036120216e-02,8.718555546135547604e-03,4.771024584770202637e-01
5.392217193838571010e-01,3.789341474600649851e-01,-2.052159734769987143e-02,4.795109661560000014e-02,-1.753394897645952147e-02,3.595886455640982804e-02,5.108661055564880371e-01
4.567670067597764949e-01,4.642515151648541338e-01,-3.291275302536172953e-02,2.491963380449099992e-03,1.195474574109148648e-03,5.877036424766349243e-03,4.935927689075469971e-01
4.247445719861878688e-01,4.307749874804401857e-01,-1.321829659312262484e-02,-2.672755983495708060e-02,8.516530925261774770e-03,1.078706428662871281e-02,4.440706074237823486e-01
4.685971598643362546e-01,4.708759056167168833e-01,-3.840866137281012671e-02,1.076563051932918035e-03,4.213746006745957944e-03,4.719558805608898601e-03,5.082706212997436523e-01
4.548278465262520776e-01,4.717646624358200480e-01,-3.541158262119220579e-02,-5.189950042741157434e-03,8.559027340701266112e-03,1.025679794399324274e-02,4.995406270027160645e-01
4.733401399253980291e-01,4.706653592072658765e-01,-3.987904092717103888e-02,1.362889427013476169e-03,3.097822657477054646e-03,1.396985547990717367e-03,5.119262933731079102e-01
4.734381263785963911e-01,4.726364555912447862e-01,-3.335692921697708258e-02,2.075999881555118647e-03,-7.463649486268943882e-04,1.279922599351276252e-04,5.064091682434082031e-01
4.635974726891236020e-01,4.701066096528498939e-01,-3.535003538274683610e-02,-1.137407047960638961e-04,6.189735460191676461e-03,7.269613330783370603e-03,5.025059580802917480e-01
4.274759019903990875e-01,4.634513034082332616e-01,-1.019989167188556367e-02,-1.451953332265101641e-02,1.549179063755400446e-02,1.837849611758915827e-02,4.593099653720855713e-01
4.629108318060783933e-01,4.413982666642514152e-01,-2.443648910846335509e-02,-1.276655749033523378e-02,1.192871146235170363e-02,6.369291729977283496e-03,4.780414700508117676e-01
4.821672733947551803e-01,4.413985338506824507e-01,-2.327264144889079622e-02,6.238369436795488353e-03,-7.590409191639479677e-03,-2.132081295366789267e-03,4.866504669189453125e-01
5.273374272313123834e-01,2.946260430336347103e-01,-2.793143057035657462e-02,-1.324688896255007131e-01,-3.649782684571471758e-02,-6.854386069094958733e-02,5.513581037521362305e-01
5.679496851800580615e-01,2.226316714973559652e-01,1.890471195987880604e-02,-1.084080186798538070e-01,-3.062141201208378599e-02,-5.425532244203522259e-02,5.272576212882995605e-01
4.552176241436722837e-01,4.630349443774883778e-01,-1.590338179150679876e-02,5.155342214426732704e-03,-7.926976291119127577e-03,8.947994829416331536e-03,4.756127297878265381e-01
4.854992639854348591e-01,4.764976913880535347e-01,3.291859235466548794e-02,4.525960567995827334e-03,-6.885283010502927376e-03,1.761088743155246172e-03,4.483852386474609375e-01
6.601918166658675702e-01,1.810717753645335326e-01,-2.352582287460475152e-02,-1.348302021944138007e-01,1.356412387380742700e-03,-8.557180332050639757e-03,6.513108015060424805e-01
5.074609644363965444e-01,3.530855224564876105e-01,-2.134370609924518547e-02,-3.833697266010466231e-02,-1.014796030650670124e-02,-1.621664616200245781e-02,4.768005311489105225e-01
5.591115589862138968e-01,2.766613122433018712e-01,9.236420799274003279e-04,-8.899872446139582560e-02,-3.483953561982387065e-02,-2.720795304894095198e-02,5.131433606147766113e-01
5.317076516788361573e-01,4.021571435147900386e-01,-2.522750777431603808e-02,-6.363610056586542496e-02,-1.917618998717995557e-02,-4.364692422113169989e-02,5.232359766960144043e-01
4.764229583886790964e-01,4.697464834105764542e-01,-2.193823397484229165e-02,2.796797475988084623e-03,-1.389550038366324253e-03,4.336948225551374644e-03,4.951432645320892334e-01
5.034273366560348961e-01,4.161417389845059600e-01,-2.339629577697255325e-02,1.729575342469964749e-02,-3.564472565592166371e-03,-2.881174665522262535e-03,4.900390207767486572e-01
4.762616285446998887e-01,4.679664630606747977e-01,5.733096759859135361e-02,2.867672547585867638e-03,3.230275067675905578e-03,1.371297879389347246e-02,4.155920147895812988e-01
4.922100769848327673e-01,4.661268340547433109e-01,-8.032282888102648677e-03,3.734003779298839063e-03,-8.919758278365929119e-03,-9.727371061519215351e-03,4.883023500442504883e-01
5.038228333109806556e-01,4.061406785837568534e-01,-2.005538915526472454e-02,4.834558056943297384e-03,-1.003225491891687055e-02,1.673315059667130483e-02,4.837651252746582031e-01
4.824039332661763657e-01,4.513535332953819701e-01,-1.652360057339691268e-02,2.029542897652947611e-02,-1.096219868291579622e-02,1.372521739208939877e-02,4.863766729831695557e-01
4.794279935669199522e-01,4.767769406012969946e-01,-2.269838455341949279e-02,6.499628752716062573e-03,-1.839732544745266646e-03,-3.282657746543483305e-03,5.009750127792358398e-01
4.912205795833525235e-01,4.510981861596997100e-01,3.551388486546297463e-02,-3.070870548414354750e-02,1.346773834294051272e-02,2.049121741346686745e-02,4.422976672649383545e-01
4.805821337977937979e-01,4.766743342432793185e-01,2.073783974283244236e-02,3.587788807141366939e-03,6.168362674332572571e-03,2.664479250980494179e-03,4.580929279327392578e-01
4.711576425406104329e-01,4.536924310334775612e-01,-3.530048080677039568e-02,-5.932250594291382621e-03,9.686820186936867527e-03,9.589115323993835718e-03,4.986204802989959717e-01
4.551911235166152814e-01,4.714472205878147415e-01,-3.044168159975557675e-02,-5.235340761321936702e-03,7.978956153758940198e-03,1.280463288923190321e-02,4.947353601455688477e-01
4.756808375680684486e-01,4.797662218610295182e-01,1.446264032983146652e-02,5.824642234160377387e-03,-8.211991065385993577e-03,-1.070268235541598466e-03,4.636061787605285645e-01
4.698812061263852313e-01,4.576426863540470347e-01,-3.380435598625625149e-02,-1.463781550117721061e-03,9.100020645523017315e-03,6.523816281404772955e-04,4.979364275932312012e-01
4.787796721015799006e-01,4.691388931043802835e-01,-3.919747489830532894e-02,3.842644001309479095e-03,3.237194729367039517e-03,-1.765707978182117757e-04,5.132985711097717285e-01
4.732144629885133291e-01,4.642439681865194179e-01,-4.006203107429778809e-02,3.883518418801698915e-03,3.530552096552258979e-03,3.928814287097517075e-04,5.089322328567504883e-01
4.754458850608345166e-01,4.671822485489460774e-01,-3.971802197475149399e-02,8.696555071463847771e-04,3.753695113316527637e-03,1.976874409154529856e-04,5.111258625984191895e-01
4.467461965954305780e-01,4.171340259909430692e-01,-2.423882408104705011e-03,-2.392949477564761118e-02,6.746595704880208218e-03,1.448184025934610465e-02,4.379649758338928223e-01
4.805356511081129156e-01,4.464855426814345885e-01,-3.762183103754268565e-02,-3.403693687398356288e-02,7.277011920249105981e-03,8.127323946821546179e-04,5.056082010269165039e-01
4.802428148977799793e-01,4.766379672377498711e-01,-3.265044369550990089e-02,5.893134677582571174e-03,3.081530604751624939e-03,4.857821012161999720e-03,5.112993717193603516e-01
4.930493542426892528e-01,4.907970106540635591e-01,4.320682909041151376e-02,-5.275976853885385939e-03,-1.121987129649368135e-02,2.455430604243334143e-05,4.492341578006744385e-01
2.749935839421320249e-01,6.612323156129504831e-01,-4.602039733287921486e-02,8.866196092945845264e-02,2.359666799318251018e-02,-2.499538483475483713e-02,6.350951790809631348e-01
3.687803340197730040e-01,5.342046033698900631e-01,-1.922780633949461304e-02,4.728543198366377126e-03,2.198886496080476941e-02,1.433378525703711548e-02,4.942018389701843262e-01
4.404915461548075672e-01,4.895780188748631301e-01,-2.632706807409923577e-02,4.104012947030903115e-03,8.968107213780818904e-03,-7.436686865353741432e-03,4.936611354351043701e-01
2.546429669744406654e-01,5.375783257259707515e-01,-2.513747595964788140e-03,-6.849137058197476979e-02,1.022154727915414304e-03,1.192359643147382006e-02,4.831599891185760498e-01
3.565395406191479433e-01,4.945003046707340810e-01,-7.491014502692960875e-03,-1.087899139179370270e-02,-1.435591706453319752e-02,-1.454323764743507483e-02,4.509780406951904297e-01
3.944698147143342881e-01,4.872663786059274749e-01,-2.151854331533481490e-02,-6.473471571095236812e-03,-1.529652977009826262e-02,-1.522462491512808526e-02,4.709382653236389160e-01
3.307241457634437776e-01,5.219542309860043527e-01,-8.088140558715317674e-03,-7.473304417046348902e-03,-2.192097570558438485e-02,-5.158445365288446410e-03,4.667363166809082031e-01
3.512157105009791613e-01,5.287323093912565941e-01,-1.194350937317334438e-02,-7.836714746702553788e-03,1.421851084658528035e-03,-1.185392604770566048e-03,4.775542616844177246e-01
3.762419378272081616e-01,5.272838831706434526e-01,-2.374070081477591687e-02,-3.827366868015170173e-03,-2.300844543722008542e-02,2.358458066184174952e-05,4.948192238807678223e-01
4.810345472281346568e-01,4.527543396236800022e-01,-2.860160085274399133e-02,-1.012202130963063031e-02,-2.334636479160284370e-02,-2.430663856123834246e-02,4.998310804367065430e-01
5.018794248653022372e-01,4.280196634494720653e-01,-2.202299812252195288e-02,8.434284116579048723e-03,4.516101066769915781e-03,-9.501336433782370250e-03,4.917104244232177734e-01
4.825422936431424947e-01,4.687344624418932071e-01,-2.511598440380008457e-02,1.320410737263524479e-03,-4.981137617309613214e-03,-1.037749447985940841e-02,5.012989640235900879e-01
5.129778281876489210e-01,4.532484880945248928e-01,-2.543714720625012138e-02,9.131232100771751597e-03,-8.260101926748495394e-06,-1.608897256619015032e-02,5.121775269508361816e-01
5.047454635149521973e-01,3.963086459140043871e-01,-2.082332712141604647e-02,3.180532914622617464e-03,8.959114702396648450e-03,-1.289530057823592285e-02,4.814146757125854492e-01
4.825844167171260968e-01,4.490356458588706801e-01,-3.293929724530353376e-02,-4.218392012457393252e-03,-4.556151473656303019e-03,-8.772333323419099008e-03,4.999415576457977295e-01
5.158321403397246874e-01,3.782459803716206048e-01,-2.232734155813459465e-02,-1.444298063145937156e-03,-1.253082296171484020e-03,-2.279665943347947837e-02,4.858727455139160156e-01
2.339296791396939246e-01,6.246321422656117006e-01,1.188441249948385403e-02,-1.776329290077084400e-01,2.192210756868225258e-04,-5.367807279620129268e-02,6.261075735092163086e-01
3.259084350586612389e-01,5.499106614629478695e-01,-2.366484329837237333e-02,-1.773825963143394607e-02,-3.707606439866322628e-02,-9.540938273787637203e-03,5.059887170791625977e-01
3.474087881059628735e-01,5.718791283440207707e-01,-2.036652287466661493e-02,-4.343883585542560738e-02,-3.229464221119592027e-02,-1.421939428743866293e-02,5.268742442131042480e-01
2.695635323064112243e-01,5.368248954285875785e-01,-1.015257519490986304e-02,-6.492407019748804020e-02,-5.070159137911758179e-02,-2.713642092849777310e-02,4.969844520092010498e-01
3.419006452768960647e-01,5.205401388242939520e-01,-3.160763243747627405e-02,-7.058841010565038154e-02,-2.269601791214003600e-02,7.507730184253468171e-03,5.047835707664489746e-01
2.982345574778634822e-01,5.389079005802773770e-01,5.347394377541170307e-03,-5.980035885257886825e-03,-1.107525588831519397e-03,4.706550518364898197e-03,4.630055129528045654e-01
2.393839651110445388e-01,6.310895157261131594e-01,-1.500949882809615721e-02,-4.076645849286647527e-02,-3.637125400076658688e-02,-9.866869775103453977e-03,5.718767046928405762e-01
1.698702447699881046e-01,5.801641980800338327e-01,-1.143770752623883835e-01,-8.817312684573148929e-02,-2.200129010376796965e-02,7.103777638142906581e-02,6.369280815124511719e-01
1.696791304409663026e-01,5.981354774153813114e-01,-3.142692976228950164e-02,-8.932764044065059916e-02,-2.202578238238528732e-02,1.268526677283991592e-02,5.797069072723388672e-01
4.811265772070444369e-01,4.720103022915647095e-01,6.626174505117105040e-02,5.100142725621265548e-03,5.638360531128172939e-03,-8.575661940002421435e-03,4.108624458312988281e-01
4.828385168426619911e-01,4.823639985502142791e-01,-6.032609035607316983e-03,9.494105144329963858e-03,1.078233254231616457e-02,-1.150926942999453383e-02,4.896731674671173096e-01
4.785921485653689134e-01,4.595106953166020469e-01,-2.133482867806929528e-02,-4.090259553445351783e-03,1.091883365641792281e-02,8.904632144115810430e-03,4.913221895694732666e-01
