sxx,syy,szz,sxy,sxz,syz,smises
0.000000000000000000e+00,0.000000000000000000e+00,0.000000000000000000e+00,-4.048204010200520768e-81,1.899113549151959789e-67,9.495567745759798945e-68,0.000000000000000000e+00
