sxx,syy,szz,sxy,sxz,syz,smises
5.367466666666078235e-04,5.367466666666078235e-04,-1.073493333333215647e-03,1.602560000000000052e-03,-8.031999999999996087e-02,-8.031999999999996087e-02,1.967691779136657715e-01
