sxx,syy,szz,sxy,sxz,syz,smises
-2.191544298782824307e-02,-2.191544298782824307e-02,2.838308859756575320e-01,1.110190010760720715e-36,5.772988055955455585e-37,5.772988055956040252e-37,3.057463169097900391e-01
