sxx,syy,szz,sxy,sxz,syz,smises
6.666666666665932439e-05,6.666666666665932439e-05,-1.333333333333186488e-04,1.999999999999997927e-04,-1.999999999999999001e-02,-1.999999999999999001e-02,4.899142682552337646e-02
