sxx,syy,szz,sxy,sxz,syz,smises
3.594760056808350701e-02,3.594760056808350701e-02,1.293547988638334978e-01,-2.327972233845195987e-37,-1.181301514128724616e-37,-1.181301514128663435e-37,9.340719878673553467e-02
