sxx,syy,szz,sxy,sxz,syz,smises
2.193427888096398902e-03,2.193427888096398902e-03,-4.386855776192193253e-03,3.205361780040381567e-03,6.989746745949340645e-02,6.989746745949340645e-02,1.714294552803039551e-01
