sxx,syy,szz,sxy,sxz,syz,smises
0.000000000000000000e+00,0.000000000000000000e+00,0.000000000000000000e+00,-4.747783872879898649e-68,2.373891936439915557e-68,2.373891936439915557e-68,0.000000000000000000e+00
