sxx,syy,szz,sxy,sxz,syz,smises
-2.584600965879735313e-02,-2.584600965879735313e-02,3.216920193175954457e-01,-1.811260092509324279e-37,-8.974668994360271554e-38,-8.974668994364955157e-38,3.475380241870880127e-01
