sxx,syy,szz,sxy,sxz,syz,smises
7.290116371670394028e-04,7.290116371670394028e-04,-1.458023274333943931e-03,2.187034911500954169e-03,3.645058185834923470e-02,3.645058185834923470e-02,8.939240127801895142e-02
