sxx,syy,szz,sxy,sxz,syz,smises
-2.440861316062210851e-02,-2.440861316062210851e-02,2.888172263212451796e-01,-5.421615432730617109e-71,-1.930407303368002864e-67,-2.720673183790674314e-138,3.132258355617523193e-01
